Species order: N B                      
   2.51242800000000     
     5.9449720136058266    0.0000000000000000    0.0000000000000000
    -2.9724860068029120    5.1484967885702053   -0.0000000000000001
     0.0000000000000000    0.0000000000000009    5.3101128803662583
   N    B 
   143   143
Direct
  0.1111113064592962  0.0555510562539803  0.1252846967618082
  0.6111291675787245  0.5555614057392614  0.1266870599364912
  0.4444319278094761  0.0555525466949039  0.1253419323034172
  0.9444764417496901  0.5555772415151827  0.1252418162642799
  0.7777636973748683  0.0555485153541020  0.1252225496748043
  0.1111301909407994  0.7222317621370639  0.6247789732058400
  0.4444319278094761  0.7222127144479074  0.6246580676965823
  0.2777777996649133  0.2222324780206763  0.6238031695343669
  0.7777982091064414  0.7222190572464485  0.6245765891570836
  0.6111052861449473  0.2222321067692530  0.6244884852632083
  0.9444418518395732  0.2222285785086291  0.6248186216077105
  0.2777757037338065  0.7222169617063254  0.1252662826207808
  0.1111050348296888  0.2222191840815088  0.1253769160638926
  0.4444556055828306  0.2222333698330463  0.1263166333832285
  0.6111052861449473  0.7222065127090224  0.1255115147367918
  0.9444764417496901  0.7222325335678443  0.1252418162642799
  0.7777724572488846  0.2222317558121805  0.1251991885071176
  0.1111263959993717  0.8888936844386471  0.6247437687602496
  0.4444266064535275  0.8888799698934281  0.6248254872695237
  0.2777777996649133  0.3888786549775657  0.6238031695343669
  0.6111291675787245  0.3889010951727918  0.6233129400635086
  0.7777724572488846  0.8888740347700339  0.6248008114928835
  0.9444593135932612  0.3889076845307264  0.6248162332608308
  0.1111113064592962  0.3888935835386448  0.1252846967618082
  0.2777757037338065  0.8888920753608083  0.1252662826207808
  0.6110865670897181  0.8888699090958621  0.1252067948296509
  0.4444706088455854  0.3889019710894566  0.1261461828459676
  0.9444593135932612  0.8888849623958625  0.1251837667391691
  0.7777982091064414  0.3889124851933209  0.1254234108429171
  0.2777853196840639  0.5555462526233342  0.6243765728505244
  0.1111113064592962  0.0555510562539803  0.6247153032381917
  0.6111291675787245  0.5555614057392614  0.6233129400635086
  0.4444319278094761  0.0555525466949039  0.6246580676965823
  0.9444764417496901  0.5555772415151827  0.6247581837357201
  0.1111263959993717  0.5555660448940549  0.1252562312397509
  0.7777636973748683  0.0555485153541020  0.6247774503251956
  0.2777853196840639  0.0555724003940649  0.1256234271494757
  0.4444556055828306  0.5555555690831193  0.1263166333832285
  0.7778093286441841  0.5555713309887595  0.1256664254697440
  0.6110865670897181  0.0555499913271839  0.1252067948296509
  0.4444556055828306  0.5555555690831193  0.6236833666167707
  0.9444418518395732  0.0555466066642799  0.1251813783922895
  0.2777757037338065  0.7222169617063254  0.6247337173792200
  0.1111050348296888  0.2222191840815088  0.6246230839361075
  0.4444556055828306  0.2222333698330463  0.6236833666167707
  0.6111052861449473  0.7222065127090224  0.6244884852632083
  0.9444764417496901  0.7222325335678443  0.6247581837357201
  0.7777724572488846  0.2222317558121805  0.6248008114928835
  0.1111301909407994  0.7222317621370639  0.1252210267941600
  0.4444319278094761  0.7222127144479074  0.1253419323034172
  0.2777777996649133  0.2222324780206763  0.1261968304656329
  0.7777982091064414  0.7222190572464485  0.1254234108429171
  0.6111052861449473  0.2222321067692531  0.1255115147367918
  0.9444418518395732  0.2222285785086291  0.1251813783922895
  0.1111113064592962  0.3888935835386448  0.6247153032381917
  0.2777757037338065  0.8888920753608083  0.6247337173792200
  0.6110865670897181  0.8888699090958621  0.6247932051703489
  0.4444706088455854  0.3889019710894566  0.6238538171540321
  0.9444593135932612  0.8888849623958625  0.6248162332608308
  0.1111263959993717  0.8888936844386471  0.1252562312397509
  0.7777982091064414  0.3889124851933209  0.6245765891570836
  0.4444266064535275  0.8888799698934281  0.1251745127304761
  0.2777777996649133  0.3888786549775657  0.1261968304656329
  0.2777853196840639  0.5555462526233342  0.1256234271494757
  0.6111291675787245  0.3889010951727918  0.1266870599364912
  0.7777724572488846  0.8888740347700339  0.1251991885071176
  0.9444593135932612  0.3889076845307264  0.1251837667391691
  0.1111263959993717  0.5555660448940549  0.6247437687602496
  0.2777853196840639  0.0555724003940649  0.6243765728505244
  0.7778093286441841  0.5555713309887595  0.6243335745302567
  0.6110865670897181  0.0555499913271839  0.6247932051703489
  0.9444418518395732  0.0555466066642799  0.6248186216077105
  0.0531094236920745  0.1096852188286981  0.3750000000000000
  0.5553054951564753  0.6061608461195336  0.3750000000000000
  0.3895825047381113  0.1143111355497828  0.3750000000000000
  0.8917118112749697  0.6125225723041563  0.3750000000000000
  0.7212636814659837  0.1110410374539558  0.3750000000000000
  0.0555532380370270  0.7777800880090653  0.8750000000000000
  0.3888995528406973  0.7777823618164889  0.8750000000000000
  0.2222212493926347  0.2777772913629852  0.8750000000000000
  0.7222239632753439  0.7777817900027054  0.8750000000000000
  0.5555588466403096  0.2777793358395662  0.8750000000000000
  0.8888912746457136  0.2777771593912013  0.8750000000000000
  0.2235956468952771  0.7784644901143067  0.3750000000000000
  0.0531094236920745  0.2767575381967122  0.3750000000000000
  0.3846953989181952  0.2786765146069096  0.3750000000000000
  0.5554606566955018  0.7758635095995744  0.3750000000000000
  0.8899966691595482  0.7782063813668917  0.3750000000000000
  0.7219531358998280  0.2786849588102160  0.3750000000000000
  0.0555552182293446  0.9444494494025741  0.8750000000000000
  0.3888995528406973  0.9444505243575428  0.8750000000000000
  0.2222243840336438  0.4444411181040608  0.8750000000000000
  0.5555586274092384  0.4444459803712835  0.8750000000000000
  0.7222260836805618  0.9444479454008458  0.8750000000000000
  0.8888869577032237  0.4444389706944450  0.8750000000000000
  0.0552992283000677  0.4442558113597045  0.3750000000000000
  0.2232827092673375  0.9459677390493505  0.3750000000000000
  0.5554181428619817  0.9443757380976543  0.3750000000000000
  0.3846953989181952  0.4393522176446210  0.3750000000000000
  0.8877380861712173  0.9434953916903752  0.3750000000000000
  0.7251515094816292  0.4470676769898160  0.3750000000000000
  0.2222264857239896  0.6111066714877710  0.8750000000000000
  0.0555540280034522  0.1111114025481052  0.8750000000000000
  0.5555588466403096  0.6111128441340795  0.8750000000000000
  0.3888958854785253  0.1111175972468711  0.8750000000000000
  0.8888813840188066  0.6111073586760751  0.8750000000000000
  0.0572556460186830  0.6117176447889194  0.3750000000000000
  0.7222260836805618  0.1111114716130517  0.8750000000000000
  0.2205681973906778  0.1109962632183159  0.3750000000000000
  0.3895825047381113  0.6086047025216711  0.3750000000000000
  0.7251515094816291  0.6114171658251479  0.3750000000000000
  0.5554606566955018  0.1129304804292632  0.3750000000000000
  0.3888958854785253  0.6111116215649964  0.8750000000000000
  0.8871465075537813  0.1102399204435622  0.3750000000000000
  0.2222284327787417  0.7777808830560389  0.8750000000000000
  0.0555540280034522  0.2777759587886824  0.8750000000000000
  0.3888912605418046  0.2777776149553440  0.8750000000000000
  0.5555620437300466  0.7777827015417651  0.8750000000000000
  0.8888869577032237  0.7777813203421143  0.8750000000000000
  0.7222239632753439  0.2777755066059736  0.8750000000000000
  0.0572556460186830  0.7788713345630989  0.3750000000000000
  0.3896095524836425  0.7772749414423072  0.3750000000000000
  0.2176482401210635  0.2754907867271993  0.3750000000000000
  0.7219531358998280  0.7766015104229465  0.3750000000000000
  0.5553054951564753  0.2824779823702775  0.3750000000000000
  0.8877380861712173  0.2775760278141776  0.3750000000000000
  0.0555552182293446  0.4444391021600996  0.8750000000000000
  0.2222264857239896  0.9444531475695537  0.8750000000000000
  0.5555636184617541  0.9444484758975416  0.8750000000000000
  0.3888912605418046  0.4444469789197966  0.8750000000000000
  0.8888912746457136  0.9444474485878482  0.8750000000000000
  0.0552992283000677  0.9443767502736921  0.3750000000000000
  0.7222153814207104  0.4444392527328386  0.8750000000000000
  0.3896095524836425  0.9456679443746704  0.3750000000000000
  0.2205681973906778  0.4429052675056978  0.3750000000000000
  0.2232827092673375  0.6106483035513226  0.3750000000000000
  0.7212636814659837  0.9435559773453643  0.3750000000000000
  0.8899966691595482  0.4451236211259922  0.3750000000000000
  0.0555532380370270  0.6111064833612986  0.8750000000000000
  0.2222243840336438  0.1111165992629189  0.8750000000000000
  0.7222153814207104  0.6111094620212077  0.8750000000000000
  0.5555620437300466  0.1111126755216165  0.8750000000000000
  0.8888924848104128  0.1111129090718779  0.8750000000000000
  0.1088359600470542  0.0545894162869332  0.3750000000000000
  0.6190840578465610  0.5628482233794763  0.3750000000000000
  0.4446753742431240  0.0566338410599815  0.3750000000000000
  0.9468375693193147  0.5563261298135056  0.3750000000000000
  0.7763673343007310  0.0548503338170331  0.3750000000000000
  0.1111178364123728  0.7222255848728513  0.8750000000000000
  0.4444557140942565  0.7222672166295462  0.8750000000000000
  0.2777189839024162  0.2221787200005605  0.8750000000000000
  0.7778155371932739  0.7222764479191388  0.8750000000000000
  0.6111410383924917  0.2221865487616939  0.8750000000000000
  0.9444232140614760  0.2222046218016934  0.8750000000000000
  0.2786173575419210  0.7223150929953551  0.3750000000000000
  0.1060915165692446  0.2197124249512866  0.3750000000000000
  0.4446572485092649  0.2245169759605219  0.3750000000000000
  0.6116787624985660  0.7216136391106286  0.3750000000000000
  0.9468375693193147  0.7238447728391442  0.3750000000000000
  0.7770798698974634  0.2218731948477278  0.3750000000000000
  0.1111017771405065  0.8888815231744026  0.8750000000000000
  0.4444576811137317  0.8888955072235297  0.8750000000000000
  0.2777189839024162  0.3888735972351843  0.8750000000000000
  0.6111412829502038  0.3888781364982047  0.8750000000000000
  0.7777980500687312  0.8889307396901400  0.8750000000000000
  0.9444489191073323  0.3888737455828156  0.8750000000000000
  0.1088359600470542  0.3875798770934492  0.3750000000000000
  0.2786173575419210  0.8896355978798947  0.3750000000000000
  0.6106874703874465  0.8882997127636665  0.3750000000000000
  0.9444864056631266  0.8892664171345851  0.3750000000000000
  0.7802836479337945  0.3890762545525284  0.3750000000000000
  0.2777542619990001  0.5555707074318612  0.8750000000000000
  0.1110685531122110  0.0555289057973308  0.8750000000000000
  0.6111412829502038  0.5555964797853279  0.8750000000000000
  0.4444557140942565  0.0555218307980465  0.8750000000000000
  0.9444677201032143  0.5555569602035668  0.8750000000000000
  0.1118416634727618  0.5554085057520741  0.3750000000000000
  0.7777895017230224  0.0555614175281788  0.8750000000000000
  0.2774101984653875  0.0562651296223269  0.3750000000000000
  0.4446572485092649  0.5534736058820787  0.3750000000000000
  0.7829662150940742  0.5581497742137055  0.3750000000000000
  0.6106874703874465  0.0557210909571092  0.3750000000000000
  0.4444462193872020  0.5556042319849888  0.8750000000000000
  0.9420274650430157  0.0542773152717832  0.3750000000000000
  0.2777777195189066  0.7222348861112636  0.8750000000000000
  0.1110500896251091  0.2221917114792190  0.8750000000000000
  0.4444462193872020  0.2221753207355488  0.8750000000000000
  0.6111410383924917  0.7222878229641262  0.8750000000000000
  0.9444677201032143  0.7222440932329820  0.8750000000000000
  0.7777980500687312  0.2222006437119199  0.8750000000000000
  0.1126675940368582  0.7230004636850936  0.3750000000000000
  0.4446753742431240  0.7213748665164773  0.3750000000000000
  0.2720118196326902  0.2203221627413610  0.3750000000000000
  0.7802836479337945  0.7245407267145958  0.3750000000000000
  0.6116787624985660  0.2233984567212669  0.3750000000000000
  0.9420274650430157  0.2210834831045684  0.3750000000000000
  0.1110685531122110  0.3888729806482086  0.8750000000000000
  0.2777777195189066  0.8888761667409729  0.8750000000000000
  0.6111343297914178  0.8889242113985073  0.8750000000000000
  0.4444427934805880  0.3888880634069584  0.8750000000000000
  0.9444489191073323  0.8889085068578461  0.8750000000000000
  0.1118416634727618  0.8897664910540157  0.3750000000000000
  0.7778155371932739  0.3888724226074631  0.8750000000000000
  0.4446400866075609  0.8889867099704440  0.3750000000000000
  0.2720118196326902  0.3850229902246579  0.3750000000000000
  0.2774101984653875  0.5544784021763975  0.3750000000000000
  0.6190840578465610  0.3895691678004129  0.3750000000000000
  0.7770798698974634  0.8885400083830639  0.3750000000000000
  0.9444864056631266  0.3885533218618696  0.3750000000000000
  0.1111017771405065  0.5555535872994330  0.8750000000000000
  0.2777542619990001  0.0555168879004741  0.8750000000000000
  0.7778215893776157  0.5555774613554763  0.8750000000000000
  0.6111343297914178  0.0555434517262397  0.8750000000000000
  0.9444232140614760  0.0555519255931175  0.8750000000000000
  0.0554497929867903  0.1110207306561461  0.1247270428385712
  0.5555998746481738  0.6112813963389460  0.1251861958077775
  0.3888300558400696  0.1109177072897739  0.1250103321871769
  0.8891121520285520  0.6112227426809473  0.1247193482971059
  0.7222253334473405  0.1110831255056957  0.1247599192999135
  0.0556315598639159  0.7777883185140027  0.6252234944999441
  0.3888383834424794  0.7778237258619792  0.6252287804827168
  0.2220400376354890  0.2776866854844123  0.6249076269015267
  0.7223169274141853  0.7779112215691790  0.6252741771379250
  0.5555998746481738  0.2776518116425637  0.6248138041922224
  0.8889076040704141  0.2777866463570831  0.6252663519118801
  0.2222023157519836  0.7777678245426591  0.1248141026556679
  0.0554497929867903  0.2777623956639798  0.1247270428385712
  0.3888448159229683  0.2777369653917337  0.1253374925482653
  0.5555414007514201  0.7778883524770572  0.1247312386088500
  0.8890354437510578  0.7778635762323435  0.1247123816287578
  0.7223169274141853  0.2777390391783418  0.1247258228620755
  0.0555381360283175  0.9443794098880908  0.6252440061635630
  0.3888383834424794  0.9443479909138361  0.6252287804827168
  0.2220732284803157  0.4444765456343112  0.6250008447404859
  0.5555433632541916  0.4444383482937601  0.6243820460866568
  0.7222253334473405  0.9444755412749805  0.6252400807000865
  0.8890354437510578  0.4445052008520491  0.6252876183712425
  0.0555381360283175  0.4444920594735547  0.1247559938364376
  0.2221607368818579  0.9443035003341476  0.1248507792053743
  0.5555138702528353  0.9444236017930830  0.1247392681162750
  0.3888448159229683  0.4444411838645704  0.1253374925482653
  0.8889076040704141  0.9444542910466667  0.1247336480881192
  0.7224443334255582  0.4445087848351312  0.1249850278215674
  0.2221607368818579  0.6111905698810456  0.6251492207946264
  0.0554497929867903  0.1110207306561461  0.6252729571614288
  0.5555998746481738  0.6112813963389460  0.6248138041922224
  0.3888300558400696  0.1109177072897739  0.6249896678128225
  0.8891121520285520  0.6112227426809473  0.6252806517028937
  0.0556315598639159  0.6111765746832485  0.1247765055000549
  0.7222253334473405  0.1110831255056957  0.6252400807000865
  0.2220732284803157  0.1109300161793405  0.1249991552595140
  0.3888300558400696  0.6112456818836385  0.1250103321871769
  0.7224443334255582  0.6112688819237636  0.1249850278215674
  0.5555414007514201  0.1109863816076989  0.1247312386088500
  0.3888300558400696  0.6112456818836385  0.6249896678128225
  0.8888569514012866  0.1110951423673148  0.1247708284798229
  0.2222023157519836  0.7777678245426591  0.6251858973443319
  0.0554497929867903  0.2777623956639798  0.6252729571614288
  0.3888448159229683  0.2777369653917337  0.6246625074517358
  0.5555414007514201  0.7778883524770572  0.6252687613911498
  0.8890354437510578  0.7778635762323435  0.6252876183712425
  0.7223169274141853  0.2777390391783418  0.6252741771379250
  0.0556315598639159  0.7777883185140027  0.1247765055000549
  0.3888383834424794  0.7778237258619792  0.1247712195172833
  0.2220400376354890  0.2776866854844123  0.1250923730984741
  0.7223169274141853  0.7779112215691790  0.1247258228620755
  0.5555998746481738  0.2776518116425637  0.1251861958077775
  0.8889076040704141  0.2777866463570831  0.1247336480881192
  0.0555381360283175  0.4444920594735547  0.6252440061635630
  0.2221607368818579  0.9443035003341476  0.6251492207946264
  0.5555138702528353  0.9444236017930830  0.6252607318837239
  0.3888448159229683  0.4444411838645704  0.6246625074517358
  0.8889076040704141  0.9444542910466667  0.6252663519118801
  0.0555381360283175  0.9443794098880908  0.1247559938364376
  0.7224443334255582  0.4445087848351312  0.6250149721784325
  0.3888383834424794  0.9443479909138361  0.1247712195172833
  0.2220732284803157  0.4444765456343112  0.1249991552595140
  0.2221607368818579  0.6111905698810456  0.1248507792053743
  0.5555433632541916  0.4444383482937601  0.1256179539133433
  0.7222253334473405  0.9444755412749805  0.1247599192999135
  0.8890354437510578  0.4445052008520491  0.1247123816287578
  0.0556315598639159  0.6111765746832485  0.6252234944999441
  0.2220732284803157  0.1109300161793405  0.6250008447404859
  0.7224443334255582  0.6112688819237636  0.6250149721784325
  0.5555414007514201  0.1109863816076989  0.6252687613911498
  0.8888569514012866  0.1110951423673148  0.6252291715201772
 
  0.00000000E+00  0.00000000E+00  0.00000000E+00
  0.00000000E+00  0.00000000E+00  0.00000000E+00
  0.00000000E+00  0.00000000E+00  0.00000000E+00
  0.00000000E+00  0.00000000E+00  0.00000000E+00
  0.00000000E+00  0.00000000E+00  0.00000000E+00
  0.00000000E+00  0.00000000E+00  0.00000000E+00
  0.00000000E+00  0.00000000E+00  0.00000000E+00
  0.00000000E+00  0.00000000E+00  0.00000000E+00
  0.00000000E+00  0.00000000E+00  0.00000000E+00
  0.00000000E+00  0.00000000E+00  0.00000000E+00
  0.00000000E+00  0.00000000E+00  0.00000000E+00
  0.00000000E+00  0.00000000E+00  0.00000000E+00
  0.00000000E+00  0.00000000E+00  0.00000000E+00
  0.00000000E+00  0.00000000E+00  0.00000000E+00
  0.00000000E+00  0.00000000E+00  0.00000000E+00
  0.00000000E+00  0.00000000E+00  0.00000000E+00
  0.00000000E+00  0.00000000E+00  0.00000000E+00
  0.00000000E+00  0.00000000E+00  0.00000000E+00
  0.00000000E+00  0.00000000E+00  0.00000000E+00
  0.00000000E+00  0.00000000E+00  0.00000000E+00
  0.00000000E+00  0.00000000E+00  0.00000000E+00
  0.00000000E+00  0.00000000E+00  0.00000000E+00
  0.00000000E+00  0.00000000E+00  0.00000000E+00
  0.00000000E+00  0.00000000E+00  0.00000000E+00
  0.00000000E+00  0.00000000E+00  0.00000000E+00
  0.00000000E+00  0.00000000E+00  0.00000000E+00
  0.00000000E+00  0.00000000E+00  0.00000000E+00
  0.00000000E+00  0.00000000E+00  0.00000000E+00
  0.00000000E+00  0.00000000E+00  0.00000000E+00
  0.00000000E+00  0.00000000E+00  0.00000000E+00
  0.00000000E+00  0.00000000E+00  0.00000000E+00
  0.00000000E+00  0.00000000E+00  0.00000000E+00
  0.00000000E+00  0.00000000E+00  0.00000000E+00
  0.00000000E+00  0.00000000E+00  0.00000000E+00
  0.00000000E+00  0.00000000E+00  0.00000000E+00
  0.00000000E+00  0.00000000E+00  0.00000000E+00
  0.00000000E+00  0.00000000E+00  0.00000000E+00
  0.00000000E+00  0.00000000E+00  0.00000000E+00
  0.00000000E+00  0.00000000E+00  0.00000000E+00
  0.00000000E+00  0.00000000E+00  0.00000000E+00
  0.00000000E+00  0.00000000E+00  0.00000000E+00
  0.00000000E+00  0.00000000E+00  0.00000000E+00
  0.00000000E+00  0.00000000E+00  0.00000000E+00
  0.00000000E+00  0.00000000E+00  0.00000000E+00
  0.00000000E+00  0.00000000E+00  0.00000000E+00
  0.00000000E+00  0.00000000E+00  0.00000000E+00
  0.00000000E+00  0.00000000E+00  0.00000000E+00
  0.00000000E+00  0.00000000E+00  0.00000000E+00
  0.00000000E+00  0.00000000E+00  0.00000000E+00
  0.00000000E+00  0.00000000E+00  0.00000000E+00
  0.00000000E+00  0.00000000E+00  0.00000000E+00
  0.00000000E+00  0.00000000E+00  0.00000000E+00
  0.00000000E+00  0.00000000E+00  0.00000000E+00
  0.00000000E+00  0.00000000E+00  0.00000000E+00
  0.00000000E+00  0.00000000E+00  0.00000000E+00
  0.00000000E+00  0.00000000E+00  0.00000000E+00
  0.00000000E+00  0.00000000E+00  0.00000000E+00
  0.00000000E+00  0.00000000E+00  0.00000000E+00
  0.00000000E+00  0.00000000E+00  0.00000000E+00
  0.00000000E+00  0.00000000E+00  0.00000000E+00
  0.00000000E+00  0.00000000E+00  0.00000000E+00
  0.00000000E+00  0.00000000E+00  0.00000000E+00
  0.00000000E+00  0.00000000E+00  0.00000000E+00
  0.00000000E+00  0.00000000E+00  0.00000000E+00
  0.00000000E+00  0.00000000E+00  0.00000000E+00
  0.00000000E+00  0.00000000E+00  0.00000000E+00
  0.00000000E+00  0.00000000E+00  0.00000000E+00
  0.00000000E+00  0.00000000E+00  0.00000000E+00
  0.00000000E+00  0.00000000E+00  0.00000000E+00
  0.00000000E+00  0.00000000E+00  0.00000000E+00
  0.00000000E+00  0.00000000E+00  0.00000000E+00
  0.00000000E+00  0.00000000E+00  0.00000000E+00
  0.00000000E+00  0.00000000E+00  0.00000000E+00
  0.00000000E+00  0.00000000E+00  0.00000000E+00
  0.00000000E+00  0.00000000E+00  0.00000000E+00
  0.00000000E+00  0.00000000E+00  0.00000000E+00
  0.00000000E+00  0.00000000E+00  0.00000000E+00
  0.00000000E+00  0.00000000E+00  0.00000000E+00
  0.00000000E+00  0.00000000E+00  0.00000000E+00
  0.00000000E+00  0.00000000E+00  0.00000000E+00
  0.00000000E+00  0.00000000E+00  0.00000000E+00
  0.00000000E+00  0.00000000E+00  0.00000000E+00
  0.00000000E+00  0.00000000E+00  0.00000000E+00
  0.00000000E+00  0.00000000E+00  0.00000000E+00
  0.00000000E+00  0.00000000E+00  0.00000000E+00
  0.00000000E+00  0.00000000E+00  0.00000000E+00
  0.00000000E+00  0.00000000E+00  0.00000000E+00
  0.00000000E+00  0.00000000E+00  0.00000000E+00
  0.00000000E+00  0.00000000E+00  0.00000000E+00
  0.00000000E+00  0.00000000E+00  0.00000000E+00
  0.00000000E+00  0.00000000E+00  0.00000000E+00
  0.00000000E+00  0.00000000E+00  0.00000000E+00
  0.00000000E+00  0.00000000E+00  0.00000000E+00
  0.00000000E+00  0.00000000E+00  0.00000000E+00
  0.00000000E+00  0.00000000E+00  0.00000000E+00
  0.00000000E+00  0.00000000E+00  0.00000000E+00
  0.00000000E+00  0.00000000E+00  0.00000000E+00
  0.00000000E+00  0.00000000E+00  0.00000000E+00
  0.00000000E+00  0.00000000E+00  0.00000000E+00
  0.00000000E+00  0.00000000E+00  0.00000000E+00
  0.00000000E+00  0.00000000E+00  0.00000000E+00
  0.00000000E+00  0.00000000E+00  0.00000000E+00
  0.00000000E+00  0.00000000E+00  0.00000000E+00
  0.00000000E+00  0.00000000E+00  0.00000000E+00
  0.00000000E+00  0.00000000E+00  0.00000000E+00
  0.00000000E+00  0.00000000E+00  0.00000000E+00
  0.00000000E+00  0.00000000E+00  0.00000000E+00
  0.00000000E+00  0.00000000E+00  0.00000000E+00
  0.00000000E+00  0.00000000E+00  0.00000000E+00
  0.00000000E+00  0.00000000E+00  0.00000000E+00
  0.00000000E+00  0.00000000E+00  0.00000000E+00
  0.00000000E+00  0.00000000E+00  0.00000000E+00
  0.00000000E+00  0.00000000E+00  0.00000000E+00
  0.00000000E+00  0.00000000E+00  0.00000000E+00
  0.00000000E+00  0.00000000E+00  0.00000000E+00
  0.00000000E+00  0.00000000E+00  0.00000000E+00
  0.00000000E+00  0.00000000E+00  0.00000000E+00
  0.00000000E+00  0.00000000E+00  0.00000000E+00
  0.00000000E+00  0.00000000E+00  0.00000000E+00
  0.00000000E+00  0.00000000E+00  0.00000000E+00
  0.00000000E+00  0.00000000E+00  0.00000000E+00
  0.00000000E+00  0.00000000E+00  0.00000000E+00
  0.00000000E+00  0.00000000E+00  0.00000000E+00
  0.00000000E+00  0.00000000E+00  0.00000000E+00
  0.00000000E+00  0.00000000E+00  0.00000000E+00
  0.00000000E+00  0.00000000E+00  0.00000000E+00
  0.00000000E+00  0.00000000E+00  0.00000000E+00
  0.00000000E+00  0.00000000E+00  0.00000000E+00
  0.00000000E+00  0.00000000E+00  0.00000000E+00
  0.00000000E+00  0.00000000E+00  0.00000000E+00
  0.00000000E+00  0.00000000E+00  0.00000000E+00
  0.00000000E+00  0.00000000E+00  0.00000000E+00
  0.00000000E+00  0.00000000E+00  0.00000000E+00
  0.00000000E+00  0.00000000E+00  0.00000000E+00
  0.00000000E+00  0.00000000E+00  0.00000000E+00
  0.00000000E+00  0.00000000E+00  0.00000000E+00
  0.00000000E+00  0.00000000E+00  0.00000000E+00
  0.00000000E+00  0.00000000E+00  0.00000000E+00
  0.00000000E+00  0.00000000E+00  0.00000000E+00
  0.00000000E+00  0.00000000E+00  0.00000000E+00
  0.00000000E+00  0.00000000E+00  0.00000000E+00
  0.00000000E+00  0.00000000E+00  0.00000000E+00
  0.00000000E+00  0.00000000E+00  0.00000000E+00
  0.00000000E+00  0.00000000E+00  0.00000000E+00
  0.00000000E+00  0.00000000E+00  0.00000000E+00
  0.00000000E+00  0.00000000E+00  0.00000000E+00
  0.00000000E+00  0.00000000E+00  0.00000000E+00
  0.00000000E+00  0.00000000E+00  0.00000000E+00
  0.00000000E+00  0.00000000E+00  0.00000000E+00
  0.00000000E+00  0.00000000E+00  0.00000000E+00
  0.00000000E+00  0.00000000E+00  0.00000000E+00
  0.00000000E+00  0.00000000E+00  0.00000000E+00
  0.00000000E+00  0.00000000E+00  0.00000000E+00
  0.00000000E+00  0.00000000E+00  0.00000000E+00
  0.00000000E+00  0.00000000E+00  0.00000000E+00
  0.00000000E+00  0.00000000E+00  0.00000000E+00
  0.00000000E+00  0.00000000E+00  0.00000000E+00
  0.00000000E+00  0.00000000E+00  0.00000000E+00
  0.00000000E+00  0.00000000E+00  0.00000000E+00
  0.00000000E+00  0.00000000E+00  0.00000000E+00
  0.00000000E+00  0.00000000E+00  0.00000000E+00
  0.00000000E+00  0.00000000E+00  0.00000000E+00
  0.00000000E+00  0.00000000E+00  0.00000000E+00
  0.00000000E+00  0.00000000E+00  0.00000000E+00
  0.00000000E+00  0.00000000E+00  0.00000000E+00
  0.00000000E+00  0.00000000E+00  0.00000000E+00
  0.00000000E+00  0.00000000E+00  0.00000000E+00
  0.00000000E+00  0.00000000E+00  0.00000000E+00
  0.00000000E+00  0.00000000E+00  0.00000000E+00
  0.00000000E+00  0.00000000E+00  0.00000000E+00
  0.00000000E+00  0.00000000E+00  0.00000000E+00
  0.00000000E+00  0.00000000E+00  0.00000000E+00
  0.00000000E+00  0.00000000E+00  0.00000000E+00
  0.00000000E+00  0.00000000E+00  0.00000000E+00
  0.00000000E+00  0.00000000E+00  0.00000000E+00
  0.00000000E+00  0.00000000E+00  0.00000000E+00
  0.00000000E+00  0.00000000E+00  0.00000000E+00
  0.00000000E+00  0.00000000E+00  0.00000000E+00
  0.00000000E+00  0.00000000E+00  0.00000000E+00
  0.00000000E+00  0.00000000E+00  0.00000000E+00
  0.00000000E+00  0.00000000E+00  0.00000000E+00
  0.00000000E+00  0.00000000E+00  0.00000000E+00
  0.00000000E+00  0.00000000E+00  0.00000000E+00
  0.00000000E+00  0.00000000E+00  0.00000000E+00
  0.00000000E+00  0.00000000E+00  0.00000000E+00
  0.00000000E+00  0.00000000E+00  0.00000000E+00
  0.00000000E+00  0.00000000E+00  0.00000000E+00
  0.00000000E+00  0.00000000E+00  0.00000000E+00
  0.00000000E+00  0.00000000E+00  0.00000000E+00
  0.00000000E+00  0.00000000E+00  0.00000000E+00
  0.00000000E+00  0.00000000E+00  0.00000000E+00
  0.00000000E+00  0.00000000E+00  0.00000000E+00
  0.00000000E+00  0.00000000E+00  0.00000000E+00
  0.00000000E+00  0.00000000E+00  0.00000000E+00
  0.00000000E+00  0.00000000E+00  0.00000000E+00
  0.00000000E+00  0.00000000E+00  0.00000000E+00
  0.00000000E+00  0.00000000E+00  0.00000000E+00
  0.00000000E+00  0.00000000E+00  0.00000000E+00
  0.00000000E+00  0.00000000E+00  0.00000000E+00
  0.00000000E+00  0.00000000E+00  0.00000000E+00
  0.00000000E+00  0.00000000E+00  0.00000000E+00
  0.00000000E+00  0.00000000E+00  0.00000000E+00
  0.00000000E+00  0.00000000E+00  0.00000000E+00
  0.00000000E+00  0.00000000E+00  0.00000000E+00
  0.00000000E+00  0.00000000E+00  0.00000000E+00
  0.00000000E+00  0.00000000E+00  0.00000000E+00
  0.00000000E+00  0.00000000E+00  0.00000000E+00
  0.00000000E+00  0.00000000E+00  0.00000000E+00
  0.00000000E+00  0.00000000E+00  0.00000000E+00
  0.00000000E+00  0.00000000E+00  0.00000000E+00
  0.00000000E+00  0.00000000E+00  0.00000000E+00
  0.00000000E+00  0.00000000E+00  0.00000000E+00
  0.00000000E+00  0.00000000E+00  0.00000000E+00
  0.00000000E+00  0.00000000E+00  0.00000000E+00
  0.00000000E+00  0.00000000E+00  0.00000000E+00
  0.00000000E+00  0.00000000E+00  0.00000000E+00
  0.00000000E+00  0.00000000E+00  0.00000000E+00
  0.00000000E+00  0.00000000E+00  0.00000000E+00
  0.00000000E+00  0.00000000E+00  0.00000000E+00
  0.00000000E+00  0.00000000E+00  0.00000000E+00
  0.00000000E+00  0.00000000E+00  0.00000000E+00
  0.00000000E+00  0.00000000E+00  0.00000000E+00
  0.00000000E+00  0.00000000E+00  0.00000000E+00
  0.00000000E+00  0.00000000E+00  0.00000000E+00
  0.00000000E+00  0.00000000E+00  0.00000000E+00
  0.00000000E+00  0.00000000E+00  0.00000000E+00
  0.00000000E+00  0.00000000E+00  0.00000000E+00
  0.00000000E+00  0.00000000E+00  0.00000000E+00
  0.00000000E+00  0.00000000E+00  0.00000000E+00
  0.00000000E+00  0.00000000E+00  0.00000000E+00
  0.00000000E+00  0.00000000E+00  0.00000000E+00
  0.00000000E+00  0.00000000E+00  0.00000000E+00
  0.00000000E+00  0.00000000E+00  0.00000000E+00
  0.00000000E+00  0.00000000E+00  0.00000000E+00
  0.00000000E+00  0.00000000E+00  0.00000000E+00
  0.00000000E+00  0.00000000E+00  0.00000000E+00
  0.00000000E+00  0.00000000E+00  0.00000000E+00
  0.00000000E+00  0.00000000E+00  0.00000000E+00
  0.00000000E+00  0.00000000E+00  0.00000000E+00
  0.00000000E+00  0.00000000E+00  0.00000000E+00
  0.00000000E+00  0.00000000E+00  0.00000000E+00
  0.00000000E+00  0.00000000E+00  0.00000000E+00
  0.00000000E+00  0.00000000E+00  0.00000000E+00
  0.00000000E+00  0.00000000E+00  0.00000000E+00
  0.00000000E+00  0.00000000E+00  0.00000000E+00
  0.00000000E+00  0.00000000E+00  0.00000000E+00
  0.00000000E+00  0.00000000E+00  0.00000000E+00
  0.00000000E+00  0.00000000E+00  0.00000000E+00
  0.00000000E+00  0.00000000E+00  0.00000000E+00
  0.00000000E+00  0.00000000E+00  0.00000000E+00