 Ge B N 
 1.0
 14.936314146199660   0.000000000000000   0.000000000000000
 -7.468157073099825  12.935227489513863   0.000000000000000
  0.000000000000001   0.000000000000001  13.341276283792837
 Ge B N 
   2 143 143
Cartesian
  3.524934610388251   4.909616943853268   5.002978606422314 
  5.259140166960172   5.910860988770105   5.002978606422314 
  1.213138314217463   0.669539659074972   5.002978606422314 
  4.921442002414882   7.633380979602802   5.002978606422314 
  6.263051758925688   0.637181718782194   5.002978606422314 
  9.971514303553388   7.183030967073798   5.002978606422314 
 11.223039297466112   0.730634764178437   5.002978606422314 
 -3.733385141189530   9.342509074424632  11.673616748318732 
  1.245247670868029   9.342918445513622  11.673616748318732 
  2.489858972703001   2.874508397908665  11.673616748318732 
  6.224185693518006   9.342858814970416  11.673616748318732 
  7.469223069863021   2.874567158953302  11.673616748318732 
 12.447396554371768   2.874665960343886  11.673616748318732 
 -1.274090482927982   9.352349144885816   5.002978606422314 
 -0.007458736706212   2.870188694024624   5.002978606422314 
  5.055858764441408   2.698378843759286   5.002978606422314 
  3.674578708812267   9.497630196794947   5.002978606422314 
  8.717058754399581   9.355811714044922   5.002978606422314 
 10.006512656490113   2.848741870168329   5.002978606422314 
 -4.978174152257135  11.498308814821659  11.673616748318732 
  0.000795585900735  11.498439322412903  11.673616748318732 
  1.244941091298853   5.030769419751670  11.673616748318732 
  6.224438404395272   5.030695895174675  11.673616748318732 
  4.979355741823509  11.498652456572025  11.673616748318732 
 11.202950881725371   5.030564266769343  11.673616748318732 
 -1.302978180324357   5.027581265383534   5.002978606422314 
 -2.495216061064325  11.467400688639895   5.002978606422314 
  2.482040720858238  11.551564475522586   5.002978606422314 
  7.468939060292488  11.526686198421762   5.002978606422314 
  8.837682476191517   4.992022748408929   5.002978606422314 
  0.000384269537811   7.186846353080206  11.673616748318732 
  1.245054746442594   0.718774505296586  11.673616748318732 
  4.979543955099733   7.186916331415042  11.673616748318732 
  6.224442863701678   0.718699390722968  11.673616748318732 
  9.958395188420951   7.186606231906349  11.673616748318732 
 -2.514028245325316   7.189782810918523   5.002978606422314 
 11.202883953419438   0.718998070867454  11.673616748318732 
  3.733502383792983   0.641065759993194   5.002978606422314 
  2.375408318917426   7.341055202577491   5.002978606422314 
  7.510364939403741   7.210606217146890   5.002978606422314 
  8.755582958652287   0.685470576233865   5.002978606422314 
  2.489906819508036   7.187143913363633  11.673616748318732 
 13.695563767797610   0.734004357248698   5.002978606422314 
 -1.244059999812230   9.342628406852620  11.673616748318732 
  0.000224061554569   2.874624359668556  11.673616748318732 
  4.979816928348286   2.874493098572939  11.673616748318732 
  3.734674028436258   9.342995842062146  11.673616748318732 
  8.713595467003527   9.342662594648928  11.673616748318732 
  9.958417316558146   2.874664835117670  11.673616748318732 
 -3.745879560100973   9.335295418302730   5.002978606422314 
  1.193955743722019   9.417113565559946   5.002978606422314 
  2.427748354408035   2.717518395308425   5.002978606422314 
  6.252674063454496   9.469388657262462   5.002978606422314 
  7.573092689547458   2.745205908143953   5.002978606422314 
 12.462219685831185   2.870218970428956   5.002978606422314 
 -1.244381336632500   5.030604283377933  11.673616748318732 
 -2.488619225586797  11.498268218922771  11.673616748318732 
  2.490068582698036  11.498636520729416  11.673616748318732 
  3.734922973364209   5.030853781744049  11.673616748318732 
  7.468686200221899  11.498500424043415  11.673616748318732 
 -4.988022324847647  11.474866254275824   5.002978606422314 
  8.713860233461441   5.030616017477684  11.673616748318732 
 -0.002752647865771  11.496390748692603   5.002978606422314 
  1.077928451759326   5.055475047763681   5.002978606422314 
 -0.067455265486322   7.224517525962561   5.002978606422314 
  6.582037155275133   4.757145804046220   5.002978606422314 
  4.980953465601957  11.553265725231412   5.002978606422314 
 11.227486908397616   5.016690362824967   5.002978606422314 
 -2.488802306067666   7.186590298289932  11.673616748318732 
  3.734797958598575   0.718652107146196  11.673616748318732 
  7.469075061452543   7.186767494996830  11.673616748318732 
  8.713759936150886   0.718886885921892  11.673616748318732 
 13.692003408304581   0.718943653883781  11.673616748318732 
 -0.001122496127823   1.436017301505972   1.663930756650890 
  3.733732694431545   7.905888898323941   1.640595050119650 
  4.978851779297234   1.435169925426572   1.660373584351537 
  8.713014324509286   7.904956163378380   1.664728707360581 
  9.957612221217000   1.436772446718821   1.663681308794632 
 -4.978954387892360  10.060270381735688   8.337876125541879 
 -0.000941276278026  10.061029742438279   8.338798099290173 
  1.242260973424155   3.591714705080046   8.349943926666507 
  4.978410799397679  10.061696509113828   8.348136173128688 
  6.224181281628314   3.592305411660980   8.365362162724951 
 11.201894777623597   3.592770028446584   8.341950828327457 
 -2.489973925896574  10.060392874287432   1.667816389849376 
 -1.246319475719058   3.592761735589312   1.663930756650890 
  3.733617727545449   3.589782850690289   1.638030333491013 
  2.488574074722719  10.061617455013415   1.662231179297013 
  7.468025374131429  10.060900957163378   1.664021946487354 
  8.713504490727214   3.592324464701040   1.657821039715966 
 -6.223964072907706  12.215391496088287   8.339083522871990 
 -1.244906057089825  12.215639945630613   8.338798099290173 
 -0.002833915019694   5.749603572464518   8.343167173650318 
  4.979733211261011   5.749545307683790   8.374372875819637 
  3.733701857891223  12.216901417753611   8.342275904050009 
  9.957622809895090   5.748791708027492   8.341935266357273 
 -2.490685447802151   5.749163238594536   1.666873689972611 
 -3.734367728857198  12.215085424477392   1.667507306360893 
  1.244421979766611  12.216447355682675   1.666017622585898 
  2.486266315506914   5.750258871233829   1.638030333491013 
  6.222991812368553  12.216482930223718   1.664006384517143 
  7.468601416209406   5.748432461864420   1.642511218682715 
 -1.246152341567338   7.905369953516654   8.338449906483721 
 -0.001122496127823   1.436017301505973   8.342026456193738 
  3.733732694431545   7.905888898323942   8.365362162724951 
  4.978851779297234   1.435169925426573   8.345583628493104 
  8.713014324509286   7.904956163378380   8.341228505484061 
 -3.734570238556068   7.904933810951835   1.668081087302749 
  9.957612221217000   1.436772446718822   8.342275904050009 
  2.488500106900904   1.434486467873096   1.662790039194283 
  1.242933812782145   7.905969656340154   1.660373584351537 
  6.223203560985021   7.905524822750380   1.642511218682715 
  7.468517665530563   1.436102136907175   1.662231179297013 
  1.242933812782145   7.905969656340155   8.345583628493104 
 12.446373474709773   1.436927080718878   1.663434926019901 
 -2.489973925896574  10.060392874287432   8.338140822995252 
 -1.246319475719058   3.592761735589312   8.342026456193738 
  3.733617727545450   3.589782850690290   8.367926879353600 
  2.488574074722720  10.061617455013415   8.343726033547709 
  7.468025374131430  10.060900957163378   8.341935266357273 
  8.713504490727214   3.592324464701041   8.348136173128688 
 -4.978954387892361  10.060270381735688   1.668081087302749 
 -0.000941276278026  10.061029742438279   1.667159113554468 
  1.242260973424154   3.591714705080045   1.656013286178120 
  4.978410799397678  10.061696509113828   1.657821039715966 
  6.224181281628313   3.592305411660980   1.640595050119650 
 11.201894777623597   3.592770028446583   1.664006384517143 
 -2.490685447802151   5.749163238594537   8.339083522871990 
 -3.734367728857198  12.215085424477392   8.338449906483721 
  1.244421979766611  12.216447355682675   8.339939590258716 
  2.486266315506914   5.750258871233830   8.367926879353600 
  6.222991812368554  12.216482930223718   8.341950828327457 
 -6.223964072907707  12.215391496088287   1.666873689972611 
  7.468601416209407   5.748432461864421   8.363445994161914 
 -1.244906057089826  12.215639945630613   1.667159113554468 
 -0.002833915019694   5.749603572464517   1.662790039194283 
 -1.246152341567338   7.905369953516654   1.667507306360893 
  4.979733211261010   5.749545307683789   1.631584337024977 
  3.733701857891223  12.216901417753611   1.663681308794632 
  9.957622809895090   5.748791708027491   1.664021946487354 
 -3.734570238556068   7.904933810951836   8.337876125541879 
  2.488500106900904   1.434486467873097   8.343167173650318 
  6.223203560985022   7.905524822750380   8.363445994161914 
  7.468517665530564   1.436102136907175   8.343726033547709 
 12.446373474709773   1.436927080718879   8.342522286824741 
  1.244151910987300   0.717853314331892   1.669299809610947 
  4.978127089887097   7.186634906112916   1.627853197299480 
  6.223218153742787   0.718172445559292   1.668515131584075 
  9.956804647092389   7.185967604308637   1.671499739165685 
 11.202055726691814   0.718519893943276   1.666040986405563 
 -3.734651371256724   9.341778016154411   8.334777065849103 
  1.244178967990425   9.342121288158815   8.337442081260566 
  2.488466446772668   2.873626639528308   8.344184779625367 
  6.222923168835226   9.341969333050800   8.344829874612717 
  7.467825362558380   2.874146631532730   8.345769520596603 
 12.446498491936083   2.874370245795507   8.339477763983599 
 -1.245238102975818   9.341982338182355   1.670874723620738 
 -0.000741448229730   2.874066922334667   1.666584260424762 
  4.978361465423939   2.873890638412705   1.653719193485886 
  3.733610987354816   9.341995655739415   1.660187692248025 
  8.712247128616152   9.341604459251336   1.671499739165685 
  9.957325117562405   2.874247596464238   1.665600874599621 
 -4.979197819417051  11.497394990529298   8.334902296762060 
 -0.000323542991218  11.497793193045894   8.335788548858156 
  1.243481203176246   5.030004336110842   8.344184779625367 
  6.223486250328054   5.029609566557845   8.378104015545162 
  4.978448303052408  11.497915203822297   8.340356338244993 
 11.201620907899535   5.030224502103107   8.336955127361740 
 -1.245630529137322   5.030283000420583   1.669299809610947 
 -2.489767789049556  11.497570985989828   1.670874723620738 
  2.489086842303400  11.497947860136550   1.667694179603089 
  3.731317714669333   5.028772284666081   1.636711946407442 
  7.467726968476713  11.497518515256989   1.669002085482888 
  8.712458657181525   5.029967379989182   1.661127338231911 
 -0.000678322071872   7.186213529612268   8.336148968100632 
  1.244151910987300   0.717853314331893   8.336657403233668 
  4.978127089887098   7.186634906112917   8.378104015545162 
  6.223218153742788   0.718172445559293   8.337442081260566 
  9.956804647092389   7.185967604308638   8.334457473678942 
 -2.490105534699284   7.186160688670397   1.671054916082540 
 11.202055726691814   0.718519893943277   8.339916226439092 
  3.733718621594395   0.718048287552317   1.669808244743983 
  2.488657342242296   7.186184675577062   1.653719193485886 
  7.467219509487812   7.185696191570677   1.660554596219893 
  8.712672668385586   0.718381004096609   1.667694179603089 
  2.488657342242296   7.186184675577063   8.352238019358754 
 13.691298280775596   0.718313766274444   1.666479448861043 
 -1.245238102975817   9.341982338182355   8.335082489223902 
 -0.000741448229729   2.874066922334668   8.339372952419879 
  4.978361465423940   2.873890638412706   8.352238019358754 
  3.733610987354817   9.341995655739415   8.345769520596603 
  8.712247128616152   9.341604459251336   8.334457473678942 
  9.957325117562405   2.874247596464239   8.340356338244993 
 -3.734651371256724   9.341778016154411   1.671180146995538 
  1.244178967990424   9.342121288158815   1.668515131584075 
  2.488466446772668   2.873626639528307   1.661772433219275 
  6.222923168835225   9.341969333050800   1.661127338231911 
  7.467825362558379   2.874146631532729   1.660187692248025 
 12.446498491936083   2.874370245795506   1.666479448861043 
 -1.245630529137322   5.030283000420584   8.336657403233668 
 -2.489767789049556  11.497570985989828   8.335082489223902 
  2.489086842303400  11.497947860136550   8.338263033241553 
  3.731317714669334   5.028772284666082   8.369245266437185 
  7.467726968476714  11.497518515256989   8.336955127361740 
 -4.979197819417052  11.497394990529298   1.671054916082540 
  8.712458657181525   5.029967379989183   8.344829874612717 
 -0.000323542991219  11.497793193045894   1.670168663986446 
  1.243481203176245   5.030004336110841   1.661772433219275 
 -0.000678322071873   7.186213529612267   1.669808244743983 
  6.223486250328053   5.029609566557844   1.627853197299480 
  4.978448303052407  11.497915203822297   1.665600874599621 
 11.201620907899535   5.030224502103106   1.669002085482888 
 -2.490105534699283   7.186160688670398   8.334902296762060 
  3.733718621594396   0.718048287552318   8.336148968100632 
  7.467219509487813   7.185696191570678   8.345402616624735 
  8.712672668385586   0.718381004096609   8.338263033241553 
 13.691298280775596   0.718313766274445   8.339477763983599 
  0.002159702435611   1.438325313985214   5.002978606422314 
  3.616849259947976   8.093216692709618   5.002978606422314 
  5.012483107539822   1.306696834230843   5.002978606422314 
  8.729697015184678   7.914587919330608   5.002978606422314 
  9.984156050600074   1.424873339886485   5.002978606422314 
 -4.978116072737557  10.061151322326074  11.673616748318732 
  0.000662999208030  10.061165728468703  11.673616748318732 
  1.245383133116517   3.593517284818807  11.673616748318732 
  4.979427100346803  10.061170174984456  11.673616748318732 
  6.224151086655984   3.593384015667788  11.673616748318732 
 11.202940369989701   3.593495442613011  11.673616748318732 
 -2.510756658270897  10.048393958156602   5.002978606422314 
 -1.242679578998074   3.594450196685903   5.002978606422314 
  3.737951013885511   3.235121261117778   5.002978606422314 
  2.435526590464395  10.145981040352435   5.002978606422314 
  7.495777464996158  10.112859939799302   5.002978606422314 
  8.771057919807062   3.551224889396883   5.002978606422314 
 -6.222826803368050  12.217016206575467  11.673616748318732 
 -1.243986151989929  12.216961295941061  11.673616748318732 
  0.000640944274245   5.749374055783745  11.673616748318732 
  4.979423888287575   5.749366719981863  11.673616748318732 
  3.734718455852538  12.217001830236832  11.673616748318732 
  9.958287347034839   5.749368758364242  11.673616748318732 
 -2.508589659912273   5.755805547297498   5.002978606422314 
 -3.740352024748502  12.166640396296243   5.002978606422314 
  1.241766609598773  12.214914277001485   5.002978606422314 
  2.181287012360522   5.931342402072555   5.002978606422314 
  6.230132830433607  12.243837276557363   5.002978606422314 
  7.629488904116219   5.727599266691431   5.002978606422314 
 -1.244028811503270   7.905238148894640  11.673616748318732 
  0.000655887477854   1.437640905169547  11.673616748318732 
  3.734651695415930   7.905323446707382  11.673616748318732 
  4.979476454283652   1.437552019268216  11.673616748318732 
  8.713577423967537   7.905281269002199  11.673616748318732 
 -3.744714428826458   7.906360398582575   5.002978606422314 
  9.958207479958995   1.437602640137121  11.673616748318732 
  2.459548724854910   1.325783468374955   5.002978606422314 
  1.148488516225164   7.999331786559218   5.002978606422314 
  6.285605228676692   8.055274072015109   5.002978606422314 
  7.515054931459299   1.347979875263152   5.002978606422314 
  1.245309104056363   7.905319593826770  11.673616748318732 
 12.460505606093539   1.445086270577640   5.002978606422314 
 -2.488717021921963  10.061118548135589  11.673616748318732 
 -1.244024201897902   3.593490059137741  11.673616748318732 
  3.734789843154686   3.593437058825500  11.673616748318732 
  2.489998127373345  10.061179642583996  11.673616748318732 
  7.468857382952146  10.061187938039863  11.673616748318732 
  8.713556822474921   3.593467774205455  11.673616748318732 
 -4.982791021898635  10.050771961445374   5.002978606422314 
 -0.041477394471957  10.083922343006156   5.002978606422314 
  1.245105099633995   3.593356762112846   5.002978606422314 
  4.971594237639502  10.132089028423868   5.002978606422314 
  6.327970193159407   3.397417490923836   5.002978606422314 
 11.229154845485008   3.585277158332930   5.002978606422314 
 -2.488709772476593   5.749335787663176  11.673616748318732 
 -3.733420109976224  12.216990357769689  11.673616748318732 
  1.245350987603554  12.216983718607391  11.673616748318732 
  2.490017010387347   5.749446849059982  11.673616748318732 
  6.224142835648012  12.217025732691530  11.673616748318732 
 -6.227163770886204  12.196564839214657   5.002978606422314 
  7.468926197673309   5.749415759128848  11.673616748318732 
 -1.245348542536349  12.169088337219973   5.002978606422314 
 -0.111449165075693   5.778882439887166   5.002978606422314 
 -1.291099114604978   7.924409915341701   5.002978606422314 
  3.736668843783613  12.245838601729240   5.002978606422314 
 10.016496654244923   5.746846232406585   5.002978606422314 
 -3.733388164048174   7.905219342877093  11.673616748318732 
  2.490038769271687   1.437610542636688  11.673616748318732 
  6.224217512127526   7.905314443116430  11.673616748318732 
  7.468850535169883   1.437554308893692  11.673616748318732 
 12.447595497717719   1.437632616031542  11.673616748318732 
Generated by cif2cell 2.0.0.  :  Failed to get author information, No journal information. Species order: Ge B N 
 1.0
 14.936314146199660   0.000000000000000   0.000000000000000
 -7.468157073099825  12.935227489513863   0.000000000000000
  0.000000000000001   0.000000000000001  13.341276283792837
 Ge B N 
   2 143 143
Cartesian
  3.524934610388251   4.909616943853268   5.002978606422314 
  5.259140166960172   5.910860988770105   5.002978606422314 
  1.213138314217463   0.669539659074972   5.002978606422314 
  4.921442002414882   7.633380979602802   5.002978606422314 
  6.263051758925688   0.637181718782194   5.002978606422314 
  9.971514303553388   7.183030967073798   5.002978606422314 
 11.223039297466112   0.730634764178437   5.002978606422314 
 -3.733385141189530   9.342509074424632  11.673616748318732 
  1.245247670868029   9.342918445513622  11.673616748318732 
  2.489858972703001   2.874508397908665  11.673616748318732 
  6.224185693518006   9.342858814970416  11.673616748318732 
  7.469223069863021   2.874567158953302  11.673616748318732 
 12.447396554371768   2.874665960343886  11.673616748318732 
 -1.274090482927982   9.352349144885816   5.002978606422314 
 -0.007458736706212   2.870188694024624   5.002978606422314 
  5.055858764441408   2.698378843759286   5.002978606422314 
  3.674578708812267   9.497630196794947   5.002978606422314 
  8.717058754399581   9.355811714044922   5.002978606422314 
 10.006512656490113   2.848741870168329   5.002978606422314 
 -4.978174152257135  11.498308814821659  11.673616748318732 
  0.000795585900735  11.498439322412903  11.673616748318732 
  1.244941091298853   5.030769419751670  11.673616748318732 
  6.224438404395272   5.030695895174675  11.673616748318732 
  4.979355741823509  11.498652456572025  11.673616748318732 
 11.202950881725371   5.030564266769343  11.673616748318732 
 -1.302978180324357   5.027581265383534   5.002978606422314 
 -2.495216061064325  11.467400688639895   5.002978606422314 
  2.482040720858238  11.551564475522586   5.002978606422314 
  7.468939060292488  11.526686198421762   5.002978606422314 
  8.837682476191517   4.992022748408929   5.002978606422314 
  0.000384269537811   7.186846353080206  11.673616748318732 
  1.245054746442594   0.718774505296586  11.673616748318732 
  4.979543955099733   7.186916331415042  11.673616748318732 
  6.224442863701678   0.718699390722968  11.673616748318732 
  9.958395188420951   7.186606231906349  11.673616748318732 
 -2.514028245325316   7.189782810918523   5.002978606422314 
 11.202883953419438   0.718998070867454  11.673616748318732 
  3.733502383792983   0.641065759993194   5.002978606422314 
  2.375408318917426   7.341055202577491   5.002978606422314 
  7.510364939403741   7.210606217146890   5.002978606422314 
  8.755582958652287   0.685470576233865   5.002978606422314 
  2.489906819508036   7.187143913363633  11.673616748318732 
 13.695563767797610   0.734004357248698   5.002978606422314 
 -1.244059999812230   9.342628406852620  11.673616748318732 
  0.000224061554569   2.874624359668556  11.673616748318732 
  4.979816928348286   2.874493098572939  11.673616748318732 
  3.734674028436258   9.342995842062146  11.673616748318732 
  8.713595467003527   9.342662594648928  11.673616748318732 
  9.958417316558146   2.874664835117670  11.673616748318732 
 -3.745879560100973   9.335295418302730   5.002978606422314 
  1.193955743722019   9.417113565559946   5.002978606422314 
  2.427748354408035   2.717518395308425   5.002978606422314 
  6.252674063454496   9.469388657262462   5.002978606422314 
  7.573092689547458   2.745205908143953   5.002978606422314 
 12.462219685831185   2.870218970428956   5.002978606422314 
 -1.244381336632500   5.030604283377933  11.673616748318732 
 -2.488619225586797  11.498268218922771  11.673616748318732 
  2.490068582698036  11.498636520729416  11.673616748318732 
  3.734922973364209   5.030853781744049  11.673616748318732 
  7.468686200221899  11.498500424043415  11.673616748318732 
 -4.988022324847647  11.474866254275824   5.002978606422314 
  8.713860233461441   5.030616017477684  11.673616748318732 
 -0.002752647865771  11.496390748692603   5.002978606422314 
  1.077928451759326   5.055475047763681   5.002978606422314 
 -0.067455265486322   7.224517525962561   5.002978606422314 
  6.582037155275133   4.757145804046220   5.002978606422314 
  4.980953465601957  11.553265725231412   5.002978606422314 
 11.227486908397616   5.016690362824967   5.002978606422314 
 -2.488802306067666   7.186590298289932  11.673616748318732 
  3.734797958598575   0.718652107146196  11.673616748318732 
  7.469075061452543   7.186767494996830  11.673616748318732 
  8.713759936150886   0.718886885921892  11.673616748318732 
 13.692003408304581   0.718943653883781  11.673616748318732 
 -0.001122496127823   1.436017301505972   1.663930756650890 
  3.733732694431545   7.905888898323941   1.640595050119650 
  4.978851779297234   1.435169925426572   1.660373584351537 
  8.713014324509286   7.904956163378380   1.664728707360581 
  9.957612221217000   1.436772446718821   1.663681308794632 
 -4.978954387892360  10.060270381735688   8.337876125541879 
 -0.000941276278026  10.061029742438279   8.338798099290173 
  1.242260973424155   3.591714705080046   8.349943926666507 
  4.978410799397679  10.061696509113828   8.348136173128688 
  6.224181281628314   3.592305411660980   8.365362162724951 
 11.201894777623597   3.592770028446584   8.341950828327457 
 -2.489973925896574  10.060392874287432   1.667816389849376 
 -1.246319475719058   3.592761735589312   1.663930756650890 
  3.733617727545449   3.589782850690289   1.638030333491013 
  2.488574074722719  10.061617455013415   1.662231179297013 
  7.468025374131429  10.060900957163378   1.664021946487354 
  8.713504490727214   3.592324464701040   1.657821039715966 
 -6.223964072907706  12.215391496088287   8.339083522871990 
 -1.244906057089825  12.215639945630613   8.338798099290173 
 -0.002833915019694   5.749603572464518   8.343167173650318 
  4.979733211261011   5.749545307683790   8.374372875819637 
  3.733701857891223  12.216901417753611   8.342275904050009 
  9.957622809895090   5.748791708027492   8.341935266357273 
 -2.490685447802151   5.749163238594536   1.666873689972611 
 -3.734367728857198  12.215085424477392   1.667507306360893 
  1.244421979766611  12.216447355682675   1.666017622585898 
  2.486266315506914   5.750258871233829   1.638030333491013 
  6.222991812368553  12.216482930223718   1.664006384517143 
  7.468601416209406   5.748432461864420   1.642511218682715 
 -1.246152341567338   7.905369953516654   8.338449906483721 
 -0.001122496127823   1.436017301505973   8.342026456193738 
  3.733732694431545   7.905888898323942   8.365362162724951 
  4.978851779297234   1.435169925426573   8.345583628493104 
  8.713014324509286   7.904956163378380   8.341228505484061 
 -3.734570238556068   7.904933810951835   1.668081087302749 
  9.957612221217000   1.436772446718822   8.342275904050009 
  2.488500106900904   1.434486467873096   1.662790039194283 
  1.242933812782145   7.905969656340154   1.660373584351537 
  6.223203560985021   7.905524822750380   1.642511218682715 
  7.468517665530563   1.436102136907175   1.662231179297013 
  1.242933812782145   7.905969656340155   8.345583628493104 
 12.446373474709773   1.436927080718878   1.663434926019901 
 -2.489973925896574  10.060392874287432   8.338140822995252 
 -1.246319475719058   3.592761735589312   8.342026456193738 
  3.733617727545450   3.589782850690290   8.367926879353600 
  2.488574074722720  10.061617455013415   8.343726033547709 
  7.468025374131430  10.060900957163378   8.341935266357273 
  8.713504490727214   3.592324464701041   8.348136173128688 
 -4.978954387892361  10.060270381735688   1.668081087302749 
 -0.000941276278026  10.061029742438279   1.667159113554468 
  1.242260973424154   3.591714705080045   1.656013286178120 
  4.978410799397678  10.061696509113828   1.657821039715966 
  6.224181281628313   3.592305411660980   1.640595050119650 
 11.201894777623597   3.592770028446583   1.664006384517143 
 -2.490685447802151   5.749163238594537   8.339083522871990 
 -3.734367728857198  12.215085424477392   8.338449906483721 
  1.244421979766611  12.216447355682675   8.339939590258716 
  2.486266315506914   5.750258871233830   8.367926879353600 
  6.222991812368554  12.216482930223718   8.341950828327457 
 -6.223964072907707  12.215391496088287   1.666873689972611 
  7.468601416209407   5.748432461864421   8.363445994161914 
 -1.244906057089826  12.215639945630613   1.667159113554468 
 -0.002833915019694   5.749603572464517   1.662790039194283 
 -1.246152341567338   7.905369953516654   1.667507306360893 
  4.979733211261010   5.749545307683789   1.631584337024977 
  3.733701857891223  12.216901417753611   1.663681308794632 
  9.957622809895090   5.748791708027491   1.664021946487354 
 -3.734570238556068   7.904933810951836   8.337876125541879 
  2.488500106900904   1.434486467873097   8.343167173650318 
  6.223203560985022   7.905524822750380   8.363445994161914 
  7.468517665530564   1.436102136907175   8.343726033547709 
 12.446373474709773   1.436927080718879   8.342522286824741 
  1.244151910987300   0.717853314331892   1.669299809610947 
  4.978127089887097   7.186634906112916   1.627853197299480 
  6.223218153742787   0.718172445559292   1.668515131584075 
  9.956804647092389   7.185967604308637   1.671499739165685 
 11.202055726691814   0.718519893943276   1.666040986405563 
 -3.734651371256724   9.341778016154411   8.334777065849103 
  1.244178967990425   9.342121288158815   8.337442081260566 
  2.488466446772668   2.873626639528308   8.344184779625367 
  6.222923168835226   9.341969333050800   8.344829874612717 
  7.467825362558380   2.874146631532730   8.345769520596603 
 12.446498491936083   2.874370245795507   8.339477763983599 
 -1.245238102975818   9.341982338182355   1.670874723620738 
 -0.000741448229730   2.874066922334667   1.666584260424762 
  4.978361465423939   2.873890638412705   1.653719193485886 
  3.733610987354816   9.341995655739415   1.660187692248025 
  8.712247128616152   9.341604459251336   1.671499739165685 
  9.957325117562405   2.874247596464238   1.665600874599621 
 -4.979197819417051  11.497394990529298   8.334902296762060 
 -0.000323542991218  11.497793193045894   8.335788548858156 
  1.243481203176246   5.030004336110842   8.344184779625367 
  6.223486250328054   5.029609566557845   8.378104015545162 
  4.978448303052408  11.497915203822297   8.340356338244993 
 11.201620907899535   5.030224502103107   8.336955127361740 
 -1.245630529137322   5.030283000420583   1.669299809610947 
 -2.489767789049556  11.497570985989828   1.670874723620738 
  2.489086842303400  11.497947860136550   1.667694179603089 
  3.731317714669333   5.028772284666081   1.636711946407442 
  7.467726968476713  11.497518515256989   1.669002085482888 
  8.712458657181525   5.029967379989182   1.661127338231911 
 -0.000678322071872   7.186213529612268   8.336148968100632 
  1.244151910987300   0.717853314331893   8.336657403233668 
  4.978127089887098   7.186634906112917   8.378104015545162 
  6.223218153742788   0.718172445559293   8.337442081260566 
  9.956804647092389   7.185967604308638   8.334457473678942 
 -2.490105534699284   7.186160688670397   1.671054916082540 
 11.202055726691814   0.718519893943277   8.339916226439092 
  3.733718621594395   0.718048287552317   1.669808244743983 
  2.488657342242296   7.186184675577062   1.653719193485886 
  7.467219509487812   7.185696191570677   1.660554596219893 
  8.712672668385586   0.718381004096609   1.667694179603089 
  2.488657342242296   7.186184675577063   8.352238019358754 
 13.691298280775596   0.718313766274444   1.666479448861043 
 -1.245238102975817   9.341982338182355   8.335082489223902 
 -0.000741448229729   2.874066922334668   8.339372952419879 
  4.978361465423940   2.873890638412706   8.352238019358754 
  3.733610987354817   9.341995655739415   8.345769520596603 
  8.712247128616152   9.341604459251336   8.334457473678942 
  9.957325117562405   2.874247596464239   8.340356338244993 
 -3.734651371256724   9.341778016154411   1.671180146995538 