B Ga N                                  
   1.0000000000000000     
     8.7639499999999995  -15.1796066749929999    0.0000000000000000
     8.7639499999999995   15.1796066749929999    0.0000000000000000
     0.0000000000000000    0.0000000000000000   15.0000000000000000
   B    Ga   N 
    47     1    49
Selective dynamics
Direct
  0.9093327881135244  0.9541277988232382  0.1107047839931898   T   T   T
  0.9089652902271634  0.0958591739537399  0.1107543742938327   T   T   T
  0.9088549960976289  0.2377989358381553  0.1107077604623892   T   T   T
  0.9089054494238481  0.3801959231288574  0.1106830152054481   T   T   T
  0.9085168971373777  0.5229737275730008  0.1107449193010318   T   T   T
  0.9078314227388563  0.6657024421631572  0.1107843711901506   T   T   T
  0.9045868775625266  0.8074262665983306  0.1107208321247894   T   T   T
  0.0506061242066427  0.9538951899347766  0.1106842512296751   T   T   T
  0.0527559176389343  0.0975524761035400  0.1107845993326463   T   T   T
  0.0519969811427057  0.2389833784217624  0.1108152136962754   T   T   T
  0.0507998462407056  0.3812343209559660  0.1107156234940409   T   T   T
  0.0495331678551530  0.5244384301089788  0.1107057696921158   T   T   T
  0.0494180725470676  0.6677263460734724  0.1107356405714737   T   T   T
  0.0492260881967367  0.8106803542756573  0.1107370967737158   T   T   T
  0.1933311449925586  0.9551778271048330  0.1106915148609663   T   T   T
  0.1965439674826699  0.1000114343045292  0.1107280090007969   T   T   T
  0.1965836124338128  0.2415843071952289  0.1107855846997375   T   T   T
  0.1935252763739474  0.3822269759565607  0.1107228053669886   T   T   T
  0.1899220139667305  0.5252689700324922  0.1106921646225228   T   T   T
  0.1900844282827107  0.6688382547982737  0.1107464620047752   T   T   T
  0.1918381346665195  0.8118883737592270  0.1107405022044443   T   T   T
  0.3355212991524452  0.9550124363518903  0.1107258973450214   T   T   T
  0.3375600492572865  0.0988761796236349  0.1107502226903202   T   T   T
  0.3441404173099319  0.2474433706164173  0.1107874482117518   T   T   T
  0.3397408752054101  0.3852150467210078  0.1107867335297829   T   T   T
  0.3293269619369806  0.5269701886165824  0.1107209733824222   T   T   T
  0.3296130813318583  0.6699724124764510  0.1107289094312943   T   T   T
  0.3340373177473213  0.8123835776294410  0.1107947434540618   T   T   T
  0.4779817042049727  0.9535482037858845  0.1107519774287463   T   T   T
  0.4793232528967639  0.0957310055492616  0.1107662950506289   T   T   T
  0.4813763565799616  0.2386311333262475  0.1108024191474151   T   T   T
  0.4989065583305276  0.3941075453650159  0.1108264521130106   T   T   T
  0.4668460599967001  0.6675923587554879  0.1106751638675195   T   T   T
  0.4766166363227218  0.8112737459610727  0.1107407735031048   T   T   T
  0.6211494838354795  0.9542247159922315  0.1107431019575455   T   T   T
  0.6220830794404809  0.0947142292143228  0.1107236291878361   T   T   T
  0.6231452664384347  0.2350943938487784  0.1107507100570595   T   T   T
  0.6255704713677848  0.3744041570931731  0.1108131843892203   T   T   T
  0.6135650592025300  0.5001449236052273  0.1108287703223168   T   T   T
  0.6206113421858719  0.8141353107105677  0.1106560015918065   T   T   T
  0.7652197098465656  0.9534581128506473  0.1107028398124879   T   T   T
  0.7654829148947003  0.0951131100408593  0.1107017328245660   T   T   T
  0.7660792435996115  0.2366845463639278  0.1106860831638207   T   T   T
  0.7671888052891412  0.3783892400180996  0.1107212068887688   T   T   T
  0.7665335773377719  0.5196186641788403  0.1107415774490850   T   T   T
  0.7619400375586344  0.6572404530207853  0.1107838810158318   T   T   T
  0.7665297795042101  0.8124065381728649  0.1107258969412800   T   T   T
  0.6157269402986792  0.6587314887330719  0.1109152085773072   T   T   T
  0.9546234962223060  0.9044033317975264  0.1106667501419030   T   T   T
  0.9574089924506017  0.0493004747677954  0.1107369774979082   T   T   T
  0.9567894058054076  0.1908564400027603  0.1107516008245304   T   T   T
  0.9562279720774669  0.3328141063462597  0.1106758906838816   T   T   T
  0.9554977902786707  0.4754345526592703  0.1106958428615850   T   T   T
  0.9552395291410325  0.6185373960285547  0.1107431039650123   T   T   T
  0.9539075211081518  0.7614717946504106  0.1107381612825597   T   T   T
  0.0978692703101849  0.9063622850256475  0.1106780635438139   T   T   T
  0.1001957247256672  0.0501906706006022  0.1107063504663655   T   T   T
  0.1007856620190122  0.1927668196835759  0.1108023605041087   T   T   T
  0.0986549676694170  0.3339571924283400  0.1107476150719715   T   T   T
  0.0960987173789859  0.4764313177023329  0.1106788501845386   T   T   T
  0.0959623309204003  0.6198758963142047  0.1107052108591725   T   T   T
  0.0967631462687559  0.7632637519621533  0.1107166233423047   T   T   T
  0.2402363255134560  0.9071926863996072  0.1106888443516422   T   T   T
  0.2421848276698778  0.0507689619047895  0.1106967710169852   T   T   T
  0.2463677863075146  0.1964483970982002  0.1107513183100067   T   T   T
  0.2435229537535448  0.3365809881477423  0.1107408021910231   T   T   T
  0.2362545512822521  0.4770845578754908  0.1106571593049473   T   T   T
  0.2357956671796944  0.6206618794564854  0.1106931525141457   T   T   T
  0.2388123023675853  0.7641756771033869  0.1107464634028261   T   T   T
  0.3826515947350377  0.9071853008828172  0.1107390751603998   T   T   T
  0.3840162587963072  0.0499235934545307  0.1107310230560293   T   T   T
  0.3864161783981825  0.1942047825604996  0.1107717011385824   T   T   T
  0.3959795272629338  0.3456022871412819  0.1107844522291309   T   T   T
  0.3763250867593959  0.4797976405469855  0.1107592390521724   T   T   T
  0.3737357311228693  0.6215197113443931  0.1106921722257742   T   T   T
  0.3808952829581464  0.7648199119489861  0.1107464928383364   T   T   T
  0.5255111379458545  0.9062209479183212  0.1107302570661550   T   T   T
  0.5267011690405641  0.0480614608541326  0.1107284247708755   T   T   T
  0.5280173544580130  0.1898046444922826  0.1107733006720938   T   T   T
  0.5310874676278105  0.3321119138285378  0.1108062469150516   T   T   T
  0.4645496587739048  0.5232440337546622  0.1109152764061875   T   T   T
  0.5005232824801314  0.6106284472271741  0.1106602716616295   T   T   T
  0.5235561117092060  0.7632218209484465  0.1106309989114694   T   T   T
  0.6692967880590054  0.9083596080264643  0.1106759514708463   T   T   T
  0.6700788709984349  0.0483560434062231  0.1106924467811807   T   T   T
  0.6709601910308325  0.1886924908151307  0.1106980831686163   T   T   T
  0.6728333593637622  0.3285831652720984  0.1107535081085302   T   T   T
  0.6730841609843384  0.4672528039049094  0.1107464134330120   T   T   T
  0.6680916364351543  0.5965865421472427  0.1107756870405635   T   T   T
  0.6739499406632837  0.7750071897148119  0.1106517063872058   T   T   T
  0.8147663063185479  0.9074281584530181  0.1106814765451425   T   T   T
  0.8135874972242286  0.0483221713917893  0.1106946249409588   T   T   T
  0.8138289065190999  0.1898228857590571  0.1106662298421392   T   T   T
  0.8144873379661168  0.3314395189453099  0.1106665626316015   T   T   T
  0.8146329725718724  0.4733703780165824  0.1107202597065195   T   T   T
  0.8138869709867576  0.6153026616408888  0.1107600045689103   T   T   T
  0.8080264818706190  0.7572447110327066  0.1107412037026176   T   T   T

  0.00000000E+00  0.00000000E+00  0.00000000E+00
  0.00000000E+00  0.00000000E+00  0.00000000E+00
  0.00000000E+00  0.00000000E+00  0.00000000E+00
  0.00000000E+00  0.00000000E+00  0.00000000E+00
  0.00000000E+00  0.00000000E+00  0.00000000E+00
  0.00000000E+00  0.00000000E+00  0.00000000E+00
  0.00000000E+00  0.00000000E+00  0.00000000E+00
  0.00000000E+00  0.00000000E+00  0.00000000E+00
  0.00000000E+00  0.00000000E+00  0.00000000E+00
  0.00000000E+00  0.00000000E+00  0.00000000E+00
  0.00000000E+00  0.00000000E+00  0.00000000E+00
  0.00000000E+00  0.00000000E+00  0.00000000E+00
  0.00000000E+00  0.00000000E+00  0.00000000E+00
  0.00000000E+00  0.00000000E+00  0.00000000E+00
  0.00000000E+00  0.00000000E+00  0.00000000E+00
  0.00000000E+00  0.00000000E+00  0.00000000E+00
  0.00000000E+00  0.00000000E+00  0.00000000E+00
  0.00000000E+00  0.00000000E+00  0.00000000E+00
  0.00000000E+00  0.00000000E+00  0.00000000E+00
  0.00000000E+00  0.00000000E+00  0.00000000E+00
  0.00000000E+00  0.00000000E+00  0.00000000E+00
  0.00000000E+00  0.00000000E+00  0.00000000E+00
  0.00000000E+00  0.00000000E+00  0.00000000E+00
  0.00000000E+00  0.00000000E+00  0.00000000E+00
  0.00000000E+00  0.00000000E+00  0.00000000E+00
  0.00000000E+00  0.00000000E+00  0.00000000E+00
  0.00000000E+00  0.00000000E+00  0.00000000E+00
  0.00000000E+00  0.00000000E+00  0.00000000E+00
  0.00000000E+00  0.00000000E+00  0.00000000E+00
  0.00000000E+00  0.00000000E+00  0.00000000E+00
  0.00000000E+00  0.00000000E+00  0.00000000E+00
  0.00000000E+00  0.00000000E+00  0.00000000E+00
  0.00000000E+00  0.00000000E+00  0.00000000E+00
  0.00000000E+00  0.00000000E+00  0.00000000E+00
  0.00000000E+00  0.00000000E+00  0.00000000E+00
  0.00000000E+00  0.00000000E+00  0.00000000E+00
  0.00000000E+00  0.00000000E+00  0.00000000E+00
  0.00000000E+00  0.00000000E+00  0.00000000E+00
  0.00000000E+00  0.00000000E+00  0.00000000E+00
  0.00000000E+00  0.00000000E+00  0.00000000E+00
  0.00000000E+00  0.00000000E+00  0.00000000E+00
  0.00000000E+00  0.00000000E+00  0.00000000E+00
  0.00000000E+00  0.00000000E+00  0.00000000E+00
  0.00000000E+00  0.00000000E+00  0.00000000E+00
  0.00000000E+00  0.00000000E+00  0.00000000E+00
  0.00000000E+00  0.00000000E+00  0.00000000E+00
  0.00000000E+00  0.00000000E+00  0.00000000E+00
  0.00000000E+00  0.00000000E+00  0.00000000E+00
  0.00000000E+00  0.00000000E+00  0.00000000E+00
  0.00000000E+00  0.00000000E+00  0.00000000E+00
  0.00000000E+00  0.00000000E+00  0.00000000E+00
  0.00000000E+00  0.00000000E+00  0.00000000E+00
  0.00000000E+00  0.00000000E+00  0.00000000E+00
  0.00000000E+00  0.00000000E+00  0.00000000E+00
  0.00000000E+00  0.00000000E+00  0.00000000E+00
  0.00000000E+00  0.00000000E+00  0.00000000E+00
  0.00000000E+00  0.00000000E+00  0.00000000E+00
  0.00000000E+00  0.00000000E+00  0.00000000E+00
  0.00000000E+00  0.00000000E+00  0.00000000E+00
  0.00000000E+00  0.00000000E+00  0.00000000E+00
  0.00000000E+00  0.00000000E+00  0.00000000E+00
  0.00000000E+00  0.00000000E+00  0.00000000E+00
  0.00000000E+00  0.00000000E+00  0.00000000E+00
  0.00000000E+00  0.00000000E+00  0.00000000E+00
  0.00000000E+00  0.00000000E+00  0.00000000E+00
  0.00000000E+00  0.00000000E+00  0.00000000E+00
  0.00000000E+00  0.00000000E+00  0.00000000E+00
  0.00000000E+00  0.00000000E+00  0.00000000E+00
  0.00000000E+00  0.00000000E+00  0.00000000E+00
  0.00000000E+00  0.00000000E+00  0.00000000E+00
  0.00000000E+00  0.00000000E+00  0.00000000E+00
  0.00000000E+00  0.00000000E+00  0.00000000E+00
  0.00000000E+00  0.00000000E+00  0.00000000E+00
  0.00000000E+00  0.00000000E+00  0.00000000E+00
  0.00000000E+00  0.00000000E+00  0.00000000E+00
  0.00000000E+00  0.00000000E+00  0.00000000E+00
  0.00000000E+00  0.00000000E+00  0.00000000E+00
  0.00000000E+00  0.00000000E+00  0.00000000E+00
  0.00000000E+00  0.00000000E+00  0.00000000E+00
  0.00000000E+00  0.00000000E+00  0.00000000E+00
  0.00000000E+00  0.00000000E+00  0.00000000E+00
  0.00000000E+00  0.00000000E+00  0.00000000E+00
  0.00000000E+00  0.00000000E+00  0.00000000E+00
  0.00000000E+00  0.00000000E+00  0.00000000E+00
  0.00000000E+00  0.00000000E+00  0.00000000E+00
  0.00000000E+00  0.00000000E+00  0.00000000E+00
  0.00000000E+00  0.00000000E+00  0.00000000E+00
  0.00000000E+00  0.00000000E+00  0.00000000E+00
  0.00000000E+00  0.00000000E+00  0.00000000E+00
  0.00000000E+00  0.00000000E+00  0.00000000E+00
  0.00000000E+00  0.00000000E+00  0.00000000E+00
  0.00000000E+00  0.00000000E+00  0.00000000E+00
  0.00000000E+00  0.00000000E+00  0.00000000E+00
  0.00000000E+00  0.00000000E+00  0.00000000E+00
  0.00000000E+00  0.00000000E+00  0.00000000E+00
  0.00000000E+00  0.00000000E+00  0.00000000E+00
  0.00000000E+00  0.00000000E+00  0.00000000E+00
