 N P B 
 1.0
 14.936314146199660   0.000000000000000   0.000000000000000
 -7.468157073099825  12.935227489513863   0.000000000000000
  0.000000000000001   0.000000000000001  13.341276283792837
 N P B 
 143   2 143
Cartesian
  1.249884840119424   0.722221891944783   1.672892771553912 
  4.983601627019799   7.193225619780037   1.620630260659685 
  6.228453350346085   0.721541037785910   1.670967822815757 
  9.961902327978180   7.188563239758694   1.668787037015077 
 11.207627899236302   0.721736989261799   1.664525099024922 
 -3.729758563714486   9.344602879906073   8.338097536819495 
  1.249713852735324   9.344970805297756   8.334989390028845 
  2.495695253480533   2.878187757808572   8.339615466120438 
  6.227974810309286   9.346412321746813   8.343248441674733 
  7.474700219277038   2.876009130731977   8.346498301614995 
 12.452534301823409   2.877247974556907   8.338580159529609 
 -1.240065268550326   9.344679981375780   1.669009030020767 
  0.005970317922157   2.877941962329223   1.674668383855912 
  4.984386068219284   2.878345384581183   1.662928284588455 
  3.738661387335170   9.347018206705618   1.659458911229673 
  8.717043855297767   9.344721362673777   1.668787037015077 
  9.963624626913749   2.876581749802599   1.664803961552747 
 -4.974329113619991  11.500906202413871   8.336437344271149 
  0.004695666602256  11.500691035055736   8.338126115906396 
  1.251045650830620   5.033984107218653   8.339615466120438 
  6.231931244359202   5.031055297955165   8.385326952184943 
  4.983619493815392  11.502203662282824   8.341153251291853 
 11.207658306025428   5.032669129880738   8.337458583069791 
 -1.238980765380077   5.033063573880627   1.672892771553912 
 -2.484845144300958  11.500701970415163   1.669009030020767 
  2.494144972375316  11.501542718067547   1.666190822424872 
  3.743887971381502   5.036029725762635   1.582537023574092 
  7.472862777297920  11.501524741517892   1.668498629774822 
  8.718832218997971   5.032120735488625   1.662708771169881 
  0.005301820983231   7.189146775802237   8.331646553862642 
  1.249884840119424   0.722221891944784   8.333064441290675 
  4.983601627019800   7.193225619780038   8.385326952184943 
  6.228453350346085   0.721541037785911   8.334989390028845 
  9.961902327978180   7.188563239758695   8.337170175829550 
 -2.484630383110704   7.188621505632021   1.669519868573426 
 11.207627899236302   0.721736989261800   8.341432113819744 
  3.739248958838020   0.721760620261306   1.674310658981946 
  2.495527566989296   7.189174761561278   1.662928284588455 
  7.472296505591320   7.188627396637654   1.657956484139200 
  8.718314971712775   0.720964044269048   1.666190822424872 
  2.495527566989297   7.189174761561279   8.343028928256187 
 13.696808371931834   0.722102066588582   1.667377053315032 
 -1.240065268550326   9.344679981375780   8.336948182823834 
  0.005970317922157   2.877941962329224   8.331288828988676 
  4.984386068219285   2.878345384581184   8.343028928256187 
  3.738661387335170   9.347018206705618   8.346498301614995 
  8.717043855297767   9.344721362673777   8.337170175829550 
  9.963624626913749   2.876581749802599   8.341153251291853 
 -3.729758563714486   9.344602879906073   1.667859676025093 
  1.249713852735324   9.344970805297756   1.670967822815757 
  2.495695253480533   2.878187757808572   1.666341746724161 
  6.227974810309285   9.346412321746813   1.662708771169881 
  7.474700219277037   2.876009130731976   1.659458911229673 
 12.452534301823409   2.877247974556906   1.667377053315032 
 -1.238980765380077   5.033063573880628   8.333064441290675 
 -2.484845144300957  11.500701970415163   8.336948182823834 
  2.494144972375316  11.501542718067547   8.339766390419781 
  3.743887971381503   5.036029725762636   8.423420189270550 
  7.472862777297921  11.501524741517892   8.337458583069791 
 -4.974329113619992  11.500906202413871   1.669519868573426 
  8.718832218997971   5.032120735488626   8.343248441674733 
  0.004695666602256  11.500691035055736   1.667831096938192 
  1.251045650830620   5.033984107218652   1.666341746724161 
  0.005301820983231   7.189146775802236   1.674310658981946 
  6.231931244359201   5.031055297955164   1.620630260659685 
  4.983619493815391  11.502203662282824   1.664803961552747 
 11.207658306025428   5.032669129880737   1.668498629774822 
 -2.484630383110704   7.188621505632022   8.336437344271149 
  3.739248958838020   0.721760620261307   8.331646553862642 
  7.472296505591321   7.188627396637655   8.348000728705427 
  8.718314971712775   0.720964044269049   8.339766390419781 
 13.696808371931834   0.722102066588583   8.338580159529609 
  0.004999063853772   1.434074272512836   5.002978606422314 
  3.656736769625847   8.056110689921027   5.002978606422314 
  5.026551236096362   1.290933495180629   5.002978606422314 
  8.709111225706248   7.902702708233755   5.002978606422314 
  9.983436339455558   1.431126518598152   5.002978606422314 
 -4.979434648637221  10.060324479960455  11.673616748318732 
 -0.000927625035551  10.060268209348957  11.673616748318732 
  1.243856387220039   3.592635817664465  11.673616748318732 
  4.978014743600339  10.060115780428177  11.673616748318732 
  6.222488219367095   3.592337112891797  11.673616748318732 
 11.201426626708301   3.592772416283460  11.673616748318732 
 -2.514634560577550  10.046155050215965   5.002978606422314 
 -1.244941408196613   3.599034676540744   5.002978606422314 
  3.796244932381383   3.219075990718591   5.002978606422314 
  2.453168724701796  10.131802802314883   5.002978606422314 
  7.478462115916913  10.084105939726033   5.002978606422314 
  8.759065302686432   3.564727444171648   5.002978606422314 
 -6.224170078184295  12.216121372483045  11.673616748318732 
 -1.245558738469742  12.216032534498012  11.673616748318732 
 -0.000889146007689   5.748631564375915  11.673616748318732 
  4.978292065674381   5.748713261891400  11.673616748318732 
  3.733248372280252  12.216062623210423  11.673616748318732 
  9.956870538851405   5.748688561642394  11.673616748318732 
 -2.522129842296898   5.758093918198173   5.002978606422314 
 -3.740451861975859  12.158227849222646   5.002978606422314 
  1.247992513608766  12.218508804357620   5.002978606422314 
  2.196538359832239   5.989849051575595   5.002978606422314 
  6.231009982716071  12.234689380282672   5.002978606422314 
  7.562792006410699   5.732668905498271   5.002978606422314 
 -1.245596749927855   7.904448333201856  11.673616748318732 
 -0.000693867734763   1.436763466703293  11.673616748318732 
  3.732913617372192   7.904406812780065  11.673616748318732 
  4.977907329897890   1.436566055659215  11.673616748318732 
  8.712353889797416   7.904574861219657  11.673616748318732 
 -3.757307113070052   7.903857149438140   5.002978606422314 
  9.956659061028555   1.436799113931065  11.673616748318732 
  2.467578052839145   1.318866685126895   5.002978606422314 
  1.141871128437496   8.019396812797966   5.002978606422314 
  6.256647215818652   7.994978044845125   5.002978606422314 
  7.511597284256599   1.370347530708453   5.002978606422314 
  1.243670672330858   7.904453674051540  11.673616748318732 
 12.461991036740859   1.445943884361646   5.002978606422314 
 -2.490193382584174  10.060266170909804  11.673616748318732 
 -1.245458963506236   3.592759856067838  11.673616748318732 
  3.733182864965110   3.592375663525560  11.673616748318732 
  2.488358622619497  10.060230596647983  11.673616748318732 
  7.467559911219738  10.060301044521642  11.673616748318732 
  8.711937511630332   3.592771834661964  11.673616748318732 
 -4.991255241371505  10.041118001560790   5.002978606422314 
 -0.041314620330777  10.089899776863820   5.002978606422314 
  1.245241922338831   3.593435756738297   5.002978606422314 
  4.977291484530146  10.114951839952123   5.002978606422314 
  6.315779206950580   3.450514088992774   5.002978606422314 
 11.221671111061188   3.590610742629851   5.002978606422314 
 -2.490156358940956   5.748619894594306  11.673616748318732 
 -3.734888079642745  12.216027391108767  11.673616748318732 
  1.243742913846319  12.216055296790783  11.673616748318732 
  2.488294325999354   5.748585862774451  11.673616748318732 
  6.222759804838332  12.216076305719779  11.673616748318732 
 -6.231952074745258  12.183694511847373   5.002978606422314 
  7.467597596513443   5.748785103117340  11.673616748318732 
 -1.240090545895545  12.166240586832417   5.002978606422314 
 -0.113424611088859   5.789294433520848   5.002978606422314 
 -1.298434512694849   7.928529727303235   5.002978606422314 
  3.741724399830046  12.242088724238895   5.002978606422314 
  9.982937285181386   5.746227700265274   5.002978606422314 
 -3.734763518491579   7.904490843834014  11.673616748318732 
  2.488630707709434   1.436656691286391  11.673616748318732 
  6.223007047420556   7.904479168766282  11.673616748318732 
  7.467208884903036   1.436608979095203  11.673616748318732 
 12.446189364039265   1.436820784373752  11.673616748318732 
  3.334349815507123   4.799582761225138   5.002978606422314 
  4.977944005877262   5.748512309473840   5.002978606422314 
  1.221901001176350   0.666601728645330   5.002978606422314 
  4.943891364394448   7.449713185773737   5.002978606422314 
  6.266950000293379   0.639687943497245   5.002978606422314 
  9.948761572445319   7.180714762558821   5.002978606422314 
 11.222321392464968   0.730220281532723   5.002978606422314 
 -3.734834336049893   9.341672381381832  11.673616748318732 
  1.244008671801265   9.340966759300025  11.673616748318732 
  2.489375987706649   2.874909645346676  11.673616748318732 
  6.222487278171027   9.340759943715979  11.673616748318732 
  7.466225746657250   2.874532657994735  11.673616748318732 
 12.446446743121598   2.874333815033728  11.673616748318732 
 -1.274147913575859   9.354545833524126   5.002978606422314 
  0.004259552432266   2.876954251413097   5.002978606422314 
  5.064576864669905   2.699926511278746   5.002978606422314 
  3.697760710265609   9.449086430209581   5.002978606422314 
  8.703676496895193   9.337265373157388   5.002978606422314 
  9.990683113522843   2.861638137412108   5.002978606422314 
 -4.979444876115167  11.497720753082952  11.673616748318732 
 -0.000981770653467  11.497413165127856  11.673616748318732 
  1.245047089275205   5.030150518756163  11.673616748318732 
  6.221608920777088   5.030166834705903  11.673616748318732 
  4.977995006537721  11.496890236034950  11.673616748318732 
 11.201391063047506   5.030117737013289  11.673616748318732 
 -1.301141159231602   5.036638940110279   5.002978606422314 
 -2.493342388223259  11.466252607920683   5.002978606422314 
  2.490039453874799  11.538476477971162   5.002978606422314 
  7.464287482070902  11.502319142449553   5.002978606422314 
  8.774288766282828   5.009708454866453   5.002978606422314 
 -0.000228516701903   7.185499846581886  11.673616748318732 
  1.244449744111073   0.718644176231853  11.673616748318732 
  4.977671033484553   7.184730456956475  11.673616748318732 
  6.222133154327122   0.718602229162656  11.673616748318732 
  9.956519204053876   7.185837277077177  11.673616748318732 
 -2.522274965865064   7.191689398922628   5.002978606422314 
 11.201378978346419   0.718129173103898  11.673616748318732 
  3.743763211114778   0.640767302690508   5.002978606422314 
  2.381107688420115   7.347831465088418   5.002978606422314 
  7.469451253311906   7.186984689468186   5.002978606422314 
  8.748247786796300   0.698941681000124   5.002978606422314 
  2.488933497386161   7.184797145518004  11.673616748318732 
 13.700879520265966   0.729738509048388   5.002978606422314 
 -1.245320751575856   9.341490231843190  11.673616748318732 
  0.000144458871451   2.874578401038030  11.673616748318732 
  4.977297906716271   2.874823560812105  11.673616748318732 
  3.733145488126829   9.340417334501831  11.673616748318732 
  8.711991540403645   9.341422421944383  11.673616748318732 
  9.956210821163090   2.874367514060862  11.673616748318732 
 -3.752931332102678   9.331224075839222   5.002978606422314 
  1.198075318676646   9.419236429257003   5.002978606422314 
  2.478005137517216   2.725327223298522   5.002978606422314 
  6.236293479576151   9.405645240812785   5.002978606422314 
  7.542643555215800   2.789553993605835   5.002978606422314 
 12.461183229155182   2.876955471206977   5.002978606422314 
 -1.244796706079177   5.030145500521866  11.673616748318732 
 -2.490235289940662  11.497745463372205  11.673616748318732 
  2.488434274971002  11.497008496578653  11.673616748318732 
  3.733627931016342   5.030106088695905  11.673616748318732 
  7.467519584770687  11.497372846321099  11.673616748318732 
 -4.990494531471421  11.466771090788450   5.002978606422314 
  8.711193349962336   5.030194582268241  11.673616748318732 
  0.001494642071495  11.498842922681208   5.002978606422314 
  1.109819486727198   5.095094284653539   5.002978606422314 
 -0.062583323431504   7.233552891738437   5.002978606422314 
  6.434200860951911   4.868421418733798   5.002978606422314 
  4.984207189165435  11.533108805269558   5.002978606422314 
 11.204058629799526   5.024845505903357   5.002978606422314 
 -2.489946944401344   7.185783850016943  11.673616748318732 
  3.733325456644812   0.718794671944674  11.673616748318732 
  7.466790654066362   7.185448591777558  11.673616748318732 
  8.711532872014811   0.718285545988099  11.673616748318732 
 13.691240856403173   0.718287165867375  11.673616748318732 
  0.005880465183029   1.441742396374956   1.673934626790107 
  3.740421069959180   7.906656172748408   1.651057977786365 
  4.983348829324134   1.443997980824891   1.675976583602243 
  8.715265288826863   7.906255758233069   1.668236940603200 
  9.962595151461434   1.439803509888359   1.667054234681956 
 -4.974966887809835  10.063540839398787   8.335898716854075 
  0.005704297792901  10.062849802558867   8.334784169811659 
  1.253756400254437   3.598351592854873   8.328730397040808 
  4.982577824469762  10.063871680942960   8.341536094955762 
  6.228189948535422   3.597714077565679   8.354899235058262 
 11.207736333472646   3.595259023997226   8.337327974608222 
 -2.484536206995155  10.063532342758933   1.669538181105416 
 -1.237859917468023   3.595963930551751   1.673934626790107 
  3.740062188673840   3.603509396023882   1.657741385879811 
  2.494863538249481  10.063317560699884   1.668775267299328 
  7.471612168225799  10.063714019338638   1.669104277360346 
  8.717471757324947   3.594845628356989   1.664421117888812 
 -6.218838427337563  12.221016327121315   8.333945913563676 
 -1.240007051753547  12.220485151538522   8.334784169811659 
  0.009271625812867   5.750841576526072   8.330582095484678 
  4.983960147154591   5.751985730259788   8.376346862411840 
  3.738818300718766  12.219701230345757   8.338902978162658 
  9.961852390248403   5.750491431743859   8.336852935484254 
 -2.483251378450468   5.750789762352537   1.672011299281018 
 -3.729342447445745  12.221363848688405   1.672718452061960 
  1.249727624036161  12.219510570829891   1.668887416905192 
  2.501376083036207   5.748976665617907   1.657741385879811 
  6.228068123669863  12.220297368211261   1.668629238236366 
  7.470742515752134   5.749525855912264   1.651638291847582 
 -1.238202425999155   7.906582762774659   8.333238760782654 
  0.005880465183030   1.441742396374957   8.332022586054546 
  3.740421069959181   7.906656172748409   8.354899235058262 
  4.983348829324135   1.443997980824892   8.329980629242385 
  8.715265288826863   7.906255758233070   8.337720272241427 
 -3.729744189096551   7.906751858489331   1.670058495990593 
  9.962595151461434   1.439803509888360   8.338902978162658 
  2.495625020284440   1.444351171729931   1.675375117359924 
  1.252827658036511   7.905450188206457   1.675976583602243 
  6.225221017778222   7.906832372322391   1.651638291847582 
  7.473134732007523   1.440698919254328   1.668775267299328 
  1.252827658036512   7.905450188206458   8.329980629242385 
 12.452362037756382   1.440384579205957   1.668006519422762 
 -2.484536206995155  10.063532342758933   8.336419031739199 
 -1.237859917468023   3.595963930551751   8.332022586054546 
  3.740062188673841   3.603509396023882   8.348215826964816 
  2.494863538249481  10.063317560699884   8.337181945545327 
  7.471612168225800  10.063714019338638   8.336852935484254 
  8.717471757324947   3.594845628356989   8.341536094955762 
 -4.974966887809836  10.063540839398787   1.670058495990593 
  0.005704297792900  10.062849802558867   1.671173043032983 
  1.253756400254437   3.598351592854872   1.677226815803780 
  4.982577824469761  10.063871680942960   1.664421117888812 
  6.228189948535421   3.597714077565678   1.651057977786365 
 11.207736333472646   3.595259023997225   1.668629238236366 
 -2.483251378450467   5.750789762352538   8.333945913563676 
 -3.729342447445745  12.221363848688405   8.333238760782654 
  1.249727624036161  12.219510570829891   8.337069795939462 
  2.501376083036207   5.748976665617908   8.348215826964816 
  6.228068123669864  12.220297368211261   8.337327974608222 
 -6.218838427337564  12.221016327121315   1.672011299281018 
  7.470742515752135   5.749525855912265   8.354318920997047 
 -1.240007051753548  12.220485151538522   1.671173043032983 
  0.009271625812866   5.750841576526071   1.675375117359924 
 -1.238202425999155   7.906582762774658   1.672718452061960 
  4.983960147154590   5.751985730259787   1.629610350432814 
  3.738818300718766  12.219701230345757   1.667054234681956 
  9.961852390248403   5.750491431743858   1.669104277360346 
 -3.729744189096551   7.906751858489332   8.335898716854075 
  2.495625020284441   1.444351171729932   8.330582095484678 
  6.225221017778223   7.906832372322392   8.354318920997047 
  7.473134732007524   1.440698919254329   8.337181945545327 
 12.452362037756382   1.440384579205958   8.337950693421851 
Generated by cif2cell 2.0.0.  :  Failed to get author information, No journal information. Species order: N P B 
 1.0
 14.936314146199660   0.000000000000000   0.000000000000000
 -7.468157073099825  12.935227489513863   0.000000000000000
  0.000000000000001   0.000000000000001  13.341276283792837
 N P B 
 143   2 143
Cartesian
  1.249884840119424   0.722221891944783   1.672892771553912 
  4.983601627019799   7.193225619780037   1.620630260659685 
  6.228453350346085   0.721541037785910   1.670967822815757 
  9.961902327978180   7.188563239758694   1.668787037015077 
 11.207627899236302   0.721736989261799   1.664525099024922 
 -3.729758563714486   9.344602879906073   8.338097536819495 
  1.249713852735324   9.344970805297756   8.334989390028845 
  2.495695253480533   2.878187757808572   8.339615466120438 
  6.227974810309286   9.346412321746813   8.343248441674733 
  7.474700219277038   2.876009130731977   8.346498301614995 
 12.452534301823409   2.877247974556907   8.338580159529609 
 -1.240065268550326   9.344679981375780   1.669009030020767 
  0.005970317922157   2.877941962329223   1.674668383855912 
  4.984386068219284   2.878345384581183   1.662928284588455 
  3.738661387335170   9.347018206705618   1.659458911229673 
  8.717043855297767   9.344721362673777   1.668787037015077 
  9.963624626913749   2.876581749802599   1.664803961552747 
 -4.974329113619991  11.500906202413871   8.336437344271149 
  0.004695666602256  11.500691035055736   8.338126115906396 
  1.251045650830620   5.033984107218653   8.339615466120438 
  6.231931244359202   5.031055297955165   8.385326952184943 
  4.983619493815392  11.502203662282824   8.341153251291853 
 11.207658306025428   5.032669129880738   8.337458583069791 
 -1.238980765380077   5.033063573880627   1.672892771553912 
 -2.484845144300958  11.500701970415163   1.669009030020767 
  2.494144972375316  11.501542718067547   1.666190822424872 
  3.743887971381502   5.036029725762635   1.582537023574092 
  7.472862777297920  11.501524741517892   1.668498629774822 
  8.718832218997971   5.032120735488625   1.662708771169881 
  0.005301820983231   7.189146775802237   8.331646553862642 
  1.249884840119424   0.722221891944784   8.333064441290675 
  4.983601627019800   7.193225619780038   8.385326952184943 
  6.228453350346085   0.721541037785911   8.334989390028845 
  9.961902327978180   7.188563239758695   8.337170175829550 
 -2.484630383110704   7.188621505632021   1.669519868573426 
 11.207627899236302   0.721736989261800   8.341432113819744 
  3.739248958838020   0.721760620261306   1.674310658981946 
  2.495527566989296   7.189174761561278   1.662928284588455 
  7.472296505591320   7.188627396637654   1.657956484139200 
  8.718314971712775   0.720964044269048   1.666190822424872 
  2.495527566989297   7.189174761561279   8.343028928256187 
 13.696808371931834   0.722102066588582   1.667377053315032 
 -1.240065268550326   9.344679981375780   8.336948182823834 
  0.005970317922157   2.877941962329224   8.331288828988676 
  4.984386068219285   2.878345384581184   8.343028928256187 
  3.738661387335170   9.347018206705618   8.346498301614995 
  8.717043855297767   9.344721362673777   8.337170175829550 
  9.963624626913749   2.876581749802599   8.341153251291853 
 -3.729758563714486   9.344602879906073   1.667859676025093 
  1.249713852735324   9.344970805297756   1.670967822815757 
  2.495695253480533   2.878187757808572   1.666341746724161 
  6.227974810309285   9.346412321746813   1.662708771169881 
  7.474700219277037   2.876009130731976   1.659458911229673 
 12.452534301823409   2.877247974556906   1.667377053315032 
 -1.238980765380077   5.033063573880628   8.333064441290675 
 -2.484845144300957  11.500701970415163   8.336948182823834 
  2.494144972375316  11.501542718067547   8.339766390419781 
  3.743887971381503   5.036029725762636   8.423420189270550 
  7.472862777297921  11.501524741517892   8.337458583069791 
 -4.974329113619992  11.500906202413871   1.669519868573426 
  8.718832218997971   5.032120735488626   8.343248441674733 
  0.004695666602256  11.500691035055736   1.667831096938192 
  1.251045650830620   5.033984107218652   1.666341746724161 
  0.005301820983231   7.189146775802236   1.674310658981946 
  6.231931244359201   5.031055297955164   1.620630260659685 
  4.983619493815391  11.502203662282824   1.664803961552747 
 11.207658306025428   5.032669129880737   1.668498629774822 
 -2.484630383110704   7.188621505632022   8.336437344271149 
  3.739248958838020   0.721760620261307   8.331646553862642 
  7.472296505591321   7.188627396637655   8.348000728705427 
  8.718314971712775   0.720964044269049   8.339766390419781 
 13.696808371931834   0.722102066588583   8.338580159529609 
  0.004999063853772   1.434074272512836   5.002978606422314 
  3.656736769625847   8.056110689921027   5.002978606422314 
  5.026551236096362   1.290933495180629   5.002978606422314 
  8.709111225706248   7.902702708233755   5.002978606422314 
  9.983436339455558   1.431126518598152   5.002978606422314 
 -4.979434648637221  10.060324479960455  11.673616748318732 
 -0.000927625035551  10.060268209348957  11.673616748318732 
  1.243856387220039   3.592635817664465  11.673616748318732 
  4.978014743600339  10.060115780428177  11.673616748318732 
  6.222488219367095   3.592337112891797  11.673616748318732 
 11.201426626708301   3.592772416283460  11.673616748318732 
 -2.514634560577550  10.046155050215965   5.002978606422314 
 -1.244941408196613   3.599034676540744   5.002978606422314 
  3.796244932381383   3.219075990718591   5.002978606422314 
  2.453168724701796  10.131802802314883   5.002978606422314 
  7.478462115916913  10.084105939726033   5.002978606422314 
  8.759065302686432   3.564727444171648   5.002978606422314 
 -6.224170078184295  12.216121372483045  11.673616748318732 
 -1.245558738469742  12.216032534498012  11.673616748318732 
 -0.000889146007689   5.748631564375915  11.673616748318732 
  4.978292065674381   5.748713261891400  11.673616748318732 
  3.733248372280252  12.216062623210423  11.673616748318732 
  9.956870538851405   5.748688561642394  11.673616748318732 
 -2.522129842296898   5.758093918198173   5.002978606422314 
 -3.740451861975859  12.158227849222646   5.002978606422314 
  1.247992513608766  12.218508804357620   5.002978606422314 
  2.196538359832239   5.989849051575595   5.002978606422314 
  6.231009982716071  12.234689380282672   5.002978606422314 
  7.562792006410699   5.732668905498271   5.002978606422314 
 -1.245596749927855   7.904448333201856  11.673616748318732 
 -0.000693867734763   1.436763466703293  11.673616748318732 
  3.732913617372192   7.904406812780065  11.673616748318732 
  4.977907329897890   1.436566055659215  11.673616748318732 
  8.712353889797416   7.904574861219657  11.673616748318732 
 -3.757307113070052   7.903857149438140   5.002978606422314 
  9.956659061028555   1.436799113931065  11.673616748318732 
  2.467578052839145   1.318866685126895   5.002978606422314 
  1.141871128437496   8.019396812797966   5.002978606422314 
  6.256647215818652   7.994978044845125   5.002978606422314 
  7.511597284256599   1.370347530708453   5.002978606422314 
  1.243670672330858   7.904453674051540  11.673616748318732 
 12.461991036740859   1.445943884361646   5.002978606422314 
 -2.490193382584174  10.060266170909804  11.673616748318732 
 -1.245458963506236   3.592759856067838  11.673616748318732 
  3.733182864965110   3.592375663525560  11.673616748318732 
  2.488358622619497  10.060230596647983  11.673616748318732 
  7.467559911219738  10.060301044521642  11.673616748318732 
  8.711937511630332   3.592771834661964  11.673616748318732 
 -4.991255241371505  10.041118001560790   5.002978606422314 
 -0.041314620330777  10.089899776863820   5.002978606422314 
  1.245241922338831   3.593435756738297   5.002978606422314 
  4.977291484530146  10.114951839952123   5.002978606422314 
  6.315779206950580   3.450514088992774   5.002978606422314 
 11.221671111061188   3.590610742629851   5.002978606422314 
 -2.490156358940956   5.748619894594306  11.673616748318732 
 -3.734888079642745  12.216027391108767  11.673616748318732 
  1.243742913846319  12.216055296790783  11.673616748318732 
  2.488294325999354   5.748585862774451  11.673616748318732 
  6.222759804838332  12.216076305719779  11.673616748318732 
 -6.231952074745258  12.183694511847373   5.002978606422314 
  7.467597596513443   5.748785103117340  11.673616748318732 
 -1.240090545895545  12.166240586832417   5.002978606422314 
 -0.113424611088859   5.789294433520848   5.002978606422314 
 -1.298434512694849   7.928529727303235   5.002978606422314 
  3.741724399830046  12.242088724238895   5.002978606422314 
  9.982937285181386   5.746227700265274   5.002978606422314 
 -3.734763518491579   7.904490843834014  11.673616748318732 
  2.488630707709434   1.436656691286391  11.673616748318732 
  6.223007047420556   7.904479168766282  11.673616748318732 
  7.467208884903036   1.436608979095203  11.673616748318732 
 12.446189364039265   1.436820784373752  11.673616748318732 
  3.334349815507123   4.799582761225138   5.002978606422314 
  4.977944005877262   5.748512309473840   5.002978606422314 
  1.221901001176350   0.666601728645330   5.002978606422314 
  4.943891364394448   7.449713185773737   5.002978606422314 
  6.266950000293379   0.639687943497245   5.002978606422314 
  9.948761572445319   7.180714762558821   5.002978606422314 
 11.222321392464968   0.730220281532723   5.002978606422314 
 -3.734834336049893   9.341672381381832  11.673616748318732 
  1.244008671801265   9.340966759300025  11.673616748318732 
  2.489375987706649   2.874909645346676  11.673616748318732 
  6.222487278171027   9.340759943715979  11.673616748318732 
  7.466225746657250   2.874532657994735  11.673616748318732 
 12.446446743121598   2.874333815033728  11.673616748318732 
 -1.274147913575859   9.354545833524126   5.002978606422314 
  0.004259552432266   2.876954251413097   5.002978606422314 
  5.064576864669905   2.699926511278746   5.002978606422314 
  3.697760710265609   9.449086430209581   5.002978606422314 
  8.703676496895193   9.337265373157388   5.002978606422314 
  9.990683113522843   2.861638137412108   5.002978606422314 
 -4.979444876115167  11.497720753082952  11.673616748318732 
 -0.000981770653467  11.497413165127856  11.673616748318732 
  1.245047089275205   5.030150518756163  11.673616748318732 
  6.221608920777088   5.030166834705903  11.673616748318732 
  4.977995006537721  11.496890236034950  11.673616748318732 
 11.201391063047506   5.030117737013289  11.673616748318732 
 -1.301141159231602   5.036638940110279   5.002978606422314 
 -2.493342388223259  11.466252607920683   5.002978606422314 
  2.490039453874799  11.538476477971162   5.002978606422314 
  7.464287482070902  11.502319142449553   5.002978606422314 
  8.774288766282828   5.009708454866453   5.002978606422314 
 -0.000228516701903   7.185499846581886  11.673616748318732 
  1.244449744111073   0.718644176231853  11.673616748318732 
  4.977671033484553   7.184730456956475  11.673616748318732 
  6.222133154327122   0.718602229162656  11.673616748318732 
  9.956519204053876   7.185837277077177  11.673616748318732 
 -2.522274965865064   7.191689398922628   5.002978606422314 
 11.201378978346419   0.718129173103898  11.673616748318732 
  3.743763211114778   0.640767302690508   5.002978606422314 
  2.381107688420115   7.347831465088418   5.002978606422314 
  7.469451253311906   7.186984689468186   5.002978606422314 
  8.748247786796300   0.698941681000124   5.002978606422314 
  2.488933497386161   7.184797145518004  11.673616748318732 
 13.700879520265966   0.729738509048388   5.002978606422314 
 -1.245320751575856   9.341490231843190  11.673616748318732 
  0.000144458871451   2.874578401038030  11.673616748318732 
  4.977297906716271   2.874823560812105  11.673616748318732 
  3.733145488126829   9.340417334501831  11.673616748318732 
  8.711991540403645   9.341422421944383  11.673616748318732 
  9.956210821163090   2.874367514060862  11.673616748318732 
 -3.752931332102678   9.331224075839222   5.002978606422314 
  1.198075318676646   9.419236429257003   5.002978606422314 