 Si N B 
 1.0
 17.527899999999772   0.000000000000000   0.000000000000000
 -8.763949999999658  15.179606674993195   0.000000000000000
  0.000000000000001   0.000000000000002  15.000000000000000
 Si N B 
   1  48  48
Cartesian
  3.309021097183505   7.693190083744089   1.669473719097255 
  8.755721228549127  13.725027978653731   1.664862401166630 
 16.286104738906495   0.728611265010258   1.664737408249950 
 15.052080472729678   2.909774161773216   1.665550434100305 
 13.801971079802961   5.075027145341449   1.665550434100305 
 12.530040734502666   7.234304957118527   1.664737408249950 
 11.256111011507905   9.394225835842859   1.664862401166630 
 10.000240189399044  11.556349907171546   1.665045716867130 
 -6.268433382651319  13.725331288056234   1.664410939064280 
  1.253383424062896   0.714597659967655   1.665082653186090 
  0.026627531075387   2.904788571145553   1.664912285852955 
 -1.205774779523841   5.086554148310815   1.664980340851110 
 -2.479038039151687   7.244728645555037   1.664912285852955 
 -3.762421060884496   9.402225868728681   1.665082653186090 
 -5.019668620435699  11.562407273197035   1.664410939064280 
 -3.761526097318845  13.730745540836836   1.664608233552165 
  3.759195535928461   0.707886503867944   1.665357357192720 
  2.519344752025587   2.871333381827594   1.665537196285290 
  1.309806565178394   5.085503350493009   1.665242175906045 
  0.051105875222928   7.265636897017953   1.665242175906045 
 -1.261652472523036   9.420212678022946   1.665537196285290 
 -2.515327036622793  11.575678392764869   1.665357357192720 
 -1.255800448996750  13.749324717683482   1.665122306805390 
  6.271391765963654   0.711845363034699   1.665122306805390 
  5.038159335183507   2.851557347758973   1.665762192041430 
  3.816237928684197   4.979540597660660   1.664788468343460 
  1.212555121159337   9.489251507087451   1.664788468343460 
 -0.019371728833653  11.611458111494882   1.665762192041430 
  1.251462857333317  13.765223670194551   1.665234540824940 
  8.776874472885446   0.730284277598472   1.664489099408595 
  7.538792315896869   2.875249604037585   1.665234540824940 
  6.302490627707916   5.015781541703881   1.664905811964075 
  4.989118696827614   7.141322232022659   1.665298643218425 
  3.671153318023136   9.424105230728854   1.665298643218425 
  2.487067048869710  11.624289032648161   1.664905811964075 
  3.762227849408624  13.755176422471493   1.664917618295385 
 11.283235930146033   0.738854689028278   1.664872719805845 
 10.037477395534859   2.896571764937456   1.664872719805845 
  8.785473640168270   5.054659493968984   1.664917618295385 
  7.494621014048106   7.213046381907281   1.665196351868250 
  6.213997296077482   9.370361553505104   1.665914560047810 
  4.986019412498288  11.558071811740374   1.665196351868250 
  6.257672035517256  13.732318744124518   1.664826983937120 
 13.788235400575147   0.737659762308681   1.665130924527000 
 12.543755065601909   2.905093801798357   1.665703695444870 
 11.288942293863407   5.066562406140227   1.665130924527000 
 10.013400403111376   7.227206392023556   1.664826983937120 
  8.739643801590187   9.386420173182286   1.665758491209720 
  7.490727721432747  11.549606278404809   1.665758491209720 
  7.510507793974314  14.456794225379841   1.664912230012080 
 15.041198960806422   1.460699848541117   1.665513814451625 
 13.797685876739674   3.629068413823871   1.666251080119635 
 12.541580156470694   5.790166617205315   1.665513814451625 
 11.267217453376999   7.949982226009395   1.664912230012080 
  9.996119141149578  10.110509737078376   1.665549764242080 
  8.746030348021460  12.275727040748810   1.665549764242080 
 -7.519196291258811  14.447348363519351   1.665016946655900 
  0.011588398434637   1.452004564884149   1.665155490954045 
 -1.220735024545150   3.635313870764000   1.665345762554940 
 -2.470080849525368   5.799244315853866   1.665345762554940 
 -3.744720461255024   7.958122358787980   1.665155490954045 
 -5.020649157838006  10.119737783328796   1.665016946655900 
 -6.273737591051548  12.280336879339007   1.664658837041520 
 -5.013944366413202  14.445801323318129   1.664876427960705 
  2.507804011456764   1.428178132091819   1.665707970435945 
  1.283940593418022   3.622226315904825   1.665332122053135 
  0.053840813571462   5.813810870729774   1.665412856831790 
 -1.229077195533990   7.974900806694262   1.665332122053135 
 -2.517246950823665  10.131821709384701   1.665707970435945 
 -3.768493759254543  12.288617593401751   1.664876427960705 
 -2.507622348433650  14.454704528453474   1.665235083709230 
  5.020473559983561   1.417947585061392   1.665857041323705 
  3.791574694824014   3.552537771201180   1.665752655360420 
  2.604156436288484   5.720282462285132   1.665897422749515 
  1.248000647241421   8.069213191893388   1.665897422749515 
 -0.034016471189074  10.178656039722741   1.665752655360420 
 -1.269772090174476  12.312972643224613   1.665857041323705 
 -0.000879499826594  14.472513091215507   1.665131531470320 
  7.525136743617612   1.437070578981033   1.665131531470320 
  6.288976851443760   3.579609005290011   1.665619074619170 
  5.059313643645551   5.714716948033393   1.665015428587875 
  2.470759374192856  10.198224460874954   1.665015428587875 
  1.236533259854254  12.330698008299114   1.665619074619170 
  2.511296650206194  14.476643611631753   1.665195496716660 
 10.030252431369549   1.453939699985277   1.664829484325820 
  8.784801954245374   3.610613683482680   1.665195496716660 
  7.531064718242887   5.767835121212920   1.665205798259160 
  6.215342803364803   7.916758300482073   1.665879901577850 
  4.955797705448126  10.098354404498147   1.665879901577850 
  3.752636598867647  12.312264596717986   1.665205798259160 
  5.016075203409452  14.470141961328279   1.665010288985730 
 12.537241011398505   1.459994006515805   1.665516916022940 
 11.288989904641724   3.622028344022706   1.665516916022940 
 10.031560636517680   5.783066366562933   1.665010288985730 
  8.747945565336822   7.940989725433155   1.665677219708040 
  7.474974578426358  10.098404447571028   1.666205180778675 
  6.243084116011651  12.279537021585117   1.665677219708040 
