Species order: X N B                    
   2.51242800000000     
     5.9449720136058266    0.0000000000000000    0.0000000000000000
    -2.9724860068029120    5.1484967885702053   -0.0000000000000001
     0.0000000000000000    0.0000000000000009    5.3101128803662583
   Se   N    B 
     1   143   143
Direct
  0.5149445628742684  0.4241389481037985  0.3750000000000000
  0.1110546947813449  0.0555241474974049  0.1249390650426946
  0.6110584616050071  0.5555595024360990  0.1240955669329850
  0.4444478209477568  0.0555460189475128  0.1249204665648268
  0.9443904162327453  0.5555289439423734  0.1249339297328922
  0.7777658889753978  0.0555496111543666  0.1248408030578480
  0.1110830237927928  0.7222081785630611  0.6251137471990417
  0.4444478209477568  0.7222351353335799  0.6250795334351729
  0.2776770095878064  0.2221673279604075  0.6253123498507853
  0.7777202530793410  0.7222007547936704  0.6250992797263730
  0.6110910135661953  0.2221834572437658  0.6252165334254546
  0.9444015231830055  0.2222010090254466  0.6251285582127415
  0.2777743677120215  0.7222203149871687  0.1249065723390157
  0.1110359028213645  0.2221846180773468  0.1249215306444638
  0.4444272865508154  0.2221945294900222  0.1245372432210657
  0.6110910135661953  0.7222408896557593  0.1247834665745451
  0.9443904162327453  0.7221948056237077  0.1249339297328922
  0.7777561658338009  0.2221984653206747  0.1248664184599817
  0.1110800412521624  0.8888743207433349  0.6251035914214962
  0.4444561215718734  0.8888947274526011  0.6251122876219048
  0.2776770095878064  0.3888430149607274  0.6253123498507853
  0.6110584616050071  0.3888322925022381  0.6259044330670154
  0.7777561658338009  0.8888910338464557  0.6251335815400181
  0.9443985280333902  0.3888671374249565  0.6250953936887180
  0.1110546947813449  0.3888638806172687  0.1249390650426946
  0.2777743677120215  0.8888873860581806  0.1249065723390157
  0.6111155789336857  0.8889056066063060  0.1248580580728558
  0.4442488564819727  0.3887910949076510  0.1226782480537442
  0.9443985280333902  0.8888647239417617  0.1249046063112816
  0.7777202530793410  0.3888528316189986  0.1249007202736268
  0.2777568293995297  0.5555462664329155  0.6250542507353456
  0.1110546947813449  0.0555241474974049  0.6250609349573051
  0.6110584616050071  0.5555595024360990  0.6259044330670154
  0.4444478209477568  0.0555460189475128  0.6250795334351729
  0.9443904162327453  0.5555289439423734  0.6250660702671078
  0.1110800412521624  0.5555390538421568  0.1248964085785043
  0.7777658889753978  0.0555496111543666  0.6251591969421513
  0.2777568293995297  0.0555438962999496  0.1249457492646545
  0.4444272865508154  0.5555660903941293  0.1245372432210657
  0.7777018580716438  0.5555175957024895  0.1249149597309183
  0.6111155789336857  0.0555433056607091  0.1248580580728558
  0.4444272865508154  0.5555660903941293  0.6254627567789348
  0.9444015231830055  0.0555338474908950  0.1248714417872583
  0.2777743677120215  0.7222203149871687  0.6250934276609852
  0.1110359028213645  0.2221846180773468  0.6250784693555368
  0.4444272865508154  0.2221945294900222  0.6254627567789348
  0.6110910135661953  0.7222408896557593  0.6252165334254546
  0.9443904162327453  0.7221948056237077  0.6250660702671078
  0.7777561658338009  0.2221984653206747  0.6251335815400181
  0.1110830237927928  0.7222081785630611  0.1248862528009580
  0.4444478209477568  0.7222351353335799  0.1249204665648268
  0.2776770095878064  0.2221673279604075  0.1246876501492146
  0.7777202530793410  0.7222007547936704  0.1249007202736268
  0.6110910135661953  0.2221834572437658  0.1247834665745451
  0.9444015231830055  0.2222010090254466  0.1248714417872583
  0.1110546947813449  0.3888638806172687  0.6250609349573051
  0.2777743677120215  0.8888873860581806  0.6250934276609852
  0.6111155789336857  0.8889056066063060  0.6251419419271449
  0.4442488564819727  0.3887910949076510  0.6273217519462559
  0.9443985280333902  0.8888647239417617  0.6250953936887180
  0.1110800412521624  0.8888743207433349  0.1248964085785043
  0.7777202530793410  0.3888528316189986  0.6250992797263730
  0.4444561215718734  0.8888947274526011  0.1248877123780948
  0.2776770095878064  0.3888430149607274  0.1246876501492146
  0.2777568293995297  0.5555462664329155  0.1249457492646545
  0.6110584616050071  0.3888322925022381  0.1240955669329850
  0.7777561658338009  0.8888910338464557  0.1248664184599817
  0.9443985280333902  0.3888671374249565  0.1249046063112816
  0.1110800412521624  0.5555390538421568  0.6251035914214962
  0.2777568293995297  0.0555438962999496  0.6250542507353456
  0.7777018580716438  0.5555175957024895  0.6250850402690815
  0.6111155789336857  0.0555433056607091  0.6251419419271449
  0.9444015231830055  0.0555338474908950  0.6251285582127415
  0.0567359938732912  0.1118299949168971  0.3750000000000000
  0.5548147491746962  0.6200677351846939  0.3750000000000000
  0.3863847047193866  0.1036796453630726  0.3750000000000000
  0.8849413237156161  0.6091373285244795  0.3750000000000000
  0.7227011446704761  0.1103931154656896  0.3750000000000000
  0.0555738498959726  0.7777857493525339  0.8750000000000000
  0.3889035899191084  0.7777870947093651  0.8750000000000000
  0.2222453475995005  0.2777893404664183  0.8750000000000000
  0.7222456651464330  0.7777852784202471  0.8750000000000000
  0.5555762173182628  0.2777894655385150  0.8750000000000000
  0.8889140219131162  0.2777944074360479  0.8750000000000000
  0.2189709145512079  0.7761521239422725  0.3750000000000000
  0.0567359938732912  0.2782393322897300  0.3750000000000000
  0.3875726214914562  0.2664025614751069  0.3750000000000000
  0.5546531559317804  0.7815472339663123  0.3750000000000000
  0.8875765437196129  0.7777876598925516  0.3750000000000000
  0.7224902994965123  0.2754237205836801  0.3750000000000000
  0.0555749349363390  0.9444503354225985  0.8750000000000000
  0.3889035899191084  0.9444498285430794  0.8750000000000000
  0.2222403285113726  0.4444588231064303  0.8750000000000000
  0.5555840550926552  0.4444586942129919  0.8750000000000000
  0.7222420052619550  0.9444527898930306  0.8750000000000000
  0.8889152719584753  0.4444607219107765  0.8750000000000000
  0.0543018630478834  0.4441760500148300  0.3750000000000000
  0.2192591103490989  0.9413653549446628  0.3750000000000000
  0.5546306409809217  0.9439819871571254  0.3750000000000000
  0.3875726214914562  0.4545033933496851  0.3750000000000000
  0.8895078944740523  0.9455281088344302  0.3750000000000000
  0.7204330823396994  0.4413228920140903  0.3750000000000000
  0.2222351510407390  0.6111215942148654  0.8750000000000000
  0.0555793798603225  0.1111202541932114  0.8750000000000000
  0.5555762173182628  0.6111200851130832  0.8750000000000000
  0.3889044585232699  0.1111141065958955  0.8750000000000000
  0.8889165635204596  0.6111249484269015  0.8750000000000000
  0.0523183399050860  0.6098505713795884  0.3750000000000000
  0.7222420052619550  0.1111225487022589  0.8750000000000000
  0.2209957250711096  0.1086625716238444  0.3750000000000000
  0.3863847047193866  0.6160383926896568  0.3750000000000000
  0.7204330823396994  0.6124435236589438  0.3750000000000000
  0.5546531559317804  0.1064392552988035  0.3750000000000000
  0.3889044585232699  0.6111236852607179  0.8750000000000000
  0.8899959384856784  0.1116646359095107  0.3750000000000000
  0.2222358269836207  0.7777845801584790  0.8750000000000000
  0.0555793798603225  0.2777924590004475  0.8750000000000000
  0.3889083138209379  0.2777806477878225  0.8750000000000000
  0.5555726850107794  0.7777860864319633  0.8750000000000000
  0.8889152719584753  0.7777878833810360  0.8750000000000000
  0.7222456651464330  0.2777937200595209  0.8750000000000000
  0.0523183399050860  0.7758011018588324  0.3750000000000000
  0.3864126641370327  0.7784614022360289  0.3750000000000000
  0.2247996820511945  0.2790665076922657  0.3750000000000000
  0.7224902994965123  0.7803999122461683  0.3750000000000000
  0.5548147491746962  0.2680803473233386  0.3750000000000000
  0.8895078944740523  0.2773131189729576  0.3750000000000000
  0.0555749349363390  0.4444579328470690  0.8750000000000000
  0.2222351510407390  0.9444468901592090  0.8750000000000000
  0.5555704005484110  0.9444518669408697  0.8750000000000000
  0.3889083138209379  0.4444609993664519  0.8750000000000000
  0.8889140219131162  0.9444529478104039  0.8750000000000000
  0.0543018630478834  0.9434591463663825  0.3750000000000000
  0.7222515778708352  0.4444618548802667  0.8750000000000000
  0.3864126641370327  0.9412845952343397  0.3750000000000000
  0.2209957250711096  0.4456664867806008  0.3750000000000000
  0.2192591103490989  0.6112270887377704  0.3750000000000000
  0.7227011446704761  0.9456413625381227  0.3750000000000000
  0.8875765437196129  0.4431222171603953  0.3750000000000000
  0.0555738498959726  0.6111214338767750  0.8750000000000000
  0.2222403285113726  0.1111148387382782  0.8750000000000000
  0.7222515778708352  0.6111230563239052  0.8750000000000000
  0.5555726850107794  0.1111199319121519  0.8750000000000000
  0.8889135475630994  0.1111234404482214  0.8750000000000000
  0.1111262943991739  0.0549816503286032  0.3750000000000000
  0.6100774147034080  0.5666001809283790  0.3750000000000000
  0.4429903663245738  0.0512625389948538  0.3750000000000000
  0.9413334156434338  0.5541198606542962  0.3750000000000000
  0.7789929706241667  0.0561631519787510  0.3750000000000000
  0.1111323125217256  0.7222328229275271  0.8750000000000000
  0.4444456089497134  0.7221843846023127  0.8750000000000000
  0.2778502707967729  0.2222776222196801  0.8750000000000000
  0.7777722403299814  0.7221941841856596  0.8750000000000000
  0.6110951876317733  0.2222614504466754  0.8750000000000000
  0.9445046518974290  0.2222540585323008  0.8750000000000000
  0.2752167037215960  0.7217697817123868  0.3750000000000000
  0.1143722736188447  0.2238528034760866  0.3750000000000000
  0.4415263384070311  0.2141428911229477  0.3750000000000000
  0.6111598987349305  0.7281904859704563  0.3750000000000000
  0.9413334156434338  0.7205468883224734  0.3750000000000000
  0.7786299553645065  0.2212173822725904  0.3750000000000000
  0.1111451335728732  0.8889184291830982  0.8750000000000000
  0.4444461800567658  0.8888897566950468  0.8750000000000000
  0.2778502707967729  0.3889059819104221  0.8750000000000000
  0.6110770232569620  0.3889072991770234  0.8750000000000000
  0.7777936414636433  0.8888765165015263  0.8750000000000000
  0.9444796435722006  0.3889109733006721  0.8750000000000000
  0.1111262943991738  0.3894779774038992  0.3750000000000000
  0.2752167037215960  0.8867802553425377  0.3750000000000000
  0.6113107578260479  0.8908329606987342  0.3750000000000000
  0.9438190737568554  0.8889120900558686  0.3750000000000000
  0.7768579511583283  0.3866476360123710  0.3750000000000000
  0.2778138931521544  0.5555396020889959  0.8750000000000000
  0.1111801298268724  0.0556034315677166  0.8750000000000000
  0.6110770232569620  0.5555030574132672  0.8750000000000000
  0.4444456089497134  0.0555945576807359  0.8750000000000000
  0.9444585784103925  0.5555656081068506  0.8750000000000000
  0.1086411630185528  0.5550176897509799  0.3750000000000000
  0.7778044614568341  0.0555688973950850  0.8750000000000000
  0.2757412104583710  0.0524894055443983  0.3750000000000000
  0.4415263384070311  0.5607167806174188  0.3750000000000000
  0.7731719879908890  0.5532526606621118  0.3750000000000000
  0.6113107578260479  0.0538111304606430  0.3750000000000000
  0.4444452192452627  0.5555049329260753  0.8750000000000000
  0.9460675409420876  0.0567246535271271  0.3750000000000000
  0.2777944180791034  0.7222149581055090  0.8750000000000000
  0.1112024398008920  0.2222678865671102  0.8750000000000000
  0.4444452192452627  0.2222736196525229  0.8750000000000000
  0.6110951876317733  0.7221670705184264  0.8750000000000000
  0.9444585784103925  0.7222263036368791  0.8750000000000000
  0.7777936414636433  0.2222504582954465  0.8750000000000000
  0.1080397638804687  0.7206865486068996  0.3750000000000000
  0.4429903663245738  0.7250611606630555  0.3750000000000000
  0.2806736876776710  0.2218942278921729  0.3750000000000000
  0.7768579511583283  0.7235436484792869  0.3750000000000000
  0.6111598987349305  0.2163027460978024  0.3750000000000000
  0.9460675409420876  0.2226762207482960  0.3750000000000000
  0.1111801298268724  0.3889100315924843  0.8750000000000000
  0.2777944180791034  0.8889127933069236  0.8750000000000000
  0.6111115991658079  0.8888707451939456  0.8750000000000000
  0.4444574316376398  0.3888953824854841  0.8750000000000000
  0.9444796435722006  0.8889020036048575  0.8750000000000000
  0.1086411630185528  0.8869568066009014  0.3750000000000000
  0.7777722403299814  0.3889113894776496  0.8750000000000000
  0.4430905136040674  0.8882119234686978  0.3750000000000000
  0.2806736876776710  0.3921127931188275  0.3750000000000000
  0.2757412104583710  0.5565851382473076  0.3750000000000000
  0.6100774147034080  0.3768105671083574  0.3750000000000000
  0.7786299553645065  0.8907459064252443  0.3750000000000000
  0.9438190737568554  0.3882403170343167  0.3750000000000000
  0.1111451335728732  0.5555600377231025  0.8750000000000000
  0.2778138931521544  0.0556076243964946  0.8750000000000000
  0.7777602491756674  0.5555467912545010  0.8750000000000000
  0.6111115991658079  0.0555741873051914  0.8750000000000000
  0.9445046518974290  0.0555839266984637  0.8750000000000000
  0.0556160531296988  0.1111812377514415  0.1251934809037455
  0.5553890049834789  0.6109319691444252  0.1249029530868647
  0.3889228692228672  0.1112906701678885  0.1252853485314023
  0.8887272393074699  0.6110302863204067  0.1250949439867248
  0.7221985148037442  0.1111012571935709  0.1250164114099507
  0.0555302840232990  0.7777969386122571  0.6249543511469197
  0.3889233149850934  0.7777405403058840  0.6248932884649858
  0.2223336063897080  0.2778334698615216  0.6246049647534038
  0.7221056710716853  0.7777097238330654  0.6249594092675667
  0.5553890049834789  0.2777903691723909  0.6250970469131353
  0.8888680642048056  0.2777444306039819  0.6249490903463069
  0.2222555283609603  0.7777944308471486  0.1250527191260366
  0.0556160531296988  0.2777681487115928  0.1251934809037455
  0.3888717913560223  0.2779216091045538  0.1252063385705417
  0.5555188425581207  0.7777079412040623  0.1250879280773909
  0.8887826098549234  0.7777422065756125  0.1250713577256869
  0.7221056710716853  0.2777292805719557  0.1250405907324329
  0.0555748341919930  0.9445238285444516  0.6248815556236003
  0.3889233149850934  0.9445161080125462  0.6248932884649858
  0.2223103926235579  0.4443542718329679  0.6246320423117359
  0.5551675023731607  0.4442504178532447  0.6249504203027668
  0.7221985148037442  0.9444305909435095  0.6249835885900492
  0.8887826098549234  0.4443737366126467  0.6249286422743127
  0.0555748341919930  0.4443843389808700  0.1251184443764002
  0.2222780822590290  0.9445759819851558  0.1251487166541462
  0.5555574097268208  0.9444453715300745  0.1250404533630950
  0.3888717913560223  0.4442835155848045  0.1252063385705417
  0.8888680642048056  0.9444569669341599  0.1250509096536932
  0.7219312004611741  0.4443137158451806  0.1249075861820947
  0.2222780822590290  0.6110354336072084  0.6248512833458536
  0.0556160531296988  0.1111812377514415  0.6248065190962541
  0.5553890049834789  0.6109319691444252  0.6250970469131353
  0.3889228692228672  0.1112906701678885  0.6247146514685975
  0.8887272393074699  0.6110302863204067  0.6249050560132748
  0.0555302840232990  0.6110666787443788  0.1250456488530801
  0.7221985148037442  0.1111012571935709  0.6249835885900492
  0.2223103926235579  0.1112894541239258  0.1253679576882646
  0.3889228692228672  0.6109655323883215  0.1252853485314023
  0.7219312004611741  0.6109508179493299  0.1249075861820947
  0.5555188425581207  0.1111442346873948  0.1250879280773909
  0.3889228692228672  0.6109655323883215  0.6247146514685975
  0.8889021944489448  0.1111177638911442  0.1250407289657570
  0.2222555283609603  0.7777944308471486  0.6249472808739633
  0.0556160531296988  0.2777681487115928  0.6248065190962541
  0.3888717913560223  0.2779216091045538  0.6247936614294578
  0.5555188425581207  0.7777079412040623  0.6249120719226091
  0.8887826098549234  0.7777422065756125  0.6249286422743127
  0.7221056710716853  0.2777292805719557  0.6249594092675667
  0.0555302840232990  0.7777969386122571  0.1250456488530801
  0.3889233149850934  0.7777405403058840  0.1251067115350140
  0.2223336063897080  0.2778334698615216  0.1253950352465961
  0.7221056710716853  0.7777097238330654  0.1250405907324329
  0.5553890049834789  0.2777903691723909  0.1249029530868647
  0.8888680642048056  0.2777444306039819  0.1250509096536932
  0.0555748341919930  0.4443843389808700  0.6248815556236003
  0.2222780822590290  0.9445759819851558  0.6248512833458536
  0.5555574097268208  0.9444453715300745  0.6249595466369051
  0.3888717913560223  0.4442835155848045  0.6247936614294578
  0.8888680642048056  0.9444569669341599  0.6249490903463069
  0.0555748341919930  0.9445238285444516  0.1251184443764002
  0.7219312004611741  0.4443137158451806  0.6250924138179054
  0.3889233149850934  0.9445161080125462  0.1251067115350140
  0.2223103926235579  0.4443542718329679  0.1253679576882646
  0.2222780822590290  0.6110354336072084  0.1251487166541462
  0.5551675023731607  0.4442504178532447  0.1250495796972337
  0.7221985148037442  0.9444305909435095  0.1250164114099507
  0.8887826098549234  0.4443737366126467  0.1250713577256869
  0.0555302840232990  0.6110666787443788  0.6249543511469197
  0.2223103926235579  0.1112894541239258  0.6246320423117359
  0.7219312004611741  0.6109508179493299  0.6250924138179054
  0.5555188425581207  0.1111442346873948  0.6249120719226091
  0.8889021944489448  0.1111177638911442  0.6249592710342432
 
  0.00000000E+00  0.00000000E+00  0.00000000E+00
  0.00000000E+00  0.00000000E+00  0.00000000E+00
  0.00000000E+00  0.00000000E+00  0.00000000E+00
  0.00000000E+00  0.00000000E+00  0.00000000E+00
  0.00000000E+00  0.00000000E+00  0.00000000E+00
  0.00000000E+00  0.00000000E+00  0.00000000E+00
  0.00000000E+00  0.00000000E+00  0.00000000E+00
  0.00000000E+00  0.00000000E+00  0.00000000E+00
  0.00000000E+00  0.00000000E+00  0.00000000E+00
  0.00000000E+00  0.00000000E+00  0.00000000E+00
  0.00000000E+00  0.00000000E+00  0.00000000E+00
  0.00000000E+00  0.00000000E+00  0.00000000E+00
  0.00000000E+00  0.00000000E+00  0.00000000E+00
  0.00000000E+00  0.00000000E+00  0.00000000E+00
  0.00000000E+00  0.00000000E+00  0.00000000E+00
  0.00000000E+00  0.00000000E+00  0.00000000E+00
  0.00000000E+00  0.00000000E+00  0.00000000E+00
  0.00000000E+00  0.00000000E+00  0.00000000E+00
  0.00000000E+00  0.00000000E+00  0.00000000E+00
  0.00000000E+00  0.00000000E+00  0.00000000E+00
  0.00000000E+00  0.00000000E+00  0.00000000E+00
  0.00000000E+00  0.00000000E+00  0.00000000E+00
  0.00000000E+00  0.00000000E+00  0.00000000E+00
  0.00000000E+00  0.00000000E+00  0.00000000E+00
  0.00000000E+00  0.00000000E+00  0.00000000E+00
  0.00000000E+00  0.00000000E+00  0.00000000E+00
  0.00000000E+00  0.00000000E+00  0.00000000E+00
  0.00000000E+00  0.00000000E+00  0.00000000E+00
  0.00000000E+00  0.00000000E+00  0.00000000E+00
  0.00000000E+00  0.00000000E+00  0.00000000E+00
  0.00000000E+00  0.00000000E+00  0.00000000E+00
  0.00000000E+00  0.00000000E+00  0.00000000E+00
  0.00000000E+00  0.00000000E+00  0.00000000E+00
  0.00000000E+00  0.00000000E+00  0.00000000E+00
  0.00000000E+00  0.00000000E+00  0.00000000E+00
  0.00000000E+00  0.00000000E+00  0.00000000E+00
  0.00000000E+00  0.00000000E+00  0.00000000E+00
  0.00000000E+00  0.00000000E+00  0.00000000E+00
  0.00000000E+00  0.00000000E+00  0.00000000E+00
  0.00000000E+00  0.00000000E+00  0.00000000E+00
  0.00000000E+00  0.00000000E+00  0.00000000E+00
  0.00000000E+00  0.00000000E+00  0.00000000E+00
  0.00000000E+00  0.00000000E+00  0.00000000E+00
  0.00000000E+00  0.00000000E+00  0.00000000E+00
  0.00000000E+00  0.00000000E+00  0.00000000E+00
  0.00000000E+00  0.00000000E+00  0.00000000E+00
  0.00000000E+00  0.00000000E+00  0.00000000E+00
  0.00000000E+00  0.00000000E+00  0.00000000E+00
  0.00000000E+00  0.00000000E+00  0.00000000E+00
  0.00000000E+00  0.00000000E+00  0.00000000E+00
  0.00000000E+00  0.00000000E+00  0.00000000E+00
  0.00000000E+00  0.00000000E+00  0.00000000E+00
  0.00000000E+00  0.00000000E+00  0.00000000E+00
  0.00000000E+00  0.00000000E+00  0.00000000E+00
  0.00000000E+00  0.00000000E+00  0.00000000E+00
  0.00000000E+00  0.00000000E+00  0.00000000E+00
  0.00000000E+00  0.00000000E+00  0.00000000E+00
  0.00000000E+00  0.00000000E+00  0.00000000E+00
  0.00000000E+00  0.00000000E+00  0.00000000E+00
  0.00000000E+00  0.00000000E+00  0.00000000E+00
  0.00000000E+00  0.00000000E+00  0.00000000E+00
  0.00000000E+00  0.00000000E+00  0.00000000E+00
  0.00000000E+00  0.00000000E+00  0.00000000E+00
  0.00000000E+00  0.00000000E+00  0.00000000E+00
  0.00000000E+00  0.00000000E+00  0.00000000E+00
  0.00000000E+00  0.00000000E+00  0.00000000E+00
  0.00000000E+00  0.00000000E+00  0.00000000E+00
  0.00000000E+00  0.00000000E+00  0.00000000E+00
  0.00000000E+00  0.00000000E+00  0.00000000E+00
  0.00000000E+00  0.00000000E+00  0.00000000E+00
  0.00000000E+00  0.00000000E+00  0.00000000E+00
  0.00000000E+00  0.00000000E+00  0.00000000E+00
  0.00000000E+00  0.00000000E+00  0.00000000E+00
  0.00000000E+00  0.00000000E+00  0.00000000E+00
  0.00000000E+00  0.00000000E+00  0.00000000E+00
  0.00000000E+00  0.00000000E+00  0.00000000E+00
  0.00000000E+00  0.00000000E+00  0.00000000E+00
  0.00000000E+00  0.00000000E+00  0.00000000E+00
  0.00000000E+00  0.00000000E+00  0.00000000E+00
  0.00000000E+00  0.00000000E+00  0.00000000E+00
  0.00000000E+00  0.00000000E+00  0.00000000E+00
  0.00000000E+00  0.00000000E+00  0.00000000E+00
  0.00000000E+00  0.00000000E+00  0.00000000E+00
  0.00000000E+00  0.00000000E+00  0.00000000E+00
  0.00000000E+00  0.00000000E+00  0.00000000E+00
  0.00000000E+00  0.00000000E+00  0.00000000E+00
  0.00000000E+00  0.00000000E+00  0.00000000E+00
  0.00000000E+00  0.00000000E+00  0.00000000E+00
  0.00000000E+00  0.00000000E+00  0.00000000E+00
  0.00000000E+00  0.00000000E+00  0.00000000E+00
  0.00000000E+00  0.00000000E+00  0.00000000E+00
  0.00000000E+00  0.00000000E+00  0.00000000E+00
  0.00000000E+00  0.00000000E+00  0.00000000E+00
  0.00000000E+00  0.00000000E+00  0.00000000E+00
  0.00000000E+00  0.00000000E+00  0.00000000E+00
  0.00000000E+00  0.00000000E+00  0.00000000E+00
  0.00000000E+00  0.00000000E+00  0.00000000E+00
  0.00000000E+00  0.00000000E+00  0.00000000E+00
  0.00000000E+00  0.00000000E+00  0.00000000E+00
  0.00000000E+00  0.00000000E+00  0.00000000E+00
  0.00000000E+00  0.00000000E+00  0.00000000E+00
  0.00000000E+00  0.00000000E+00  0.00000000E+00
  0.00000000E+00  0.00000000E+00  0.00000000E+00
  0.00000000E+00  0.00000000E+00  0.00000000E+00
  0.00000000E+00  0.00000000E+00  0.00000000E+00
  0.00000000E+00  0.00000000E+00  0.00000000E+00
  0.00000000E+00  0.00000000E+00  0.00000000E+00
  0.00000000E+00  0.00000000E+00  0.00000000E+00
  0.00000000E+00  0.00000000E+00  0.00000000E+00
  0.00000000E+00  0.00000000E+00  0.00000000E+00
  0.00000000E+00  0.00000000E+00  0.00000000E+00
  0.00000000E+00  0.00000000E+00  0.00000000E+00
  0.00000000E+00  0.00000000E+00  0.00000000E+00
  0.00000000E+00  0.00000000E+00  0.00000000E+00
  0.00000000E+00  0.00000000E+00  0.00000000E+00
  0.00000000E+00  0.00000000E+00  0.00000000E+00
  0.00000000E+00  0.00000000E+00  0.00000000E+00
  0.00000000E+00  0.00000000E+00  0.00000000E+00
  0.00000000E+00  0.00000000E+00  0.00000000E+00
  0.00000000E+00  0.00000000E+00  0.00000000E+00
  0.00000000E+00  0.00000000E+00  0.00000000E+00
  0.00000000E+00  0.00000000E+00  0.00000000E+00
  0.00000000E+00  0.00000000E+00  0.00000000E+00
  0.00000000E+00  0.00000000E+00  0.00000000E+00
  0.00000000E+00  0.00000000E+00  0.00000000E+00
  0.00000000E+00  0.00000000E+00  0.00000000E+00
  0.00000000E+00  0.00000000E+00  0.00000000E+00
  0.00000000E+00  0.00000000E+00  0.00000000E+00
  0.00000000E+00  0.00000000E+00  0.00000000E+00
  0.00000000E+00  0.00000000E+00  0.00000000E+00
  0.00000000E+00  0.00000000E+00  0.00000000E+00
  0.00000000E+00  0.00000000E+00  0.00000000E+00
  0.00000000E+00  0.00000000E+00  0.00000000E+00
  0.00000000E+00  0.00000000E+00  0.00000000E+00
  0.00000000E+00  0.00000000E+00  0.00000000E+00
  0.00000000E+00  0.00000000E+00  0.00000000E+00
  0.00000000E+00  0.00000000E+00  0.00000000E+00
  0.00000000E+00  0.00000000E+00  0.00000000E+00
  0.00000000E+00  0.00000000E+00  0.00000000E+00
  0.00000000E+00  0.00000000E+00  0.00000000E+00
  0.00000000E+00  0.00000000E+00  0.00000000E+00
  0.00000000E+00  0.00000000E+00  0.00000000E+00
  0.00000000E+00  0.00000000E+00  0.00000000E+00
  0.00000000E+00  0.00000000E+00  0.00000000E+00
  0.00000000E+00  0.00000000E+00  0.00000000E+00
  0.00000000E+00  0.00000000E+00  0.00000000E+00
  0.00000000E+00  0.00000000E+00  0.00000000E+00
  0.00000000E+00  0.00000000E+00  0.00000000E+00
  0.00000000E+00  0.00000000E+00  0.00000000E+00
  0.00000000E+00  0.00000000E+00  0.00000000E+00
  0.00000000E+00  0.00000000E+00  0.00000000E+00
  0.00000000E+00  0.00000000E+00  0.00000000E+00
  0.00000000E+00  0.00000000E+00  0.00000000E+00
  0.00000000E+00  0.00000000E+00  0.00000000E+00
  0.00000000E+00  0.00000000E+00  0.00000000E+00
  0.00000000E+00  0.00000000E+00  0.00000000E+00
  0.00000000E+00  0.00000000E+00  0.00000000E+00
  0.00000000E+00  0.00000000E+00  0.00000000E+00
  0.00000000E+00  0.00000000E+00  0.00000000E+00
  0.00000000E+00  0.00000000E+00  0.00000000E+00
  0.00000000E+00  0.00000000E+00  0.00000000E+00
  0.00000000E+00  0.00000000E+00  0.00000000E+00
  0.00000000E+00  0.00000000E+00  0.00000000E+00
  0.00000000E+00  0.00000000E+00  0.00000000E+00
  0.00000000E+00  0.00000000E+00  0.00000000E+00
  0.00000000E+00  0.00000000E+00  0.00000000E+00
  0.00000000E+00  0.00000000E+00  0.00000000E+00
  0.00000000E+00  0.00000000E+00  0.00000000E+00
  0.00000000E+00  0.00000000E+00  0.00000000E+00
  0.00000000E+00  0.00000000E+00  0.00000000E+00
  0.00000000E+00  0.00000000E+00  0.00000000E+00
  0.00000000E+00  0.00000000E+00  0.00000000E+00
  0.00000000E+00  0.00000000E+00  0.00000000E+00
  0.00000000E+00  0.00000000E+00  0.00000000E+00
  0.00000000E+00  0.00000000E+00  0.00000000E+00
  0.00000000E+00  0.00000000E+00  0.00000000E+00
  0.00000000E+00  0.00000000E+00  0.00000000E+00
  0.00000000E+00  0.00000000E+00  0.00000000E+00
  0.00000000E+00  0.00000000E+00  0.00000000E+00
  0.00000000E+00  0.00000000E+00  0.00000000E+00
  0.00000000E+00  0.00000000E+00  0.00000000E+00
  0.00000000E+00  0.00000000E+00  0.00000000E+00
  0.00000000E+00  0.00000000E+00  0.00000000E+00
  0.00000000E+00  0.00000000E+00  0.00000000E+00
  0.00000000E+00  0.00000000E+00  0.00000000E+00
  0.00000000E+00  0.00000000E+00  0.00000000E+00
  0.00000000E+00  0.00000000E+00  0.00000000E+00
  0.00000000E+00  0.00000000E+00  0.00000000E+00
  0.00000000E+00  0.00000000E+00  0.00000000E+00
  0.00000000E+00  0.00000000E+00  0.00000000E+00
  0.00000000E+00  0.00000000E+00  0.00000000E+00
  0.00000000E+00  0.00000000E+00  0.00000000E+00
  0.00000000E+00  0.00000000E+00  0.00000000E+00
  0.00000000E+00  0.00000000E+00  0.00000000E+00
  0.00000000E+00  0.00000000E+00  0.00000000E+00
  0.00000000E+00  0.00000000E+00  0.00000000E+00
  0.00000000E+00  0.00000000E+00  0.00000000E+00
  0.00000000E+00  0.00000000E+00  0.00000000E+00
  0.00000000E+00  0.00000000E+00  0.00000000E+00
  0.00000000E+00  0.00000000E+00  0.00000000E+00
  0.00000000E+00  0.00000000E+00  0.00000000E+00
  0.00000000E+00  0.00000000E+00  0.00000000E+00
  0.00000000E+00  0.00000000E+00  0.00000000E+00
  0.00000000E+00  0.00000000E+00  0.00000000E+00
  0.00000000E+00  0.00000000E+00  0.00000000E+00
  0.00000000E+00  0.00000000E+00  0.00000000E+00
  0.00000000E+00  0.00000000E+00  0.00000000E+00
  0.00000000E+00  0.00000000E+00  0.00000000E+00
  0.00000000E+00  0.00000000E+00  0.00000000E+00
  0.00000000E+00  0.00000000E+00  0.00000000E+00
  0.00000000E+00  0.00000000E+00  0.00000000E+00
  0.00000000E+00  0.00000000E+00  0.00000000E+00
  0.00000000E+00  0.00000000E+00  0.00000000E+00
  0.00000000E+00  0.00000000E+00  0.00000000E+00
  0.00000000E+00  0.00000000E+00  0.00000000E+00
  0.00000000E+00  0.00000000E+00  0.00000000E+00
  0.00000000E+00  0.00000000E+00  0.00000000E+00
  0.00000000E+00  0.00000000E+00  0.00000000E+00
  0.00000000E+00  0.00000000E+00  0.00000000E+00
  0.00000000E+00  0.00000000E+00  0.00000000E+00
  0.00000000E+00  0.00000000E+00  0.00000000E+00
  0.00000000E+00  0.00000000E+00  0.00000000E+00
  0.00000000E+00  0.00000000E+00  0.00000000E+00
  0.00000000E+00  0.00000000E+00  0.00000000E+00
  0.00000000E+00  0.00000000E+00  0.00000000E+00
  0.00000000E+00  0.00000000E+00  0.00000000E+00
  0.00000000E+00  0.00000000E+00  0.00000000E+00
  0.00000000E+00  0.00000000E+00  0.00000000E+00
  0.00000000E+00  0.00000000E+00  0.00000000E+00
  0.00000000E+00  0.00000000E+00  0.00000000E+00
  0.00000000E+00  0.00000000E+00  0.00000000E+00
  0.00000000E+00  0.00000000E+00  0.00000000E+00
  0.00000000E+00  0.00000000E+00  0.00000000E+00
  0.00000000E+00  0.00000000E+00  0.00000000E+00
  0.00000000E+00  0.00000000E+00  0.00000000E+00
  0.00000000E+00  0.00000000E+00  0.00000000E+00
  0.00000000E+00  0.00000000E+00  0.00000000E+00
  0.00000000E+00  0.00000000E+00  0.00000000E+00
  0.00000000E+00  0.00000000E+00  0.00000000E+00
  0.00000000E+00  0.00000000E+00  0.00000000E+00
  0.00000000E+00  0.00000000E+00  0.00000000E+00
  0.00000000E+00  0.00000000E+00  0.00000000E+00
  0.00000000E+00  0.00000000E+00  0.00000000E+00
  0.00000000E+00  0.00000000E+00  0.00000000E+00
  0.00000000E+00  0.00000000E+00  0.00000000E+00
  0.00000000E+00  0.00000000E+00  0.00000000E+00
  0.00000000E+00  0.00000000E+00  0.00000000E+00
  0.00000000E+00  0.00000000E+00  0.00000000E+00