 C B N 
 1.0
 14.936314146199660   0.000000000000000   0.000000000000000
 -7.468157073099825  12.935227489513863   0.000000000000000
  0.000000000000001   0.000000000000001  13.341276283792837
 C B N 
   4 142 142
Cartesian
  3.777470892900320   4.991423919888241   1.667659535474105 
  7.470398469141318   7.186028034448814   1.667659535474105 
  3.754754254284693   3.595878098829927   1.667659535474105 
  4.993157316577550   5.726972783213846   1.667659535474105 
  1.243779046166886   0.717107756009449   5.003490576576596 
  4.981403076154143   7.187606037258703   5.006823899340183 
  6.224542500121629   0.718022646165769   5.003716624411504 
  9.955469675611043   7.186921513690002   5.001744930386619 
 11.202161733021958   0.718282530440748   5.003010123743982 
 -3.735002733962068   9.341376495015162  11.674062295568822 
  1.245040601126179   9.342464846775071  11.673492876502415 
  2.489574917927144   2.874713253801064  11.669153064734653 
  6.224122488406735   9.340588145498243  11.673954998537605 
  7.469492198548100   2.875008641840461  11.673245801667802 
 12.446014849882824   2.874496217161446  11.673505596459533 
 -1.244948202725468   9.342045707871048   5.002999492096507 
 -0.000885765327835   2.874197935759006   5.003375977148057 
  4.979366013139376   2.875145145023735   5.007839125738938 
  3.734987695631187   9.342542104639834   5.002677313866025 
  8.712145714529107   9.339907519356101   5.001798501542483 
  9.957367488402324   2.874906400924185   5.002892797709898 
 -4.979462107473951  11.496123798664163  11.673529226698122 
  0.000559511336760  11.497695551778390  11.673373578892775 
  1.244789590086304   5.031361205222224  11.671957547777341 
  6.225653628289593   5.033017087450896  11.668740576478370 
  4.978875786080565  11.497108955528391  11.673890587407222 
 11.200656733245705   5.031271681998548  11.674366853326449 
 -1.245766989150491   5.030826052116455   5.003180933038078 
 -2.489323483489054  11.497035796658567   5.003375596943935 
  2.489827886986678  11.497862224586079   5.003025123626918 
  3.735359431649801   5.031840204008534   5.004608249041132 
  7.467661357340144  11.495813869667028   5.002295509570923 
  8.712113074065964   5.032076384770492   5.003061215838281 
 -0.000368587503992   7.186834846019646  11.673348515508806 
  1.243779046166886   0.717107756009449  11.673104778164449 
  4.981403076154144   7.187606037258703  11.669771455400863 
  6.224542500121630   0.718022646165769  11.672878730329543 
  9.955469675611043   7.186921513690002  11.674850424354426 
 -2.490701647132612   7.186653824471945   5.002598045122088 
 11.202161733021958   0.718282530440748  11.673585230997078 
  3.734009372233394   0.717364370205509   5.004396934364509 
  2.490096788365312   7.187023884258881   5.003981834947122 
  7.468627225248999   7.186867845005203   4.991852906510745 
  8.713595896801884   0.718405473407578   5.003263265741062 
  2.490096788365312   7.187023884258881  11.672613519793925 
 13.690928022046791   0.717527303761279   5.003144387720083 
 -1.244948202725468   9.342045707871049  11.673595862644540 
 -0.000885765327835   2.874197935759006  11.673219377592991 
  4.979366013139377   2.875145145023736  11.668756229002108 
  3.734987695631188   9.342542104639836  11.673918040875021 
  8.712145714529107   9.339907519356103  11.674796853198563 
  9.957367488402324   2.874906400924186  11.673702557031149 
 -3.735002733962069   9.341376495015160   5.002533059172224 
  1.245040601126179   9.342464846775069   5.003102478238630 
  2.489574917927144   2.874713253801063   5.007442290006392 
  6.224122488406734   9.340588145498241   5.002640356203440 
  7.469492198548099   2.875008641840460   5.003349553073245 
 12.446014849882824   2.874496217161445   5.003089758281513 
 -1.245766989150490   5.030826052116455  11.673414421702967 
 -2.489323483489054  11.497035796658569  11.673219757797110 
  2.489827886986679  11.497862224586081  11.673570231114129 
  3.735359431649802   5.031840204008534  11.671987105699900 
  7.467661357340145  11.495813869667030  11.674299845170124 
 -4.979462107473952  11.496123798664161   5.003066128042924 
  8.712113074065964   5.032076384770492  11.673534138902765 
  0.000559511336760  11.497695551778389   5.003221775848272 
  1.244789590086304   5.031361205222224   5.004637806963705 
 -0.000368587503993   7.186834846019646   5.003246839232253 
  6.225653628289592   5.033017087450896   5.007854778262675 
  4.978875786080564  11.497108955528390   5.002704767333837 
 11.200656733245705   5.031271681998548   5.002228501414611 
 -2.490701647132611   7.186653824471945  11.673997309618958 
  3.734009372233395   0.717364370205509  11.672198420376551 
  7.468627225249000   7.186867845005203  11.684742448230301 
  8.713595896801884   0.718405473407579  11.673332088999985 
 13.690928022046791   0.717527303761280  11.673450967020962 
  0.007465349221311   1.443673189615267   1.667659535474105 
  3.713621161092081   7.869425791731396   1.667659535474105 
  4.964388791671718   1.423873838223922   1.667659535474105 
  8.739982763206893   7.920960707786847   1.667659535474105 
  9.957379875109428   1.435893956952638   1.667659535474105 
 -4.979153197628666  10.060167503577963   8.338297677370523 
 -0.000078587574887  10.060520198370124   8.338297677370523 
  1.244467596941077   3.593233376680907   8.338297677370523 
  4.979296910033533  10.060474704321461   8.338297677370523 
  6.223834934124269   3.593708669254352   8.338297677370523 
 11.202185538967294   3.593476415545749   8.338297677370523 
 -2.488359126975943  10.061097205266385   1.667659535474105 
 -1.234582224279750   3.593758683375482   1.667659535474105 
  2.493108667475312  10.049904461993945   1.667659535474105 
  7.465855556578481  10.053287013965452   1.667659535474105 
  8.710887884472669   3.588807312555080   1.667659535474105 
 -6.223635310627335  12.216136934034404   8.338297677370523 
 -1.244733896844797  12.216360892501477   8.338297677370523 
 -0.000238982829172   5.749064407504527   8.338297677370523 
  4.979155298211974   5.749361963100176   8.338297677370523 
  3.734348409196936  12.216524262276943   8.338297677370523 
  9.957403317515478   5.749345047970611   8.338297677370523 
 -2.493553845574054   5.747477533262556   1.667659535474105 
 -3.732661625660459  12.211393761467191   1.667659535474105 
  1.244389643525277  12.217724830651933   1.667659535474105 
  2.465338848197915   5.755911859759878   1.667659535474105 
  6.225521026686470  12.217924887711478   1.667659535474105 
  7.474573682204454   5.745571584388700   1.667659535474105 
 -1.245047551176240   7.904703031219689   8.338297677370523 
 -0.000151416338689   1.437109882215001   8.338297677370523 
  3.734556523570870   7.904837175462363   8.338297677370523 
  4.978834276185562   1.437237367812055   8.338297677370523 
  8.712666972009222   7.904677992970058   8.338297677370523 
 -3.722315560904949   7.904154714993216   1.667659535474105 
  9.957728448489526   1.437488532481227   8.338297677370523 
  2.508000619132317   1.442503712492022   1.667659535474105 
  1.229944138313518   7.911707170779682   1.667659535474105 
  6.213507321966794   7.894952593506662   1.667659535474105 
  7.460005908447020   1.445935230781199   1.667659535474105 
  1.244733136820655   7.904790289992312   8.338297677370523 
 12.450586371414154   1.438352503986019   1.667659535474105 
 -2.489763872857492  10.060291815823943   8.338297677370523 
 -1.244938213561620   3.593241959298024   8.338297677370523 
  3.734131519426679   3.593448051645781   8.338297677370523 
  2.489667451425766  10.060602473229606   8.338297677370523 
  7.468279643999922  10.060300209011432   8.338297677370523 
  8.713105852970202   3.593790772815539   8.338297677370523 
 -4.973884142868074  10.071568497277314   1.667659535474105 
 -0.002722370357744  10.065883975963914   1.667659535474105 
  1.262538886308264   3.613906042418823   1.667659535474105 
  4.975772596079302  10.060994600893306   1.667659535474105 
  6.189586489732029   3.600218682491882   1.667659535474105 
 11.203408834005151   3.592314467387094   1.667659535474105 
 -2.489733572723481   5.749117564293568   8.338297677370523 
 -3.734320511953050  12.216126589280210   8.338297677370523 
  1.244850374310977  12.216565324129254   8.338297677370523 
  2.489518958707859   5.749137832553574   8.338297677370523 
  6.223601639486761  12.216334542390827   8.338297677370523 
 -6.220407951928586  12.223852248642434   1.667659535474105 
  7.468534076592690   5.749720014393196   8.338297677370523 
 -1.247575961816900  12.220493903486174   1.667659535474105 
 -0.013230915950654   5.753021182981166   1.667659535474105 
 -1.245826923939326   7.907279666650404   1.667659535474105 
  3.733688819764155  12.217286322901101   1.667659535474105 
  9.951867683674807   5.750781835038184   1.667659535474105 
 -3.734568846750197   7.904616745496112   8.338297677370523 
  2.489198678361647   1.437081641946600   8.338297677370523 
  6.224126508633495   7.904792082850245   8.338297677370523 
  7.468400848769059   1.437470039205376   8.338297677370523 
 12.446974786270527   1.437301293138852   8.338297677370523 
  1.260698927835411   0.739486724938569   1.667659535474105 
  4.957634749226639   7.098414633803952   1.667659535474105 
  6.212078838819840   0.731275527664026   1.667659535474105 
  9.988297981804770   7.187215657833050   1.667659535474105 
 11.202836515592999   0.719272223287604   1.667659535474105 
 -3.734068460400962   9.342049869051968   8.338297677370523 
  1.244692280856555   9.342046106859110   8.338297677370523 
  2.489350167354520   2.874493843745886   8.338297677370523 
  6.223505819738183   9.342148625579821   8.338297677370523 
  7.468161881414130   2.874488479695551   8.338297677370523 
 12.447014345769968   2.874520585611492   8.338297677370523 
 -1.242425072696090   9.345513328322133   1.667659535474105 
  0.026847353947239   2.880785017808232   1.667659535474105 
  4.926851858235072   2.883397254821343   1.667659535474105 
  3.735195967268596   9.313812173628703   1.667659535474105 
  8.729603090178760   9.369278938990808   1.667659535474105 
  9.955778517321686   2.866895978422171   1.667659535474105 
 -4.978770267383779  11.498019991016927   8.338297677370523 
 -0.000017637903308  11.497990981755127   8.338297677370523 
  1.244698867501551   5.030335738494113   8.338297677370523 
  6.223403987114769   5.030334534114057   8.338297677370523 
  4.978838215879970  11.498034199007977   8.338297677370523 
 11.202343292755558   5.030369624424871   8.338297677370523 
 -1.245289565839043   5.028000580241107   1.667659535474105 
 -2.487209253786259  11.503059121945054   1.667659535474105 
  2.489082597264392  11.493084474415079   1.667659535474105 
  7.470662250977762  11.505904838640298   1.667659535474105 
  8.714523447080563   5.002661469222832   1.667659535474105 
  0.000015237798243   7.186174910180597   8.338297677370523 
  1.244722747368818   0.718675734339150   8.338297677370523 
  4.978702969679940   7.186143807034017   8.338297677370523 
  6.223458215326498   0.718629369477183   8.338297677370523 
  9.957645074786447   7.186173073085957   8.338297677370523 
 -2.478451922692416   7.184601743128462   1.667659535474105 
 11.202291559678121   0.718663804482077   8.338297677370523 
  3.734897901661644   0.718794935274381   1.667659535474105 
  2.467358665826830   7.183388544375107   1.667659535474105 
  8.704639280481736   0.723519256709868   1.667659535474105 
  2.489406224770194   7.186155534988785   8.338297677370523 
 13.699729757302345   0.724809983636267   1.667659535474105 
 -1.244695491604245   9.342061422121477   8.338297677370523 
  0.000038052132840   2.874497395779896   8.338297677370523 
  4.978767385369650   2.874493914622719   8.338297677370523 
  3.734086793831677   9.342042073753513   8.338297677370523 
  8.712880226274894   9.342153962830267   8.338297677370523 
  9.957604136771849   2.874519117970749   8.338297677370523 
 -3.726107576972173   9.348301618550881   1.667659535474105 
  1.240810538225427   9.344830325967360   1.667659535474105 
  2.554938747366885   2.906933008082031   1.667659535474105 
  6.200350921569880   9.349160347140433   1.667659535474105 
  7.435724374018966   2.885298645314280   1.667659535474105 
 12.455806306183456   2.874350085881420   1.667659535474105 
 -1.244649645940772   5.030359241182889   8.338297677370523 
 -2.489376560714533  11.497982884384701   8.338297677370523 
  2.489370719584164  11.497992388784445   8.338297677370523 
  3.734027855674090   5.030326297581164   8.338297677370523 
  7.468209422369675  11.498101402714875   8.338297677370523 
 -4.973399793599856  11.512179779154444   1.667659535474105 
  8.712957607485317   5.030369509899342   8.338297677370523 
 -0.003360796744411  11.504925407882167   1.667659535474105 
  1.235087695781872   5.034666714942635   1.667659535474105 
 -0.004245349555158   7.187167062651361   1.667659535474105 
  6.170731498170911   5.040909031793951   1.667659535474105 
  4.974874298534191  11.502123633038815   1.667659535474105 
 11.202971897714489   5.025666105407266   1.667659535474105 
 -2.489362791352350   7.186175747295214   8.338297677370523 
  3.734078035926622   0.718649486430080   8.338297677370523 
  7.468201985144954   7.186230546128935   8.338297677370523 
  8.712834495935603   0.718626669900794   8.338297677370523 
 13.691718690216467   0.718687635825259   8.338297677370523 
 -0.000005498369443   1.437099657115023   5.002122679649252 
  3.734204782020712   7.904894750017852   5.000960800962087 
  4.978864888614989   1.437311555351213   4.999838061542857 
  8.713197048942643   7.905055583254153   5.009979795725735 
  9.957461132105006   1.437035602948340   5.002722007343323 
 -4.978655588898121  10.060755648960042  11.672796210823170 
  0.000180733864726  10.060876162802019  11.674063123163638 
  1.244932833248958   3.593093231550676  11.675715369573519 
  4.978454493640843  10.060810207929814  11.673017847561511 
  6.223399364504957   3.593089717130212  11.677137181147444 
 11.202113230799824   3.593025647658698  11.673517195059967 
 -2.489136859396035  10.060921944459707   5.002908452070222 
 -1.244673417029585   3.593043120494101   5.002399138614982 
  3.734277031450126   3.592851853871546   5.005578246980291 
  2.489324225415331  10.060834205955677   5.002585779010135 
  7.468035533858375  10.060666606962451   5.003955759212033 
  8.712711123493454   3.592729751511456   5.003183434963255 
 -6.223523575327452  12.216493863358677  11.674011286740962 
 -1.244487631992789  12.216707311936764  11.674511871596405 
  0.000170573231676   5.749027546824901  11.674477190043234 
  4.979048586945546   5.749138402685173  11.671490872945833 
  3.733927859393079  12.216566747743682  11.673777593033613 
  9.957422633869990   5.748930380770892  11.672669903594356 
 -2.489442504336160   5.749029570327772   5.002918346566408 
 -3.733948335624396  12.216612529198652   5.002144945963217 
  1.244693310219083  12.216580666034025   5.002638552253376 
  2.489567107199635   5.749183831825266   5.004748975746340 
  6.223353374123058  12.216475776033516   5.003039972998938 
  7.468039718437531   5.748158905355105   5.011937297090958 
 -1.244578108732169   7.904985976374761  11.673825565786441 
 -0.000005498369442   1.437099657115024  11.674472675091796 
  3.734204782020712   7.904894750017852  11.675634553778959 
  4.978864888614990   1.437311555351214  11.676757293198191 
  8.713197048942643   7.905055583254153  11.666615559015298 
 -3.734018746969963   7.904982524865964   5.003786998296246 
  9.957461132105006   1.437035602948341  11.673873347397738 
  2.489504709335762   1.437217443157017   5.000453652549641 
  1.244887493102526   7.904943094392878   5.002099761854574 
  6.222720269832029   7.905195162203010   5.011729703232413 
  7.468203546343223   1.437030798625129   5.001973712193708 
  1.244887493102527   7.904943094392878  11.674495592886473 
 12.446856626789300   1.437101663692148   5.002810202043423 
 -2.489136859396035  10.060921944459709  11.673686902670811 
 -1.244673417029584   3.593043120494102  11.674196216126079 
  3.734277031450127   3.592851853871547  11.671017107760754 
  2.489324225415332  10.060834205955679  11.674009575730912 
  7.468035533858376  10.060666606962453  11.672639595529027 
  8.712711123493454   3.592729751511457  11.673411919777791 
 -4.978655588898122  10.060755648960040   5.003799143917876 
  0.000180733864726  10.060876162802018   5.002532231577408 
  1.244932833248957   3.593093231550675   5.000879985167528 
  4.978454493640842  10.060810207929812   5.003577507179535 
  6.223399364504957   3.593089717130211   4.999458173593601 
 11.202113230799824   3.593025647658697   5.003078159681067 
 -2.489442504336160   5.749029570327772  11.673677008174639 
 -3.733948335624396  12.216612529198654  11.674450408777815 
  1.244693310219084  12.216580666034027  11.673956802487671 
  2.489567107199636   5.749183831825266  11.671846378994706 
  6.223353374123059  12.216475776033517  11.673555381742108 
 -6.223523575327452  12.216493863358675   5.002584068000083 
  7.468039718437532   5.748158905355105  11.664658057650088 
 -1.244487631992790  12.216707311936762   5.002083483144641 
  0.000170573231675   5.749027546824901   5.002118164697813 
 -1.244578108732170   7.904985976374761   5.002769788954605 
  4.979048586945545   5.749138402685173   5.005104481795212 
  3.733927859393078  12.216566747743681   5.002817761707434 
  9.957422633869990   5.748930380770892   5.003925451146690 
 -3.734018746969963   7.904982524865964  11.672808356444801 
  2.489504709335762   1.437217443157018  11.676141702191405 
  6.222720269832030   7.905195162203010  11.664865651508634 
  7.468203546343224   1.437030798625130  11.674621642547324 
 12.446856626789300   1.437101663692149  11.673785152697624 
Generated by cif2cell 2.0.0.  :  Failed to get author information, No journal information. Species order: C B N 
 1.0
 14.936314146199660   0.000000000000000   0.000000000000000
 -7.468157073099825  12.935227489513863   0.000000000000000
  0.000000000000001   0.000000000000001  13.341276283792837
 C B N 
   4 142 142
Cartesian
  3.777470892900320   4.991423919888241   1.667659535474105 
  7.470398469141318   7.186028034448814   1.667659535474105 
  3.754754254284693   3.595878098829927   1.667659535474105 
  4.993157316577550   5.726972783213846   1.667659535474105 
  1.243779046166886   0.717107756009449   5.003490576576596 
  4.981403076154143   7.187606037258703   5.006823899340183 
  6.224542500121629   0.718022646165769   5.003716624411504 
  9.955469675611043   7.186921513690002   5.001744930386619 
 11.202161733021958   0.718282530440748   5.003010123743982 
 -3.735002733962068   9.341376495015162  11.674062295568822 
  1.245040601126179   9.342464846775071  11.673492876502415 
  2.489574917927144   2.874713253801064  11.669153064734653 
  6.224122488406735   9.340588145498243  11.673954998537605 
  7.469492198548100   2.875008641840461  11.673245801667802 
 12.446014849882824   2.874496217161446  11.673505596459533 
 -1.244948202725468   9.342045707871048   5.002999492096507 
 -0.000885765327835   2.874197935759006   5.003375977148057 
  4.979366013139376   2.875145145023735   5.007839125738938 
  3.734987695631187   9.342542104639834   5.002677313866025 
  8.712145714529107   9.339907519356101   5.001798501542483 
  9.957367488402324   2.874906400924185   5.002892797709898 
 -4.979462107473951  11.496123798664163  11.673529226698122 
  0.000559511336760  11.497695551778390  11.673373578892775 
  1.244789590086304   5.031361205222224  11.671957547777341 
  6.225653628289593   5.033017087450896  11.668740576478370 
  4.978875786080565  11.497108955528391  11.673890587407222 
 11.200656733245705   5.031271681998548  11.674366853326449 
 -1.245766989150491   5.030826052116455   5.003180933038078 
 -2.489323483489054  11.497035796658567   5.003375596943935 
  2.489827886986678  11.497862224586079   5.003025123626918 
  3.735359431649801   5.031840204008534   5.004608249041132 
  7.467661357340144  11.495813869667028   5.002295509570923 
  8.712113074065964   5.032076384770492   5.003061215838281 
 -0.000368587503992   7.186834846019646  11.673348515508806 
  1.243779046166886   0.717107756009449  11.673104778164449 
  4.981403076154144   7.187606037258703  11.669771455400863 
  6.224542500121630   0.718022646165769  11.672878730329543 
  9.955469675611043   7.186921513690002  11.674850424354426 
 -2.490701647132612   7.186653824471945   5.002598045122088 
 11.202161733021958   0.718282530440748  11.673585230997078 
  3.734009372233394   0.717364370205509   5.004396934364509 
  2.490096788365312   7.187023884258881   5.003981834947122 
  7.468627225248999   7.186867845005203   4.991852906510745 
  8.713595896801884   0.718405473407578   5.003263265741062 
  2.490096788365312   7.187023884258881  11.672613519793925 
 13.690928022046791   0.717527303761279   5.003144387720083 
 -1.244948202725468   9.342045707871049  11.673595862644540 
 -0.000885765327835   2.874197935759006  11.673219377592991 
  4.979366013139377   2.875145145023736  11.668756229002108 
  3.734987695631188   9.342542104639836  11.673918040875021 
  8.712145714529107   9.339907519356103  11.674796853198563 
  9.957367488402324   2.874906400924186  11.673702557031149 
 -3.735002733962069   9.341376495015160   5.002533059172224 
  1.245040601126179   9.342464846775069   5.003102478238630 
  2.489574917927144   2.874713253801063   5.007442290006392 
  6.224122488406734   9.340588145498241   5.002640356203440 
  7.469492198548099   2.875008641840460   5.003349553073245 
 12.446014849882824   2.874496217161445   5.003089758281513 
 -1.245766989150490   5.030826052116455  11.673414421702967 
 -2.489323483489054  11.497035796658569  11.673219757797110 
  2.489827886986679  11.497862224586081  11.673570231114129 
  3.735359431649802   5.031840204008534  11.671987105699900 
  7.467661357340145  11.495813869667030  11.674299845170124 
 -4.979462107473952  11.496123798664161   5.003066128042924 
  8.712113074065964   5.032076384770492  11.673534138902765 
  0.000559511336760  11.497695551778389   5.003221775848272 
  1.244789590086304   5.031361205222224   5.004637806963705 
 -0.000368587503993   7.186834846019646   5.003246839232253 
  6.225653628289592   5.033017087450896   5.007854778262675 
  4.978875786080564  11.497108955528390   5.002704767333837 
 11.200656733245705   5.031271681998548   5.002228501414611 
 -2.490701647132611   7.186653824471945  11.673997309618958 
  3.734009372233395   0.717364370205509  11.672198420376551 
  7.468627225249000   7.186867845005203  11.684742448230301 
  8.713595896801884   0.718405473407579  11.673332088999985 
 13.690928022046791   0.717527303761280  11.673450967020962 
  0.007465349221311   1.443673189615267   1.667659535474105 
  3.713621161092081   7.869425791731396   1.667659535474105 
  4.964388791671718   1.423873838223922   1.667659535474105 
  8.739982763206893   7.920960707786847   1.667659535474105 
  9.957379875109428   1.435893956952638   1.667659535474105 
 -4.979153197628666  10.060167503577963   8.338297677370523 
 -0.000078587574887  10.060520198370124   8.338297677370523 
  1.244467596941077   3.593233376680907   8.338297677370523 
  4.979296910033533  10.060474704321461   8.338297677370523 
  6.223834934124269   3.593708669254352   8.338297677370523 
 11.202185538967294   3.593476415545749   8.338297677370523 
 -2.488359126975943  10.061097205266385   1.667659535474105 
 -1.234582224279750   3.593758683375482   1.667659535474105 
  2.493108667475312  10.049904461993945   1.667659535474105 
  7.465855556578481  10.053287013965452   1.667659535474105 
  8.710887884472669   3.588807312555080   1.667659535474105 
 -6.223635310627335  12.216136934034404   8.338297677370523 
 -1.244733896844797  12.216360892501477   8.338297677370523 
 -0.000238982829172   5.749064407504527   8.338297677370523 
  4.979155298211974   5.749361963100176   8.338297677370523 
  3.734348409196936  12.216524262276943   8.338297677370523 
  9.957403317515478   5.749345047970611   8.338297677370523 
 -2.493553845574054   5.747477533262556   1.667659535474105 
 -3.732661625660459  12.211393761467191   1.667659535474105 
  1.244389643525277  12.217724830651933   1.667659535474105 
  2.465338848197915   5.755911859759878   1.667659535474105 
  6.225521026686470  12.217924887711478   1.667659535474105 
  7.474573682204454   5.745571584388700   1.667659535474105 
 -1.245047551176240   7.904703031219689   8.338297677370523 
 -0.000151416338689   1.437109882215001   8.338297677370523 
  3.734556523570870   7.904837175462363   8.338297677370523 
  4.978834276185562   1.437237367812055   8.338297677370523 
  8.712666972009222   7.904677992970058   8.338297677370523 
 -3.722315560904949   7.904154714993216   1.667659535474105 
  9.957728448489526   1.437488532481227   8.338297677370523 
  2.508000619132317   1.442503712492022   1.667659535474105 
  1.229944138313518   7.911707170779682   1.667659535474105 
  6.213507321966794   7.894952593506662   1.667659535474105 
  7.460005908447020   1.445935230781199   1.667659535474105 
  1.244733136820655   7.904790289992312   8.338297677370523 
 12.450586371414154   1.438352503986019   1.667659535474105 
 -2.489763872857492  10.060291815823943   8.338297677370523 
 -1.244938213561620   3.593241959298024   8.338297677370523 
  3.734131519426679   3.593448051645781   8.338297677370523 
  2.489667451425766  10.060602473229606   8.338297677370523 
  7.468279643999922  10.060300209011432   8.338297677370523 
  8.713105852970202   3.593790772815539   8.338297677370523 
 -4.973884142868074  10.071568497277314   1.667659535474105 
 -0.002722370357744  10.065883975963914   1.667659535474105 
  1.262538886308264   3.613906042418823   1.667659535474105 
  4.975772596079302  10.060994600893306   1.667659535474105 
  6.189586489732029   3.600218682491882   1.667659535474105 
 11.203408834005151   3.592314467387094   1.667659535474105 
 -2.489733572723481   5.749117564293568   8.338297677370523 
 -3.734320511953050  12.216126589280210   8.338297677370523 
  1.244850374310977  12.216565324129254   8.338297677370523 
  2.489518958707859   5.749137832553574   8.338297677370523 
  6.223601639486761  12.216334542390827   8.338297677370523 
 -6.220407951928586  12.223852248642434   1.667659535474105 
  7.468534076592690   5.749720014393196   8.338297677370523 
 -1.247575961816900  12.220493903486174   1.667659535474105 
 -0.013230915950654   5.753021182981166   1.667659535474105 
 -1.245826923939326   7.907279666650404   1.667659535474105 
  3.733688819764155  12.217286322901101   1.667659535474105 
  9.951867683674807   5.750781835038184   1.667659535474105 
 -3.734568846750197   7.904616745496112   8.338297677370523 
  2.489198678361647   1.437081641946600   8.338297677370523 
  6.224126508633495   7.904792082850245   8.338297677370523 
  7.468400848769059   1.437470039205376   8.338297677370523 
 12.446974786270527   1.437301293138852   8.338297677370523 
  1.260698927835411   0.739486724938569   1.667659535474105 
  4.957634749226639   7.098414633803952   1.667659535474105 
  6.212078838819840   0.731275527664026   1.667659535474105 
  9.988297981804770   7.187215657833050   1.667659535474105 
 11.202836515592999   0.719272223287604   1.667659535474105 
 -3.734068460400962   9.342049869051968   8.338297677370523 
  1.244692280856555   9.342046106859110   8.338297677370523 
  2.489350167354520   2.874493843745886   8.338297677370523 
  6.223505819738183   9.342148625579821   8.338297677370523 
  7.468161881414130   2.874488479695551   8.338297677370523 
 12.447014345769968   2.874520585611492   8.338297677370523 
 -1.242425072696090   9.345513328322133   1.667659535474105 
  0.026847353947239   2.880785017808232   1.667659535474105 
  4.926851858235072   2.883397254821343   1.667659535474105 
  3.735195967268596   9.313812173628703   1.667659535474105 
  8.729603090178760   9.369278938990808   1.667659535474105 
  9.955778517321686   2.866895978422171   1.667659535474105 
 -4.978770267383779  11.498019991016927   8.338297677370523 
 -0.000017637903308  11.497990981755127   8.338297677370523 
  1.244698867501551   5.030335738494113   8.338297677370523 
  6.223403987114769   5.030334534114057   8.338297677370523 
  4.978838215879970  11.498034199007977   8.338297677370523 
 11.202343292755558   5.030369624424871   8.338297677370523 
 -1.245289565839043   5.028000580241107   1.667659535474105 
 -2.487209253786259  11.503059121945054   1.667659535474105 
  2.489082597264392  11.493084474415079   1.667659535474105 
  7.470662250977762  11.505904838640298   1.667659535474105 
  8.714523447080563   5.002661469222832   1.667659535474105 
  0.000015237798243   7.186174910180597   8.338297677370523 
  1.244722747368818   0.718675734339150   8.338297677370523 
  4.978702969679940   7.186143807034017   8.338297677370523 
  6.223458215326498   0.718629369477183   8.338297677370523 
  9.957645074786447   7.186173073085957   8.338297677370523 
 -2.478451922692416   7.184601743128462   1.667659535474105 
 11.202291559678121   0.718663804482077   8.338297677370523 
  3.734897901661644   0.718794935274381   1.667659535474105 
  2.467358665826830   7.183388544375107   1.667659535474105 
  8.704639280481736   0.723519256709868   1.667659535474105 
  2.489406224770194   7.186155534988785   8.338297677370523 
 13.699729757302345   0.724809983636267   1.667659535474105 
 -1.244695491604245   9.342061422121477   8.338297677370523 
  0.000038052132840   2.874497395779896   8.338297677370523 
  4.978767385369650   2.874493914622719   8.338297677370523 
  3.734086793831677   9.342042073753513   8.338297677370523 
  8.712880226274894   9.342153962830267   8.338297677370523 
  9.957604136771849   2.874519117970749   8.338297677370523 
 -3.726107576972173   9.348301618550881   1.667659535474105 
  1.240810538225427   9.344830325967360   1.667659535474105 