Species order: N B                      
   2.51242800000000     
     5.9449720136058266    0.0000000000000000    0.0000000000000000
    -2.9724860068029120    5.1484967885702053   -0.0000000000000001
     0.0000000000000000    0.0000000000000009    5.3101128803662583
   N    B    C 
   142   142     4
Direct
  0.1129891733008474  0.0571684360045501  0.1250000000000000
  0.6063012775596349  0.5487661225562821  0.1250000000000000
  0.4441712256873265  0.0565336425862511  0.1250000000000000
  0.9465413446848079  0.5556311756913029  0.1250000000000000
  0.7778430751796145  0.0556056879456267  0.1250000000000000
  0.1111095100193319  0.7222176708237441  0.6250000000000000
  0.4444419855163904  0.7222173799751396  0.6250000000000000
  0.2777753548308142  0.2222221330143704  0.6250000000000000
  0.7777821040595867  0.7222253055196114  0.6250000000000000
  0.6111111810855455  0.2222217183289426  0.6250000000000000
  0.9444511839792218  0.2222242003816135  0.6250000000000000
  0.2780612085735099  0.7224854248522660  0.1250000000000000
  0.1131517014782574  0.2227084927685724  0.1250000000000000
  0.4413124934951857  0.2229104402809161  0.1250000000000000
  0.6100921448022212  0.7200346635711734  0.1250000000000000
  0.9466163251069020  0.7243227029896577  0.1250000000000000
  0.7773659263290620  0.2216347552253153  0.1250000000000000
  0.1111127319185214  0.8888919812456306  0.6250000000000000
  0.4444436884210752  0.8888897385899196  0.6250000000000000
  0.2777770017170500  0.3888865304125518  0.6250000000000000
  0.6111058521637865  0.3888864373040188  0.6250000000000000
  0.7777843477391340  0.8888930796407740  0.6250000000000000
  0.9444517845207342  0.3888891500750808  0.6250000000000000
  0.1109797173803078  0.3887060033785364  0.1250000000000000
  0.2781198216716538  0.8892815477168980  0.1250000000000000
  0.6109015867685563  0.8885104250182010  0.1250000000000000
  0.9449184965373753  0.8895015451384778  0.1250000000000000
  0.7768189179358611  0.3867470806584820  0.1250000000000000
  0.2777763788324154  0.5555507172955538  0.6250000000000000
  0.1111151224997404  0.0555595744196813  0.6250000000000000
  0.6111029094436103  0.5555483127652431  0.6250000000000000
  0.4444442591568519  0.0555559900326264  0.6250000000000000
  0.9444488040956924  0.5555505752729543  0.6250000000000000
  0.1117799084419922  0.5554290984795407  0.1250000000000000
  0.7777830719775355  0.0555586521431242  0.6250000000000000
  0.2778392520681097  0.0555687896372200  0.1250000000000000
  0.4428595911193033  0.5553353081883124  0.1250000000000000
  0.6107506329081944  0.0559340187326745  0.1250000000000000
  0.4444426511358223  0.5555492194330830  0.6250000000000000
  0.9452264366077394  0.0560338025924816  0.1250000000000000
  0.2777757714944161  0.7222185639715076  0.6250000000000000
  0.1111137514333480  0.2222224076159581  0.6250000000000000
  0.4444441349976590  0.2222221384937345  0.6250000000000000
  0.6111090869239957  0.7222170681827417  0.6250000000000000
  0.9444482215255936  0.7222257181331849  0.6250000000000000
  0.7777828190818288  0.2222240869208540  0.6250000000000000
  0.1118841544578217  0.7227009827333322  0.1250000000000000
  0.4442897208440458  0.7224326231249417  0.1250000000000000
  0.2834204784837316  0.2247299485408033  0.1250000000000000
  0.7765028942993486  0.7227673695510551  0.1250000000000000
  0.6093573176418076  0.2230574334818069  0.1250000000000000
  0.9450332233139156  0.2222110193432275  0.1250000000000000
  0.1111137326004180  0.3888883473646536  0.6250000000000000
  0.2777785009147178  0.8888891125962577  0.6250000000000000
  0.6111105879968061  0.8888898473649163  0.6250000000000000
  0.4444395071446206  0.3888858005519485  0.6250000000000000
  0.9444526423532615  0.8888982750427835  0.6250000000000000
  0.1120196244185180  0.8899866499052269  0.1250000000000000
  0.7777851138130225  0.3888891412213109  0.6250000000000000
  0.4444879050827995  0.8894258270454700  0.1250000000000000
  0.2773009350494862  0.3892213506893535  0.1250000000000000
  0.2775294793750773  0.5556274188820987  0.1250000000000000
  0.6079881285134929  0.3897039333773171  0.1250000000000000
  0.7776770333447292  0.8892092266922395  0.1250000000000000
  0.9443120597538613  0.3885255291784698  0.1250000000000000
  0.1111102574937956  0.5555507820114333  0.6250000000000000
  0.2777787391024887  0.0555575452393596  0.6250000000000000
  0.7777805161099275  0.5555550184142147  0.6250000000000000
  0.6111101914371617  0.0555557813330577  0.6250000000000000
  0.9444534342371662  0.0555604945029282  0.6250000000000000
  0.0555494727411940  0.1110996817241927  0.3749358437112870
  0.5555653029680339  0.6111137014347894  0.3748487546905331
  0.3888976252875822  0.1111160632092780  0.3747645993672075
  0.8889196416153008  0.6111261351733095  0.3755247765771803
  0.7222085662309762  0.1110947298076738  0.3749807665268645
  0.0555642031331488  0.7777795680142418  0.8749384963268798
  0.3889065426640009  0.7777888847303244  0.8750334581816173
  0.2222373033411814  0.2777758052159087  0.8751573028854323
  0.7222040102979109  0.7777837858735585  0.8749551091856218
  0.5555500907848689  0.2777755335221591  0.8752638752660409
  0.8888770968344173  0.2777705804224497  0.8749925379508944
  0.2222462048562472  0.7777924240308683  0.3749947415561604
  0.0555539330303066  0.2777719312170465  0.3749565657891336
  0.3888918617796489  0.2777571447262253  0.3751948569614093
  0.5555553720465433  0.7777856411193107  0.3749705554848111
  0.8888782050016825  0.7777726843318592  0.3750732428269176
  0.7221978934741915  0.2777477052045632  0.3750153529944650
  0.0555473349793691  0.9444359500644395  0.8750295727645415
  0.3889066316031324  0.9444524514037674  0.8750670942763371
  0.2222350937774135  0.4444473474846453  0.8750644947084670
  0.5555798512349592  0.4444559175589141  0.8748406542726739
  0.7222107043403695  0.9444415846298199  0.8750120561714979
  0.8888785417075942  0.4444398357455519  0.8749290289246521
  0.0555532815894074  0.4444475039181423  0.3749954832015598
  0.2222312790293252  0.9444451239146918  0.3749375126905884
  0.5555546947599420  0.9444426606287042  0.3749745111215974
  0.3889085274496962  0.4444594296069341  0.3751326986478933
  0.8888765208076806  0.9444345517647051  0.3750045997530759
  0.7221822401568569  0.4443801943193452  0.3756715017722504
  0.2222347253932493  0.6111207539862024  0.8750156519858570
  0.0555494727411940  0.1110996817241927  0.8750641562887128
  0.5555653029680339  0.6111137014347894  0.8751512453094669
  0.3888976252875822  0.1111160632092780  0.8752354006327924
  0.8889196416153008  0.6111261351733095  0.8744752234228191
  0.0555642465455118  0.6111204871560438  0.3750605932938297
  0.7222085662309762  0.1110947298076738  0.8750192334731357
  0.2222290288311211  0.1111087875587896  0.3748107412050424
  0.3889050845959124  0.6111174388545654  0.3749341259000231
  0.7221853208993319  0.6111369257797340  0.3756559415024433
  0.5555502906233735  0.1110943583937803  0.3749246778038903
  0.3889050845959124  0.6111174388545654  0.8750658740999769
  0.8888784427818726  0.1110998368491897  0.3749873771912586
  0.2222462048562472  0.7777924240308683  0.8750052584438394
  0.0555539330303066  0.2777719312170465  0.8750434342108667
  0.3888918617796489  0.2777571447262253  0.8748051430385908
  0.5555553720465433  0.7777856411193107  0.8750294445151886
  0.8888782050016825  0.7777726843318592  0.8749267571730827
  0.7221978934741915  0.2777477052045632  0.8749846470055350
  0.0555642031331488  0.7777795680142418  0.3750615036731201
  0.3889065426640009  0.7777888847303244  0.3749665418183828
  0.2222373033411814  0.2777758052159087  0.3748426971145677
  0.7222040102979109  0.7777837858735585  0.3750448908143780
  0.5555500907848689  0.2777755335221591  0.3747361247339588
  0.8888770968344173  0.2777705804224497  0.3750074620491053
  0.0555532815894074  0.4444475039181423  0.8750045167984400
  0.2222312790293252  0.9444451239146918  0.8750624873094115
  0.5555546947599420  0.9444426606287042  0.8750254888784026
  0.3889085274496962  0.4444594296069341  0.8748673013521069
  0.8888765208076806  0.9444345517647051  0.8749954002469239
  0.0555473349793691  0.9444359500644395  0.3749704272354583
  0.7221822401568569  0.4443801943193452  0.8743284982277497
  0.3889066316031324  0.9444524514037674  0.3749329057236628
  0.2222350937774135  0.4444473474846453  0.3749355052915328
  0.2222347253932493  0.6111207539862024  0.3749843480141430
  0.5555798512349592  0.4444559175589141  0.3751593457273261
  0.7222107043403695  0.9444415846298199  0.3749879438285021
  0.8888785417075942  0.4444398357455519  0.3750709710753480
  0.0555642465455118  0.6111204871560438  0.8749394067061699
  0.2222290288311211  0.1111087875587896  0.8751892587949576
  0.7221853208993319  0.6111369257797340  0.8743440584975567
  0.5555502906233735  0.1110943583937803  0.8750753221961092
  0.8888784427818726  0.1110998368491897  0.8750126228087413
  0.1109913319919500  0.0554383567347989  0.3750383749008262
  0.6113402053021028  0.5556613552475549  0.3752882252669141
  0.4444934006599546  0.0555090853058317  0.3750553183948442
  0.9443320894381054  0.5556084359178209  0.3749075293840366
  0.7777596421458419  0.0555291765083395  0.3750023623917976
  0.1110209308538454  0.7221656134449805  0.8750333961489601
  0.4444814919077961  0.7222497520317044  0.8749907151449615
  0.2777988831942114  0.2222390952251506  0.8746654230458072
  0.7777630715912131  0.7221046675112854  0.8750253536626988
  0.6112203534604969  0.2222619311621020  0.8749721955648744
  0.9443833248669662  0.2222223164990103  0.8749916685737679
  0.2777582448311858  0.7222173491300649  0.3750015654929673
  0.1110403256354164  0.2221992568811813  0.3750297850608358
  0.4445093864249874  0.2222724839864255  0.3753643219144281
  0.6111887313901396  0.7222557247032191  0.3749774165117432
  0.9443122109629863  0.7220520494848384  0.3749115448286411
  0.7777819453420313  0.2222540270942103  0.3749935681781419
  0.1109931169159177  0.8887453899039398  0.8749934397865127
  0.4444709095051721  0.8888668994108665  0.8749817731511751
  0.2778227142047218  0.3889658074665461  0.8748756340468413
  0.6113601594867837  0.3890938208493811  0.8746345048452158
  0.7777510986144472  0.8888215506722781  0.8750205257040375
  0.9443737360600861  0.3889588865814095  0.8750562243815180
  0.1110569696143651  0.3889244357082056  0.3750151654617941
  0.2777454456292363  0.8888158948869520  0.3750297565625042
  0.6111361643916118  0.8888797845965207  0.3750034867132359
  0.4445871761235604  0.3890028380318527  0.3751221504288015
  0.9443275262883349  0.8887214298307688  0.3749487982381251
  0.7777945492899154  0.3890210967568852  0.3750061920174810
  0.2777761906221318  0.5556017357905578  0.8749798945165197
  0.1109913319919500  0.0554383567347989  0.8749616250991741
  0.6113402053021028  0.5556613552475549  0.8747117747330858
  0.4444934006599546  0.0555090853058317  0.8749446816051558
  0.9443320894381054  0.5556084359178209  0.8750924706159630
  0.1110390995238187  0.5555877413287016  0.3749714748954946
  0.7777596421458419  0.0555291765083395  0.8749976376082028
  0.2777244669518439  0.0554581951331785  0.3751063112637815
  0.4445224502929834  0.5556163500089312  0.3750751973427026
  0.7778336205622071  0.5556042868848916  0.3741660692969020
  0.6111526177683960  0.0555386810158506  0.3750213367381569
  0.4445224502929834  0.5556163500089312  0.8749248026572974
  0.9443556466448009  0.0554707912437531  0.3750124261947840
  0.2777582448311858  0.7222173491300649  0.8749984345070330
  0.1110403256354164  0.2221992568811813  0.8749702149391638
  0.4445093864249874  0.2222724839864255  0.8746356780855721
  0.6111887313901396  0.7222557247032191  0.8750225834882572
  0.9443122109629863  0.7220520494848384  0.8750884551713589
  0.7777819453420313  0.2222540270942103  0.8750064318218580
  0.1110209308538454  0.7221656134449805  0.3749666038510396
  0.4444814919077961  0.7222497520317044  0.3750092848550384
  0.2777988831942114  0.2222390952251506  0.3753345769541928
  0.7777630715912131  0.7221046675112854  0.3749746463373010
  0.6112203534604969  0.2222619311621020  0.3750278044351259
  0.9443833248669662  0.2222223164990103  0.3750083314262318
  0.1110569696143651  0.3889244357082056  0.8749848345382059
  0.2777454456292363  0.8888158948869520  0.8749702434374957
  0.6111361643916118  0.8888797845965207  0.8749965132867642
  0.4445871761235604  0.3890028380318527  0.8748778495711983
  0.9443275262883349  0.8887214298307688  0.8750512017618746
  0.1109931169159177  0.8887453899039398  0.3750065602134872
  0.7777945492899154  0.3890210967568852  0.8749938079825189
  0.4444709095051721  0.8888668994108665  0.3750182268488246
  0.2778227142047218  0.3889658074665461  0.3751243659531590
  0.2777761906221318  0.5556017357905578  0.3750201054834806
  0.6113601594867837  0.3890938208493811  0.3753654951547842
  0.7777510986144472  0.8888215506722781  0.3749794742959626
  0.9443737360600861  0.3889588865814095  0.3749437756184825
  0.1110390995238187  0.5555877413287016  0.8750285251045055
  0.2777244669518439  0.0554581951331785  0.8748936887362185
  0.7778336205622071  0.5556042868848916  0.8758339307030977
  0.6111526177683960  0.0555386810158506  0.8749786632618430
  0.9443556466448009  0.0554707912437531  0.8749875738052162
  0.0563037470714621  0.1116078701194549  0.1250000000000000
  0.5528161887527548  0.6083716577934838  0.1250000000000000
  0.3874090139523907  0.1100772166069908  0.1250000000000000
  0.8913277686701165  0.6123557327621871  0.1250000000000000
  0.7221589966643973  0.1110064711360246  0.1250000000000000
  0.0555081535203049  0.7777340995149400  0.6250000000000000
  0.3888754213581928  0.7777613657375436  0.6250000000000000
  0.2222115725299883  0.2777866395928340  0.6250000000000000
  0.7222474422509180  0.7777578486715546  0.6250000000000000
  0.5556031776299257  0.2778233836372531  0.6250000000000000
  0.8888993619746083  0.2778054285059041  0.6250000000000000
  0.2223050493131463  0.7778059731398278  0.1250000000000000
  0.0562572071492897  0.2778272501422039  0.1250000000000000
  0.5553862641572894  0.7769406815721680  0.1250000000000000
  0.8884470017463020  0.7772021807977713  0.1250000000000000
  0.7219242074651724  0.2774444682526379  0.1250000000000000
  0.0555260574045792  0.9444083564775034  0.6250000000000000
  0.3888767534014654  0.9444256703181184  0.6250000000000000
  0.2222090984392228  0.4444501971198486  0.6250000000000000
  0.5555956371865598  0.4444732006268138  0.6250000000000000
  0.7222372182985198  0.9444383001520806  0.6250000000000000
  0.8888932770608218  0.4444718929474881  0.6250000000000000
  0.0552180308571129  0.4443275186247663  0.1250000000000000
  0.2221156985069982  0.9440416700337538  0.1250000000000000
  0.5555785906858608  0.9445311140106670  0.1250000000000000
  0.3875464892611961  0.4449795617762420  0.1250000000000000
  0.8890776612999978  0.9445465800749250  0.1250000000000000
  0.7225196844058970  0.4441801730233531  0.1250000000000000
  0.2221923587893248  0.6110988799870547  0.6250000000000000
  0.0555400986410213  0.1111004722089356  0.6250000000000000
  0.5555866268945352  0.6111092504457718  0.6250000000000000
  0.3888927081022303  0.1111103278993099  0.6250000000000000
  0.8888695570510463  0.6110969443234066  0.6250000000000000
  0.0563157873675833  0.6110564906106861  0.1250000000000000
  0.7222439709075972  0.1111297450042180  0.6250000000000000
  0.2236716831974675  0.1115174598716106  0.1250000000000000
  0.3881660727246954  0.6116403578671831  0.1250000000000000
  0.7211725879378260  0.6103450905603959  0.1250000000000000
  0.5553456443121080  0.1117827445982966  0.1250000000000000
  0.3888888437789806  0.6111056258114088  0.6250000000000000
  0.8891765027692071  0.1111965371426245  0.1250000000000000
  0.2221798686511267  0.7777437098790465  0.6250000000000000
  0.0555438905999188  0.2777873031000758  0.6250000000000000
  0.3889051651234357  0.2778032357419969  0.6250000000000000
  0.5555693939167717  0.7777677262642176  0.6250000000000000
  0.8888803856056502  0.7777443587418134  0.6250000000000000
  0.7222653338348060  0.2778297309211532  0.6250000000000000
  0.0563016171168751  0.7786154905618773  0.1250000000000000
  0.3889057498348406  0.7781760300794074  0.1250000000000000
  0.2242205459756545  0.2793848075225960  0.1250000000000000
  0.7220315823341434  0.7777980409737205  0.1250000000000000
  0.5535618516241470  0.2783266614684945  0.1250000000000000
  0.8889363486066694  0.2777156003092525  0.1250000000000000
  0.0555371956230076  0.4444543065790052  0.6250000000000000
  0.2221875778949634  0.9444075567425000  0.6250000000000000
  0.5555646173176486  0.9444414745726581  0.6250000000000000
  0.3889035258018372  0.4444558734830293  0.6250000000000000
  0.8888876831386575  0.9444236332367700  0.6250000000000000
  0.0560403608391068  0.9450048140670025  0.1250000000000000
  0.7222756812069626  0.4445008809512081  0.6250000000000000
  0.3888462324869304  0.9447451862282981  0.1250000000000000
  0.2214922222654817  0.4447560885685956  0.1250000000000000
  0.2222397766723117  0.6112980752028180  0.1250000000000000
  0.7222225149705006  0.9444972137370781  0.1250000000000000
  0.8885781990305677  0.4445829684634573  0.1250000000000000
  0.0555132779738528  0.6110922093874352  0.6250000000000000
  0.2222032904973028  0.1110982890027715  0.6250000000000000
  0.7222638892005313  0.6111057644141455  0.6250000000000000
  0.5555804786663305  0.1111283153211397  0.6250000000000000
  0.8888940701711828  0.1111152698554409  0.6250000000000000
  0.4458443208615605  0.3858783252118770  0.1250000000000000
  0.7779197448247882  0.5555393625874977  0.1250000000000000
  0.3903798075980339  0.2779910984746866  0.1250000000000000
  0.5556676508922672  0.4427423319656735  0.1250000000000000
 
  0.00000000E+00  0.00000000E+00  0.00000000E+00
  0.00000000E+00  0.00000000E+00  0.00000000E+00
  0.00000000E+00  0.00000000E+00  0.00000000E+00
  0.00000000E+00  0.00000000E+00  0.00000000E+00
  0.00000000E+00  0.00000000E+00  0.00000000E+00
  0.00000000E+00  0.00000000E+00  0.00000000E+00
  0.00000000E+00  0.00000000E+00  0.00000000E+00
  0.00000000E+00  0.00000000E+00  0.00000000E+00
  0.00000000E+00  0.00000000E+00  0.00000000E+00
  0.00000000E+00  0.00000000E+00  0.00000000E+00
  0.00000000E+00  0.00000000E+00  0.00000000E+00
  0.00000000E+00  0.00000000E+00  0.00000000E+00
  0.00000000E+00  0.00000000E+00  0.00000000E+00
  0.00000000E+00  0.00000000E+00  0.00000000E+00
  0.00000000E+00  0.00000000E+00  0.00000000E+00
  0.00000000E+00  0.00000000E+00  0.00000000E+00
  0.00000000E+00  0.00000000E+00  0.00000000E+00
  0.00000000E+00  0.00000000E+00  0.00000000E+00
  0.00000000E+00  0.00000000E+00  0.00000000E+00
  0.00000000E+00  0.00000000E+00  0.00000000E+00
  0.00000000E+00  0.00000000E+00  0.00000000E+00
  0.00000000E+00  0.00000000E+00  0.00000000E+00
  0.00000000E+00  0.00000000E+00  0.00000000E+00
  0.00000000E+00  0.00000000E+00  0.00000000E+00
  0.00000000E+00  0.00000000E+00  0.00000000E+00
  0.00000000E+00  0.00000000E+00  0.00000000E+00
  0.00000000E+00  0.00000000E+00  0.00000000E+00
  0.00000000E+00  0.00000000E+00  0.00000000E+00
  0.00000000E+00  0.00000000E+00  0.00000000E+00
  0.00000000E+00  0.00000000E+00  0.00000000E+00
  0.00000000E+00  0.00000000E+00  0.00000000E+00
  0.00000000E+00  0.00000000E+00  0.00000000E+00
  0.00000000E+00  0.00000000E+00  0.00000000E+00
  0.00000000E+00  0.00000000E+00  0.00000000E+00
  0.00000000E+00  0.00000000E+00  0.00000000E+00
  0.00000000E+00  0.00000000E+00  0.00000000E+00
  0.00000000E+00  0.00000000E+00  0.00000000E+00
  0.00000000E+00  0.00000000E+00  0.00000000E+00
  0.00000000E+00  0.00000000E+00  0.00000000E+00
  0.00000000E+00  0.00000000E+00  0.00000000E+00
  0.00000000E+00  0.00000000E+00  0.00000000E+00
  0.00000000E+00  0.00000000E+00  0.00000000E+00
  0.00000000E+00  0.00000000E+00  0.00000000E+00
  0.00000000E+00  0.00000000E+00  0.00000000E+00
  0.00000000E+00  0.00000000E+00  0.00000000E+00
  0.00000000E+00  0.00000000E+00  0.00000000E+00
  0.00000000E+00  0.00000000E+00  0.00000000E+00
  0.00000000E+00  0.00000000E+00  0.00000000E+00
  0.00000000E+00  0.00000000E+00  0.00000000E+00
  0.00000000E+00  0.00000000E+00  0.00000000E+00
  0.00000000E+00  0.00000000E+00  0.00000000E+00
  0.00000000E+00  0.00000000E+00  0.00000000E+00
  0.00000000E+00  0.00000000E+00  0.00000000E+00
  0.00000000E+00  0.00000000E+00  0.00000000E+00
  0.00000000E+00  0.00000000E+00  0.00000000E+00
  0.00000000E+00  0.00000000E+00  0.00000000E+00
  0.00000000E+00  0.00000000E+00  0.00000000E+00
  0.00000000E+00  0.00000000E+00  0.00000000E+00
  0.00000000E+00  0.00000000E+00  0.00000000E+00
  0.00000000E+00  0.00000000E+00  0.00000000E+00
  0.00000000E+00  0.00000000E+00  0.00000000E+00
  0.00000000E+00  0.00000000E+00  0.00000000E+00
  0.00000000E+00  0.00000000E+00  0.00000000E+00
  0.00000000E+00  0.00000000E+00  0.00000000E+00
  0.00000000E+00  0.00000000E+00  0.00000000E+00
  0.00000000E+00  0.00000000E+00  0.00000000E+00
  0.00000000E+00  0.00000000E+00  0.00000000E+00
  0.00000000E+00  0.00000000E+00  0.00000000E+00
  0.00000000E+00  0.00000000E+00  0.00000000E+00
  0.00000000E+00  0.00000000E+00  0.00000000E+00
  0.00000000E+00  0.00000000E+00  0.00000000E+00
  0.00000000E+00  0.00000000E+00  0.00000000E+00
  0.00000000E+00  0.00000000E+00  0.00000000E+00
  0.00000000E+00  0.00000000E+00  0.00000000E+00
  0.00000000E+00  0.00000000E+00  0.00000000E+00
  0.00000000E+00  0.00000000E+00  0.00000000E+00
  0.00000000E+00  0.00000000E+00  0.00000000E+00
  0.00000000E+00  0.00000000E+00  0.00000000E+00
  0.00000000E+00  0.00000000E+00  0.00000000E+00
  0.00000000E+00  0.00000000E+00  0.00000000E+00
  0.00000000E+00  0.00000000E+00  0.00000000E+00
  0.00000000E+00  0.00000000E+00  0.00000000E+00
  0.00000000E+00  0.00000000E+00  0.00000000E+00
  0.00000000E+00  0.00000000E+00  0.00000000E+00
  0.00000000E+00  0.00000000E+00  0.00000000E+00
  0.00000000E+00  0.00000000E+00  0.00000000E+00
  0.00000000E+00  0.00000000E+00  0.00000000E+00
  0.00000000E+00  0.00000000E+00  0.00000000E+00
  0.00000000E+00  0.00000000E+00  0.00000000E+00
  0.00000000E+00  0.00000000E+00  0.00000000E+00
  0.00000000E+00  0.00000000E+00  0.00000000E+00
  0.00000000E+00  0.00000000E+00  0.00000000E+00
  0.00000000E+00  0.00000000E+00  0.00000000E+00
  0.00000000E+00  0.00000000E+00  0.00000000E+00
  0.00000000E+00  0.00000000E+00  0.00000000E+00
  0.00000000E+00  0.00000000E+00  0.00000000E+00
  0.00000000E+00  0.00000000E+00  0.00000000E+00
  0.00000000E+00  0.00000000E+00  0.00000000E+00
  0.00000000E+00  0.00000000E+00  0.00000000E+00
  0.00000000E+00  0.00000000E+00  0.00000000E+00
  0.00000000E+00  0.00000000E+00  0.00000000E+00
  0.00000000E+00  0.00000000E+00  0.00000000E+00
  0.00000000E+00  0.00000000E+00  0.00000000E+00
  0.00000000E+00  0.00000000E+00  0.00000000E+00
  0.00000000E+00  0.00000000E+00  0.00000000E+00
  0.00000000E+00  0.00000000E+00  0.00000000E+00
  0.00000000E+00  0.00000000E+00  0.00000000E+00
  0.00000000E+00  0.00000000E+00  0.00000000E+00
  0.00000000E+00  0.00000000E+00  0.00000000E+00
  0.00000000E+00  0.00000000E+00  0.00000000E+00
  0.00000000E+00  0.00000000E+00  0.00000000E+00
  0.00000000E+00  0.00000000E+00  0.00000000E+00
  0.00000000E+00  0.00000000E+00  0.00000000E+00
  0.00000000E+00  0.00000000E+00  0.00000000E+00
  0.00000000E+00  0.00000000E+00  0.00000000E+00
  0.00000000E+00  0.00000000E+00  0.00000000E+00
  0.00000000E+00  0.00000000E+00  0.00000000E+00
  0.00000000E+00  0.00000000E+00  0.00000000E+00
  0.00000000E+00  0.00000000E+00  0.00000000E+00
  0.00000000E+00  0.00000000E+00  0.00000000E+00
  0.00000000E+00  0.00000000E+00  0.00000000E+00
  0.00000000E+00  0.00000000E+00  0.00000000E+00
  0.00000000E+00  0.00000000E+00  0.00000000E+00
  0.00000000E+00  0.00000000E+00  0.00000000E+00
  0.00000000E+00  0.00000000E+00  0.00000000E+00
  0.00000000E+00  0.00000000E+00  0.00000000E+00
  0.00000000E+00  0.00000000E+00  0.00000000E+00
  0.00000000E+00  0.00000000E+00  0.00000000E+00
  0.00000000E+00  0.00000000E+00  0.00000000E+00
  0.00000000E+00  0.00000000E+00  0.00000000E+00
  0.00000000E+00  0.00000000E+00  0.00000000E+00
  0.00000000E+00  0.00000000E+00  0.00000000E+00
  0.00000000E+00  0.00000000E+00  0.00000000E+00
  0.00000000E+00  0.00000000E+00  0.00000000E+00
  0.00000000E+00  0.00000000E+00  0.00000000E+00
  0.00000000E+00  0.00000000E+00  0.00000000E+00
  0.00000000E+00  0.00000000E+00  0.00000000E+00
  0.00000000E+00  0.00000000E+00  0.00000000E+00
  0.00000000E+00  0.00000000E+00  0.00000000E+00
  0.00000000E+00  0.00000000E+00  0.00000000E+00
  0.00000000E+00  0.00000000E+00  0.00000000E+00
  0.00000000E+00  0.00000000E+00  0.00000000E+00
  0.00000000E+00  0.00000000E+00  0.00000000E+00
  0.00000000E+00  0.00000000E+00  0.00000000E+00
  0.00000000E+00  0.00000000E+00  0.00000000E+00
  0.00000000E+00  0.00000000E+00  0.00000000E+00
  0.00000000E+00  0.00000000E+00  0.00000000E+00
  0.00000000E+00  0.00000000E+00  0.00000000E+00
  0.00000000E+00  0.00000000E+00  0.00000000E+00
  0.00000000E+00  0.00000000E+00  0.00000000E+00
  0.00000000E+00  0.00000000E+00  0.00000000E+00
  0.00000000E+00  0.00000000E+00  0.00000000E+00
  0.00000000E+00  0.00000000E+00  0.00000000E+00
  0.00000000E+00  0.00000000E+00  0.00000000E+00
  0.00000000E+00  0.00000000E+00  0.00000000E+00
  0.00000000E+00  0.00000000E+00  0.00000000E+00
  0.00000000E+00  0.00000000E+00  0.00000000E+00
  0.00000000E+00  0.00000000E+00  0.00000000E+00
  0.00000000E+00  0.00000000E+00  0.00000000E+00
  0.00000000E+00  0.00000000E+00  0.00000000E+00
  0.00000000E+00  0.00000000E+00  0.00000000E+00
  0.00000000E+00  0.00000000E+00  0.00000000E+00
  0.00000000E+00  0.00000000E+00  0.00000000E+00
  0.00000000E+00  0.00000000E+00  0.00000000E+00
  0.00000000E+00  0.00000000E+00  0.00000000E+00
  0.00000000E+00  0.00000000E+00  0.00000000E+00
  0.00000000E+00  0.00000000E+00  0.00000000E+00
  0.00000000E+00  0.00000000E+00  0.00000000E+00
  0.00000000E+00  0.00000000E+00  0.00000000E+00
  0.00000000E+00  0.00000000E+00  0.00000000E+00
  0.00000000E+00  0.00000000E+00  0.00000000E+00
  0.00000000E+00  0.00000000E+00  0.00000000E+00
  0.00000000E+00  0.00000000E+00  0.00000000E+00
  0.00000000E+00  0.00000000E+00  0.00000000E+00
  0.00000000E+00  0.00000000E+00  0.00000000E+00
  0.00000000E+00  0.00000000E+00  0.00000000E+00
  0.00000000E+00  0.00000000E+00  0.00000000E+00
  0.00000000E+00  0.00000000E+00  0.00000000E+00
  0.00000000E+00  0.00000000E+00  0.00000000E+00
  0.00000000E+00  0.00000000E+00  0.00000000E+00
  0.00000000E+00  0.00000000E+00  0.00000000E+00
  0.00000000E+00  0.00000000E+00  0.00000000E+00
  0.00000000E+00  0.00000000E+00  0.00000000E+00
  0.00000000E+00  0.00000000E+00  0.00000000E+00
  0.00000000E+00  0.00000000E+00  0.00000000E+00
  0.00000000E+00  0.00000000E+00  0.00000000E+00
  0.00000000E+00  0.00000000E+00  0.00000000E+00
  0.00000000E+00  0.00000000E+00  0.00000000E+00
  0.00000000E+00  0.00000000E+00  0.00000000E+00
  0.00000000E+00  0.00000000E+00  0.00000000E+00
  0.00000000E+00  0.00000000E+00  0.00000000E+00
  0.00000000E+00  0.00000000E+00  0.00000000E+00
  0.00000000E+00  0.00000000E+00  0.00000000E+00
  0.00000000E+00  0.00000000E+00  0.00000000E+00
  0.00000000E+00  0.00000000E+00  0.00000000E+00
  0.00000000E+00  0.00000000E+00  0.00000000E+00
  0.00000000E+00  0.00000000E+00  0.00000000E+00
  0.00000000E+00  0.00000000E+00  0.00000000E+00
  0.00000000E+00  0.00000000E+00  0.00000000E+00
  0.00000000E+00  0.00000000E+00  0.00000000E+00
  0.00000000E+00  0.00000000E+00  0.00000000E+00
  0.00000000E+00  0.00000000E+00  0.00000000E+00
  0.00000000E+00  0.00000000E+00  0.00000000E+00
  0.00000000E+00  0.00000000E+00  0.00000000E+00
  0.00000000E+00  0.00000000E+00  0.00000000E+00
  0.00000000E+00  0.00000000E+00  0.00000000E+00
  0.00000000E+00  0.00000000E+00  0.00000000E+00
  0.00000000E+00  0.00000000E+00  0.00000000E+00
  0.00000000E+00  0.00000000E+00  0.00000000E+00
  0.00000000E+00  0.00000000E+00  0.00000000E+00
  0.00000000E+00  0.00000000E+00  0.00000000E+00
  0.00000000E+00  0.00000000E+00  0.00000000E+00
  0.00000000E+00  0.00000000E+00  0.00000000E+00
  0.00000000E+00  0.00000000E+00  0.00000000E+00
  0.00000000E+00  0.00000000E+00  0.00000000E+00
  0.00000000E+00  0.00000000E+00  0.00000000E+00
  0.00000000E+00  0.00000000E+00  0.00000000E+00
  0.00000000E+00  0.00000000E+00  0.00000000E+00
  0.00000000E+00  0.00000000E+00  0.00000000E+00
  0.00000000E+00  0.00000000E+00  0.00000000E+00
  0.00000000E+00  0.00000000E+00  0.00000000E+00
  0.00000000E+00  0.00000000E+00  0.00000000E+00
  0.00000000E+00  0.00000000E+00  0.00000000E+00
  0.00000000E+00  0.00000000E+00  0.00000000E+00
  0.00000000E+00  0.00000000E+00  0.00000000E+00
  0.00000000E+00  0.00000000E+00  0.00000000E+00
  0.00000000E+00  0.00000000E+00  0.00000000E+00
  0.00000000E+00  0.00000000E+00  0.00000000E+00
  0.00000000E+00  0.00000000E+00  0.00000000E+00
  0.00000000E+00  0.00000000E+00  0.00000000E+00
  0.00000000E+00  0.00000000E+00  0.00000000E+00
  0.00000000E+00  0.00000000E+00  0.00000000E+00
  0.00000000E+00  0.00000000E+00  0.00000000E+00
  0.00000000E+00  0.00000000E+00  0.00000000E+00
  0.00000000E+00  0.00000000E+00  0.00000000E+00
  0.00000000E+00  0.00000000E+00  0.00000000E+00
  0.00000000E+00  0.00000000E+00  0.00000000E+00
  0.00000000E+00  0.00000000E+00  0.00000000E+00
  0.00000000E+00  0.00000000E+00  0.00000000E+00
  0.00000000E+00  0.00000000E+00  0.00000000E+00
  0.00000000E+00  0.00000000E+00  0.00000000E+00
  0.00000000E+00  0.00000000E+00  0.00000000E+00
  0.00000000E+00  0.00000000E+00  0.00000000E+00
  0.00000000E+00  0.00000000E+00  0.00000000E+00
  0.00000000E+00  0.00000000E+00  0.00000000E+00
  0.00000000E+00  0.00000000E+00  0.00000000E+00
  0.00000000E+00  0.00000000E+00  0.00000000E+00