 B N P 
 1.0
 17.527899999999772   0.000000000000000   0.000000000000000
 -8.763949999999658  15.179606674993195   0.000000000000000
  0.000000000000001   0.000000000000002  15.000000000000000
 B N P 
  48  48   1
Cartesian
  7.513204818415767  14.472628817405655   1.785861651412290 
 15.008332757806398   1.456050351552911   1.785412629562110 
 13.748748591882187   3.624431561063450   1.764836798402055 
 12.495528937265032   5.791223375483863   1.728428203285740 
 11.254056878583999   7.956585876276220   1.700822280576120 
 10.031616038569496  10.129273274985401   1.719292496400135 
  8.786692132672119  12.315222114027330   1.764097894024440 
 -7.504076156355917  14.453841243242831   1.794190877996235 
 -0.011844088957932   1.438890274773541   1.785504151774920 
 -1.270967523004735   3.611532093758425   1.737236068186200 
 -2.514528057578461   5.780680239822509   1.695858592280250 
 -3.744642204706485   7.945247936930919   1.696234007629515 
 -4.985207775445895  10.112941134304972   1.728317686576875 
 -6.238947184105239  12.285089385556139   1.769372403057270 
 -4.993375130051298  14.442672221796817   1.769311345274685 
  2.493283335897669   1.415024126230232   1.763599228780155 
  1.227066047394939   3.584071290684992   1.699973422256370 
 -0.008108063088223   5.764039861879334   1.610198651756910 
 -1.211015827287920   7.930620491559180   1.593691065968685 
 -2.464042862505932  10.100609437507275   1.651223294532345 
 -3.727102730216926  12.273166023894120   1.726787133431955 
 -2.485452638230746  14.442880714189309   1.728178275919170 
  5.008808458372930   1.429825845753724   1.719017308422075 
  3.718270581421939   3.548363241076547   1.659106824627975 
  2.468039342893137   5.724157312965610   1.540223907658770 
  1.351421855462086   7.897879388073116   1.465414833494295 
  0.066651146771815  10.082752154977843   1.534029603707415 
 -1.214136035009435  12.265568706614449   1.651184220808980 
  0.012149409184557  14.452182605475265   1.696080645940485 
  7.501671953768792   1.457409918775596   1.700483239172700 
  6.218107509404478   3.640874248320388   1.598235852908460 
  4.850593305663397   5.750246083435806   1.447797254194740 
  2.601237841779540  10.062503775696543   1.465427589739080 
  1.291573439440236  12.265241672968303   1.593674193130935 
  2.501781328719851  14.469050871658689   1.696076566324845 
  9.997641937768160   1.464675687367879   1.728556622807430 
  8.723540592377256   3.646146164597032   1.650453746557950 
  7.428731066450464   5.832318494392087   1.517635583903460 
  6.210847918475219   8.106082976647318   1.447749273080145 
  5.042154405000756  10.182351226218648   1.540324459104570 
  3.769405086239735  12.306672820960152   1.610316877678395 
  5.002077118938466  14.476627101305009   1.737691338766755 
 12.500741952497449   1.462789990941444   1.765186730756745 
 11.236383412574581   3.633823504015766   1.733109163494135 
  9.969369887692000   5.803996158666282   1.650575241154410 
  8.721396051233231   7.976476378892233   1.598436861390300 
  7.551614222573859  10.187621313609936   1.659383581141155 
  6.275025795601296  12.327132458515980   1.700488348778100 
  8.772525749152678  13.752753626579958   1.793488907670555 
 16.262521134479485   0.732039958714118   1.796875611586980 
 15.000248430692519   2.898206980254957   1.774021634431200 
 13.750208393163010   5.067671537652829   1.743292789295460 
 12.513627589771694   7.234568560707410   1.719829313402910 
 11.283090020964167   9.401716586073906   1.724857836393840 
 10.036131563492459  11.576810567089581   1.763655594016695 
 -6.247054622416625  13.728112174666197   1.784150130796215 
  1.241305554632137   0.708408134436644   1.793069212441245 
 -0.027196445728193   2.874605001113780   1.752224182397445 
 -1.272092751322705   5.051662602191756   1.680122835393975 
 -2.490333727980929   7.223523734765359   1.661970664004220 
 -3.730858703468151   9.390143760634333   1.697328934738455 
 -4.984054856090030  11.558761397684165   1.747962466476570 
 -3.736961526569107  13.718956865108680   1.747940252122425 
  3.757474140275090   0.702135346532863   1.763382207424710 
  2.469409613458682   2.839375680040642   1.721761695263610 
  1.211729891771759   5.012352831363582   1.616675993099265 
  0.037527482807733   7.204640181734165   1.546931490176535 
 -1.210951746909134   9.378480073346342   1.582204105626180 
 -2.473027539718385  11.549095476493074   1.674090980757135 
 -1.232334724247025  13.717882882082867   1.697133012688860 
  6.264591724027750   0.709712753769093   1.724565607640655 
  4.992807334572547   2.863877656960193   1.658712516877785 
  3.682290681283558   4.949918458054123   1.582684106102580 
  2.565937152591034   7.132794511070649   1.426458072538275 
  1.318196513265646   9.360157225463665   1.456373869010580 
  0.037721053499625  11.541306943928573   1.582162401163305 
  1.264295812504521  13.726701140788531   1.661965761553590 
  8.756666659143551   0.727428509623453   1.719644418795780 
  7.481691694464565   2.908165951253852   1.647884289297375 
  6.181707729113320   5.089626978400807   1.496794137371985 
  3.871161540353039   9.393257103210933   1.426533597018465 
  2.544585392491096  11.546947478762915   1.546938661922745 
  3.754320178887480  13.757502672530340   1.680370052884635 
 11.251580076594854   0.739860561768371   1.743727136231730 
  9.983613623430816   2.914419320009921   1.712481063533505 
  8.706761485495342   5.094411328126231   1.598695674157365 
  7.448527922622828   7.283643120729570   1.496856717729510 
  6.319851212419830   9.517988269520492   1.582725084551490 
  5.030409951921166  11.626245764898542   1.616906751884835 
  6.262193936141061  13.768027310564445   1.752765504546315 
 13.755383289482403   0.742015650142300   1.774393889825205 
 12.492653580790357   2.908532129318042   1.770507364566225 
 11.233045208922595   5.078486715554516   1.712437165843080 
  9.987656811266596   7.248445822249578   1.648172520624720 
  8.781655755505351   9.426102347008147   1.658948227468215 
  7.541164888166732  11.623647265282868   1.722341719037160 
  4.432163331077513   7.562396573501696   1.188578585700030 
