 B Ga N 
 1.0
 17.527899999999772   0.000000000000000   0.000000000000000
 -8.763949999999658  15.179606674993195   0.000000000000000
  0.000000000000001   0.000000000000002  15.000000000000000
 B Ga N 
  47   1  49
Cartesian
  7.580518280278005  14.486022632587726   1.660640491087065 
 15.094880092586370   1.457974141921613   1.661464251778935 
 13.847748849148896   3.612050888001633   1.660902161514015 
 12.600162757147707   5.773536793443430   1.660411301453085 
 11.342030312596922   7.941040187622460   1.661109834098460 
 10.082687437150533  10.108087589008298   1.661294459941440 
  8.783890918737413  12.258542341374147   1.660739681550840 
 -7.471123422862260  14.475300865917959   1.660312829419635 
  0.072873425893347   1.477610425231858   1.661454360283080 
 -1.179613776252493   3.626205035218076   1.662215722799490 
 -2.450664168095484   5.788297244117399   1.660972380598785 
 -3.731974619361592   7.962940954464133   1.660723457459475 
 -4.986270805426725  10.137092458021986   1.661016135282675 
 -6.240529194755137  12.304482906588191   1.660984705618485 
 -4.982512654813353  14.490891648545887   1.660646504127450 
  2.569533511994786   1.503775997525962   1.660694716632435 
  1.333823873977654   3.655984105018476   1.661795750758740 
  0.042971071404577   5.799727452120921   1.661290564580595 
 -1.287141806898084   7.977429310532542   1.660564530818220 
 -2.536158469763225  10.155851819719052   1.661425003836960 
 -3.755318050291920  12.322273358209500   1.661125110851460 
 -2.490642169019831  14.490912861478726   1.660954696815660 
  5.050813169195446   1.484894279558725   1.661361772768845 
  3.866013985743508   3.727634167328675   1.661409191030370 
  2.595337093184108   5.816302663226867   1.661516035091550 
  1.116689393332231   8.019215595094302   1.659973334409330 
 -0.111323160406127  10.183505876301604   1.660428621313200 
 -1.272196184103893  12.335047739612479   1.661957295654225 
  0.017908668474796  14.475169236371304   1.661104112610480 
  7.561418075683081   1.446235107988758   1.661415693484095 
  6.347405193975471   3.605506626273617   1.661359262081340 
  5.297415482096445   5.949457342058271   1.661854507552350 
  2.307773586845800  10.160711926781129   1.660356818922480 
  1.235235876654847  12.324061590423863   1.661162841710355 
  2.522961937271912  14.490929136119046   1.661357427937875 
 10.072319533617824   1.438275924389479   1.660992396658935 
  8.862890268014482   3.564377449666560   1.660827142267590 
  7.690871593965770   5.677045330693718   1.661689585039230 
  6.386749301988263   7.593926432354366   1.662091376533245 
  3.745439770148202  12.372327813439972   1.660478959666620 
  5.059662479323714  14.480583850758677   1.661163040746030 
 12.584154039986295   1.447975175002390   1.660908108872850 
 11.353884447109813   3.594585754841285   1.660541058700320 
 10.134283850085534   5.744853608777061   1.660617383248260 
  8.887982694516875   7.889804051936398   1.661197251891465 
  7.606096896711517   9.983237718542615   1.661109185561220 
  6.322188045611866  12.340469037016399   1.660890434399145 
  5.050458234318545  10.021925246494609   1.663211151019035 
  8.805748908210926  13.726133984657311   1.660139035361670 
 16.351602316453185   0.749954236365624   1.661088926274885 
 15.102531405496046   2.901344620720035   1.661429311841220 
 13.847556453829416   5.055549180807730   1.660506399305280 
 12.580205496929732   7.218998060875469   1.660473289395675 
 11.321146189949390   9.389621174984391   1.661018684976795 
 10.045107142585522  11.556877478762045   1.660845096747645 
 -6.227931819977785  13.754307561251851   1.660338459044535 
  1.317734693978482   0.758679172493401   1.660407505177305 
  0.084496767335211   2.928888919855980   1.661835840075840 
 -1.186861433900905   5.074207299017704   1.661522823301050 
 -2.490217013253282   7.234312744194545   1.660456599144375 
 -3.749607847727357   9.409830674241423   1.660811410973835 
 -4.993008123752107  11.583889195307908   1.660734398772690 
 -3.739043865278834  13.766063285242863   1.660546180790310 
  3.801041942255000   0.764046599344315   1.660522944116670 
  2.600944861729992   2.977613955482250   1.660987801185000 
  1.338334237402627   5.117611387642062   1.661379086112570 
 -0.038924859148872   7.247080975427871   1.660191930023175 
 -1.303403083139568   9.422844570365454   1.660642825046925 
 -2.510148075668433  11.597833990944384   1.661471462754990 
 -1.242927095636810  13.767639865420000   1.661071334297655 
  6.293784520806852   0.752182474488457   1.661125036646625 
  5.073034039462851   2.940234339631014   1.661097389582805 
  3.921045379526894   5.242368977139320   1.661311219991100 
  2.399413396287025   7.307788054210661   1.660898565124680 
  1.109125988104612   9.439797147169532   1.659386891399970 
 -0.025673477541208  11.609207616344118   1.661296797868425 
  1.269266874757595  13.754225363314161   1.661088204155715 
  8.809834177769456   0.727846459241979   1.660951289880285 
  7.589056735141226   2.879238444419359   1.660969506564030 
  6.395492508406623   5.038230379761748   1.661400566906595 
  3.483935894314038   7.979597322867661   1.662856627758720 
  3.423337858717932   9.250305530226818   1.662305045464815 
  2.488380083101072  11.578854862344535   1.660229608564395 
  3.769726731783359  13.790013315360206   1.660867910002950 
 11.320602776049817   0.735321515413469   1.660789598893605 
 10.104811025247169   2.865428091626533   1.660591450707930 
  8.910788777516437   4.987806016211201   1.660662322837770 
  7.697762409062364   7.088858730194012   1.661568891995895 
  6.478714430941042   9.044280224557896   1.660748876766675 
  5.016914151096792  11.768417916004941   1.660179506894595 
  6.328584636600397  13.775012254716655   1.660763286576645 
 13.838093461776175   0.736618310054834   1.660979606173710 
 12.601789331204500   2.884837354578591   1.660468227210615 
 11.370735318528041   5.033927082917161   1.660130986727295 
 10.126497306671288   7.186999548132392   1.660679036621370 
  8.869947574276310   9.339113174459335   1.660960094021145 
  7.522598220740738  11.489771222904618   1.660781422584090 
