B Ga N                                  
   1.0000000000000000     
     8.7639499999999995  -15.1796066749929999    0.0000000000000000
     8.7639499999999995   15.1796066749929999    0.0000000000000000
     0.0000000000000000    0.0000000000000000   15.0000000000000000
   B    Ga   N 
    47     1    49
Selective dynamics
Direct
  0.9096370555907699  0.9543081677110864  0.1107093660724708   T   T   T
  0.9092156993077614  0.0960482160795032  0.1107642834519288   T   T   T
  0.9090174750919054  0.2379541819059195  0.1107268107676006   T   T   T
  0.9090373506819743  0.3803482472938328  0.1106940867635388   T   T   T
  0.9086537464594412  0.5231387319609863  0.1107406556065643   T   T   T
  0.9081860649397127  0.6658991767988502  0.1107529639960961   T   T   T
  0.9049209340196012  0.8075665334312522  0.1107159787700561   T   T   T
  0.0505591330778944  0.9536018406698570  0.1106875219613085   T   T   T
  0.0528284736139717  0.0973418123979498  0.1107636240188716   T   T   T
  0.0521441060804417  0.2388866268315025  0.1108143815199656   T   T   T
  0.0508452697667808  0.3813206341935728  0.1107314920399186   T   T   T
  0.0493745105939230  0.5245815076079832  0.1107148971639651   T   T   T
  0.0494287538160419  0.6678099554925740  0.1107344090188454   T   T   T
  0.0492624514974684  0.8105929995444833  0.1107323137078989   T   T   T
  0.1930526497339711  0.9546289280616282  0.1107097669418304   T   T   T
  0.1961295414149620  0.0990655443005165  0.1107129811088291   T   T   T
  0.1965213905352632  0.2408484082160918  0.1107863833839161   T   T   T
  0.1934883971903638  0.3820736318336473  0.1107527043053732   T   T   T
  0.1893340989496160  0.5255359694974516  0.1107043020545482   T   T   T
  0.1898302313569427  0.6690457820919528  0.1107616669224642   T   T   T
  0.1916344679110605  0.8117649964217553  0.1107416740567639   T   T   T
  0.3352192945166340  0.9546303255242431  0.1107303131210443   T   T   T
  0.3370693169870241  0.0978216571319290  0.1107574515179233   T   T   T
  0.3433477242391373  0.2455685609739516  0.1107606127353577   T   T   T
  0.3396516982346110  0.3831655712666530  0.1107677356727700   T   T   T
  0.3278536319724261  0.5282887604923986  0.1106648889606217   T   T   T
  0.3290825882490550  0.6708675721537544  0.1106952414208800   T   T   T
  0.3337220630439515  0.8126065453285537  0.1107971530436146   T   T   T
  0.4778183081634975  0.9535931691970402  0.1107402741740316   T   T   T
  0.4790307055946207  0.0952748736481607  0.1107610462322726   T   T   T
  0.4808930570815421  0.2375230599494586  0.1107572841387563   T   T   T
  0.4981963772081068  0.3919375165273140  0.1107903005034904   T   T   T
  0.4663458459331136  0.6693659555434881  0.1106904545948322   T   T   T
  0.4764139545179663  0.8118828013328214  0.1107441894473568   T   T   T
  0.6212554712668309  0.9546313976627161  0.1107571618625248   T   T   T
  0.6220202377770965  0.0947505396670712  0.1107328264439295   T   T   T
  0.6230515091980772  0.2348135578202103  0.1107218094845061   T   T   T
  0.6257746360855279  0.3739915962411630  0.1107793056692820   T   T   T
  0.6145119935596537  0.5002716206648860  0.1108060917688834   T   T   T
  0.6212156940500553  0.8150624768046246  0.1106985973111081   T   T   T
  0.7656382945807578  0.9539498724043960  0.1107442027164021   T   T   T
  0.7656446520720657  0.0953895055388874  0.1107272072581898   T   T   T
  0.7661624895334139  0.2368036163126010  0.1107027372466876   T   T   T
  0.7674094801754934  0.3784586604764335  0.1107078255498840   T   T   T
  0.7669580033977702  0.5197634049987617  0.1107464834594314   T   T   T
  0.7627794476746270  0.6576743345391783  0.1107406123707478   T   T   T
  0.7671746852765852  0.8129636887987371  0.1107260289599433   T   T   T
  0.6182497317522612  0.6602229860807052  0.1108807434012688   T   T   T
  0.9545088720945264  0.9042483299168529  0.1106759356907778   T   T   T
  0.9575926720656200  0.0494053800222035  0.1107392617516592   T   T   T
  0.9571953002516443  0.1911343740875515  0.1107619541227482   T   T   T
  0.9565537876340156  0.3330487600272423  0.1107004266203524   T   T   T
  0.9555106984097155  0.4755721419823090  0.1106982192930449   T   T   T
  0.9551769751604741  0.6185681471215461  0.1107345789984533   T   T   T
  0.9537636263294692  0.7613423540018853  0.1107230064498428   T   T   T
  0.0977368283152926  0.9061043448451550  0.1106892306029691   T   T   T
  0.1001693482074927  0.0499801601409896  0.1106938336784867   T   T   T
  0.1012951679117604  0.1929489335636746  0.1107890560050556   T   T   T
  0.0994262584856633  0.3342779169223750  0.1107681882200700   T   T   T
  0.0962189079701075  0.4765810405425275  0.1106971066096252   T   T   T
  0.0960275004464062  0.6198995056797568  0.1107207607315887   T   T   T
  0.0967003132960313  0.7631218280768199  0.1107156265848457   T   T   T
  0.2401198362688820  0.9068787867818084  0.1107030787193542   T   T   T
  0.2420235425841034  0.0503337547344364  0.1107015296077777   T   T   T
  0.2464682637663636  0.1961588346282749  0.1107325200790000   T   T   T
  0.2449231539240652  0.3371372853865041  0.1107586057408383   T   T   T
  0.2364903549685545  0.4774221842893116  0.1106794620015445   T   T   T
  0.2360167941449234  0.6207568333037643  0.1107095216697949   T   T   T
  0.2388115234009618  0.7640404813683741  0.1107647641836657   T   T   T
  0.3825799717461336  0.9069826485096443  0.1107380889531769   T   T   T
  0.3838484516075833  0.0495521715808094  0.1107416691097748   T   T   T
  0.3862744040603511  0.1936963455367222  0.1107398259721875   T   T   T
  0.3963811135201374  0.3453560483734782  0.1107540813327399   T   T   T
  0.3776018117724440  0.4814214367128149  0.1107265710083124   T   T   T
  0.3742145614773185  0.6218736327813161  0.1106257927599979   T   T   T
  0.3809301550575471  0.7647897514676102  0.1107531198578949   T   T   T
  0.5254635518665475  0.9060989298209420  0.1107392136103813   T   T   T
  0.5265922630173404  0.0479489669808787  0.1107300859920188   T   T   T
  0.5278091400617255  0.1896780665050173  0.1107313004376021   T   T   T
  0.5308289170066829  0.3319078344804355  0.1107600377937729   T   T   T
  0.4616045593993828  0.5256787935100594  0.1108571085172478   T   T   T
  0.5000030948762031  0.6093903306115120  0.1108203363643213   T   T   T
  0.5233619004434753  0.7627901769957895  0.1106819739042927   T   T   T
  0.6692983547107736  0.9084565635075253  0.1107245273335301   T   T   T
  0.6700826026457730  0.0484414076831670  0.1107193065929066   T   T   T
  0.6708828042886691  0.1887682700202648  0.1107060967138622   T   T   T
  0.6726704239322256  0.3285859853291255  0.1107108215225181   T   T   T
  0.6726713927616610  0.4669988414042482  0.1107712594663928   T   T   T
  0.6675318807852585  0.5958178244142124  0.1107165917844446   T   T   T
  0.6738635776583717  0.7752781852636654  0.1106786337929731   T   T   T
  0.8147919414163336  0.9074683257379481  0.1107175524384431   T   T   T
  0.8137529448123567  0.0485268377387102  0.1107319737449138   T   T   T
  0.8139794815373702  0.1900469107233889  0.1106978818140410   T   T   T
  0.8145342268572564  0.3316243424943298  0.1106753991151534   T   T   T
  0.8144679870635555  0.4734641484467589  0.1107119357747576   T   T   T
  0.8136677570925663  0.6152407881453574  0.1107306729347435   T   T   T
  0.8076392910281258  0.7569215374883725  0.1107187615056059   T   T   T

  0.00000000E+00  0.00000000E+00  0.00000000E+00
  0.00000000E+00  0.00000000E+00  0.00000000E+00
  0.00000000E+00  0.00000000E+00  0.00000000E+00
  0.00000000E+00  0.00000000E+00  0.00000000E+00
  0.00000000E+00  0.00000000E+00  0.00000000E+00
  0.00000000E+00  0.00000000E+00  0.00000000E+00
  0.00000000E+00  0.00000000E+00  0.00000000E+00
  0.00000000E+00  0.00000000E+00  0.00000000E+00
  0.00000000E+00  0.00000000E+00  0.00000000E+00
  0.00000000E+00  0.00000000E+00  0.00000000E+00
  0.00000000E+00  0.00000000E+00  0.00000000E+00
  0.00000000E+00  0.00000000E+00  0.00000000E+00
  0.00000000E+00  0.00000000E+00  0.00000000E+00
  0.00000000E+00  0.00000000E+00  0.00000000E+00
  0.00000000E+00  0.00000000E+00  0.00000000E+00
  0.00000000E+00  0.00000000E+00  0.00000000E+00
  0.00000000E+00  0.00000000E+00  0.00000000E+00
  0.00000000E+00  0.00000000E+00  0.00000000E+00
  0.00000000E+00  0.00000000E+00  0.00000000E+00
  0.00000000E+00  0.00000000E+00  0.00000000E+00
  0.00000000E+00  0.00000000E+00  0.00000000E+00
  0.00000000E+00  0.00000000E+00  0.00000000E+00
  0.00000000E+00  0.00000000E+00  0.00000000E+00
  0.00000000E+00  0.00000000E+00  0.00000000E+00
  0.00000000E+00  0.00000000E+00  0.00000000E+00
  0.00000000E+00  0.00000000E+00  0.00000000E+00
  0.00000000E+00  0.00000000E+00  0.00000000E+00
  0.00000000E+00  0.00000000E+00  0.00000000E+00
  0.00000000E+00  0.00000000E+00  0.00000000E+00
  0.00000000E+00  0.00000000E+00  0.00000000E+00
  0.00000000E+00  0.00000000E+00  0.00000000E+00
  0.00000000E+00  0.00000000E+00  0.00000000E+00
  0.00000000E+00  0.00000000E+00  0.00000000E+00
  0.00000000E+00  0.00000000E+00  0.00000000E+00
  0.00000000E+00  0.00000000E+00  0.00000000E+00
  0.00000000E+00  0.00000000E+00  0.00000000E+00
  0.00000000E+00  0.00000000E+00  0.00000000E+00
  0.00000000E+00  0.00000000E+00  0.00000000E+00
  0.00000000E+00  0.00000000E+00  0.00000000E+00
  0.00000000E+00  0.00000000E+00  0.00000000E+00
  0.00000000E+00  0.00000000E+00  0.00000000E+00
  0.00000000E+00  0.00000000E+00  0.00000000E+00
  0.00000000E+00  0.00000000E+00  0.00000000E+00
  0.00000000E+00  0.00000000E+00  0.00000000E+00
  0.00000000E+00  0.00000000E+00  0.00000000E+00
  0.00000000E+00  0.00000000E+00  0.00000000E+00
  0.00000000E+00  0.00000000E+00  0.00000000E+00
  0.00000000E+00  0.00000000E+00  0.00000000E+00
  0.00000000E+00  0.00000000E+00  0.00000000E+00
  0.00000000E+00  0.00000000E+00  0.00000000E+00
  0.00000000E+00  0.00000000E+00  0.00000000E+00
  0.00000000E+00  0.00000000E+00  0.00000000E+00
  0.00000000E+00  0.00000000E+00  0.00000000E+00
  0.00000000E+00  0.00000000E+00  0.00000000E+00
  0.00000000E+00  0.00000000E+00  0.00000000E+00
  0.00000000E+00  0.00000000E+00  0.00000000E+00
  0.00000000E+00  0.00000000E+00  0.00000000E+00
  0.00000000E+00  0.00000000E+00  0.00000000E+00
  0.00000000E+00  0.00000000E+00  0.00000000E+00
  0.00000000E+00  0.00000000E+00  0.00000000E+00
  0.00000000E+00  0.00000000E+00  0.00000000E+00
  0.00000000E+00  0.00000000E+00  0.00000000E+00
  0.00000000E+00  0.00000000E+00  0.00000000E+00
  0.00000000E+00  0.00000000E+00  0.00000000E+00
  0.00000000E+00  0.00000000E+00  0.00000000E+00
  0.00000000E+00  0.00000000E+00  0.00000000E+00
  0.00000000E+00  0.00000000E+00  0.00000000E+00
  0.00000000E+00  0.00000000E+00  0.00000000E+00
  0.00000000E+00  0.00000000E+00  0.00000000E+00
  0.00000000E+00  0.00000000E+00  0.00000000E+00
  0.00000000E+00  0.00000000E+00  0.00000000E+00
  0.00000000E+00  0.00000000E+00  0.00000000E+00
  0.00000000E+00  0.00000000E+00  0.00000000E+00
  0.00000000E+00  0.00000000E+00  0.00000000E+00
  0.00000000E+00  0.00000000E+00  0.00000000E+00
  0.00000000E+00  0.00000000E+00  0.00000000E+00
  0.00000000E+00  0.00000000E+00  0.00000000E+00
  0.00000000E+00  0.00000000E+00  0.00000000E+00
  0.00000000E+00  0.00000000E+00  0.00000000E+00
  0.00000000E+00  0.00000000E+00  0.00000000E+00
  0.00000000E+00  0.00000000E+00  0.00000000E+00
  0.00000000E+00  0.00000000E+00  0.00000000E+00
  0.00000000E+00  0.00000000E+00  0.00000000E+00
  0.00000000E+00  0.00000000E+00  0.00000000E+00
  0.00000000E+00  0.00000000E+00  0.00000000E+00
  0.00000000E+00  0.00000000E+00  0.00000000E+00
  0.00000000E+00  0.00000000E+00  0.00000000E+00
  0.00000000E+00  0.00000000E+00  0.00000000E+00
  0.00000000E+00  0.00000000E+00  0.00000000E+00
  0.00000000E+00  0.00000000E+00  0.00000000E+00
  0.00000000E+00  0.00000000E+00  0.00000000E+00
  0.00000000E+00  0.00000000E+00  0.00000000E+00
  0.00000000E+00  0.00000000E+00  0.00000000E+00
  0.00000000E+00  0.00000000E+00  0.00000000E+00
  0.00000000E+00  0.00000000E+00  0.00000000E+00
  0.00000000E+00  0.00000000E+00  0.00000000E+00
  0.00000000E+00  0.00000000E+00  0.00000000E+00
