C B N                                   
   1.0000000000000000     
     8.7639499999999995  -15.1796066749929999    0.0000000000000000
     8.7639499999999995   15.1796066749929999    0.0000000000000000
     0.0000000000000000    0.0000000000000000   15.0000000000000000
   C    B    N 
     1    48    48
Selective dynamics
Direct
  0.3902444128185319  0.4828771365404078  0.1111753313349268   T   T   T
  0.9066744779656658  0.9519815654179540  0.1107307426651567   T   T   T
  0.9079580059967304  0.0954340429564370  0.1107693721320819   T   T   T
  0.9083672813249897  0.2383132488807001  0.1108049350710995   T   T   T
  0.9081761338801762  0.3810743279940635  0.1107163279962797   T   T   T
  0.9068524434720256  0.5237382253682371  0.1107441559353358   T   T   T
  0.9054466091620054  0.6661102875659616  0.1108266392514387   T   T   T
  0.9048251757723383  0.8080978225681696  0.1107241124303205   T   T   T
  0.0497296673863881  0.9529099106572295  0.1106878761287493   T   T   T
  0.0510864175004004  0.0962850000138326  0.1107401228008474   T   T   T
  0.0516897582060191  0.2391727106071015  0.1109101838254371   T   T   T
  0.0512722434406506  0.3816619168913712  0.1108386558168336   T   T   T
  0.0499380375222322  0.5243768263168086  0.1106712802529860   T   T   T
  0.0490490167025593  0.6670969080518652  0.1106973319857582   T   T   T
  0.0489357198626193  0.8098168023471978  0.1107317465385383   T   T   T
  0.1927049540280032  0.9534340733498555  0.1107246536494149   T   T   T
  0.1945932290341957  0.0975235606503837  0.1106530153029451   T   T   T
  0.1955130583365978  0.2406794735069540  0.1107796040335372   T   T   T
  0.1952644191723302  0.3828132429901208  0.1109691425207567   T   T   T
  0.1928507014058617  0.5249962315297828  0.1107878281429797   T   T   T
  0.1919929127409077  0.6677581993736961  0.1106376568384980   T   T   T
  0.1921198373477403  0.8104683624027165  0.1106598004136137   T   T   T
  0.3355476938306575  0.9533965041783088  0.1107704492912887   T   T   T
  0.3364378500224089  0.0963261475941233  0.1106999981419504   T   T   T
  0.3400041239652171  0.2416446265231617  0.1105806921004609   T   T   T
  0.3403897510962067  0.3840529318236836  0.1109401377260561   T   T   T
  0.3360676122301588  0.5280311174471227  0.1110051966751878   T   T   T
  0.3346156975844630  0.6692412071848389  0.1107724742349188   T   T   T
  0.3351089879957536  0.8110946503173631  0.1107218966987233   T   T   T
  0.4785823738927143  0.9529719162247086  0.1107931145248369   T   T   T
  0.4790871679106676  0.0953792991743002  0.1107955214458503   T   T   T
  0.4799009663019255  0.2379226625857797  0.1105761907844634   T   T   T
  0.4860546206282026  0.3841667065709351  0.1105631657891355   T   T   T
  0.4762705326390551  0.6682199230594823  0.1107839959470977   T   T   T
  0.4780887839599955  0.8106063705469982  0.1107736481692517   T   T   T
  0.6215825901119720  0.9523341452709759  0.1107254306734559   T   T   T
  0.6220672458512746  0.0949407664298731  0.1107448077339209   T   T   T
  0.6225040096407592  0.2372373826698038  0.1106758635717661   T   T   T
  0.6233537309239745  0.3791580947069928  0.1105311963224019   T   T   T
  0.6146946044487112  0.5154900057135726  0.1106848921122268   T   T   T
  0.6179600863059115  0.6640225952296600  0.1107392898651267   T   T   T
  0.6206873855018057  0.8091438319840509  0.1107423197653841   T   T   T
  0.7642136379538010  0.9519291426985447  0.1107169832161476   T   T   T
  0.7650262694044166  0.0950546646088161  0.1106845550775980   T   T   T
  0.7654061623777255  0.2378118797847046  0.1106961862486744   T   T   T
  0.7655298971432472  0.3804901361812183  0.1106732606027170   T   T   T
  0.7633300353923067  0.5227309303844838  0.1107307651882428   T   T   T
  0.7593800614716966  0.6626011713103765  0.1107533925172520   T   T   T
  0.7622158771418952  0.8077715312952313  0.1107117738129064   T   T   T
  0.9537382807033957  0.9039548209458783  0.1106924587201116   T   T   T
  0.9553035194238508  0.0476145631319424  0.1107375652781178   T   T   T
  0.9560159428913162  0.1908204257518506  0.1108453497983154   T   T   T
  0.9558354824501281  0.3336166472502778  0.1107849081080019   T   T   T
  0.9546897191749674  0.4763821314089456  0.1106821077461605   T   T   T
  0.9535486773559086  0.6189948410134444  0.1107690242055247   T   T   T
  0.9531530478524515  0.7613310241939389  0.1107637685742311   T   T   T
  0.0971610064453035  0.9052563805321140  0.1107004110506963   T   T   T
  0.0986544143088838  0.0487046518381417  0.1106566910149327   T   T   T
  0.0995449577819844  0.1917520197575683  0.1108054432911296   T   T   T
  0.0993153529971581  0.3344192464857666  0.1109348221198707   T   T   T
  0.0976425145477405  0.4769794777888129  0.1107207338266194   T   T   T
  0.0967549025152366  0.6197348318972464  0.1106140920918258   T   T   T
  0.0966468016176664  0.7624404857598811  0.1106700724015107   T   T   T
  0.2401692554861041  0.9058014930725430  0.1107092652971962   T   T   T
  0.2412163424409070  0.0489492740755966  0.1106812910289216   T   T   T
  0.2439447062341351  0.1934921402438179  0.1106129895990471   T   T   T
  0.2437640418406234  0.3356708345694319  0.1109060759291500   T   T   T
  0.2407818301690321  0.4780442416296967  0.1109313988031063   T   T   T
  0.2395802899568408  0.6205381278363282  0.1106937190106768   T   T   T
  0.2397611051831851  0.7631284182928884  0.1106222572935222   T   T   T
  0.3832413825017451  0.9060969311006569  0.1107604150479441   T   T   T
  0.3838090101271082  0.0485883811393180  0.1107850723959276   T   T   T
  0.3852318029858636  0.1918526862090846  0.1105650364986476   T   T   T
  0.3913298863987305  0.3387333912138661  0.1106256109445640   T   T   T
  0.3822627584257208  0.6227641215315701  0.1108189985348374   T   T   T
  0.3828945349726621  0.7641051464372324  0.1107377450293423   T   T   T
  0.5263041395010700  0.9055452765233255  0.1107565394871182   T   T   T
  0.5267385048693233  0.0479832833630591  0.1108004538983594   T   T   T
  0.5273646453726492  0.1904710306463187  0.1106787954341177   T   T   T
  0.5289642290517729  0.3333774917503151  0.1104526390089722   T   T   T
  0.4780655178990915  0.5295929327115829  0.1108671168621479   T   T   T
  0.5234522452645322  0.6197037403044818  0.1107619385384273   T   T   T
  0.5257713741395776  0.7629519657563250  0.1107484057437430   T   T   T
  0.6689473059504731  0.9044179873595811  0.1107085615445322   T   T   T
  0.6696673282703092  0.0474769215612084  0.1106843890834474   T   T   T
  0.6700902191819909  0.1900364179306059  0.1107018368144314   T   T   T
  0.6705566143275893  0.3323216430922072  0.1105771759072539   T   T   T
  0.6675349039328033  0.4739296479146441  0.1106049603628818   T   T   T
  0.6612235785749230  0.6115178785960149  0.1107168630691948   T   T   T
  0.6668101018734676  0.7597590146116352  0.1107116138287799   T   T   T
  0.8110219278792529  0.9034888978928559  0.1107058388312297   T   T   T
  0.8124583058942615  0.0473331728683048  0.1106801807052249   T   T   T
  0.8129472138480647  0.1903407375296216  0.1107004605229921   T   T   T
  0.8129816727056778  0.3330929819624559  0.1106791900989776   T   T   T
  0.8115178124899007  0.4756726081260046  0.1107129714697875   T   T   T
  0.8094159615603970  0.6175092412763050  0.1107968559341918   T   T   T
  0.8084335437293142  0.7587221747453702  0.1107063061176803   T   T   T

  0.00000000E+00  0.00000000E+00  0.00000000E+00
  0.00000000E+00  0.00000000E+00  0.00000000E+00
  0.00000000E+00  0.00000000E+00  0.00000000E+00
  0.00000000E+00  0.00000000E+00  0.00000000E+00
  0.00000000E+00  0.00000000E+00  0.00000000E+00
  0.00000000E+00  0.00000000E+00  0.00000000E+00
  0.00000000E+00  0.00000000E+00  0.00000000E+00
  0.00000000E+00  0.00000000E+00  0.00000000E+00
  0.00000000E+00  0.00000000E+00  0.00000000E+00
  0.00000000E+00  0.00000000E+00  0.00000000E+00
  0.00000000E+00  0.00000000E+00  0.00000000E+00
  0.00000000E+00  0.00000000E+00  0.00000000E+00
  0.00000000E+00  0.00000000E+00  0.00000000E+00
  0.00000000E+00  0.00000000E+00  0.00000000E+00
  0.00000000E+00  0.00000000E+00  0.00000000E+00
  0.00000000E+00  0.00000000E+00  0.00000000E+00
  0.00000000E+00  0.00000000E+00  0.00000000E+00
  0.00000000E+00  0.00000000E+00  0.00000000E+00
  0.00000000E+00  0.00000000E+00  0.00000000E+00
  0.00000000E+00  0.00000000E+00  0.00000000E+00
  0.00000000E+00  0.00000000E+00  0.00000000E+00
  0.00000000E+00  0.00000000E+00  0.00000000E+00
  0.00000000E+00  0.00000000E+00  0.00000000E+00
  0.00000000E+00  0.00000000E+00  0.00000000E+00
  0.00000000E+00  0.00000000E+00  0.00000000E+00
  0.00000000E+00  0.00000000E+00  0.00000000E+00
  0.00000000E+00  0.00000000E+00  0.00000000E+00
  0.00000000E+00  0.00000000E+00  0.00000000E+00
  0.00000000E+00  0.00000000E+00  0.00000000E+00
  0.00000000E+00  0.00000000E+00  0.00000000E+00
  0.00000000E+00  0.00000000E+00  0.00000000E+00
  0.00000000E+00  0.00000000E+00  0.00000000E+00
  0.00000000E+00  0.00000000E+00  0.00000000E+00
  0.00000000E+00  0.00000000E+00  0.00000000E+00
  0.00000000E+00  0.00000000E+00  0.00000000E+00
  0.00000000E+00  0.00000000E+00  0.00000000E+00
  0.00000000E+00  0.00000000E+00  0.00000000E+00
  0.00000000E+00  0.00000000E+00  0.00000000E+00
  0.00000000E+00  0.00000000E+00  0.00000000E+00
  0.00000000E+00  0.00000000E+00  0.00000000E+00
  0.00000000E+00  0.00000000E+00  0.00000000E+00
  0.00000000E+00  0.00000000E+00  0.00000000E+00
  0.00000000E+00  0.00000000E+00  0.00000000E+00
  0.00000000E+00  0.00000000E+00  0.00000000E+00
  0.00000000E+00  0.00000000E+00  0.00000000E+00
  0.00000000E+00  0.00000000E+00  0.00000000E+00
  0.00000000E+00  0.00000000E+00  0.00000000E+00
  0.00000000E+00  0.00000000E+00  0.00000000E+00
  0.00000000E+00  0.00000000E+00  0.00000000E+00
  0.00000000E+00  0.00000000E+00  0.00000000E+00
  0.00000000E+00  0.00000000E+00  0.00000000E+00
  0.00000000E+00  0.00000000E+00  0.00000000E+00
  0.00000000E+00  0.00000000E+00  0.00000000E+00
  0.00000000E+00  0.00000000E+00  0.00000000E+00
  0.00000000E+00  0.00000000E+00  0.00000000E+00
  0.00000000E+00  0.00000000E+00  0.00000000E+00
  0.00000000E+00  0.00000000E+00  0.00000000E+00
  0.00000000E+00  0.00000000E+00  0.00000000E+00
  0.00000000E+00  0.00000000E+00  0.00000000E+00
  0.00000000E+00  0.00000000E+00  0.00000000E+00
  0.00000000E+00  0.00000000E+00  0.00000000E+00
  0.00000000E+00  0.00000000E+00  0.00000000E+00
  0.00000000E+00  0.00000000E+00  0.00000000E+00
  0.00000000E+00  0.00000000E+00  0.00000000E+00
  0.00000000E+00  0.00000000E+00  0.00000000E+00
  0.00000000E+00  0.00000000E+00  0.00000000E+00
  0.00000000E+00  0.00000000E+00  0.00000000E+00
  0.00000000E+00  0.00000000E+00  0.00000000E+00
  0.00000000E+00  0.00000000E+00  0.00000000E+00
  0.00000000E+00  0.00000000E+00  0.00000000E+00
  0.00000000E+00  0.00000000E+00  0.00000000E+00
  0.00000000E+00  0.00000000E+00  0.00000000E+00
  0.00000000E+00  0.00000000E+00  0.00000000E+00
  0.00000000E+00  0.00000000E+00  0.00000000E+00
  0.00000000E+00  0.00000000E+00  0.00000000E+00
  0.00000000E+00  0.00000000E+00  0.00000000E+00
  0.00000000E+00  0.00000000E+00  0.00000000E+00
  0.00000000E+00  0.00000000E+00  0.00000000E+00
  0.00000000E+00  0.00000000E+00  0.00000000E+00
  0.00000000E+00  0.00000000E+00  0.00000000E+00
  0.00000000E+00  0.00000000E+00  0.00000000E+00
  0.00000000E+00  0.00000000E+00  0.00000000E+00
  0.00000000E+00  0.00000000E+00  0.00000000E+00
  0.00000000E+00  0.00000000E+00  0.00000000E+00
  0.00000000E+00  0.00000000E+00  0.00000000E+00
  0.00000000E+00  0.00000000E+00  0.00000000E+00
  0.00000000E+00  0.00000000E+00  0.00000000E+00
  0.00000000E+00  0.00000000E+00  0.00000000E+00
  0.00000000E+00  0.00000000E+00  0.00000000E+00
  0.00000000E+00  0.00000000E+00  0.00000000E+00
  0.00000000E+00  0.00000000E+00  0.00000000E+00
  0.00000000E+00  0.00000000E+00  0.00000000E+00
  0.00000000E+00  0.00000000E+00  0.00000000E+00
  0.00000000E+00  0.00000000E+00  0.00000000E+00
  0.00000000E+00  0.00000000E+00  0.00000000E+00
  0.00000000E+00  0.00000000E+00  0.00000000E+00
  0.00000000E+00  0.00000000E+00  0.00000000E+00
