Species order: X N B                    
   2.51242800000000     
     5.9449720136058266    0.0000000000000000    0.0000000000000000
    -2.9724860068029120    5.1484967885702053   -0.0000000000000001
     0.0000000000000000    0.0000000000000009    5.3101128803662583
   Se   N    B 
     1   144   143
Direct
  0.4444444444444429  0.3888888888888857  0.3750000000000000
  0.1111246378111792  0.0555900203100146  0.1252756022629453
  0.6110514185870887  0.5555128168221131  0.1237511130802304
  0.4444653824988370  0.0555900203100146  0.1252756022629453
  0.9444233346432608  0.5555385807756217  0.1249892378243363
  0.7777777777777786  0.0555555555555571  0.1246973370619341
  0.1111111111111143  0.7222222222222214  0.6252369481625500
  0.4444653824988370  0.7222086955221575  0.6247243977370543
  0.2778205165112226  0.2222819147462466  0.6262488869197670
  0.7777433130233197  0.7222086955221575  0.6247243977370543
  0.6111115204316608  0.2222218129016744  0.6248118204015261
  0.9444349188820395  0.2222110567523390  0.6251032170887141
  0.2777947525577139  0.7222180872009722  0.1249892378243363
  0.1111102924700191  0.2222218129016744  0.1251881795984739
  0.4444613982350248  0.2222819147462466  0.1237511130802304
  0.6111115204316608  0.7222230408633158  0.1251881795984739
  0.9444233346432608  0.7222180872009722  0.1249892378243363
  0.7777761378702961  0.2222110567523390  0.1248967829112877
  0.1111152461323625  0.8889099986900678  0.6250107621756630
  0.4444643812680121  0.8888988573006714  0.6250764485034594
  0.2778205165112226  0.3888719350983038  0.6262488869197670
  0.6110514185870887  0.3888719350983038  0.6262488869197670
  0.7777761378702961  0.8888984144512891  0.6251032170887141
  0.9444344760326572  0.3888689520653165  0.6250764485034594
  0.1111246378111792  0.3888679508344915  0.1252756022629453
  0.2777947525577139  0.8889099986900678  0.1249892378243363
  0.6111222765810005  0.8888984144512891  0.1248967829112877
  0.4444444444444429  0.3888888888888857  0.1157149408394791
  0.9444344760326572  0.8888988573006714  0.1249235514965411
  0.7777433130233197  0.3888679508344915  0.1252756022629453
  0.2777987055140083  0.5555346278193299  0.6247622983022660
  0.1111246378111792  0.0555900203100146  0.6247243977370543
  0.6110514185870887  0.5555128168221131  0.6262488869197670
  0.4444653824988370  0.0555900203100146  0.6247243977370543
  0.9444233346432608  0.5555385807756217  0.6250107621756630
  0.1111152461323625  0.5555385807756217  0.1249892378243363
  0.7777777777777786  0.0555555555555571  0.6253026629380657
  0.2777987055140083  0.0555974110280161  0.1252377016977353
  0.4444613982350248  0.5555128168221131  0.1237511130802304
  0.7777359223053191  0.5555346278193299  0.1252377016977353
  0.6111222765810005  0.0555571954630372  0.1248967829112877
  0.4444613982350248  0.5555128168221131  0.6262488869197670
  0.9444349188820395  0.0555571954630372  0.1248967829112877
  0.2777947525577139  0.7222180872009722  0.6250107621756630
  0.1111102924700191  0.2222218129016744  0.6248118204015261
  0.4444613982350248  0.2222819147462466  0.6262488869197670
  0.6111115204316608  0.7222230408633158  0.6248118204015261
  0.9444233346432608  0.7222180872009722  0.6250107621756630
  0.7777761378702961  0.2222110567523390  0.6251032170887141
  0.1111111111111143  0.7222222222222214  0.1247630518374491
  0.4444653824988370  0.7222086955221575  0.1252756022629453
  0.2778205165112226  0.2222819147462466  0.1237511130802304
  0.7777433130233197  0.7222086955221575  0.1252756022629453
  0.6111115204316608  0.2222218129016744  0.1251881795984739
  0.9444349188820395  0.2222110567523390  0.1248967829112877
  0.1111246378111792  0.3888679508344915  0.6247243977370543
  0.2777947525577139  0.8889099986900678  0.6250107621756630
  0.6111222765810005  0.8888984144512891  0.6251032170887141
  0.4444444444444429  0.3888888888888857  0.6342850591605206
  0.9444344760326572  0.8888988573006714  0.6250764485034594
  0.1111152461323625  0.8889099986900678  0.1249892378243363
  0.7777433130233197  0.3888679508344915  0.6247243977370543
  0.4444643812680121  0.8888988573006714  0.1249235514965411
  0.2778205165112226  0.3888719350983038  0.1237511130802304
  0.2777987055140083  0.5555346278193299  0.1252377016977353
  0.6110514185870887  0.3888719350983038  0.1237511130802304
  0.7777761378702961  0.8888984144512891  0.1248967829112877
  0.9444344760326572  0.3888689520653165  0.1249235514965411
  0.1111152461323625  0.5555385807756217  0.6250107621756630
  0.2777987055140083  0.0555974110280161  0.6247622983022660
  0.7777359223053191  0.5555346278193299  0.6247622983022660
  0.6111222765810005  0.0555571954630372  0.6251032170887141
  0.9444349188820395  0.0555571954630372  0.6251032170887141
  0.0541354255036595  0.1102016656067028  0.3750000000000000
  0.5560613198774630  0.6121226397549280  0.3750000000000000
  0.3871325413678339  0.1017665682308972  0.3750000000000000
  0.8922187541014782  0.6127760437174115  0.3750000000000000
  0.7224858941012584  0.1108474392320762  0.3750000000000000
  0.0555570950838755  0.7777762382494599  0.8750000000000000
  0.3888829392368211  0.7777785664869177  0.8750000000000000
  0.2222219582129373  0.2777776457731365  0.8750000000000000
  0.7222242930436333  0.7777741478816116  0.8750000000000000
  0.5555556875601998  0.2777776457731365  0.8750000000000000
  0.8888922277978992  0.2777844555958109  0.8750000000000000
  0.2215679777438071  0.7774506555385732  0.3750000000000000
  0.0541354255036595  0.2772670932302918  0.3750000000000000
  0.3730122201025369  0.2460244402050818  0.3750000000000000
  0.5560662401030435  0.7791979078296762  0.3750000000000000
  0.8915182332189314  0.7798618069182249  0.3750000000000000
  0.7231316677266338  0.2772670932302918  0.3750000000000000
  0.0555547668464196  0.9444377060832431  0.8750000000000000
  0.3888829392368211  0.9444377060832431  0.8750000000000000
  0.2222149713868935  0.4444547376818480  0.8750000000000000
  0.5555944619919744  0.4444638976626515  0.8750000000000000
  0.7222205904186537  0.9444411808373107  0.8750000000000000
  0.8888956272500855  0.4444503940965075  0.8750000000000000
  0.0534715264151092  0.4449897596340389  0.3750000000000000
  0.2205572896159273  0.9411145792318504  0.3750000000000000
  0.5559764514922989  0.9446548924128121  0.3750000000000000
  0.3730122201025369  0.4603211132307917  0.3750000000000000
  0.8886784409205165  0.9446548924128121  0.3750000000000000
  0.7315667651024398  0.4462007919654947  0.3750000000000000
  0.2222156309437004  0.6111177023896329  0.8750000000000000
  0.0555591854517226  0.1111090402897076  0.8750000000000000
  0.5555556875601998  0.6111113751203984  0.8750000000000000
  0.3888785956514806  0.1110935670383818  0.8750000000000000
  0.8889020714459304  0.6111177023896329  0.8750000000000000
  0.0558826777947646  0.6117653555895304  0.3750000000000000
  0.7222205904186537  0.1111127429146823  0.8750000000000000
  0.2146340268630550  0.1017665682308972  0.3750000000000000
  0.3871325413678339  0.6186993064702813  0.3750000000000000
  0.7315667651024398  0.6186993064702813  0.3750000000000000
  0.5560662401030435  0.1102016656067028  0.3750000000000000
  0.3888785956514806  0.6111183619464410  0.8750000000000000
  0.8883615451308089  0.1108474392320762  0.3750000000000000
  0.2222191431655846  0.7777762382494599  0.8750000000000000
  0.0555591854517226  0.2777834784953507  0.8750000000000000
  0.3888694356706771  0.2777388713413614  0.8750000000000000
  0.5555498548379866  0.7777741478816116  0.8750000000000000
  0.8888956272500855  0.7777785664869177  0.8750000000000000
  0.7222242930436333  0.2777834784953507  0.8750000000000000
  0.0558826777947646  0.7774506555385732  0.3750000000000000
  0.3883435736992897  0.7798618069182249  0.3750000000000000
  0.2212106935784082  0.2772720134558717  0.3750000000000000
  0.7231316677266338  0.7791979078296762  0.3750000000000000
  0.5560613198774630  0.2772720134558717  0.3750000000000000
  0.8886784409205165  0.2773568818410362  0.3750000000000000
  0.0555547668464196  0.4444503940965075  0.8750000000000000
  0.2222156309437004  0.9444312618873982  0.8750000000000000
  0.5555488777375230  0.9444411055354294  0.8750000000000000
  0.3888694356706771  0.4444638976626515  0.8750000000000000
  0.8888922277978992  0.9444411055354294  0.8750000000000000
  0.0534715264151092  0.9418151001143972  0.3750000000000000
  0.7222397662949555  0.4444547376818480  0.8750000000000000
  0.3883435736992897  0.9418151001143972  0.3750000000000000
  0.2146340268630550  0.4462007919654947  0.3750000000000000
  0.2205572896159273  0.6127760437174115  0.3750000000000000
  0.5873088931282547  0.4603211132307917  0.3750000000000000
  0.7224858941012584  0.9449717882025197  0.3750000000000000
  0.8915182332189314  0.4449897596340389  0.3750000000000000
  0.0555570950838755  0.6111141901677507  0.8750000000000000
  0.2222149713868935  0.1110935670383818  0.8750000000000000
  0.7222397662949555  0.6111183619464410  0.8750000000000000
  0.5555498548379866  0.1111090402897076  0.8750000000000000
  0.8888921524960179  0.1111127429146823  0.8750000000000000
  0.1065805680548413  0.0512776272748518  0.3750000000000000
  0.6218292152819336  0.5636731470823559  0.3750000000000000
  0.4446970592200111  0.0512776272748518  0.3750000000000000
  0.9458016842646542  0.5559833263199006  0.3750000000000000
  0.7777777777777786  0.0555555555555571  0.3750000000000000
  0.1111111111111143  0.7222222222222214  0.8750000000000000
  0.4444296172881274  0.7221770172955468  0.8750000000000000
  0.2778445920232028  0.2222691238497743  0.8750000000000000
  0.7777474000074175  0.7221770172955468  0.8750000000000000
  0.6110740509295750  0.2222592824037606  0.8750000000000000
  0.9444762444544729  0.2222428962535322  0.8750000000000000
  0.2773500070134335  0.7231516912780875  0.3750000000000000
  0.1105970687162674  0.2219652010247978  0.3750000000000000
  0.4418439318004201  0.2115041180514039  0.3750000000000000
  0.6113681323085371  0.7227362646170663  0.3750000000000000
  0.9458016842646542  0.7231516912780875  0.3750000000000000
  0.7778429446779695  0.2216723193976259  0.3750000000000000
  0.1111229234673862  0.8889024394869225  0.8750000000000000
  0.4444311447302212  0.8888822390317732  0.8750000000000000
  0.2778445920232028  0.3889088015067572  0.8750000000000000
  0.6110642094835641  0.3889088015067572  0.8750000000000000
  0.7777666517990631  0.8888570888788557  0.8750000000000000
  0.9444510943015554  0.3889021886031074  0.8750000000000000
  0.1065805680548413  0.3886362741133175  0.3750000000000000
  0.2773500070134335  0.8875316490686744  0.3750000000000000
  0.6116610139357095  0.8895039586136704  0.3750000000000000
  0.9442227920638210  0.8891105412695076  0.3750000000000000
  0.7820557060584842  0.3886362741133175  0.3750000000000000
  0.2777957352757010  0.5555375980576336  0.8750000000000000
  0.1111563160377909  0.0555859333259180  0.8750000000000000
  0.6110642094835641  0.5554887413101328  0.8750000000000000
  0.4444296172881274  0.0555859333259180  0.8750000000000000
  0.9444308938464061  0.5555538173137943  0.8750000000000000
  0.1101816420552502  0.5559833263199006  0.3750000000000000
  0.7777777777777786  0.0555555555555571  0.8750000000000000
  0.2755305113535063  0.0510610227070136  0.3750000000000000
  0.4418439318004201  0.5636731470823559  0.3750000000000000
  0.7822723106263232  0.5578028219798293  0.3750000000000000
  0.6116610139357095  0.0554903886553674  0.3750000000000000
  0.4444245318265714  0.5554887413101328  0.8750000000000000
  0.9438293747196582  0.0554903886553674  0.3750000000000000
  0.2777795160195414  0.7222104098659490  0.8750000000000000
  0.1111852314741929  0.2222592824037606  0.8750000000000000
  0.4444245318265714  0.2222691238497743  0.8750000000000000
  0.6110740509295750  0.7221481018591406  0.8750000000000000
  0.9444308938464061  0.7222104098659490  0.8750000000000000
  0.7777666517990631  0.2222428962535322  0.8750000000000000
  0.1111111111111143  0.7222222222222214  0.3750000000000000
  0.4446970592200113  0.7267527652784963  0.3750000000000000
  0.2696601862509825  0.2115041180514039  0.3750000000000000
  0.7820557060584842  0.7267527652784963  0.3750000000000000
  0.6113681323085371  0.2219652010247981  0.3750000000000000
  0.9438293747196553  0.2216723193976259  0.3750000000000000
  0.1111563160377909  0.3889037160452012  0.8750000000000000
  0.2777795160195414  0.8889024394869225  0.8750000000000000
  0.6110904370798038  0.8888570888788557  0.8750000000000000
  0.4444444444444429  0.3888888888888857  0.8750000000000000
  0.9444510943015554  0.8888822390317732  0.8750000000000000
  0.1101816420552502  0.8875316490686744  0.3750000000000000
  0.7777474000074175  0.3889037160452012  0.8750000000000000
  0.4448877492056847  0.8891105412695076  0.3750000000000000
  0.2696601862509825  0.3914894015329085  0.3750000000000000
  0.2755305113535063  0.5578028219798293  0.3750000000000000
  0.6218292152819336  0.3914894015329085  0.3750000000000000
  0.7778429446779695  0.8895039586136733  0.3750000000000000
  0.9442227920638210  0.3884455841276439  0.3750000000000000
  0.1111229234673862  0.5555538173137943  0.8750000000000000
  0.2777957352757010  0.0555914705514037  0.8750000000000000
  0.7777418627819338  0.5555375980576336  0.8750000000000000
  0.6110904370798038  0.0555666815342754  0.8750000000000000
  0.9444762444544729  0.0555666815342754  0.8750000000000000
  0.0556386101484529  0.1111988950392337  0.1253750391773540
  0.5554512285085155  0.6109024570170283  0.1246719989946327
  0.3889755789542957  0.1113767088206460  0.1253188590014994
  0.8887360369891653  0.6110346851612549  0.1253087597513046
  0.7222125481801114  0.1111207851532238  0.1249863620648698
  0.0555331415752296  0.7778001917581076  0.6249890823737998
  0.3889522309660159  0.7777375956321300  0.6247408644358496
  0.2224308763163042  0.2778821048248216  0.6253280010053690
  0.7221344382940982  0.7776947231848849  0.6246249608226470
  0.5554512285085155  0.2778821048248216  0.6253280010053690
  0.8888761910443295  0.2777523820886675  0.6249466831514464
  0.2222670501828761  0.7778001917581076  0.1250109176261993
  0.0556386101484529  0.2777730484425542  0.1253750391773540
  0.3891044658418454  0.2782089316836963  0.1220222165433665
  0.5555602848907801  0.7776947231848849  0.1253750391773540
  0.8887853646661059  0.7777375956321300  0.1252591355641516
  0.7221344382940982  0.2777730484425542  0.1253750391773540
  0.0555957377012070  0.9445479686672227  0.6247408644358496
  0.3889522309660159  0.9445479686672227  0.6247408644358496
  0.2224011298663433  0.4443577543790329  0.6246811409984988
  0.5551244016496377  0.4442288674914832  0.6279777834566309
  0.7222125481801114  0.9444250963602241  0.6250136379351310
  0.8887853646661059  0.4443811023673127  0.6247408644358496
  0.0555957377012070  0.4443811023673127  0.1252591355641516
  0.2222986481720823  0.9445972963441633  0.1253087597513046
  0.5555809512446669  0.9444571422889991  0.1250533168485551
  0.3891044658418454  0.4442288674914832  0.1220222165433665
  0.8888761910443295  0.9444571422889991  0.1250533168485551
  0.7219566245126903  0.4443577543790329  0.1253188590014994
  0.2222986481720823  0.6110346851612549  0.6246912402486958
  0.0556386101484529  0.1111988950392337  0.6246249608226470
  0.5554512285085155  0.6109024570170283  0.6253280010053690
  0.3889755789542957  0.1113767088206460  0.6246811409984988
  0.8887360369891653  0.6110346851612549  0.6246912402486958
  0.0555331415752296  0.6110662831504579  0.1250109176261993
  0.7222125481801114  0.1111207851532238  0.6250136379351310
  0.2224011298663433  0.1113767088206460  0.1253188590014994
  0.3889755789542957  0.6109322034669946  0.1253188590014994
  0.7219566245126903  0.6109322034669946  0.1253188590014994
  0.5555602848907801  0.1111988950392337  0.1253750391773540
  0.3889755789542957  0.6109322034669946  0.6246811409984988
  0.8889082369731045  0.1111207851532238  0.1249863620648698
  0.2222670501828761  0.7778001917581076  0.6249890823737998
  0.0556386101484529  0.2777730484425542  0.6246249608226470
  0.3891044658418454  0.2782089316836963  0.6279777834566309
  0.5555602848907801  0.7776947231848849  0.6246249608226470
  0.8887853646661059  0.7777375956321300  0.6247408644358496
  0.7221344382940982  0.2777730484425542  0.6246249608226470
  0.0555331415752296  0.7778001917581076  0.1250109176261993
  0.3889522309660159  0.7777375956321300  0.1252591355641516
  0.2224308763163041  0.2778821048248216  0.1246719989946327
  0.7221344382940982  0.7776947231848849  0.1253750391773540
  0.5554512285085155  0.2778821048248216  0.1246719989946327
  0.8888761910443295  0.2777523820886675  0.1250533168485551
  0.0555957377012070  0.4443811023673127  0.6247408644358496
  0.2222986481720823  0.9445972963441633  0.6246912402486958
  0.5555809512446669  0.9444571422889991  0.6249466831514464
  0.3891044658418454  0.4442288674914832  0.6279777834566309
  0.8888761910443295  0.9444571422889991  0.6249466831514464
  0.0555957377012070  0.9445479686672227  0.1252591355641516
  0.7219566245126903  0.4443577543790329  0.6246811409984988
  0.3889522309660159  0.9445479686672227  0.1252591355641516
  0.2224011298663433  0.4443577543790329  0.1253188590014994
  0.2222986481720823  0.6110346851612549  0.1253087597513046
  0.5551244016496377  0.4442288674914832  0.1220222165433665
  0.7222125481801114  0.9444250963602241  0.1249863620648698
  0.8887853646661059  0.4443811023673127  0.1252591355641516
  0.0555331415752296  0.6110662831504579  0.6249890823737998
  0.2224011298663433  0.1113767088206460  0.6246811409984988
  0.7219566245126903  0.6109322034669946  0.6246811409984988
  0.5555602848907801  0.1111988950392337  0.6246249608226470
  0.8889082369731045  0.1111207851532238  0.6250136379351310
 
  0.00000000E+00  0.00000000E+00  0.00000000E+00
  0.00000000E+00  0.00000000E+00  0.00000000E+00
  0.00000000E+00  0.00000000E+00  0.00000000E+00
  0.00000000E+00  0.00000000E+00  0.00000000E+00
  0.00000000E+00  0.00000000E+00  0.00000000E+00
  0.00000000E+00  0.00000000E+00  0.00000000E+00
  0.00000000E+00  0.00000000E+00  0.00000000E+00
  0.00000000E+00  0.00000000E+00  0.00000000E+00
  0.00000000E+00  0.00000000E+00  0.00000000E+00
  0.00000000E+00  0.00000000E+00  0.00000000E+00
  0.00000000E+00  0.00000000E+00  0.00000000E+00
  0.00000000E+00  0.00000000E+00  0.00000000E+00
  0.00000000E+00  0.00000000E+00  0.00000000E+00
  0.00000000E+00  0.00000000E+00  0.00000000E+00
  0.00000000E+00  0.00000000E+00  0.00000000E+00
  0.00000000E+00  0.00000000E+00  0.00000000E+00
  0.00000000E+00  0.00000000E+00  0.00000000E+00
  0.00000000E+00  0.00000000E+00  0.00000000E+00
  0.00000000E+00  0.00000000E+00  0.00000000E+00
  0.00000000E+00  0.00000000E+00  0.00000000E+00
  0.00000000E+00  0.00000000E+00  0.00000000E+00
  0.00000000E+00  0.00000000E+00  0.00000000E+00
  0.00000000E+00  0.00000000E+00  0.00000000E+00
  0.00000000E+00  0.00000000E+00  0.00000000E+00
  0.00000000E+00  0.00000000E+00  0.00000000E+00
  0.00000000E+00  0.00000000E+00  0.00000000E+00
  0.00000000E+00  0.00000000E+00  0.00000000E+00
  0.00000000E+00  0.00000000E+00  0.00000000E+00
  0.00000000E+00  0.00000000E+00  0.00000000E+00
  0.00000000E+00  0.00000000E+00  0.00000000E+00
  0.00000000E+00  0.00000000E+00  0.00000000E+00
  0.00000000E+00  0.00000000E+00  0.00000000E+00
  0.00000000E+00  0.00000000E+00  0.00000000E+00
  0.00000000E+00  0.00000000E+00  0.00000000E+00
  0.00000000E+00  0.00000000E+00  0.00000000E+00
  0.00000000E+00  0.00000000E+00  0.00000000E+00
  0.00000000E+00  0.00000000E+00  0.00000000E+00
  0.00000000E+00  0.00000000E+00  0.00000000E+00
  0.00000000E+00  0.00000000E+00  0.00000000E+00
  0.00000000E+00  0.00000000E+00  0.00000000E+00
  0.00000000E+00  0.00000000E+00  0.00000000E+00
  0.00000000E+00  0.00000000E+00  0.00000000E+00
  0.00000000E+00  0.00000000E+00  0.00000000E+00
  0.00000000E+00  0.00000000E+00  0.00000000E+00
  0.00000000E+00  0.00000000E+00  0.00000000E+00
  0.00000000E+00  0.00000000E+00  0.00000000E+00
  0.00000000E+00  0.00000000E+00  0.00000000E+00
  0.00000000E+00  0.00000000E+00  0.00000000E+00
  0.00000000E+00  0.00000000E+00  0.00000000E+00
  0.00000000E+00  0.00000000E+00  0.00000000E+00
  0.00000000E+00  0.00000000E+00  0.00000000E+00
  0.00000000E+00  0.00000000E+00  0.00000000E+00
  0.00000000E+00  0.00000000E+00  0.00000000E+00
  0.00000000E+00  0.00000000E+00  0.00000000E+00
  0.00000000E+00  0.00000000E+00  0.00000000E+00
  0.00000000E+00  0.00000000E+00  0.00000000E+00
  0.00000000E+00  0.00000000E+00  0.00000000E+00
  0.00000000E+00  0.00000000E+00  0.00000000E+00
  0.00000000E+00  0.00000000E+00  0.00000000E+00
  0.00000000E+00  0.00000000E+00  0.00000000E+00
  0.00000000E+00  0.00000000E+00  0.00000000E+00
  0.00000000E+00  0.00000000E+00  0.00000000E+00
  0.00000000E+00  0.00000000E+00  0.00000000E+00
  0.00000000E+00  0.00000000E+00  0.00000000E+00
  0.00000000E+00  0.00000000E+00  0.00000000E+00
  0.00000000E+00  0.00000000E+00  0.00000000E+00
  0.00000000E+00  0.00000000E+00  0.00000000E+00
  0.00000000E+00  0.00000000E+00  0.00000000E+00
  0.00000000E+00  0.00000000E+00  0.00000000E+00
  0.00000000E+00  0.00000000E+00  0.00000000E+00
  0.00000000E+00  0.00000000E+00  0.00000000E+00
  0.00000000E+00  0.00000000E+00  0.00000000E+00
  0.00000000E+00  0.00000000E+00  0.00000000E+00
  0.00000000E+00  0.00000000E+00  0.00000000E+00
  0.00000000E+00  0.00000000E+00  0.00000000E+00
  0.00000000E+00  0.00000000E+00  0.00000000E+00
  0.00000000E+00  0.00000000E+00  0.00000000E+00
  0.00000000E+00  0.00000000E+00  0.00000000E+00
  0.00000000E+00  0.00000000E+00  0.00000000E+00
  0.00000000E+00  0.00000000E+00  0.00000000E+00
  0.00000000E+00  0.00000000E+00  0.00000000E+00
  0.00000000E+00  0.00000000E+00  0.00000000E+00
  0.00000000E+00  0.00000000E+00  0.00000000E+00
  0.00000000E+00  0.00000000E+00  0.00000000E+00
  0.00000000E+00  0.00000000E+00  0.00000000E+00
  0.00000000E+00  0.00000000E+00  0.00000000E+00
  0.00000000E+00  0.00000000E+00  0.00000000E+00
  0.00000000E+00  0.00000000E+00  0.00000000E+00
  0.00000000E+00  0.00000000E+00  0.00000000E+00
  0.00000000E+00  0.00000000E+00  0.00000000E+00
  0.00000000E+00  0.00000000E+00  0.00000000E+00
  0.00000000E+00  0.00000000E+00  0.00000000E+00
  0.00000000E+00  0.00000000E+00  0.00000000E+00
  0.00000000E+00  0.00000000E+00  0.00000000E+00
  0.00000000E+00  0.00000000E+00  0.00000000E+00
  0.00000000E+00  0.00000000E+00  0.00000000E+00
  0.00000000E+00  0.00000000E+00  0.00000000E+00
  0.00000000E+00  0.00000000E+00  0.00000000E+00
  0.00000000E+00  0.00000000E+00  0.00000000E+00
  0.00000000E+00  0.00000000E+00  0.00000000E+00
  0.00000000E+00  0.00000000E+00  0.00000000E+00
  0.00000000E+00  0.00000000E+00  0.00000000E+00
  0.00000000E+00  0.00000000E+00  0.00000000E+00
  0.00000000E+00  0.00000000E+00  0.00000000E+00
  0.00000000E+00  0.00000000E+00  0.00000000E+00
  0.00000000E+00  0.00000000E+00  0.00000000E+00
  0.00000000E+00  0.00000000E+00  0.00000000E+00
  0.00000000E+00  0.00000000E+00  0.00000000E+00
  0.00000000E+00  0.00000000E+00  0.00000000E+00
  0.00000000E+00  0.00000000E+00  0.00000000E+00
  0.00000000E+00  0.00000000E+00  0.00000000E+00
  0.00000000E+00  0.00000000E+00  0.00000000E+00
  0.00000000E+00  0.00000000E+00  0.00000000E+00
  0.00000000E+00  0.00000000E+00  0.00000000E+00
  0.00000000E+00  0.00000000E+00  0.00000000E+00
  0.00000000E+00  0.00000000E+00  0.00000000E+00
  0.00000000E+00  0.00000000E+00  0.00000000E+00
  0.00000000E+00  0.00000000E+00  0.00000000E+00
  0.00000000E+00  0.00000000E+00  0.00000000E+00
  0.00000000E+00  0.00000000E+00  0.00000000E+00
  0.00000000E+00  0.00000000E+00  0.00000000E+00
  0.00000000E+00  0.00000000E+00  0.00000000E+00
  0.00000000E+00  0.00000000E+00  0.00000000E+00
  0.00000000E+00  0.00000000E+00  0.00000000E+00
  0.00000000E+00  0.00000000E+00  0.00000000E+00
  0.00000000E+00  0.00000000E+00  0.00000000E+00
  0.00000000E+00  0.00000000E+00  0.00000000E+00
  0.00000000E+00  0.00000000E+00  0.00000000E+00
  0.00000000E+00  0.00000000E+00  0.00000000E+00
  0.00000000E+00  0.00000000E+00  0.00000000E+00
  0.00000000E+00  0.00000000E+00  0.00000000E+00
  0.00000000E+00  0.00000000E+00  0.00000000E+00
  0.00000000E+00  0.00000000E+00  0.00000000E+00
  0.00000000E+00  0.00000000E+00  0.00000000E+00
  0.00000000E+00  0.00000000E+00  0.00000000E+00
  0.00000000E+00  0.00000000E+00  0.00000000E+00
  0.00000000E+00  0.00000000E+00  0.00000000E+00
  0.00000000E+00  0.00000000E+00  0.00000000E+00
  0.00000000E+00  0.00000000E+00  0.00000000E+00
  0.00000000E+00  0.00000000E+00  0.00000000E+00
  0.00000000E+00  0.00000000E+00  0.00000000E+00
  0.00000000E+00  0.00000000E+00  0.00000000E+00
  0.00000000E+00  0.00000000E+00  0.00000000E+00
  0.00000000E+00  0.00000000E+00  0.00000000E+00
  0.00000000E+00  0.00000000E+00  0.00000000E+00
  0.00000000E+00  0.00000000E+00  0.00000000E+00
  0.00000000E+00  0.00000000E+00  0.00000000E+00
  0.00000000E+00  0.00000000E+00  0.00000000E+00
  0.00000000E+00  0.00000000E+00  0.00000000E+00
  0.00000000E+00  0.00000000E+00  0.00000000E+00
  0.00000000E+00  0.00000000E+00  0.00000000E+00
  0.00000000E+00  0.00000000E+00  0.00000000E+00
  0.00000000E+00  0.00000000E+00  0.00000000E+00
  0.00000000E+00  0.00000000E+00  0.00000000E+00
  0.00000000E+00  0.00000000E+00  0.00000000E+00
  0.00000000E+00  0.00000000E+00  0.00000000E+00
  0.00000000E+00  0.00000000E+00  0.00000000E+00
  0.00000000E+00  0.00000000E+00  0.00000000E+00
  0.00000000E+00  0.00000000E+00  0.00000000E+00
  0.00000000E+00  0.00000000E+00  0.00000000E+00
  0.00000000E+00  0.00000000E+00  0.00000000E+00
  0.00000000E+00  0.00000000E+00  0.00000000E+00
  0.00000000E+00  0.00000000E+00  0.00000000E+00
  0.00000000E+00  0.00000000E+00  0.00000000E+00
  0.00000000E+00  0.00000000E+00  0.00000000E+00
  0.00000000E+00  0.00000000E+00  0.00000000E+00
  0.00000000E+00  0.00000000E+00  0.00000000E+00
  0.00000000E+00  0.00000000E+00  0.00000000E+00
  0.00000000E+00  0.00000000E+00  0.00000000E+00
  0.00000000E+00  0.00000000E+00  0.00000000E+00
  0.00000000E+00  0.00000000E+00  0.00000000E+00
  0.00000000E+00  0.00000000E+00  0.00000000E+00
  0.00000000E+00  0.00000000E+00  0.00000000E+00
  0.00000000E+00  0.00000000E+00  0.00000000E+00
  0.00000000E+00  0.00000000E+00  0.00000000E+00
  0.00000000E+00  0.00000000E+00  0.00000000E+00
  0.00000000E+00  0.00000000E+00  0.00000000E+00
  0.00000000E+00  0.00000000E+00  0.00000000E+00
  0.00000000E+00  0.00000000E+00  0.00000000E+00
  0.00000000E+00  0.00000000E+00  0.00000000E+00
  0.00000000E+00  0.00000000E+00  0.00000000E+00
  0.00000000E+00  0.00000000E+00  0.00000000E+00
  0.00000000E+00  0.00000000E+00  0.00000000E+00
  0.00000000E+00  0.00000000E+00  0.00000000E+00
  0.00000000E+00  0.00000000E+00  0.00000000E+00
  0.00000000E+00  0.00000000E+00  0.00000000E+00
  0.00000000E+00  0.00000000E+00  0.00000000E+00
  0.00000000E+00  0.00000000E+00  0.00000000E+00
  0.00000000E+00  0.00000000E+00  0.00000000E+00
  0.00000000E+00  0.00000000E+00  0.00000000E+00
  0.00000000E+00  0.00000000E+00  0.00000000E+00
  0.00000000E+00  0.00000000E+00  0.00000000E+00
  0.00000000E+00  0.00000000E+00  0.00000000E+00
  0.00000000E+00  0.00000000E+00  0.00000000E+00
  0.00000000E+00  0.00000000E+00  0.00000000E+00
  0.00000000E+00  0.00000000E+00  0.00000000E+00
  0.00000000E+00  0.00000000E+00  0.00000000E+00
  0.00000000E+00  0.00000000E+00  0.00000000E+00
  0.00000000E+00  0.00000000E+00  0.00000000E+00
  0.00000000E+00  0.00000000E+00  0.00000000E+00
  0.00000000E+00  0.00000000E+00  0.00000000E+00
  0.00000000E+00  0.00000000E+00  0.00000000E+00
  0.00000000E+00  0.00000000E+00  0.00000000E+00
  0.00000000E+00  0.00000000E+00  0.00000000E+00
  0.00000000E+00  0.00000000E+00  0.00000000E+00
  0.00000000E+00  0.00000000E+00  0.00000000E+00
  0.00000000E+00  0.00000000E+00  0.00000000E+00
  0.00000000E+00  0.00000000E+00  0.00000000E+00
  0.00000000E+00  0.00000000E+00  0.00000000E+00
  0.00000000E+00  0.00000000E+00  0.00000000E+00
  0.00000000E+00  0.00000000E+00  0.00000000E+00
  0.00000000E+00  0.00000000E+00  0.00000000E+00
  0.00000000E+00  0.00000000E+00  0.00000000E+00
  0.00000000E+00  0.00000000E+00  0.00000000E+00
  0.00000000E+00  0.00000000E+00  0.00000000E+00
  0.00000000E+00  0.00000000E+00  0.00000000E+00
  0.00000000E+00  0.00000000E+00  0.00000000E+00
  0.00000000E+00  0.00000000E+00  0.00000000E+00
  0.00000000E+00  0.00000000E+00  0.00000000E+00
  0.00000000E+00  0.00000000E+00  0.00000000E+00
  0.00000000E+00  0.00000000E+00  0.00000000E+00
  0.00000000E+00  0.00000000E+00  0.00000000E+00
  0.00000000E+00  0.00000000E+00  0.00000000E+00
  0.00000000E+00  0.00000000E+00  0.00000000E+00
  0.00000000E+00  0.00000000E+00  0.00000000E+00
  0.00000000E+00  0.00000000E+00  0.00000000E+00
  0.00000000E+00  0.00000000E+00  0.00000000E+00
  0.00000000E+00  0.00000000E+00  0.00000000E+00
  0.00000000E+00  0.00000000E+00  0.00000000E+00
  0.00000000E+00  0.00000000E+00  0.00000000E+00
  0.00000000E+00  0.00000000E+00  0.00000000E+00
  0.00000000E+00  0.00000000E+00  0.00000000E+00
  0.00000000E+00  0.00000000E+00  0.00000000E+00
  0.00000000E+00  0.00000000E+00  0.00000000E+00
  0.00000000E+00  0.00000000E+00  0.00000000E+00
  0.00000000E+00  0.00000000E+00  0.00000000E+00
  0.00000000E+00  0.00000000E+00  0.00000000E+00
  0.00000000E+00  0.00000000E+00  0.00000000E+00
  0.00000000E+00  0.00000000E+00  0.00000000E+00
  0.00000000E+00  0.00000000E+00  0.00000000E+00
  0.00000000E+00  0.00000000E+00  0.00000000E+00
  0.00000000E+00  0.00000000E+00  0.00000000E+00
  0.00000000E+00  0.00000000E+00  0.00000000E+00
  0.00000000E+00  0.00000000E+00  0.00000000E+00
  0.00000000E+00  0.00000000E+00  0.00000000E+00
  0.00000000E+00  0.00000000E+00  0.00000000E+00
  0.00000000E+00  0.00000000E+00  0.00000000E+00