 N Se B 
 1.0
 14.936314146199660   0.000000000000000   0.000000000000000
 -7.468157073099825  12.935227489513863   0.000000000000000
  0.000000000000001   0.000000000000001  13.341276283792837
 N Se B 
 144   1 143
Cartesian
  1.244637496358425   0.719069558856740   1.671336421408492 
  4.978198975350038   7.185684658934675   1.650997790030238 
  6.223519576741420   0.719069558856740   1.671336421408492 
  9.957354231833895   7.186017921534344   1.667515954315157 
 11.202235609649751   0.718623749417456   1.663621625596502 
 -3.734078536549858   9.342108742426664   8.341458868272040 
  1.245106602395427   9.341933771484154   8.334620791436123 
  2.489578257036720   2.875267134047432   8.354959422814350 
  6.223050470704410   9.341933771484154   8.334620791436123 
  7.468166243710297   2.874489703015341   8.335787121356310 
 12.446869563856760   2.874350569776781   8.339674725068265 
 -1.244408423882747   9.342055254986134   1.667515954315157 
 -0.000009170610376   2.874489703015340   1.670170091488320 
  4.978578816063128   2.875267134047431   1.650997790030238 
  3.734078536549962   9.342119331735459   1.670170091488320 
  8.712565496982631   9.342055254986134   1.667515954315157 
  9.957601655442671   2.874350569776781   1.666282487776389 
 -4.978867271401131  11.498253050759500   8.338441258529457 
  0.000223336994930  11.498108934353100   8.339317597976653 
  1.245457818236662   5.030146944784033   8.354959422814350 
  6.222699254863294   5.030146944784033   8.354959422814350 
  4.978675749497026  11.498103205995601   8.339674725068265 
 11.202235609649723   5.030108358573738   8.339317597976653 
 -1.244334437796012   5.030095407425233   1.671336421408492 
 -2.489289801698569  11.498253050759500   1.667515954315157 
  2.489481323602918  11.498103205995601   1.666282487776389 
  3.734078536549917   5.030366245922020   1.543784995902233 
  7.467933736104880  11.498108934353100   1.666639614867976 
  8.712491510895966   5.030095407425233   1.671336421408492 
  0.000468874864023   7.185966789145452   8.335126433347927 
  1.244637496358425   0.719069558856741   8.334620791436123 
  4.978198975350039   7.185684658934676   8.354959422814350 
  6.223519576741420   0.719069558856741   8.334620791436123 
  9.957354231833895   7.186017921534344   8.338441258529457 
 -2.489197158734044   7.186017921534344   1.667515954315157 
 11.202235609649751   0.718623749417456   8.342335587248126 
  3.734078536549915   0.719165159475394   1.670830779496714 
  2.489958097749815   7.185684658934675   1.650997790030238 
  7.467688198235766   7.185966789145451   1.670830779496714 
  8.713004442495663   0.718644961993771   1.666282487776389 
  2.489958097749815   7.185684658934676   8.354959422814350 
 13.691466776803859   0.718644961993771   1.666282487776389 
 -1.244408423882746   9.342055254986134   8.338441258529457 
 -0.000009170610376   2.874489703015341   8.335787121356310 
  4.978578816063129   2.875267134047432   8.354959422814350 
  3.734078536549962   9.342119331735459   8.335787121356310 
  8.712565496982631   9.342055254986134   8.338441258529457 
  9.957601655442671   2.874350569776781   8.339674725068265 
 -3.734078536549859   9.342108742426664   1.664498344572575 
  1.245106602395427   9.341933771484154   1.671336421408492 
  2.489578257036720   2.875267134047431   1.650997790030238 
  6.223050470704409   9.341933771484154   1.671336421408492 
  7.468166243710296   2.874489703015340   1.670170091488320 
 12.446869563856760   2.874350569776781   1.666282487776389 
 -1.244334437796012   5.030095407425234   8.334620791436123 
 -2.489289801698569  11.498253050759500   8.338441258529457 
  2.489481323602919  11.498103205995601   8.339674725068265 
  3.734078536549917   5.030366245922021   8.462172216942395 
  7.467933736104881  11.498108934353100   8.339317597976653 
 -4.978867271401132  11.498253050759500   1.667515954315157 
  8.712491510895966   5.030095407425234   8.334620791436123 
  0.000223336994930  11.498108934353100   1.666639614867976 
  1.245457818236662   5.030146944784033   1.650997790030238 
  0.000468874864023   7.185966789145451   1.670830779496714 
  6.222699254863294   5.030146944784033   1.650997790030238 
  4.978675749497025  11.498103205995601   1.666282487776389 
 11.202235609649723   5.030108358573737   1.666639614867976 
 -2.489197158734044   7.186017921534344   8.338441258529457 
  3.734078536549915   0.719165159475395   8.335126433347927 
  7.467688198235767   7.185966789145452   8.335126433347927 
  8.713004442495663   0.718644961993772   8.339674725068265 
 13.691466776803859   0.718644961993772   8.339674725068265 
 -0.014419626707241   1.425483614346039   5.002978606422314 
  3.734078536549903   7.917945596711737   5.002978606422314 
  5.022324537747934   1.316373710893787   5.002978606422314 
  8.750151853276233   7.926397525609005   5.002978606422314 
  9.963450193158296   1.433836843096967   5.002978606422314 
 -4.978736889748636  10.060712577695101  11.673616748318732 
 -0.000094756076086  10.060742693976270  11.673616748318732 
  1.244689888022411   3.593117039577128  11.673616748318732 
  4.978829421140416  10.060685538311450  11.673616748318732 
  6.223467185077424   3.593117039577128  11.673616748318732 
 11.202235609649650   3.593205126182579  11.673616748318732 
 -2.496714691826813  10.056501091263122   5.002978606422314 
 -1.262090481684794   3.586512926290077   5.002978606422314 
  3.734078536549857   3.182382102033037   5.002978606422314 
  2.486407681572372  10.079102197130116   5.002978606422314 
  7.491865929046095  10.087689882870578   5.002978606422314 
  8.730247554784640   3.586512926290077   5.002978606422314 
 -6.223425684850737  12.216516577861380  11.673616748318732 
 -1.244731388249112  12.216516577861380  11.673616748318732 
 -0.000185172268002   5.749123140706915  11.673616748318732 
  4.979207221134069   5.749241627142401  11.673616748318732 
  3.734078536549900  12.216561524595720  11.673616748318732 
  9.957598977476646   5.749066955442409  11.673616748318732 
 -2.524585904455057   5.756043771370388   5.002978606422314 
 -3.734078536549880  12.173531176062099   5.002978606422314 
  1.249407820967219  12.219325932441967   5.002978606422314 
  2.133677322151140   5.954358317866565   5.002978606422314 
  6.218749252132680  12.219325932441967   5.002978606422314 
  7.594613421949244   5.771708750074929   5.002978606422314 
 -1.244840519626582   7.904946503278934  11.673616748318732 
  0.000069682488985   1.437220712288936  11.673616748318732 
  3.734078536549934   7.904864658611992  11.673616748318732 
  4.978748660929892   1.437020562263031  11.673616748318732 
  8.712997592726374   7.904946503278934  11.673616748318732 
 -3.734078536549912   7.913324044753914   5.002978606422314 
  9.957506204437008   1.437268606585283  11.673616748318732 
  2.445832535351777   1.316373710893787   5.002978606422314 
  1.161789652348619   8.003016276797542   5.002978606422314 
  6.306367420751114   8.003016276797542   5.002978606422314 
  7.482576699807071   1.425483614346039   5.002978606422314 
  1.244484952111981   7.904955034796287  11.673616748318732 
 12.441021026141058   1.433836843096967   5.002978606422314 
 -2.489420183351183  10.060712577695101  11.673616748318732 
 -1.244681202101428   3.593192487165849  11.673616748318732 
  3.734078536549865   3.592615483481328  11.673616748318732 
  2.489327651959544  10.060685538311450  11.673616748318732 
  7.468251829175761  10.060742693976270  11.673616748318732 
  8.712838275201335   3.593192487165849  11.673616748318732 
 -4.971442381273023  10.056501091263122   5.002978606422314 
 -0.023708855946316  10.087689882870578   5.002978606422314 
  1.233361463322714   3.586576570527254   5.002978606422314 
  4.981749391527494  10.079102197130116   5.002978606422314 
  6.234795609777104   3.586576570527254   5.002978606422314 
 11.202235609649730   3.587674362396018   5.002978606422314 
 -2.489441904376825   5.749066955442409  11.673616748318732 
 -3.734078536549895  12.216433220722140  11.673616748318732 
  1.244618039025680  12.216560550548747  11.673616748318732 
  2.488949851965769   5.749241627142401  11.673616748318732 
  6.223539034074059  12.216560550548747  11.673616748318732 
 -6.234955585058672  12.182592573038999   5.002978606422314 
  7.468342245367853   5.749123140706915  11.673616748318732 
 -1.233201488041118  12.182592573038999   5.002978606422314 
 -0.126456348849408   5.771708750074929   5.002978606422314 
 -1.281994780176485   7.926397525609005   5.002978606422314 
  5.334479750948695   5.954358317866565   5.002978606422314 
  3.734078536549889  12.223425051572310   5.002978606422314 
  9.992742977554908   5.756043771370388   5.002978606422314 
 -3.734078536549919   7.904901071889897  11.673616748318732 
  2.489408412169836   1.437020562263031  11.673616748318732 
  6.223672120987781   7.904955034796287  11.673616748318732 
  7.468087390610877   1.437220712288936  11.673616748318732 
 12.446965014862334   1.437268606585283  11.673616748318732 
  3.734078536549917   5.030366245922021   5.002978606422314 
  1.208971471523055   0.663287773922712   5.002978606422314 
  5.078236904436249   7.291240387240484   5.002978606422314 
  6.259185601576776   0.663287773922712   5.002978606422314 
  9.974620265200080   7.191770806324541   5.002978606422314 
 11.202235609649751   0.718623749417456   5.002978606422314 
 -3.734078536549858   9.342108742426666  11.673616748318732 
  1.244808979944880   9.341524006416490  11.673616748318732 
  2.490033380870851   2.875101680891759  11.673616748318732 
  6.223348093154915   9.341524006416490  11.673616748318732 
  7.467326759329205   2.874974379548755  11.673616748318732 
 12.447249033192868   2.874762420967866  11.673616748318732 
 -1.258023584939240   9.354131636108766   5.002978606422314 
 -0.005758424020375   2.871170370011438   5.002978606422314 
  5.019973793747758   2.735853881963907   5.002978606422314 
  3.734078536549979   9.348757997743238   5.002978606422314 
  8.726180658039063   9.354131636108766   5.002978606422314 
  9.962622878095338   2.867381879536469   5.002978606422314 
 -4.978696146996965  11.498155270747169  11.673616748318732 
 -0.000148986532236  11.497893973264425  11.673616748318732 
  1.245542093517778   5.030623820164094  11.673616748318732 
  6.222614979582207   5.030623820164094  11.673616748318732 
  4.978842688423144  11.497568650315047  11.673616748318732 
 11.202235609649771   5.030538280751015  11.673616748318732 
 -1.310475893035021   5.027098616332838   5.002978606422314 
 -2.485638929388854  11.480423784846684   5.002978606422314 
  2.493005775055785  11.505936057490947   5.002978606422314 
  7.463191068717500  11.500847114645889   5.002978606422314 
  8.778632966134959   5.027098616332838   5.002978606422314 
  0.000402328245383   7.186005209853612  11.673616748318732 
  1.245141174541889   0.719016692787701  11.673616748318732 
  4.978569823903081   7.185373236710289  11.673616748318732 
  6.223015898557944   0.719016692787701  11.673616748318732 
  9.957353349606443   7.186215009621753  11.673616748318732 
 -2.506463192100198   7.191770806324541   5.002978606422314 
 11.202235609649751   0.718623749417457  11.673616748318732 
  3.734078536549901   0.660485944562460   5.002978606422314 
  2.389920168663556   7.291240387240484   5.002978606422314 
  7.518505889024540   7.215306396601893   5.002978606422314 
  8.721550116601120   0.717780800738712   5.002978606422314 
  2.489587249196785   7.185373236710289  11.673616748318732 
 13.682921102698369   0.717780800738712   5.002978606422314 
 -1.244578666059544   9.341955946911099  11.673616748318732 
  0.000830313770734   2.874974379548755  11.673616748318732 
  4.978123692228984   2.875101680891759  11.673616748318732 
  3.734078536549988   9.341149978668620  11.673616748318732 
  8.712735739159353   9.341955946911099  11.673616748318732 
  9.957222186106685   2.874762420967866  11.673616748318732 
 -3.734078536549858   9.342108742426664   5.002978606422314 
  1.214631171991783   9.400712347510618   5.002978606422314 
  2.448183279352044   2.735853881963907   5.002978606422314 
  6.253525901108041   9.400712347510618   5.002978606422314 
  7.473915497120298   2.871170370011438   5.002978606422314 
 12.441848341204139   2.867381879536469   5.002978606422314 
 -1.244128382063075   5.030558038561979  11.673616748318732 
 -2.489460926102780  11.498155270747169  11.673616748318732 
  2.489314384676865  11.497568650315047  11.673616748318732 
  3.734078536549918   5.030366245922021  11.673616748318732 
  7.468306059632122  11.497893973264425  11.673616748318732 
 -4.982518143710831  11.480423784846684   5.002978606422314 
  8.712285455163014   5.030558038561979  11.673616748318732 
  0.004966004382310  11.500847114645889   5.002978606422314 
  1.104024911465765   5.064004468561817   5.002978606422314 
 -0.050348815924704   7.215306396601893   5.002978606422314 
  6.364132161634172   5.064004468561817   5.002978606422314 
  4.975151298044166  11.505936057490985   5.002978606422314 
 11.202235609649732   5.024631997988172   5.002978606422314 
 -2.489196276506639   7.186215009621753  11.673616748318732 
  3.734078536549902   0.719088318059023  11.673616748318732 
  7.467754744854469   7.186005209853612  11.673616748318732 
  8.712458034233530   0.718767666483218  11.673616748318732 
 13.692013185065992   0.718767666483218  11.673616748318732 
  0.000584945327086   1.438383003915067   1.672663036756431 
  3.734078536549934   7.902162255418223   1.663283583440142 
  4.978082686703767   1.440683065628402   1.671913521508677 
  8.711137635622338   7.903872656544315   1.671778784621580 
  9.957326022335041   1.437372634770347   1.667477588013595 
 -4.979273555443697  10.061022421778633   8.338152022303026 
  0.001246183737880  10.060212726649144   8.334840478214241 
  1.247030237839438   3.594468241174011   8.342673629404512 
  4.978080478484474  10.059658161790999   8.333294176088209 
  6.221126835260352   3.594468241174011   8.342673629404512 
 11.202235609649680   3.592790248071284   8.337586362563382 
 -2.488883517656153  10.061022421778633   1.667805190541589 
 -1.243416996607533   3.593057572060191   1.672663036756431 
  3.734078536549871   3.598695820943229   1.627932103665843 
  2.490076594615263  10.059658161790999   1.672663036756431 
  7.466910889361840  10.060212726649144   1.671116734630413 
  8.711574069707321   3.593057572060191   1.672663036756431 
 -6.223637189589248  12.217942849468743   8.334840478214241 
 -1.244519883510570  12.217942849468743   8.334840478214241 
  0.003319635800917   5.747868639622318   8.334043691335925 
  4.973941494428469   5.746201458411443   8.378025109178745 
  3.734078536549907  12.216353468225549   8.338479624831045 
  9.956469542401237   5.748170651162142   8.334840478214241 
 -2.488312469301402   5.748170651162141   1.671116734630413 
 -3.734078536549903  12.218580914191490   1.671778784621580 
  1.244977334009548  12.216767989604367   1.668370850281258 
  2.494215578671368   5.746201458411442   1.627932103665843 
  6.223179739090248  12.216767989604367   1.668370850281258 
  7.464837437298918   5.747868639622317   1.671913521508677 
 -1.242980562522621   7.903872656544316   8.334178428223062 
  0.000584945327087   1.438383003915067   8.333294176088209 
  3.734078536549934   7.902162255418224   8.342673629404512 
  4.978082686703768   1.440683065628402   8.334043691335925 
  8.711137635622338   7.903872656544316   8.334178428223062 
 -3.734078536549896   7.904281383722866   1.667805190541589 
  9.957326022335041   1.437372634770348   8.338479624831045 
  2.490074386395960   1.440683065628402   1.671913521508677 
  1.247323785954754   7.902547032515550   1.671913521508677 
  6.220833287144949   7.902547032515550   1.671913521508677 
  7.467572127772732   1.438383003915067   1.672663036756431 
  1.247323785954755   7.902547032515550   8.334043691335925 
 12.447145196964330   1.437372634770347   1.667477588013595 
 -2.488883517656153  10.061022421778633   8.338152022303026 
 -1.243416996607533   3.593057572060192   8.333294176088209 
  3.734078536549872   3.598695820943230   8.378025109178745 
  2.490076594615263  10.059658161790999   8.333294176088209 
  7.466910889361841  10.060212726649144   8.334840478214241 
  8.711574069707321   3.593057572060192   8.333294176088209 
 -4.979273555443698  10.061022421778633   1.667805190541589 
  0.001246183737879  10.060212726649144   1.671116734630413 
  1.247030237839437   3.594468241174011   1.663283583440142 
  4.978080478484473  10.059658161790999   1.672663036756431 
  6.221126835260351   3.594468241174011   1.663283583440142 
 11.202235609649680   3.592790248071283   1.668370850281258 
 -2.488312469301401   5.748170651162142   8.334840478214241 
 -3.734078536549902  12.218580914191490   8.334178428223062 
  1.244977334009549  12.216767989604367   8.337586362563382 
  2.494215578671369   5.746201458411443   8.378025109178745 
  6.223179739090249  12.216767989604367   8.337586362563382 
 -6.223637189589249  12.217942849468743   1.671116734630413 
  7.464837437298919   5.747868639622318   8.334043691335925 
 -1.244519883510571  12.217942849468743   1.671116734630413 
  0.003319635800917   5.747868639622317   1.671913521508677 
 -1.242980562522622   7.903872656544315   1.671778784621580 
  4.973941494428468   5.746201458411442   1.627932103665843 
  3.734078536549907  12.216353468225549   1.667477588013595 
  9.956469542401237   5.748170651162141   1.671116734630413 
 -3.734078536549896   7.904281383722867   8.338152022303026 
  2.490074386395960   1.440683065628402   8.334043691335925 
  6.220833287144949   7.902547032515550   8.334043691335925 
  7.467572127772732   1.438383003915067   8.333294176088209 
 12.447145196964330   1.437372634770348   8.338479624831045 
Generated by cif2cell 2.0.0.  :  Failed to get author information, No journal information. Species order: N Se B 
 1.0
 14.936314146199660   0.000000000000000   0.000000000000000
 -7.468157073099825  12.935227489513863   0.000000000000000
  0.000000000000001   0.000000000000001  13.341276283792837
 N Se B 
 144   1 143
Cartesian
  1.244637496358425   0.719069558856740   1.671336421408492 
  4.978198975350038   7.185684658934675   1.650997790030238 
  6.223519576741420   0.719069558856740   1.671336421408492 
  9.957354231833895   7.186017921534344   1.667515954315157 
 11.202235609649751   0.718623749417456   1.663621625596502 
 -3.734078536549858   9.342108742426664   8.341458868272040 
  1.245106602395427   9.341933771484154   8.334620791436123 
  2.489578257036720   2.875267134047432   8.354959422814350 
  6.223050470704410   9.341933771484154   8.334620791436123 
  7.468166243710297   2.874489703015341   8.335787121356310 
 12.446869563856760   2.874350569776781   8.339674725068265 
 -1.244408423882747   9.342055254986134   1.667515954315157 
 -0.000009170610376   2.874489703015340   1.670170091488320 
  4.978578816063128   2.875267134047431   1.650997790030238 
  3.734078536549962   9.342119331735459   1.670170091488320 
  8.712565496982631   9.342055254986134   1.667515954315157 
  9.957601655442671   2.874350569776781   1.666282487776389 
 -4.978867271401131  11.498253050759500   8.338441258529457 
  0.000223336994930  11.498108934353100   8.339317597976653 
  1.245457818236662   5.030146944784033   8.354959422814350 
  6.222699254863294   5.030146944784033   8.354959422814350 
  4.978675749497026  11.498103205995601   8.339674725068265 
 11.202235609649723   5.030108358573738   8.339317597976653 
 -1.244334437796012   5.030095407425233   1.671336421408492 
 -2.489289801698569  11.498253050759500   1.667515954315157 
  2.489481323602918  11.498103205995601   1.666282487776389 
  3.734078536549917   5.030366245922020   1.543784995902233 
  7.467933736104880  11.498108934353100   1.666639614867976 
  8.712491510895966   5.030095407425233   1.671336421408492 
  0.000468874864023   7.185966789145452   8.335126433347927 
  1.244637496358425   0.719069558856741   8.334620791436123 
  4.978198975350039   7.185684658934676   8.354959422814350 
  6.223519576741420   0.719069558856741   8.334620791436123 
  9.957354231833895   7.186017921534344   8.338441258529457 
 -2.489197158734044   7.186017921534344   1.667515954315157 
 11.202235609649751   0.718623749417456   8.342335587248126 
  3.734078536549915   0.719165159475394   1.670830779496714 
  2.489958097749815   7.185684658934675   1.650997790030238 
  7.467688198235766   7.185966789145451   1.670830779496714 
  8.713004442495663   0.718644961993771   1.666282487776389 
  2.489958097749815   7.185684658934676   8.354959422814350 
 13.691466776803859   0.718644961993771   1.666282487776389 
 -1.244408423882746   9.342055254986134   8.338441258529457 
 -0.000009170610376   2.874489703015341   8.335787121356310 
  4.978578816063129   2.875267134047432   8.354959422814350 
  3.734078536549962   9.342119331735459   8.335787121356310 
  8.712565496982631   9.342055254986134   8.338441258529457 
  9.957601655442671   2.874350569776781   8.339674725068265 
 -3.734078536549859   9.342108742426664   1.664498344572575 
  1.245106602395427   9.341933771484154   1.671336421408492 
  2.489578257036720   2.875267134047431   1.650997790030238 
  6.223050470704409   9.341933771484154   1.671336421408492 
  7.468166243710296   2.874489703015340   1.670170091488320 
 12.446869563856760   2.874350569776781   1.666282487776389 
 -1.244334437796012   5.030095407425234   8.334620791436123 
 -2.489289801698569  11.498253050759500   8.338441258529457 
  2.489481323602919  11.498103205995601   8.339674725068265 
  3.734078536549917   5.030366245922021   8.462172216942395 
  7.467933736104881  11.498108934353100   8.339317597976653 
 -4.978867271401132  11.498253050759500   1.667515954315157 
  8.712491510895966   5.030095407425234   8.334620791436123 
  0.000223336994930  11.498108934353100   1.666639614867976 
  1.245457818236662   5.030146944784033   1.650997790030238 
  0.000468874864023   7.185966789145451   1.670830779496714 
  6.222699254863294   5.030146944784033   1.650997790030238 
  4.978675749497025  11.498103205995601   1.666282487776389 
 11.202235609649723   5.030108358573737   1.666639614867976 
 -2.489197158734044   7.186017921534344   8.338441258529457 
  3.734078536549915   0.719165159475395   8.335126433347927 
  7.467688198235767   7.185966789145452   8.335126433347927 
  8.713004442495663   0.718644961993772   8.339674725068265 
 13.691466776803859   0.718644961993772   8.339674725068265 
 -0.014419626707241   1.425483614346039   5.002978606422314 
  3.734078536549903   7.917945596711737   5.002978606422314 
  5.022324537747934   1.316373710893787   5.002978606422314 
  8.750151853276233   7.926397525609005   5.002978606422314 
  9.963450193158296   1.433836843096967   5.002978606422314 
 -4.978736889748636  10.060712577695101  11.673616748318732 
 -0.000094756076086  10.060742693976270  11.673616748318732 
  1.244689888022411   3.593117039577128  11.673616748318732 
  4.978829421140416  10.060685538311450  11.673616748318732 
  6.223467185077424   3.593117039577128  11.673616748318732 
 11.202235609649650   3.593205126182579  11.673616748318732 
 -2.496714691826813  10.056501091263122   5.002978606422314 
 -1.262090481684794   3.586512926290077   5.002978606422314 
  3.734078536549857   3.182382102033037   5.002978606422314 
  2.486407681572372  10.079102197130116   5.002978606422314 
  7.491865929046095  10.087689882870578   5.002978606422314 
  8.730247554784640   3.586512926290077   5.002978606422314 
 -6.223425684850737  12.216516577861380  11.673616748318732 
 -1.244731388249112  12.216516577861380  11.673616748318732 
 -0.000185172268002   5.749123140706915  11.673616748318732 
  4.979207221134069   5.749241627142401  11.673616748318732 
  3.734078536549900  12.216561524595720  11.673616748318732 
  9.957598977476646   5.749066955442409  11.673616748318732 
 -2.524585904455057   5.756043771370388   5.002978606422314 
 -3.734078536549880  12.173531176062099   5.002978606422314 
  1.249407820967219  12.219325932441967   5.002978606422314 
  2.133677322151140   5.954358317866565   5.002978606422314 
  6.218749252132680  12.219325932441967   5.002978606422314 
  7.594613421949244   5.771708750074929   5.002978606422314 
 -1.244840519626582   7.904946503278934  11.673616748318732 
  0.000069682488985   1.437220712288936  11.673616748318732 
  3.734078536549934   7.904864658611992  11.673616748318732 
  4.978748660929892   1.437020562263031  11.673616748318732 
  8.712997592726374   7.904946503278934  11.673616748318732 
 -3.734078536549912   7.913324044753914   5.002978606422314 
  9.957506204437008   1.437268606585283  11.673616748318732 
  2.445832535351777   1.316373710893787   5.002978606422314 
  1.161789652348619   8.003016276797542   5.002978606422314 
  6.306367420751114   8.003016276797542   5.002978606422314 
  7.482576699807071   1.425483614346039   5.002978606422314 
  1.244484952111981   7.904955034796287  11.673616748318732 
 12.441021026141058   1.433836843096967   5.002978606422314 
 -2.489420183351183  10.060712577695101  11.673616748318732 
 -1.244681202101428   3.593192487165849  11.673616748318732 
  3.734078536549865   3.592615483481328  11.673616748318732 
  2.489327651959544  10.060685538311450  11.673616748318732 
  7.468251829175761  10.060742693976270  11.673616748318732 
  8.712838275201335   3.593192487165849  11.673616748318732 
 -4.971442381273023  10.056501091263122   5.002978606422314 
 -0.023708855946316  10.087689882870578   5.002978606422314 
  1.233361463322714   3.586576570527254   5.002978606422314 
  4.981749391527494  10.079102197130116   5.002978606422314 
  6.234795609777104   3.586576570527254   5.002978606422314 
 11.202235609649730   3.587674362396018   5.002978606422314 
 -2.489441904376825   5.749066955442409  11.673616748318732 
 -3.734078536549895  12.216433220722140  11.673616748318732 
  1.244618039025680  12.216560550548747  11.673616748318732 
  2.488949851965769   5.749241627142401  11.673616748318732 
  6.223539034074059  12.216560550548747  11.673616748318732 
 -6.234955585058672  12.182592573038999   5.002978606422314 
  7.468342245367853   5.749123140706915  11.673616748318732 
 -1.233201488041118  12.182592573038999   5.002978606422314 
 -0.126456348849408   5.771708750074929   5.002978606422314 
 -1.281994780176485   7.926397525609005   5.002978606422314 
  5.334479750948695   5.954358317866565   5.002978606422314 
  3.734078536549889  12.223425051572310   5.002978606422314 
  9.992742977554908   5.756043771370388   5.002978606422314 
 -3.734078536549919   7.904901071889897  11.673616748318732 
  2.489408412169836   1.437020562263031  11.673616748318732 
  6.223672120987781   7.904955034796287  11.673616748318732 
  7.468087390610877   1.437220712288936  11.673616748318732 
 12.446965014862334   1.437268606585283  11.673616748318732 
  3.734078536549917   5.030366245922021   5.002978606422314 
  1.208971471523055   0.663287773922712   5.002978606422314 
  5.078236904436249   7.291240387240484   5.002978606422314 
  6.259185601576776   0.663287773922712   5.002978606422314 
  9.974620265200080   7.191770806324541   5.002978606422314 
 11.202235609649751   0.718623749417456   5.002978606422314 
 -3.734078536549858   9.342108742426666  11.673616748318732 
  1.244808979944880   9.341524006416490  11.673616748318732 
  2.490033380870851   2.875101680891759  11.673616748318732 
  6.223348093154915   9.341524006416490  11.673616748318732 
  7.467326759329205   2.874974379548755  11.673616748318732 
 12.447249033192868   2.874762420967866  11.673616748318732 
 -1.258023584939240   9.354131636108766   5.002978606422314 
 -0.005758424020375   2.871170370011438   5.002978606422314 
  5.019973793747758   2.735853881963907   5.002978606422314 
  3.734078536549979   9.348757997743238   5.002978606422314 
  8.726180658039063   9.354131636108766   5.002978606422314 
  9.962622878095338   2.867381879536469   5.002978606422314 
 -4.978696146996965  11.498155270747169  11.673616748318732 
 -0.000148986532236  11.497893973264425  11.673616748318732 
  1.245542093517778   5.030623820164094  11.673616748318732 
  6.222614979582207   5.030623820164094  11.673616748318732 
  4.978842688423144  11.497568650315047  11.673616748318732 
 11.202235609649771   5.030538280751015  11.673616748318732 
 -1.310475893035021   5.027098616332838   5.002978606422314 
 -2.485638929388854  11.480423784846684   5.002978606422314 
  2.493005775055785  11.505936057490947   5.002978606422314 
  7.463191068717500  11.500847114645889   5.002978606422314 
  8.778632966134959   5.027098616332838   5.002978606422314 
  0.000402328245383   7.186005209853612  11.673616748318732 
  1.245141174541889   0.719016692787701  11.673616748318732 
  4.978569823903081   7.185373236710289  11.673616748318732 
  6.223015898557944   0.719016692787701  11.673616748318732 
  9.957353349606443   7.186215009621753  11.673616748318732 
 -2.506463192100198   7.191770806324541   5.002978606422314 
 11.202235609649751   0.718623749417457  11.673616748318732 
  3.734078536549901   0.660485944562460   5.002978606422314 
  2.389920168663556   7.291240387240484   5.002978606422314 
  7.518505889024540   7.215306396601893   5.002978606422314 
  8.721550116601120   0.717780800738712   5.002978606422314 
  2.489587249196785   7.185373236710289  11.673616748318732 
 13.682921102698369   0.717780800738712   5.002978606422314 
 -1.244578666059544   9.341955946911099  11.673616748318732 
  0.000830313770734   2.874974379548755  11.673616748318732 
  4.978123692228984   2.875101680891759  11.673616748318732 
  3.734078536549988   9.341149978668620  11.673616748318732 
  8.712735739159353   9.341955946911099  11.673616748318732 
  9.957222186106685   2.874762420967866  11.673616748318732 
 -3.734078536549858   9.342108742426664   5.002978606422314 
  1.214631171991783   9.400712347510618   5.002978606422314 