Al B N                                  
   1.0000000000000000     
     8.7639499999999995  -15.1796066749929999    0.0000000000000000
     8.7639499999999995   15.1796066749929999    0.0000000000000000
     0.0000000000000000    0.0000000000000000   15.0000000000000000
   Al   B    N 
     1    49    48
Selective dynamics
Direct
  0.5203789755069602  0.4693035615973603  0.9727532795817949   T   T   T
  0.9049469984516763  0.9527312462268408  0.1201708832653484   T   T   T
  0.9049679524933357  0.0956105998815430  0.1195996168099181   T   T   T
  0.9049140162714751  0.2383846591110902  0.1171821596245507   T   T   T
  0.9047208182665669  0.3811084551556461  0.1146862799168314   T   T   T
  0.9047435440677403  0.5238770563557564  0.1124438484110483   T   T   T
  0.9048206173903939  0.6667529283365141  0.1125142009690898   T   T   T
  0.9051059086084156  0.8099339183983034  0.1173856738845372   T   T   T
  0.0475586603277330  0.9523425298953038  0.1219338790733968   T   T   T
  0.0477759726018657  0.0954664985538312  0.1207942260628879   T   T   T
  0.0478775090915752  0.2383391785365075  0.1167537303728637   T   T   T
  0.0478272074662680  0.3810969982859867  0.1146912702374553   T   T   T
  0.0476382177601662  0.5238467383390181  0.1148951273000022   T   T   T
  0.0475805451684173  0.6666304299776513  0.1162860849003699   T   T   T
  0.0475341548067186  0.8094214910251379  0.1193991102600565   T   T   T
  0.1902306405449332  0.9519940782886642  0.1228953793362625   T   T   T
  0.1900572988756056  0.0947046608478094  0.1225101375367007   T   T   T
  0.1907496716237661  0.2381953883775445  0.1154502177898842   T   T   T
  0.1908668942104823  0.3810100318113040  0.1099780554134911   T   T   T
  0.1905679230923412  0.5238619227890426  0.1123969119630898   T   T   T
  0.1904573205706553  0.6666216331083163  0.1161600308128693   T   T   T
  0.1903768488890370  0.8093382664013454  0.1199644037219201   T   T   T
  0.3331891646522705  0.9519976144601643  0.1227668430640694   T   T   T
  0.3329466335624726  0.0944561632905037  0.1223368622320177   T   T   T
  0.3321425104901006  0.2363423155156988  0.1134438770240720   T   T   T
  0.3335817966387797  0.3801857066061659  0.0953592781616691   T   T   T
  0.3330814935619943  0.5238712082142721  0.1012468443205553   T   T   T
  0.3333683419711007  0.6667468554926872  0.1123813824032024   T   T   T
  0.3332971114083731  0.8094073741871538  0.1191729699856808   T   T   T
  0.4761982370884496  0.9523564783523896  0.1216207804570322   T   T   T
  0.4760788013611396  0.0947177792612293  0.1222810925111737   T   T   T
  0.4756580585877503  0.2363613947209936  0.1133667883216572   T   T   T
  0.4692148434117275  0.3669911568027961  0.0674960287095536   T   T   T
  0.4727437772468505  0.5316212917935267  0.0642098074450907   T   T   T
  0.4763599322124321  0.6681814748204323  0.1048117965423246   T   T   T
  0.4762606120815660  0.8099486923408639  0.1172200778622715   T   T   T
  0.6191976795811347  0.9527421505279120  0.1199605660965434   T   T   T
  0.6191121444995632  0.0954888337462923  0.1205438547496429   T   T   T
  0.6188779219484042  0.2382079737486596  0.1152435674291767   T   T   T
  0.6180572253935265  0.3802030597444813  0.0952894157180299   T   T   T
  0.6302941474076938  0.5316106531453000  0.0642271449365671   T   T   T
  0.6199162161016770  0.6684104130886739  0.0957871105924090   T   T   T
  0.6193395852989441  0.8101726407407253  0.1137832878722951   T   T   T
  0.7621417387602726  0.9528528229027593  0.1189648887702985   T   T   T
  0.7620593798788550  0.0956172878268036  0.1195086330295125   T   T   T
  0.7619157313740084  0.2383629032726159  0.1166154960157732   T   T   T
  0.7616008299754750  0.3810381903718689  0.1098949132952473   T   T   T
  0.7622682600978014  0.5239169984457642  0.1012321746813233   T   T   T
  0.7632523375203694  0.6681893349557784  0.1047920307085290   T   T   T
  0.7622477696584304  0.8101734319444921  0.1137954500880236   T   T   T
  0.9524475418676134  0.9049793930124841  0.1205361363563238   T   T   T
  0.9525414034413395  0.0479503151336639  0.1207519802646841   T   T   T
  0.9526148036262668  0.1908235255298691  0.1181114727750078   T   T   T
  0.9525125922388346  0.3335830272938206  0.1157536470069982   T   T   T
  0.9523669683499599  0.4762954733067286  0.1142628898602258   T   T   T
  0.9523474485653401  0.6190766219266129  0.1137806771011326   T   T   T
  0.9523392972306318  0.7619275577182818  0.1168843702184141   T   T   T
  0.0950342567688108  0.9045575302474680  0.1219690821159417   T   T   T
  0.0950011394054281  0.0474688719700915  0.1225188141433441   T   T   T
  0.0955218684687937  0.1907740178697633  0.1183523400540358   T   T   T
  0.0956337061562336  0.3335518099596018  0.1141211726183060   T   T   T
  0.0953615568301792  0.4762890163998889  0.1142336163315901   T   T   T
  0.0952235035972309  0.6190322680285861  0.1158841746348455   T   T   T
  0.0951429061264846  0.7617879689926272  0.1186889271939431   T   T   T
  0.2379375900920856  0.9044536002369511  0.1222570714913646   T   T   T
  0.2377169003737294  0.0470957584275405  0.1236099157927645   T   T   T
  0.2374275596650380  0.1897422665730884  0.1195719968942669   T   T   T
  0.2388920867774768  0.3335752397951872  0.1079506231029432   T   T   T
  0.2382418482746301  0.4762553602578461  0.1086171275397127   T   T   T
  0.2381529227882884  0.6190714075800570  0.1136387685594529   T   T   T
  0.2380543630375885  0.7617827941209159  0.1185240838311567   T   T   T
  0.3809400623622735  0.9045553669506828  0.1217009857808221   T   T   T
  0.3808115260380308  0.0470985226258974  0.1234820380511171   T   T   T
  0.3803617599159481  0.1892717499375149  0.1177874923311582   T   T   T
  0.3789345107843757  0.3297509320692704  0.0964962926343091   T   T   T
  0.3804774044327036  0.4763626948626015  0.0869669462528260   T   T   T
  0.3810323722888072  0.6193209097329178  0.1057483909209625   T   T   T
  0.3810152631529936  0.7619269314794906  0.1166666677333087   T   T   T
  0.5239512884748957  0.9049943860360666  0.1202478621967229   T   T   T
  0.5238908238516302  0.0474807580619554  0.1222150893442464   T   T   T
  0.5237558426661300  0.1897506461531986  0.1193746716515270   T   T   T
  0.5222714490030005  0.3297693213095280  0.0964626034294874   T   T   T
  0.5244247328878340  0.6218870351318225  0.0910509454445333   T   T   T
  0.5240706718625977  0.7627017429925896  0.1135144380640759   T   T   T
  0.6669033527472911  0.9052004203847864  0.1183667513968163   T   T   T
  0.6668276859029451  0.0479645528395360  0.1205363153562653   T   T   T
  0.6666942083833669  0.1907940259721129  0.1181211504572124   T   T   T
  0.6661371031470447  0.3335931815264748  0.1078141829087375   T   T   T
  0.6673509183958940  0.4763905027313616  0.0869481875398702   T   T   T
  0.6688923614123252  0.6218916608937956  0.0910267959172771   T   T   T
  0.6670051739939789  0.7625896393275664  0.1089946211813512   T   T   T
  0.8097129885428201  0.9051933431151143  0.1184612431315190   T   T   T
  0.8097256750841492  0.0480360333385403  0.1198038830572600   T   T   T
  0.8096471973014550  0.1908330720201509  0.1180301523701106   T   T   T
  0.8093703506262804  0.3335732038223163  0.1140453219423662   T   T   T
  0.8094702429978758  0.4762808687129997  0.1085914250993701   T   T   T
  0.8097426005773051  0.6193494664978532  0.1057639000484517   T   T   T
  0.8100540579193879  0.7627046017660279  0.1135252876061259   T   T   T

  0.00000000E+00  0.00000000E+00  0.00000000E+00
  0.00000000E+00  0.00000000E+00  0.00000000E+00
  0.00000000E+00  0.00000000E+00  0.00000000E+00
  0.00000000E+00  0.00000000E+00  0.00000000E+00
  0.00000000E+00  0.00000000E+00  0.00000000E+00
  0.00000000E+00  0.00000000E+00  0.00000000E+00
  0.00000000E+00  0.00000000E+00  0.00000000E+00
  0.00000000E+00  0.00000000E+00  0.00000000E+00
  0.00000000E+00  0.00000000E+00  0.00000000E+00
  0.00000000E+00  0.00000000E+00  0.00000000E+00
  0.00000000E+00  0.00000000E+00  0.00000000E+00
  0.00000000E+00  0.00000000E+00  0.00000000E+00
  0.00000000E+00  0.00000000E+00  0.00000000E+00
  0.00000000E+00  0.00000000E+00  0.00000000E+00
  0.00000000E+00  0.00000000E+00  0.00000000E+00
  0.00000000E+00  0.00000000E+00  0.00000000E+00
  0.00000000E+00  0.00000000E+00  0.00000000E+00
  0.00000000E+00  0.00000000E+00  0.00000000E+00
  0.00000000E+00  0.00000000E+00  0.00000000E+00
  0.00000000E+00  0.00000000E+00  0.00000000E+00
  0.00000000E+00  0.00000000E+00  0.00000000E+00
  0.00000000E+00  0.00000000E+00  0.00000000E+00
  0.00000000E+00  0.00000000E+00  0.00000000E+00
  0.00000000E+00  0.00000000E+00  0.00000000E+00
  0.00000000E+00  0.00000000E+00  0.00000000E+00
  0.00000000E+00  0.00000000E+00  0.00000000E+00
  0.00000000E+00  0.00000000E+00  0.00000000E+00
  0.00000000E+00  0.00000000E+00  0.00000000E+00
  0.00000000E+00  0.00000000E+00  0.00000000E+00
  0.00000000E+00  0.00000000E+00  0.00000000E+00
  0.00000000E+00  0.00000000E+00  0.00000000E+00
  0.00000000E+00  0.00000000E+00  0.00000000E+00
  0.00000000E+00  0.00000000E+00  0.00000000E+00
  0.00000000E+00  0.00000000E+00  0.00000000E+00
  0.00000000E+00  0.00000000E+00  0.00000000E+00
  0.00000000E+00  0.00000000E+00  0.00000000E+00
  0.00000000E+00  0.00000000E+00  0.00000000E+00
  0.00000000E+00  0.00000000E+00  0.00000000E+00
  0.00000000E+00  0.00000000E+00  0.00000000E+00
  0.00000000E+00  0.00000000E+00  0.00000000E+00
  0.00000000E+00  0.00000000E+00  0.00000000E+00
  0.00000000E+00  0.00000000E+00  0.00000000E+00
  0.00000000E+00  0.00000000E+00  0.00000000E+00
  0.00000000E+00  0.00000000E+00  0.00000000E+00
  0.00000000E+00  0.00000000E+00  0.00000000E+00
  0.00000000E+00  0.00000000E+00  0.00000000E+00
  0.00000000E+00  0.00000000E+00  0.00000000E+00
  0.00000000E+00  0.00000000E+00  0.00000000E+00
  0.00000000E+00  0.00000000E+00  0.00000000E+00
  0.00000000E+00  0.00000000E+00  0.00000000E+00
  0.00000000E+00  0.00000000E+00  0.00000000E+00
  0.00000000E+00  0.00000000E+00  0.00000000E+00
  0.00000000E+00  0.00000000E+00  0.00000000E+00
  0.00000000E+00  0.00000000E+00  0.00000000E+00
  0.00000000E+00  0.00000000E+00  0.00000000E+00
  0.00000000E+00  0.00000000E+00  0.00000000E+00
  0.00000000E+00  0.00000000E+00  0.00000000E+00
  0.00000000E+00  0.00000000E+00  0.00000000E+00
  0.00000000E+00  0.00000000E+00  0.00000000E+00
  0.00000000E+00  0.00000000E+00  0.00000000E+00
  0.00000000E+00  0.00000000E+00  0.00000000E+00
  0.00000000E+00  0.00000000E+00  0.00000000E+00
  0.00000000E+00  0.00000000E+00  0.00000000E+00
  0.00000000E+00  0.00000000E+00  0.00000000E+00
  0.00000000E+00  0.00000000E+00  0.00000000E+00
  0.00000000E+00  0.00000000E+00  0.00000000E+00
  0.00000000E+00  0.00000000E+00  0.00000000E+00
  0.00000000E+00  0.00000000E+00  0.00000000E+00
  0.00000000E+00  0.00000000E+00  0.00000000E+00
  0.00000000E+00  0.00000000E+00  0.00000000E+00
  0.00000000E+00  0.00000000E+00  0.00000000E+00
  0.00000000E+00  0.00000000E+00  0.00000000E+00
  0.00000000E+00  0.00000000E+00  0.00000000E+00
  0.00000000E+00  0.00000000E+00  0.00000000E+00
  0.00000000E+00  0.00000000E+00  0.00000000E+00
  0.00000000E+00  0.00000000E+00  0.00000000E+00
  0.00000000E+00  0.00000000E+00  0.00000000E+00
  0.00000000E+00  0.00000000E+00  0.00000000E+00
  0.00000000E+00  0.00000000E+00  0.00000000E+00
  0.00000000E+00  0.00000000E+00  0.00000000E+00
  0.00000000E+00  0.00000000E+00  0.00000000E+00
  0.00000000E+00  0.00000000E+00  0.00000000E+00
  0.00000000E+00  0.00000000E+00  0.00000000E+00
  0.00000000E+00  0.00000000E+00  0.00000000E+00
  0.00000000E+00  0.00000000E+00  0.00000000E+00
  0.00000000E+00  0.00000000E+00  0.00000000E+00
  0.00000000E+00  0.00000000E+00  0.00000000E+00
  0.00000000E+00  0.00000000E+00  0.00000000E+00
  0.00000000E+00  0.00000000E+00  0.00000000E+00
  0.00000000E+00  0.00000000E+00  0.00000000E+00
  0.00000000E+00  0.00000000E+00  0.00000000E+00
  0.00000000E+00  0.00000000E+00  0.00000000E+00
  0.00000000E+00  0.00000000E+00  0.00000000E+00
  0.00000000E+00  0.00000000E+00  0.00000000E+00
  0.00000000E+00  0.00000000E+00  0.00000000E+00
  0.00000000E+00  0.00000000E+00  0.00000000E+00
  0.00000000E+00  0.00000000E+00  0.00000000E+00
  0.00000000E+00  0.00000000E+00  0.00000000E+00
