 N B Al 
 1.0
 17.527899999999772   0.000000000000000   0.000000000000000
 -8.763949999999658  15.179606674993195   0.000000000000000
  0.000000000000001   0.000000000000002  15.000000000000000
 N B Al 
  48  49   1
Cartesian
  8.763211117709668  13.737231234903591   1.808042045344860 
 16.275816301063585   0.727866923670993   1.811279703970260 
 15.024969179913198   2.896626061878934   1.771672091625120 
 13.772040493451289   5.063659147773723   1.736304705104970 
 12.518763271254702   7.229977945875866   1.713943347903390 
 11.267094282974679   9.397339622529453   1.706710156516995 
 10.015012948463699  11.565760641001697   1.753265553276210 
 -6.261746017993968  13.730827524059825   1.829536231739130 
  1.249155650882108   0.720558805811606   1.837782212150160 
  0.002363804424508   2.895874555071126   1.775285100810540 
 -1.246973346759508   5.063185280918836   1.711817589274590 
 -2.502685293313972   7.229879932569699   1.713504244973850 
 -3.756099796687032   9.396666347802901   1.738262619522690 
 -5.008616326558279  11.563641739049990   1.780333907909145 
 -3.756039844421298  13.729249907378447   1.833856072370475 
  3.753933185989607   0.714895088990553   1.854148736891460 
  2.498714785919616   2.880212976201185   1.793579953414005 
  1.263839885023970   5.063540936607477   1.619259346544145 
  0.002001127841246   7.229369045571288   1.629256913095695 
 -1.251190247120250   9.397260470799665   1.704581528391795 
 -2.503633248649240  11.563563186532823   1.777861257467355 
 -1.250398689107513  13.730794686065506   1.825514786712330 
  6.262057249874703   0.714937048434384   1.852230570766755 
  5.008174738765838   2.873070718739146   1.766812384967370 
  3.752005530469012   5.005489449523918   1.447444389514635 
  2.494151057514967   7.230998342654100   1.304504193792390 
  1.250999831387298   9.401047815344659   1.586225863814430 
  0.000907899879852  11.565751134943165   1.750000015999635 
  1.252440239758531  13.737458823104451   1.803717932950845 
  8.766586981771813   0.720739232010989   1.833226340163690 
  7.517374859313276   2.880340174931372   1.790620074772905 
  6.264239887489039   5.005768590958088   1.446939051442305 
  3.741877394041218   9.440000589578748   1.365764181667995 
  2.501578388840665  11.577512468959263   1.702716570961140 
  3.756284052388153  13.740586343479544   1.775501270952240 
 11.264907723808479   0.728083046446085   1.808044730343975 
 10.013157362748279   2.896178270195112   1.771817256858180 
  8.752390567012101   5.063813285031497   1.617212743631055 
  7.522197616138881   7.231420455164347   1.304222813098050 
  6.274051000108968   9.440070806826069   1.365401938759155 
  5.007902519664350  11.575810779417374   1.634919317720265 
  6.259499092486116  13.740478913309591   1.776918646972785 
 13.771805265929990   0.729168092305898   1.797058245858900 
 12.518963608049049   2.896770973846541   1.770452285551665 
 11.263143689103718   5.063510031340093   1.710679829135490 
 10.014211752885151   7.229756253887412   1.628871376490550 
  8.765139571745111   9.401481295804285   1.586458500726780 
  7.514241527157936  11.577555864015624   1.702879314091890 
  7.512131488791528  14.462085584699542   1.802563248980220 
 15.024261257675921   1.451331300161974   1.793994252148770 
 13.772051152588023   3.618585362658679   1.757732394368265 
 12.517840584933161   5.785076449776989   1.720294198752465 
 11.267022038015885   7.952247661533620   1.686657726165720 
 10.016971966223775  10.119737783328796   1.687713014536350 
  8.766385491350716  12.294478314022275   1.760785108268055 
 -7.512678872517164  14.456185023678662   1.829008186100955 
  0.000748850167422   1.449143898685961   1.811913390943320 
 -1.249600452128732   3.617894985425156   1.751305955592960 
 -2.501604528380358   5.784902539001838   1.720369053561825 
 -3.755968705387654   7.951787445964371   1.723426909500030 
 -5.008646295675620  10.119737783328796   1.744291273505550 
 -6.260555564232803  12.286699868048130   1.790986653900855 
 -5.008884858010124  14.450895665344598   1.843430690043945 
  2.501318416524567   1.437579501958368   1.837652063050515 
  1.255908695282860   3.615712307368379   1.731753266848260 
  0.006342966739316   5.783582422122239   1.649670831202365 
 -1.250844199056654   7.952017939943326   1.685953679446350 
 -2.504316464102765  10.119737783328796   1.742400462193035 
 -3.756093730185683  12.285436550993277   1.799466055828800 
 -2.500626159914571  14.450949343037102   1.841502645961035 
  5.008046206149814   1.433807406778782   1.835052933480270 
  3.750468473555636   3.587583390185452   1.701658155361080 
  2.515059849893817   5.771069489735962   1.430389172425035 
  1.247038035775908   7.952158889046114   1.518702664808325 
  0.000000000000152  10.119737783328796   1.685720736048030 
 -1.250972423673975  12.286485580000038   1.787594549785215 
  0.000350521406432  14.456396755770951   1.824311706855480 
  7.514559740821402   1.437778634314284   1.834216387667610 
  6.265827439855141   3.587873005017502   1.700501824824855 
  5.008058705174564   5.570781413467197   1.012440430643310 
  3.627103232991272   8.069802109477529   0.963147111676365 
  2.493680219573881  10.142731975291028   1.572176948134875 
  1.249498540263934  12.294702576659388   1.758301167934065 
  2.503450437811265  14.462251107700865   1.799408491448145 
 10.014876393062966   1.449482938122530   1.808157821244645 
  8.759987556584800   3.615903348351763   1.728653511437655 
  7.501164635527530   5.771332903550160   1.429341235770450 
  6.388723602714606   8.069640618981888   0.963407174048505 
  5.007914004420186  10.146207168155795   1.436806658886135 
  3.755409802341818  12.298102025284773   1.706749318084425 
  5.007989685537707  14.463931070820829   1.784473331554470 
 12.519315474928721   1.451432820540500   1.792629495442695 
 11.265782181814339   3.618255117587759   1.749232440236595 
 10.009863539217541   5.784009857996150   1.648423699428705 
  8.769379457639499   7.952853966749719   1.518482620219845 
  7.522232724737640  10.142851289053992   1.571880460627935 
  6.260283232906168  12.298114035446755   1.706931751320360 
  5.008197696127304   7.123843476221367  14.591299193726925 
