 N C B 
 1.0
 14.936314146199660   0.000000000000000   0.000000000000000
 -7.468157073099825  12.935227489513863   0.000000000000000
  0.000000000000001   0.000000000000001  13.341276283792837
 N C B 
 143   3 142
Cartesian
  1.244054507532386   0.720418735588636   1.666737652436097 
  4.978771382066595   7.187437801790700   1.665423339360281 
  6.223678967079668   0.721000927043000   1.666974936165801 
  9.957156066173514   7.188032399818590   1.666637477372556 
 11.202557283506783   0.720125840284872   1.666141361651500 
 -3.734213365013564   9.344123262723519   8.339293087048331 
  1.244912415979723   9.343897389590140   8.339126794303276 
  2.487927218225947   2.876008945282660   8.340551617683223 
  6.223268546697832   9.343899778919548   8.339389600880617 
  7.469615545907227   2.876008945282660   8.340551617683223 
 12.446928455166365   2.876216069592506   8.339324488490687 
 -1.244558017052902   9.344123262723519   1.666664125796297 
 -0.001223889921815   2.875842695837603   1.665234026125168 
  4.978771382066542   2.876294375706971   1.668184201051138 
  3.734274217435361   9.343899778919548   1.666567611964011 
  8.712630348153352   9.343897389590140   1.666830418541352 
  9.958766654055005   2.875842695837603   1.665234026125168 
 -4.978836382297893  11.500104220436965   8.339405987350746 
  0.000065000231416  11.500104220436965   8.339405987350746 
  1.244466394018513   5.031493706848248   8.339203712212324 
  6.224093314118975   5.030866457585303   8.346367603435249 
  4.978771382066593  11.499858748651025   8.339365207745573 
 11.202322191600873   5.032252012976501   8.339088617923840 
 -1.244779427467714   5.032252012976500   1.666868594920787 
 -2.489385691033240  11.500414338740311   1.667131968221217 
  2.489408094664339  11.499970509314497   1.666714795017433 
  3.733449450014217   5.030866457585302   1.659589609409378 
  7.468134669468857  11.499970509314497   1.666714795017433 
  8.713076370114663   5.031493706848247   1.666753500632304 
  0.000386697959559   7.188032399818590   8.339319735472072 
  1.244054507532386   0.720418735588636   8.339219560408532 
  4.978771382066596   7.187437801790701   8.340533873484347 
  6.223678967079668   0.721000927043000   8.338982276678827 
  9.957156066173514   7.188032399818590   8.339319735472072 
 -2.489385691033242   7.188240808981011   1.666618490044748 
 11.202557283506783   0.720125840284873   8.339815851193128 
  3.733863797053416   0.721000927043000   1.666974936165801 
  2.489994624721223   7.187746629383933   1.665827827120988 
  7.467548139411848   7.187746629383933   1.665827827120988 
  8.713488256600799   0.720418735588636   1.666737652436097 
  2.489994624721224   7.187746629383934   8.340129385723639 
 13.691299626825941   0.720125840284872   1.666141361651500 
 -1.244558017052901   9.344123262723519   8.339293087048331 
 -0.001223889921815   2.875842695837604   8.340723186719458 
  4.978771382066543   2.876294375706972   8.337773011793489 
  3.734274217435362   9.343899778919548   8.339389600880617 
  8.712630348153352   9.343897389590140   8.339126794303276 
  9.958766654055005   2.875842695837604   8.340723186719458 
 -3.734213365013565   9.344123262723519   1.666664125796297 
  1.244912415979723   9.343897389590140   1.666830418541352 
  2.487927218225947   2.876008945282659   1.665405595161404 
  6.223268546697831   9.343899778919548   1.666567611964011 
  7.469615545907226   2.876008945282659   1.665405595161404 
 12.446928455166365   2.876216069592505   1.666632724353940 
 -1.244779427467714   5.032252012976501   8.339088617923840 
 -2.489385691033239  11.500414338740311   8.338825244623411 
  2.489408094664339  11.499970509314497   8.339242417827208 
  3.733449450014217   5.030866457585303   8.346367603435249 
  7.468134669468858  11.499970509314497   8.339242417827208 
 -4.978836382297894  11.500104220436965   1.666551225493893 
  8.713076370114663   5.031493706848248   8.339203712212324 
  0.000065000231415  11.500104220436965   1.666551225493893 
  1.244466394018513   5.031493706848247   1.666753500632304 
  0.000386697959558   7.188032399818590   1.666637477372556 
  6.224093314118974   5.030866457585302   1.659589609409378 
  4.978771382066592  11.499858748651025   1.666592005099069 
 11.202322191600873   5.032252012976500   1.666868594920787 
 -2.489385691033241   7.188240808981012   8.339338722799866 
  3.733863797053417   0.721000927043000   8.338982276678827 
  7.467548139411849   7.187746629383934   8.340129385723639 
  8.713488256600799   0.720418735588636   8.339219560408532 
 13.691299626825941   0.720125840284873   8.339815851193128 
  0.000564586984895   1.435837324863969   5.002978606422314 
  3.732066486133609   7.908650730621122   5.002978606422314 
  4.978771382066482   1.456877723867409   5.002978606422314 
  8.709489615424353   7.893014301462896   5.002978606422314 
  9.956978177148189   1.435837324863969   5.002978606422314 
 -4.978712098094959  10.058209623029541  11.673616748318732 
 -0.000059283971624  10.058209623029541  11.673616748318732 
  1.244718740506869   3.590765728954448  11.673616748318732 
  4.978771382066546  10.057974587729127  11.673616748318732 
  6.223584822895535   3.590810884605104  11.673616748318732 
 11.202374545925082   3.590786680940723  11.673616748318732 
 -2.489385691033299  10.061204642589317   5.002978606422314 
 -1.244520574551336   3.593366166161172   5.002978606422314 
  3.719786317535108   3.611047888721601   5.002978606422314 
  2.486694857009318  10.060580142368014   5.002978606422314 
  7.470847907123756  10.060580142368014   5.002978606422314 
  8.715941717992568   3.589620967926300   5.002978606422314 
 -6.223507667073842  12.214154578925577  11.673616748318732 
 -1.244831907614143  12.214338937893546  11.673616748318732 
 -0.000026490515116   5.746667100268513  11.673616748318732 
  4.978771382066596   5.746843063982890  11.673616748318732 
  3.733937694123064  12.214016386878384  11.673616748318732 
  9.957569254648188   5.746667100268513  11.673616748318732 
 -2.489385691033234   5.748717131272395   5.002978606422314 
 -3.732178205615427  12.219991948188454   5.002978606422314 
  1.241610690702722  12.217033060000633   5.002978606422314 
  2.520560425616308   5.725478894577182   5.002978606422314 
  6.224626821543989  12.215032942219667   5.002978606422314 
  7.436982338516779   5.725478894577182   5.002978606422314 
 -1.244608039273742   7.902436892690346  11.673616748318732 
  0.000028226853365   1.434629975024422  11.673616748318732 
  3.734137143835405   7.902402231497724  11.673616748318732 
  4.978771382066482   1.434938329218753  11.673616748318732 
  8.713011293219095   7.902393087534085  11.673616748318732 
 -3.733681546116597   7.904831360677365   5.002978606422314 
  9.957514537279719   1.434629975024422  11.673616748318732 
  2.493596487414735   1.439407788122742   5.002978606422314 
  1.248053148708617   7.893014301462896   5.002978606422314 
  6.225476277999465   7.908650730621122   5.002978606422314 
  7.463946276718334   1.439407788122742   5.002978606422314 
  1.244531470913858   7.902393087534085  11.673616748318732 
 12.446928455166326   1.436817086430453   5.002978606422314 
 -2.489385691033284  10.058440637244212  11.673616748318732 
 -1.244831781792010   3.590786680940723  11.673616748318732 
  3.733957941237553   3.590810884605104  11.673616748318732 
  2.489286276604059  10.058265731411712  11.673616748318732 
  7.468256487529002  10.058265731411712  11.673616748318732 
  8.712824023626201   3.590765728954448  11.673616748318732 
 -4.978810040114296  10.057120517127126   5.002978606422314 
  0.000038658047712  10.057120517127126   5.002978606422314 
  1.241601046140504   3.589620967926300   5.002978606422314 
  4.978771382066538  10.059889637156386   5.002978606422314 
  6.237756446597961   3.611047888721601   5.002978606422314 
 11.202063338684406   3.593366166161172   5.002978606422314 
 -2.489385691033241   5.746503895707347  11.673616748318732 
 -3.733939474452439  12.214338937893546  11.673616748318732 
  1.244736285007380  12.214154578925577  11.673616748318732 
  2.489352375583155   5.746559381087556  11.673616748318732 
  6.223605070010027  12.214016386878384  11.673616748318732 
 -6.220382072769202  12.217033060000633   5.002978606422314 
  7.468190388549918   5.746559381087556  11.673616748318732 
 -1.246593176451156  12.219991948188454   5.002978606422314 
  0.010286863658165   5.749849506180922   5.002978606422314 
 -1.245089835949974   7.904831360677365   5.002978606422314 
  3.732915942589104  12.215032942219667   5.002978606422314 
  9.947255900474907   5.749849506180922   5.002978606422314 
 -3.734163342792842   7.902436892690346  11.673616748318732 
  2.489405428446189   1.434905396906790  11.673616748318732 
  6.223405620297669   7.902402231497724  11.673616748318732 
  7.468137335686865   1.434905396906790  11.673616748318732 
 12.446928455166312   1.434798554842137  11.673616748318732 
  6.202299993354023   5.033927840009079   5.002978606422314 
  3.755242770779168   5.033927840009079   5.002978606422314 
  4.978771382066597   5.680259677139606   5.002978606422314 
  1.250554922360154   0.723061861708870   5.002978606422314 
  4.978771382066588   7.190957306172881   5.002978606422314 
  6.219841230012038   0.727791379871704   5.002978606422314 
  9.955050739263932   7.183330539198187   5.002978606422314 
 11.199839887956541   0.719410273849072   5.002978606422314 
 -3.734777062153943   9.338359560273007  11.673616748318732 
  1.244124859404032   9.338070988076703  11.673616748318732 
  2.489763270218178   2.872001987450500  11.673616748318732 
  6.222813561607873   9.337873502636764  11.673616748318732 
  7.467779493914997   2.872001987450500  11.673616748318732 
 12.446928455166365   2.871647557075262  11.673616748318732 
 -1.244700321717825   9.340241930067107   5.002978606422314 
  0.006569727860085   2.876726005520338   5.002978606422314 
  4.978771382066542   2.906230699092371   5.002978606422314 
  3.731620583872844   9.338716589158686   5.002978606422314 
  8.711453614354301   9.330366531399639   5.002978606422314 
  9.950973036273105   2.876726005520338   5.002978606422314 
 -4.978714934230331  11.494190235885656  11.673616748318732 
 -0.000056447836131  11.494190235885656  11.673616748318732 
  1.245847730831002   5.026831294653877  11.673616748318732 
  6.223720028643291   5.027111764844326  11.673616748318732 
  4.978771382066591  11.493780118596094  11.673616748318732 
 11.202651487527071   5.026817306862971  11.673616748318732 
 -1.237451248714070   5.031666096209708   5.002978606422314 
 -2.489385691033247  11.499161436906032   5.002978606422314 
  2.487067642914361  11.496738882862623   5.002978606422314 
  7.470475121218819  11.496738882862623   5.002978606422314 
  8.689028096605945   5.031723810814115   5.002978606422314 
  0.000297365591125   7.182881005992414  11.673616748318732 
  1.244273491001082   0.715222321076740  11.673616748318732 
  4.978771382066597   7.182654835402730  11.673616748318732 
  6.222763887298422   0.715666626851658  11.673616748318732 
  9.957245398541964   7.182881005992414  11.673616748318732 
 -2.489385691033233   7.185120783929547   5.002978606422314 
 11.201464574597637   0.715034364740992  11.673616748318732 
  3.737701534121030   0.727791379871704   5.002978606422314 
  2.500345063102179   7.162035618806527   5.002978606422314 
  7.457197701030896   7.162035618806527   5.002978606422314 
  8.706987841773003   0.723061861708870   5.002978606422314 
  2.489699134418782   7.182006368684365  11.673616748318732 
 13.694017022376187   0.719410273849072   5.002978606422314 
 -1.243994319912537   9.338359560273007  11.673616748318732 
  0.000337433212611   2.870931495981202  11.673616748318732 
  4.978771382066528   2.871589385990933  11.673616748318732 
  3.734729202525309   9.337873502636764  11.673616748318732 
  8.713417904729042   9.338070988076703  11.673616748318732 
  9.957205330920578   2.870931495981202  11.673616748318732 
 -3.734071060348654   9.340241930067107   5.002978606422314 
  1.246089149778773   9.330366531399639   5.002978606422314 
  2.500510248825179   2.885148494569696   5.002978606422314 
  6.225922180260334   9.338716589158686   5.002978606422314 
  7.457032515307993   2.885148494569696   5.002978606422314 
 12.446928455166379   2.876134664314635   5.002978606422314 
 -1.245108723393896   5.026817306862971  11.673616748318732 
 -2.489385691033238  11.495214168027195  11.673616748318732 
  2.489275129097929  11.494623463911676  11.673616748318732 
  3.733822735489886   5.027111764844326  11.673616748318732 
  7.468267635035269  11.494623463911676  11.673616748318732 
 -4.977388056082130  11.496675550469993   5.002978606422314 
  8.711695033302176   5.026831294653877  11.673616748318732 
 -0.001383325984349  11.496675550469993   5.002978606422314 
  1.268514667527232   5.031723810814115   5.002978606422314 
  0.002492024869156   7.183330539198187   5.002978606422314 
  4.978771382066597  11.495111152405901   5.002978606422314 
 11.194994012847244   5.031666096209708   5.002978606422314 
 -2.489385691033226   7.182278379548422  11.673616748318732 
  3.734778876834663   0.715666626851658  11.673616748318732 
  7.467843629714293   7.182006368684365  11.673616748318732 
  8.713269273132092   0.715222321076740  11.673616748318732 
 13.692392335735104   0.715034364740992  11.673616748318732 
 -0.000398200900083   1.440073741441636   1.668007158019468 
  3.735781547952191   7.904801236220600   1.669632053657186 
  4.978771382066482   1.442047136746994   1.669653055041789 
  8.711258290435502   7.905900276224108   1.669180794374769 
  9.957940965033153   1.440073741441636   1.668007158019468 
 -4.979428199902983  10.062899010328316   8.338006179189279 
  0.000656817836385  10.062899010328316   8.338006179189279 
  1.245366440215704   3.595531074600501   8.336835129666932 
  4.978771382066546  10.062140828815885   8.337849277006946 
  6.223874069537444   3.596964492808605   8.333069729533813 
 11.202463138794831   3.595316522649938   8.337835875634855 
 -2.489385691033292  10.063738034362503   1.668113205822923 
 -1.244920374661762   3.595316522649938   1.668121337209786 
  3.733668694595642   3.596964492808604   1.672887483310815 
  2.490245286826223  10.062822970663731   1.668228766704160 
  7.467297477306868  10.062822970663731   1.668228766704160 
  8.712176323917367   3.595531074600500   1.669122083177709 
 -6.224269516035748  12.219771656676183   8.338042274241761 
 -1.244909386985972  12.220545899418076   8.337963504111002 
  0.001505362103158   5.750821856833051   8.336461860419671 
  4.978771382066589   5.748644740752742   8.325343330064698 
  3.733884871050628  12.219210721479971   8.338094520498078 
  9.956037402029928   5.750821856833051   8.336461860419671 
 -2.489385691033242   5.750828753109187   1.668188076849886 
 -3.733861995080595  12.220545899418076   1.667993708733626 
  1.245498133969271  12.219771656676183   1.667914938602867 
  2.491810948608283   5.749248683076523   1.672594748367017 
  6.223657893082447  12.219210721479971   1.667862692346550 
  7.465731815524791   5.749248683076523   1.672594748367017 
 -1.243509824909999   7.906865087759380   8.337843810006875 
 -0.000398200900083   1.440073741441637   8.337950054825173 
  3.735781547952192   7.904801236220601   8.336325159187442 
  4.978771382066483   1.442047136746994   8.336304157802825 
  8.711258290435502   7.905900276224109   8.336776418469872 
 -3.735261557156572   7.906865087759379   1.668113402837753 
  9.957940965033153   1.440073741441637   8.337950054825173 
  2.488925712466403   1.441660610079794   1.669077749765876 
  1.246284473697449   7.905900276224108   1.669180794374769 
  6.221761216180896   7.904801236220600   1.669632053657186 
  7.468617051666666   1.441660610079794   1.669077749765876 
  1.246284473697449   7.905900276224109   8.336776418469872 
 12.446928455166313   1.440120327332776   1.668041978691614 
 -2.489385691033292  10.063738034362503   8.337844007021705 
 -1.244920374661762   3.595316522649938   8.337835875634855 
  3.733668694595643   3.596964492808605   8.333069729533813 
  2.490245286826223  10.062822970663731   8.337728446140467 
  7.467297477306869  10.062822970663731   8.337728446140467 
  8.712176323917367   3.595531074600501   8.336835129666932 
 -4.979428199902983  10.062899010328316   1.667951033655349 
  0.000656817836385  10.062899010328316   1.667951033655349 
  1.245366440215704   3.595531074600500   1.669122083177709 
  4.978771382066545  10.062140828815885   1.668107935837670 
  6.223874069537443   3.596964492808604   1.672887483310815 
 11.202463138794831   3.595316522649938   1.668121337209786 
 -2.489385691033241   5.750828753109188   8.337769135994742 
 -3.733861995080594  12.220545899418076   8.337963504111002 
  1.245498133969271  12.219771656676183   8.338042274241761 
  2.491810948608284   5.749248683076524   8.333362464477609 
  6.223657893082448  12.219210721479971   8.338094520498078 
 -6.224269516035749  12.219771656676183   1.667914938602867 
  7.465731815524792   5.749248683076524   8.333362464477609 
 -1.244909386985973  12.220545899418076   1.667993708733626 
  0.001505362103158   5.750821856833050   1.669495352424956 
 -1.243509824910000   7.906865087759379   1.668113402837753 
  4.978771382066588   5.748644740752741   1.680613882779916 
  3.733884871050628  12.219210721479971   1.667862692346550 
  9.956037402029928   5.750821856833050   1.669495352424956 
 -3.735261557156571   7.906865087759380   8.337843810006875 
  2.488925712466404   1.441660610079794   8.336879463078752 
  6.221761216180897   7.904801236220601   8.336325159187442 
  7.468617051666667   1.441660610079794   8.336879463078752 
 12.446928455166313   1.440120327332777   8.337915234153014 
Generated by cif2cell 2.0.0.  :  Failed to get author information, No journal information. Species order: N C B 
 1.0
 14.936314146199660   0.000000000000000   0.000000000000000
 -7.468157073099825  12.935227489513863   0.000000000000000
  0.000000000000001   0.000000000000001  13.341276283792837
 N C B 
 143   3 142
Cartesian
  1.244054507532386   0.720418735588636   1.666737652436097 
  4.978771382066595   7.187437801790700   1.665423339360281 
  6.223678967079668   0.721000927043000   1.666974936165801 
  9.957156066173514   7.188032399818590   1.666637477372556 
 11.202557283506783   0.720125840284872   1.666141361651500 
 -3.734213365013564   9.344123262723519   8.339293087048331 
  1.244912415979723   9.343897389590140   8.339126794303276 
  2.487927218225947   2.876008945282660   8.340551617683223 
  6.223268546697832   9.343899778919548   8.339389600880617 
  7.469615545907227   2.876008945282660   8.340551617683223 
 12.446928455166365   2.876216069592506   8.339324488490687 
 -1.244558017052902   9.344123262723519   1.666664125796297 
 -0.001223889921815   2.875842695837603   1.665234026125168 
  4.978771382066542   2.876294375706971   1.668184201051138 
  3.734274217435361   9.343899778919548   1.666567611964011 
  8.712630348153352   9.343897389590140   1.666830418541352 
  9.958766654055005   2.875842695837603   1.665234026125168 
 -4.978836382297893  11.500104220436965   8.339405987350746 
  0.000065000231416  11.500104220436965   8.339405987350746 
  1.244466394018513   5.031493706848248   8.339203712212324 
  6.224093314118975   5.030866457585303   8.346367603435249 
  4.978771382066593  11.499858748651025   8.339365207745573 
 11.202322191600873   5.032252012976501   8.339088617923840 
 -1.244779427467714   5.032252012976500   1.666868594920787 
 -2.489385691033240  11.500414338740311   1.667131968221217 
  2.489408094664339  11.499970509314497   1.666714795017433 
  3.733449450014217   5.030866457585302   1.659589609409378 
  7.468134669468857  11.499970509314497   1.666714795017433 
  8.713076370114663   5.031493706848247   1.666753500632304 
  0.000386697959559   7.188032399818590   8.339319735472072 
  1.244054507532386   0.720418735588636   8.339219560408532 
  4.978771382066596   7.187437801790701   8.340533873484347 
  6.223678967079668   0.721000927043000   8.338982276678827 
  9.957156066173514   7.188032399818590   8.339319735472072 
 -2.489385691033242   7.188240808981011   1.666618490044748 
 11.202557283506783   0.720125840284873   8.339815851193128 
  3.733863797053416   0.721000927043000   1.666974936165801 
  2.489994624721223   7.187746629383933   1.665827827120988 
  7.467548139411848   7.187746629383933   1.665827827120988 
  8.713488256600799   0.720418735588636   1.666737652436097 
  2.489994624721224   7.187746629383934   8.340129385723639 
 13.691299626825941   0.720125840284872   1.666141361651500 
 -1.244558017052901   9.344123262723519   8.339293087048331 
 -0.001223889921815   2.875842695837604   8.340723186719458 
  4.978771382066543   2.876294375706972   8.337773011793489 
  3.734274217435362   9.343899778919548   8.339389600880617 
  8.712630348153352   9.343897389590140   8.339126794303276 
  9.958766654055005   2.875842695837604   8.340723186719458 
 -3.734213365013565   9.344123262723519   1.666664125796297 
  1.244912415979723   9.343897389590140   1.666830418541352 
  2.487927218225947   2.876008945282659   1.665405595161404 
  6.223268546697831   9.343899778919548   1.666567611964011 
  7.469615545907226   2.876008945282659   1.665405595161404 
 12.446928455166365   2.876216069592505   1.666632724353940 
 -1.244779427467714   5.032252012976501   8.339088617923840 
 -2.489385691033239  11.500414338740311   8.338825244623411 
  2.489408094664339  11.499970509314497   8.339242417827208 
  3.733449450014217   5.030866457585303   8.346367603435249 
  7.468134669468858  11.499970509314497   8.339242417827208 
 -4.978836382297894  11.500104220436965   1.666551225493893 
  8.713076370114663   5.031493706848248   8.339203712212324 
  0.000065000231415  11.500104220436965   1.666551225493893 
  1.244466394018513   5.031493706848247   1.666753500632304 
  0.000386697959558   7.188032399818590   1.666637477372556 
  6.224093314118974   5.030866457585302   1.659589609409378 
  4.978771382066592  11.499858748651025   1.666592005099069 
 11.202322191600873   5.032252012976500   1.666868594920787 
 -2.489385691033241   7.188240808981012   8.339338722799866 
  3.733863797053417   0.721000927043000   8.338982276678827 
  7.467548139411849   7.187746629383934   8.340129385723639 
  8.713488256600799   0.720418735588636   8.339219560408532 
 13.691299626825941   0.720125840284873   8.339815851193128 
  0.000564586984895   1.435837324863969   5.002978606422314 
  3.732066486133609   7.908650730621122   5.002978606422314 
  4.978771382066482   1.456877723867409   5.002978606422314 
  8.709489615424353   7.893014301462896   5.002978606422314 
  9.956978177148189   1.435837324863969   5.002978606422314 
 -4.978712098094959  10.058209623029541  11.673616748318732 
 -0.000059283971624  10.058209623029541  11.673616748318732 
  1.244718740506869   3.590765728954448  11.673616748318732 
  4.978771382066546  10.057974587729127  11.673616748318732 
  6.223584822895535   3.590810884605104  11.673616748318732 
 11.202374545925082   3.590786680940723  11.673616748318732 
 -2.489385691033299  10.061204642589317   5.002978606422314 
 -1.244520574551336   3.593366166161172   5.002978606422314 
  3.719786317535108   3.611047888721601   5.002978606422314 
  2.486694857009318  10.060580142368014   5.002978606422314 
  7.470847907123756  10.060580142368014   5.002978606422314 
  8.715941717992568   3.589620967926300   5.002978606422314 
 -6.223507667073842  12.214154578925577  11.673616748318732 
 -1.244831907614143  12.214338937893546  11.673616748318732 
 -0.000026490515116   5.746667100268513  11.673616748318732 
  4.978771382066596   5.746843063982890  11.673616748318732 
  3.733937694123064  12.214016386878384  11.673616748318732 
  9.957569254648188   5.746667100268513  11.673616748318732 
 -2.489385691033234   5.748717131272395   5.002978606422314 
 -3.732178205615427  12.219991948188454   5.002978606422314 
  1.241610690702722  12.217033060000633   5.002978606422314 
  2.520560425616308   5.725478894577182   5.002978606422314 
  6.224626821543989  12.215032942219667   5.002978606422314 
  7.436982338516779   5.725478894577182   5.002978606422314 
 -1.244608039273742   7.902436892690346  11.673616748318732 
  0.000028226853365   1.434629975024422  11.673616748318732 
  3.734137143835405   7.902402231497724  11.673616748318732 
  4.978771382066482   1.434938329218753  11.673616748318732 
  8.713011293219095   7.902393087534085  11.673616748318732 
 -3.733681546116597   7.904831360677365   5.002978606422314 
  9.957514537279719   1.434629975024422  11.673616748318732 
  2.493596487414735   1.439407788122742   5.002978606422314 
  1.248053148708617   7.893014301462896   5.002978606422314 
  6.225476277999465   7.908650730621122   5.002978606422314 
  7.463946276718334   1.439407788122742   5.002978606422314 
  1.244531470913858   7.902393087534085  11.673616748318732 
 12.446928455166326   1.436817086430453   5.002978606422314 
 -2.489385691033284  10.058440637244212  11.673616748318732 
 -1.244831781792010   3.590786680940723  11.673616748318732 
  3.733957941237553   3.590810884605104  11.673616748318732 
  2.489286276604059  10.058265731411712  11.673616748318732 
  7.468256487529002  10.058265731411712  11.673616748318732 
  8.712824023626201   3.590765728954448  11.673616748318732 
 -4.978810040114296  10.057120517127126   5.002978606422314 
  0.000038658047712  10.057120517127126   5.002978606422314 
  1.241601046140504   3.589620967926300   5.002978606422314 
  4.978771382066538  10.059889637156386   5.002978606422314 
  6.237756446597961   3.611047888721601   5.002978606422314 
 11.202063338684406   3.593366166161172   5.002978606422314 
 -2.489385691033241   5.746503895707347  11.673616748318732 
 -3.733939474452439  12.214338937893546  11.673616748318732 
  1.244736285007380  12.214154578925577  11.673616748318732 
  2.489352375583155   5.746559381087556  11.673616748318732 
  6.223605070010027  12.214016386878384  11.673616748318732 
 -6.220382072769202  12.217033060000633   5.002978606422314 
  7.468190388549918   5.746559381087556  11.673616748318732 
 -1.246593176451156  12.219991948188454   5.002978606422314 
  0.010286863658165   5.749849506180922   5.002978606422314 
 -1.245089835949974   7.904831360677365   5.002978606422314 
  3.732915942589104  12.215032942219667   5.002978606422314 
  9.947255900474907   5.749849506180922   5.002978606422314 
 -3.734163342792842   7.902436892690346  11.673616748318732 
  2.489405428446189   1.434905396906790  11.673616748318732 
  6.223405620297669   7.902402231497724  11.673616748318732 
  7.468137335686865   1.434905396906790  11.673616748318732 
 12.446928455166312   1.434798554842137  11.673616748318732 
  6.202299993354023   5.033927840009079   5.002978606422314 
  3.755242770779168   5.033927840009079   5.002978606422314 
  4.978771382066597   5.680259677139606   5.002978606422314 
  1.250554922360154   0.723061861708870   5.002978606422314 
  4.978771382066588   7.190957306172881   5.002978606422314 
  6.219841230012038   0.727791379871704   5.002978606422314 
  9.955050739263932   7.183330539198187   5.002978606422314 
 11.199839887956541   0.719410273849072   5.002978606422314 
 -3.734777062153943   9.338359560273007  11.673616748318732 
  1.244124859404032   9.338070988076703  11.673616748318732 
  2.489763270218178   2.872001987450500  11.673616748318732 
  6.222813561607873   9.337873502636764  11.673616748318732 
  7.467779493914997   2.872001987450500  11.673616748318732 
 12.446928455166365   2.871647557075262  11.673616748318732 
 -1.244700321717825   9.340241930067107   5.002978606422314 
  0.006569727860085   2.876726005520338   5.002978606422314 
  4.978771382066542   2.906230699092371   5.002978606422314 
  3.731620583872844   9.338716589158686   5.002978606422314 
  8.711453614354301   9.330366531399639   5.002978606422314 
  9.950973036273105   2.876726005520338   5.002978606422314 
 -4.978714934230331  11.494190235885656  11.673616748318732 
 -0.000056447836131  11.494190235885656  11.673616748318732 
  1.245847730831002   5.026831294653877  11.673616748318732 
  6.223720028643291   5.027111764844326  11.673616748318732 
  4.978771382066591  11.493780118596094  11.673616748318732 
 11.202651487527071   5.026817306862971  11.673616748318732 
 -1.237451248714070   5.031666096209708   5.002978606422314 
 -2.489385691033247  11.499161436906032   5.002978606422314 
  2.487067642914361  11.496738882862623   5.002978606422314 
  7.470475121218819  11.496738882862623   5.002978606422314 
  8.689028096605945   5.031723810814115   5.002978606422314 
  0.000297365591125   7.182881005992414  11.673616748318732 
  1.244273491001082   0.715222321076740  11.673616748318732 
  4.978771382066597   7.182654835402730  11.673616748318732 
  6.222763887298422   0.715666626851658  11.673616748318732 
  9.957245398541964   7.182881005992414  11.673616748318732 
 -2.489385691033233   7.185120783929547   5.002978606422314 
 11.201464574597637   0.715034364740992  11.673616748318732 
  3.737701534121030   0.727791379871704   5.002978606422314 
  2.500345063102179   7.162035618806527   5.002978606422314 
  7.457197701030896   7.162035618806527   5.002978606422314 
  8.706987841773003   0.723061861708870   5.002978606422314 
  2.489699134418782   7.182006368684365  11.673616748318732 
 13.694017022376187   0.719410273849072   5.002978606422314 
 -1.243994319912537   9.338359560273007  11.673616748318732 
  0.000337433212611   2.870931495981202  11.673616748318732 
  4.978771382066528   2.871589385990933  11.673616748318732 
  3.734729202525309   9.337873502636764  11.673616748318732 
  8.713417904729042   9.338070988076703  11.673616748318732 
  9.957205330920578   2.870931495981202  11.673616748318732 
 -3.734071060348654   9.340241930067107   5.002978606422314 