Species order: X N B                    
   2.51242800000000     
     5.9449720136058266    0.0000000000000000    0.0000000000000000
    -2.9724860068029120    5.1484967885702053   -0.0000000000000001
     0.0000000000000000    0.0000000000000009    5.3101128803662583
   In   N    B 
     1   143   143
Direct
  0.4921040644394585  0.4127186988863936  0.3750000000000000
  0.1111583247666035  0.0555736178274720  0.1248366409098904
  0.6111826225332231  0.5556308618192775  0.1244396044451495
  0.4444878436058918  0.0555445954276451  0.1248845401011608
  0.9444714770928497  0.5555685738813523  0.1250776458115239
  0.7778265918933428  0.0555799626133393  0.1249519621536086
  0.1111346505097536  0.7222339919215415  0.6250003752293328
  0.4444878436058918  0.7222765815115829  0.6251154598988395
  0.2778455593270844  0.2222430888768384  0.6249887699248821
  0.7778246269058099  0.7222605924208627  0.6250600153546562
  0.6111570035208613  0.2222015999557123  0.6252245945919260
  0.9444980579400991  0.2222477830955316  0.6250596931021072
  0.2778080875225539  0.7222452485455715  0.1249767376368823
  0.1111824476972222  0.2222578905152755  0.1248567229277990
  0.4445211269272099  0.2222129263212853  0.1249220377050511
  0.6111570035208613  0.7222887368984769  0.1247754054080739
  0.9444714770928497  0.7222362365448336  0.1250776458115239
  0.7778232872936264  0.2222327881040988  0.1249797678783947
  0.1111404815805415  0.8888988193186751  0.6250249153884408
  0.4444823300233187  0.8889078316783233  0.6250100980413391
  0.2778455593270844  0.3889358037835745  0.6249887699248821
  0.6111826225332231  0.3888850940472737  0.6255603955548508
  0.7778232872936264  0.8889238325228564  0.6250202321216048
  0.9444872011007226  0.3889053336971373  0.6249974284479338
  0.1111583247666035  0.3889180402724606  0.1248366409098904
  0.2778080875225539  0.8888961723103114  0.1249767376368823
  0.6111560631340563  0.8889308181674710  0.1249577361863675
  0.4446400519122492  0.3889866926227893  0.1279077817709219
  0.9444872011007226  0.8889152007369137  0.1250025715520669
  0.7778246269058099  0.3888973678182760  0.1249399846453441
  0.2778218096147943  0.5555967195499234  0.6250985120578348
  0.1111583247666035  0.0555736178274720  0.6251633590901098
  0.6111826225332231  0.5556308618192775  0.6255603955548504
  0.4444878436058918  0.0555445954276451  0.6251154598988395
  0.9444714770928497  0.5555685738813523  0.6249223541884756
  0.1111404815805415  0.5555749955951946  0.1249750846115592
  0.7778265918933428  0.0555799626133393  0.6250480378463918
  0.2778218096147943  0.0555584233982056  0.1249014879421652
  0.4445211269272099  0.5556415339392604  0.1249220377050511
  0.7778033493072949  0.5555683413203147  0.1249611242400897
  0.6111560631340563  0.0555585782999127  0.1249577361863675
  0.4445211269272099  0.5556415339392606  0.6250779622949483
  0.9444980579400991  0.0555836081779028  0.1249403068978933
  0.2778080875225539  0.7222452485455715  0.6250232623631180
  0.1111824476972222  0.2222578905152755  0.6251432770722014
  0.4445211269272099  0.2222129263212853  0.6250779622949483
  0.6111570035208613  0.7222887368984769  0.6252245945919260
  0.9444714770928497  0.7222362365448336  0.6249223541884756
  0.7778232872936264  0.2222327881040988  0.6250202321216048
  0.1111346505097536  0.7222339919215415  0.1249996247706669
  0.4444878436058918  0.7222765815115829  0.1248845401011608
  0.2778455593270844  0.2222430888768384  0.1250112300751185
  0.7778246269058099  0.7222605924208627  0.1249399846453441
  0.6111570035208613  0.2222015999557123  0.1247754054080739
  0.9444980579400991  0.2222477830955316  0.1249403068978933
  0.1111583247666035  0.3889180402724606  0.6251633590901098
  0.2778080875225539  0.8888961723103114  0.6250232623631180
  0.6111560631340563  0.8889308181674710  0.6250422638136325
  0.4446400519122492  0.3889866926227893  0.6220922182290783
  0.9444872011007226  0.8889152007369137  0.6249974284479338
  0.1111404815805415  0.8888988193186751  0.1249750846115592
  0.7778246269058099  0.3888973678182760  0.6250600153546562
  0.4444823300233187  0.8889078316783233  0.1249899019586600
  0.2778455593270844  0.3889358037835745  0.1250112300751185
  0.2778218096147943  0.5555967195499234  0.1249014879421652
  0.6111826225332231  0.3888850940472737  0.1244396044451495
  0.7778232872936264  0.8889238325228564  0.1249797678783947
  0.9444872011007226  0.3889053336971373  0.1250025715520669
  0.1111404815805415  0.5555749955951946  0.6250249153884408
  0.2778218096147943  0.0555584233982056  0.6250985120578348
  0.7778033493072949  0.5555683413203147  0.6250388757599105
  0.6111560631340563  0.0555585782999127  0.6250422638136325
  0.9444980579400991  0.0555836081779028  0.6250596931021072
  0.0566319399565704  0.1117552543083326  0.3750000000000000
  0.5550744190673573  0.6209564522551398  0.3750000000000000
  0.3862082764664810  0.1024080957477740  0.3750000000000000
  0.8853682482067193  0.6093507907700315  0.3750000000000000
  0.7230339854755515  0.1104194268158259  0.3750000000000000
  0.0555554494149790  0.7777795280996456  0.8750000000000000
  0.3888957314563267  0.7777797872655813  0.8750000000000000
  0.2222260496580427  0.2777796914956892  0.8750000000000000
  0.7222294220591429  0.7777815858653216  0.8750000000000000
  0.5555636633553154  0.2777832952952288  0.8750000000000000
  0.8888937135750413  0.2777798768530427  0.8750000000000000
  0.2190988629850418  0.7762160981591878  0.3750000000000000
  0.0566319399565704  0.2782100189815732  0.3750000000000000
  0.3846446726427247  0.2619996269897772  0.3750000000000000
  0.5549610571786652  0.7821906706137564  0.3750000000000000
  0.8884261185406830  0.7785118764803727  0.3750000000000000
  0.7229895265897694  0.2752805749193036  0.3750000000000000
  0.0555567158470287  0.9444466468188562  0.8750000000000000
  0.3888957314563267  0.9444492775240800  0.8750000000000000
  0.2222257116457347  0.4444430584597110  0.8750000000000000
  0.5555528422589675  0.4444430877961481  0.8750000000000000
  0.7222261605040643  0.9444467307219395  0.8750000000000000
  0.8888940880544532  0.4444452344140230  0.8750000000000000
  0.0542627710214214  0.4443332305890542  0.3750000000000000
  0.2192131366840513  0.9410204259561126  0.3750000000000000
  0.5549236686191557  0.9441285009762422  0.3750000000000000
  0.3846446726427247  0.4559783789862834  0.3750000000000000
  0.8897711362841639  0.9457977691814390  0.3750000000000000
  0.7222501147605330  0.4414370626121151  0.3750000000000000
  0.2222254822466252  0.6111092149493557  0.8750000000000000
  0.0555567234011151  0.1111116524260835  0.8750000000000000
  0.5555636633553154  0.6111137013934229  0.8750000000000000
  0.3888982376527004  0.1111216000383434  0.8750000000000000
  0.8888900216132399  0.6111116774732914  0.8750000000000000
  0.0525211023221159  0.6100235152299542  0.3750000000000000
  0.7222261605040643  0.1111127631154609  0.8750000000000000
  0.2198752625378820  0.1073223565724777  0.3750000000000000
  0.3862082764664810  0.6171335140520494  0.3750000000000000
  0.7222501147605330  0.6141463854817536  0.3750000000000000
  0.5549610571786652  0.1061037198982453  0.3750000000000000
  0.3888982376527004  0.6111099709477010  0.8750000000000000
  0.8901504789800552  0.1117419061566990  0.3750000000000000
  0.2222249094236156  0.7777791213784764  0.8750000000000000
  0.0555567234011151  0.2777784043083677  0.8750000000000000
  0.3889015643002869  0.2777942255951801  0.8750000000000000
  0.5555619639854453  0.7777811445427376  0.8750000000000000
  0.8888940880544532  0.7777821869737666  0.8750000000000000
  0.7222294220591429  0.2777811695271583  0.8750000000000000
  0.0525211023221159  0.7758309204254967  0.3750000000000000
  0.3865573656245105  0.7788554826939230  0.3750000000000000
  0.2244667432132006  0.2789000382732678  0.3750000000000000
  0.7229895265897694  0.7810422850038014  0.3750000000000000
  0.5550744190673573  0.2674513001455522  0.3750000000000000
  0.8897711362841639  0.2773067004360609  0.3750000000000000
  0.0555567158470287  0.4444434023615000  0.8750000000000000
  0.2222254822466252  0.9444496006306052  0.8750000000000000
  0.5555597888603274  0.9444465610968281  0.8750000000000000
  0.3889015643002869  0.4444406720384423  0.8750000000000000
  0.8888937135750413  0.9444471700553339  0.8750000000000000
  0.0542627710214214  0.9432628737656964  0.3750000000000000
  0.7222274086490537  0.4444467536725754  0.8750000000000000
  0.3865573656245105  0.9410352162639234  0.3750000000000000
  0.2198752625378820  0.4458862392987398  0.3750000000000000
  0.2192131366840513  0.6115260440612742  0.3750000000000000
  0.7230339854755514  0.9459478919930611  0.3750000000000000
  0.8884261185406830  0.4432475753936448  0.3750000000000000
  0.0555554494149790  0.6111092546486683  0.8750000000000000
  0.2222257116457347  0.1111159865193592  0.8750000000000000
  0.7222274086490537  0.6111139883098148  0.8750000000000000
  0.5555619639854453  0.1111141527760443  0.8750000000000000
  0.8888926300077606  0.1111129816705519  0.8750000000000000
  0.1101618161924729  0.0541840426739379  0.3750000000000000
  0.6146430064092387  0.5725891598629871  0.3750000000000000
  0.4433462928232498  0.0504053990231071  0.3750000000000000
  0.9418742168908706  0.5542340703056939  0.3750000000000000
  0.7793395496977740  0.0563364415155546  0.3750000000000000
  0.1111215067244221  0.7222274200288756  0.8750000000000000
  0.4444418740985033  0.7222224351600807  0.8750000000000000
  0.2777512467069427  0.2222129083652831  0.8750000000000000
  0.7777986178095158  0.7222526386561844  0.8750000000000000
  0.6111185554690969  0.2222072245546995  0.8750000000000000
  0.9444600644048260  0.2222228310526470  0.8750000000000000
  0.2753298826710402  0.7220638200727767  0.3750000000000000
  0.1135610748496465  0.2234472040914876  0.3750000000000000
  0.4409630487671191  0.2112703878016575  0.3750000000000000
  0.6120595914034213  0.7299776350809063  0.3750000000000000
  0.9418742168908706  0.7209734799185132  0.3750000000000000
  0.7791630596363402  0.2209839603678263  0.3750000000000000
  0.1111197842830448  0.8889056504029960  0.8750000000000000
  0.4444459490685109  0.8888896412009198  0.8750000000000000
  0.2777512467069427  0.3888716716749871  0.8750000000000000
  0.6111200063728295  0.3888691178112648  0.8750000000000000
  0.7777953373755254  0.8889133809542834  0.8750000000000000
  0.9444629390311695  0.3888813137097741  0.8750000000000000
  0.1101618161924729  0.3893111068518631  0.3750000000000000
  0.2753298826710402  0.8865993959315916  0.3750000000000000
  0.6118602517524221  0.8914968183298689  0.3750000000000000
  0.9441635246438346  0.8893721820094237  0.3750000000000000
  0.7785305717310885  0.3863942366964330  0.3750000000000000
  0.2777705742626021  0.5555425511672007  0.8750000000000000
  0.1111145603200463  0.0555682334306989  0.8750000000000000
  0.6111200063728295  0.5555842218948921  0.8750000000000000
  0.4444418740985033  0.0555527722717592  0.8750000000000000
  0.9444635275762591  0.5555554535910181  0.8750000000000000
  0.1086116024845062  0.5551492152561467  0.3750000000000000
  0.7777933737217336  0.0555633535275346  0.8750000000000000
  0.2751929834162398  0.0515042076747773  0.3750000000000000
  0.4409630487671191  0.5630259942987964  0.3750000000000000
  0.7744790824675450  0.5539062079004402  0.3750000000000000
  0.6118602517524221  0.0536967667558826  0.3750000000000000
  0.4444301138608194  0.5555552040499819  0.8750000000000000
  0.9460206010291651  0.0568187246137064  0.3750000000000000
  0.2777794511941529  0.7222183528605334  0.8750000000000000
  0.1111099608280194  0.2222216470806738  0.8750000000000000
  0.4444301138608194  0.2222082431441736  0.8750000000000000
  0.6111185554690969  0.7222446642477265  0.8750000000000000
  0.9444635275762591  0.7222414073185774  0.8750000000000000
  0.7777953373755254  0.2222152897545699  0.8750000000000000
  0.1082425655058310  0.7207879494195806  0.3750000000000000
  0.4433462928232498  0.7262742271334787  0.3750000000000000
  0.2774990038158324  0.2190089960523405  0.3750000000000000
  0.7785305717310885  0.7254696683679848  0.3750000000000000
  0.6120595914034213  0.2154152896558430  0.3750000000000000
  0.9460206010291651  0.2225352097487938  0.3750000000000000
  0.1111145603200463  0.3888796602226758  0.8750000000000000
  0.2777794511941529  0.8888944316669480  0.8750000000000000
  0.6111184939828251  0.8888992169446432  0.8750000000000000
  0.4444035902591920  0.3888684617962599  0.8750000000000000
  0.9444629390311695  0.8889149586547248  0.8750000000000000
  0.1086116024845062  0.8867957205616891  0.3750000000000000
  0.7777986178095158  0.3888793124866584  0.8750000000000000
  0.4434735968773368  0.8884034651053325  0.3750000000000000
  0.2774990038158323  0.3918233410968206  0.3750000000000000
  0.2751929834162398  0.5570221090747983  0.3750000000000000
  0.6146430064092387  0.3753871798795811  0.3750000000000000
  0.7791630596363402  0.8915124326018440  0.3750000000000000
  0.9441635246438346  0.3881246759677397  0.3750000000000000
  0.1111197842830448  0.5555474672133779  0.8750000000000000
  0.2777705742626021  0.0555613564287364  0.8750000000000000
  0.7777971770988612  0.5555652552160987  0.8750000000000000
  0.6111184939828251  0.0555526103715117  0.8750000000000000
  0.9444600644048260  0.0555705666855146  0.8750000000000000
  0.0556464575435607  0.1111725997513428  0.1249850817446744
  0.5555279525804547  0.6112457976669636  0.1246302445640179
  0.3888713005099384  0.1110322780211304  0.1249794685712263
  0.8890038030314845  0.6111685681824122  0.1250024946674349
  0.7222649510080222  0.1111036157774044  0.1249828279801121
  0.0556376369670182  0.7778332320397476  0.6249822713276422
  0.3889050115135701  0.7778053755344461  0.6250127642251120
  0.2222884123625372  0.2778108728479363  0.6247436250660853
  0.7222702175875623  0.7778732151625196  0.6251306148522255
  0.5555279525804547  0.2776154882468282  0.6253697554359819
  0.8889665951538018  0.2777802010013969  0.6249987917549290
  0.2222686736477252  0.7778010034905298  0.1250020192919138
  0.0556464575435607  0.2778071911255535  0.1249850817446744
  0.3887582527270453  0.2775092197308672  0.1262574231834147
  0.5555605160110807  0.7778498357317278  0.1249059749210190
  0.8889875474448328  0.7778698558207454  0.1249958316927782
  0.7222702175875623  0.2777303357583795  0.1248693851477742
  0.0556374427961898  0.9445173448482409  0.6250108691383646
  0.3889050115135701  0.9444329693124609  0.6250127642251120
  0.2222703233603526  0.4444688110753812  0.6249617091158020
  0.5557957110295022  0.4445645221814154  0.6252879347970762
  0.7222649510080222  0.9444946685639534  0.6250171720198872
  0.8889875474448328  0.4444510249574220  0.6250041683072224
  0.0556374427961898  0.4444534312812768  0.1249891308616359
  0.2222667505409708  0.9444732176635874  0.1250021342009163
  0.5555768561796336  0.9444550947564812  0.1249969362191603
  0.3887582527270453  0.4445823663295135  0.1262574231834147
  0.8889665951538018  0.9445197274857405  0.1250012082450718
  0.7223680318080339  0.4444677380048596  0.1245823078970406
  0.2222667505409708  0.6111268662107188  0.6249978657990840
  0.0556464575435607  0.1111725997513428  0.6250149182553263
  0.5555279525804547  0.6112457976669636  0.6253697554359819
  0.3888713005099384  0.1110322780211304  0.6250205314287743
  0.8890038030314845  0.6111685681824122  0.6249975053325648
  0.0556376369670182  0.6111377382606066  0.1250177286723561
  0.7222649510080222  0.1111036157774044  0.6250171720198872
  0.2222703233603526  0.1111348456183069  0.1250382908841974
  0.3888713005099384  0.6111723558221510  0.1249794685712263
  0.7223680318080339  0.6112336271365093  0.1245823078970406
  0.5555605160110807  0.1110440136126872  0.1249059749210190
  0.3888713005099384  0.6111723558221510  0.6250205314287743
  0.8889638343944150  0.1111485838638789  0.1249935413974843
  0.2222686736477252  0.7778010034905298  0.6249979807080851
  0.0556464575435607  0.2778071911255535  0.6250149182553263
  0.3887582527270453  0.2775092197308672  0.6237425768165854
  0.5555605160110807  0.7778498357317278  0.6250940250789800
  0.8889875474448328  0.7778698558207454  0.6250041683072224
  0.7222702175875623  0.2777303357583795  0.6251306148522255
  0.0556376369670182  0.7778332320397476  0.1250177286723561
  0.3889050115135701  0.7778053755344461  0.1249872357748882
  0.2222884123625372  0.2778108728479363  0.1252563749339150
  0.7222702175875623  0.7778732151625196  0.1248693851477742
  0.5555279525804547  0.2776154882468282  0.1246302445640179
  0.8889665951538018  0.2777802010013969  0.1250012082450718
  0.0556374427961898  0.4444534312812768  0.6250108691383646
  0.2222667505409708  0.9444732176635874  0.6249978657990840
  0.5555768561796336  0.9444550947564812  0.6250030637808405
  0.3887582527270453  0.4445823663295135  0.6237425768165854
  0.8889665951538018  0.9445197274857405  0.6249987917549290
  0.0556374427961898  0.9445173448482409  0.1249891308616359
  0.7223680318080339  0.4444677380048596  0.6254176921029578
  0.3889050115135701  0.9444329693124609  0.1249872357748882
  0.2222703233603526  0.4444688110753812  0.1250382908841974
  0.2222667505409708  0.6111268662107188  0.1250021342009163
  0.5557957110295022  0.4445645221814154  0.1247120652029238
  0.7222649510080222  0.9444946685639534  0.1249828279801121
  0.8889875474448328  0.4444510249574220  0.1249958316927782
  0.0556376369670182  0.6111377382606066  0.6249822713276422
  0.2222703233603526  0.1111348456183069  0.6249617091158020
  0.7223680318080339  0.6112336271365093  0.6254176921029578
  0.5555605160110807  0.1110440136126872  0.6250940250789800
  0.8889638343944150  0.1111485838638789  0.6250064586025160
 
  0.00000000E+00  0.00000000E+00  0.00000000E+00
  0.00000000E+00  0.00000000E+00  0.00000000E+00
  0.00000000E+00  0.00000000E+00  0.00000000E+00
  0.00000000E+00  0.00000000E+00  0.00000000E+00
  0.00000000E+00  0.00000000E+00  0.00000000E+00
  0.00000000E+00  0.00000000E+00  0.00000000E+00
  0.00000000E+00  0.00000000E+00  0.00000000E+00
  0.00000000E+00  0.00000000E+00  0.00000000E+00
  0.00000000E+00  0.00000000E+00  0.00000000E+00
  0.00000000E+00  0.00000000E+00  0.00000000E+00
  0.00000000E+00  0.00000000E+00  0.00000000E+00
  0.00000000E+00  0.00000000E+00  0.00000000E+00
  0.00000000E+00  0.00000000E+00  0.00000000E+00
  0.00000000E+00  0.00000000E+00  0.00000000E+00
  0.00000000E+00  0.00000000E+00  0.00000000E+00
  0.00000000E+00  0.00000000E+00  0.00000000E+00
  0.00000000E+00  0.00000000E+00  0.00000000E+00
  0.00000000E+00  0.00000000E+00  0.00000000E+00
  0.00000000E+00  0.00000000E+00  0.00000000E+00
  0.00000000E+00  0.00000000E+00  0.00000000E+00
  0.00000000E+00  0.00000000E+00  0.00000000E+00
  0.00000000E+00  0.00000000E+00  0.00000000E+00
  0.00000000E+00  0.00000000E+00  0.00000000E+00
  0.00000000E+00  0.00000000E+00  0.00000000E+00
  0.00000000E+00  0.00000000E+00  0.00000000E+00
  0.00000000E+00  0.00000000E+00  0.00000000E+00
  0.00000000E+00  0.00000000E+00  0.00000000E+00
  0.00000000E+00  0.00000000E+00  0.00000000E+00
  0.00000000E+00  0.00000000E+00  0.00000000E+00
  0.00000000E+00  0.00000000E+00  0.00000000E+00
  0.00000000E+00  0.00000000E+00  0.00000000E+00
  0.00000000E+00  0.00000000E+00  0.00000000E+00
  0.00000000E+00  0.00000000E+00  0.00000000E+00
  0.00000000E+00  0.00000000E+00  0.00000000E+00
  0.00000000E+00  0.00000000E+00  0.00000000E+00
  0.00000000E+00  0.00000000E+00  0.00000000E+00
  0.00000000E+00  0.00000000E+00  0.00000000E+00
  0.00000000E+00  0.00000000E+00  0.00000000E+00
  0.00000000E+00  0.00000000E+00  0.00000000E+00
  0.00000000E+00  0.00000000E+00  0.00000000E+00
  0.00000000E+00  0.00000000E+00  0.00000000E+00
  0.00000000E+00  0.00000000E+00  0.00000000E+00
  0.00000000E+00  0.00000000E+00  0.00000000E+00
  0.00000000E+00  0.00000000E+00  0.00000000E+00
  0.00000000E+00  0.00000000E+00  0.00000000E+00
  0.00000000E+00  0.00000000E+00  0.00000000E+00
  0.00000000E+00  0.00000000E+00  0.00000000E+00
  0.00000000E+00  0.00000000E+00  0.00000000E+00
  0.00000000E+00  0.00000000E+00  0.00000000E+00
  0.00000000E+00  0.00000000E+00  0.00000000E+00
  0.00000000E+00  0.00000000E+00  0.00000000E+00
  0.00000000E+00  0.00000000E+00  0.00000000E+00
  0.00000000E+00  0.00000000E+00  0.00000000E+00
  0.00000000E+00  0.00000000E+00  0.00000000E+00
  0.00000000E+00  0.00000000E+00  0.00000000E+00
  0.00000000E+00  0.00000000E+00  0.00000000E+00
  0.00000000E+00  0.00000000E+00  0.00000000E+00
  0.00000000E+00  0.00000000E+00  0.00000000E+00
  0.00000000E+00  0.00000000E+00  0.00000000E+00
  0.00000000E+00  0.00000000E+00  0.00000000E+00
  0.00000000E+00  0.00000000E+00  0.00000000E+00
  0.00000000E+00  0.00000000E+00  0.00000000E+00
  0.00000000E+00  0.00000000E+00  0.00000000E+00
  0.00000000E+00  0.00000000E+00  0.00000000E+00
  0.00000000E+00  0.00000000E+00  0.00000000E+00
  0.00000000E+00  0.00000000E+00  0.00000000E+00
  0.00000000E+00  0.00000000E+00  0.00000000E+00
  0.00000000E+00  0.00000000E+00  0.00000000E+00
  0.00000000E+00  0.00000000E+00  0.00000000E+00
  0.00000000E+00  0.00000000E+00  0.00000000E+00
  0.00000000E+00  0.00000000E+00  0.00000000E+00
  0.00000000E+00  0.00000000E+00  0.00000000E+00
  0.00000000E+00  0.00000000E+00  0.00000000E+00
  0.00000000E+00  0.00000000E+00  0.00000000E+00
  0.00000000E+00  0.00000000E+00  0.00000000E+00
  0.00000000E+00  0.00000000E+00  0.00000000E+00
  0.00000000E+00  0.00000000E+00  0.00000000E+00
  0.00000000E+00  0.00000000E+00  0.00000000E+00
  0.00000000E+00  0.00000000E+00  0.00000000E+00
  0.00000000E+00  0.00000000E+00  0.00000000E+00
  0.00000000E+00  0.00000000E+00  0.00000000E+00
  0.00000000E+00  0.00000000E+00  0.00000000E+00
  0.00000000E+00  0.00000000E+00  0.00000000E+00
  0.00000000E+00  0.00000000E+00  0.00000000E+00
  0.00000000E+00  0.00000000E+00  0.00000000E+00
  0.00000000E+00  0.00000000E+00  0.00000000E+00
  0.00000000E+00  0.00000000E+00  0.00000000E+00
  0.00000000E+00  0.00000000E+00  0.00000000E+00
  0.00000000E+00  0.00000000E+00  0.00000000E+00
  0.00000000E+00  0.00000000E+00  0.00000000E+00
  0.00000000E+00  0.00000000E+00  0.00000000E+00
  0.00000000E+00  0.00000000E+00  0.00000000E+00
  0.00000000E+00  0.00000000E+00  0.00000000E+00
  0.00000000E+00  0.00000000E+00  0.00000000E+00
  0.00000000E+00  0.00000000E+00  0.00000000E+00
  0.00000000E+00  0.00000000E+00  0.00000000E+00
  0.00000000E+00  0.00000000E+00  0.00000000E+00
  0.00000000E+00  0.00000000E+00  0.00000000E+00
  0.00000000E+00  0.00000000E+00  0.00000000E+00
  0.00000000E+00  0.00000000E+00  0.00000000E+00
  0.00000000E+00  0.00000000E+00  0.00000000E+00
  0.00000000E+00  0.00000000E+00  0.00000000E+00
  0.00000000E+00  0.00000000E+00  0.00000000E+00
  0.00000000E+00  0.00000000E+00  0.00000000E+00
  0.00000000E+00  0.00000000E+00  0.00000000E+00
  0.00000000E+00  0.00000000E+00  0.00000000E+00
  0.00000000E+00  0.00000000E+00  0.00000000E+00
  0.00000000E+00  0.00000000E+00  0.00000000E+00
  0.00000000E+00  0.00000000E+00  0.00000000E+00
  0.00000000E+00  0.00000000E+00  0.00000000E+00
  0.00000000E+00  0.00000000E+00  0.00000000E+00
  0.00000000E+00  0.00000000E+00  0.00000000E+00
  0.00000000E+00  0.00000000E+00  0.00000000E+00
  0.00000000E+00  0.00000000E+00  0.00000000E+00
  0.00000000E+00  0.00000000E+00  0.00000000E+00
  0.00000000E+00  0.00000000E+00  0.00000000E+00
  0.00000000E+00  0.00000000E+00  0.00000000E+00
  0.00000000E+00  0.00000000E+00  0.00000000E+00
  0.00000000E+00  0.00000000E+00  0.00000000E+00
  0.00000000E+00  0.00000000E+00  0.00000000E+00
  0.00000000E+00  0.00000000E+00  0.00000000E+00
  0.00000000E+00  0.00000000E+00  0.00000000E+00
  0.00000000E+00  0.00000000E+00  0.00000000E+00
  0.00000000E+00  0.00000000E+00  0.00000000E+00
  0.00000000E+00  0.00000000E+00  0.00000000E+00
  0.00000000E+00  0.00000000E+00  0.00000000E+00
  0.00000000E+00  0.00000000E+00  0.00000000E+00
  0.00000000E+00  0.00000000E+00  0.00000000E+00
  0.00000000E+00  0.00000000E+00  0.00000000E+00
  0.00000000E+00  0.00000000E+00  0.00000000E+00
  0.00000000E+00  0.00000000E+00  0.00000000E+00
  0.00000000E+00  0.00000000E+00  0.00000000E+00
  0.00000000E+00  0.00000000E+00  0.00000000E+00
  0.00000000E+00  0.00000000E+00  0.00000000E+00
  0.00000000E+00  0.00000000E+00  0.00000000E+00
  0.00000000E+00  0.00000000E+00  0.00000000E+00
  0.00000000E+00  0.00000000E+00  0.00000000E+00
  0.00000000E+00  0.00000000E+00  0.00000000E+00
  0.00000000E+00  0.00000000E+00  0.00000000E+00
  0.00000000E+00  0.00000000E+00  0.00000000E+00
  0.00000000E+00  0.00000000E+00  0.00000000E+00
  0.00000000E+00  0.00000000E+00  0.00000000E+00
  0.00000000E+00  0.00000000E+00  0.00000000E+00
  0.00000000E+00  0.00000000E+00  0.00000000E+00
  0.00000000E+00  0.00000000E+00  0.00000000E+00
  0.00000000E+00  0.00000000E+00  0.00000000E+00
  0.00000000E+00  0.00000000E+00  0.00000000E+00
  0.00000000E+00  0.00000000E+00  0.00000000E+00
  0.00000000E+00  0.00000000E+00  0.00000000E+00
  0.00000000E+00  0.00000000E+00  0.00000000E+00
  0.00000000E+00  0.00000000E+00  0.00000000E+00
  0.00000000E+00  0.00000000E+00  0.00000000E+00
  0.00000000E+00  0.00000000E+00  0.00000000E+00
  0.00000000E+00  0.00000000E+00  0.00000000E+00
  0.00000000E+00  0.00000000E+00  0.00000000E+00
  0.00000000E+00  0.00000000E+00  0.00000000E+00
  0.00000000E+00  0.00000000E+00  0.00000000E+00
  0.00000000E+00  0.00000000E+00  0.00000000E+00
  0.00000000E+00  0.00000000E+00  0.00000000E+00
  0.00000000E+00  0.00000000E+00  0.00000000E+00
  0.00000000E+00  0.00000000E+00  0.00000000E+00
  0.00000000E+00  0.00000000E+00  0.00000000E+00
  0.00000000E+00  0.00000000E+00  0.00000000E+00
  0.00000000E+00  0.00000000E+00  0.00000000E+00
  0.00000000E+00  0.00000000E+00  0.00000000E+00
  0.00000000E+00  0.00000000E+00  0.00000000E+00
  0.00000000E+00  0.00000000E+00  0.00000000E+00
  0.00000000E+00  0.00000000E+00  0.00000000E+00
  0.00000000E+00  0.00000000E+00  0.00000000E+00
  0.00000000E+00  0.00000000E+00  0.00000000E+00
  0.00000000E+00  0.00000000E+00  0.00000000E+00
  0.00000000E+00  0.00000000E+00  0.00000000E+00
  0.00000000E+00  0.00000000E+00  0.00000000E+00
  0.00000000E+00  0.00000000E+00  0.00000000E+00
  0.00000000E+00  0.00000000E+00  0.00000000E+00
  0.00000000E+00  0.00000000E+00  0.00000000E+00
  0.00000000E+00  0.00000000E+00  0.00000000E+00
  0.00000000E+00  0.00000000E+00  0.00000000E+00
  0.00000000E+00  0.00000000E+00  0.00000000E+00
  0.00000000E+00  0.00000000E+00  0.00000000E+00
  0.00000000E+00  0.00000000E+00  0.00000000E+00
  0.00000000E+00  0.00000000E+00  0.00000000E+00
  0.00000000E+00  0.00000000E+00  0.00000000E+00
  0.00000000E+00  0.00000000E+00  0.00000000E+00
  0.00000000E+00  0.00000000E+00  0.00000000E+00
  0.00000000E+00  0.00000000E+00  0.00000000E+00
  0.00000000E+00  0.00000000E+00  0.00000000E+00
  0.00000000E+00  0.00000000E+00  0.00000000E+00
  0.00000000E+00  0.00000000E+00  0.00000000E+00
  0.00000000E+00  0.00000000E+00  0.00000000E+00
  0.00000000E+00  0.00000000E+00  0.00000000E+00
  0.00000000E+00  0.00000000E+00  0.00000000E+00
  0.00000000E+00  0.00000000E+00  0.00000000E+00
  0.00000000E+00  0.00000000E+00  0.00000000E+00
  0.00000000E+00  0.00000000E+00  0.00000000E+00
  0.00000000E+00  0.00000000E+00  0.00000000E+00
  0.00000000E+00  0.00000000E+00  0.00000000E+00
  0.00000000E+00  0.00000000E+00  0.00000000E+00
  0.00000000E+00  0.00000000E+00  0.00000000E+00
  0.00000000E+00  0.00000000E+00  0.00000000E+00
  0.00000000E+00  0.00000000E+00  0.00000000E+00
  0.00000000E+00  0.00000000E+00  0.00000000E+00
  0.00000000E+00  0.00000000E+00  0.00000000E+00
  0.00000000E+00  0.00000000E+00  0.00000000E+00
  0.00000000E+00  0.00000000E+00  0.00000000E+00
  0.00000000E+00  0.00000000E+00  0.00000000E+00
  0.00000000E+00  0.00000000E+00  0.00000000E+00
  0.00000000E+00  0.00000000E+00  0.00000000E+00
  0.00000000E+00  0.00000000E+00  0.00000000E+00
  0.00000000E+00  0.00000000E+00  0.00000000E+00
  0.00000000E+00  0.00000000E+00  0.00000000E+00
  0.00000000E+00  0.00000000E+00  0.00000000E+00
  0.00000000E+00  0.00000000E+00  0.00000000E+00
  0.00000000E+00  0.00000000E+00  0.00000000E+00
  0.00000000E+00  0.00000000E+00  0.00000000E+00
  0.00000000E+00  0.00000000E+00  0.00000000E+00
  0.00000000E+00  0.00000000E+00  0.00000000E+00
  0.00000000E+00  0.00000000E+00  0.00000000E+00
  0.00000000E+00  0.00000000E+00  0.00000000E+00
  0.00000000E+00  0.00000000E+00  0.00000000E+00
  0.00000000E+00  0.00000000E+00  0.00000000E+00
  0.00000000E+00  0.00000000E+00  0.00000000E+00
  0.00000000E+00  0.00000000E+00  0.00000000E+00
  0.00000000E+00  0.00000000E+00  0.00000000E+00
  0.00000000E+00  0.00000000E+00  0.00000000E+00
  0.00000000E+00  0.00000000E+00  0.00000000E+00
  0.00000000E+00  0.00000000E+00  0.00000000E+00
  0.00000000E+00  0.00000000E+00  0.00000000E+00
  0.00000000E+00  0.00000000E+00  0.00000000E+00
  0.00000000E+00  0.00000000E+00  0.00000000E+00
  0.00000000E+00  0.00000000E+00  0.00000000E+00
  0.00000000E+00  0.00000000E+00  0.00000000E+00
  0.00000000E+00  0.00000000E+00  0.00000000E+00
  0.00000000E+00  0.00000000E+00  0.00000000E+00
  0.00000000E+00  0.00000000E+00  0.00000000E+00
  0.00000000E+00  0.00000000E+00  0.00000000E+00
  0.00000000E+00  0.00000000E+00  0.00000000E+00
  0.00000000E+00  0.00000000E+00  0.00000000E+00
  0.00000000E+00  0.00000000E+00  0.00000000E+00
  0.00000000E+00  0.00000000E+00  0.00000000E+00
  0.00000000E+00  0.00000000E+00  0.00000000E+00
  0.00000000E+00  0.00000000E+00  0.00000000E+00
  0.00000000E+00  0.00000000E+00  0.00000000E+00
  0.00000000E+00  0.00000000E+00  0.00000000E+00
  0.00000000E+00  0.00000000E+00  0.00000000E+00
  0.00000000E+00  0.00000000E+00  0.00000000E+00
  0.00000000E+00  0.00000000E+00  0.00000000E+00
  0.00000000E+00  0.00000000E+00  0.00000000E+00