Ga B N                                  
   1.0000000000000000     
     8.7639499999999995  -15.1796066749929999    0.0000000000000000
     8.7639499999999995   15.1796066749929999    0.0000000000000000
     0.0000000000000000    0.0000000000000000   15.0000000000000000
   Ga   B    N 
     1    48    48
Selective dynamics
Direct
  0.4367726432554558  0.5041015242517278  0.1112867091136096   T   T   T
  0.9048526209833312  0.9525709205291683  0.1109858077030773   T   T   T
  0.9061734939088018  0.0962301222588292  0.1110298238174612   T   T   T
  0.9065349669988749  0.2389818303449391  0.1110921771367487   T   T   T
  0.9061734939088018  0.3813720653409700  0.1110298238174612   T   T   T
  0.9048526209833312  0.5237121057021631  0.1109858077030773   T   T   T
  0.9032856356764520  0.6660231146596046  0.1110394090515728   T   T   T
  0.9032856356764520  0.8086929262648468  0.1110394090515728   T   T   T
  0.0468781936146931  0.9517219758902458  0.1109904996575200   T   T   T
  0.0482186958402890  0.0954098980962989  0.1110040216994457   T   T   T
  0.0496475713818034  0.2392709876290434  0.1110301874184220   T   T   T
  0.0496475713818033  0.3818069889997589  0.1110301874184220   T   T   T
  0.0482186958402890  0.5242392029919851  0.1110040216994457   T   T   T
  0.0468781936146930  0.6665883345284445  0.1109904996575200   T   T   T
  0.0465313362307443  0.8089817265173742  0.1109601544102315   T   T   T
  0.1897709496827912  0.9516365107865359  0.1109866259422497   T   T   T
  0.1901084152502935  0.0940903622089921  0.1110630140839014   T   T   T
  0.1916925246281601  0.2380195248908847  0.1110381697880964   T   T   T
  0.1939075227423877  0.3826689639946934  0.1110190902979373   T   T   T
  0.1916925246281601  0.5251034049852775  0.1110381697880964   T   T   T
  0.1901084152502935  0.6674484582892959  0.1110630140839014   T   T   T
  0.1897709496827912  0.8095665557002596  0.1109866259422497   T   T   T
  0.3331114658222550  0.9522717913126296  0.1110142749863482   T   T   T
  0.3331877947597127  0.0932487254589837  0.1110801212128247   T   T   T
  0.3333991970335385  0.2339432117569498  0.1110657435546130   T   T   T
  0.3351677584529225  0.3751083562161764  0.1111222837527891   T   T   T
  0.3351677584529225  0.5314898074837454  0.1111222837527891   T   T   T
  0.3333991970335385  0.6708863905235881  0.1110657435546130   T   T   T
  0.3331877947597127  0.8113694745477295  0.1110801212128247   T   T   T
  0.4767979697914082  0.9537055090408385  0.1110069593036193   T   T   T
  0.4767979697914082  0.0945228659975697  0.1110069593036193   T   T   T
  0.4768791937495240  0.2352355803193839  0.1110354095526857   T   T   T
  0.4776297506068906  0.3759353976444986  0.1110111434545137   T   T   T
  0.4776297506068906  0.6731247582093928  0.1110111434545137   T   T   T
  0.4768791937495240  0.8130740186771476  0.1110354095526857   T   T   T
  0.6203199444000339  0.9540789784597272  0.1109900834653805   T   T   T
  0.6203202498740065  0.0958744717824982  0.1109719973144527   T   T   T
  0.6203199444000339  0.2376713711873061  0.1109900834653805   T   T   T
  0.6199916692289255  0.3796263936115152  0.1109985848282516   T   T   T
  0.6159979097686809  0.5207980013271951  0.1110558613937510   T   T   T
  0.6159979097686801  0.6666303136894800  0.1110558613937510   T   T   T
  0.6199916692289255  0.8117956808644111  0.1109985848282516   T   T   T
  0.7630166473439095  0.9536267030783309  0.1109829828618271   T   T   T
  0.7634454876080072  0.0962994304973405  0.1110226631033672   T   T   T
  0.7634454876080072  0.2385747508016644  0.1110226631033672   T   T   T
  0.7630166473439095  0.3808203495125804  0.1109829828618271   T   T   T
  0.7612559871604609  0.5229697664606983  0.1110390826607374   T   T   T
  0.7588635900736606  0.6651469976608277  0.1110893706750893   T   T   T
  0.7612559871604609  0.8097166259477643  0.1110390826607374   T   T   T
  0.9517291514026998  0.9042434380890010  0.1109868483781944   T   T   T
  0.9530055350350791  0.0479492405114289  0.1109749860661270   T   T   T
  0.9540876827659966  0.1914522080579375  0.1110462095036880   T   T   T
  0.9540876827659966  0.3340624568260577  0.1110462095036880   T   T   T
  0.9530055350350791  0.4764832766416495  0.1109749860661270   T   T   T
  0.9517291514026998  0.6189144069886950  0.1109868483781944   T   T   T
  0.9513371907477703  0.7613829422113870  0.1109993867403753   T   T   T
  0.0944493564873362  0.9041017357960510  0.1109444750435301   T   T   T
  0.0948222100917574  0.0467890572637885  0.1109975339959726   T   T   T
  0.0961458971113292  0.1905394823354816  0.1110000120800593   T   T   T
  0.0975387699904116  0.3344837318322058  0.1109910012810583   T   T   T
  0.0961458971113292  0.4770351084498490  0.1110000120800593   T   T   T
  0.0948222100917574  0.6194618465029713  0.1109975339959726   T   T   T
  0.0944493564873362  0.7617780259222919  0.1109444750435301   T   T   T
  0.2376610290600239  0.9045457171455106  0.1109610614476025   T   T   T
  0.2376787263012309  0.0463093562537625  0.1110392430135044   T   T   T
  0.2378382810584560  0.1884973667681195  0.1110636024464640   T   T   T
  0.2398265050471573  0.3330801098641741  0.1110286197845949   T   T   T
  0.2398265050471573  0.4781750888569771  0.1110286197845949   T   T   T
  0.2378382810584560  0.6207696079653330  0.1110636024464640   T   T   T
  0.2376787263012309  0.7627980637224723  0.1110392430135044   T   T   T
  0.3813344064681047  0.9060924196586687  0.1110176372946600   T   T   T
  0.3813344064681047  0.0466706804844395  0.1110176372946600   T   T   T
  0.3814027645583711  0.1870518292917560  0.1110699015270530   T   T   T
  0.3816212687123919  0.3267015230899004  0.1110003678559430   T   T   T
  0.3816212687123919  0.6263484392974863  0.1110003678559430   T   T   T
  0.3814027645583711  0.7657796289416186  0.1110699015270530   T   T   T
  0.5251189825192204  0.9077172763377456  0.1109997179081954   T   T   T
  0.5250476370939782  0.0482373096064923  0.1109581002707527   T   T   T
  0.5251189825192208  0.1888303998564782  0.1109997179081954   T   T   T
  0.5253207431543905  0.3289991088606151  0.1109868718019375   T   T   T
  0.5233719033689308  0.4682720794162953  0.1110274293869668   T   T   T
  0.5233719033689316  0.6265285176276326  0.1110274293869668   T   T   T
  0.5253207431543905  0.7677503279687807  0.1109868718019375   T   T   T
  0.6682312771772514  0.9071159628991118  0.1109711379907874   T   T   T
  0.6683241922602284  0.0490342483868284  0.1109653672748238   T   T   T
  0.6683241922602284  0.1907169259924062  0.1109653672748238   T   T   T
  0.6682312771772514  0.3325440079531415  0.1109711379907874   T   T   T
  0.6668525140838241  0.4748150483761234  0.1110127123890316   T   T   T
  0.6639312853012402  0.6176799894886199  0.1110607221659717   T   T   T
  0.6668525140838241  0.7634661593827018  0.1110127123890316   T   T   T
  0.8099590551779591  0.9054559255177406  0.1109769307675846   T   T   T
  0.8110504250686219  0.0488926022558288  0.1109948933687590   T   T   T
  0.8112679600014856  0.1913474710597459  0.1110516674233674   T   T   T
  0.8110504250686219  0.3335848049307980  0.1109948933687590   T   T   T
  0.8099590551779591  0.4759318233342185  0.1109769307675846   T   T   T
  0.8082642649243971  0.6184294583614882  0.1110612440232406   T   T   T
  0.8082642649243971  0.7612635002379087  0.1110612440232406   T   T   T

  0.00000000E+00  0.00000000E+00  0.00000000E+00
  0.00000000E+00  0.00000000E+00  0.00000000E+00
  0.00000000E+00  0.00000000E+00  0.00000000E+00
  0.00000000E+00  0.00000000E+00  0.00000000E+00
  0.00000000E+00  0.00000000E+00  0.00000000E+00
  0.00000000E+00  0.00000000E+00  0.00000000E+00
  0.00000000E+00  0.00000000E+00  0.00000000E+00
  0.00000000E+00  0.00000000E+00  0.00000000E+00
  0.00000000E+00  0.00000000E+00  0.00000000E+00
  0.00000000E+00  0.00000000E+00  0.00000000E+00
  0.00000000E+00  0.00000000E+00  0.00000000E+00
  0.00000000E+00  0.00000000E+00  0.00000000E+00
  0.00000000E+00  0.00000000E+00  0.00000000E+00
  0.00000000E+00  0.00000000E+00  0.00000000E+00
  0.00000000E+00  0.00000000E+00  0.00000000E+00
  0.00000000E+00  0.00000000E+00  0.00000000E+00
  0.00000000E+00  0.00000000E+00  0.00000000E+00
  0.00000000E+00  0.00000000E+00  0.00000000E+00
  0.00000000E+00  0.00000000E+00  0.00000000E+00
  0.00000000E+00  0.00000000E+00  0.00000000E+00
  0.00000000E+00  0.00000000E+00  0.00000000E+00
  0.00000000E+00  0.00000000E+00  0.00000000E+00
  0.00000000E+00  0.00000000E+00  0.00000000E+00
  0.00000000E+00  0.00000000E+00  0.00000000E+00
  0.00000000E+00  0.00000000E+00  0.00000000E+00
  0.00000000E+00  0.00000000E+00  0.00000000E+00
  0.00000000E+00  0.00000000E+00  0.00000000E+00
  0.00000000E+00  0.00000000E+00  0.00000000E+00
  0.00000000E+00  0.00000000E+00  0.00000000E+00
  0.00000000E+00  0.00000000E+00  0.00000000E+00
  0.00000000E+00  0.00000000E+00  0.00000000E+00
  0.00000000E+00  0.00000000E+00  0.00000000E+00
  0.00000000E+00  0.00000000E+00  0.00000000E+00
  0.00000000E+00  0.00000000E+00  0.00000000E+00
  0.00000000E+00  0.00000000E+00  0.00000000E+00
  0.00000000E+00  0.00000000E+00  0.00000000E+00
  0.00000000E+00  0.00000000E+00  0.00000000E+00
  0.00000000E+00  0.00000000E+00  0.00000000E+00
  0.00000000E+00  0.00000000E+00  0.00000000E+00
  0.00000000E+00  0.00000000E+00  0.00000000E+00
  0.00000000E+00  0.00000000E+00  0.00000000E+00
  0.00000000E+00  0.00000000E+00  0.00000000E+00
  0.00000000E+00  0.00000000E+00  0.00000000E+00
  0.00000000E+00  0.00000000E+00  0.00000000E+00
  0.00000000E+00  0.00000000E+00  0.00000000E+00
  0.00000000E+00  0.00000000E+00  0.00000000E+00
  0.00000000E+00  0.00000000E+00  0.00000000E+00
  0.00000000E+00  0.00000000E+00  0.00000000E+00
  0.00000000E+00  0.00000000E+00  0.00000000E+00
  0.00000000E+00  0.00000000E+00  0.00000000E+00
  0.00000000E+00  0.00000000E+00  0.00000000E+00
  0.00000000E+00  0.00000000E+00  0.00000000E+00
  0.00000000E+00  0.00000000E+00  0.00000000E+00
  0.00000000E+00  0.00000000E+00  0.00000000E+00
  0.00000000E+00  0.00000000E+00  0.00000000E+00
  0.00000000E+00  0.00000000E+00  0.00000000E+00
  0.00000000E+00  0.00000000E+00  0.00000000E+00
  0.00000000E+00  0.00000000E+00  0.00000000E+00
  0.00000000E+00  0.00000000E+00  0.00000000E+00
  0.00000000E+00  0.00000000E+00  0.00000000E+00
  0.00000000E+00  0.00000000E+00  0.00000000E+00
  0.00000000E+00  0.00000000E+00  0.00000000E+00
  0.00000000E+00  0.00000000E+00  0.00000000E+00
  0.00000000E+00  0.00000000E+00  0.00000000E+00
  0.00000000E+00  0.00000000E+00  0.00000000E+00
  0.00000000E+00  0.00000000E+00  0.00000000E+00
  0.00000000E+00  0.00000000E+00  0.00000000E+00
  0.00000000E+00  0.00000000E+00  0.00000000E+00
  0.00000000E+00  0.00000000E+00  0.00000000E+00
  0.00000000E+00  0.00000000E+00  0.00000000E+00
  0.00000000E+00  0.00000000E+00  0.00000000E+00
  0.00000000E+00  0.00000000E+00  0.00000000E+00
  0.00000000E+00  0.00000000E+00  0.00000000E+00
  0.00000000E+00  0.00000000E+00  0.00000000E+00
  0.00000000E+00  0.00000000E+00  0.00000000E+00
  0.00000000E+00  0.00000000E+00  0.00000000E+00
  0.00000000E+00  0.00000000E+00  0.00000000E+00
  0.00000000E+00  0.00000000E+00  0.00000000E+00
  0.00000000E+00  0.00000000E+00  0.00000000E+00
  0.00000000E+00  0.00000000E+00  0.00000000E+00
  0.00000000E+00  0.00000000E+00  0.00000000E+00
  0.00000000E+00  0.00000000E+00  0.00000000E+00
  0.00000000E+00  0.00000000E+00  0.00000000E+00
  0.00000000E+00  0.00000000E+00  0.00000000E+00
  0.00000000E+00  0.00000000E+00  0.00000000E+00
  0.00000000E+00  0.00000000E+00  0.00000000E+00
  0.00000000E+00  0.00000000E+00  0.00000000E+00
  0.00000000E+00  0.00000000E+00  0.00000000E+00
  0.00000000E+00  0.00000000E+00  0.00000000E+00
  0.00000000E+00  0.00000000E+00  0.00000000E+00
  0.00000000E+00  0.00000000E+00  0.00000000E+00
  0.00000000E+00  0.00000000E+00  0.00000000E+00
  0.00000000E+00  0.00000000E+00  0.00000000E+00
  0.00000000E+00  0.00000000E+00  0.00000000E+00
  0.00000000E+00  0.00000000E+00  0.00000000E+00
  0.00000000E+00  0.00000000E+00  0.00000000E+00
  0.00000000E+00  0.00000000E+00  0.00000000E+00
