B N O                                   
   1.0000000000000000     
     8.7639499999999995  -15.1796066749929999    0.0000000000000000
     8.7639499999999995   15.1796066749929999    0.0000000000000000
     0.0000000000000000    0.0000000000000000   15.0000000000000000
   B    N    O 
    49    48     1
Selective dynamics
Direct
  0.9047669188626140  0.9523994410675204  0.1110268760300233   T   T   T
  0.9047514195962936  0.0952506015997028  0.1110480822545369   T   T   T
  0.9047514195962936  0.2380721243225897  0.1110480822545369   T   T   T
  0.9047669188626140  0.3809404956770953  0.1110268760300233   T   T   T
  0.9047365488282852  0.5238053032042517  0.1110355930061211   T   T   T
  0.9048447702108123  0.6667088940469045  0.1110481477338017   T   T   T
  0.9047365488282852  0.8095042635070373  0.1110355930061211   T   T   T
  0.0476142407112361  0.9523877804847674  0.1110265768103923   T   T   T
  0.0476025801284830  0.0952351023333824  0.1110268760300233   T   T   T
  0.0475741070799442  0.2380735624809730  0.1110288853363845   T   T   T
  0.0476025801284830  0.3809404956770953  0.1110268760300233   T   T   T
  0.0476142407112361  0.5238011896654680  0.1110265768103923   T   T   T
  0.0476363811924484  0.6666745144589998  0.1110356817012567   T   T   T
  0.0476363811924484  0.8095365961724478  0.1110356817012567   T   T   T
  0.1904654250235557  0.9523656400035551  0.1110356817012567   T   T   T
  0.1904977576889662  0.0952654723677110  0.1110355930061211   T   T   T
  0.1903628711272954  0.2380441667808939  0.1110234165584568   T   T   T
  0.1903628711272954  0.3808917222284032  0.1110234165584568   T   T   T
  0.1904977576889662  0.5238053032042517  0.1110355930061211   T   T   T
  0.1904654250235557  0.6666745144589998  0.1110356817012567   T   T   T
  0.1904764376510002  0.8095255835450033  0.1110207360938126   T   T   T
  0.3333275067379983  0.9523656400035551  0.1110356817012567   T   T   T
  0.3332931271500938  0.0951572509851839  0.1110481477338017   T   T   T
  0.3332767904377947  0.2378808582934638  0.1110366809820130   T   T   T
  0.3328579603572111  0.3807154891191091  0.1110084639649170   T   T   T
  0.3332767904377947  0.5239689500263325  0.1110366809820130   T   T   T
  0.3332931271500938  0.6667088940469045  0.1110481477338017   T   T   T
  0.3333275067379983  0.8095365961724478  0.1110356817012567   T   T   T
  0.4762008315315373  0.9523877804847674  0.1110265768103923   T   T   T
  0.4761967179927465  0.0952654723677110  0.1110355930061211   T   T   T
  0.4760330711706656  0.2378808582934638  0.1110366809820130   T   T   T
  0.4748403497336810  0.3782516961523655  0.1110567586458906   T   T   T
  0.4748403497336810  0.5251616714633173  0.1110567586458906   T   T   T
  0.4760330711706656  0.6667252307592035  0.1110366809820130   T   T   T
  0.4761967179927465  0.8095042635070373  0.1110355930061211   T   T   T
  0.6190615255189081  0.9523994410675204  0.1110268760300233   T   T   T
  0.6190615255189081  0.0952351023333824  0.1110268760300233   T   T   T
  0.6191102989676002  0.2380441667808939  0.1110234165584568   T   T   T
  0.6192865320768944  0.3807154891191091  0.1110084639649170   T   T   T
  0.6217503250436379  0.5251616714633173  0.1110567586458906   T   T   T
  0.6192865320768944  0.6671440608397871  0.1110084639649170   T   T   T
  0.6191102989676002  0.8096391500687081  0.1110234165584568   T   T   T
  0.7619284587150305  0.9524279141160592  0.1110288853363845   T   T   T
  0.7619298968734137  0.0952506015997028  0.1110480822545369   T   T   T
  0.7619284587150305  0.2380735624809730  0.1110288853363845   T   T   T
  0.7619578544151097  0.3808917222284032  0.1110234165584568   T   T   T
  0.7621211629025395  0.5239689500263325  0.1110366809820130   T   T   T
  0.7621211629025395  0.6667252307592035  0.1110366809820130   T   T   T
  0.7619578544151097  0.8096391500687081  0.1110234165584568   T   T   T
  0.9523417103549140  0.9047093357840880  0.1110017460229315   T   T   T
  0.9523954984313576  0.0476059034866481  0.1110096474914676   T   T   T
  0.9523675641281381  0.1904685794405727  0.1110154842101159   T   T   T
  0.9523954984313576  0.3333591896977167  0.1110096474914676   T   T   T
  0.9523417103549140  0.4762036808798218  0.1110017460229315   T   T   T
  0.9523027573797795  0.6190233141052801  0.1110117853466081   T   T   T
  0.9523027573797795  0.7618507495844901  0.1110117853466081   T   T   T
  0.0952293401768605  0.9047720617411381  0.1110000098171083   T   T   T
  0.0952920661339107  0.0476596915630917  0.1110017460229315   T   T   T
  0.0952531716740681  0.1904585042722331  0.1110075473450646   T   T   T
  0.0952531716740681  0.3333659737108379  0.1110075473450646   T   T   T
  0.0952920661339107  0.4762036808798218  0.1110017460229315   T   T   T
  0.0952293401768605  0.6190302963017157  0.1110000098171083   T   T   T
  0.0952116975061901  0.7618923576861024  0.1110017690807934   T   T   T
  0.2381090442319033  0.9047897044118086  0.1110017690807934   T   T   T
  0.2381506523335085  0.0476986445382261  0.1110117853466081   T   T   T
  0.2383306548884923  0.1906838987847718  0.1110104323119584   T   T   T
  0.2381722002936452  0.3333717533013169  0.1109938134792350   T   T   T
  0.2383306548884923  0.4762180624127234  0.1110104323119584   T   T   T
  0.2381506523335085  0.6190233141052801  0.1110117853466081   T   T   T
  0.2381090442319033  0.7618923576861024  0.1110017690807934   T   T   T
  0.3809711056162829  0.9047720617411381  0.1110000098171083   T   T   T
  0.3809780878127186  0.0476986445382261  0.1110117853466081   T   T   T
  0.3810549265890928  0.1906797575701916  0.1110172727015276   T   T   T
  0.3815039634527019  0.3339549479333299  0.1109996311761378   T   T   T
  0.3815039634527019  0.4761203218283678  0.1109996311761378   T   T   T
  0.3810549265890928  0.6189464753289057  0.1110172727015276   T   T   T
  0.3809780878127186  0.7618507495844901  0.1110117853466081   T   T   T
  0.5237977210371749  0.9047093357840880  0.1110017460229315   T   T   T
  0.5237977210371749  0.0476596915630917  0.1110017460229315   T   T   T
  0.5237833395042734  0.1906838987847718  0.1110104323119584   T   T   T
  0.5238810800886289  0.3339549479333299  0.1109996311761378   T   T   T
  0.5238810800886289  0.6184974384652968  0.1109996311761378   T   T   T
  0.5237833395042734  0.7616707470295133  0.1110104323119584   T   T   T
  0.6666354282061588  0.9047482302439305  0.1110075473450646   T   T   T
  0.6666422122192799  0.0476059034866481  0.1110096474914676   T   T   T
  0.6666354282061588  0.1904585042722331  0.1110075473450646   T   T   T
  0.6666296486156799  0.3333717533013169  0.1109938134792350   T   T   T
  0.6660464539836668  0.4761203218283678  0.1109996311761378   T   T   T
  0.6660464539836668  0.6184974384652968  0.1109996311761378   T   T   T
  0.6666296486156799  0.7618292016243605  0.1109938134792350   T   T   T
  0.8095428976457655  0.9047482302439305  0.1110075473450646   T   T   T
  0.8095328224774259  0.0476338377898676  0.1110154842101159   T   T   T
  0.8095328224774259  0.1904685794405727  0.1110154842101159   T   T   T
  0.8095428976457655  0.3333659737108379  0.1110075473450646   T   T   T
  0.8093175031332269  0.4762180624127234  0.1110104323119584   T   T   T
  0.8093216443478140  0.6189464753289057  0.1110172727015276   T   T   T
  0.8093175031332269  0.7616707470295133  0.1110104323119584   T   T   T
  0.5238104991749992  0.4761909027419975  0.1110381864442445   T   T   T

  0.00000000E+00  0.00000000E+00  0.00000000E+00
  0.00000000E+00  0.00000000E+00  0.00000000E+00
  0.00000000E+00  0.00000000E+00  0.00000000E+00
  0.00000000E+00  0.00000000E+00  0.00000000E+00
  0.00000000E+00  0.00000000E+00  0.00000000E+00
  0.00000000E+00  0.00000000E+00  0.00000000E+00
  0.00000000E+00  0.00000000E+00  0.00000000E+00
  0.00000000E+00  0.00000000E+00  0.00000000E+00
  0.00000000E+00  0.00000000E+00  0.00000000E+00
  0.00000000E+00  0.00000000E+00  0.00000000E+00
  0.00000000E+00  0.00000000E+00  0.00000000E+00
  0.00000000E+00  0.00000000E+00  0.00000000E+00
  0.00000000E+00  0.00000000E+00  0.00000000E+00
  0.00000000E+00  0.00000000E+00  0.00000000E+00
  0.00000000E+00  0.00000000E+00  0.00000000E+00
  0.00000000E+00  0.00000000E+00  0.00000000E+00
  0.00000000E+00  0.00000000E+00  0.00000000E+00
  0.00000000E+00  0.00000000E+00  0.00000000E+00
  0.00000000E+00  0.00000000E+00  0.00000000E+00
  0.00000000E+00  0.00000000E+00  0.00000000E+00
  0.00000000E+00  0.00000000E+00  0.00000000E+00
  0.00000000E+00  0.00000000E+00  0.00000000E+00
  0.00000000E+00  0.00000000E+00  0.00000000E+00
  0.00000000E+00  0.00000000E+00  0.00000000E+00
  0.00000000E+00  0.00000000E+00  0.00000000E+00
  0.00000000E+00  0.00000000E+00  0.00000000E+00
  0.00000000E+00  0.00000000E+00  0.00000000E+00
  0.00000000E+00  0.00000000E+00  0.00000000E+00
  0.00000000E+00  0.00000000E+00  0.00000000E+00
  0.00000000E+00  0.00000000E+00  0.00000000E+00
  0.00000000E+00  0.00000000E+00  0.00000000E+00
  0.00000000E+00  0.00000000E+00  0.00000000E+00
  0.00000000E+00  0.00000000E+00  0.00000000E+00
  0.00000000E+00  0.00000000E+00  0.00000000E+00
  0.00000000E+00  0.00000000E+00  0.00000000E+00
  0.00000000E+00  0.00000000E+00  0.00000000E+00
  0.00000000E+00  0.00000000E+00  0.00000000E+00
  0.00000000E+00  0.00000000E+00  0.00000000E+00
  0.00000000E+00  0.00000000E+00  0.00000000E+00
  0.00000000E+00  0.00000000E+00  0.00000000E+00
  0.00000000E+00  0.00000000E+00  0.00000000E+00
  0.00000000E+00  0.00000000E+00  0.00000000E+00
  0.00000000E+00  0.00000000E+00  0.00000000E+00
  0.00000000E+00  0.00000000E+00  0.00000000E+00
  0.00000000E+00  0.00000000E+00  0.00000000E+00
  0.00000000E+00  0.00000000E+00  0.00000000E+00
  0.00000000E+00  0.00000000E+00  0.00000000E+00
  0.00000000E+00  0.00000000E+00  0.00000000E+00
  0.00000000E+00  0.00000000E+00  0.00000000E+00
  0.00000000E+00  0.00000000E+00  0.00000000E+00
  0.00000000E+00  0.00000000E+00  0.00000000E+00
  0.00000000E+00  0.00000000E+00  0.00000000E+00
  0.00000000E+00  0.00000000E+00  0.00000000E+00
  0.00000000E+00  0.00000000E+00  0.00000000E+00
  0.00000000E+00  0.00000000E+00  0.00000000E+00
  0.00000000E+00  0.00000000E+00  0.00000000E+00
  0.00000000E+00  0.00000000E+00  0.00000000E+00
  0.00000000E+00  0.00000000E+00  0.00000000E+00
  0.00000000E+00  0.00000000E+00  0.00000000E+00
  0.00000000E+00  0.00000000E+00  0.00000000E+00
  0.00000000E+00  0.00000000E+00  0.00000000E+00
  0.00000000E+00  0.00000000E+00  0.00000000E+00
  0.00000000E+00  0.00000000E+00  0.00000000E+00
  0.00000000E+00  0.00000000E+00  0.00000000E+00
  0.00000000E+00  0.00000000E+00  0.00000000E+00
  0.00000000E+00  0.00000000E+00  0.00000000E+00
  0.00000000E+00  0.00000000E+00  0.00000000E+00
  0.00000000E+00  0.00000000E+00  0.00000000E+00
  0.00000000E+00  0.00000000E+00  0.00000000E+00
  0.00000000E+00  0.00000000E+00  0.00000000E+00
  0.00000000E+00  0.00000000E+00  0.00000000E+00
  0.00000000E+00  0.00000000E+00  0.00000000E+00
  0.00000000E+00  0.00000000E+00  0.00000000E+00
  0.00000000E+00  0.00000000E+00  0.00000000E+00
  0.00000000E+00  0.00000000E+00  0.00000000E+00
  0.00000000E+00  0.00000000E+00  0.00000000E+00
  0.00000000E+00  0.00000000E+00  0.00000000E+00
  0.00000000E+00  0.00000000E+00  0.00000000E+00
  0.00000000E+00  0.00000000E+00  0.00000000E+00
  0.00000000E+00  0.00000000E+00  0.00000000E+00
  0.00000000E+00  0.00000000E+00  0.00000000E+00
  0.00000000E+00  0.00000000E+00  0.00000000E+00
  0.00000000E+00  0.00000000E+00  0.00000000E+00
  0.00000000E+00  0.00000000E+00  0.00000000E+00
  0.00000000E+00  0.00000000E+00  0.00000000E+00
  0.00000000E+00  0.00000000E+00  0.00000000E+00
  0.00000000E+00  0.00000000E+00  0.00000000E+00
  0.00000000E+00  0.00000000E+00  0.00000000E+00
  0.00000000E+00  0.00000000E+00  0.00000000E+00
  0.00000000E+00  0.00000000E+00  0.00000000E+00
  0.00000000E+00  0.00000000E+00  0.00000000E+00
  0.00000000E+00  0.00000000E+00  0.00000000E+00
  0.00000000E+00  0.00000000E+00  0.00000000E+00
  0.00000000E+00  0.00000000E+00  0.00000000E+00
  0.00000000E+00  0.00000000E+00  0.00000000E+00
  0.00000000E+00  0.00000000E+00  0.00000000E+00
  0.00000000E+00  0.00000000E+00  0.00000000E+00
  0.00000000E+00  0.00000000E+00  0.00000000E+00
