 N S B 
 1.0
 17.527899999999772   0.000000000000000   0.000000000000000
 -8.763949999999658  15.179606674993195   0.000000000000000
  0.000000000000001   0.000000000000002  15.000000000000000
 N S B 
  48   1  48
Cartesian
  8.761350555691140  13.727944282905179   1.664894945181030 
 16.288522119004874   0.729828605931834   1.664904405970080 
 15.052343898165709   2.910068058676996   1.666092577697895 
 13.802357314705823   5.075108330009030   1.666092577697895 
 12.532303672714823   7.235789799233642   1.664904405970080 
 11.261451268645825   9.397642824028130   1.664894945181030 
 10.006324143984656  11.559862479989297   1.665072288735255 
 -6.263849557350277  13.726239983566090   1.664436298621095 
  1.255868659867547   0.712441455231245   1.665038637586875 
  0.022750041886784   2.896988398476934   1.664539727234130 
 -1.208171996217418   5.085170114607471   1.664851171372545 
 -2.487731931430909   7.245270727749102   1.664539727234130 
 -3.763045771059714   9.405456248438201   1.665038637586875 
 -5.016589754389337  11.565922634599319   1.664436298621095 
 -3.758095663470507  13.732726102742694   1.664648785655820 
  3.762798763036278   0.705420662646907   1.665748472237565 
  2.519727367862817   2.863321924783022   1.665227489571525 
  1.300138434058276   5.063562564986325   1.665151511719110 
  0.027270532035087   7.268234442614169   1.665151511719110 
 -1.268399289926234   9.424549761579966   1.665227489571525 
 -2.515660904207879  11.580031799586148   1.665748472237565 
 -1.253765125823316  13.753626968309138   1.665395237256690 
  6.276135285885768   0.711456879294961   1.665395237256690 
  5.043490287912386   2.844255632649970   1.665517135739505 
  3.817370915961533   4.962218077080728   1.664850310930245 
  1.198119871918267   9.498893963141649   1.664850310930245 
 -0.023029723244728  11.619725709538830   1.665517135739505 
  1.251952306496902  13.774292156768864   1.664967548904255 
  8.781528186570812   0.732971100447379   1.664719039353885 
  7.546890580225839   2.871139236160046   1.664967548904255 
  6.316608168016208   5.001678168286062   1.664141336466015 
  5.085679231630050   7.104210073790489   1.663529904687105 
  3.687293513606021   9.526285185986875   1.663529904687105 
  2.481911939365026  11.643566867902898   1.664141336466015 
  3.765851454237389  13.764694506965810   1.664432063910480 
 11.286984355058987   0.743180528038260   1.664703997663470 
 10.043097894466856   2.897655076631141   1.664703997663470 
  8.795528345550089   5.053038585556826   1.664432063910480 
  7.527010695317226   7.212377101195985   1.664725593815115 
  6.228055041870348   9.378477796822885   1.665969070693605 
  5.001634639034654  11.586456738895471   1.664725593815115 
  6.265173959911166  13.743836456894050   1.664619667614840 
 13.791315746165072   0.742219225901872   1.665107497015995 
 12.546416507214156   2.906630385829703   1.665780130986735 
 11.294431077957706   5.066950331876940   1.665107497015995 
 10.027125997160308   7.227944392741063   1.664619667614840 
  8.750729225800377   9.390780759876479   1.666037494732815 
  7.500046812390488  11.557026244035589   1.666037494732815 
  2.928790068521155   7.473663596991562   1.676813938140510 
  7.516798132376636  14.460828741356167   1.664926046708040 
 15.043617733640374   1.461264917891764   1.665770090423280 
 13.798279880107103   3.629411361827883   1.666718074685115 
 12.543278907300108   5.791978801250391   1.665770090423280 
 11.273856615905650   7.953412560876012   1.664926046708040 
 10.003809703764166  10.114863841123857   1.665650508862980 
  8.753646394043052  12.280210211319368   1.665650508862980 
 -7.514438196683086  14.446838019823034   1.665037641381825 
  0.012939975955965   1.446629593956807   1.665003367522440 
 -1.222077799957424   3.631440059690338   1.665442780252800 
 -2.474107056030749   5.800018343772075   1.665442780252800 
 -3.748699533862058   7.961980344720335   1.665003367522440 
 -5.016185710332731  10.119737783328796   1.665037641381825 
 -6.268996799071724  12.283073976864813   1.664634228455355 
 -5.010071692793580  14.445473087406956   1.665020401547940 
  2.510707612761573   1.422264336957949   1.665764364690540 
  1.279770573610924   3.604259668722104   1.664831113398870 
  0.047608206596491   5.810212473415021   1.665310758616770 
 -1.246721778318537   7.980272787198270   1.664831113398870 
 -2.520916646990092  10.137293199444276   1.665764364690540 
 -3.766841683082374  12.292135545092725   1.665020401547940 
 -2.503818979840849  14.456479469368835   1.665340643830860 
  5.026329499272953   1.413879715005769   1.666199490517845 
  3.792971406065779   3.542155258052349   1.665320578482285 
  2.600328525091567   5.677287738755184   1.668393645000345 
  1.208852168837331   8.087395485318416   1.668393645000345 
 -0.043905359409363  10.187820758236061   1.665320578482285 
 -1.269542764397414  12.318650353646902   1.666199490517845 
  0.000716596841281  14.477633786685514   1.665276049005060 
  7.530369444313609   1.435892491507319   1.665276049005060 
  6.296905414640030   3.569841470634475   1.665114654028620 
  5.071156053956443   5.703963706342260   1.664328691750275 
  2.467367998870870  10.213856909891579   1.664328691750275 
  1.232038608308351  12.342448112770363   1.665114654028620 
  2.513937888970567  14.482623517107394   1.664844460906320 
 10.034475707158716   1.456378009399025   1.664898770288310 
  8.791301323681740   3.609911110612190   1.664844460906320 
  7.543323287424249   5.767836527694161   1.664525846953995 
  6.242624873065295   7.918366879652727   1.665318042105465 
  4.971662789241873  10.119737783328796   1.665318042105465 
  3.758767101506619  12.322880125802808   1.664525846953995 
  5.020695307068618  14.476275010717707   1.664725344340290 
 12.540393662514287   1.462585499176856   1.665416773168785 
 11.292810528677938   3.623462873647490   1.665416773168785 
 10.039182064921496   5.784000969004614   1.664725344340290 
  8.766183060956880   7.942319478158244   1.665391088421195 
  7.489027698243111  10.106518020080186   1.666679736305340 
  6.253354463462489  12.294666279730723   1.665391088421195 
