S B N                                   
   1.0000000000000000     
     8.7639499999999995  -15.1796066749929999    0.0000000000000000
     8.7639499999999995   15.1796066749929999    0.0000000000000000
     0.0000000000000000    0.0000000000000000   15.0000000000000000
   S    B    N 
     1    48    48
Selective dynamics
Direct
  0.4132675196730291  0.4923489624605122  0.1117875958760339   T   T   T
  0.9051718402605912  0.9526484480773053  0.1109950697805362   T   T   T
  0.9063994789645492  0.0962650053574207  0.1110513393615523   T   T   T
  0.9067670118416044  0.2390978527663007  0.1111145383123406   T   T   T
  0.9063994789645492  0.3815631672981400  0.1110513393615523   T   T   T
  0.9051718402605912  0.5239537974312879  0.1109950697805362   T   T   T
  0.9039091428667119  0.6663455817855296  0.1110433672575317   T   T   T
  0.9039091428667119  0.8089939663291624  0.1110433672575317   T   T   T
  0.0471504072364846  0.9517267692859714  0.1110025094254549   T   T   T
  0.0483886809854342  0.0953008615394478  0.1110002245014961   T   T   T
  0.0498938889456649  0.2392314990396130  0.1110295186835204   T   T   T
  0.0498938889456649  0.3820927951530517  0.1110295186835204   T   T   T
  0.0483886809854342  0.5245182246939811  0.1110002245014961   T   T   T
  0.0471504072364846  0.6668557547545174  0.1110025094254549   T   T   T
  0.0469331333443836  0.8091826250741977  0.1109756152303566   T   T   T
  0.1899843154509139  0.9516368504596598  0.1110013601031963   T   T   T
  0.1900885052152886  0.0936957305554545  0.1110509576460361   T   T   T
  0.1917337994612536  0.2374409130547329  0.1109887408932580   T   T   T
  0.1940983199454301  0.3827643625962153  0.1110207172411179   T   T   T
  0.1917337994612536  0.5257232916545154  0.1109887408932580   T   T   T
  0.1900885052152886  0.6678231799078428  0.1110509576460361   T   T   T
  0.1899843154509139  0.8097795817952727  0.1110013601031963   T   T   T
  0.3332917378913760  0.9523619273471929  0.1110227095887236   T   T   T
  0.3332392849944327  0.0931433696062085  0.1110799660345226   T   T   T
  0.3330710294909118  0.2333496073971195  0.1110213718988190   T   T   T
  0.3353574660586155  0.3740075655654447  0.1112262430000228   T   T   T
  0.3353574660586155  0.5327803057401709  0.1112262430000228   T   T   T
  0.3330710294909118  0.6711518273407848  0.1110213718988190   T   T   T
  0.3332392849944327  0.8115263206352096  0.1110799660345226   T   T   T
  0.4769186474599241  0.9537555284970519  0.1110184032670040   T   T   T
  0.4769186474599241  0.0945935242098725  0.1110184032670040   T   T   T
  0.4768371766540873  0.2351735158273508  0.1110076436019078   T   T   T
  0.4772015492592379  0.3757649212175528  0.1109552461166848   T   T   T
  0.4772015492592377  0.6728670332886708  0.1109552461166848   T   T   T
  0.4768371766540873  0.8130940660737439  0.1110076436019078   T   T   T
  0.6204670539622192  0.9540842412581075  0.1109896307270881   T   T   T
  0.6204574388789993  0.0959430662849950  0.1109932513525537   T   T   T
  0.6204670539622192  0.2378132179511037  0.1109896307270881   T   T   T
  0.6203472897112751  0.3799727259861131  0.1109683897969326   T   T   T
  0.6169761421833190  0.5216450629578829  0.1110212028070313   T   T   T
  0.6169761421833261  0.6667614844734452  0.1110212028070313   T   T   T
  0.6203472897112751  0.8118049689721837  0.1109683897969326   T   T   T
  0.7632732147815440  0.9536660152443770  0.1109816896226857   T   T   T
  0.7636292878312314  0.0963520024261438  0.1110277848779193   T   T   T
  0.7636292878312314  0.2387059790960701  0.1110277848779193   T   T   T
  0.7632732147815440  0.3810376047841311  0.1109816896226857   T   T   T
  0.7617389048124166  0.5232230088835165  0.1110260725614133   T   T   T
  0.7601611486661941  0.6657957769570944  0.1111119824203556   T   T   T
  0.7617389048124166  0.8099463011768875  0.1110260725614133   T   T   T
  0.9520354910084250  0.9043675884909802  0.1109929963454023   T   T   T
  0.9533309102118398  0.0480795465625701  0.1109936270646718   T   T   T
  0.9546193483077360  0.1917090555100505  0.1110728385131935   T   T   T
  0.9546193483077360  0.3343372749156765  0.1110728385131935   T   T   T
  0.9533309102118327  0.4766783457672754  0.1109936270646718   T   T   T
  0.9520354910084179  0.6190965961924269  0.1109929963454023   T   T   T
  0.9516493053133303  0.7615389994941670  0.1110048192490172   T   T   T
  0.0947631371768870  0.9042553128981022  0.1109624199080734   T   T   T
  0.0951167524818805  0.0469341182868012  0.1110025758391252   T   T   T
  0.0967216308620328  0.1908473954894643  0.1109693151489417   T   T   T
  0.0985715538271081  0.3350001237505548  0.1109900780915026   T   T   T
  0.0967216308620328  0.4773029290465694  0.1109693151489417   T   T   T
  0.0951167524818805  0.6196113278700891  0.1110025758391252   T   T   T
  0.0947631371768870  0.7619382295097911  0.1109624199080734   T   T   T
  0.2379348038644200  0.9046826045477128  0.1109765857103881   T   T   T
  0.2379106209247790  0.0464716034974088  0.1110498981491711   T   T   T
  0.2380699942327864  0.1886295202562817  0.1110151659714351   T   T   T
  0.2409637003869029  0.3335766646264959  0.1110101007812744   T   T   T
  0.2409637003869029  0.4788157294344007  0.1110101007812744   T   T   T
  0.2380699942327864  0.6208691676514859  0.1110151659714351   T   T   T
  0.2379106209247790  0.7628677111023594  0.1110498981491711   T   T   T
  0.3815000716950387  0.9060595088387103  0.1110263491504465   T   T   T
  0.3815000716950459  0.0468692565313309  0.1110263491504465   T   T   T
  0.3814274409978941  0.1873734737366799  0.1110344757159665   T   T   T
  0.3812384175252998  0.3269003066631145  0.1109900207286832   T   T   T
  0.3812384175252998  0.6257668045371736  0.1109900207286832   T   T   T
  0.3814274409978941  0.7654826609362094  0.1110344757159665   T   T   T
  0.5251367015503167  0.9074208872263179  0.1109978365936165   T   T   T
  0.5251461526322283  0.0482865673756144  0.1109812692902593   T   T   T
  0.5251367015503167  0.1891445079990083  0.1109978365936165   T   T   T
  0.5251244247671460  0.3294998530183128  0.1109427557644012   T   T   T
  0.5241527410649658  0.4680101550650797  0.1109019936458069   T   T   T
  0.5241527410649658  0.6275712796748828  0.1109019936458069   T   T   T
  0.5251244247671460  0.7670532654238299  0.1109427557644012   T   T   T
  0.6682432883087503  0.9067886145984072  0.1109621375940322   T   T   T
  0.6684234753152689  0.0489591426148461  0.1109802665108984   T   T   T
  0.6684234753152760  0.1908913148194234  0.1109802665108984   T   T   T
  0.6682432883087503  0.3328833673853472  0.1109621375940322   T   T   T
  0.6669982460072126  0.4751359673289566  0.1109817062543405   T   T   T
  0.6642393967591627  0.6178340452175839  0.1110646047129071   T   T   T
  0.6669982460072126  0.7632909723532519  0.1109817062543405   T   T   T
  0.8101473444050370  0.9054145309005649  0.1109746445076563   T   T   T
  0.8112686754281689  0.0488958140875021  0.1110071664677331   T   T   T
  0.8115381958425031  0.1914825889802581  0.1110520087324489   T   T   T
  0.8112686754281689  0.3337998434586725  0.1110071664677331   T   T   T
  0.8101473444050370  0.4761615071784664  0.1109746445076563   T   T   T
  0.8085679987571714  0.6186445380924664  0.1110691663155211   T   T   T
  0.8085679987571786  0.7613521543397147  0.1110691663155211   T   T   T

  0.00000000E+00  0.00000000E+00  0.00000000E+00
  0.00000000E+00  0.00000000E+00  0.00000000E+00
  0.00000000E+00  0.00000000E+00  0.00000000E+00
  0.00000000E+00  0.00000000E+00  0.00000000E+00
  0.00000000E+00  0.00000000E+00  0.00000000E+00
  0.00000000E+00  0.00000000E+00  0.00000000E+00
  0.00000000E+00  0.00000000E+00  0.00000000E+00
  0.00000000E+00  0.00000000E+00  0.00000000E+00
  0.00000000E+00  0.00000000E+00  0.00000000E+00
  0.00000000E+00  0.00000000E+00  0.00000000E+00
  0.00000000E+00  0.00000000E+00  0.00000000E+00
  0.00000000E+00  0.00000000E+00  0.00000000E+00
  0.00000000E+00  0.00000000E+00  0.00000000E+00
  0.00000000E+00  0.00000000E+00  0.00000000E+00
  0.00000000E+00  0.00000000E+00  0.00000000E+00
  0.00000000E+00  0.00000000E+00  0.00000000E+00
  0.00000000E+00  0.00000000E+00  0.00000000E+00
  0.00000000E+00  0.00000000E+00  0.00000000E+00
  0.00000000E+00  0.00000000E+00  0.00000000E+00
  0.00000000E+00  0.00000000E+00  0.00000000E+00
  0.00000000E+00  0.00000000E+00  0.00000000E+00
  0.00000000E+00  0.00000000E+00  0.00000000E+00
  0.00000000E+00  0.00000000E+00  0.00000000E+00
  0.00000000E+00  0.00000000E+00  0.00000000E+00
  0.00000000E+00  0.00000000E+00  0.00000000E+00
  0.00000000E+00  0.00000000E+00  0.00000000E+00
  0.00000000E+00  0.00000000E+00  0.00000000E+00
  0.00000000E+00  0.00000000E+00  0.00000000E+00
  0.00000000E+00  0.00000000E+00  0.00000000E+00
  0.00000000E+00  0.00000000E+00  0.00000000E+00
  0.00000000E+00  0.00000000E+00  0.00000000E+00
  0.00000000E+00  0.00000000E+00  0.00000000E+00
  0.00000000E+00  0.00000000E+00  0.00000000E+00
  0.00000000E+00  0.00000000E+00  0.00000000E+00
  0.00000000E+00  0.00000000E+00  0.00000000E+00
  0.00000000E+00  0.00000000E+00  0.00000000E+00
  0.00000000E+00  0.00000000E+00  0.00000000E+00
  0.00000000E+00  0.00000000E+00  0.00000000E+00
  0.00000000E+00  0.00000000E+00  0.00000000E+00
  0.00000000E+00  0.00000000E+00  0.00000000E+00
  0.00000000E+00  0.00000000E+00  0.00000000E+00
  0.00000000E+00  0.00000000E+00  0.00000000E+00
  0.00000000E+00  0.00000000E+00  0.00000000E+00
  0.00000000E+00  0.00000000E+00  0.00000000E+00
  0.00000000E+00  0.00000000E+00  0.00000000E+00
  0.00000000E+00  0.00000000E+00  0.00000000E+00
  0.00000000E+00  0.00000000E+00  0.00000000E+00
  0.00000000E+00  0.00000000E+00  0.00000000E+00
  0.00000000E+00  0.00000000E+00  0.00000000E+00
  0.00000000E+00  0.00000000E+00  0.00000000E+00
  0.00000000E+00  0.00000000E+00  0.00000000E+00
  0.00000000E+00  0.00000000E+00  0.00000000E+00
  0.00000000E+00  0.00000000E+00  0.00000000E+00
  0.00000000E+00  0.00000000E+00  0.00000000E+00
  0.00000000E+00  0.00000000E+00  0.00000000E+00
  0.00000000E+00  0.00000000E+00  0.00000000E+00
  0.00000000E+00  0.00000000E+00  0.00000000E+00
  0.00000000E+00  0.00000000E+00  0.00000000E+00
  0.00000000E+00  0.00000000E+00  0.00000000E+00
  0.00000000E+00  0.00000000E+00  0.00000000E+00
  0.00000000E+00  0.00000000E+00  0.00000000E+00
  0.00000000E+00  0.00000000E+00  0.00000000E+00
  0.00000000E+00  0.00000000E+00  0.00000000E+00
  0.00000000E+00  0.00000000E+00  0.00000000E+00
  0.00000000E+00  0.00000000E+00  0.00000000E+00
  0.00000000E+00  0.00000000E+00  0.00000000E+00
  0.00000000E+00  0.00000000E+00  0.00000000E+00
  0.00000000E+00  0.00000000E+00  0.00000000E+00
  0.00000000E+00  0.00000000E+00  0.00000000E+00
  0.00000000E+00  0.00000000E+00  0.00000000E+00
  0.00000000E+00  0.00000000E+00  0.00000000E+00
  0.00000000E+00  0.00000000E+00  0.00000000E+00
  0.00000000E+00  0.00000000E+00  0.00000000E+00
  0.00000000E+00  0.00000000E+00  0.00000000E+00
  0.00000000E+00  0.00000000E+00  0.00000000E+00
  0.00000000E+00  0.00000000E+00  0.00000000E+00
  0.00000000E+00  0.00000000E+00  0.00000000E+00
  0.00000000E+00  0.00000000E+00  0.00000000E+00
  0.00000000E+00  0.00000000E+00  0.00000000E+00
  0.00000000E+00  0.00000000E+00  0.00000000E+00
  0.00000000E+00  0.00000000E+00  0.00000000E+00
  0.00000000E+00  0.00000000E+00  0.00000000E+00
  0.00000000E+00  0.00000000E+00  0.00000000E+00
  0.00000000E+00  0.00000000E+00  0.00000000E+00
  0.00000000E+00  0.00000000E+00  0.00000000E+00
  0.00000000E+00  0.00000000E+00  0.00000000E+00
  0.00000000E+00  0.00000000E+00  0.00000000E+00
  0.00000000E+00  0.00000000E+00  0.00000000E+00
  0.00000000E+00  0.00000000E+00  0.00000000E+00
  0.00000000E+00  0.00000000E+00  0.00000000E+00
  0.00000000E+00  0.00000000E+00  0.00000000E+00
  0.00000000E+00  0.00000000E+00  0.00000000E+00
  0.00000000E+00  0.00000000E+00  0.00000000E+00
  0.00000000E+00  0.00000000E+00  0.00000000E+00
  0.00000000E+00  0.00000000E+00  0.00000000E+00
  0.00000000E+00  0.00000000E+00  0.00000000E+00
  0.00000000E+00  0.00000000E+00  0.00000000E+00
