 N Ge B 
 1.0
 17.527899999999772   0.000000000000000   0.000000000000000
 -8.763949999999658  15.179606674993195   0.000000000000000
  0.000000000000001   0.000000000000002  15.000000000000000
 N Ge B 
  48   1  48
Cartesian
  8.783428960479455  13.743484661355737   1.665523587678420 
 16.275537468912127   0.723066031489018   1.665297262729410 
 15.012691105699886   2.887173506642377   1.664841904212120 
 13.762111558671180   5.055790726572603   1.664466160801170 
 12.528017601858341   7.225536487616704   1.664400504089715 
 11.294366841828397   9.397015371292962   1.666152299847645 
 10.045564466019162  11.571144166685324   1.666201984034220 
 -6.240471381179670  13.722689802165709   1.665943446372675 
  1.253469913323055   0.701213012768211   1.665523587678420 
 -0.018797141755006   2.859501650086163   1.664746227944085 
 -1.270114706092864   5.040874721899541   1.664400670328040 
 -2.505909977738363   7.216856292516018   1.664567166533145 
 -3.734548837039724   9.388518154886739   1.665047363337180 
 -4.982287073935873  11.556837614139850   1.665809309762775 
 -3.735696211884944  13.715996323462500   1.665809309762775 
  3.765839720147009   0.694341849287663   1.666201984034220 
  2.487051846164937   2.835198790270227   1.665309961256460 
  1.208047591293809   4.988717018567129   1.665054615004215 
 -0.019164205962221   7.204142680193965   1.665312872409285 
 -1.230851525466197   9.383274061845979   1.665391234938600 
 -2.480190433589787  11.551690584846101   1.665027171047190 
 -1.234007358203765  13.719583042663746   1.665047363337180 
  6.273091675960446   0.699911665226705   1.666152299847645 
  5.011366976338742   2.849782520960480   1.665725280073365 
  3.720289600594035   4.962135747784385   1.665339785624310 
  2.410402745834028   7.107641096420949   1.665530826624540 
  1.283770572532464   9.378566684742086   1.665983904309540 
  0.022382815376162  11.553939613974904   1.665391234938600 
  1.261026412672249  13.741381509617494   1.664567166533145 
  8.770472933003285   0.717278209480856   1.664400504089715 
  7.517113276457441   2.872923798068987   1.664876724832200 
  6.256831140886458   5.024425171177918   1.666045889560665 
  3.813765908755808   9.538337396102683   1.665530826624540 
  2.515409609805051  11.594153304666854   1.665312872409285 
  3.763379366815684  13.759142195803850   1.664400670328040 
 11.266574860227250   0.733394372746184   1.664466160801170 
 10.013050046065649   2.896364148141929   1.664487706396575 
  8.751960079986594   5.066805462244043   1.664260653715800 
  7.541098019119633   7.248840654755585   1.666045889560665 
  6.326771472010578   9.476694778115327   1.665339785624310 
  5.047630411597295  11.639069543232644   1.665054615004215 
  6.278162644323820  13.766155932792431   1.664746227944085 
 13.769942237303161   0.734669325530955   1.664841904212120 
 12.511281949032210   2.896359969190169   1.665481436099805 
 11.262174664809720   5.059868891664398   1.664487706396575 
 10.034493932312092   7.233154995969898   1.664876724832200 
  8.801661716095774   9.414765585880994   1.665725280073365 
  7.552134032268719  11.608178481114138   1.665309961256460 
  4.159636125197967   7.718184933747237   1.662733386290070 
  7.529402882478600  14.468442304877318   1.665457749970545 
 15.022143980087382   1.446719366593518   1.665370567477335 
 13.763557864955558   3.613238680487004   1.665338961187125 
 12.516249757954121   5.782183959228418   1.664444569666560 
 11.287366948051979   7.953478032941052   1.665459898903140 
 10.052786192680863  10.129347568890799   1.666643504813385 
  8.800958933005617  12.308563748320124   1.666008569015340 
 -7.493433281710303  14.446093959652451   1.665944589239865 
 -0.001369434313174   1.424762031960516   1.665457749970545 
 -1.263852972022345   3.598404142779689   1.664696917448865 
 -2.513164710286167   5.773093999308588   1.664768147275440 
 -3.746768599978590   7.944735794036471   1.664870916401370 
 -4.980222050014052  10.114346538430333   1.665993618344490 
 -6.230880397316007  12.282702015032749   1.666350413271660 
 -4.988604457129769  14.434387060455609   1.666350413271660 
  2.504918290018084   1.403501468147068   1.666008569015340 
  1.229801415017489   3.557578755945522   1.665339999054270 
 -0.021079622498512   5.756096201828640   1.665118637671170 
 -1.253820548162689   7.936593966977480   1.665413449316700 
 -2.478735461836591  10.107259859102470   1.665340756038270 
 -3.729894251522405  12.273213687467718   1.665556345088280 
 -2.485424356288448  14.435462898537999   1.665993618344490 
  5.018088491597254   1.408995349832919   1.666643504813385 
  3.738492375977862   3.531174300902731   1.665776407462815 
  2.442455195739163   5.691916716122242   1.665428788097175 
  1.240399900179979   7.919667701312076   1.666172393620485 
  0.029578850049323  10.102680880274185   1.665862501315230 
 -1.228543817873778  12.272655305614427   1.665340756038270 
  0.010240389697795  14.452066248618760   1.664870916401370 
  7.519737162735574   1.427751820633247   1.665459898903140 
  6.263578251064764   3.572762219437052   1.665950871898845 
  4.973150308163058   5.627618961138999   1.664615479611675 
  2.525534244891942  10.145585680905134   1.666172393620485 
  1.263765444671862  12.297180818960923   1.665413449316700 
  2.507739296680992  14.469554839301711   1.664768147275440 
 10.014574394591351   1.449155125839872   1.664444569666560 
  8.758720123960471   3.613633357702173   1.664626949953365 
  7.502474461446399   5.788202587398008   1.665309451113555 
  6.376881884568284   8.058953371691556   1.664615479611675 
  5.055850839134335  10.218450750792147   1.665428788097175 
  3.768502365000795  12.319844743625170   1.665118637671170 
  5.015731826919291  14.474964064983757   1.664696917448865 
 12.516590158900131   1.453427258201277   1.665338961187125 
 11.261401014027278   3.617985330401377   1.665168831408885 
 10.013829487907643   5.787546545114826   1.664626949953365 
  8.801653995470669   7.968838362236169   1.665950871898845 
  7.575127251868298  10.176420836066198   1.665776407462815 
  6.297914842556925  12.335808710965631   1.665339999054270 
