 C B N 
 1.0
 17.527899999999772   0.000000000000000   0.000000000000000
 -8.763949999999658  15.179606674993195   0.000000000000000
  0.000000000000001   0.000000000000002  15.000000000000000
 C B N 
   1  48  49
Cartesian
  3.756279151355043   7.951065757844111   1.666026131363370 
  7.510369348891684  14.454797720063292   1.665463824589440 
 15.024381673862958   1.445424655581303   1.665661200007065 
 13.772619408970868   3.614691021780974   1.665656528716020 
 12.519937774020157   5.783120466830793   1.665370542313095 
 11.265519269898656   7.950560288013793   1.665352529381715 
 10.013299303590593  10.119737783328796   1.665659379138165 
  8.761836274234458  12.287381531154708   1.665614347600275 
 -7.512836476950095  14.457293385675602   1.665443681503185 
  0.000927630517974   1.448063283105836   1.665463817494425 
 -1.250037520445930   3.616091359993884   1.665376506302085 
 -2.501457450132853   5.783264120410055   1.665543229195095 
 -3.753378506205035   7.950647139906940   1.665422819419500 
 -5.008357618061689  10.119737783328796   1.665510808883985 
 -6.260541640838841  12.288051743632050   1.665377558075250 
 -5.008070576637347  14.457395668652444   1.665377535185295 
  2.503698390646969   1.447969110362777   1.665614285740320 
  1.255889169708931   3.622668434209606   1.665511730716095 
  0.003994943472336   5.784933205659557   1.665336467830530 
 -1.242842730513984   7.950391263071471   1.665619404933900 
 -2.503008863605051  10.119737783328796   1.665715499464920 
 -3.755354781976367  12.287910025916089   1.665330927651735 
 -2.504193916625715  14.457128878929847   1.665510845093955 
  5.006634403223341   1.447992622023648   1.665659313483165 
  3.753764538213275   3.618026883493119   1.665794142888465 
  2.514273658719006   5.795981235587919   1.665408641416110 
  1.268577925797196   7.953634462623815   1.665537033910395 
  0.000000000000152  10.119737783328796   1.665644234309025 
 -1.251518706900974  12.287431770304524   1.665715552459965 
  0.001814068932085  14.454828239327547   1.665422899084530 
  7.511337002311219   1.448128323935707   1.665352659776715 
  6.256029195045431   3.622677929447082   1.665636717265650 
  4.997571116747849   5.796042291951357   1.665674762362665 
  2.510204465579218  10.104196926951531   1.665537041620500 
  1.257303119713258  12.280770030020173   1.665619490988900 
  2.504783348244496  14.454325881876711   1.665543260800110 
 10.015604140026394   1.445487887753054   1.665370558603095 
  8.762325529168091   3.616091130117138   1.665404627902530 
  7.508085718695026   5.784960022281803   1.665432340767960 
  6.243228581600567   7.953587292180369   1.665674683492635 
  5.001633644403859  10.104217362013442   1.665408637111080 
  3.756063403413628  12.283707208471339   1.665336402610485 
  5.007319697569086  14.454151345129706   1.665376539692010 
 12.519860482860590   1.444848328405925   1.665656564760990 
 11.267139532505638   3.614668997214011   1.665830207544930 
 10.013502541558006   5.783191252198256   1.665404501797530 
  8.754649444821577   7.950413044891614   1.665636597805695 
  7.507558151198769  10.119737783328796   1.665794272308465 
  6.254585942978571  12.280666591140296   1.665511767826035 
  8.762876086679885  13.733360017100757   1.665082220782500 
 16.276335003035637   0.722608766632462   1.665106798121565 
 15.025317992604780   2.891908398516301   1.665107356688640 
 13.773578649670245   5.059868891664398   1.665126739921905 
 12.520009665146588   7.228714883817625   1.664802836462235 
 11.266934639578778   9.396208522723089   1.665102321160950 
 10.014640310247941  11.564738063311037   1.665123223381500 
 -6.260442706193448  13.734223799512616   1.664891895357210 
  1.251964218351126   0.724079456098627   1.665082318237455 
  0.003423609679796   2.896203303599940   1.664993123902410 
 -1.247777791958359   5.059868891664398   1.664979026311335 
 -2.498072381019819   7.228773384370712   1.665040153931220 
 -3.754940848265569   9.396201351732843   1.665114153746880 
 -5.007946528397394  11.565032500878724   1.664934502958820 
 -3.755620187963014  13.734125307573793   1.664934516338835 
  3.755928013418817   0.724331577077076   1.665123112036530 
  2.504286258156368   2.894533709292294   1.665200071195335 
  1.259533350515293   5.072987727857417   1.665007220369970 
  0.015107897622637   7.228344381846284   1.665068126596020 
 -1.249217861887330   9.395642081521183   1.665206056634280 
 -2.502716995918945  11.564698652253000   1.665060048703065 
 -1.250854451161666  13.733404842179276   1.665114215996925 
  6.260076968840877   0.724077371254501   1.665102437380950 
  5.007570883439575   2.894560543026389   1.665228860546655 
  3.757256155371377   5.059868891664398   1.665298033069065 
  2.537074293520354   7.247493764765962   1.664639050446000 
  1.253833498031139   9.395854870595258   1.665217615848000 
  0.002491854643272  11.563665947255469   1.665206125949295 
  1.254628799721072  13.728638344568672   1.665040360601205 
  8.763718610266308   0.722628032303969   1.664802843137325 
  7.508692660489412   2.896289027708375   1.665020228074545 
  6.252440365277110   5.073020991842411   1.665203588872365 
  4.974951525579577   7.247464338256516   1.664744880690600 
  3.755987774267983   9.358714537341598   1.664639074116015 
  2.511589063526685  11.552378839260038   1.665068084356005 
  3.758070789254933  13.730306021227880   1.664978993116350 
 11.268749827079471   0.721428328372800   1.665126717901980 
 10.015644957865140   2.891869629064050   1.665166521062190 
  8.763949999999962   5.059868891664398   1.664933940870090 
  7.496819259484779   7.228350035451582   1.665203282887365 
  6.260588226778090   9.395818672610549   1.665298072594035 
  5.000394236923827  11.552351610277539   1.665007113404985 
  6.257491155735025  13.728566123779517   1.664993129542485 
 13.772158120022079   0.721371337255683   1.665107501993625 
 12.519902537501574   2.891385428123489   1.665214767665160 
 11.267370381113544   5.059868891664398   1.665166431962250 
 10.010054234621922   7.228770199806387   1.665019920409500 
  8.760987716432789   9.395668673933276   1.665229090841700 
  7.509367711027750  11.563589983051077   1.665200240635260 
