 B N Si 
 1.0
 17.527899999999772   0.000000000000000   0.000000000000000
 -8.763949999999658  15.179606674993195   0.000000000000000
  0.000000000000001   0.000000000000002  15.000000000000000
 B N Si 
  48  48   1
Cartesian
  7.526845381630171  14.463772875833222   1.625307164025585 
 15.024075503652472   1.445683887260579   1.633160100413535 
 13.766543709967143   3.613581040767460   1.655441798699520 
 12.516148783531701   5.782140564833068   1.678081438083690 
 11.279241880104731   7.951669993264812   1.683098300009490 
 10.047339735603693  10.125928137731155   1.663742808387045 
  8.796642066683869  12.304345259788494   1.637472737393550 
 -7.494821987641505  14.446874879226105   1.627042510774635 
  0.001413578446699   1.429329966930629   1.626059215227390 
 -1.257568923721174   3.602881718030828   1.643787357664020 
 -2.506319866361847   5.775241550695893   1.668654747862275 
 -3.743313874906046   7.943864067440804   1.677620825652705 
 -4.981885977160337  10.112814670415705   1.665520362733680 
 -6.233136166304988  12.281921682650378   1.643541766230765 
 -4.988965247249757  14.436705175759062   1.635556121007435 
  2.506477550658256   1.409223381810899   1.630039132619505 
  1.239310312082721   3.571456992853045   1.642529377163265 
 -0.007792666143053   5.762521436064514   1.674462300771570 
 -1.237012114616380   7.936769557079514   1.689270323422875 
 -2.476490895092897  10.105951563250645   1.674589333808955 
 -3.730096343707759  12.273385380292643   1.650822722058405 
 -2.484694131183200  14.437785152169957   1.646200503277755 
  5.018469768658066   1.415233781228615   1.644375745314495 
  3.741863944671862   3.541473181319949   1.653535095592920 
  2.465619114612313   5.709633275369384   1.688503875108480 
  1.273034380403923   7.922679872480624   1.716868462065465 
  0.034588703016800  10.099812942793514   1.696058947859220 
 -1.226237749479480  12.271326619082444   1.663178479832070 
  0.012849146754316  14.449453073537423   1.652643997465830 
  7.517434151935573   1.435905055568307   1.658299598745300 
  6.252629402339982   3.594958748418267   1.676514858228660 
  4.948431359815949   5.679383005124993   1.701249453946770 
  2.539199688269727  10.115674086537108   1.711952046778905 
  1.272145570494045  12.282414398871897   1.672453691118210 
  2.509416586887259  14.462592126863603   1.648375191986475 
 10.014646305449286   1.449288788923431   1.658226909579750 
  8.753311301524812   3.619674636701996   1.683388852686285 
  7.487463052522829   5.796685520000078   1.705500838199100 
  6.319542847529281   8.054230184828020   1.704309342382155 
  5.052025940739666  10.189491303308824   1.688598936036045 
  3.769620110534722  12.305122293850570   1.662726696340920 
  5.015095595139792  14.467356335405729   1.634141151218970 
 12.517902601252697   1.450873530301626   1.646696295480255 
 11.260232292501339   3.618718585951645   1.672599279674400 
 10.005722605019281   5.789293341641065   1.694914377568320 
  8.776750137162654   7.967074568759833   1.693535186815320 
  7.567784174273359  10.168307865059960   1.665066450779730 
  6.290631147974912  12.320591820966387   1.641637284194955 
  8.781557150173251  13.740631433204165   1.626754722474255 
 16.277526651809811   0.721940869027134   1.625166717759990 
 15.017687440232541   2.888380535286561   1.641619531875630 
 13.764803864716534   5.059868891664398   1.666367484833235 
 12.526302666091210   7.225987576685379   1.680625449174225 
 11.290465381640445   9.395365525882251   1.671696207428220 
 10.042159997670140  11.568367007797645   1.646369427574245 
 -6.241399306668930  13.723210796463100   1.633212139601910 
  1.255029068102072   0.704238303935466   1.624269049650645 
 -0.010383061359617   2.868070292819788   1.632786032606835 
 -1.259165191872507   5.046760641651814   1.659726649636785 
 -2.494960563685117   7.219103452786387   1.678475360831685 
 -3.733439621204159   9.387871119692722   1.672683405633450 
 -4.983342548638296  11.556102717194532   1.652264353010940 
 -3.735502661610378  13.717309960917184   1.641876692186895 
  3.766590715908654   0.698611813214871   1.633455912677835 
  2.491558238326538   2.844082876936949   1.635784665520815 
  1.227356934166890   5.009485928374925   1.665025329944085 
  0.010525772474136   7.208656372811790   1.696604891670810 
 -1.224521423132124   9.382211166927846   1.689724526849385 
 -2.478729127453433  11.550814790431247   1.661477617271550 
 -1.232723358151889  13.718869755665652   1.651441347519855 
  6.272791504795761   0.704208565991920   1.647788978804925 
  5.010244153672678   2.858998244147743   1.654768202351040 
  3.723281916195185   4.974856635133110   1.676894295348930 
  2.494599075769102   7.142519110489587   1.726118677889895 
  1.292779074913650   9.373355296768890   1.717020510237690 
  0.026590036049973  11.548952073837842   1.678771067240055 
  1.264733844501637  13.730642921465233   1.654937885039070 
  8.769380600918254   0.718554542301337   1.654370561227560 
  7.507883213043847   2.886244433886712   1.673298548606925 
  6.232319083712383   5.055338026830564   1.699810904506890 
  3.825565039290652   9.447974986925111   1.724845350518310 
  2.526394637294011  11.566051921317193   1.683722424739515 
  3.763827636807694  13.746698182923266   1.644192365921895 
 11.264333810844795   0.729077092858309   1.648236416321895 
 10.006373379068508   2.898493890419178   1.672399228220220 
  8.740368760665623   5.073427124648694   1.699160714118795 
  7.501917103442444   7.254411471113739   1.708587606384780 
  6.317189873472261   9.467646530607093   1.683568291943910 
  5.039292641698011  11.611891539110150   1.660602544805235 
  6.274989497881656  13.754582597362425   1.628427682133160 
 13.771484557054876   0.729837856967023   1.634841058501905 
 12.512488741393822   2.895779326453525   1.657388369961540 
 11.256918427755325   5.064704357335516   1.684256970871740 
 10.018351122796366   7.234658507714569   1.694221571580555 
  8.792992296523014   9.411088641312027   1.673204987277225 
  7.546634139659059  11.599740787967979   1.642766828879325 
  4.110826309391553   7.746321052339843   1.715076143346540 
