B In N                                  
   1.0000000000000000     
     8.7639499999999995  -15.1796066749929999    0.0000000000000000
     8.7639499999999995   15.1796066749929999    0.0000000000000000
     0.0000000000000000    0.0000000000000000   15.0000000000000000
   B    In   N 
    49     1    47
Selective dynamics
Direct
  0.9044880600653028  0.9511248079074988  0.1204868808137764   T   T   T
  0.9043781329407857  0.0938599374122646  0.1209392051066477   T   T   T
  0.9044716925363612  0.2367397372584791  0.1199558554524233   T   T   T
  0.9044553821888878  0.3795304417229250  0.1188216236215832   T   T   T
  0.9045271255921276  0.5223214182675626  0.1181468278320327   T   T   T
  0.9045548750689185  0.6651753970711610  0.1183703792063906   T   T   T
  0.9043304817695310  0.8080476197472276  0.1182977791893778   T   T   T
  0.0473996507485188  0.9510653189068426  0.1234179922313125   T   T   T
  0.0473149781053824  0.0939143601083457  0.1244451522505933   T   T   T
  0.0474261235118353  0.2369199314444325  0.1231568060686926   T   T   T
  0.0474270723109603  0.3796212876369624  0.1202270847583563   T   T   T
  0.0475259170941855  0.5223262555753065  0.1193243536170191   T   T   T
  0.0475547289319548  0.6651299056128663  0.1202828419123727   T   T   T
  0.0474078690464904  0.8080511728606689  0.1217696180938206   T   T   T
  0.1903668856443701  0.9510164432504152  0.1229738105870813   T   T   T
  0.1905791623344346  0.0942838278096017  0.1246218339268310   T   T   T
  0.1900951738889407  0.2368388130674986  0.1241900156986285   T   T   T
  0.1905734472339768  0.3800263957847747  0.1180802817417876   T   T   T
  0.1905636660651674  0.5222603851332943  0.1137892405435345   T   T   T
  0.1906025712277561  0.6650329049881474  0.1162566836580900   T   T   T
  0.1904271734183997  0.8079602363296218  0.1199716812038331   T   T   T
  0.3332450567897647  0.9508403652914745  0.1201324668379473   T   T   T
  0.3332883650910353  0.0940045284087629  0.1203939055425241   T   T   T
  0.3337631801994674  0.2375588982904531  0.1173694615792976   T   T   T
  0.3318684977159432  0.3802165288711820  0.1069422679712827   T   T   T
  0.3336225492468267  0.5213140134794101  0.0937646968398094   T   T   T
  0.3333690539677541  0.6646810594656931  0.1021595752696708   T   T   T
  0.3333378599280705  0.8077971692236987  0.1138485207562544   T   T   T
  0.4760506169984230  0.9509411428088980  0.1168153458284149   T   T   T
  0.4760178828986310  0.0938094835755460  0.1182288671388103   T   T   T
  0.4758807337957348  0.2363977154336808  0.1092890383624270   T   T   T
  0.4742209776785667  0.3759123017678374  0.0835079547584059   T   T   T
  0.5347243793300406  0.6354256056510814  0.0120161315219683   T   T   T
  0.4734720389303641  0.6686601233578152  0.0620638141356353   T   T   T
  0.4761632054930671  0.8084930805823063  0.1039255774166967   T   T   T
  0.6187222399201364  0.9508146043933281  0.1131198558500452   T   T   T
  0.6188074060102204  0.0937639929813194  0.1172524653160444   T   T   T
  0.6187681781019433  0.2365502525758651  0.1132901664278817   T   T   T
  0.6184204940243255  0.3788514165354375  0.1024023738777465   T   T   T
  0.6209005214753299  0.5230674208884745  0.0955042460727391   T   T   T
  0.6250508309989563  0.6697623406443961  0.0690197823589396   T   T   T
  0.6184629796496989  0.8079891050995986  0.0976002386672462   T   T   T
  0.7613345451596368  0.9508083717715976  0.1150282819775434   T   T   T
  0.7615700378193441  0.0938198295768007  0.1175687148468844   T   T   T
  0.7616244177126571  0.2366886741188853  0.1170063294981475   T   T   T
  0.7615208518769104  0.3794443607784047  0.1138578959535343   T   T   T
  0.7617989759255194  0.5223753199479448  0.1106966256211454   T   T   T
  0.7618942177086353  0.6652183119719762  0.1076838109646405   T   T   T
  0.7618012610637954  0.8087265273522085  0.1098587377288109   T   T   T
  0.4859701780317253  0.4949543977594844 -0.0000189758064957   T   T   T
  0.9522560117873213  0.9034492056037198  0.1213938420994197   T   T   T
  0.9521334344571654  0.0463429942211925  0.1224585154597378   T   T   T
  0.9519544608964918  0.1891001907201854  0.1216359883281606   T   T   T
  0.9518977765293591  0.3319129527353940  0.1200178704420915   T   T   T
  0.9520336624629013  0.4747242696493129  0.1194450122301137   T   T   T
  0.9521865453463850  0.6175365018731709  0.1198003464869422   T   T   T
  0.9522091304245731  0.7604265861627734  0.1202326829808949   T   T   T
  0.0950614096997531  0.9033410227092085  0.1231583535878201   T   T   T
  0.0950929910674357  0.0462910653414841  0.1249592621132064   T   T   T
  0.0945804044719709  0.1888091866872913  0.1251096348286546   T   T   T
  0.0946626387379091  0.3319245310136865  0.1217798842962444   T   T   T
  0.0947940600738754  0.4747335037589372  0.1187481870306692   T   T   T
  0.0950226136191128  0.6175790538499578  0.1192635928818589   T   T   T
  0.0950432035091028  0.7604295673640229  0.1211199366670462   T   T   T
  0.2379025595950879  0.9033130277566861  0.1213147020956043   T   T   T
  0.2379865071558917  0.0462384717070325  0.1235620407424875   T   T   T
  0.2381525373328270  0.1892471808192633  0.1241892924202879   T   T   T
  0.2366209652308680  0.3309463397628638  0.1207721361459654   T   T   T
  0.2375308257962718  0.4748368144017689  0.1106269604299089   T   T   T
  0.2377658899367659  0.6176174569162856  0.1118902251701713   T   T   T
  0.2378509309063212  0.7604679740461915  0.1168116970880068   T   T   T
  0.3807418316935708  0.9033680859067830  0.1175806915247324   T   T   T
  0.3808001879975870  0.0461827350715194  0.1203320043344979   T   T   T
  0.3808895743077064  0.1889708553051429  0.1159001985460287   T   T   T
  0.3811816829255721  0.3319565368327476  0.1079043500681015   T   T   T
  0.3756831219667529  0.4704773964806618  0.0889111579922532   T   T   T
  0.3795744113601052  0.6179057649189822  0.0862915796774472   T   T   T
  0.3805268641384948  0.7607159864913395  0.1061754949383588   T   T   T
  0.5236439211192743  0.9039006161218496  0.1130207121433904   T   T   T
  0.5236526358564159  0.0463654228993366  0.1185179302124457   T   T   T
  0.5236593679954585  0.1889534265838222  0.1145406429546184   T   T   T
  0.5235730992568963  0.3308500490041526  0.0961153446012901   T   T   T
  0.5232554507398401  0.7624981504815508  0.0900419023983366   T   T   T
  0.6663855767946896  0.9034871805015008  0.1098210492118410   T   T   T
  0.6664661095137348  0.0463655646289675  0.1166032512870923   T   T   T
  0.6664511280700809  0.1891045201663643  0.1162535252238897   T   T   T
  0.6663554380033446  0.3317561697254332  0.1099295965816610   T   T   T
  0.6663917661936694  0.4743813706510043  0.1034303914455556   T   T   T
  0.6676569452465217  0.6176344164060186  0.0936615506957580   T   T   T
  0.6687222905865308  0.7625751326829679  0.0970015232203897   T   T   T
  0.8097766571785909  0.9040146714765547  0.1167122945519775   T   T   T
  0.8092067631071519  0.0463413693337007  0.1182320471308823   T   T   T
  0.8092079382470974  0.1891621561553511  0.1182311437927405   T   T   T
  0.8091458437297964  0.3319227316991993  0.1169446365244808   T   T   T
  0.8092836341655877  0.4746549502938902  0.1145747376801078   T   T   T
  0.8094647405868751  0.6174302692278618  0.1139250543915249   T   T   T
  0.8096961240317709  0.7606586095399932  0.1121470581920718   T   T   T

  0.00000000E+00  0.00000000E+00  0.00000000E+00
  0.00000000E+00  0.00000000E+00  0.00000000E+00
  0.00000000E+00  0.00000000E+00  0.00000000E+00
  0.00000000E+00  0.00000000E+00  0.00000000E+00
  0.00000000E+00  0.00000000E+00  0.00000000E+00
  0.00000000E+00  0.00000000E+00  0.00000000E+00
  0.00000000E+00  0.00000000E+00  0.00000000E+00
  0.00000000E+00  0.00000000E+00  0.00000000E+00
  0.00000000E+00  0.00000000E+00  0.00000000E+00
  0.00000000E+00  0.00000000E+00  0.00000000E+00
  0.00000000E+00  0.00000000E+00  0.00000000E+00
  0.00000000E+00  0.00000000E+00  0.00000000E+00
  0.00000000E+00  0.00000000E+00  0.00000000E+00
  0.00000000E+00  0.00000000E+00  0.00000000E+00
  0.00000000E+00  0.00000000E+00  0.00000000E+00
  0.00000000E+00  0.00000000E+00  0.00000000E+00
  0.00000000E+00  0.00000000E+00  0.00000000E+00
  0.00000000E+00  0.00000000E+00  0.00000000E+00
  0.00000000E+00  0.00000000E+00  0.00000000E+00
  0.00000000E+00  0.00000000E+00  0.00000000E+00
  0.00000000E+00  0.00000000E+00  0.00000000E+00
  0.00000000E+00  0.00000000E+00  0.00000000E+00
  0.00000000E+00  0.00000000E+00  0.00000000E+00
  0.00000000E+00  0.00000000E+00  0.00000000E+00
  0.00000000E+00  0.00000000E+00  0.00000000E+00
  0.00000000E+00  0.00000000E+00  0.00000000E+00
  0.00000000E+00  0.00000000E+00  0.00000000E+00
  0.00000000E+00  0.00000000E+00  0.00000000E+00
  0.00000000E+00  0.00000000E+00  0.00000000E+00
  0.00000000E+00  0.00000000E+00  0.00000000E+00
  0.00000000E+00  0.00000000E+00  0.00000000E+00
  0.00000000E+00  0.00000000E+00  0.00000000E+00
  0.00000000E+00  0.00000000E+00  0.00000000E+00
  0.00000000E+00  0.00000000E+00  0.00000000E+00
  0.00000000E+00  0.00000000E+00  0.00000000E+00
  0.00000000E+00  0.00000000E+00  0.00000000E+00
  0.00000000E+00  0.00000000E+00  0.00000000E+00
  0.00000000E+00  0.00000000E+00  0.00000000E+00
  0.00000000E+00  0.00000000E+00  0.00000000E+00
  0.00000000E+00  0.00000000E+00  0.00000000E+00
  0.00000000E+00  0.00000000E+00  0.00000000E+00
  0.00000000E+00  0.00000000E+00  0.00000000E+00
  0.00000000E+00  0.00000000E+00  0.00000000E+00
  0.00000000E+00  0.00000000E+00  0.00000000E+00
  0.00000000E+00  0.00000000E+00  0.00000000E+00
  0.00000000E+00  0.00000000E+00  0.00000000E+00
  0.00000000E+00  0.00000000E+00  0.00000000E+00
  0.00000000E+00  0.00000000E+00  0.00000000E+00
  0.00000000E+00  0.00000000E+00  0.00000000E+00
  0.00000000E+00  0.00000000E+00  0.00000000E+00
  0.00000000E+00  0.00000000E+00  0.00000000E+00
  0.00000000E+00  0.00000000E+00  0.00000000E+00
  0.00000000E+00  0.00000000E+00  0.00000000E+00
  0.00000000E+00  0.00000000E+00  0.00000000E+00
  0.00000000E+00  0.00000000E+00  0.00000000E+00
  0.00000000E+00  0.00000000E+00  0.00000000E+00
  0.00000000E+00  0.00000000E+00  0.00000000E+00
  0.00000000E+00  0.00000000E+00  0.00000000E+00
  0.00000000E+00  0.00000000E+00  0.00000000E+00
  0.00000000E+00  0.00000000E+00  0.00000000E+00
  0.00000000E+00  0.00000000E+00  0.00000000E+00
  0.00000000E+00  0.00000000E+00  0.00000000E+00
  0.00000000E+00  0.00000000E+00  0.00000000E+00
  0.00000000E+00  0.00000000E+00  0.00000000E+00
  0.00000000E+00  0.00000000E+00  0.00000000E+00
  0.00000000E+00  0.00000000E+00  0.00000000E+00
  0.00000000E+00  0.00000000E+00  0.00000000E+00
  0.00000000E+00  0.00000000E+00  0.00000000E+00
  0.00000000E+00  0.00000000E+00  0.00000000E+00
  0.00000000E+00  0.00000000E+00  0.00000000E+00
  0.00000000E+00  0.00000000E+00  0.00000000E+00
  0.00000000E+00  0.00000000E+00  0.00000000E+00
  0.00000000E+00  0.00000000E+00  0.00000000E+00
  0.00000000E+00  0.00000000E+00  0.00000000E+00
  0.00000000E+00  0.00000000E+00  0.00000000E+00
  0.00000000E+00  0.00000000E+00  0.00000000E+00
  0.00000000E+00  0.00000000E+00  0.00000000E+00
  0.00000000E+00  0.00000000E+00  0.00000000E+00
  0.00000000E+00  0.00000000E+00  0.00000000E+00
  0.00000000E+00  0.00000000E+00  0.00000000E+00
  0.00000000E+00  0.00000000E+00  0.00000000E+00
  0.00000000E+00  0.00000000E+00  0.00000000E+00
  0.00000000E+00  0.00000000E+00  0.00000000E+00
  0.00000000E+00  0.00000000E+00  0.00000000E+00
  0.00000000E+00  0.00000000E+00  0.00000000E+00
  0.00000000E+00  0.00000000E+00  0.00000000E+00
  0.00000000E+00  0.00000000E+00  0.00000000E+00
  0.00000000E+00  0.00000000E+00  0.00000000E+00
  0.00000000E+00  0.00000000E+00  0.00000000E+00
  0.00000000E+00  0.00000000E+00  0.00000000E+00
  0.00000000E+00  0.00000000E+00  0.00000000E+00
  0.00000000E+00  0.00000000E+00  0.00000000E+00
  0.00000000E+00  0.00000000E+00  0.00000000E+00
  0.00000000E+00  0.00000000E+00  0.00000000E+00
  0.00000000E+00  0.00000000E+00  0.00000000E+00
  0.00000000E+00  0.00000000E+00  0.00000000E+00
  0.00000000E+00  0.00000000E+00  0.00000000E+00
