 Pb N B 
 1.0
 14.936314146199660   0.000000000000000   0.000000000000000
 -7.468157073099825  12.935227489513863   0.000000000000000
  0.000000000000001   0.000000000000001  13.341276283792837
 Pb N B 
   1 143 143
Cartesian
  4.380594889860219   5.403632636541282   5.002978606422314 
  1.248232353488526   0.720511423122204   1.664855974225649 
  4.982358065848168   7.189554850132767   1.641701418737252 
  6.227149875818774   0.720069674360084   1.661508277870079 
  9.960650692166631   7.188008019774983   1.666348473086973 
 11.205911192451627   0.720745848137615   1.667710947117854 
 -3.730970188358032   9.343903348092010   8.335973220453285 
  1.247787877366652   9.344577644956921   8.344448934974562 
  2.493193737845067   2.876313768131506   8.340279365877588 
  6.226744844924180   9.344584683455547   8.350252751647311 
  7.472055003444106   2.875692368172972   8.352488899905390 
 12.450630048731499   2.876596080006595   8.338321803462687 
 -1.241521193721915   9.344123847796290   1.668477577127312 
  0.003847198481352   2.876716178748544   1.665229412474768 
  4.982924591013754   2.875835820151063   1.657785152802442 
  3.737064454995629   9.344885763875322   1.653468312939239 
  8.715937202781365   9.343915024256622   1.666348473086973 
  9.961263275980130   2.876268450364071   1.664216748098369 
 -4.975533667021611  11.499703573590065   8.337435397749454 
  0.003415442213924  11.499951897160567   8.338026076113469 
  1.248171970346163   5.032754725968830   8.340279365877588 
  6.228130484007342   5.031813727213124   8.364255794107375 
  4.982167493075729  11.500315322106493   8.341740464746245 
 11.205728760854370   5.032250394978046   8.338847094511063 
 -1.241288318148276   5.032487712890171   1.664855974225649 
 -2.486054732694496  11.499719169020313   1.668477577127312 
  2.492754232533505  11.500342519271086   1.665170556817702 
  3.739076750013357   5.033251965810665   1.702012345721831 
  7.471535369649143  11.500063073833470   1.667110118333550 
  8.716634455116274   5.031969373364941   1.655704461197318 
  0.003156009087601   7.188509514087467   8.342533774324266 
  1.248232353488526   0.720511423122204   8.341101238618858 
  4.982358065848169   7.189554850132768   8.364255794107375 
  6.227149875818775   0.720069674360084   8.344448934974562 
  9.960650692166631   7.188008019774984   8.339608739757642 
 -2.486274166924246   7.188179646197892   1.668521815095174 
 11.205911192451627   0.720745848137616   8.338246265726839 
  3.737624168056348   0.720220923505344   1.663423438520360 
  2.492623481837636   7.189163867389259   1.657785152802442 
  7.471294302573913   7.188048774455960   1.652374141669517 
  8.716580199144550   0.720359727634204   1.665170556817702 
  2.492623481837637   7.189163867389260   8.348172060042199 
 13.695291688144763   0.720778882310833   1.667635409381941 
 -1.241521193721915   9.344123847796290   8.337479635717303 
  0.003847198481353   2.876716178748545   8.340727800369873 
  4.982924591013755   2.875835820151063   8.348172060042199 
  3.737064454995629   9.344885763875322   8.352488899905390 
  8.715937202781365   9.343915024256622   8.339608739757642 
  9.961263275980130   2.876268450364071   8.341740464746245 
 -3.730970188358032   9.343903348092010   1.669983992391357 
  1.247787877366651   9.344577644956921   1.661508277870079 
  2.493193737845067   2.876313768131505   1.665677846967039 
  6.226744844924179   9.344584683455547   1.655704461197318 
  7.472055003444105   2.875692368172972   1.653468312939239 
 12.450630048731499   2.876596080006594   1.667635409381941 
 -1.241288318148276   5.032487712890171   8.341101238618858 
 -2.486054732694495  11.499719169020313   8.337479635717303 
  2.492754232533505  11.500342519271086   8.340786656026941 
  3.739076750013357   5.033251965810666   8.303944867122796 
  7.471535369649144  11.500063073833470   8.338847094511063 
 -4.975533667021612  11.499703573590065   1.668521815095174 
  8.716634455116274   5.031969373364942   8.350252751647311 
  0.003415442213924  11.499951897160567   1.667931136731065 
  1.248171970346162   5.032754725968829   1.665677846967039 
  0.003156009087601   7.188509514087466   1.663423438520360 
  6.228130484007341   5.031813727213123   1.641701418737252 
  4.982167493075728  11.500315322106493   1.664216748098369 
 11.205728760854370   5.032250394978045   1.667110118333550 
 -2.486274166924245   7.188179646197893   8.337435397749454 
  3.737624168056349   0.720220923505344   8.342533774324266 
  7.471294302573914   7.188048774455961   8.353583071175018 
  8.716580199144550   0.720359727634204   8.340786656026941 
 13.695291688144763   0.720778882310834   8.338321803462687 
  0.011048002827296   1.446693241451252   5.002978606422314 
  3.604993392285037   8.090247245781077   5.002978606422314 
  4.995446407793796   1.305031313039803   5.002978606422314 
  8.645481815792177   7.865966251291479   5.002978606422314 
  9.975725979127683   1.420647684159957   5.002978606422314 
 -4.977281994429574  10.061614643517068  11.673616748318732 
  0.001495236629865  10.061593805329297  11.673616748318732 
  1.246193096473090   3.593984917380818  11.673616748318732 
  4.980296981857923  10.061631416110838  11.673616748318732 
  6.224953742020618   3.593950043718637  11.673616748318732 
 11.203779492282127   3.594012659107455  11.673616748318732 
 -2.541619992262830  10.030575003968304   5.002978606422314 
 -1.230988591039610   3.597963726888537   5.002978606422314 
  3.788648229177402   3.378312688518860   5.002978606422314 
  2.421007613195524  10.138997850693622   5.002978606422314 
  7.443487837822133  10.070412855348328   5.002978606422314 
  8.748702174003784   3.541829125811984   5.002978606422314 
 -6.221975376009752  12.217480950146285  11.673616748318732 
 -1.243199307842973  12.217467996260067  11.673616748318732 
  0.001512857249039   5.749796428910402  11.673616748318732 
  4.980120049180907   5.749768648661028  11.673616748318732 
  3.735579726207297  12.217481648827295  11.673616748318732 
  9.959121235921135   5.749872976894270  11.673616748318732 
 -2.514328551037854   5.742672043530458   5.002978606422314 
 -3.766480189243833  12.159919474103816   5.002978606422314 
  1.227220438741450  12.206516041341279   5.002978606422314 
  2.330643033740034   5.903651764715789   5.002978606422314 
  6.222779266884235  12.238325666606645   5.002978606422314 
  7.484689576031693   5.678613225149538   5.002978606422314 
 -1.243187503868010   7.905681543385329  11.673616748318732 
  0.001489523259181   1.438108297717481  11.673616748318732 
  3.735543217769490   7.905735552618292  11.673616748318732 
  4.980253088407700   1.438182723371140  11.673616748318732 
  8.714383404405741   7.905746602024995  11.673616748318732 
 -3.790563610461258   7.881228891657086   5.002978606422314 
  9.959053650224918   1.438108612848649  11.673616748318732 
  2.478651975527332   1.383427013312769   5.002978606422314 
  1.138527782690237   7.985410332377915   5.002978606422314 
  6.170782408228296   7.954367196213965   5.002978606422314 
  7.501747823180864   1.338897666940786   5.002978606422314 
  1.246243626893799   7.905676826656166  11.673616748318732 
 12.461858783652239   1.445867528005348   5.002978606422314 
 -2.487902348278196  10.061588900183102  11.673616748318732 
 -1.243202610187172   3.593978312627882  11.673616748318732 
  3.735550974806783   3.594127734696811  11.673616748318732 
  2.490853756075344  10.061623011781451  11.673616748318732 
  7.469710993451290  10.061657997734432  11.673616748318732 
  8.714391209763182   3.593990493129202  11.673616748318732 
 -5.027480136148869  10.023631158869616   5.002978606422314 
 -0.060773700050435  10.070351149830190   5.002978606422314 
  1.271681134594308   3.608700443051089   5.002978606422314 
  4.952279394785441  10.117426266430041   5.002978606422314 
  6.319470642852736   3.388634731807914   5.002978606422314 
 11.220704869477240   3.581664590466203   5.002978606422314 
 -2.487881579058833   5.749840773599466  11.673616748318732 
 -3.732615465265700  12.217497254308773  11.673616748318732 
  1.246164978501919  12.217453676471749  11.673616748318732 
  2.490995719063680   5.749760670470757  11.673616748318732 
  6.225010319417676  12.217493825666420  11.673616748318732 
 -6.241407164352002  12.198161565593962   5.002978606422314 
  7.469692925080296   5.749856829001295  11.673616748318732 
 -1.266749693375619  12.159162842977768   5.002978606422314 
 -0.051976765459093   5.766604567795349   5.002978606422314 
 -1.309983686208099   7.905142722230621   5.002978606422314 
  3.728794282840581  12.240650773541724   5.002978606422314 
  9.953591587206798   5.722785629144922   5.002978606422314 
 -3.732569876972723   7.905710015285146  11.673616748318732 
  2.490840511616645   1.438154454859420  11.673616748318732 
  6.224982853545381   7.905757913592475  11.673616748318732 
  7.469662318509097   1.438073620487168  11.673616748318732 
 12.448455305847562   1.438129026486679  11.673616748318732 
  1.236387487131215   0.697380246946941   5.002978606422314 
  4.841643189576450   7.483046040714044   5.002978606422314 
  6.240730060401403   0.634872378291692   5.002978606422314 
  9.908475513979758   7.158311140765201   5.002978606422314 
 11.220753609043619   0.729315121352375   5.002978606422314 
 -3.732514977666214   9.343011463569040  11.673616748318732 
  1.246108766627671   9.342920637111648  11.673616748318732 
  2.490595937656616   2.875289905826420  11.673616748318732 
  6.225020593797220   9.343245186447625  11.673616748318732 
  7.469747088282009   2.875193252809894  11.673616748318732 
 12.448616850907179   2.875377014196341  11.673616748318732 
 -1.296856042410010   9.334041354416962   5.002978606422314 
  0.027718760492419   2.890498431501670   5.002978606422314 
  5.007808441788713   2.708169071152681   5.002978606422314 
  3.661781626225286   9.484073109791328   5.002978606422314 
  8.664131362052373   9.313578434004651   5.002978606422314 
  9.993148517610523   2.848640352588797   5.002978606422314 
 -4.977292474289445  11.499007329113477  11.673616748318732 
  0.001456156609156  11.498820703089299  11.673616748318732 
  1.245986379485695   5.031016896164322  11.673616748318732 
  6.225144714865826   5.030946129320228  11.673616748318732 
  4.980339175825970  11.499077960190405  11.673616748318732 
 11.204000701380647   5.031167930734880  11.673616748318732 
 -1.267242937514175   5.033795345808030   5.002978606422314 
 -2.522453852438460  11.456839031031404   5.002978606422314 
  2.470007846861414  11.542957632348180   5.002978606422314 
  7.452552289827029  11.503929501195401   5.002978606422314 
  8.743087554935219   4.981205442764510   5.002978606422314 
  0.001470467497266   7.186913894031226  11.673616748318732 
  1.246143577520270   0.719624258849701  11.673616748318732 
  4.980113819461947   7.187402897152737  11.673616748318732 
  6.224875309561066   0.719444025726894  11.673616748318732 
  9.959265736752419   7.187113239634360  11.673616748318732 
 -2.540166657552081   7.175097121411131   5.002978606422314 
 11.203875134380120   0.719570329461757  11.673616748318732 
  3.716345682554990   0.651921984277084   5.002978606422314 
  2.359861743222525   7.294547288803622   5.002978606422314 
  7.397558667989267   7.145477485979311   5.002978606422314 
  8.742112776818415   0.679353223259346   5.002978606422314 
  2.490696005850796   7.187018909148538  11.673616748318732 
 13.705301018118989   0.737201447698277   5.002978606422314 
 -1.243194849286018   9.342896207677448  11.673616748318732 
  0.001496925418456   2.875359247963021  11.673616748318732 
  4.980103264693835   2.875239056101598  11.673616748318732 
  3.735478250830730   9.343136608396721  11.673616748318732 
  8.714469822741648   9.343163007755171  11.673616748318732 
  9.959277530502250   2.875303762137633  11.673616748318732 
 -3.783865482367933   9.313364235856424   5.002978606422314 
  1.180794946929010   9.398937077827730   5.002978606422314 
  2.506767057517568   2.828155151652498   5.002978606422314 
  6.196008541337780   9.392875705207725   5.002978606422314 
  7.554953366507512   2.740901853031121   5.002978606422314 
 12.469857072539398   2.877053131345504   5.002978606422314 
 -1.243101012929768   5.031122361975177  11.673616748318732 
 -2.487954728006176  11.498883560844051  11.673616748318732 
  2.490877981372151  11.498927950449231  11.673616748318732 
  3.735088679276942   5.030949452097459  11.673616748318732 
  7.469733898379094  11.499107762551414  11.673616748318732 
 -5.013809711146505  11.459572570026525   5.002978606422314 
  8.714612291115692   5.031145876590362  11.673616748318732 
 -0.022285791110338  11.485113283182422   5.002978606422314 
  1.213252044900369   5.068588873858602   5.002978606422314 
 -0.066631850086341   7.204231274703465   5.002978606422314 
  6.411943872701926   4.763205474380586   5.002978606422314 
  4.974183479359373  11.541742800251724   5.002978606422314 
 11.199585645260671   5.013877351928998   5.002978606422314 
 -2.487756535962231   7.187004596662051  11.673616748318732 
  3.735399549757681   0.719559011697113  11.673616748318732 
  7.469785616088255   7.187177733907126  11.673616748318732 
  8.714417021028787   0.719442130875442  11.673616748318732 
 13.693229347272053   0.719644934757230  11.673616748318732 
  0.003909891674504   1.439752507388643   1.667007027548712 
  3.735886784835773   7.908256599156855   1.649596768221711 
  4.982100178575482   1.438002924004773   1.661078697403039 
  8.716656502300612   7.907058975706767   1.661325732315378 
  9.961358422632413   1.438917005180052   1.665998229440747 
 -4.975274344076977  10.062938320759658   8.337142398334958 
  0.002999096632343  10.062833435606045   8.339407329158762 
  1.248559253164147   3.595351018583285   8.336897408249921 
  4.981672495196227  10.063688302142925   8.349188162780097 
  6.227308815900389   3.592987058256466   8.356360444622929 
 11.206347275460072   3.594849171437985   8.339244944767236 
 -2.486038323164121  10.062665095584487   1.669611159218668 
 -1.240568498635136   3.595252308326486   1.667007027548712 
  3.737345691167991   3.591441963615403   1.678628952862717 
  2.491977134595395  10.063394725164327   1.660128421717410 
  7.471666690972105  10.063501465760659   1.662993689328880 
  8.716860281988827   3.594153279607347   1.656769050064544 
 -6.219923367225393  12.219132351371675   8.338476275873095 
 -1.241373826530678  12.218150562087416   8.339407329158762 
  0.003476625230629   5.751050422163503   8.340278374301825 
  4.984864995100495   5.752508144464992   8.354825764581474 
  3.737432200706205  12.219073444116527   8.339958983403788 
  9.961695574823462   5.750644926616054   8.342963523515641 
 -2.485425419253685   5.750792164722917   1.667480936971439 
 -3.730747841990977  12.218534195317273   1.667376482856440 
  1.248028386321744  12.218529515478100   1.666632344399395 
  2.489567131259103   5.752657825972737   1.678628952862717 
  6.227018651935452  12.219299334964687   1.666712268077391 
  7.473111678076105   5.750800746439107   1.645538253269961 
 -1.241355674975126   7.906780482081803   8.338580729988282 
  0.003909891674504   1.439752507388644   8.338950185295822 
  3.735886784835774   7.908256599156856   8.356360444622929 
  4.982100178575483   1.438002924004773   8.344878515441589 
  8.716656502300612   7.907058975706768   8.344631480529250 
 -3.730419713677771   7.906786852870841   1.668814814509576 
  9.961358422632413   1.438917005180053   8.339958983403788 
  2.492908385620800   1.439228131192064   1.665678838542897 
  1.247011461158786   7.907366353347808   1.661078697403039 
  6.227509686523550   7.908246681817126   1.645538253269961 
  7.471758356567039   1.438160638131950   1.660128421717410 
  1.247011461158787   7.907366353347808   8.344878515441589 
 12.450839046598560   1.439505279851075   1.668336742750280 
 -2.486038323164121  10.062665095584487   8.336346053625959 
 -1.240568498635136   3.595252308326486   8.338950185295822 
  3.737345691167991   3.591441963615404   8.327328259981911 
  2.491977134595395  10.063394725164327   8.345828791127138 
  7.471666690972106  10.063501465760659   8.342963523515641 
  8.716860281988827   3.594153279607348   8.349188162780097 
 -4.975274344076978  10.062938320759658   1.668814814509576 
  0.002999096632342  10.062833435606045   1.666549883685866 
  1.248559253164146   3.595351018583284   1.669059804594827 
  4.981672495196226  10.063688302142925   1.656769050064544 
  6.227308815900388   3.592987058256465   1.649596768221711 
 11.206347275460072   3.594849171437984   1.666712268077391 
 -2.485425419253684   5.750792164722918   8.338476275873095 
 -3.730747841990977  12.218534195317273   8.338580729988282 
  1.248028386321745  12.218529515478100   8.339324868445232 
  2.489567131259103   5.752657825972738   8.327328259981911 
  6.227018651935452  12.219299334964687   8.339244944767236 
 -6.219923367225394  12.219132351371675   1.667480936971439 
  7.473111678076106   5.750800746439108   8.360418959574574 
 -1.241373826530679  12.218150562087416   1.666549883685866 
  0.003476625230628   5.751050422163503   1.665678838542897 
 -1.241355674975127   7.906780482081802   1.667376482856440 
  4.984864995100494   5.752508144464991   1.651131448263141 
  3.737432200706205  12.219073444116527   1.665998229440747 
  9.961695574823462   5.750644926616054   1.662993689328880 
 -3.730419713677771   7.906786852870842   8.337142398334958 
  2.492908385620801   1.439228131192065   8.340278374301825 
  6.227509686523551   7.908246681817126   8.360418959574574 
  7.471758356567040   1.438160638131951   8.345828791127138 
 12.450839046598560   1.439505279851075   8.337620470094441 
Generated by cif2cell 2.0.0.  :  Failed to get author information, No journal information. Species order: Pb N B 
 1.0
 14.936314146199660   0.000000000000000   0.000000000000000
 -7.468157073099825  12.935227489513863   0.000000000000000
  0.000000000000001   0.000000000000001  13.341276283792837
 Pb N B 
   1 143 143
Cartesian
  4.380594889860219   5.403632636541282   5.002978606422314 
  1.248232353488526   0.720511423122204   1.664855974225649 
  4.982358065848168   7.189554850132767   1.641701418737252 
  6.227149875818774   0.720069674360084   1.661508277870079 
  9.960650692166631   7.188008019774983   1.666348473086973 
 11.205911192451627   0.720745848137615   1.667710947117854 
 -3.730970188358032   9.343903348092010   8.335973220453285 
  1.247787877366652   9.344577644956921   8.344448934974562 
  2.493193737845067   2.876313768131506   8.340279365877588 
  6.226744844924180   9.344584683455547   8.350252751647311 
  7.472055003444106   2.875692368172972   8.352488899905390 
 12.450630048731499   2.876596080006595   8.338321803462687 
 -1.241521193721915   9.344123847796290   1.668477577127312 
  0.003847198481352   2.876716178748544   1.665229412474768 
  4.982924591013754   2.875835820151063   1.657785152802442 
  3.737064454995629   9.344885763875322   1.653468312939239 
  8.715937202781365   9.343915024256622   1.666348473086973 
  9.961263275980130   2.876268450364071   1.664216748098369 
 -4.975533667021611  11.499703573590065   8.337435397749454 
  0.003415442213924  11.499951897160567   8.338026076113469 
  1.248171970346163   5.032754725968830   8.340279365877588 
  6.228130484007342   5.031813727213124   8.364255794107375 
  4.982167493075729  11.500315322106493   8.341740464746245 
 11.205728760854370   5.032250394978046   8.338847094511063 
 -1.241288318148276   5.032487712890171   1.664855974225649 
 -2.486054732694496  11.499719169020313   1.668477577127312 
  2.492754232533505  11.500342519271086   1.665170556817702 
  3.739076750013357   5.033251965810665   1.702012345721831 
  7.471535369649143  11.500063073833470   1.667110118333550 
  8.716634455116274   5.031969373364941   1.655704461197318 
  0.003156009087601   7.188509514087467   8.342533774324266 
  1.248232353488526   0.720511423122204   8.341101238618858 
  4.982358065848169   7.189554850132768   8.364255794107375 
  6.227149875818775   0.720069674360084   8.344448934974562 
  9.960650692166631   7.188008019774984   8.339608739757642 
 -2.486274166924246   7.188179646197892   1.668521815095174 
 11.205911192451627   0.720745848137616   8.338246265726839 
  3.737624168056348   0.720220923505344   1.663423438520360 
  2.492623481837636   7.189163867389259   1.657785152802442 
  7.471294302573913   7.188048774455960   1.652374141669517 
  8.716580199144550   0.720359727634204   1.665170556817702 
  2.492623481837637   7.189163867389260   8.348172060042199 
 13.695291688144763   0.720778882310833   1.667635409381941 
 -1.241521193721915   9.344123847796290   8.337479635717303 
  0.003847198481353   2.876716178748545   8.340727800369873 
  4.982924591013755   2.875835820151063   8.348172060042199 
  3.737064454995629   9.344885763875322   8.352488899905390 
  8.715937202781365   9.343915024256622   8.339608739757642 
  9.961263275980130   2.876268450364071   8.341740464746245 
 -3.730970188358032   9.343903348092010   1.669983992391357 
  1.247787877366651   9.344577644956921   1.661508277870079 
  2.493193737845067   2.876313768131505   1.665677846967039 
  6.226744844924179   9.344584683455547   1.655704461197318 
  7.472055003444105   2.875692368172972   1.653468312939239 
 12.450630048731499   2.876596080006594   1.667635409381941 
 -1.241288318148276   5.032487712890171   8.341101238618858 
 -2.486054732694495  11.499719169020313   8.337479635717303 
  2.492754232533505  11.500342519271086   8.340786656026941 
  3.739076750013357   5.033251965810666   8.303944867122796 
  7.471535369649144  11.500063073833470   8.338847094511063 
 -4.975533667021612  11.499703573590065   1.668521815095174 
  8.716634455116274   5.031969373364942   8.350252751647311 
  0.003415442213924  11.499951897160567   1.667931136731065 
  1.248171970346162   5.032754725968829   1.665677846967039 
  0.003156009087601   7.188509514087466   1.663423438520360 
  6.228130484007341   5.031813727213123   1.641701418737252 
  4.982167493075728  11.500315322106493   1.664216748098369 
 11.205728760854370   5.032250394978045   1.667110118333550 
 -2.486274166924245   7.188179646197893   8.337435397749454 
  3.737624168056349   0.720220923505344   8.342533774324266 
  7.471294302573914   7.188048774455961   8.353583071175018 
  8.716580199144550   0.720359727634204   8.340786656026941 
 13.695291688144763   0.720778882310834   8.338321803462687 
  0.011048002827296   1.446693241451252   5.002978606422314 
  3.604993392285037   8.090247245781077   5.002978606422314 
  4.995446407793796   1.305031313039803   5.002978606422314 
  8.645481815792177   7.865966251291479   5.002978606422314 
  9.975725979127683   1.420647684159957   5.002978606422314 
 -4.977281994429574  10.061614643517068  11.673616748318732 
  0.001495236629865  10.061593805329297  11.673616748318732 
  1.246193096473090   3.593984917380818  11.673616748318732 
  4.980296981857923  10.061631416110838  11.673616748318732 
  6.224953742020618   3.593950043718637  11.673616748318732 
 11.203779492282127   3.594012659107455  11.673616748318732 
 -2.541619992262830  10.030575003968304   5.002978606422314 
 -1.230988591039610   3.597963726888537   5.002978606422314 
  3.788648229177402   3.378312688518860   5.002978606422314 
  2.421007613195524  10.138997850693622   5.002978606422314 
  7.443487837822133  10.070412855348328   5.002978606422314 
  8.748702174003784   3.541829125811984   5.002978606422314 
 -6.221975376009752  12.217480950146285  11.673616748318732 
 -1.243199307842973  12.217467996260067  11.673616748318732 
  0.001512857249039   5.749796428910402  11.673616748318732 
  4.980120049180907   5.749768648661028  11.673616748318732 
  3.735579726207297  12.217481648827295  11.673616748318732 
  9.959121235921135   5.749872976894270  11.673616748318732 
 -2.514328551037854   5.742672043530458   5.002978606422314 
 -3.766480189243833  12.159919474103816   5.002978606422314 
  1.227220438741450  12.206516041341279   5.002978606422314 
  2.330643033740034   5.903651764715789   5.002978606422314 
  6.222779266884235  12.238325666606645   5.002978606422314 
  7.484689576031693   5.678613225149538   5.002978606422314 
 -1.243187503868010   7.905681543385329  11.673616748318732 
  0.001489523259181   1.438108297717481  11.673616748318732 
  3.735543217769490   7.905735552618292  11.673616748318732 
  4.980253088407700   1.438182723371140  11.673616748318732 
  8.714383404405741   7.905746602024995  11.673616748318732 
 -3.790563610461258   7.881228891657086   5.002978606422314 
  9.959053650224918   1.438108612848649  11.673616748318732 
  2.478651975527332   1.383427013312769   5.002978606422314 
  1.138527782690237   7.985410332377915   5.002978606422314 
  6.170782408228296   7.954367196213965   5.002978606422314 
  7.501747823180864   1.338897666940786   5.002978606422314 
  1.246243626893799   7.905676826656166  11.673616748318732 
 12.461858783652239   1.445867528005348   5.002978606422314 
 -2.487902348278196  10.061588900183102  11.673616748318732 
 -1.243202610187172   3.593978312627882  11.673616748318732 
  3.735550974806783   3.594127734696811  11.673616748318732 
  2.490853756075344  10.061623011781451  11.673616748318732 
  7.469710993451290  10.061657997734432  11.673616748318732 
  8.714391209763182   3.593990493129202  11.673616748318732 
 -5.027480136148869  10.023631158869616   5.002978606422314 
 -0.060773700050435  10.070351149830190   5.002978606422314 
  1.271681134594308   3.608700443051089   5.002978606422314 
  4.952279394785441  10.117426266430041   5.002978606422314 
  6.319470642852736   3.388634731807914   5.002978606422314 
 11.220704869477240   3.581664590466203   5.002978606422314 
 -2.487881579058833   5.749840773599466  11.673616748318732 
 -3.732615465265700  12.217497254308773  11.673616748318732 
  1.246164978501919  12.217453676471749  11.673616748318732 
  2.490995719063680   5.749760670470757  11.673616748318732 
  6.225010319417676  12.217493825666420  11.673616748318732 
 -6.241407164352002  12.198161565593962   5.002978606422314 
  7.469692925080296   5.749856829001295  11.673616748318732 
 -1.266749693375619  12.159162842977768   5.002978606422314 
 -0.051976765459093   5.766604567795349   5.002978606422314 
 -1.309983686208099   7.905142722230621   5.002978606422314 
  3.728794282840581  12.240650773541724   5.002978606422314 
  9.953591587206798   5.722785629144922   5.002978606422314 
 -3.732569876972723   7.905710015285146  11.673616748318732 
  2.490840511616645   1.438154454859420  11.673616748318732 
  6.224982853545381   7.905757913592475  11.673616748318732 
  7.469662318509097   1.438073620487168  11.673616748318732 
 12.448455305847562   1.438129026486679  11.673616748318732 
  1.236387487131215   0.697380246946941   5.002978606422314 
  4.841643189576450   7.483046040714044   5.002978606422314 
  6.240730060401403   0.634872378291692   5.002978606422314 
  9.908475513979758   7.158311140765201   5.002978606422314 
 11.220753609043619   0.729315121352375   5.002978606422314 
 -3.732514977666214   9.343011463569040  11.673616748318732 
  1.246108766627671   9.342920637111648  11.673616748318732 
  2.490595937656616   2.875289905826420  11.673616748318732 
  6.225020593797220   9.343245186447625  11.673616748318732 
  7.469747088282009   2.875193252809894  11.673616748318732 
 12.448616850907179   2.875377014196341  11.673616748318732 
 -1.296856042410010   9.334041354416962   5.002978606422314 
  0.027718760492419   2.890498431501670   5.002978606422314 
  5.007808441788713   2.708169071152681   5.002978606422314 
  3.661781626225286   9.484073109791328   5.002978606422314 
  8.664131362052373   9.313578434004651   5.002978606422314 
  9.993148517610523   2.848640352588797   5.002978606422314 
 -4.977292474289445  11.499007329113477  11.673616748318732 
  0.001456156609156  11.498820703089299  11.673616748318732 
  1.245986379485695   5.031016896164322  11.673616748318732 
  6.225144714865826   5.030946129320228  11.673616748318732 
  4.980339175825970  11.499077960190405  11.673616748318732 
 11.204000701380647   5.031167930734880  11.673616748318732 
 -1.267242937514175   5.033795345808030   5.002978606422314 
 -2.522453852438460  11.456839031031404   5.002978606422314 
  2.470007846861414  11.542957632348180   5.002978606422314 
  7.452552289827029  11.503929501195401   5.002978606422314 
  8.743087554935219   4.981205442764510   5.002978606422314 
  0.001470467497266   7.186913894031226  11.673616748318732 
  1.246143577520270   0.719624258849701  11.673616748318732 
  4.980113819461947   7.187402897152737  11.673616748318732 
  6.224875309561066   0.719444025726894  11.673616748318732 
  9.959265736752419   7.187113239634360  11.673616748318732 
 -2.540166657552081   7.175097121411131   5.002978606422314 
 11.203875134380120   0.719570329461757  11.673616748318732 
  3.716345682554990   0.651921984277084   5.002978606422314 
  2.359861743222525   7.294547288803622   5.002978606422314 
  7.397558667989267   7.145477485979311   5.002978606422314 
  8.742112776818415   0.679353223259346   5.002978606422314 
  2.490696005850796   7.187018909148538  11.673616748318732 
 13.705301018118989   0.737201447698277   5.002978606422314 
 -1.243194849286018   9.342896207677448  11.673616748318732 
  0.001496925418456   2.875359247963021  11.673616748318732 
  4.980103264693835   2.875239056101598  11.673616748318732 
  3.735478250830730   9.343136608396721  11.673616748318732 
  8.714469822741648   9.343163007755171  11.673616748318732 
  9.959277530502250   2.875303762137633  11.673616748318732 
 -3.783865482367933   9.313364235856424   5.002978606422314 
  1.180794946929010   9.398937077827730   5.002978606422314 
  2.506767057517568   2.828155151652498   5.002978606422314 
  6.196008541337780   9.392875705207725   5.002978606422314 