 N B Al Ga 
 1.0
 17.527899999999772   0.000000000000000   0.000000000000000
 -8.763949999999658  15.179606674993195   0.000000000000000
  0.000000000000001   0.000000000000002  15.000000000000000
 N B Al Ga 
  48  48   1   1
Cartesian
  8.763372645958675  13.749099122548950   1.541247426996780 
 16.258056086371568   0.732850546860864   1.545757703857950 
 14.994381987597745   2.898003997581623   1.554120502916250 
 13.742933767187136   5.067433729611566   1.565892394993455 
 12.503455012691514   7.236314448289807   1.584502974512685 
 11.268074870797301   9.404677345187944   1.600317694241385 
 10.021559978757463  11.575604659925242   1.569610412004300 
 -6.259229493520859  13.733535898608494   1.547633929679310 
  1.238725013033723   0.715679220469173   1.541581301577795 
 -0.035335708815118   2.871704962596080   1.556131400240760 
 -1.287194221488536   5.052572102489886   1.569697839256650 
 -2.519509306034230   7.228356472733112   1.563448318094220 
 -3.753627559291347   9.398175936061508   1.561864312290075 
 -5.002602348934278  11.565968516277616   1.559986144512915 
 -3.753818088405254  13.729252175726700   1.560706972063245 
  3.750136103021978   0.712965240245482   1.571317695427395 
  2.475510145683559   2.860190604709429   1.611007585072620 
  1.189008725288577   5.000467031448503   1.663824009128955 
 -0.020406267591299   7.212644077731388   1.621533968015685 
 -1.241616936363543   9.391301817715796   1.580407954623300 
 -2.496697557548285  11.561393916721622   1.559224546895910 
 -1.251841185180155  13.731305861390103   1.563912648589560 
  6.253212230539408   0.718814788541532   1.603132819933350 
  4.992662687449890   2.875575122722553   1.729620399347100 
  3.692393968369633   4.990423967338344   1.903066643380275 
  2.422949298984081   7.110575916299426   1.808097374479410 
  1.280530934343522   9.380415577529071   1.657586100365790 
  0.010144321501232  11.559331495048019   1.581845110247310 
  1.244632543616857  13.747452354901098   1.565388361282995 
  8.748820962788669   0.733243139451147   1.587472218983295 
  7.490345234479299   2.899290442512611   1.696191875685120 
  6.233966626078296   5.059868891664398   1.966689608108775 
  3.817532166338182   9.525880467635226   1.813120109382270 
  2.507322012091343  11.590887727189726   1.623710576742885 
  3.745053822639548  13.768138783431855   1.571450010704145 
 11.246935664061885   0.744085968170032   1.567697195601270 
  9.988214754319159   2.909515147637544   1.620477036290385 
  8.732840763249371   5.077824091038162   1.754588249029140 
  7.498903102152561   7.250994392693567   1.965948542111745 
  6.288549908490826   9.486706016436184   1.904377208854815 
  5.027671487139774  11.649699004356032   1.668135963094020 
  6.259049015553455  13.774314817210294   1.556823994597140 
 13.751281312590873   0.744901801648096   1.554801712366050 
 12.491491429007757   2.907668984144994   1.572276573660915 
 11.238415059515631   5.074915417374632   1.619678806134120 
  9.998306385670366   7.243163461784730   1.691886074456265 
  8.769803110266196   9.417907366436566   1.725878017340505 
  7.524475905110887  11.605662453381818   1.611263887502265 
  7.510235773497246  14.476959972952804   1.545008402684475 
 15.004475744459770   1.456915212885021   1.551185599024515 
 13.745184659626183   3.624356409379943   1.563592152554925 
 12.495543476857801   5.792748929557807   1.588381129228995 
 11.257546348312173   7.961839687513157   1.621108968566175 
 10.022770348326421  10.133331388078911   1.625669160525600 
  8.774669535903326  12.310304842531576   1.567372118884710 
 -7.512655244847458  14.457074209587475   1.540844843042235 
 -0.018264194085257   1.437163342567900   1.544933800994220 
 -1.280817693345121   3.610254675138796   1.559153888933895 
 -2.529441003029285   5.784303347087426   1.564150973932650 
 -3.765330349588052   7.954020851326534   1.567023235507290 
 -5.000703568849849  10.119737783328796   1.570140219113925 
 -6.253042268126187  12.290901891771858   1.555668932142240 
 -5.006790721925510  14.449552683880887   1.556456697146550 
  2.490167543038207   1.425397509474433   1.568063064713865 
  1.212733014396753   3.574164251510895   1.608305152145775 
 -0.034612371889006   5.766087980374356   1.614622262526075 
 -1.258927415973326   7.944311751175885   1.584190795848375 
 -2.492816729010241  10.115083999148966   1.564183464444285 
 -3.747903611289290  12.283581897285792   1.558023852101475 
 -2.500401493757959  14.450560209839107   1.572009783834900 
  4.999632416547517   1.432970448214677   1.628620267850265 
  3.721431070932537   3.566471671085163   1.740236986571505 
  2.419929972418762   5.706399828079883   1.803954371499420 
  1.253573800380066   7.917882900960232   1.697390965122870 
  0.025385241622805  10.105129046202023   1.602215671246410 
 -1.242249847895450  12.281106393239352   1.565384006674440 
 -0.007001218905175  14.463599772255728   1.569373904894970 
  7.497621827688396   1.449372129313565   1.624736513322900 
  6.237528112159244   3.604281346189842   1.796639888873160 
  4.933945758731202   5.678622940195732   2.111183160191370 
  2.533563557294736  10.134811614809434   1.699847476491105 
  1.254710063670724  12.297722734806475   1.585973240956950 
  2.489861485658627  14.478227676674965   1.566056093992515 
  9.994951050654320   1.461875469251103   1.590385184687955 
  8.738264371037490   3.628524329854119   1.690722682910895 
  7.489280502999336   5.795900612902529   1.903227072392190 
  6.313781766230070   8.067276892411247   2.112087892558560 
  5.031873728618615  10.230613517496902   1.807992347779695 
  3.752992228894318  12.326458997935939   1.617567673286520 
  4.996906906166849  14.483650466622805   1.560249864015750 
 12.497639591370488   1.463968035078186   1.564495804023870 
 11.240548594332875   3.630066137366011   1.603754562277815 
  9.990737880945346   5.797842605871316   1.688938178188350 
  8.761373775010723   7.975602914570365   1.793433160844550 
  7.535932233950498  10.173444614890894   1.739424939692115 
  6.274844806190016  12.342057727752222   1.610122239834600 
  5.571866529890713   6.903052988191562   4.139560079786700 
  4.179340172617938   7.706750227289030   1.680805067463255 
