B C N                                   
   1.0000000000000000     
     8.7639499999999995  -15.1796066749929999    0.0000000000000000
     8.7639499999999995   15.1796066749929999    0.0000000000000000
     0.0000000000000000    0.0000000000000000   15.0000000000000000
   B    C    N 
    49     1    48
Selective dynamics
Direct
  0.9050404863352948  0.9525773906586029  0.1110064361884794   T   T   T
  0.9047474726778706  0.0952543062571305  0.1110396797452341   T   T   T
  0.9047419079815016  0.2380601940847471  0.1110414672288287   T   T   T
  0.9050681230085452  0.3810504952648791  0.1110085212533715   T   T   T
  0.9057890282062334  0.5240818486084019  0.1110393266088509   T   T   T
  0.9056645719575015  0.6671018277079260  0.1110840918539240   T   T   T
  0.9057514891028141  0.8102357580347314  0.1110449652709148   T   T   T
  0.0477004141056106  0.9523013175163890  0.1110103928089261   T   T   T
  0.0474243312153969  0.0949612069917057  0.1110064346744762   T   T   T
  0.0473830255064390  0.2379895155463863  0.1109980222065289   T   T   T
  0.0474331806141372  0.3810378407080516  0.1110170705641599   T   T   T
  0.0476908864423574  0.5239685680221707  0.1110133471796097   T   T   T
  0.0481106658824319  0.6669415981369163  0.1110357404733270   T   T   T
  0.0481176046276329  0.8097286019077726  0.1110060234609882   T   T   T
  0.1902731297922232  0.9518840940893670  0.1110060205759858   T   T   T
  0.1897660006112689  0.0942502492761839  0.1110449616669141   T   T   T
  0.1899945256461462  0.2377911084258529  0.1109888866009304   T   T   T
  0.1900078361786045  0.3808183253545997  0.1109964304370738   T   T   T
  0.1897849081983692  0.5240903049473252  0.1110406770353144   T   T   T
  0.1902850933996233  0.6669271054155370  0.1110492332135489   T   T   T
  0.1904754103503185  0.8095261900526776  0.1109956923789501   T   T   T
  0.3330600193620860  0.9518908918585692  0.1110357425943326   T   T   T
  0.3328999650930750  0.0943371086464994  0.1110840907209210   T   T   T
  0.3318362032702086  0.2358639203031012  0.1110339806952357   T   T   T
  0.3325355776524285  0.3806118555667153  0.1110157457360345   T   T   T
  0.3318198704306485  0.5245201545491760  0.1110025795762115   T   T   T
  0.3328680734510632  0.6671338554829341  0.1110660881358985   T   T   T
  0.3330745450254629  0.8097166478563765  0.1110492347425445   T   T   T
  0.4760330471438284  0.9523107784906447  0.1110133540766065   T   T   T
  0.4759198342915970  0.0942123287297629  0.1110393348968487   T   T   T
  0.4754500939365353  0.2358574488239387  0.1110523012792413   T   T   T
  0.4740755968694338  0.3767865767089609  0.1110521131714426   T   T   T
  0.4740781536704756  0.5259233893695241  0.1110819744704282   T   T   T
  0.4754815785378277  0.6681819976193506  0.1110025800032122   T   T   T
  0.4759114623896716  0.8102171866776262  0.1110406846663160   T   T   T
  0.6189639186419476  0.9525686561908607  0.1110170743121592   T   T   T
  0.6189512088851225  0.0949334780744542  0.1110085243313716   T   T   T
  0.6192451835158419  0.2378108007093789  0.1110272239371414   T   T   T
  0.6194750163442699  0.3805267358227319  0.1110180387902808   T   T   T
  0.6232152879770375  0.5259261789925693  0.1110521115394397   T   T   T
  0.6193897741262875  0.6674659946025731  0.1110157430900373   T   T   T
  0.6191833424704039  0.8099939393693886  0.1109964316110751   T   T   T
  0.7620122098446083  0.9526187588755612  0.1109980295405307   T   T   T
  0.7619415582762541  0.0952598360575022  0.1110414695718291   T   T   T
  0.7620392071187599  0.2379624243542447  0.1110515330539708   T   T   T
  0.7621907601456255  0.3807564925341556  0.1110272188181429   T   T   T
  0.7641442063220619  0.5245517416464641  0.1110522979722475   T   T   T
  0.7641379014518981  0.6681655557117860  0.1110339848212366   T   T   T
  0.7622105485441536  0.8100071302268533  0.1109888948019293   T   T   T
  0.5238031581749393  0.4761986995140607  0.1111390512145808   T   T   T
  0.9526698633589848  0.9050240822407343  0.1110092337069426   T   T   T
  0.9523744982345846  0.0476272316044144  0.1110048606341023   T   T   T
  0.9523580907899507  0.1904743981287756  0.1110186478789591   T   T   T
  0.9523409443601326  0.3333172811178743  0.1110043921875609   T   T   T
  0.9526426486297399  0.4761947708345322  0.1109798078064952   T   T   T
  0.9527171059640641  0.6191180768250761  0.1110425340161660   T   T   T
  0.9527342782016094  0.7621399348723914  0.1110380091110798   T   T   T
  0.0952853717890294  0.9047163556849710  0.1109685370936642   T   T   T
  0.0949776589402607  0.0473318567650121  0.1110092461179428   T   T   T
  0.0951988464473984  0.1904210037366965  0.1109695899461061   T   T   T
  0.0951772212787971  0.3333264158820645  0.1109840004200149   T   T   T
  0.0949483693485234  0.4762018985822392  0.1110096118195848   T   T   T
  0.0952431346084371  0.6191273077852215  0.1110156757897391   T   T   T
  0.0953833243066404  0.7619854313226548  0.1109852875409485   T   T   T
  0.2380161901723474  0.9046182644133560  0.1109852857899509   T   T   T
  0.2378618364876060  0.0472674373583940  0.1110380066530780   T   T   T
  0.2373756854208621  0.1896490862736633  0.1110110824687687   T   T   T
  0.2379181778506271  0.3332442147003227  0.1109817386147765   T   T   T
  0.2373456859305038  0.4762659792167219  0.1109998801396953   T   T   T
  0.2378200605225047  0.6191509757399978  0.1110477668382242   T   T   T
  0.2380160809419414  0.7619855855860587  0.1110135013877744   T   T   T
  0.3808743245417775  0.9047585060225610  0.1110156785797349   T   T   T
  0.3808835952309252  0.0472843738889405  0.1110425431741665   T   T   T
  0.3804604228616117  0.1894658982085026  0.1110555397240950   T   T   T
  0.3793728764135485  0.3312540869316427  0.1110033565079124   T   T   T
  0.3793512189331322  0.4766396467165383  0.1110054981280059   T   T   T
  0.3804445832831562  0.6195572102008399  0.1109965453594871   T   T   T
  0.3808508266610040  0.7621819295594933  0.1110477703662252   T   T   T
  0.5237998945457606  0.9050536935234761  0.1110096194805784   T   T   T
  0.5238069638534663  0.0473588129582591  0.1109798132624971   T   T   T
  0.5237369193259891  0.1896727170844927  0.1110291640689259   T   T   T
  0.5233729205600960  0.3312639622186864  0.1110054315690967   T   T   T
  0.5233618391204583  0.6206502968298709  0.1110054967310078   T   T   T
  0.5237356645322798  0.7626563255314976  0.1109998879036963   T   T   T
  0.6666753021559354  0.9048245911221985  0.1109840014950163   T   T   T
  0.6666844986521281  0.0476608174118650  0.1110043955525634   T   T   T
  0.6666663330371562  0.1904565588941679  0.1110213463902318   T   T   T
  0.6667634238803729  0.3332381925496248  0.1109991702449383   T   T   T
  0.6687378301773195  0.4766288311618999  0.1110054310140918   T   T   T
  0.6687477922443543  0.6206288483154617  0.1110033500559144   T   T   T
  0.6667573959166825  0.7620834326273673  0.1109817379897760   T   T   T
  0.8095806643753023  0.9048028608026016  0.1109696011471089   T   T   T
  0.8095273698502249  0.0476437006360506  0.1110186541419599   T   T   T
  0.8095266100787463  0.1904750870652542  0.1110312833906983   T   T   T
  0.8095449909318277  0.3333353238088465  0.1110213414362355   T   T   T
  0.8103286050485095  0.4762647668030073  0.1110291531869283   T   T   T
  0.8105358598024930  0.6195413541033883  0.1110555394040949   T   T   T
  0.8103526718863401  0.7626260422751331  0.1110111001377638   T   T   T

  0.00000000E+00  0.00000000E+00  0.00000000E+00
  0.00000000E+00  0.00000000E+00  0.00000000E+00
  0.00000000E+00  0.00000000E+00  0.00000000E+00
  0.00000000E+00  0.00000000E+00  0.00000000E+00
  0.00000000E+00  0.00000000E+00  0.00000000E+00
  0.00000000E+00  0.00000000E+00  0.00000000E+00
  0.00000000E+00  0.00000000E+00  0.00000000E+00
  0.00000000E+00  0.00000000E+00  0.00000000E+00
  0.00000000E+00  0.00000000E+00  0.00000000E+00
  0.00000000E+00  0.00000000E+00  0.00000000E+00
  0.00000000E+00  0.00000000E+00  0.00000000E+00
  0.00000000E+00  0.00000000E+00  0.00000000E+00
  0.00000000E+00  0.00000000E+00  0.00000000E+00
  0.00000000E+00  0.00000000E+00  0.00000000E+00
  0.00000000E+00  0.00000000E+00  0.00000000E+00
  0.00000000E+00  0.00000000E+00  0.00000000E+00
  0.00000000E+00  0.00000000E+00  0.00000000E+00
  0.00000000E+00  0.00000000E+00  0.00000000E+00
  0.00000000E+00  0.00000000E+00  0.00000000E+00
  0.00000000E+00  0.00000000E+00  0.00000000E+00
  0.00000000E+00  0.00000000E+00  0.00000000E+00
  0.00000000E+00  0.00000000E+00  0.00000000E+00
  0.00000000E+00  0.00000000E+00  0.00000000E+00
  0.00000000E+00  0.00000000E+00  0.00000000E+00
  0.00000000E+00  0.00000000E+00  0.00000000E+00
  0.00000000E+00  0.00000000E+00  0.00000000E+00
  0.00000000E+00  0.00000000E+00  0.00000000E+00
  0.00000000E+00  0.00000000E+00  0.00000000E+00
  0.00000000E+00  0.00000000E+00  0.00000000E+00
  0.00000000E+00  0.00000000E+00  0.00000000E+00
  0.00000000E+00  0.00000000E+00  0.00000000E+00
  0.00000000E+00  0.00000000E+00  0.00000000E+00
  0.00000000E+00  0.00000000E+00  0.00000000E+00
  0.00000000E+00  0.00000000E+00  0.00000000E+00
  0.00000000E+00  0.00000000E+00  0.00000000E+00
  0.00000000E+00  0.00000000E+00  0.00000000E+00
  0.00000000E+00  0.00000000E+00  0.00000000E+00
  0.00000000E+00  0.00000000E+00  0.00000000E+00
  0.00000000E+00  0.00000000E+00  0.00000000E+00
  0.00000000E+00  0.00000000E+00  0.00000000E+00
  0.00000000E+00  0.00000000E+00  0.00000000E+00
  0.00000000E+00  0.00000000E+00  0.00000000E+00
  0.00000000E+00  0.00000000E+00  0.00000000E+00
  0.00000000E+00  0.00000000E+00  0.00000000E+00
  0.00000000E+00  0.00000000E+00  0.00000000E+00
  0.00000000E+00  0.00000000E+00  0.00000000E+00
  0.00000000E+00  0.00000000E+00  0.00000000E+00
  0.00000000E+00  0.00000000E+00  0.00000000E+00
  0.00000000E+00  0.00000000E+00  0.00000000E+00
  0.00000000E+00  0.00000000E+00  0.00000000E+00
  0.00000000E+00  0.00000000E+00  0.00000000E+00
  0.00000000E+00  0.00000000E+00  0.00000000E+00
  0.00000000E+00  0.00000000E+00  0.00000000E+00
  0.00000000E+00  0.00000000E+00  0.00000000E+00
  0.00000000E+00  0.00000000E+00  0.00000000E+00
  0.00000000E+00  0.00000000E+00  0.00000000E+00
  0.00000000E+00  0.00000000E+00  0.00000000E+00
  0.00000000E+00  0.00000000E+00  0.00000000E+00
  0.00000000E+00  0.00000000E+00  0.00000000E+00
  0.00000000E+00  0.00000000E+00  0.00000000E+00
  0.00000000E+00  0.00000000E+00  0.00000000E+00
  0.00000000E+00  0.00000000E+00  0.00000000E+00
  0.00000000E+00  0.00000000E+00  0.00000000E+00
  0.00000000E+00  0.00000000E+00  0.00000000E+00
  0.00000000E+00  0.00000000E+00  0.00000000E+00
  0.00000000E+00  0.00000000E+00  0.00000000E+00
  0.00000000E+00  0.00000000E+00  0.00000000E+00
  0.00000000E+00  0.00000000E+00  0.00000000E+00
  0.00000000E+00  0.00000000E+00  0.00000000E+00
  0.00000000E+00  0.00000000E+00  0.00000000E+00
  0.00000000E+00  0.00000000E+00  0.00000000E+00
  0.00000000E+00  0.00000000E+00  0.00000000E+00
  0.00000000E+00  0.00000000E+00  0.00000000E+00
  0.00000000E+00  0.00000000E+00  0.00000000E+00
  0.00000000E+00  0.00000000E+00  0.00000000E+00
  0.00000000E+00  0.00000000E+00  0.00000000E+00
  0.00000000E+00  0.00000000E+00  0.00000000E+00
  0.00000000E+00  0.00000000E+00  0.00000000E+00
  0.00000000E+00  0.00000000E+00  0.00000000E+00
  0.00000000E+00  0.00000000E+00  0.00000000E+00
  0.00000000E+00  0.00000000E+00  0.00000000E+00
  0.00000000E+00  0.00000000E+00  0.00000000E+00
  0.00000000E+00  0.00000000E+00  0.00000000E+00
  0.00000000E+00  0.00000000E+00  0.00000000E+00
  0.00000000E+00  0.00000000E+00  0.00000000E+00
  0.00000000E+00  0.00000000E+00  0.00000000E+00
  0.00000000E+00  0.00000000E+00  0.00000000E+00
  0.00000000E+00  0.00000000E+00  0.00000000E+00
  0.00000000E+00  0.00000000E+00  0.00000000E+00
  0.00000000E+00  0.00000000E+00  0.00000000E+00
  0.00000000E+00  0.00000000E+00  0.00000000E+00
  0.00000000E+00  0.00000000E+00  0.00000000E+00
  0.00000000E+00  0.00000000E+00  0.00000000E+00
  0.00000000E+00  0.00000000E+00  0.00000000E+00
  0.00000000E+00  0.00000000E+00  0.00000000E+00
  0.00000000E+00  0.00000000E+00  0.00000000E+00
  0.00000000E+00  0.00000000E+00  0.00000000E+00
  0.00000000E+00  0.00000000E+00  0.00000000E+00
