 Si N B 
 1.0
 17.527899999999772   0.000000000000000   0.000000000000000
 -8.763949999999658  15.179606674993195   0.000000000000000
  0.000000000000001   0.000000000000002  15.000000000000000
 Si N B 
   1  48  49
Cartesian
  4.992121868869355   7.211391822516365  14.781446550397201 
  8.763196783315767  13.736909183590726   1.743265874699190 
 16.272873587020648   0.723427638534644   1.752645448938930 
 15.020293895581455   2.890312543438716   1.772176274532465 
 13.769134152468531   5.059868891664398   1.794195657811980 
 12.520384997799541   7.227318218966507   1.802292762664575 
 11.268933695266732   9.397024792321242   1.775521187883225 
 10.016502681434098  11.567549580681030   1.745178799823100 
 -6.260047428717384  13.734136906685551   1.747726405344975 
  1.248714096493501   0.721180784435774   1.736320506993075 
 -0.006191124373467   2.888410227170612   1.741883915277180 
 -1.256747269931030   5.056245619931519   1.770875595323865 
 -2.505616629625878   7.226528441281631   1.797882049724175 
 -3.754980982205778   9.396224629371691   1.797564043050555 
 -5.006891312973567  11.565462808058513   1.772409140642835 
 -3.754913390660097  13.733370059052548   1.746742708802295 
  3.754668116615863   0.720929434491860   1.702174052006580 
  2.495423729495143   2.884405981145615   1.680246844770150 
  1.243195813291859   5.054080377645286   1.655996629201470 
 -0.005861755169508   7.223880333940008   1.734964610704005 
 -1.250968012160744   9.395404603519863   1.767137742364785 
 -2.502206402923155  11.564865026511910   1.775981758458795 
 -1.250450134188495  13.733892381672723   1.753560333515775 
  6.260681943372704   0.721992013351440   1.706286213079320 
  5.005532784845222   2.887181641603133   1.622584173093255 
  3.739158270083645   5.037719214768590   1.446892085192265 
  2.479755629921484   7.224794681731697   1.460113918274160 
  1.251049230043941   9.395955476403893   1.658980418211390 
  0.002034795769403  11.565300364573654   1.740514575689760 
  1.253211120529090  13.734963815465948   1.740260643785730 
  8.764741397964979   0.723053503723153   1.739176823681250 
  7.513106703710651   2.890704845550953   1.691907303874650 
  6.261376250454457   5.053169778388822   1.504319823318345 
  3.752796445857369   9.402830496787928   1.485953777051415 
  2.505931447006200  11.567875184452399   1.683334509305880 
  3.753748870259013  13.737791804515009   1.714201400632800 
 11.267270494694808   0.723990607224319   1.753735676987820 
 10.016146857924138   2.891000312661542   1.744195655299170 
  8.763949999999962   5.059868891664398   1.674578285816445 
  7.539502168455822   7.225060783853873   1.430439780997935 
  6.272236306584588   9.425959362122757   1.401070459746795 
  5.007992438460766  11.572087215806677   1.620329384025285 
  6.258417268634689  13.738611675590409   1.715807881250865 
 13.770226168099660   0.724659964972954   1.752063267299925 
 12.519028437829393   2.891060788155653   1.771609545315660 
 11.267003423222336   5.059868891664398   1.772665075341900 
 10.020142734414323   7.226462941575074   1.749569160403005 
  8.767962820350293   9.400611990036563   1.650712175886285 
  7.512954769976783  11.575138084755720   1.689142974441810 
  7.509434611483755  14.457556387071619   1.738166281406055 
 15.021609104358907   1.446059925531630   1.759030372075215 
 13.769946514703832   3.613689790106514   1.779987915463215 
 12.517151192525507   5.781309740865007   1.791926157692535 
 11.265571323625490   7.949228844463299   1.782271664653380 
 10.010699733540203  10.119737783328796   1.730152482164160 
  8.761745449398106  12.290198509226066   1.730052652081380 
 -7.513512785695170  14.457632651675615   1.743745581933885 
 -0.002606372160854   1.446017784097522   1.745158624134585 
 -1.254551962488876   3.612769841147114   1.761454433676720 
 -2.504452089537325   5.780544643628032   1.790380391250660 
 -3.755994970761167   7.949185257942885   1.801488660693360 
 -5.009490025136079  10.119737783328796   1.784673857177535 
 -6.261182039810397  12.288208598801525   1.757357271557175 
 -5.007974400947246  14.458267680918793   1.733093643234855 
  2.501107560367471   1.446460387364626   1.708476113083035 
  1.247419978717921   3.614668960403996   1.694635899253545 
  0.000150948889709   5.778027634825891   1.724263077654300 
 -1.249256714292970   7.947193863913347   1.771509741087990 
 -2.501759265490367  10.119737783328796   1.782950976252645 
 -3.754437027298813  12.287908435212939   1.767779543659890 
 -2.505183170507062  14.458842316913925   1.736846532774870 
  5.004841950616574   1.451097241008728   1.677391413251760 
  3.746547067700909   3.615373200094543   1.595170275981285 
  2.497590773087923   5.778628903829671   1.497008354819760 
  1.253266412340368   7.941415948490009   1.632684012991725 
  0.007993022833835  10.114949829398098   1.725225009614880 
 -1.247755291749789  12.287119363206740   1.759534310092470 
  0.002105639069475  14.457797420633893   1.746043169997915 
  7.511843429961875   1.450093546839804   1.713365448999600 
  6.259058166045600   3.624068050302609   1.622543639643435 
  5.000018105778278   5.714551945632453   1.126209876306840 
  3.695396339575010   7.975330751062750   1.123588873533855 
  2.515304952283131  10.114228399474447   1.625001525220740 
  1.257527790368634  12.286098978920762   1.722687154656075 
  2.505471602048109  14.457232036399763   1.736811909646440 
 10.015450143554421   1.447913076878864   1.746947867081850 
  8.762353736005362   3.618547541737243   1.705931102569740 
  7.507727982111838   5.781890207185174   1.522046307237780 
  6.400920711238348   8.030043600836601   1.007819655638070 
  5.006153046313561  10.119737783328796   1.484024846389980 
  3.759660763884262  12.287885685147801   1.671936664959930 
  5.006995227209524  14.458046687197239   1.725433854477390 
 12.518957541829907   1.446538876094353   1.759189365489345 
 11.266166094764843   3.614389674287350   1.762089954424470 
 10.010828871886487   5.780439168080092   1.733971911104490 
  8.767072371598566   7.947003493480950   1.626703184582265 
  7.510535934919674  10.128674678110084   1.593474513487740 
  6.255835682747899  12.289649677204526   1.672530043860255 
