 P B N 
 1.0
 17.527899999999772   0.000000000000000   0.000000000000000
 -8.763949999999658  15.179606674993195   0.000000000000000
  0.000000000000001   0.000000000000002  15.000000000000000
 P B N 
   1  48  48
Cartesian
  4.422613482050761   7.566361152928783   1.667842568612115 
  7.507809139218617  14.476378013743428   1.665179843826750 
 15.002117417195588   1.458281708069977   1.665435188164080 
 13.741691245779084   3.626359615867547   1.665924868893480 
 12.488288753706051   5.793390187210063   1.665112668658200 
 11.246962967003023   7.959472143710600   1.665127152137325 
 10.026676747692342  10.133353716713401   1.665749287654530 
  8.782365831871553  12.320724263717269   1.665742638071985 
 -7.510101815601304  14.455717542181429   1.664978013115455 
 -0.019038831418353   1.439494907753545   1.665179843826750 
 -1.278582860953347   3.612581462906305   1.665181157717535 
 -2.521342407250616   5.782543999710387   1.665090837829365 
 -3.751770324259351   7.947241678441408   1.665164684822805 
 -4.991506797003868  10.115393596608556   1.665524869147470 
 -6.244743224683948  12.287939258470463   1.665058301828415 
 -5.000071456676682  14.443773999405563   1.665058301828415 
  2.485090424193978   1.413523308365668   1.665742638071985 
  1.218552309658266   3.582431337558384   1.665336372622935 
 -0.014602077708652   5.765294003324110   1.664968679526180 
 -1.216718142961913   7.932696066397412   1.665285718461990 
 -2.470243133756926  10.102736036448373   1.665833974874835 
 -3.733717046772257  12.275420779334349   1.665073983399780 
 -2.491973508765113  14.444712247017470   1.665524869147470 
  5.001564343317007   1.429603718560481   1.665749287654530 
  3.708622556152603   3.544155134440906   1.665027552809895 
  2.460822995168728   5.721523863188686   1.664857525008045 
  1.346877422159880   7.899873720498144   1.665897464545050 
  0.062111063887626  10.083898397857347   1.666047143227245 
 -1.220379908492992  12.267562645087075   1.665833974874835 
  0.005569368003853  14.455144926706140   1.665164684822805 
  7.494344120011668   1.459745639250725   1.665127152137325 
  6.208988257862361   3.643771935654057   1.665470780320020 
  4.839890938798597   5.752394687127515   1.665737139211155 
  2.595915096108928  10.063270432345503   1.665897464545050 
  1.285692328196242  12.266998143805399   1.665285718461990 
  2.495466507785052  14.471911932416477   1.665090837829365 
  9.990889014354316   1.467766951843446   1.665112668658200 
  8.714725788796889   3.649451940551462   1.665575492621625 
  7.418016750760181   5.836964269397827   1.666013856796215 
  6.202193251404237   8.111971507859234   1.665737139211155 
  5.039394197356110  10.187740196341320   1.664857525008045 
  3.763775607641698  12.309636124535297   1.664968679526180 
  4.996088963066519  14.480631862929437   1.665181157717535 
 12.494293785950973   1.465803838212669   1.665924868893480 
 11.228690580116108   3.636870708225292   1.666087391810460 
  9.960812517651162   5.807737465564299   1.665575492621625 
  8.712862780710001   7.980609825033519   1.665470780320020 
  7.548950610349469  10.195798442072068   1.665027552809895 
  6.270767322850897  12.333124431170136   1.665336372622935 
  8.766808402520375  13.757084505647013   1.665032486643915 
 16.255678447244019   0.734531642995005   1.665090562279860 
 14.992853877379982   2.899874327020113   1.665383381301720 
 13.743091489585805   5.069568229304115   1.665083637586890 
 12.506617012119300   7.236740906854479   1.664635316760630 
 11.277336979793770   9.404779866025427   1.665289823652360 
 10.030870959682433  11.581168475118474   1.665385680141300 
 -6.253522659657657  13.730224961308263   1.664470572518205 
  1.233381823699681   0.708806916040191   1.665032486643915 
 -0.035871410005529   2.874442145810612   1.664950371605760 
 -1.279346068332017   5.053369998712854   1.664895184073745 
 -2.496905887133541   7.225541124468220   1.664814120354045 
 -3.737263389875217   9.392131644031895   1.665369047214810 
 -4.990320215420773  11.561093597009354   1.664730126271800 
 -3.743398571910640  13.720825236625943   1.664730126271800 
  3.749811661220343   0.702054644829361   1.665385680141300 
  2.459199104313154   2.836232306330506   1.665215665040520 
  1.203331404907509   5.012466895760292   1.664705445838050 
  0.032949925619642   7.206706163598261   1.665109924126050 
 -1.215478775561854   9.380050391726609   1.665701007022050 
 -2.479022345089002  11.551016188635757   1.665659628428790 
 -1.238494008017596  13.720127169806698   1.665369047214810 
  6.257852495257536   0.710777711005361   1.665289823652360 
  4.984372436785568   2.863183001826615   1.665197044359690 
  3.670362426731112   4.944244578445690   1.664276603980425 
  2.562684091051548   7.135930505795407   1.665320163709140 
  1.314872321672386   9.360610081503875   1.666043129224785 
  0.032860970544899  11.542238257091313   1.665701007022050 
  1.258007172876348  13.729241322439579   1.664814120354045 
  8.750069326439165   0.730209454231916   1.664635316760630 
  7.473307111470072   2.910749984403079   1.665003476191575 
  6.172225955544482   5.094374535529276   1.665533720937600 
  3.865407234188323   9.392313177934506   1.665320163709140 
  2.539246633845498  11.547739401118662   1.665109924126050 
  3.747942458548308  13.760889151607913   1.664895184073745 
 11.245133158318549   0.742977484389995   1.665083637586890 
  9.976048830641021   2.917128503079757   1.665384331126395 
  8.697997189309037   5.097960951703010   1.665681139306590 
  7.438217499941790   7.287136212377965   1.665533720937600 
  6.317302092229800   9.528878563689160   1.664276603980425 
  5.024704321418508  11.631278941855490   1.664705445838050 
  6.256686661355932  13.773472434986097   1.664950371605760 
 13.749024390047355   0.745498459007902   1.665383381301720 
 12.485581104707464   2.911198358579535   1.666011991230225 
 11.225679311897757   5.081551987272717   1.665384331126395 
  9.979832411524814   7.252179154524258   1.665003476191575 
  8.776559289466423   9.431443302464425   1.665197044359690 
  7.537312610179486  11.631782905092738   1.665215665040520 
