Species order: N B                      
   2.51242800000000     
     5.9449720136058266    0.0000000000000000    0.0000000000000000
    -2.9724860068029120    5.1484967885702053   -0.0000000000000001
     0.0000000000000000    0.0000000000000009    5.3101128803662583
   N    B 
   143   143
Direct
  0.1109952769645158  0.0555146601618706  0.1249924321470781
  0.6110527646022847  0.5554976644944665  0.1251317846005759
  0.4443420624847634  0.0555272441022353  0.1250660872080956
  0.9443830106641806  0.5555180471923632  0.1249925731591959
  0.7776266216147275  0.0554799774740352  0.1249975764296296
  0.1110351141831454  0.7221842237582363  0.6250247758326792
  0.4443420624847634  0.7221481517158643  0.6249339127919034
  0.2776609471323321  0.2221790381708851  0.6246424823571926
  0.7777003557793513  0.7221735377453889  0.6250050704519244
  0.6110039652945133  0.2221974368012974  0.6248491082699387
  0.9443017143578117  0.2221513712911404  0.6250559181904400
  0.2776888990487824  0.7221680345788041  0.1249680525877491
  0.1109568727004301  0.2221451030168831  0.1250005309418083
  0.4443767775247372  0.2222155709154569  0.1254640626899432
  0.6110039652945133  0.7221398618265474  0.1251508917300607
  0.9443830106641806  0.7221982968051474  0.1249925731591959
  0.7776527458828910  0.2221712785080794  0.1250088975046594
  0.1110292038657853  0.8888651494922621  0.6250228701307636
  0.4443308415508834  0.8888320874421114  0.6250330323629782
  0.2776609471323321  0.3888152422947762  0.6246424823571926
  0.6110527646022847  0.3888884334411457  0.6248682153994253
  0.7776527458828910  0.8888148007081473  0.6249911024953408
  0.9443415207937518  0.3888299040780127  0.6250418496312574
  0.1109952769645158  0.3888139501359736  0.1249924321470781
  0.2776888990487824  0.8888541978032993  0.1249680525877491
  0.6109812198864509  0.8888123904855524  0.1250155877881033
  0.4443811126821809  0.3888572230077546  0.1256003234859271
  0.9443415207937518  0.8888449500490688  0.1249581503687440
  0.7777003557793513  0.3888601513672901  0.1249949295480766
  0.2776823677357813  0.5554878202380968  0.6248954616095499
  0.1109952769645158  0.0555146601618706  0.6250075678529212
  0.6110527646022847  0.5554976644944665  0.6248682153994253
  0.4443420624847634  0.0555272441022353  0.6249339127919034
  0.9443830106641806  0.5555180471923632  0.6250074268408058
  0.1110292038657853  0.5554973877068493  0.1249771298692367
  0.7776266216147275  0.0554799774740352  0.6250024235703698
  0.2776823677357813  0.0555278808310280  0.1251045383904496
  0.4443767775247372  0.5554945399426171  0.1254640626899432
  0.7777291505656931  0.5555312419495120  0.1250643834749773
  0.6109812198864509  0.0555021627342258  0.1250155877881033
  0.4443767775247372  0.5554945399426171  0.6245359373100636
  0.9443017143578117  0.0554836764000078  0.1249440818095604
  0.2776888990487823  0.7221680345788041  0.6250319474122513
  0.1109568727004301  0.2221451030168831  0.6249994690581916
  0.4443767775247372  0.2222155709154569  0.6245359373100636
  0.6110039652945133  0.7221398618265474  0.6248491082699387
  0.9443830106641806  0.7221982968051474  0.6250074268408058
  0.7776527458828910  0.2221712785080794  0.6249911024953408
  0.1110351141831454  0.7221842237582363  0.1249752241673200
  0.4443420624847634  0.7221481517158643  0.1250660872080956
  0.2776609471323321  0.2221790381708851  0.1253575176428074
  0.7777003557793513  0.7221735377453889  0.1249949295480766
  0.6110039652945133  0.2221974368012974  0.1251508917300607
  0.9443017143578117  0.2221513712911404  0.1249440818095605
  0.1109952769645158  0.3888139501359736  0.6250075678529212
  0.2776888990487823  0.8888541978032993  0.6250319474122513
  0.6109812198864509  0.8888123904855524  0.6249844122118982
  0.4443811126821809  0.3888572230077546  0.6243996765140711
  0.9443415207937518  0.8888449500490688  0.6250418496312574
  0.1110292038657853  0.8888651494922621  0.1249771298692367
  0.7777003557793513  0.3888601513672901  0.6250050704519244
  0.4443308415508834  0.8888320874421114  0.1249669676370218
  0.2776609471323321  0.3888152422947762  0.1253575176428074
  0.2776823677357813  0.5554878202380968  0.1251045383904496
  0.6110527646022847  0.3888884334411457  0.1251317846005759
  0.7776527458828910  0.8888148007081473  0.1250088975046594
  0.9443415207937518  0.3888299040780127  0.1249581503687440
  0.1110292038657853  0.5554973877068493  0.6250228701307636
  0.2776823677357813  0.0555278808310280  0.6248954616095499
  0.7777291505656931  0.5555312419495120  0.6249356165250201
  0.6109812198864509  0.0555021627342258  0.6249844122118982
  0.9443017143578117  0.0554836764000078  0.6250559181904400
  0.0526199813416215  0.1092418105348973  0.3750000000000000
  0.5579643482357162  0.6004959290147247  0.3750000000000000
  0.3906081286142612  0.1158459142157882  0.3750000000000000
  0.8934775379849890  0.6134054356591651  0.3750000000000000
  0.7212165100909070  0.1116393370651011  0.3750000000000000
  0.0555393219849552  0.7777704877973509  0.8750000000000000
  0.3888746031081470  0.7777696771491875  0.8750000000000000
  0.2222033734266958  0.2777683533800188  0.8750000000000000
  0.7222016335403754  0.7777664743162784  0.8750000000000000
  0.5555379759778749  0.2777712398523913  0.8750000000000000
  0.8888766002557117  0.2777716447458765  0.8750000000000000
  0.2248748921130596  0.7791041127231942  0.3750000000000000
  0.0526199813416215  0.2767115041400599  0.3750000000000000
  0.3805533687870672  0.2707340342056184  0.3750000000000000
  0.5563616173755827  0.7735999947951723  0.3750000000000000
  0.8901185930711595  0.7776364085886182  0.3750000000000000
  0.7219589809433793  0.2803292940950894  0.3750000000000000
  0.0555367497203696  0.9444364614435641  0.8750000000000000
  0.3888746031081470  0.9444382592922910  0.8750000000000000
  0.2222072543969749  0.4444359755001064  0.8750000000000000
  0.5555337679031030  0.4444335506182194  0.8750000000000000
  0.7222060929820081  0.9444358342222245  0.8750000000000000
  0.8888757237195563  0.4444371843416357  0.8750000000000000
  0.0554929257799446  0.4446642565235816  0.3750000000000000
  0.2242774648382516  0.9464851904491962  0.3750000000000000
  0.5561157371622285  0.9447245352477788  0.3750000000000000
  0.3805533687870672  0.4431526679147786  0.3750000000000000
  0.8874250311099308  0.9427742728123645  0.3750000000000000
  0.7251952638926989  0.4482544577265569  0.3750000000000000
  0.2222055204653915  0.6111020537369849  0.8750000000000000
  0.0555419490792338  0.1111037558244344  0.8750000000000000
  0.5555379759778749  0.6111000694588159  0.8750000000000000
  0.3888698229962633  0.1111057410829394  0.8750000000000000
  0.8888698566740030  0.6111015950036746  0.8750000000000000
  0.0584555829414675  0.6123374158386061  0.3750000000000000
  0.7222060929820081  0.1111035920931185  0.8750000000000000
  0.2203871918723278  0.1104115817135871  0.3750000000000000
  0.3906081286142612  0.6080955477318164  0.3750000000000000
  0.7251952638926989  0.6102741394994780  0.3750000000000000
  0.5563616173755827  0.1160949559137451  0.3750000000000000
  0.3888698229962633  0.6110974152466659  0.8750000000000000
  0.8867134041061226  0.1100233687197320  0.3750000000000000
  0.2222025070155030  0.7777679201744163  0.8750000000000000
  0.0555419490792338  0.2777715265881355  0.8750000000000000
  0.3888734661163516  0.2777714862111410  0.8750000000000000
  0.5555381066497284  0.7777689417899736  0.8750000000000000
  0.8888757237195563  0.7777718727112577  0.8750000000000000
  0.7222016335403754  0.2777684925574322  0.8750000000000000
  0.0584555829414675  0.7794515004361970  0.3750000000000000
  0.3908176185459287  0.7773544753473545  0.3750000000000000
  0.2164979376914736  0.2749156355124005  0.3750000000000000
  0.7219589809433793  0.7749630201816249  0.3750000000000000
  0.5579643482357162  0.2908017525543247  0.3750000000000000
  0.8874250311099308  0.2779840916309086  0.3750000000000000
  0.0555367497203696  0.4444336216101344  0.8750000000000000
  0.2222055204653915  0.9444368000617452  0.8750000000000000
  0.5555337304126130  0.9444335318729735  0.8750000000000000
  0.3888734661163516  0.4444353132385452  0.8750000000000000
  0.8888766002557117  0.9444382888431699  0.8750000000000000
  0.0554929257799446  0.9441620025896920  0.3750000000000000
  0.7222053402790802  0.4444366653071528  0.8750000000000000
  0.3908176185459287  0.9467964765319103  0.3750000000000000
  0.2203871918723278  0.4433089434920767  0.3750000000000000
  0.2242774648382516  0.6111256077223890  0.3750000000000000
  0.7212165100909070  0.9429105063591410  0.3750000000000000
  0.8901185930711595  0.4458155178158829  0.3750000000000000
  0.0555393219849552  0.6111021675209397  0.8750000000000000
  0.2222072543969749  0.1111046122302045  0.8750000000000000
  0.7222053402790802  0.6111020083052621  0.8750000000000000
  0.5555381066497284  0.1111024981930930  0.8750000000000000
  0.8888725713242528  0.1111029523288010  0.8750000000000000
  0.1094285986673740  0.0548084973194595  0.3750000000000000
  0.6152790932996828  0.5426432301764158  0.3750000000000000
  0.4455181476796878  0.0590250194020901  0.3750000000000000
  0.9476797500569670  0.5569054010316825  0.3750000000000000
  0.7758351998575745  0.0545842665954586  0.3750000000000000
  0.1110690581151312  0.7222011957242267  0.8750000000000000
  0.4444338300551221  0.7222282536923654  0.8750000000000000
  0.2777879521736046  0.2222118911096869  0.8750000000000000
  0.7777670453870101  0.7221926285872571  0.8750000000000000
  0.6110556517612303  0.2222035801111674  0.8750000000000000
  0.9444471187500821  0.2222439007538662  0.8750000000000000
  0.2798141673507504  0.7225025101064528  0.3750000000000000
  0.1064714564362356  0.2199023948847782  0.3750000000000000
  0.4471989320750345  0.2296231959415495  0.3750000000000000
  0.6111559930923581  0.7151922689785360  0.3750000000000000
  0.9476797500569670  0.7241076823586198  0.3750000000000000
  0.7763882913170442  0.2230228830383721  0.3750000000000000
  0.1111097006843243  0.8888709162949446  0.8750000000000000
  0.4443964183278011  0.8888648758305663  0.8750000000000000
  0.2777879521736046  0.3889093943972461  0.8750000000000000
  0.6110917651705874  0.3888651456829915  0.8750000000000000
  0.7777703509928663  0.8889013490837155  0.8750000000000000
  0.9444051438806522  0.3888694406284053  0.8750000000000000
  0.1094285986673739  0.3879534346812435  0.3750000000000000
  0.2798141673507504  0.8906449905776257  0.3750000000000000
  0.6104490956181855  0.8864466507230262  0.3750000000000000
  0.9443694903905137  0.8884180398136542  0.3750000000000000
  0.7789530666528558  0.3910517557887525  0.3750000000000000
  0.2777377486730981  0.5555287063705151  0.8750000000000000
  0.1111164936376062  0.0555800844167736  0.8750000000000000
  0.6110917651705874  0.5555599528209226  0.8750000000000000
  0.4444338300551221  0.0555389096960922  0.8750000000000000
  0.9444394537917656  0.5555330111640081  0.8750000000000000
  0.1130770436521661  0.5559697548539926  0.3750000000000000
  0.7777333590254700  0.0555333461794031  0.8750000000000000
  0.2790072646804709  0.0579641678007202  0.3750000000000000
  0.4471989320750345  0.5509090694668211  0.3750000000000000
  0.7837793821399809  0.5585563577366579  0.3750000000000000
  0.6104490956181855  0.0573357782284906  0.3750000000000000
  0.4444319779857749  0.5555139824953453  0.8750000000000000
  0.9418544937605435  0.0538366970487464  0.3750000000000000
  0.2777726418635101  0.7221970009612124  0.8750000000000000
  0.1110830616643749  0.2222081974988518  0.8750000000000000
  0.4444319779857749  0.2222513288237636  0.8750000000000000
  0.6110556517612303  0.7221854049833892  0.8750000000000000
  0.9444394537917656  0.7222397759610921  0.8750000000000000
  0.7777703509928663  0.2222023352424793  0.8750000000000000
  0.1138745016607356  0.7236039174970323  0.3750000000000000
  0.4455181476796878  0.7198264616109322  0.3750000000000000
  0.2726707140530548  0.2215516662805444  0.3750000000000000
  0.7789530666528558  0.7212346441974299  0.3750000000000000
  0.6111559930923581  0.2292970574471496  0.3750000000000000
  0.9418544937605435  0.2213511300451258  0.3750000000000000
  0.1111164936376062  0.3888697425541609  0.8750000000000000
  0.2777726418635101  0.8889089742356262  0.8750000000000000
  0.6110984933442826  0.8888603650343508  0.8750000000000000
  0.4443902307962101  0.3888617820647663  0.8750000000000000
  0.9444051438806522  0.8888690365855766  0.8750000000000000
  0.1130770436521662  0.8904406221315063  0.3750000000000000
  0.7777670453870101  0.3889077501330833  0.8750000000000000
  0.4453733382440996  0.8893533357887139  0.3750000000000000
  0.2726707140530548  0.3844523811058381  0.3750000000000000
  0.2790072646804709  0.5543764302130854  0.3750000000000000
  0.6152790932996828  0.4059691964565962  0.3750000000000000
  0.7763882913170442  0.8866987416120016  0.3750000000000000
  0.9443694903905137  0.3892847839101874  0.3750000000000000
  0.1111097006843243  0.5555721177227089  0.8750000000000000
  0.2777377486730981  0.0555423756359194  0.8750000000000000
  0.7777253063744054  0.5555293198538698  0.8750000000000000
  0.6110984933442826  0.0555714616432672  0.8750000000000000
  0.9444471187500821  0.0555365513295514  0.8750000000000000
  0.0554829101818552  0.1111693821122645  0.1249713163010459
  0.5554947868309963  0.6111113933751331  0.1252927384207592
  0.3886927011482082  0.1110681629188807  0.1252386477212729
  0.8887212156426332  0.6110272744879828  0.1249767285008047
  0.7221346071534089  0.1109944737715033  0.1250102708260930
  0.0555511679634365  0.7777004059438606  0.6250123478781089
  0.3888461776217032  0.7778238647701434  0.6249856185667545
  0.2220184492678481  0.2776758913005918  0.6247673625368961
  0.7219917337992316  0.7776399767841483  0.6249766825870714
  0.5554947868309963  0.2777167267891997  0.6247072615792413
  0.8888186345705128  0.2778307623501545  0.6250303994542000
  0.2220450619596348  0.7776891976464825  0.1249764295380867
  0.0554829101818552  0.2776468614029260  0.1249713163010459
  0.3888922592902147  0.2779463221627186  0.1258978399988958
  0.5554938043004802  0.7776322427261121  0.1250901471079928
  0.8888581807986106  0.7778475028770422  0.1249797002798299
  0.7219917337992316  0.2776850903484176  0.1250233174129368
  0.0553521170125839  0.9443589067731568  0.6250327279232877
  0.3888461776217032  0.9443556461848941  0.6249856185667545
  0.2221970883679136  0.4444798278349203  0.6248421928511441
  0.5552582595816498  0.4442957964574892  0.6245757823453112
  0.7221346071534089  0.9444734667152417  0.6249897291739080
  0.8888581807986106  0.4443440112549052  0.6250202997201699
  0.0553521170125839  0.4443265435727552  0.1249672720767172
  0.2222103170653248  0.9445507744594239  0.1250241509680484
  0.5553191306160001  0.9443262319746641  0.1250084907935698
  0.3888922592902147  0.4442792704608312  0.1258978399988958
  0.8888186345705149  0.9443212055536951  0.1249696005458008
  0.7221803719222052  0.4445213741522954  0.1250316136185982
  0.2222103170653248  0.6109928759392363  0.6249758490319512
  0.0554829101818552  0.1111693821122645  0.6250286836989527
  0.5554947868309963  0.6111113933751331  0.6247072615792413
  0.3886927011482082  0.1110681629188807  0.6247613522787255
  0.8887212156426332  0.6110272744879828  0.6250232714991955
  0.0555511679634365  0.6111840953529117  0.1249876521218912
  0.7221346071534089  0.1109944737715033  0.6249897291739080
  0.2221970883679136  0.1110505938663360  0.1251578071488557
  0.3886927011482082  0.6109578715626626  0.1252386477212729
  0.7221803719222052  0.6109923311032465  0.1250316136185982
  0.5554938043004802  0.1111948949077051  0.1250901471079928
  0.3886927011482082  0.6109578715626626  0.6247613522787255
  0.8886331961074245  0.1109832647203803  0.1249514981813100
  0.2220450619596348  0.7776891976464825  0.6250235704619145
  0.0554829101818552  0.2776468614029260  0.6250286836989527
  0.3888922592902147  0.2779463221627186  0.6241021600011049
  0.5554938043004802  0.7776322427261121  0.6249098528920070
  0.8888581807986106  0.7778475028770422  0.6250202997201699
  0.7219917337992316  0.2776850903484176  0.6249766825870714
  0.0555511679634365  0.7777004059438606  0.1249876521218912
  0.3888461776217032  0.7778238647701434  0.1250143814332534
  0.2220184492678481  0.2776758913005918  0.1252326374631041
  0.7219917337992316  0.7776399767841483  0.1250233174129368
  0.5554947868309963  0.2777167267891997  0.1252927384207592
  0.8888186345705128  0.2778307623501545  0.1249696005458008
  0.0553521170125839  0.4443265435727552  0.6250327279232877
  0.2222103170653248  0.9445507744594239  0.6249758490319512
  0.5553191306160001  0.9443262319746641  0.6249915092064300
  0.3888922592902147  0.4442792704608312  0.6241021600011049
  0.8888186345705149  0.9443212055536951  0.6250303994542000
  0.0553521170125839  0.9443589067731568  0.1249672720767172
  0.7221803719222052  0.4445213741522954  0.6249683863814023
  0.3888461776217032  0.9443556461848941  0.1250143814332534
  0.2221970883679136  0.4444798278349203  0.1251578071488557
  0.2222103170653248  0.6109928759392363  0.1250241509680484
  0.5552582595816498  0.4442957964574892  0.1254242176546813
  0.7221346071534089  0.9444734667152417  0.1250102708260930
  0.8888581807986106  0.4443440112549052  0.1249797002798299
  0.0555511679634365  0.6111840953529117  0.6250123478781089
  0.2221970883679136  0.1110505938663360  0.6248421928511441
  0.7221803719222062  0.6109923311032465  0.6249683863814023
  0.5554938043004802  0.1111948949077051  0.6249098528920070
  0.8886331961074245  0.1109832647203803  0.6250485018186891
 
  0.00000000E+00  0.00000000E+00  0.00000000E+00
  0.00000000E+00  0.00000000E+00  0.00000000E+00
  0.00000000E+00  0.00000000E+00  0.00000000E+00
  0.00000000E+00  0.00000000E+00  0.00000000E+00
  0.00000000E+00  0.00000000E+00  0.00000000E+00
  0.00000000E+00  0.00000000E+00  0.00000000E+00
  0.00000000E+00  0.00000000E+00  0.00000000E+00
  0.00000000E+00  0.00000000E+00  0.00000000E+00
  0.00000000E+00  0.00000000E+00  0.00000000E+00
  0.00000000E+00  0.00000000E+00  0.00000000E+00
  0.00000000E+00  0.00000000E+00  0.00000000E+00
  0.00000000E+00  0.00000000E+00  0.00000000E+00
  0.00000000E+00  0.00000000E+00  0.00000000E+00
  0.00000000E+00  0.00000000E+00  0.00000000E+00
  0.00000000E+00  0.00000000E+00  0.00000000E+00
  0.00000000E+00  0.00000000E+00  0.00000000E+00
  0.00000000E+00  0.00000000E+00  0.00000000E+00
  0.00000000E+00  0.00000000E+00  0.00000000E+00
  0.00000000E+00  0.00000000E+00  0.00000000E+00
  0.00000000E+00  0.00000000E+00  0.00000000E+00
  0.00000000E+00  0.00000000E+00  0.00000000E+00
  0.00000000E+00  0.00000000E+00  0.00000000E+00
  0.00000000E+00  0.00000000E+00  0.00000000E+00
  0.00000000E+00  0.00000000E+00  0.00000000E+00
  0.00000000E+00  0.00000000E+00  0.00000000E+00
  0.00000000E+00  0.00000000E+00  0.00000000E+00
  0.00000000E+00  0.00000000E+00  0.00000000E+00
  0.00000000E+00  0.00000000E+00  0.00000000E+00
  0.00000000E+00  0.00000000E+00  0.00000000E+00
  0.00000000E+00  0.00000000E+00  0.00000000E+00
  0.00000000E+00  0.00000000E+00  0.00000000E+00
  0.00000000E+00  0.00000000E+00  0.00000000E+00
  0.00000000E+00  0.00000000E+00  0.00000000E+00
  0.00000000E+00  0.00000000E+00  0.00000000E+00
  0.00000000E+00  0.00000000E+00  0.00000000E+00
  0.00000000E+00  0.00000000E+00  0.00000000E+00
  0.00000000E+00  0.00000000E+00  0.00000000E+00
  0.00000000E+00  0.00000000E+00  0.00000000E+00
  0.00000000E+00  0.00000000E+00  0.00000000E+00
  0.00000000E+00  0.00000000E+00  0.00000000E+00
  0.00000000E+00  0.00000000E+00  0.00000000E+00
  0.00000000E+00  0.00000000E+00  0.00000000E+00
  0.00000000E+00  0.00000000E+00  0.00000000E+00
  0.00000000E+00  0.00000000E+00  0.00000000E+00
  0.00000000E+00  0.00000000E+00  0.00000000E+00
  0.00000000E+00  0.00000000E+00  0.00000000E+00
  0.00000000E+00  0.00000000E+00  0.00000000E+00
  0.00000000E+00  0.00000000E+00  0.00000000E+00
  0.00000000E+00  0.00000000E+00  0.00000000E+00
  0.00000000E+00  0.00000000E+00  0.00000000E+00
  0.00000000E+00  0.00000000E+00  0.00000000E+00
  0.00000000E+00  0.00000000E+00  0.00000000E+00
  0.00000000E+00  0.00000000E+00  0.00000000E+00
  0.00000000E+00  0.00000000E+00  0.00000000E+00
  0.00000000E+00  0.00000000E+00  0.00000000E+00
  0.00000000E+00  0.00000000E+00  0.00000000E+00
  0.00000000E+00  0.00000000E+00  0.00000000E+00
  0.00000000E+00  0.00000000E+00  0.00000000E+00
  0.00000000E+00  0.00000000E+00  0.00000000E+00
  0.00000000E+00  0.00000000E+00  0.00000000E+00
  0.00000000E+00  0.00000000E+00  0.00000000E+00
  0.00000000E+00  0.00000000E+00  0.00000000E+00
  0.00000000E+00  0.00000000E+00  0.00000000E+00
  0.00000000E+00  0.00000000E+00  0.00000000E+00
  0.00000000E+00  0.00000000E+00  0.00000000E+00
  0.00000000E+00  0.00000000E+00  0.00000000E+00
  0.00000000E+00  0.00000000E+00  0.00000000E+00
  0.00000000E+00  0.00000000E+00  0.00000000E+00
  0.00000000E+00  0.00000000E+00  0.00000000E+00
  0.00000000E+00  0.00000000E+00  0.00000000E+00
  0.00000000E+00  0.00000000E+00  0.00000000E+00
  0.00000000E+00  0.00000000E+00  0.00000000E+00
  0.00000000E+00  0.00000000E+00  0.00000000E+00
  0.00000000E+00  0.00000000E+00  0.00000000E+00
  0.00000000E+00  0.00000000E+00  0.00000000E+00
  0.00000000E+00  0.00000000E+00  0.00000000E+00
  0.00000000E+00  0.00000000E+00  0.00000000E+00
  0.00000000E+00  0.00000000E+00  0.00000000E+00
  0.00000000E+00  0.00000000E+00  0.00000000E+00
  0.00000000E+00  0.00000000E+00  0.00000000E+00
  0.00000000E+00  0.00000000E+00  0.00000000E+00
  0.00000000E+00  0.00000000E+00  0.00000000E+00
  0.00000000E+00  0.00000000E+00  0.00000000E+00
  0.00000000E+00  0.00000000E+00  0.00000000E+00
  0.00000000E+00  0.00000000E+00  0.00000000E+00
  0.00000000E+00  0.00000000E+00  0.00000000E+00
  0.00000000E+00  0.00000000E+00  0.00000000E+00
  0.00000000E+00  0.00000000E+00  0.00000000E+00
  0.00000000E+00  0.00000000E+00  0.00000000E+00
  0.00000000E+00  0.00000000E+00  0.00000000E+00
  0.00000000E+00  0.00000000E+00  0.00000000E+00
  0.00000000E+00  0.00000000E+00  0.00000000E+00
  0.00000000E+00  0.00000000E+00  0.00000000E+00
  0.00000000E+00  0.00000000E+00  0.00000000E+00
  0.00000000E+00  0.00000000E+00  0.00000000E+00
  0.00000000E+00  0.00000000E+00  0.00000000E+00
  0.00000000E+00  0.00000000E+00  0.00000000E+00
  0.00000000E+00  0.00000000E+00  0.00000000E+00
  0.00000000E+00  0.00000000E+00  0.00000000E+00
  0.00000000E+00  0.00000000E+00  0.00000000E+00
  0.00000000E+00  0.00000000E+00  0.00000000E+00
  0.00000000E+00  0.00000000E+00  0.00000000E+00
  0.00000000E+00  0.00000000E+00  0.00000000E+00
  0.00000000E+00  0.00000000E+00  0.00000000E+00
  0.00000000E+00  0.00000000E+00  0.00000000E+00
  0.00000000E+00  0.00000000E+00  0.00000000E+00
  0.00000000E+00  0.00000000E+00  0.00000000E+00
  0.00000000E+00  0.00000000E+00  0.00000000E+00
  0.00000000E+00  0.00000000E+00  0.00000000E+00
  0.00000000E+00  0.00000000E+00  0.00000000E+00
  0.00000000E+00  0.00000000E+00  0.00000000E+00
  0.00000000E+00  0.00000000E+00  0.00000000E+00
  0.00000000E+00  0.00000000E+00  0.00000000E+00
  0.00000000E+00  0.00000000E+00  0.00000000E+00
  0.00000000E+00  0.00000000E+00  0.00000000E+00
  0.00000000E+00  0.00000000E+00  0.00000000E+00
  0.00000000E+00  0.00000000E+00  0.00000000E+00
  0.00000000E+00  0.00000000E+00  0.00000000E+00
  0.00000000E+00  0.00000000E+00  0.00000000E+00
  0.00000000E+00  0.00000000E+00  0.00000000E+00
  0.00000000E+00  0.00000000E+00  0.00000000E+00
  0.00000000E+00  0.00000000E+00  0.00000000E+00
  0.00000000E+00  0.00000000E+00  0.00000000E+00
  0.00000000E+00  0.00000000E+00  0.00000000E+00
  0.00000000E+00  0.00000000E+00  0.00000000E+00
  0.00000000E+00  0.00000000E+00  0.00000000E+00
  0.00000000E+00  0.00000000E+00  0.00000000E+00
  0.00000000E+00  0.00000000E+00  0.00000000E+00
  0.00000000E+00  0.00000000E+00  0.00000000E+00
  0.00000000E+00  0.00000000E+00  0.00000000E+00
  0.00000000E+00  0.00000000E+00  0.00000000E+00
  0.00000000E+00  0.00000000E+00  0.00000000E+00
  0.00000000E+00  0.00000000E+00  0.00000000E+00
  0.00000000E+00  0.00000000E+00  0.00000000E+00
  0.00000000E+00  0.00000000E+00  0.00000000E+00
  0.00000000E+00  0.00000000E+00  0.00000000E+00
  0.00000000E+00  0.00000000E+00  0.00000000E+00
  0.00000000E+00  0.00000000E+00  0.00000000E+00
  0.00000000E+00  0.00000000E+00  0.00000000E+00
  0.00000000E+00  0.00000000E+00  0.00000000E+00
  0.00000000E+00  0.00000000E+00  0.00000000E+00
  0.00000000E+00  0.00000000E+00  0.00000000E+00
  0.00000000E+00  0.00000000E+00  0.00000000E+00
  0.00000000E+00  0.00000000E+00  0.00000000E+00
  0.00000000E+00  0.00000000E+00  0.00000000E+00
  0.00000000E+00  0.00000000E+00  0.00000000E+00
  0.00000000E+00  0.00000000E+00  0.00000000E+00
  0.00000000E+00  0.00000000E+00  0.00000000E+00
  0.00000000E+00  0.00000000E+00  0.00000000E+00
  0.00000000E+00  0.00000000E+00  0.00000000E+00
  0.00000000E+00  0.00000000E+00  0.00000000E+00
  0.00000000E+00  0.00000000E+00  0.00000000E+00
  0.00000000E+00  0.00000000E+00  0.00000000E+00
  0.00000000E+00  0.00000000E+00  0.00000000E+00
  0.00000000E+00  0.00000000E+00  0.00000000E+00
  0.00000000E+00  0.00000000E+00  0.00000000E+00
  0.00000000E+00  0.00000000E+00  0.00000000E+00
  0.00000000E+00  0.00000000E+00  0.00000000E+00
  0.00000000E+00  0.00000000E+00  0.00000000E+00
  0.00000000E+00  0.00000000E+00  0.00000000E+00
  0.00000000E+00  0.00000000E+00  0.00000000E+00
  0.00000000E+00  0.00000000E+00  0.00000000E+00
  0.00000000E+00  0.00000000E+00  0.00000000E+00
  0.00000000E+00  0.00000000E+00  0.00000000E+00
  0.00000000E+00  0.00000000E+00  0.00000000E+00
  0.00000000E+00  0.00000000E+00  0.00000000E+00
  0.00000000E+00  0.00000000E+00  0.00000000E+00
  0.00000000E+00  0.00000000E+00  0.00000000E+00
  0.00000000E+00  0.00000000E+00  0.00000000E+00
  0.00000000E+00  0.00000000E+00  0.00000000E+00
  0.00000000E+00  0.00000000E+00  0.00000000E+00
  0.00000000E+00  0.00000000E+00  0.00000000E+00
  0.00000000E+00  0.00000000E+00  0.00000000E+00
  0.00000000E+00  0.00000000E+00  0.00000000E+00
  0.00000000E+00  0.00000000E+00  0.00000000E+00
  0.00000000E+00  0.00000000E+00  0.00000000E+00
  0.00000000E+00  0.00000000E+00  0.00000000E+00
  0.00000000E+00  0.00000000E+00  0.00000000E+00
  0.00000000E+00  0.00000000E+00  0.00000000E+00
  0.00000000E+00  0.00000000E+00  0.00000000E+00
  0.00000000E+00  0.00000000E+00  0.00000000E+00
  0.00000000E+00  0.00000000E+00  0.00000000E+00
  0.00000000E+00  0.00000000E+00  0.00000000E+00
  0.00000000E+00  0.00000000E+00  0.00000000E+00
  0.00000000E+00  0.00000000E+00  0.00000000E+00
  0.00000000E+00  0.00000000E+00  0.00000000E+00
  0.00000000E+00  0.00000000E+00  0.00000000E+00
  0.00000000E+00  0.00000000E+00  0.00000000E+00
  0.00000000E+00  0.00000000E+00  0.00000000E+00
  0.00000000E+00  0.00000000E+00  0.00000000E+00
  0.00000000E+00  0.00000000E+00  0.00000000E+00
  0.00000000E+00  0.00000000E+00  0.00000000E+00
  0.00000000E+00  0.00000000E+00  0.00000000E+00
  0.00000000E+00  0.00000000E+00  0.00000000E+00
  0.00000000E+00  0.00000000E+00  0.00000000E+00
  0.00000000E+00  0.00000000E+00  0.00000000E+00
  0.00000000E+00  0.00000000E+00  0.00000000E+00
  0.00000000E+00  0.00000000E+00  0.00000000E+00
  0.00000000E+00  0.00000000E+00  0.00000000E+00
  0.00000000E+00  0.00000000E+00  0.00000000E+00
  0.00000000E+00  0.00000000E+00  0.00000000E+00
  0.00000000E+00  0.00000000E+00  0.00000000E+00
  0.00000000E+00  0.00000000E+00  0.00000000E+00
  0.00000000E+00  0.00000000E+00  0.00000000E+00
  0.00000000E+00  0.00000000E+00  0.00000000E+00
  0.00000000E+00  0.00000000E+00  0.00000000E+00
  0.00000000E+00  0.00000000E+00  0.00000000E+00
  0.00000000E+00  0.00000000E+00  0.00000000E+00
  0.00000000E+00  0.00000000E+00  0.00000000E+00
  0.00000000E+00  0.00000000E+00  0.00000000E+00
  0.00000000E+00  0.00000000E+00  0.00000000E+00
  0.00000000E+00  0.00000000E+00  0.00000000E+00
  0.00000000E+00  0.00000000E+00  0.00000000E+00
  0.00000000E+00  0.00000000E+00  0.00000000E+00
  0.00000000E+00  0.00000000E+00  0.00000000E+00
  0.00000000E+00  0.00000000E+00  0.00000000E+00
  0.00000000E+00  0.00000000E+00  0.00000000E+00
  0.00000000E+00  0.00000000E+00  0.00000000E+00
  0.00000000E+00  0.00000000E+00  0.00000000E+00
  0.00000000E+00  0.00000000E+00  0.00000000E+00
  0.00000000E+00  0.00000000E+00  0.00000000E+00
  0.00000000E+00  0.00000000E+00  0.00000000E+00
  0.00000000E+00  0.00000000E+00  0.00000000E+00
  0.00000000E+00  0.00000000E+00  0.00000000E+00
  0.00000000E+00  0.00000000E+00  0.00000000E+00
  0.00000000E+00  0.00000000E+00  0.00000000E+00
  0.00000000E+00  0.00000000E+00  0.00000000E+00
  0.00000000E+00  0.00000000E+00  0.00000000E+00
  0.00000000E+00  0.00000000E+00  0.00000000E+00
  0.00000000E+00  0.00000000E+00  0.00000000E+00
  0.00000000E+00  0.00000000E+00  0.00000000E+00
  0.00000000E+00  0.00000000E+00  0.00000000E+00
  0.00000000E+00  0.00000000E+00  0.00000000E+00
  0.00000000E+00  0.00000000E+00  0.00000000E+00
  0.00000000E+00  0.00000000E+00  0.00000000E+00
  0.00000000E+00  0.00000000E+00  0.00000000E+00
  0.00000000E+00  0.00000000E+00  0.00000000E+00
  0.00000000E+00  0.00000000E+00  0.00000000E+00
  0.00000000E+00  0.00000000E+00  0.00000000E+00
  0.00000000E+00  0.00000000E+00  0.00000000E+00
  0.00000000E+00  0.00000000E+00  0.00000000E+00
  0.00000000E+00  0.00000000E+00  0.00000000E+00
  0.00000000E+00  0.00000000E+00  0.00000000E+00
  0.00000000E+00  0.00000000E+00  0.00000000E+00
  0.00000000E+00  0.00000000E+00  0.00000000E+00
  0.00000000E+00  0.00000000E+00  0.00000000E+00
  0.00000000E+00  0.00000000E+00  0.00000000E+00
  0.00000000E+00  0.00000000E+00  0.00000000E+00
  0.00000000E+00  0.00000000E+00  0.00000000E+00
  0.00000000E+00  0.00000000E+00  0.00000000E+00