B C N                                   
   1.0000000000000000     
     8.7639499999999995  -15.1796066749929999    0.0000000000000000
     8.7639499999999995   15.1796066749929999    0.0000000000000000
     0.0000000000000000    0.0000000000000000   15.0000000000000000
   B    C    N 
    46     3    47
Selective dynamics
Direct
  0.9051225586733472  0.9537493042626832  0.1109378666255910   T   T   T
  0.9064643773428982  0.0975349787049558  0.1109877224585220   T   T   T
  0.9064451350963825  0.2401794547336094  0.1110705047652947   T   T   T
  0.9055157094973321  0.3822532607203386  0.1110441455077663   T   T   T
  0.9028400613465467  0.5236098877634912  0.1109829431809105   T   T   T
  0.8983535739628932  0.6646895160962428  0.1109717496221066   T   T   T
  0.9015224119660893  0.8085785003052226  0.1109980969263440   T   T   T
  0.0461949823109213  0.9511805587288246  0.1109390154651196   T   T   T
  0.0479893198284092  0.0953861869656188  0.1109527025773925   T   T   T
  0.0494573795518983  0.2394945193456255  0.1110227533970080   T   T   T
  0.0497043746209083  0.3823511657917662  0.1110213314393678   T   T   T
  0.0483245341061332  0.5241465284238113  0.1109977403651031   T   T   T
  0.0455202807011061  0.6654246859830871  0.1109592949291002   T   T   T
  0.0445908218367972  0.8073629111440311  0.1109517021497498   T   T   T
  0.1886119102453069  0.9498820581900783  0.1110289597492715   T   T   T
  0.1896934035871115  0.0934458393302853  0.1110481408823173   T   T   T
  0.1907404036168496  0.2369484466855474  0.1109824231866086   T   T   T
  0.1934197418228903  0.3818374057736510  0.1109575823551287   T   T   T
  0.1934305026821081  0.5245494384133634  0.1109624316588738   T   T   T
  0.1918906072212008  0.6659561370484779  0.1109937263338483   T   T   T
  0.1892426268032802  0.8076374863741435  0.1109780609316177   T   T   T
  0.3325204012354435  0.9504351752330462  0.1110048644738841   T   T   T
  0.3317032279076232  0.0919288942815791  0.1110972855044636   T   T   T
  0.3329223575811695  0.2345408936787790  0.1111314338163426   T   T   T
  0.3339622457560591  0.3776106247231277  0.1111130432246907   T   T   T
  0.3383355164869128  0.5259960108613339  0.1110187199319260   T   T   T
  0.3390069511064008  0.6668142320759066  0.1110228997165621   T   T   T
  0.3339149208916533  0.8085076517345133  0.1110045036933170   T   T   T
  0.4765828543535889  0.9526545125929385  0.1109359838945411   T   T   T
  0.4757616673108074  0.0945192243636415  0.1110041699808281   T   T   T
  0.4742138959030519  0.2352241145798769  0.1111310858790810   T   T   T
  0.4906578397235267  0.6701300330415054  0.1111041150332661   T   T   T
  0.4780645165695768  0.8106695372558338  0.1110035215182909   T   T   T
  0.6204136125735051  0.9557679566903523  0.1108916287042884   T   T   T
  0.6196707921744741  0.0967485279375101  0.1109068904504091   T   T   T
  0.6193049993254288  0.2383961142424895  0.1110251912421505   T   T   T
  0.6209315052154635  0.3834682735136372  0.1110808699081329   T   T   T
  0.6156844117498983  0.6738424309511687  0.1111114856932066   T   T   T
  0.6220537111567329  0.8162226951598884  0.1109830229605699   T   T   T
  0.7639192517404664  0.9560826062606181  0.1109160131973100   T   T   T
  0.7634326499890149  0.0979547267154012  0.1109328508598987   T   T   T
  0.7628254615520091  0.2398791836364806  0.1110258771935660   T   T   T
  0.7612702962295411  0.3818389264842994  0.1110342552415001   T   T   T
  0.7546298211720299  0.5217521445595781  0.1109859866010442   T   T   T
  0.7502761610897807  0.6645849537809990  0.1110958547694654   T   T   T
  0.7619126603804153  0.8123486485890462  0.1110216600451829   T   T   T
  0.4764466749390905  0.3758929090926078  0.1113997639185269   T   T   T
  0.4686313158751328  0.5044035638448261  0.1116004536330928   T   T   T
  0.5133956178642699  0.4666680705106289  0.1117308539451819   T   T   T
  0.9516245495935962  0.9050666961591042  0.1109219840197528   T   T   T
  0.9534935715290126  0.0493543177761575  0.1109278982865290   T   T   T
  0.9544866025892328  0.1927564765994911  0.1110342838928475   T   T   T
  0.9544090271254840  0.3351353828170930  0.1110485343254727   T   T   T
  0.9531271731925111  0.4770868385777587  0.1109924176748865   T   T   T
  0.9502272722552658  0.6188817012742921  0.1109419672732068   T   T   T
  0.9497244789520289  0.7610298097686656  0.1109572630907100   T   T   T
  0.0936926821209004  0.9032273073708585  0.1109508136278759   T   T   T
  0.0949563813026164  0.0470397099724819  0.1109418306138078   T   T   T
  0.0961884583505684  0.1907880881011917  0.1109621542507663   T   T   T
  0.0980357479522920  0.3348441293102903  0.1109848757814500   T   T   T
  0.0977776152713977  0.4773729704278992  0.1109735089228248   T   T   T
  0.0960417128341765  0.6191250888503955  0.1109662227098929   T   T   T
  0.0940138428861752  0.7608051702199268  0.1109344702206760   T   T   T
  0.2371624046081328  0.9030262906571600  0.1109927266039072   T   T   T
  0.2367861553982234  0.0453734087692460  0.1110731154819511   T   T   T
  0.2381875604090434  0.1891405520007744  0.1110325711530706   T   T   T
  0.2394348166048688  0.3319695189319600  0.1109495599231956   T   T   T
  0.2423354781259165  0.4774168787290595  0.1109153710504924   T   T   T
  0.2420921103799129  0.6194786509178768  0.1109803428082873   T   T   T
  0.2385265422854510  0.7610688569427944  0.1109799599510818   T   T   T
  0.3810097598413197  0.9038481485238135  0.1109630754870704   T   T   T
  0.3801250493325028  0.0456688404105100  0.1110193612428104   T   T   T
  0.3793770496451228  0.1870117581597376  0.1111288215187056   T   T   T
  0.3833635525331869  0.3304973254209412  0.1111966617599937   T   T   T
  0.3810271190035511  0.4728107126291708  0.1111555306501374   T   T   T
  0.3905191832467783  0.6207448961678071  0.1110214631863804   T   T   T
  0.3828325576696839  0.7618887704642380  0.1110150336336612   T   T   T
  0.5248539260495263  0.9062778490307561  0.1109099228398220   T   T   T
  0.5239444870348352  0.0478628622777891  0.1109043728751284   T   T   T
  0.5229423226609592  0.1894708579255158  0.1110293921781254   T   T   T
  0.5196842680816389  0.3304120281634214  0.1112011940533635   T   T   T
  0.5266808366772352  0.7648424448189293  0.1110188974287563   T   T   T
  0.6690132131269879  0.9105584789073663  0.1108929741183170   T   T   T
  0.6679961908158140  0.0504784601776547  0.1108571782513351   T   T   T
  0.6672167921875712  0.1911811017569157  0.1109542071472687   T   T   T
  0.6657017173922921  0.3314907188107830  0.1110555720066859   T   T   T
  0.6630233017513355  0.4718650498363587  0.1109486064947912   T   T   T
  0.6575403836641951  0.6267104455385072  0.1111550848744096   T   T   T
  0.6678568756105543  0.7699681876112916  0.1109955758057611   T   T   T
  0.8108642571055039  0.9084234525684188  0.1109424930817887   T   T   T
  0.8116298269069742  0.0511712593179985  0.1109135050944087   T   T   T
  0.8112129664798172  0.1928167222670550  0.1110071363882667   T   T   T
  0.8103322846092389  0.3344400625011810  0.1110340396999671   T   T   T
  0.8084363844621435  0.4763317948949103  0.1109784344464513   T   T   T
  0.8035266661006284  0.6186829114952767  0.1109943129364119   T   T   T
  0.8072307443272942  0.7632213817376835  0.1110509370017899   T   T   T

  0.00000000E+00  0.00000000E+00  0.00000000E+00
  0.00000000E+00  0.00000000E+00  0.00000000E+00
  0.00000000E+00  0.00000000E+00  0.00000000E+00
  0.00000000E+00  0.00000000E+00  0.00000000E+00
  0.00000000E+00  0.00000000E+00  0.00000000E+00
  0.00000000E+00  0.00000000E+00  0.00000000E+00
  0.00000000E+00  0.00000000E+00  0.00000000E+00
  0.00000000E+00  0.00000000E+00  0.00000000E+00
  0.00000000E+00  0.00000000E+00  0.00000000E+00
  0.00000000E+00  0.00000000E+00  0.00000000E+00
  0.00000000E+00  0.00000000E+00  0.00000000E+00
  0.00000000E+00  0.00000000E+00  0.00000000E+00
  0.00000000E+00  0.00000000E+00  0.00000000E+00
  0.00000000E+00  0.00000000E+00  0.00000000E+00
  0.00000000E+00  0.00000000E+00  0.00000000E+00
  0.00000000E+00  0.00000000E+00  0.00000000E+00
  0.00000000E+00  0.00000000E+00  0.00000000E+00
  0.00000000E+00  0.00000000E+00  0.00000000E+00
  0.00000000E+00  0.00000000E+00  0.00000000E+00
  0.00000000E+00  0.00000000E+00  0.00000000E+00
  0.00000000E+00  0.00000000E+00  0.00000000E+00
  0.00000000E+00  0.00000000E+00  0.00000000E+00
  0.00000000E+00  0.00000000E+00  0.00000000E+00
  0.00000000E+00  0.00000000E+00  0.00000000E+00
  0.00000000E+00  0.00000000E+00  0.00000000E+00
  0.00000000E+00  0.00000000E+00  0.00000000E+00
  0.00000000E+00  0.00000000E+00  0.00000000E+00
  0.00000000E+00  0.00000000E+00  0.00000000E+00
  0.00000000E+00  0.00000000E+00  0.00000000E+00
  0.00000000E+00  0.00000000E+00  0.00000000E+00
  0.00000000E+00  0.00000000E+00  0.00000000E+00
  0.00000000E+00  0.00000000E+00  0.00000000E+00
  0.00000000E+00  0.00000000E+00  0.00000000E+00
  0.00000000E+00  0.00000000E+00  0.00000000E+00
  0.00000000E+00  0.00000000E+00  0.00000000E+00
  0.00000000E+00  0.00000000E+00  0.00000000E+00
  0.00000000E+00  0.00000000E+00  0.00000000E+00
  0.00000000E+00  0.00000000E+00  0.00000000E+00
  0.00000000E+00  0.00000000E+00  0.00000000E+00
  0.00000000E+00  0.00000000E+00  0.00000000E+00
  0.00000000E+00  0.00000000E+00  0.00000000E+00
  0.00000000E+00  0.00000000E+00  0.00000000E+00
  0.00000000E+00  0.00000000E+00  0.00000000E+00
  0.00000000E+00  0.00000000E+00  0.00000000E+00
  0.00000000E+00  0.00000000E+00  0.00000000E+00
  0.00000000E+00  0.00000000E+00  0.00000000E+00
  0.00000000E+00  0.00000000E+00  0.00000000E+00
  0.00000000E+00  0.00000000E+00  0.00000000E+00
  0.00000000E+00  0.00000000E+00  0.00000000E+00
  0.00000000E+00  0.00000000E+00  0.00000000E+00
  0.00000000E+00  0.00000000E+00  0.00000000E+00
  0.00000000E+00  0.00000000E+00  0.00000000E+00
  0.00000000E+00  0.00000000E+00  0.00000000E+00
  0.00000000E+00  0.00000000E+00  0.00000000E+00
  0.00000000E+00  0.00000000E+00  0.00000000E+00
  0.00000000E+00  0.00000000E+00  0.00000000E+00
  0.00000000E+00  0.00000000E+00  0.00000000E+00
  0.00000000E+00  0.00000000E+00  0.00000000E+00
  0.00000000E+00  0.00000000E+00  0.00000000E+00
  0.00000000E+00  0.00000000E+00  0.00000000E+00
  0.00000000E+00  0.00000000E+00  0.00000000E+00
  0.00000000E+00  0.00000000E+00  0.00000000E+00
  0.00000000E+00  0.00000000E+00  0.00000000E+00
  0.00000000E+00  0.00000000E+00  0.00000000E+00
  0.00000000E+00  0.00000000E+00  0.00000000E+00
  0.00000000E+00  0.00000000E+00  0.00000000E+00
  0.00000000E+00  0.00000000E+00  0.00000000E+00
  0.00000000E+00  0.00000000E+00  0.00000000E+00
  0.00000000E+00  0.00000000E+00  0.00000000E+00
  0.00000000E+00  0.00000000E+00  0.00000000E+00
  0.00000000E+00  0.00000000E+00  0.00000000E+00
  0.00000000E+00  0.00000000E+00  0.00000000E+00
  0.00000000E+00  0.00000000E+00  0.00000000E+00
  0.00000000E+00  0.00000000E+00  0.00000000E+00
  0.00000000E+00  0.00000000E+00  0.00000000E+00
  0.00000000E+00  0.00000000E+00  0.00000000E+00
  0.00000000E+00  0.00000000E+00  0.00000000E+00
  0.00000000E+00  0.00000000E+00  0.00000000E+00
  0.00000000E+00  0.00000000E+00  0.00000000E+00
  0.00000000E+00  0.00000000E+00  0.00000000E+00
  0.00000000E+00  0.00000000E+00  0.00000000E+00
  0.00000000E+00  0.00000000E+00  0.00000000E+00
  0.00000000E+00  0.00000000E+00  0.00000000E+00
  0.00000000E+00  0.00000000E+00  0.00000000E+00
  0.00000000E+00  0.00000000E+00  0.00000000E+00
  0.00000000E+00  0.00000000E+00  0.00000000E+00
  0.00000000E+00  0.00000000E+00  0.00000000E+00
  0.00000000E+00  0.00000000E+00  0.00000000E+00
  0.00000000E+00  0.00000000E+00  0.00000000E+00
  0.00000000E+00  0.00000000E+00  0.00000000E+00
  0.00000000E+00  0.00000000E+00  0.00000000E+00
  0.00000000E+00  0.00000000E+00  0.00000000E+00
  0.00000000E+00  0.00000000E+00  0.00000000E+00
  0.00000000E+00  0.00000000E+00  0.00000000E+00
  0.00000000E+00  0.00000000E+00  0.00000000E+00
  0.00000000E+00  0.00000000E+00  0.00000000E+00
