Species order: X N B                    
   2.51242800000000     
     5.9449720136058266    0.0000000000000000    0.0000000000000000
    -2.9724860068029120    5.1484967885702053   -0.0000000000000001
     0.0000000000000000    0.0000000000000009    5.3101128803662583
   Sb   N    B 
     1   143   143
Direct
  0.4933252063607347  0.4133292698470311  0.3750000000000000
  0.1110933273032299  0.0555219769349519  0.1251071087954528
  0.6111024011957447  0.5555843796203243  0.1243260105783916
  0.4444295259892529  0.0555193715304811  0.1251438420677800
  0.9444241628327720  0.5555517901483463  0.1252564365194077
  0.7777839270156695  0.0555586301745037  0.1250488962861428
  0.1110893043627853  0.7222113188480552  0.6248803478514797
  0.4444295259892529  0.7222434877921091  0.6248561579322200
  0.2777363386370020  0.2221736131112759  0.6253821826715020
  0.7777604858755689  0.7222124856337606  0.6247738099613266
  0.6110941844726286  0.2221875583084894  0.6249818391378759
  0.9444521567256003  0.2222327792104117  0.6248652891311899
  0.2777582263790374  0.7222253861410491  0.1251522657912853
  0.1111165645579368  0.2222249489456328  0.1250470060031965
  0.4444338924324479  0.2221843564480646  0.1247209190251200
  0.6110941844726286  0.7222399594974687  0.1250181608621249
  0.9444241628327720  0.7222057060177604  0.1252564365194077
  0.7777748954034854  0.2222195134345428  0.1251373007621172
  0.1110916283805787  0.8888615521306688  0.6248410246089838
  0.4444305065586759  0.8888819199460020  0.6248371417607779
  0.2777363386370020  0.3888960588590558  0.6253821826715020
  0.6111024011957447  0.3888513549087460  0.6256739894216091
  0.7777748954034854  0.8888887153022723  0.6248626992378840
  0.9444334859705222  0.3888966217170692  0.6247920589089920
  0.1110933273032299  0.3889046837016073  0.1251071087954528
  0.2777582263790374  0.8888661735713154  0.1251522657912853
  0.6111048695984914  0.8888989404118561  0.1251164205712344
  0.4443622765062263  0.3888478049197771  0.1249199235440469
  0.9444334859705222  0.8888701975867808  0.1252079410910072
  0.7777604858755689  0.3888813335751370  0.1252261900386717
  0.2777609743240146  0.5555764836094896  0.6249265750560331
  0.1110933273032299  0.0555219769349519  0.6248928912045478
  0.6111024011957447  0.5555843796203243  0.6256739894216091
  0.4444295259892529  0.0555193715304811  0.6248561579322200
  0.9444241628327720  0.5555517901483463  0.6247435634805908
  0.1110916283805787  0.5555634095832397  0.1251589753910151
  0.7777839270156695  0.0555586301745037  0.6249511037138585
  0.2777609743240147  0.0555178240478613  0.1250734249439658
  0.4444338924324479  0.5555828693177199  0.1247209190251200
  0.7777478929002097  0.5555406131167736  0.1252374418717824
  0.6111048695984914  0.0555392625199670  0.1251164205712344
  0.4444338924324482  0.5555828693177199  0.6252790809748809
  0.9444521567256007  0.0555527108485262  0.1251347108688084
  0.2777582263790374  0.7222253861410491  0.6248477342087134
  0.1111165645579368  0.2222249489456328  0.6249529939968047
  0.4444338924324478  0.2221843564480647  0.6252790809748809
  0.6110941844726286  0.7222399594974687  0.6249818391378759
  0.9444241628327720  0.7222057060177604  0.6247435634805908
  0.7777748954034854  0.2222195134345428  0.6248626992378840
  0.1110893043627852  0.7222113188480552  0.1251196521485195
  0.4444295259892529  0.7222434877921091  0.1251438420677800
  0.2777363386370020  0.2221736131112759  0.1246178173284989
  0.7777604858755689  0.7222124856337604  0.1252261900386717
  0.6110941844726286  0.2221875583084894  0.1250181608621249
  0.9444521567256003  0.2222327792104117  0.1251347108688084
  0.1110933273032299  0.3889046837016073  0.6248928912045478
  0.2777582263790374  0.8888661735713154  0.6248477342087134
  0.6111048695984914  0.8888989404118561  0.6248835794287648
  0.4443622765062263  0.3888478049197771  0.6250800764559526
  0.9444334859705222  0.8888701975867808  0.6247920589089920
  0.1110916283805787  0.8888615521306688  0.1251589753910151
  0.7777604858755689  0.3888813335751370  0.6247738099613266
  0.4444305065586759  0.8888819199460017  0.1251628582392223
  0.2777363386370020  0.3888960588590558  0.1246178173284989
  0.2777609743240146  0.5555764836094896  0.1250734249439658
  0.6111024011957447  0.3888513549087460  0.1243260105783917
  0.7777748954034854  0.8888887153022723  0.1251373007621172
  0.9444334859705222  0.3888966217170692  0.1252079410910072
  0.1110916283805787  0.5555634095832397  0.6248410246089838
  0.2777609743240147  0.0555178240478613  0.6249265750560331
  0.7777478929002097  0.5555406131167736  0.6247625581282166
  0.6111048695984914  0.0555392625199670  0.6248835794287648
  0.9444521567256007  0.0555527108485262  0.6248652891311899
  0.0586984460391622  0.1128713071982091  0.3750000000000000
  0.5557734541266498  0.6210499040240721  0.3750000000000000
  0.3879060695308271  0.1042051827562085  0.3750000000000000
  0.8866413996159482  0.6099873664746481  0.3750000000000000
  0.7246465010191689  0.1113363415737332  0.3750000000000000
  0.0555336849741880  0.7777687460701701  0.8750000000000000
  0.3888777454970992  0.7777708995391145  0.8750000000000000
  0.2222010794487414  0.2777672063910391  0.8750000000000000
  0.7222080336899384  0.7777703785138096  0.8750000000000000
  0.5555393065146688  0.2777706776712605  0.8750000000000000
  0.8888746089651774  0.2777712327073336  0.8750000000000000
  0.2207709532051149  0.7770521432692249  0.3750000000000000
  0.0586984460391622  0.2791604721742888  0.3750000000000000
  0.3895322962361989  0.2671238405799189  0.3750000000000000
  0.5564494925698585  0.7826198257823813  0.3750000000000000
  0.8894272863260069  0.7787895497369129  0.3750000000000000
  0.7242540354867046  0.2762581887304287  0.3750000000000000
  0.0555351961125928  0.9444359173193456  0.8750000000000000
  0.3888777454970992  0.9444401792913216  0.8750000000000000
  0.2222013343103258  0.4444323287133331  0.8750000000000000
  0.5555353958855634  0.4444343646094457  0.8750000000000000
  0.7222089925102312  0.9444373718233467  0.8750000000000000
  0.8888713358123737  0.4444340031937494  0.8750000000000000
  0.0562856796257976  0.4449925987925035  0.3750000000000000
  0.2210285458725997  0.9423055541144851  0.3750000000000000
  0.5565433493103895  0.9449383413218599  0.3750000000000000
  0.3895322962361989  0.4557417889896164  0.3750000000000000
  0.8914002110556773  0.9465440245384457  0.3750000000000000
  0.7221512394841709  0.4424825830322360  0.3750000000000000
  0.2222037291470330  0.6110985728635677  0.8750000000000000
  0.0555353903712787  0.1111008621031168  0.8750000000000000
  0.5555393065146688  0.6111019621767463  0.8750000000000000
  0.3888749145255033  0.1111073851629282  0.8750000000000000
  0.8888676420236817  0.6111004876785096  0.8750000000000000
  0.0540745795587484  0.6106812811387533  0.3750000000000000
  0.7222089925102312  0.1111049540202212  0.8750000000000000
  0.2232384347747814  0.1100239125812694  0.3750000000000000
  0.3879060695308271  0.6170342201079605  0.3750000000000000
  0.7221512394841709  0.6130019897852712  0.3750000000000000
  0.5564494925698577  0.1071630001208111  0.3750000000000000
  0.3888749145255033  0.6111008626959167  0.8750000000000000
  0.8919485570352200  0.1126409451842821  0.3750000000000000
  0.2222050419981795  0.7777691876657579  0.8750000000000000
  0.0555353903712787  0.2777678616014972  0.8750000000000000
  0.3888729452426548  0.2777719466832662  0.8750000000000000
  0.5555426802811536  0.7777708996931075  0.8750000000000000
  0.8888713358123737  0.7777706659519591  0.8750000000000000
  0.7222080336899384  0.2777709885094667  0.8750000000000000
  0.0540745795587485  0.7767266317533326  0.3750000000000000
  0.3882488212985408  0.7794284361814685  0.3750000000000000
  0.2268707749945751  0.2801020541639552  0.3750000000000000
  0.7242540354867045  0.7813291800896112  0.3750000000000000
  0.5557734541266495  0.2680568834359123  0.3750000000000000
  0.8914002110556773  0.2781895198505693  0.3750000000000000
  0.0555351961125928  0.4444326121265755  0.8750000000000000
  0.2222037291470330  0.9444384896168018  0.8750000000000000
  0.5555435257708107  0.9444384295520704  0.8750000000000000
  0.3888729452426548  0.4444343318927257  0.8750000000000000
  0.8888746089651774  0.9444367095911791  0.8750000000000000
  0.0562856796257976  0.9446264141666243  0.3750000000000000
  0.7222047444136076  0.4444356144803093  0.8750000000000000
  0.3882488212985408  0.9421537184504090  0.3750000000000000
  0.2232384347747814  0.4465478555268468  0.3750000000000000
  0.2210285458725997  0.6120563250914521  0.3750000000000000
  0.7246465010191689  0.9466434927787686  0.3750000000000000
  0.8894272863260069  0.4439710699224295  0.3750000000000000
  0.0555336849741880  0.6110982722373527  0.8750000000000000
  0.2222013343103258  0.1111023389303289  0.8750000000000000
  0.7222047444136076  0.6111024632666351  0.8750000000000000
  0.5555426802811536  0.1111051139213831  0.8750000000000000
  0.8888744865995655  0.1111039099664533  0.8750000000000000
  0.1123623480971063  0.0556358359248453  0.3750000000000000
  0.6157653340408215  0.5742274024687160  0.3750000000000000
  0.4450179031908535  0.0513502329833283  0.3750000000000000
  0.9434706010171703  0.5550184467267687  0.3750000000000000
  0.7810313181619341  0.0571823257476353  0.3750000000000000
  0.1110998609027576  0.7222165971180421  0.8750000000000000
  0.4444270683759515  0.7222373178875218  0.8750000000000000
  0.2777034102517840  0.2221765414234792  0.8750000000000000
  0.7777950861417129  0.7222610360519282  0.8750000000000000
  0.6111131632829830  0.2221825718149854  0.8750000000000000
  0.9444235200830026  0.2222044073597814  0.8750000000000000
  0.2769623638133413  0.7228277604895693  0.3750000000000000
  0.1148172166772846  0.2240752750053063  0.3750000000000000
  0.4435383542852541  0.2119996954694120  0.3750000000000000
  0.6138600786274409  0.7311665800007933  0.3750000000000000
  0.9434706010171703  0.7217854876237382  0.3750000000000000
  0.7808171054378255  0.2218250502293891  0.3750000000000000
  0.1110899151911804  0.8888820280466755  0.8750000000000000
  0.4444339603605902  0.8888836468469588  0.8750000000000000
  0.2777034102517840  0.3888602021616331  0.8750000000000000
  0.6111159150647089  0.3888633330628188  0.8750000000000000
  0.7777839075037544  0.8889185592894523  0.8750000000000000
  0.9444397397119497  0.3888683532236711  0.8750000000000000
  0.1123623480971063  0.3900598455055899  0.3750000000000000
  0.2769623638133413  0.8874679366571020  0.3750000000000000
  0.6135727858982344  0.8923802341175859  0.3750000000000000
  0.9457736731619751  0.8901975594192496  0.3750000000000000
  0.7796236346384402  0.3871309688407519  0.3750000000000000
  0.2777349772970433  0.5555465577989895  0.8750000000000000
  0.1110669665102243  0.0555357534093366  0.8750000000000000
  0.6111159150647102  0.5555859153352214  0.8750000000000000
  0.4444270683759515  0.0555230838217657  0.8750000000000000
  0.9444517459621325  0.5555486568865972  0.8750000000000000
  0.1102508775338330  0.5558456161631802  0.3750000000000000
  0.7777762177968331  0.0555547755650834  0.8750000000000000
  0.2768711769225906  0.0524223532039226  0.3750000000000000
  0.4435383542852540  0.5648719921491797  0.3750000000000000
  0.7763199611787222  0.5548266472560308  0.3750000000000000
  0.6135727858982344  0.0545258851139769  0.3750000000000000
  0.4444091196866772  0.5555688583785493  0.8750000000000000
  0.9476476350553482  0.0576125247041435  0.3750000000000000
  0.2777568809085090  0.7222164269507336  0.8750000000000000
  0.1110527782768541  0.2221930558050915  0.8750000000000000
  0.4444091196866772  0.2221735946414657  0.8750000000000000
  0.6111131632829830  0.7222639248013243  0.8750000000000000
  0.9444517459621325  0.7222364224088709  0.8750000000000000
  0.7777839075037544  0.2221986815476306  0.8750000000000000
  0.1098301949138391  0.7215817641235844  0.3750000000000000
  0.4450179031908543  0.7270010035408624  0.3750000000000000
  0.2792789024002590  0.2209408205296844  0.3750000000000000
  0.7796236346384391  0.7258259991310155  0.3750000000000000
  0.6138600786274415  0.2160268319599767  0.3750000000000000
  0.9476476350553482  0.2233684436845410  0.3750000000000000
  0.1110669665102243  0.3888645464342167  0.8750000000000000
  0.2777568809085090  0.8888737872910989  0.8750000000000000
  0.6111119435950324  0.8889059973757341  0.8750000000000000
  0.4443913005132371  0.3888623169232819  0.8750000000000000
  0.9444397397119497  0.8889047198216087  0.8750000000000000
  0.1102508775338332  0.8877385947039828  0.3750000000000000
  0.7777950861417129  0.3888673834231138  0.8750000000000000
  0.4451330732059366  0.8892332032696335  0.3750000000000000
  0.2792789024002593  0.3916714152039034  0.3750000000000000
  0.2768711769225906  0.5577821570520018  0.3750000000000000
  0.6157653340408207  0.3748712649054355  0.3750000000000000
  0.7808171054378255  0.8923253885417655  0.3750000000000000
  0.9457736731619751  0.3889094470760540  0.3750000000000000
  0.1110899151911804  0.5555412204778341  0.8750000000000000
  0.2777349772970433  0.0555217528313894  0.8750000000000000
  0.7777978490301436  0.5555655911817389  0.8750000000000000
  0.6111119435950324  0.0555392795526269  0.8750000000000000
  0.9444235200830026  0.0555524460565576  0.8750000000000000
  0.0555274339426390  0.1110805505998255  0.1249268074580166
  0.5555222352266328  0.6112734935099333  0.1240555255514541
  0.3887757222282655  0.1108917870820847  0.1246889410590439
  0.8890215628442578  0.6111774480888009  0.1249525514269955
  0.7222302524859940  0.1110736222085511  0.1248851869071470
  0.0556001152126043  0.7777894237264869  0.6250357436582470
  0.3888248971043602  0.7778069516705484  0.6250500316481886
  0.2221004118991094  0.2777168726162221  0.6255112946176309
  0.7222696682988297  0.7778979553457553  0.6252212742803926
  0.5555222352266328  0.2775820750500367  0.6259444744485443
  0.8889232795072222  0.2777716917126974  0.6250396132669817
  0.2221958717290291  0.7777646025311834  0.1249487040032107
  0.0555274339426390  0.2777802166761491  0.1249268074580166
  0.3886233248483985  0.2774313600787313  0.1241176846490419
  0.5555143459545059  0.7778790052160989  0.1248223150365552
  0.8889819957409026  0.7778517872005515  0.1249643188640050
  0.7222696682988297  0.2777050462864104  0.1247787257196090
  0.0555536794434136  0.9444157225806517  0.6250212189834038
  0.3888248971043602  0.9443512787671466  0.6250500316481886
  0.2221064009416554  0.4444853516863115  0.6252936087213653
  0.5556736426864026  0.4445034880098656  0.6263669505804595
  0.7222302524859940  0.9444899636107792  0.6251148130928527
  0.8889819957409026  0.4444635418736875  0.6250356811359937
  0.0555536794434136  0.4444712901960902  0.1249787810165955
  0.2221721718344499  0.9443514792942826  0.1249418221467897
  0.5555211820710618  0.9444272577021946  0.1249303654971106
  0.3886233248483985  0.4445252981030035  0.1241176846490418
  0.8889232795072222  0.9444849211278603  0.1249603867330166
  0.7223692927001107  0.4444637027999315  0.1243790781549372
  0.2221721718344499  0.6111540258735033  0.6250581778532103
  0.0555274339426390  0.1110805505998255  0.6250731925419831
  0.5555222352266328  0.6112734935099333  0.6259444744485443
  0.3887757222282654  0.1108917870820848  0.6253110589409571
  0.8890215628442578  0.6111774480888009  0.6250474485730041
  0.0556001152126043  0.6111440248194534  0.1249642563417536
  0.7222302524859940  0.1110736222085512  0.6251148130928527
  0.2221064009416554  0.1109543825886794  0.1247063912786356
  0.3887757222282655  0.6112172684795224  0.1246889410590439
  0.7223692927001107  0.6112389232335125  0.1243790781549372
  0.5555143459545059  0.1109686740717433  0.1248223150365552
  0.3887757222282655  0.6112172684795224  0.6253110589409571
  0.8889024519724994  0.1111178926529212  0.1249281010625655
  0.2221958717290291  0.7777646025311834  0.6250512959967899
  0.0555274339426390  0.2777802166761491  0.6250731925419831
  0.3886233248483985  0.2774313600787313  0.6258823153509567
  0.5555143459545059  0.7778790052160989  0.6251776849634444
  0.8889819957409026  0.7778517872005515  0.6250356811359937
  0.7222696682988297  0.2777050462864104  0.6252212742803926
  0.0556001152126043  0.7777894237264869  0.1249642563417536
  0.3888248971043602  0.7778069516705484  0.1249499683518120
  0.2221004118991094  0.2777168726162221  0.1244887053823678
  0.7222696682988297  0.7778979553457553  0.1247787257196090
  0.5555222352266328  0.2775820750500367  0.1240555255514541
  0.8889232795072222  0.2777716917126974  0.1249603867330166
  0.0555536794434136  0.4444712901960904  0.6250212189834038
  0.2221721718344499  0.9443514792942826  0.6250581778532103
  0.5555211820710618  0.9444272577021946  0.6250696345028898
  0.3886233248483985  0.4445252981030035  0.6258823153509577
  0.8889232795072222  0.9444849211278603  0.6250396132669817
  0.0555536794434136  0.9444157225806517  0.1249787810165956
  0.7223692927001107  0.4444637027999315  0.6256209218450626
  0.3888248971043602  0.9443512787671466  0.1249499683518120
  0.2221064009416554  0.4444853516863115  0.1247063912786356
  0.2221721718344499  0.6111540258735033  0.1249418221467897
  0.5556736426864026  0.4445034880098656  0.1236330494195393
  0.7222302524859940  0.9444899636107792  0.1248851869071470
  0.8889819957409026  0.4444635418736875  0.1249643188640050
  0.0556001152126043  0.6111440248194534  0.6250357436582470
  0.2221064009416554  0.1109543825886794  0.6252936087213653
  0.7223692927001107  0.6112389232335125  0.6256209218450626
  0.5555143459545059  0.1109686740717433  0.6251776849634444
  0.8889024519724994  0.1111178926529212  0.6250718989374331
 
  0.00000000E+00  0.00000000E+00  0.00000000E+00
  0.00000000E+00  0.00000000E+00  0.00000000E+00
  0.00000000E+00  0.00000000E+00  0.00000000E+00
  0.00000000E+00  0.00000000E+00  0.00000000E+00
  0.00000000E+00  0.00000000E+00  0.00000000E+00
  0.00000000E+00  0.00000000E+00  0.00000000E+00
  0.00000000E+00  0.00000000E+00  0.00000000E+00
  0.00000000E+00  0.00000000E+00  0.00000000E+00
  0.00000000E+00  0.00000000E+00  0.00000000E+00
  0.00000000E+00  0.00000000E+00  0.00000000E+00
  0.00000000E+00  0.00000000E+00  0.00000000E+00
  0.00000000E+00  0.00000000E+00  0.00000000E+00
  0.00000000E+00  0.00000000E+00  0.00000000E+00
  0.00000000E+00  0.00000000E+00  0.00000000E+00
  0.00000000E+00  0.00000000E+00  0.00000000E+00
  0.00000000E+00  0.00000000E+00  0.00000000E+00
  0.00000000E+00  0.00000000E+00  0.00000000E+00
  0.00000000E+00  0.00000000E+00  0.00000000E+00
  0.00000000E+00  0.00000000E+00  0.00000000E+00
  0.00000000E+00  0.00000000E+00  0.00000000E+00
  0.00000000E+00  0.00000000E+00  0.00000000E+00
  0.00000000E+00  0.00000000E+00  0.00000000E+00
  0.00000000E+00  0.00000000E+00  0.00000000E+00
  0.00000000E+00  0.00000000E+00  0.00000000E+00
  0.00000000E+00  0.00000000E+00  0.00000000E+00
  0.00000000E+00  0.00000000E+00  0.00000000E+00
  0.00000000E+00  0.00000000E+00  0.00000000E+00
  0.00000000E+00  0.00000000E+00  0.00000000E+00
  0.00000000E+00  0.00000000E+00  0.00000000E+00
  0.00000000E+00  0.00000000E+00  0.00000000E+00
  0.00000000E+00  0.00000000E+00  0.00000000E+00
  0.00000000E+00  0.00000000E+00  0.00000000E+00
  0.00000000E+00  0.00000000E+00  0.00000000E+00
  0.00000000E+00  0.00000000E+00  0.00000000E+00
  0.00000000E+00  0.00000000E+00  0.00000000E+00
  0.00000000E+00  0.00000000E+00  0.00000000E+00
  0.00000000E+00  0.00000000E+00  0.00000000E+00
  0.00000000E+00  0.00000000E+00  0.00000000E+00
  0.00000000E+00  0.00000000E+00  0.00000000E+00
  0.00000000E+00  0.00000000E+00  0.00000000E+00
  0.00000000E+00  0.00000000E+00  0.00000000E+00
  0.00000000E+00  0.00000000E+00  0.00000000E+00
  0.00000000E+00  0.00000000E+00  0.00000000E+00
  0.00000000E+00  0.00000000E+00  0.00000000E+00
  0.00000000E+00  0.00000000E+00  0.00000000E+00
  0.00000000E+00  0.00000000E+00  0.00000000E+00
  0.00000000E+00  0.00000000E+00  0.00000000E+00
  0.00000000E+00  0.00000000E+00  0.00000000E+00
  0.00000000E+00  0.00000000E+00  0.00000000E+00
  0.00000000E+00  0.00000000E+00  0.00000000E+00
  0.00000000E+00  0.00000000E+00  0.00000000E+00
  0.00000000E+00  0.00000000E+00  0.00000000E+00
  0.00000000E+00  0.00000000E+00  0.00000000E+00
  0.00000000E+00  0.00000000E+00  0.00000000E+00
  0.00000000E+00  0.00000000E+00  0.00000000E+00
  0.00000000E+00  0.00000000E+00  0.00000000E+00
  0.00000000E+00  0.00000000E+00  0.00000000E+00
  0.00000000E+00  0.00000000E+00  0.00000000E+00
  0.00000000E+00  0.00000000E+00  0.00000000E+00
  0.00000000E+00  0.00000000E+00  0.00000000E+00
  0.00000000E+00  0.00000000E+00  0.00000000E+00
  0.00000000E+00  0.00000000E+00  0.00000000E+00
  0.00000000E+00  0.00000000E+00  0.00000000E+00
  0.00000000E+00  0.00000000E+00  0.00000000E+00
  0.00000000E+00  0.00000000E+00  0.00000000E+00
  0.00000000E+00  0.00000000E+00  0.00000000E+00
  0.00000000E+00  0.00000000E+00  0.00000000E+00
  0.00000000E+00  0.00000000E+00  0.00000000E+00
  0.00000000E+00  0.00000000E+00  0.00000000E+00
  0.00000000E+00  0.00000000E+00  0.00000000E+00
  0.00000000E+00  0.00000000E+00  0.00000000E+00
  0.00000000E+00  0.00000000E+00  0.00000000E+00
  0.00000000E+00  0.00000000E+00  0.00000000E+00
  0.00000000E+00  0.00000000E+00  0.00000000E+00
  0.00000000E+00  0.00000000E+00  0.00000000E+00
  0.00000000E+00  0.00000000E+00  0.00000000E+00
  0.00000000E+00  0.00000000E+00  0.00000000E+00
  0.00000000E+00  0.00000000E+00  0.00000000E+00
  0.00000000E+00  0.00000000E+00  0.00000000E+00
  0.00000000E+00  0.00000000E+00  0.00000000E+00
  0.00000000E+00  0.00000000E+00  0.00000000E+00
  0.00000000E+00  0.00000000E+00  0.00000000E+00
  0.00000000E+00  0.00000000E+00  0.00000000E+00
  0.00000000E+00  0.00000000E+00  0.00000000E+00
  0.00000000E+00  0.00000000E+00  0.00000000E+00
  0.00000000E+00  0.00000000E+00  0.00000000E+00
  0.00000000E+00  0.00000000E+00  0.00000000E+00
  0.00000000E+00  0.00000000E+00  0.00000000E+00
  0.00000000E+00  0.00000000E+00  0.00000000E+00
  0.00000000E+00  0.00000000E+00  0.00000000E+00
  0.00000000E+00  0.00000000E+00  0.00000000E+00
  0.00000000E+00  0.00000000E+00  0.00000000E+00
  0.00000000E+00  0.00000000E+00  0.00000000E+00
  0.00000000E+00  0.00000000E+00  0.00000000E+00
  0.00000000E+00  0.00000000E+00  0.00000000E+00
  0.00000000E+00  0.00000000E+00  0.00000000E+00
  0.00000000E+00  0.00000000E+00  0.00000000E+00
  0.00000000E+00  0.00000000E+00  0.00000000E+00
  0.00000000E+00  0.00000000E+00  0.00000000E+00
  0.00000000E+00  0.00000000E+00  0.00000000E+00
  0.00000000E+00  0.00000000E+00  0.00000000E+00
  0.00000000E+00  0.00000000E+00  0.00000000E+00
  0.00000000E+00  0.00000000E+00  0.00000000E+00
  0.00000000E+00  0.00000000E+00  0.00000000E+00
  0.00000000E+00  0.00000000E+00  0.00000000E+00
  0.00000000E+00  0.00000000E+00  0.00000000E+00
  0.00000000E+00  0.00000000E+00  0.00000000E+00
  0.00000000E+00  0.00000000E+00  0.00000000E+00
  0.00000000E+00  0.00000000E+00  0.00000000E+00
  0.00000000E+00  0.00000000E+00  0.00000000E+00
  0.00000000E+00  0.00000000E+00  0.00000000E+00
  0.00000000E+00  0.00000000E+00  0.00000000E+00
  0.00000000E+00  0.00000000E+00  0.00000000E+00
  0.00000000E+00  0.00000000E+00  0.00000000E+00
  0.00000000E+00  0.00000000E+00  0.00000000E+00
  0.00000000E+00  0.00000000E+00  0.00000000E+00
  0.00000000E+00  0.00000000E+00  0.00000000E+00
  0.00000000E+00  0.00000000E+00  0.00000000E+00
  0.00000000E+00  0.00000000E+00  0.00000000E+00
  0.00000000E+00  0.00000000E+00  0.00000000E+00
  0.00000000E+00  0.00000000E+00  0.00000000E+00
  0.00000000E+00  0.00000000E+00  0.00000000E+00
  0.00000000E+00  0.00000000E+00  0.00000000E+00
  0.00000000E+00  0.00000000E+00  0.00000000E+00
  0.00000000E+00  0.00000000E+00  0.00000000E+00
  0.00000000E+00  0.00000000E+00  0.00000000E+00
  0.00000000E+00  0.00000000E+00  0.00000000E+00
  0.00000000E+00  0.00000000E+00  0.00000000E+00
  0.00000000E+00  0.00000000E+00  0.00000000E+00
  0.00000000E+00  0.00000000E+00  0.00000000E+00
  0.00000000E+00  0.00000000E+00  0.00000000E+00
  0.00000000E+00  0.00000000E+00  0.00000000E+00
  0.00000000E+00  0.00000000E+00  0.00000000E+00
  0.00000000E+00  0.00000000E+00  0.00000000E+00
  0.00000000E+00  0.00000000E+00  0.00000000E+00
  0.00000000E+00  0.00000000E+00  0.00000000E+00
  0.00000000E+00  0.00000000E+00  0.00000000E+00
  0.00000000E+00  0.00000000E+00  0.00000000E+00
  0.00000000E+00  0.00000000E+00  0.00000000E+00
  0.00000000E+00  0.00000000E+00  0.00000000E+00
  0.00000000E+00  0.00000000E+00  0.00000000E+00
  0.00000000E+00  0.00000000E+00  0.00000000E+00
  0.00000000E+00  0.00000000E+00  0.00000000E+00
  0.00000000E+00  0.00000000E+00  0.00000000E+00
  0.00000000E+00  0.00000000E+00  0.00000000E+00
  0.00000000E+00  0.00000000E+00  0.00000000E+00
  0.00000000E+00  0.00000000E+00  0.00000000E+00
  0.00000000E+00  0.00000000E+00  0.00000000E+00
  0.00000000E+00  0.00000000E+00  0.00000000E+00
  0.00000000E+00  0.00000000E+00  0.00000000E+00
  0.00000000E+00  0.00000000E+00  0.00000000E+00
  0.00000000E+00  0.00000000E+00  0.00000000E+00
  0.00000000E+00  0.00000000E+00  0.00000000E+00
  0.00000000E+00  0.00000000E+00  0.00000000E+00
  0.00000000E+00  0.00000000E+00  0.00000000E+00
  0.00000000E+00  0.00000000E+00  0.00000000E+00
  0.00000000E+00  0.00000000E+00  0.00000000E+00
  0.00000000E+00  0.00000000E+00  0.00000000E+00
  0.00000000E+00  0.00000000E+00  0.00000000E+00
  0.00000000E+00  0.00000000E+00  0.00000000E+00
  0.00000000E+00  0.00000000E+00  0.00000000E+00
  0.00000000E+00  0.00000000E+00  0.00000000E+00
  0.00000000E+00  0.00000000E+00  0.00000000E+00
  0.00000000E+00  0.00000000E+00  0.00000000E+00
  0.00000000E+00  0.00000000E+00  0.00000000E+00
  0.00000000E+00  0.00000000E+00  0.00000000E+00
  0.00000000E+00  0.00000000E+00  0.00000000E+00
  0.00000000E+00  0.00000000E+00  0.00000000E+00
  0.00000000E+00  0.00000000E+00  0.00000000E+00
  0.00000000E+00  0.00000000E+00  0.00000000E+00
  0.00000000E+00  0.00000000E+00  0.00000000E+00
  0.00000000E+00  0.00000000E+00  0.00000000E+00
  0.00000000E+00  0.00000000E+00  0.00000000E+00
  0.00000000E+00  0.00000000E+00  0.00000000E+00
  0.00000000E+00  0.00000000E+00  0.00000000E+00
  0.00000000E+00  0.00000000E+00  0.00000000E+00
  0.00000000E+00  0.00000000E+00  0.00000000E+00
  0.00000000E+00  0.00000000E+00  0.00000000E+00
  0.00000000E+00  0.00000000E+00  0.00000000E+00
  0.00000000E+00  0.00000000E+00  0.00000000E+00
  0.00000000E+00  0.00000000E+00  0.00000000E+00
  0.00000000E+00  0.00000000E+00  0.00000000E+00
  0.00000000E+00  0.00000000E+00  0.00000000E+00
  0.00000000E+00  0.00000000E+00  0.00000000E+00
  0.00000000E+00  0.00000000E+00  0.00000000E+00
  0.00000000E+00  0.00000000E+00  0.00000000E+00
  0.00000000E+00  0.00000000E+00  0.00000000E+00
  0.00000000E+00  0.00000000E+00  0.00000000E+00
  0.00000000E+00  0.00000000E+00  0.00000000E+00
  0.00000000E+00  0.00000000E+00  0.00000000E+00
  0.00000000E+00  0.00000000E+00  0.00000000E+00
  0.00000000E+00  0.00000000E+00  0.00000000E+00
  0.00000000E+00  0.00000000E+00  0.00000000E+00
  0.00000000E+00  0.00000000E+00  0.00000000E+00
  0.00000000E+00  0.00000000E+00  0.00000000E+00
  0.00000000E+00  0.00000000E+00  0.00000000E+00
  0.00000000E+00  0.00000000E+00  0.00000000E+00
  0.00000000E+00  0.00000000E+00  0.00000000E+00
  0.00000000E+00  0.00000000E+00  0.00000000E+00
  0.00000000E+00  0.00000000E+00  0.00000000E+00
  0.00000000E+00  0.00000000E+00  0.00000000E+00
  0.00000000E+00  0.00000000E+00  0.00000000E+00
  0.00000000E+00  0.00000000E+00  0.00000000E+00
  0.00000000E+00  0.00000000E+00  0.00000000E+00
  0.00000000E+00  0.00000000E+00  0.00000000E+00
  0.00000000E+00  0.00000000E+00  0.00000000E+00
  0.00000000E+00  0.00000000E+00  0.00000000E+00
  0.00000000E+00  0.00000000E+00  0.00000000E+00
  0.00000000E+00  0.00000000E+00  0.00000000E+00
  0.00000000E+00  0.00000000E+00  0.00000000E+00
  0.00000000E+00  0.00000000E+00  0.00000000E+00
  0.00000000E+00  0.00000000E+00  0.00000000E+00
  0.00000000E+00  0.00000000E+00  0.00000000E+00
  0.00000000E+00  0.00000000E+00  0.00000000E+00
  0.00000000E+00  0.00000000E+00  0.00000000E+00
  0.00000000E+00  0.00000000E+00  0.00000000E+00
  0.00000000E+00  0.00000000E+00  0.00000000E+00
  0.00000000E+00  0.00000000E+00  0.00000000E+00
  0.00000000E+00  0.00000000E+00  0.00000000E+00
  0.00000000E+00  0.00000000E+00  0.00000000E+00
  0.00000000E+00  0.00000000E+00  0.00000000E+00
  0.00000000E+00  0.00000000E+00  0.00000000E+00
  0.00000000E+00  0.00000000E+00  0.00000000E+00
  0.00000000E+00  0.00000000E+00  0.00000000E+00
  0.00000000E+00  0.00000000E+00  0.00000000E+00
  0.00000000E+00  0.00000000E+00  0.00000000E+00
  0.00000000E+00  0.00000000E+00  0.00000000E+00
  0.00000000E+00  0.00000000E+00  0.00000000E+00
  0.00000000E+00  0.00000000E+00  0.00000000E+00
  0.00000000E+00  0.00000000E+00  0.00000000E+00
  0.00000000E+00  0.00000000E+00  0.00000000E+00
  0.00000000E+00  0.00000000E+00  0.00000000E+00
  0.00000000E+00  0.00000000E+00  0.00000000E+00
  0.00000000E+00  0.00000000E+00  0.00000000E+00
  0.00000000E+00  0.00000000E+00  0.00000000E+00
  0.00000000E+00  0.00000000E+00  0.00000000E+00
  0.00000000E+00  0.00000000E+00  0.00000000E+00
  0.00000000E+00  0.00000000E+00  0.00000000E+00
  0.00000000E+00  0.00000000E+00  0.00000000E+00
  0.00000000E+00  0.00000000E+00  0.00000000E+00
  0.00000000E+00  0.00000000E+00  0.00000000E+00
  0.00000000E+00  0.00000000E+00  0.00000000E+00
  0.00000000E+00  0.00000000E+00  0.00000000E+00
  0.00000000E+00  0.00000000E+00  0.00000000E+00
  0.00000000E+00  0.00000000E+00  0.00000000E+00
  0.00000000E+00  0.00000000E+00  0.00000000E+00
  0.00000000E+00  0.00000000E+00  0.00000000E+00
  0.00000000E+00  0.00000000E+00  0.00000000E+00