B C N                                   
   1.0000000000000000     
     8.7639499999999995  -15.1796066749929999    0.0000000000000000
     8.7639499999999995   15.1796066749929999    0.0000000000000000
     0.0000000000000000    0.0000000000000000   15.0000000000000000
   B    C    N 
    48     1    49
Selective dynamics
Direct
  0.9046409681734188  0.9522611990008746  0.1110286905797427   T   T   T
  0.9047849957847010  0.0952167509072990  0.1110501836673692   T   T   T
  0.9048116034143709  0.2381282979997914  0.1110541657860741   T   T   T
  0.9047774626294307  0.3809957881462553  0.1110167356224453   T   T   T
  0.9046341359925631  0.5237951525045450  0.1110118702467741   T   T   T
  0.9049042382220108  0.6666994720701633  0.1110533589578830   T   T   T
  0.9049021810251751  0.8096467614712046  0.1110528593481367   T   T   T
  0.0476022722148393  0.9523994511501562  0.1110224396786634   T   T   T
  0.0477405163411272  0.0953607522985880  0.1110286901067415   T   T   T
  0.0478467030644260  0.2382374443839928  0.1110200360544560   T   T   T
  0.0478321927562563  0.3810283099099910  0.1110314255441903   T   T   T
  0.0477383555706511  0.5238020635977307  0.1110211476601168   T   T   T
  0.0476138748301814  0.6666527493145477  0.1110305380670172   T   T   T
  0.0476344420695252  0.8095440565773627  0.1110137246554708   T   T   T
  0.1904576931156359  0.9523673210234779  0.1110137231294737   T   T   T
  0.1903549395647937  0.0950995316828305  0.1110528552241325   T   T   T
  0.1909985693162630  0.2384754582936100  0.1110238623412319   T   T   T
  0.1909968217445359  0.3812082284134646  0.1110140367073324   T   T   T
  0.1909921748372549  0.5239510829432721  0.1110507699821694   T   T   T
  0.1903585241360388  0.6666982401175888  0.1110658243271481   T   T   T
  0.1904663413351728  0.8095353532058254  0.1110160591575453   T   T   T
  0.3333489863904507  0.9523878490038222  0.1110305404810151   T   T   T
  0.3333022419068359  0.0950975016979911  0.1110533545808829   T   T   T
  0.3329684431481423  0.2373537843115040  0.1110506325179821   T   T   T
  0.3344479922129826  0.3807825411324203  0.1110201972445606   T   T   T
  0.3344508578911113  0.5250683076176268  0.1110447569372637   T   T   T
  0.3329649642503006  0.6670367385236996  0.1110671081592451   T   T   T
  0.3333034132024093  0.8096431047069560  0.1110658278601514   T   T   T
  0.4761996238212702  0.9522632253593528  0.1110211529711182   T   T   T
  0.4762065890014522  0.0953676866834345  0.1110118789397742   T   T   T
  0.4760468855017571  0.2384768095822019  0.1110524038818973   T   T   T
  0.4749230778234927  0.3807966037572894  0.1110467823617887   T   T   T
  0.4749334768153691  0.6655509994488914  0.1110447574512703   T   T   T
  0.4760506328467268  0.8090095122307450  0.1110507757191696   T   T   T
  0.6189734290620117  0.9521694916607443  0.1110314276511911   T   T   T
  0.6190058822017434  0.0952242246525705  0.1110167367084459   T   T   T
  0.6189769108664425  0.2382359177290917  0.1110241014396414   T   T   T
  0.6187898790977840  0.3812118551112164  0.1110254845034235   T   T   T
  0.6192049652127096  0.5250785893795088  0.1110467771037867   T   T   T
  0.6192191083225735  0.6655537315030140  0.1110201969575582   T   T   T
  0.6187935147465339  0.8090049476584635  0.1110140323593296   T   T   T
  0.7617642961440064  0.9521550164625731  0.1110200382804513   T   T   T
  0.7618733977612085  0.0951900731196271  0.1110541681890728   T   T   T
  0.7618718991214655  0.2381298060585318  0.1110636685867386   T   T   T
  0.7617659046549085  0.3810248445645582  0.1110240930326419   T   T   T
  0.7615249425937954  0.5239547973052459  0.1110523959178999   T   T   T
  0.7626478744594939  0.6670332373968550  0.1110506411459818   T   T   T
  0.7615262131303918  0.8090031473657372  0.1110238648152280   T   T   T
  0.4762029456996237  0.5237987098473718  0.1110332179358677   T   T   T
  0.9522870191146277  0.9047242498356214  0.1110095048601838   T   T   T
  0.9524035484799439  0.0475981688300553  0.1110089649240181   T   T   T
  0.9525900471122141  0.1905835898771118  0.1110174469916600   T   T   T
  0.9525821581778807  0.3334394497532711  0.1110112532074868   T   T   T
  0.9523989996845825  0.4762297169469708  0.1109755024715054   T   T   T
  0.9522842653830172  0.6189937844373885  0.1110079447764803   T   T   T
  0.9522276180612594  0.7618346486938486  0.1110188968558145   T   T   T
  0.0952088756025454  0.9047928768654565  0.1109845374341532   T   T   T
  0.0952774556023809  0.0477146997003720  0.1110095113571805   T   T   T
  0.0958280025557743  0.1909537568915900  0.1110005257317977   T   T   T
  0.0959701213250657  0.3336973908320698  0.1109918119837499   T   T   T
  0.0958228376633923  0.4762945772820151  0.1110055997434458   T   T   T
  0.0952770014746899  0.6189948602939589  0.1110167714104544   T   T   T
  0.0952133316964422  0.7618665721218016  0.1109908173270919   T   T   T
  0.2381351400391999  0.9047883790615571  0.1109908182190930   T   T   T
  0.2381670806831557  0.0477741509027380  0.1110188894328172   T   T   T
  0.2382890182636711  0.1906747785113591  0.1110181390713935   T   T   T
  0.2398233217198472  0.3346662119837531  0.1109746779307976   T   T   T
  0.2398229418566083  0.4765784233344253  0.1109960728710162   T   T   T
  0.2382830955819202  0.6190422176918111  0.1110325851481889   T   T   T
  0.2381690997367297  0.7618325344582647  0.1110226179120395   T   T   T
  0.3810068108090410  0.9047246243083098  0.1110167755604574   T   T   T
  0.3810079427496095  0.0477174855369820  0.1110079525244799   T   T   T
  0.3809613842426437  0.1906723470175177  0.1110209910531429   T   T   T
  0.3810028175563925  0.3334257749410394  0.1109892072461089   T   T   T
  0.3861405012445016  0.4787694034010185  0.1109891018488291   T   T   T
  0.3810070604452830  0.6189947375137183  0.1110006609770912   T   T   T
  0.3809595207971862  0.7617186112980788  0.1110325897691893   T   T   T
  0.5237071549459850  0.9041787578526044  0.1110056135214450   T   T   T
  0.5237719414020284  0.0476026620754198  0.1109755029165113   T   T   T
  0.5237086864036246  0.1909654826052960  0.1110032732636930   T   T   T
  0.5234195133280620  0.3346703566136860  0.1110033855255427   T   T   T
  0.5212273822546510  0.4787742143703534  0.1109962788859366   T   T   T
  0.5212322558819822  0.6138611808944991  0.1109891034268308   T   T   T
  0.5234233592785794  0.7601789144713897  0.1109960700550145   T   T   T
  0.6663043997799265  0.9040316261479343  0.1109918097707503   T   T   T
  0.6665622199777277  0.0474194960711238  0.1110112517394913   T   T   T
  0.6665625908601345  0.1905849983608657  0.1110188269880261   T   T   T
  0.6663021387109849  0.3336996718380164  0.1109895752570971   T   T   T
  0.6653313075183143  0.4765822026819354  0.1110033651265429   T   T   T
  0.6665758557029610  0.6189988769886059  0.1109892098811069   T   T   T
  0.6653354544702438  0.7601784357481515  0.1109746707997978   T   T   T
  0.8090479556244128  0.9041737124782286  0.1110005261078027   T   T   T
  0.8094181353998903  0.0474116619607828  0.1110174566786596   T   T   T
  0.8095197364386203  0.1904819182533791  0.1110386702642982   T   T   T
  0.8094167397471315  0.3334390943008685  0.1110188210480309   T   T   T
  0.8090364089497055  0.4762930680463796  0.1110032527526903   T   T   T
  0.8093293743494814  0.6190403198043575  0.1110210064061454   T   T   T
  0.8093268835826412  0.7617126735203290  0.1110181503673888   T   T   T

  0.00000000E+00  0.00000000E+00  0.00000000E+00
  0.00000000E+00  0.00000000E+00  0.00000000E+00
  0.00000000E+00  0.00000000E+00  0.00000000E+00
  0.00000000E+00  0.00000000E+00  0.00000000E+00
  0.00000000E+00  0.00000000E+00  0.00000000E+00
  0.00000000E+00  0.00000000E+00  0.00000000E+00
  0.00000000E+00  0.00000000E+00  0.00000000E+00
  0.00000000E+00  0.00000000E+00  0.00000000E+00
  0.00000000E+00  0.00000000E+00  0.00000000E+00
  0.00000000E+00  0.00000000E+00  0.00000000E+00
  0.00000000E+00  0.00000000E+00  0.00000000E+00
  0.00000000E+00  0.00000000E+00  0.00000000E+00
  0.00000000E+00  0.00000000E+00  0.00000000E+00
  0.00000000E+00  0.00000000E+00  0.00000000E+00
  0.00000000E+00  0.00000000E+00  0.00000000E+00
  0.00000000E+00  0.00000000E+00  0.00000000E+00
  0.00000000E+00  0.00000000E+00  0.00000000E+00
  0.00000000E+00  0.00000000E+00  0.00000000E+00
  0.00000000E+00  0.00000000E+00  0.00000000E+00
  0.00000000E+00  0.00000000E+00  0.00000000E+00
  0.00000000E+00  0.00000000E+00  0.00000000E+00
  0.00000000E+00  0.00000000E+00  0.00000000E+00
  0.00000000E+00  0.00000000E+00  0.00000000E+00
  0.00000000E+00  0.00000000E+00  0.00000000E+00
  0.00000000E+00  0.00000000E+00  0.00000000E+00
  0.00000000E+00  0.00000000E+00  0.00000000E+00
  0.00000000E+00  0.00000000E+00  0.00000000E+00
  0.00000000E+00  0.00000000E+00  0.00000000E+00
  0.00000000E+00  0.00000000E+00  0.00000000E+00
  0.00000000E+00  0.00000000E+00  0.00000000E+00
  0.00000000E+00  0.00000000E+00  0.00000000E+00
  0.00000000E+00  0.00000000E+00  0.00000000E+00
  0.00000000E+00  0.00000000E+00  0.00000000E+00
  0.00000000E+00  0.00000000E+00  0.00000000E+00
  0.00000000E+00  0.00000000E+00  0.00000000E+00
  0.00000000E+00  0.00000000E+00  0.00000000E+00
  0.00000000E+00  0.00000000E+00  0.00000000E+00
  0.00000000E+00  0.00000000E+00  0.00000000E+00
  0.00000000E+00  0.00000000E+00  0.00000000E+00
  0.00000000E+00  0.00000000E+00  0.00000000E+00
  0.00000000E+00  0.00000000E+00  0.00000000E+00
  0.00000000E+00  0.00000000E+00  0.00000000E+00
  0.00000000E+00  0.00000000E+00  0.00000000E+00
  0.00000000E+00  0.00000000E+00  0.00000000E+00
  0.00000000E+00  0.00000000E+00  0.00000000E+00
  0.00000000E+00  0.00000000E+00  0.00000000E+00
  0.00000000E+00  0.00000000E+00  0.00000000E+00
  0.00000000E+00  0.00000000E+00  0.00000000E+00
  0.00000000E+00  0.00000000E+00  0.00000000E+00
  0.00000000E+00  0.00000000E+00  0.00000000E+00
  0.00000000E+00  0.00000000E+00  0.00000000E+00
  0.00000000E+00  0.00000000E+00  0.00000000E+00
  0.00000000E+00  0.00000000E+00  0.00000000E+00
  0.00000000E+00  0.00000000E+00  0.00000000E+00
  0.00000000E+00  0.00000000E+00  0.00000000E+00
  0.00000000E+00  0.00000000E+00  0.00000000E+00
  0.00000000E+00  0.00000000E+00  0.00000000E+00
  0.00000000E+00  0.00000000E+00  0.00000000E+00
  0.00000000E+00  0.00000000E+00  0.00000000E+00
  0.00000000E+00  0.00000000E+00  0.00000000E+00
  0.00000000E+00  0.00000000E+00  0.00000000E+00
  0.00000000E+00  0.00000000E+00  0.00000000E+00
  0.00000000E+00  0.00000000E+00  0.00000000E+00
  0.00000000E+00  0.00000000E+00  0.00000000E+00
  0.00000000E+00  0.00000000E+00  0.00000000E+00
  0.00000000E+00  0.00000000E+00  0.00000000E+00
  0.00000000E+00  0.00000000E+00  0.00000000E+00
  0.00000000E+00  0.00000000E+00  0.00000000E+00
  0.00000000E+00  0.00000000E+00  0.00000000E+00
  0.00000000E+00  0.00000000E+00  0.00000000E+00
  0.00000000E+00  0.00000000E+00  0.00000000E+00
  0.00000000E+00  0.00000000E+00  0.00000000E+00
  0.00000000E+00  0.00000000E+00  0.00000000E+00
  0.00000000E+00  0.00000000E+00  0.00000000E+00
  0.00000000E+00  0.00000000E+00  0.00000000E+00
  0.00000000E+00  0.00000000E+00  0.00000000E+00
  0.00000000E+00  0.00000000E+00  0.00000000E+00
  0.00000000E+00  0.00000000E+00  0.00000000E+00
  0.00000000E+00  0.00000000E+00  0.00000000E+00
  0.00000000E+00  0.00000000E+00  0.00000000E+00
  0.00000000E+00  0.00000000E+00  0.00000000E+00
  0.00000000E+00  0.00000000E+00  0.00000000E+00
  0.00000000E+00  0.00000000E+00  0.00000000E+00
  0.00000000E+00  0.00000000E+00  0.00000000E+00
  0.00000000E+00  0.00000000E+00  0.00000000E+00
  0.00000000E+00  0.00000000E+00  0.00000000E+00
  0.00000000E+00  0.00000000E+00  0.00000000E+00
  0.00000000E+00  0.00000000E+00  0.00000000E+00
  0.00000000E+00  0.00000000E+00  0.00000000E+00
  0.00000000E+00  0.00000000E+00  0.00000000E+00
  0.00000000E+00  0.00000000E+00  0.00000000E+00
  0.00000000E+00  0.00000000E+00  0.00000000E+00
  0.00000000E+00  0.00000000E+00  0.00000000E+00
  0.00000000E+00  0.00000000E+00  0.00000000E+00
  0.00000000E+00  0.00000000E+00  0.00000000E+00
  0.00000000E+00  0.00000000E+00  0.00000000E+00
  0.00000000E+00  0.00000000E+00  0.00000000E+00
  0.00000000E+00  0.00000000E+00  0.00000000E+00
