 Sn N B 
 1.0
 14.936314146199660   0.000000000000000   0.000000000000000
 -7.468157073099825  12.935227489513863   0.000000000000000
  0.000000000000001   0.000000000000001  13.341276283792837
 Sn N B 
   1 143 143
Cartesian
  4.305167720520553   5.360084740017848   5.002978606422314 
  1.243870252256789   0.718123678037972   1.677792841834286 
  4.978847457685371   7.189151597872927   1.614741702807160 
  6.223424729688404   0.718611364301675   1.676152980272531 
  9.957193988845148   7.185860743295234   1.673206413169231 
 11.202138676778180   0.718567785197891   1.671890016903127 
 -3.734397171560029   9.341924778417070   8.332427213544591 
  1.244662370744350   9.342080728804312   8.329804232573377 
  2.487679633712902   2.873280397365710   8.351311842267691 
  6.223045200987943   9.342831159457807   8.344992923838287 
  7.468758777977701   2.873806415393902   8.345397234224780 
 12.446495202436131   2.874097567484099   8.331669179850786 
 -1.244814346213556   9.341948545462380   1.675859326779286 
 -0.001172788170147   2.873817888103852   1.672489674060283 
  4.978677011979275   2.874606132691382   1.651512367076777 
  3.733783059245578   9.342974125274065   1.660559978620168 
  8.712349255138548   9.341995069609629   1.673206413169218 
  9.957835645987355   2.873921186727626   1.671673067257217 
 -4.979196507083588  11.497889974360834   8.328348525721948 
 -0.000066643325467  11.497941514137189   8.327866650250956 
  1.242787942136826   5.029496057095854   8.351311842267691 
  6.226025953224318   5.028975077492143   8.391215510038680 
  4.978420888140763  11.498520539276262   8.334284145586075 
 11.201996303919289   5.029933203818424   8.328469319362128 
 -1.245537216664716   5.029903894951490   1.677792841834286 
 -2.489585176022295  11.497954866470803   1.675859326779286 
  2.489224399863033  11.498222377643835   1.675736363354782 
  3.729370199290039   5.027647886138561   1.605095631688481 
  7.467662394772446  11.497989266888101   1.677487893482873 
  8.713266036822006   5.029642149726543   1.660964289006873 
 -0.000137131889015   7.185964348258516   8.330403254017652 
  1.243870252256797   0.718123678037960   8.328164371011516 
  4.978847457685372   7.189151597872928   8.391215510038680 
  6.223424729688405   0.718611364301676   8.329804232573377 
  9.957193988845148   7.185860743295235   8.332750799675877 
 -2.489676209960778   7.185914333270130   1.677608687123453 
 11.202138676778173   0.718567785197905   8.334067195941314 
  3.733773419302810   0.718641562676718   1.675553958827896 
  2.489434751741569   7.186100199770708   1.651512367076777 
  7.467960308523605   7.186123892093425   1.652503205226423 
  8.712979186300375   0.718362873684299   1.675736363354782 
  2.489434751741539   7.186100199770709   8.354444845767944 
 13.691060489681036   0.718447256639352   1.674288032992667 
 -1.244814346213556   9.341948545462380   8.330097886064529 
 -0.001172788170191   2.873817888103853   8.333467538783438 
  4.978677011979276   2.874606132691383   8.354444845767944 
  3.733783059245639   9.342974125274065   8.345397234224780 
  8.712349255138548   9.341995069609629   8.332750799675877 
  9.957835645987362   2.873921186727614   8.334284145586075 
 -3.734397171560030   9.341924778417070   1.673529999300410 
  1.244662370744350   9.342080728804312   1.676152980272531 
  2.487679633712902   2.873280397365709   1.654645370574362 
  6.223045200987942   9.342831159457807   1.660964289006913 
  7.468758777977700   2.873806415393901   1.660559978620408 
 12.446495202436580   2.874097567484098   1.674288032992667 
 -1.245537216664716   5.029903894951491   8.328164371011516 
 -2.489585176022295  11.497954866470803   8.330097886064529 
  2.489224399863034  11.498222377643835   8.330220849489793 
  3.729370199290032   5.027647886138575   8.400861581156908 
  7.467662394772447  11.497989266888101   8.328469319362128 
 -4.979196507083588  11.497889974360834   1.677608687123453 
  8.713266036822006   5.029642149726544   8.344992923838287 
 -0.000066643325176  11.497941514136684   1.678090562594446 
  1.242787942136825   5.029496057095853   1.654645370574375 
 -0.000137131889016   7.185964348258516   1.675553958827896 
  6.226025953224317   5.028975077492142   1.614741702807187 
  4.978420888140763  11.498520539276262   1.671673067257217 
 11.201996303919289   5.029933203818423   1.677487893482873 
 -2.489676209960777   7.185914333270131   8.328348525721948 
  3.733773419302810   0.718641562676719   8.330403254017652 
  7.467960308523606   7.186123892093426   8.353454007619499 
  8.712979186300375   0.718362873684299   8.330220849489793 
 13.691060489681036   0.718447256639352   8.331669179850760 
  0.010824128537357   1.445640821800698   5.002978606422314 
  3.642107676268718   8.021695957856871   5.002978606422314 
  4.996916206448550   1.327307732920086   5.002978606422314 
  8.680849244931832   7.886385646025926   5.002978606422314 
  9.969400035218825   1.428068455899111   5.002978606422314 
 -4.975069897555351  10.062802367290725  11.673616748318732 
  0.003401763911276  10.062829091973239  11.673616748318732 
  1.248159891093688   3.595120446784970  11.673616748318732 
  4.982362971478222  10.062656445366388  11.673616748318732 
  6.226813015545760   3.594865548232047  11.673616748318732 
 11.205709937792680   3.595296077437419  11.673616748318732 
 -2.524793626865546  10.040289710560936   5.002978606422314 
 -1.232011950337408   3.598296055891486   5.002978606422314 
  3.796273863652097   3.422590955120575   5.002978606422314 
  2.444300353743496  10.110873105704064   5.002978606422314 
  7.452937229650619  10.063058693168905   5.002978606422314 
  8.732933121999531   3.564183024630315   5.002978606422314 
 -6.219882902676233  12.218523987977973  11.673616748318732 
 -1.241176254587553  12.218501453996625  11.673616748318732 
  0.003285432139178   5.751180236703913  11.673616748318732 
  4.982211745605022   5.750976290154500  11.673616748318732 
  3.737617199835400  12.218581770458629  11.673616748318732 
  9.961177510755460   5.751228558221577  11.673616748318732 
 -2.506990013870396   5.745864746067242   5.002978606422314 
 -3.755192633428604  12.173544574076004   5.002978606422314 
  1.234140812238476  12.210511520842292   5.002978606422314 
  2.372801954691007   5.888116624589554   5.002978606422314 
  6.224062018277724  12.229804529372815   5.002978606422314 
  7.477154164228954   5.721857161319690   5.002978606422314 
 -1.241371916148589   7.906969785043769  11.673616748318732 
  0.003533615214310   1.439158519230797  11.673616748318732 
  3.737265704697604   7.906887978467553  11.673616748318732 
  4.982237192292881   1.438863480943976  11.673616748318732 
  8.716777343063519   7.907128743154839  11.673616748318732 
 -3.768874449824192   7.890836467666226   5.002978606422314 
  9.961025120318844   1.439323055954655  11.673616748318732 
  2.487107201416604   1.398559594214066   5.002978606422314 
  1.158554627539800   7.975545005410384   5.002978606422314 
  6.204465049610477   7.926219370078758   5.002978606422314 
  7.489037449819254   1.373132144473312   5.002978606422314 
  1.247825232188619   7.907054732237481  11.673616748318732 
 12.458208977468223   1.443760311422860   5.002978606422314 
 -2.485860337631857  10.062767855580514  11.673616748318732 
 -1.241271045699842   3.595223437432671  11.673616748318732 
  3.737591919913990   3.594673286968628  11.673616748318732 
  2.492785314498083  10.062755945282072  11.673616748318732 
  7.471913098734267  10.062760993315383  11.673616748318732 
  8.716311905948050   3.595267177996926  11.673616748318732 
 -5.008315150937654  10.037610734963547   5.002978606422314 
 -0.044810044516349  10.072161141449685   5.002978606422314 
  1.273100632666040   3.609519990645548   5.002978606422314 
  4.963753913033353  10.092592917392050   5.002978606422314 
  6.278660628039710   3.455052288543709   5.002978606422314 
 11.213966723861205   3.587036054375145   5.002978606422314 
 -2.485932045134083   5.751131389749546  11.673616748318732 
 -3.730592021403746  12.218425478567680  11.673616748318732 
  1.248184979623072  12.218619924663836  11.673616748318732 
  2.492488653743814   5.751255404645343  11.673616748318732 
  6.227087015050772  12.218523931353523  11.673616748318732 
 -6.234972934264623  12.202920573939192   5.002978606422314 
  7.471904288775757   5.751291180460012  11.673616748318732 
 -1.257200366885479  12.172082778397842   5.002978606422314 
 -0.034643953029022   5.766360717759391   5.002978606422314 
 -1.292540225596684   7.908105482329257   5.002978606422314 
  3.732057887727894  12.231461959543191   5.002978606422314 
  9.951947391849924   5.734646123608738   5.002978606422314 
 -3.730435229575902   7.907031885488683  11.673616748318732 
  2.492925211765164   1.438997645847093  11.673616748318732 
  6.227330720193419   7.906955835001944  11.673616748318732 
  7.471609246912849   1.439179932399764  11.673616748318732 
 12.450441395867824   1.439275696093969  11.673616748318732 
  1.244106185362830   0.705352558376469   5.002978606422314 
  4.901137393119107   7.348891021820601   5.002978606422314 
  6.239236014278445   0.655214842057374   5.002978606422314 
  9.925987379523033   7.171035877239931   5.002978606422314 
 11.214011405182474   0.725422508137807   5.002978606422314 
 -3.730606863558734   9.344113113762775  11.673616748318732 
  1.248372662804160   9.343613493152946  11.673616748318732 
  2.493616030780575   2.877096551769593  11.673616748318732 
  6.226966197896270   9.343024482775505  11.673616748318732 
  7.470677011763382   2.877270083182108  11.673616748318732 
 12.450558123564477   2.876811251475288  11.673616748318732 
 -1.280662163087855   9.338425163564860   5.002978606422314 
  0.030138460751504   2.891895446097759   5.002978606422314 
  5.013951084449464   2.741966723132229   5.002978606422314 
  3.687786005686844   9.419443626391828   5.002978606422314 
  8.683907239869972   9.322381786191292   5.002978606422314 
  9.974447493705878   2.862767336840360   5.002978606422314 
 -4.975149169735521  11.500036679329405  11.673616748318732 
  0.003454106836230  11.499974220191383  11.673616748318732 
  1.249061027330301   5.032729050559541  11.673616748318732 
  6.225836693292696   5.032981819169061  11.673616748318732 
  4.982408082783773  11.499271343252568  11.673616748318732 
 11.205469662598391   5.032716313643448  11.673616748318732 
 -1.256479364173605   5.036493778846146   5.002978606422314 
 -2.510560422690110  11.468671437336520   5.002978606422314 
  2.477709531643843  11.524039513047127   5.002978606422314 
  7.458080425252970  11.496961126917061   5.002978606422314 
  8.718515767026309   5.007492962202025   5.002978606422314 
  0.003927164776786   7.188193640363602  11.673616748318732 
  1.248558047931397   0.720837228528184  11.673616748318732 
  4.982222767798844   7.186984323124604  11.673616748318732 
  6.226607288582821   0.721058189305607  11.673616748318732 
  9.960758100031043   7.188396396609462  11.673616748318732 
 -2.523826992653099   7.180284972648241   5.002978606422314 
 11.205667253937147   0.720605010169772  11.673616748318732 
  3.726245578645331   0.669343785770699   5.002978606422314 
  2.392202689755438   7.282968147404456   5.002978606422314 
  7.429230067453948   7.163762976986358   5.002978606422314 
  8.729580047302330   0.695482137584716   5.002978606422314 
  2.493379152444936   7.187717530941214  11.673616748318732 
 13.703809183545561   0.731160515441349   5.002978606422314 
 -1.241031863021213   9.344050444828028  11.673616748318732 
  0.004197774947053   2.876918584165578  11.673616748318732 
  4.982049862210455   2.877213418318806  11.673616748318732 
  3.737741800432508   9.342903530570091  11.673616748318732 
  8.716327250917702   9.343813853779862  11.673616748318732 
  9.960479458625311   2.876998796590660  11.673616748318732 
 -3.766961367832623   9.323123830934566   5.002978606422314 
  1.197665014264840   9.387471964046831   5.002978606422314 
  2.520846665415910   2.848100244416504   5.002978606422314 
  6.206488307018830   9.358452152943203   5.002978606422314 
  7.511984781781024   2.795737047953947   5.002978606422314 
 12.463879554455696   2.878781630835044   5.002978606422314 
 -1.240843315168527   5.032606869848502  11.673616748318732 
 -2.485873636179792  11.500179643322831  11.673616748318732 
  2.492910719447957  11.499540067384389  11.673616748318732 
  3.738313101048781   5.032811072875703  11.673616748318732 
  7.471809317921974  11.499605728828175  11.673616748318732 
 -5.001147067733413  11.471129209297718   5.002978606422314 
  8.715393958178847   5.032941171001222  11.673616748318732 
 -0.014265735784985  11.489743664285259   5.002978606422314 
  1.237564805863759   5.070809625592313   5.002978606422314 
 -0.046594179368577   7.204093935466702   5.002978606422314 
  6.325509320065478   4.881806475474686   5.002978606422314 
  4.977067294647503  11.518483746348194   5.002978606422314 
 11.196314923824399   5.022149044784534   5.002978606422314 
 -2.485793440248854   7.188346077745781  11.673616748318732 
  3.737736191232225   0.721046700783452  11.673616748318732 
  7.471146767415634   7.187963594992052  11.673616748318732 
  8.715963498881885   0.720896475222030  11.673616748318732 
 13.695442069519421   0.720609007554480  11.673616748318732 
 -0.000207991210552   1.437583858083880   1.677750239783941 
  3.736434976193126   7.902595145367985   1.647962634853023 
  4.978369198030896   1.440251082011547   1.673713554254181 
  8.709972467979235   7.903199946690951   1.670186885024817 
  9.957278091203085   1.437276693963502   1.675018946680967 
 -4.979912829582323  10.060421214935280   8.329003738736727 
  0.000841351234238  10.060124298308954   8.326472605141028 
  1.245069802961860   3.593336383569472   8.340374979856133 
  4.978155501528822  10.059787437958546   8.338764878456397 
  6.222679948775562   3.596292532792491   8.357994577991350 
 11.201804983029337   3.592681227550083   8.329367739553673 
 -2.489510413766702  10.060660483138893   1.676324344051323 
 -1.244505545467803   3.592770441791195   1.677750239784275 
  3.732940711758495   3.594843592428913   1.643115740542873 
  2.490196972553270  10.059751705494417   1.674638222665240 
  7.466597975738991  10.059886639847292   1.673724588437338 
  8.711723537673217   3.593057905841253   1.667192334387843 
 -6.224187142272529  12.216930014847001   8.324994179769618 
 -1.244798880951867  12.217636468407196   8.326472605141028 
  0.001010962467803   5.747985257715368   8.331166473287910 
  4.977786802884407   5.748421548283597   8.338847801869536 
  3.733971483807994  12.216359929050975   8.330938266163473 
  9.956030686134904   5.748062703417642   8.332232624407355 
 -2.489464586154467   5.748200795476961   1.680963033074104 
 -3.734495856838817  12.217908580867272   1.679333682065955 
  1.244817789429272  12.216675876496712   1.679362080597986 
  2.490310538520943   5.747142187494482   1.643115740542873 
  6.222870011240250  12.216449566270354   1.676589473290847 
  7.464455523143911   5.747100271154237   1.646920782022874 
 -1.243771480405028   7.903847413233611   8.326623530777740 
 -0.000207991210552   1.437583858083880   8.328206973060366 
  3.736434976193127   7.902595145367986   8.357994577991350 
  4.978369198030903   1.440251082011534   8.332243658591061 
  8.709972467979235   7.903199946690952   8.335770327820919 
 -3.734918834018192   7.904028359500007   1.676953474106780 
  9.957278091203085   1.437276693963503   8.330938266163473 
  2.489021043960562   1.438625386826295   1.674790739557332 
  1.247092932832716   7.903011150410681   1.673713554254181 
  6.219976903455189   7.902600469388306   1.646920782022874 
  7.467713327965049   1.438440482416091   1.674638222665240 
  1.247092932832717   7.903011150410682   8.332243658591141 
 12.446719449523631   1.437126829369886   1.674879244107212 
 -2.489510413766672  10.060660483138893   8.329632868792919 
 -1.244505545467773   3.592770441791196   8.328206973060366 
  3.732940711758518   3.594843592428876   8.362841472301341 
  2.490196972553270  10.059751705494417   8.331318990178415 
  7.466597975738992  10.059886639847292   8.332232624407355 
  8.711723537673217   3.593057905841254   8.338764878456397 
 -4.979912829582323  10.060421214935280   1.676953474106780 
  0.000841351234238  10.060124298308954   1.679484607703480 
  1.245069802961859   3.593336383569471   1.665582232987895 
  4.978155501528821  10.059787437958546   1.667192334387817 
  6.222679948775561   3.596292532792490   1.647962634853010 
 11.201804983029337   3.592681227550082   1.676589473290847 
 -2.489464586154466   5.748200795476962   8.324994179769618 
 -3.734495856838817  12.217908580867272   8.326623530777740 
  1.244817789429273  12.216675876496712   8.326595132244561 
  2.490310538520944   5.747142187494483   8.362841472301341 
  6.222870011240251  12.216449566270354   8.329367739553673 
 -6.224187142272530  12.216930014847001   1.680963033074104 
  7.464455523143912   5.747100271154238   8.359036430822327 
 -1.244798880951867  12.217636468407196   1.679484607703480 
  0.001010962467802   5.747985257715367   1.674790739557332 
 -1.243771480405029   7.903847413233610   1.679333682065955 
  4.977786802884406   5.748421548283596   1.667109410975772 
  3.733971483807993  12.216359929050975   1.675018946680967 
  9.956030686134904   5.748062703417641   1.673724588437338 
 -3.734918834018191   7.904028359500008   8.329003738736727 
  2.489021043960562   1.438625386826296   8.331166473287910 
  6.219976903455190   7.902600469388307   8.359036430822327 
  7.467713327965050   1.438440482416091   8.331318990178415 
 12.446719449523631   1.437126829369887   8.331077968737109 
Generated by cif2cell 2.0.0.  :  Failed to get author information, No journal information. Species order: Sn N B 
 1.0
 14.936314146199660   0.000000000000000   0.000000000000000
 -7.468157073099825  12.935227489513863   0.000000000000000
  0.000000000000001   0.000000000000001  13.341276283792837
 Sn N B 
   1 143 143
Cartesian
  4.305167720520553   5.360084740017848   5.002978606422314 
  1.243870252256789   0.718123678037972   1.677792841834286 
  4.978847457685371   7.189151597872927   1.614741702807160 
  6.223424729688404   0.718611364301675   1.676152980272531 
  9.957193988845148   7.185860743295234   1.673206413169231 
 11.202138676778180   0.718567785197891   1.671890016903127 
 -3.734397171560029   9.341924778417070   8.332427213544591 
  1.244662370744350   9.342080728804312   8.329804232573377 
  2.487679633712902   2.873280397365710   8.351311842267691 
  6.223045200987943   9.342831159457807   8.344992923838287 
  7.468758777977701   2.873806415393902   8.345397234224780 
 12.446495202436131   2.874097567484099   8.331669179850786 
 -1.244814346213556   9.341948545462380   1.675859326779286 
 -0.001172788170147   2.873817888103852   1.672489674060283 
  4.978677011979275   2.874606132691382   1.651512367076777 
  3.733783059245578   9.342974125274065   1.660559978620168 
  8.712349255138548   9.341995069609629   1.673206413169218 
  9.957835645987355   2.873921186727626   1.671673067257217 
 -4.979196507083588  11.497889974360834   8.328348525721948 
 -0.000066643325467  11.497941514137189   8.327866650250956 
  1.242787942136826   5.029496057095854   8.351311842267691 
  6.226025953224318   5.028975077492143   8.391215510038680 
  4.978420888140763  11.498520539276262   8.334284145586075 
 11.201996303919289   5.029933203818424   8.328469319362128 
 -1.245537216664716   5.029903894951490   1.677792841834286 
 -2.489585176022295  11.497954866470803   1.675859326779286 
  2.489224399863033  11.498222377643835   1.675736363354782 
  3.729370199290039   5.027647886138561   1.605095631688481 
  7.467662394772446  11.497989266888101   1.677487893482873 
  8.713266036822006   5.029642149726543   1.660964289006873 
 -0.000137131889015   7.185964348258516   8.330403254017652 
  1.243870252256797   0.718123678037960   8.328164371011516 
  4.978847457685372   7.189151597872928   8.391215510038680 
  6.223424729688405   0.718611364301676   8.329804232573377 
  9.957193988845148   7.185860743295235   8.332750799675877 
 -2.489676209960778   7.185914333270130   1.677608687123453 
 11.202138676778173   0.718567785197905   8.334067195941314 
  3.733773419302810   0.718641562676718   1.675553958827896 
  2.489434751741569   7.186100199770708   1.651512367076777 
  7.467960308523605   7.186123892093425   1.652503205226423 
  8.712979186300375   0.718362873684299   1.675736363354782 
  2.489434751741539   7.186100199770709   8.354444845767944 
 13.691060489681036   0.718447256639352   1.674288032992667 
 -1.244814346213556   9.341948545462380   8.330097886064529 
 -0.001172788170191   2.873817888103853   8.333467538783438 
  4.978677011979276   2.874606132691383   8.354444845767944 
  3.733783059245639   9.342974125274065   8.345397234224780 
  8.712349255138548   9.341995069609629   8.332750799675877 
  9.957835645987362   2.873921186727614   8.334284145586075 
 -3.734397171560030   9.341924778417070   1.673529999300410 
  1.244662370744350   9.342080728804312   1.676152980272531 
  2.487679633712902   2.873280397365709   1.654645370574362 
  6.223045200987942   9.342831159457807   1.660964289006913 
  7.468758777977700   2.873806415393901   1.660559978620408 
 12.446495202436580   2.874097567484098   1.674288032992667 
 -1.245537216664716   5.029903894951491   8.328164371011516 
 -2.489585176022295  11.497954866470803   8.330097886064529 
  2.489224399863034  11.498222377643835   8.330220849489793 
  3.729370199290032   5.027647886138575   8.400861581156908 
  7.467662394772447  11.497989266888101   8.328469319362128 
 -4.979196507083588  11.497889974360834   1.677608687123453 
  8.713266036822006   5.029642149726544   8.344992923838287 
 -0.000066643325176  11.497941514136684   1.678090562594446 
  1.242787942136825   5.029496057095853   1.654645370574375 
 -0.000137131889016   7.185964348258516   1.675553958827896 
  6.226025953224317   5.028975077492142   1.614741702807187 
  4.978420888140763  11.498520539276262   1.671673067257217 
 11.201996303919289   5.029933203818423   1.677487893482873 
 -2.489676209960777   7.185914333270131   8.328348525721948 
  3.733773419302810   0.718641562676719   8.330403254017652 
  7.467960308523606   7.186123892093426   8.353454007619499 
  8.712979186300375   0.718362873684299   8.330220849489793 
 13.691060489681036   0.718447256639352   8.331669179850760 
  0.010824128537357   1.445640821800698   5.002978606422314 
  3.642107676268718   8.021695957856871   5.002978606422314 
  4.996916206448550   1.327307732920086   5.002978606422314 
  8.680849244931832   7.886385646025926   5.002978606422314 
  9.969400035218825   1.428068455899111   5.002978606422314 
 -4.975069897555351  10.062802367290725  11.673616748318732 
  0.003401763911276  10.062829091973239  11.673616748318732 
  1.248159891093688   3.595120446784970  11.673616748318732 
  4.982362971478222  10.062656445366388  11.673616748318732 
  6.226813015545760   3.594865548232047  11.673616748318732 
 11.205709937792680   3.595296077437419  11.673616748318732 
 -2.524793626865546  10.040289710560936   5.002978606422314 
 -1.232011950337408   3.598296055891486   5.002978606422314 
  3.796273863652097   3.422590955120575   5.002978606422314 
  2.444300353743496  10.110873105704064   5.002978606422314 
  7.452937229650619  10.063058693168905   5.002978606422314 
  8.732933121999531   3.564183024630315   5.002978606422314 
 -6.219882902676233  12.218523987977973  11.673616748318732 
 -1.241176254587553  12.218501453996625  11.673616748318732 
  0.003285432139178   5.751180236703913  11.673616748318732 
  4.982211745605022   5.750976290154500  11.673616748318732 
  3.737617199835400  12.218581770458629  11.673616748318732 
  9.961177510755460   5.751228558221577  11.673616748318732 
 -2.506990013870396   5.745864746067242   5.002978606422314 
 -3.755192633428604  12.173544574076004   5.002978606422314 
  1.234140812238476  12.210511520842292   5.002978606422314 
  2.372801954691007   5.888116624589554   5.002978606422314 
  6.224062018277724  12.229804529372815   5.002978606422314 
  7.477154164228954   5.721857161319690   5.002978606422314 
 -1.241371916148589   7.906969785043769  11.673616748318732 
  0.003533615214310   1.439158519230797  11.673616748318732 
  3.737265704697604   7.906887978467553  11.673616748318732 
  4.982237192292881   1.438863480943976  11.673616748318732 
  8.716777343063519   7.907128743154839  11.673616748318732 
 -3.768874449824192   7.890836467666226   5.002978606422314 
  9.961025120318844   1.439323055954655  11.673616748318732 
  2.487107201416604   1.398559594214066   5.002978606422314 
  1.158554627539800   7.975545005410384   5.002978606422314 
  6.204465049610477   7.926219370078758   5.002978606422314 
  7.489037449819254   1.373132144473312   5.002978606422314 
  1.247825232188619   7.907054732237481  11.673616748318732 
 12.458208977468223   1.443760311422860   5.002978606422314 
 -2.485860337631857  10.062767855580514  11.673616748318732 
 -1.241271045699842   3.595223437432671  11.673616748318732 
  3.737591919913990   3.594673286968628  11.673616748318732 
  2.492785314498083  10.062755945282072  11.673616748318732 
  7.471913098734267  10.062760993315383  11.673616748318732 
  8.716311905948050   3.595267177996926  11.673616748318732 
 -5.008315150937654  10.037610734963547   5.002978606422314 
 -0.044810044516349  10.072161141449685   5.002978606422314 
  1.273100632666040   3.609519990645548   5.002978606422314 
  4.963753913033353  10.092592917392050   5.002978606422314 
  6.278660628039710   3.455052288543709   5.002978606422314 
 11.213966723861205   3.587036054375145   5.002978606422314 
 -2.485932045134083   5.751131389749546  11.673616748318732 
 -3.730592021403746  12.218425478567680  11.673616748318732 
  1.248184979623072  12.218619924663836  11.673616748318732 
  2.492488653743814   5.751255404645343  11.673616748318732 
  6.227087015050772  12.218523931353523  11.673616748318732 
 -6.234972934264623  12.202920573939192   5.002978606422314 
  7.471904288775757   5.751291180460012  11.673616748318732 
 -1.257200366885479  12.172082778397842   5.002978606422314 
 -0.034643953029022   5.766360717759391   5.002978606422314 
 -1.292540225596684   7.908105482329257   5.002978606422314 
  3.732057887727894  12.231461959543191   5.002978606422314 
  9.951947391849924   5.734646123608738   5.002978606422314 
 -3.730435229575902   7.907031885488683  11.673616748318732 
  2.492925211765164   1.438997645847093  11.673616748318732 
  6.227330720193419   7.906955835001944  11.673616748318732 
  7.471609246912849   1.439179932399764  11.673616748318732 
 12.450441395867824   1.439275696093969  11.673616748318732 
  1.244106185362830   0.705352558376469   5.002978606422314 
  4.901137393119107   7.348891021820601   5.002978606422314 
  6.239236014278445   0.655214842057374   5.002978606422314 
  9.925987379523033   7.171035877239931   5.002978606422314 
 11.214011405182474   0.725422508137807   5.002978606422314 
 -3.730606863558734   9.344113113762775  11.673616748318732 
  1.248372662804160   9.343613493152946  11.673616748318732 
  2.493616030780575   2.877096551769593  11.673616748318732 
  6.226966197896270   9.343024482775505  11.673616748318732 
  7.470677011763382   2.877270083182108  11.673616748318732 
 12.450558123564477   2.876811251475288  11.673616748318732 
 -1.280662163087855   9.338425163564860   5.002978606422314 
  0.030138460751504   2.891895446097759   5.002978606422314 
  5.013951084449464   2.741966723132229   5.002978606422314 
  3.687786005686844   9.419443626391828   5.002978606422314 
  8.683907239869972   9.322381786191292   5.002978606422314 
  9.974447493705878   2.862767336840360   5.002978606422314 
 -4.975149169735521  11.500036679329405  11.673616748318732 
  0.003454106836230  11.499974220191383  11.673616748318732 
  1.249061027330301   5.032729050559541  11.673616748318732 
  6.225836693292696   5.032981819169061  11.673616748318732 
  4.982408082783773  11.499271343252568  11.673616748318732 
 11.205469662598391   5.032716313643448  11.673616748318732 
 -1.256479364173605   5.036493778846146   5.002978606422314 
 -2.510560422690110  11.468671437336520   5.002978606422314 
  2.477709531643843  11.524039513047127   5.002978606422314 
  7.458080425252970  11.496961126917061   5.002978606422314 
  8.718515767026309   5.007492962202025   5.002978606422314 
  0.003927164776786   7.188193640363602  11.673616748318732 
  1.248558047931397   0.720837228528184  11.673616748318732 
  4.982222767798844   7.186984323124604  11.673616748318732 
  6.226607288582821   0.721058189305607  11.673616748318732 
  9.960758100031043   7.188396396609462  11.673616748318732 
 -2.523826992653099   7.180284972648241   5.002978606422314 
 11.205667253937147   0.720605010169772  11.673616748318732 
  3.726245578645331   0.669343785770699   5.002978606422314 
  2.392202689755438   7.282968147404456   5.002978606422314 
  7.429230067453948   7.163762976986358   5.002978606422314 
  8.729580047302330   0.695482137584716   5.002978606422314 
  2.493379152444936   7.187717530941214  11.673616748318732 
 13.703809183545561   0.731160515441349   5.002978606422314 
 -1.241031863021213   9.344050444828028  11.673616748318732 
  0.004197774947053   2.876918584165578  11.673616748318732 
  4.982049862210455   2.877213418318806  11.673616748318732 
  3.737741800432508   9.342903530570091  11.673616748318732 
  8.716327250917702   9.343813853779862  11.673616748318732 
  9.960479458625311   2.876998796590660  11.673616748318732 
 -3.766961367832623   9.323123830934566   5.002978606422314 
  1.197665014264840   9.387471964046831   5.002978606422314 
  2.520846665415910   2.848100244416504   5.002978606422314 
  6.206488307018830   9.358452152943203   5.002978606422314 