 B N Al Se 
 1.0
 17.527899999999772   0.000000000000000   0.000000000000000
 -8.763949999999658  15.179606674993195   0.000000000000000
  0.000000000000001   0.000000000000002  15.000000000000000
 B N Al Se 
  49  47   1   1
Cartesian
  7.541637572718392  14.492227489138028   1.665142199419065 
 15.017711647888142   1.444031524607996   1.665686625392355 
 13.761662809431527   3.602178460662146   1.665922543296555 
 12.524114279482143   5.769633584596851   1.665396099842430 
 11.318360463966446   7.951296357889824   1.665817080452235 
 10.123395464407071  10.147720629973499   1.665503333363745 
  8.841680028425881  12.348190801792526   1.665245051027655 
 -7.487058479984117  14.469806737047955   1.665440405433540 
 -0.008131007455337   1.428322979706198   1.665541310158170 
 -1.282454470632980   3.588718586314964   1.665126852290895 
 -2.539327547245517   5.764066633504641   1.664981378199750 
 -3.774182877760645   7.947181148376990   1.665446262394905 
 -4.983360047889193  10.132542636774813   1.665976172312610 
 -6.222873724116289  12.308867378569570   1.665594976403475 
 -4.998200970121465  14.455651053135188   1.665922038909630 
  2.497584792231071   1.410209111966055   1.666396503426060 
  1.202738692633729   3.538579985899193   1.665818143708890 
 -0.073116692800053   5.743646860014813   1.665727585137960 
 -1.342776766516372   7.943638438031175   1.666004779897350 
 -2.554441449882753  10.132175554180129   1.666916184022545 
 -3.757762164304092  12.301451463529535   1.665632075386980 
 -2.510776623066910  14.459307724161944   1.666266655556970 
  5.011228225585131   1.414566145836404   1.666983433892220 
  3.724711955620592   3.516738108874253   1.665063455287575 
  2.385084590853006   5.645929525082933   1.664117385909000 
  1.081765062378591   7.927819842627347   1.663828456338900 
 -0.136453197496546  10.139528941562830   1.665827127230220 
 -1.290461299000799  12.312608848815318   1.666468727173515 
 -0.027728304421922  14.492441457805160   1.666226912809800 
  7.523101911133086   1.420634839483806   1.666556710861965 
  6.308684627329591   3.510493017170973   1.664391981367170 
  5.050727974810824   5.441350476531319   1.663883194153425 
  3.331450851489864   7.772459790984509   1.665468992694660 
  2.164562329531643  10.327248113069585   1.663111384862865 
  1.164840724890188  12.397017849426438   1.665623360592960 
  2.497633768844613  14.479628311557290   1.665386089229790 
 10.022717267096517   1.445309164171946   1.665338818011435 
  8.792865185834462   3.592061948370406   1.665197861746635 
  7.575893554245026   5.750693752175546   1.663701967010595 
  6.599296778254296   8.132715768576873   1.663856282903880 
  5.374928552791064  10.280785482152837   1.667596378919970 
  3.751560419811474  12.323998642466812   1.665230798794980 
  5.015832087798474  14.479751739365959   1.665244514486565 
 12.520642120943760   1.448344742257603   1.665559646711010 
 11.280131525879248   3.603503968152083   1.665455047470450 
 10.057078046202498   5.766619738711599   1.665172673198655 
  8.896685166013381   7.958023962824480   1.664531491917120 
  7.752351580724291  10.231497050800083   1.664583309895485 
  6.335498893112788  12.386390962940350   1.664905378110540 
  8.802049998269778  13.777074560077128   1.664904448213125 
 16.275854725038315   0.737434357854478   1.665273591465705 
 15.003258721886768   2.878773621149784   1.665503534027565 
 13.754582058458110   5.039351195425543   1.665157853318490 
 12.531656493542453   7.211049839350238   1.665281067579750 
 11.330784094664036   9.396894291549735   1.665701113059210 
 10.077661488409550  11.593364193607233   1.665356596846920 
 -6.240187141154040  13.745811473020972   1.665276578883660 
  1.250187718567835   0.715984048128634   1.665622620866385 
 -0.041025525763371   2.850244967885217   1.664992116167775 
 -1.307805156562557   5.023944306019648   1.664826101718465 
 -2.562202244367562   7.204536385630328   1.664873781180660 
 -3.774090521865964   9.392369205268418   1.665902290087890 
 -4.991490637377582  11.575895984067207   1.665471380480940 
 -3.756332602553556  13.740388447071961   1.665294407126100 
  3.757842161893375   0.707591782636444   1.666602509091855 
  2.470334050193560   2.829026346722492   1.665648717463110 
  1.151829606611636   4.949941414512637   1.666096702455825 
 -0.141192434044655   7.189412119139842   1.665752820153405 
 -1.356529093361620   9.392891986131515   1.666594455738750 
 -2.532463445437932  11.578419163226419   1.666203082301595 
 -1.272129166124868  13.756518067684008   1.666006077283740 
  6.264050905098265   0.713615516390202   1.666737627106290 
  5.016298095990473   2.840671869721568   1.665341416292955 
  3.702623554625331   4.927554853768696   1.663742340083580 
  2.191028683591760   7.025831264564332   1.661316429480270 
  1.045108418573390   9.406917757705143   1.663560314201175 
 -0.069135295715618  11.606066779718560   1.665966163419930 
  1.210544395608488  13.818211218284874   1.665634277436810 
  8.765835885466110   0.737131375730656   1.665747497515485 
  7.555298445613696   2.841396028151149   1.665434031877380 
  6.357476919390638   4.923231554214345   1.662258045201480 
  2.391290854730528  11.742699058922755   1.664484648255090 
  3.758703024620109  13.773683073340836   1.665093161342445 
 11.270978790382925   0.739129555535241   1.665004444047375 
 10.035368183051787   2.883123218047611   1.665045138540300 
  8.813731432764691   5.034391890456049   1.664705812473915 
  7.673099223950067   7.210923385234284   1.663523168253285 
  6.576307379650871   9.524721817529761   1.663809787826895 
  5.107996258226880  11.705499081363735   1.665308394131010 
  6.299424611105095  13.809441222786861   1.664747209977465 
 13.769948922381673   0.737867003766088   1.665393911386875 
 12.519937277453909   2.885342854106990   1.665578401967955 
 11.287893062645827   5.041488578525136   1.665240430080690 
 10.098995326362830   7.210371990261099   1.665031722689130 
  8.924068493361101   9.415202200966844   1.664577770891070 
  7.618722695840905  11.657934214363133   1.664909404262085 
  3.750394151282828   9.497921191794381   1.665938812634445 
  5.008648825365143   7.227106488923906   1.668112155497985 
