B N Sb                                  
   1.0000000000000000     
     8.7639499999999995  -15.1796066749929999    0.0000000000000000
     8.7639499999999995   15.1796066749929999    0.0000000000000000
     0.0000000000000000    0.0000000000000000   15.0000000000000000
   B    N    Sb
    49    48     1
Selective dynamics
Direct
  0.9054577705697183  0.9533405179215642  0.1110252614722628   T   T   T
  0.9046249017616874  0.0953769272126233  0.1110490843992911   T   T   T
  0.9046188341157927  0.2378122414384336  0.1110283034600954   T   T   T
  0.9054549479836156  0.3806927984925461  0.1110285447887180   T   T   T
  0.9084375730663149  0.5244119901839905  0.1110346462265726   T   T   T
  0.9083159199392743  0.6684406790218302  0.1110398337483286   T   T   T
  0.9084555260499700  0.8125888270864340  0.1110475104404812   T   T   T
  0.0478010019228537  0.9522009136008309  0.1110129161112517   T   T   T
  0.0466615225714158  0.0945442059444650  0.1110286717705033   T   T   T
  0.0463802724495225  0.2374738882320084  0.1110173150916522   T   T   T
  0.0466679361182609  0.3806757179297806  0.1110257519782255   T   T   T
  0.0477957620351323  0.5241556409568476  0.1110271814310662   T   T   T
  0.0488393996255408  0.6673337503549173  0.1110340185116367   T   T   T
  0.0488529055988535  0.8100558580675337  0.1110352455475866   T   T   T
  0.1899451240874865  0.9511504570427247  0.1110252106935068   T   T   T
  0.1874129259321017  0.0915461382468555  0.1110508599979765   T   T   T
  0.1877156958518659  0.2359660165041618  0.1110452946064406   T   T   T
  0.1877137224875426  0.3803266373822279  0.1110463691492462   T   T   T
  0.1874127537889242  0.5244208918722911  0.1110527194754286   T   T   T
  0.1899317087539318  0.6673446539457900  0.1110426182337595   T   T   T
  0.1904765838669700  0.8095253073447398  0.1110231358825388   T   T   T
  0.3326680905310811  0.9511623286911378  0.1110308825165210   T   T   T
  0.3315611311806021  0.0916854667790998  0.1110375123150014   T   T   T
  0.3256202345400667  0.2290784853412919  0.1110427624638529   T   T   T
  0.3289010804215762  0.3787424716969188  0.1110180377301768   T   T   T
  0.3256289301154265  0.5251210242571697  0.1110152560765172   T   T   T
  0.3315594915851481  0.6684424060706818  0.1110425695292796   T   T   T
  0.3326566350214436  0.8100695503288738  0.1110496633605444   T   T   T
  0.4758457743789888  0.9522058399337628  0.1110221977767236   T   T   T
  0.4755895766964849  0.0915640379541467  0.1110374749198915   T   T   T
  0.4748634005572900  0.2290748912144661  0.1110265332601946   T   T   T
  0.4613880156867967  0.3513938499323998  0.1110105374134114   T   T   T
  0.4614003032908532  0.5386016423952487  0.1110094400430851   T   T   T
  0.4748808118346475  0.6743727813148642  0.1110077770569384   T   T   T
  0.4755807854642622  0.8125889227590811  0.1110513477205284   T   T   T
  0.6193259921624855  0.9533337610802320  0.1110269143126971   T   T   T
  0.6193086058669171  0.0945465110868787  0.1110321055900023   T   T   T
  0.6196816063298383  0.2359732548323128  0.1110238251815157   T   T   T
  0.6212451401713206  0.3787566682326425  0.1110269653768455   T   T   T
  0.6486082701685411  0.5386138370897493  0.1110183290186426   T   T   T
  0.6212596993127159  0.6711004270320521  0.1110147830231594   T   T   T
  0.6196750105724315  0.8122877630417877  0.1110382610383823   T   T   T
  0.7625279534428008  0.9536215643920829  0.1110227914078372   T   T   T
  0.7621896831877303  0.0953832169985333  0.1110378499487508   T   T   T
  0.7625221274155904  0.2374792596535942  0.1110138806682455   T   T   T
  0.7640284364622950  0.3803199794275573  0.1110279761000539   T   T   T
  0.7709265724692638  0.5251382207557748  0.1110362412859685   T   T   T
  0.7709228948402573  0.6743812938812588  0.1110430820269901   T   T   T
  0.7640358086392233  0.8122860118077663  0.1110416080994882   T   T   T
  0.9537804137913226  0.9065000454453018  0.1110045178913562   T   T   T
  0.9520958474674305  0.0479060856951430  0.1110148549500380   T   T   T
  0.9517780335276231  0.1901731539373333  0.1110117821116933   T   T   T
  0.9520936832906880  0.3327561158626885  0.1109976840275923   T   T   T
  0.9537754348462634  0.4758439727770904  0.1110112054031340   T   T   T
  0.9545390660632769  0.6196671250123111  0.1110107344213503   T   T   T
  0.9545528207815336  0.7634347467434335  0.1110253930791846   T   T   T
  0.0953630228470546  0.9046388893088675  0.1109903181247847   T   T   T
  0.0935017897870682  0.0462213424407415  0.1110115304566449   T   T   T
  0.0933375308916257  0.1894270930497425  0.1110048371382304   T   T   T
  0.0933389347941845  0.3324765753206986  0.1110060617151212   T   T   T
  0.0935018443228699  0.4758384669818027  0.1110199181998388   T   T   T
  0.0953529639535610  0.6192707706382486  0.1109991784124133   T   T   T
  0.0958802193862261  0.7622140880239801  0.1110130284197319   T   T   T
  0.2377877203583169  0.9041216553120195  0.1110025867336411   T   T   T
  0.2365670362722588  0.0454488617942382  0.1110158989749254   T   T   T
  0.2324190596849830  0.1852135371820465  0.1110297864065353   T   T   T
  0.2345461595059570  0.3315619098239566  0.1110168569105484   T   T   T
  0.2324275639514833  0.4757759690429859  0.1110212343795916   T   T   T
  0.2365615900753842  0.6196750683124728  0.1110148736781373   T   T   T
  0.2377769827523975  0.7622242488578492  0.1110239530144650   T   T   T
  0.3807305674764298  0.9046483093969165  0.1109996329360764   T   T   T
  0.3803345912714117  0.0454624194139614  0.1110154453240245   T   T   T
  0.3785203325993950  0.1856305911327882  0.1110127263124199   T   T   T
  0.3697151180064578  0.3218961304584079  0.1109856347413095   T   T   T
  0.3697207064290034  0.4764015819908531  0.1109845660820619   T   T   T
  0.3785333273592033  0.6214684487160893  0.1109980731679481   T   T   T
  0.3803266342098242  0.7634401110167832  0.1110286537608400   T   T   T
  0.5241632055434765  0.9064998198460696  0.1110122095459499   T   T   T
  0.5241575954605957  0.0462261872534259  0.1110104600214669   T   T   T
  0.5242242821768162  0.1852267084064654  0.1110123400434729   T   T   T
  0.5235749178870250  0.3218946055540056  0.1109858749719795   T   T   T
  0.5236004621932333  0.6302810705585864  0.1109773585104306   T   T   T
  0.5242257054675072  0.7675741323994454  0.1110121909314073   T   T   T
  0.6675251164301745  0.9066626521586012  0.1110055316828557   T   T   T
  0.6672459113933452  0.0479083214505729  0.1110091082469893   T   T   T
  0.6675188028657534  0.1894308853938214  0.1110047384775484   T   T   T
  0.6684301396981982  0.3315716353123817  0.1110132486234714   T   T   T
  0.6781071896882787  0.4764269217115327  0.1109982546051218   T   T   T
  0.6781056574135839  0.6302864720754137  0.1109870683527430   T   T   T
  0.6684399229905132  0.7654553250056340  0.1110125666193136   T   T   T
  0.8105747647435479  0.9066642453298797  0.1110051241951491   T   T   T
  0.8098285775461201  0.0482239231067621  0.1110187316134230   T   T   T
  0.8098254707780667  0.1901771135477597  0.1110108159836604   T   T   T
  0.8105706073484602  0.3324826072726646  0.1110061025079635   T   T   T
  0.8147747263057994  0.4757776145683082  0.1110150594436769   T   T   T
  0.8143704916764531  0.6214812354267281  0.1110173273132979   T   T   T
  0.8147878805799671  0.7675821762702402  0.1110248111376801   T   T   T
  0.5237985914839434  0.4762033731970005  0.1110230121239702   T   T   T

  0.00000000E+00  0.00000000E+00  0.00000000E+00
  0.00000000E+00  0.00000000E+00  0.00000000E+00
  0.00000000E+00  0.00000000E+00  0.00000000E+00
  0.00000000E+00  0.00000000E+00  0.00000000E+00
  0.00000000E+00  0.00000000E+00  0.00000000E+00
  0.00000000E+00  0.00000000E+00  0.00000000E+00
  0.00000000E+00  0.00000000E+00  0.00000000E+00
  0.00000000E+00  0.00000000E+00  0.00000000E+00
  0.00000000E+00  0.00000000E+00  0.00000000E+00
  0.00000000E+00  0.00000000E+00  0.00000000E+00
  0.00000000E+00  0.00000000E+00  0.00000000E+00
  0.00000000E+00  0.00000000E+00  0.00000000E+00
  0.00000000E+00  0.00000000E+00  0.00000000E+00
  0.00000000E+00  0.00000000E+00  0.00000000E+00
  0.00000000E+00  0.00000000E+00  0.00000000E+00
  0.00000000E+00  0.00000000E+00  0.00000000E+00
  0.00000000E+00  0.00000000E+00  0.00000000E+00
  0.00000000E+00  0.00000000E+00  0.00000000E+00
  0.00000000E+00  0.00000000E+00  0.00000000E+00
  0.00000000E+00  0.00000000E+00  0.00000000E+00
  0.00000000E+00  0.00000000E+00  0.00000000E+00
  0.00000000E+00  0.00000000E+00  0.00000000E+00
  0.00000000E+00  0.00000000E+00  0.00000000E+00
  0.00000000E+00  0.00000000E+00  0.00000000E+00
  0.00000000E+00  0.00000000E+00  0.00000000E+00
  0.00000000E+00  0.00000000E+00  0.00000000E+00
  0.00000000E+00  0.00000000E+00  0.00000000E+00
  0.00000000E+00  0.00000000E+00  0.00000000E+00
  0.00000000E+00  0.00000000E+00  0.00000000E+00
  0.00000000E+00  0.00000000E+00  0.00000000E+00
  0.00000000E+00  0.00000000E+00  0.00000000E+00
  0.00000000E+00  0.00000000E+00  0.00000000E+00
  0.00000000E+00  0.00000000E+00  0.00000000E+00
  0.00000000E+00  0.00000000E+00  0.00000000E+00
  0.00000000E+00  0.00000000E+00  0.00000000E+00
  0.00000000E+00  0.00000000E+00  0.00000000E+00
  0.00000000E+00  0.00000000E+00  0.00000000E+00
  0.00000000E+00  0.00000000E+00  0.00000000E+00
  0.00000000E+00  0.00000000E+00  0.00000000E+00
  0.00000000E+00  0.00000000E+00  0.00000000E+00
  0.00000000E+00  0.00000000E+00  0.00000000E+00
  0.00000000E+00  0.00000000E+00  0.00000000E+00
  0.00000000E+00  0.00000000E+00  0.00000000E+00
  0.00000000E+00  0.00000000E+00  0.00000000E+00
  0.00000000E+00  0.00000000E+00  0.00000000E+00
  0.00000000E+00  0.00000000E+00  0.00000000E+00
  0.00000000E+00  0.00000000E+00  0.00000000E+00
  0.00000000E+00  0.00000000E+00  0.00000000E+00
  0.00000000E+00  0.00000000E+00  0.00000000E+00
  0.00000000E+00  0.00000000E+00  0.00000000E+00
  0.00000000E+00  0.00000000E+00  0.00000000E+00
  0.00000000E+00  0.00000000E+00  0.00000000E+00
  0.00000000E+00  0.00000000E+00  0.00000000E+00
  0.00000000E+00  0.00000000E+00  0.00000000E+00
  0.00000000E+00  0.00000000E+00  0.00000000E+00
  0.00000000E+00  0.00000000E+00  0.00000000E+00
  0.00000000E+00  0.00000000E+00  0.00000000E+00
  0.00000000E+00  0.00000000E+00  0.00000000E+00
  0.00000000E+00  0.00000000E+00  0.00000000E+00
  0.00000000E+00  0.00000000E+00  0.00000000E+00
  0.00000000E+00  0.00000000E+00  0.00000000E+00
  0.00000000E+00  0.00000000E+00  0.00000000E+00
  0.00000000E+00  0.00000000E+00  0.00000000E+00
  0.00000000E+00  0.00000000E+00  0.00000000E+00
  0.00000000E+00  0.00000000E+00  0.00000000E+00
  0.00000000E+00  0.00000000E+00  0.00000000E+00
  0.00000000E+00  0.00000000E+00  0.00000000E+00
  0.00000000E+00  0.00000000E+00  0.00000000E+00
  0.00000000E+00  0.00000000E+00  0.00000000E+00
  0.00000000E+00  0.00000000E+00  0.00000000E+00
  0.00000000E+00  0.00000000E+00  0.00000000E+00
  0.00000000E+00  0.00000000E+00  0.00000000E+00
  0.00000000E+00  0.00000000E+00  0.00000000E+00
  0.00000000E+00  0.00000000E+00  0.00000000E+00
  0.00000000E+00  0.00000000E+00  0.00000000E+00
  0.00000000E+00  0.00000000E+00  0.00000000E+00
  0.00000000E+00  0.00000000E+00  0.00000000E+00
  0.00000000E+00  0.00000000E+00  0.00000000E+00
  0.00000000E+00  0.00000000E+00  0.00000000E+00
  0.00000000E+00  0.00000000E+00  0.00000000E+00
  0.00000000E+00  0.00000000E+00  0.00000000E+00
  0.00000000E+00  0.00000000E+00  0.00000000E+00
  0.00000000E+00  0.00000000E+00  0.00000000E+00
  0.00000000E+00  0.00000000E+00  0.00000000E+00
  0.00000000E+00  0.00000000E+00  0.00000000E+00
  0.00000000E+00  0.00000000E+00  0.00000000E+00
  0.00000000E+00  0.00000000E+00  0.00000000E+00
  0.00000000E+00  0.00000000E+00  0.00000000E+00
  0.00000000E+00  0.00000000E+00  0.00000000E+00
  0.00000000E+00  0.00000000E+00  0.00000000E+00
  0.00000000E+00  0.00000000E+00  0.00000000E+00
  0.00000000E+00  0.00000000E+00  0.00000000E+00
  0.00000000E+00  0.00000000E+00  0.00000000E+00
  0.00000000E+00  0.00000000E+00  0.00000000E+00
  0.00000000E+00  0.00000000E+00  0.00000000E+00
  0.00000000E+00  0.00000000E+00  0.00000000E+00
  0.00000000E+00  0.00000000E+00  0.00000000E+00
  0.00000000E+00  0.00000000E+00  0.00000000E+00
