 N B Sb 
 1.0
 17.527899999999772   0.000000000000000   0.000000000000000
 -8.763949999999658  15.179606674993195   0.000000000000000
  0.000000000000001   0.000000000000002  15.000000000000000
 N B Sb 
  48  49   1
Cartesian
  8.773246641612667  13.760314140723143   1.665067768370340 
 16.268394265096219   0.727195538190789   1.665222824250570 
 15.016002181419582   2.886753676911649   1.665176731675395 
 13.771944909735943   5.051106957494068   1.664965260413880 
 12.547407659221978   7.223124345422396   1.665168081047010 
 11.300333595798865   9.406303227110719   1.665161016320250 
 10.040602438654581  11.588639177588355   1.665380896187775 
 -6.256696465797263  13.732062522611308   1.664854771871775 
  1.233808487125212   0.701621798240619   1.665172956849675 
 -0.024118664417920   2.875428766082436   1.665072557073450 
 -1.277772567102770   5.046863642016961   1.665090925726815 
 -2.531333555598199   7.223040769615506   1.665298772997585 
 -3.755920853453270   9.400286723608545   1.664987676186195 
 -4.999427259357692  11.570110058342658   1.665195426295980 
 -3.755757597402971  13.724211113980221   1.665038801004615 
  3.748211802754878   0.689895845862659   1.665238484623875 
  2.450615857065823   2.811468645307701   1.665446796098025 
  1.205309629602855   5.032979379537229   1.665252853658220 
 -0.095709705708969   7.222092075486266   1.665318515693880 
 -1.284373420254617   9.406423803282879   1.665223105172055 
 -2.512364029791783  11.570264295804279   1.665359295216975 
 -1.254885237468771  13.732205515842750   1.664994494041140 
  6.268036311723128   0.690101645197503   1.665231679860375 
  5.007809318610716   2.817799360242201   1.665190894686300 
  3.659248024374457   4.886256650560930   1.664784521119635 
  2.305267925728264   7.231588633965670   1.664768491230930 
  1.188375897494132   9.433646612428410   1.664971097519220 
 -0.024423749178988  11.588720605147905   1.665429806412600 
  1.242961154305735  13.760310716215534   1.665183143189250 
  8.782257923694015   0.701695340591591   1.665156900322005 
  7.565233184428118   2.811668579313794   1.665185100652095 
  6.356100574886946   4.886233503111892   1.664788124579685 
  3.653864752954945   9.567418745772969   1.664660377656465 
  2.461594425221943  11.651473423722727   1.665182863971105 
  3.754367337891250  13.762782446673732   1.665082975242840 
 11.275553476534526   0.727229476078838   1.665136623704835 
 10.040040016703367   2.875486332373916   1.665071077163220 
  8.810299412320056   5.033127008626243   1.665198729352065 
  7.710413289603403   7.231973280958846   1.664973819076830 
  6.361969025634295   9.567500738673866   1.664806025291145 
  5.007935930602397  11.619310760864607   1.665188499289710 
  6.261713306089757  13.762806630387114   1.665076862927235 
 13.771962273458962   0.732020185085763   1.665280974201345 
 12.527837154973868   2.886813782240517   1.665162239754900 
 11.293739602535728   5.046955204675286   1.665091537619445 
 10.111598700019465   7.222117053913428   1.665225891655155 
  8.827574067837654   9.433840709666578   1.665259909699470 
  7.554468678294111  11.651595526517537   1.665372167065200 
  7.515744624730388  14.471334089383644   1.665378922083945 
 15.020296194343432   1.447784240957072   1.665736265989365 
 13.771893869143719   3.609896287533946   1.665424551901425 
 12.534351131413198   5.778766945119290   1.665428171830770 
 11.327082475576045   7.960367746643375   1.665519693398595 
 10.062689924190254  10.146666593116755   1.665597506224935 
  8.801829763907186  12.334778783666124   1.665712656607215 
 -7.507190015148097  14.454035344029794   1.665193741668780 
 -0.010702192207450   1.435143859636532   1.665430076557545 
 -1.268260505302842   3.604760218943177   1.665259726374780 
 -2.518232040663318   5.778507668894730   1.665386279673390 
 -3.755914492188009   7.956476466203906   1.665407721465990 
 -4.992427508726238  10.129863851335742   1.665510277674555 
 -6.243000193264564  12.296329310239280   1.665528683213805 
 -5.006495907506244  14.438089826648577   1.665378160402605 
  2.482649246156754   1.389634371201810   1.665762899969640 
  1.222267574980310   3.581871319198132   1.665679419096615 
 -0.042936277296485   5.773208763484985   1.665695537238690 
 -1.311046468187147   7.960502870770513   1.665790792131435 
 -2.519471182079977  10.130029363556538   1.665639273506385 
 -3.755984802941838  12.288275758946133   1.665347038238085 
 -2.504966066512716  14.438270033602070   1.665463237747815 
  5.008043504641736   1.391749323519893   1.665562684725015 
  3.699806517388029   3.477321305184007   1.665641436957795 
  2.445665162693183   5.749161751473973   1.665270565952655 
  1.105456923631655   7.971130604993402   1.665228841147755 
 -0.046654212127684  10.146692809039036   1.665638542939200 
 -1.268636802612167  12.296537153380910   1.665744950408160 
 -0.004507222149804  14.454110123826050   1.665332966650860 
  7.533623890949996   1.389906081718100   1.665562123798365 
  6.315757305769074   3.477266747752448   1.665397998902925 
  5.007564869041568   5.334020429985417   1.665158061201165 
  3.367100512181978   8.175761086065220   1.665141600646275 
  2.413494044952229  10.236713572680836   1.665116655854070 
  1.214443759924760  12.334780235939276   1.665770215807920 
  2.500514642605923  14.471231523189859   1.665403714690455 
 10.026578416934772   1.435178850791707   1.665481583850030 
  8.793659420901058   3.581981194172449   1.665357377722740 
  7.569718189851423   5.749377249302396   1.665404480652690 
  6.648356161124499   8.175946196731251   1.665274935279645 
  5.007887296095889  10.187040521766519   1.665221745347385 
  3.742752276902572  12.330208749884415   1.665573915575730 
  5.008022005896226  14.475600264263516   1.665341871117555 
 12.523650803331776   1.447879717433256   1.665567749231265 
 11.284155239486513   3.604841755010138   1.665208210023675 
 10.058708747763276   5.773107698351819   1.665419641500810 
  8.910438759791440   7.971391641078412   1.665543619289535 
  7.602415467959935  10.236842790090506   1.665646230404850 
  6.273109257064869  12.330182166840768   1.665624121492320 
  5.007666779141592   7.228579902435472   1.665345181859550 
