Species order: X N B                    
   2.51242800000000     
     5.9449720136058266    0.0000000000000000    0.0000000000000000
    -2.9724860068029120    5.1484967885702053   -0.0000000000000001
     0.0000000000000000    0.0000000000000009    5.3101128803662583
   Ge   N    B 
     1   143   144
Direct
  0.5555555555555571  0.4444444444444429  0.3750000000000000
  0.1110762396721428  0.0555487804249757  0.1244981516299873
  0.6112255465046696  0.5557844263426658  0.1239789104254911
  0.4444599596922766  0.0555727487813066  0.1249527023564409
  0.9444272512186906  0.5555400403077018  0.1249527023564409
  0.7777847242497427  0.0555590287915321  0.1241767788370963
  0.1110935331209398  0.7222134332271414  0.6254889352109160
  0.4444599596922766  0.7222205442443238  0.6250472976435688
  0.2777094792947132  0.2221993834903332  0.6250817508484301
  0.7778006165096644  0.7222905207052769  0.6250817508484301
  0.6111565708622801  0.2221993834903332  0.6250817508484301
  0.9444409712084673  0.2222152757502726  0.6258232211628691
  0.2777865667728852  0.7222134332271414  0.1245110647890632
  0.1110513230494719  0.2221923281914062  0.1243523827856846
  0.4444503086864370  0.2222339507062131  0.1257209321346099
  0.6111565708622801  0.7222905207052769  0.1249182491515646
  0.9444272512186906  0.7222205442443238  0.1249527023564409
  0.7778076718085943  0.2221923281914062  0.1243523827856846
  0.1111039508958186  0.8888960491041810  0.6256728439339251
  0.4444587648750307  0.8888960491041810  0.6256728439339251
  0.2777094792947132  0.3888434291376990  0.6250817508484301
  0.6112255465046696  0.3887744534953314  0.6260210895745442
  0.7778076718085943  0.8889486769505162  0.6256476172142721
  0.9444512195750345  0.3888607925804976  0.6255018483700322
  0.1110762396721428  0.3888607925804976  0.1244981516299873
  0.2777865667728852  0.8889064668790990  0.1245110647890632
  0.6111392074195016  0.8889237603278816  0.1244981516299873
  0.4442155736573085  0.3887744534953314  0.1239789104254938
  0.9444512195750345  0.8889237603278816  0.1244981516299873
  0.7778006165096644  0.3888434291376990  0.1249182491515646
  0.2777794557556942  0.5555400403077018  0.6250472976435688
  0.1110762396721428  0.0555487804249757  0.6255018483700322
  0.6112255465046696  0.5557844263426658  0.6260210895745442
  0.4444599596922766  0.0555727487813066  0.6250472976435688
  0.9444272512186906  0.5555400403077018  0.6250472976435688
  0.1111039508958186  0.5555412351249847  0.1243271560661030
  0.7777847242497427  0.0555590287915321  0.6258232211628691
  0.2777794557556942  0.0555727487813066  0.1249527023564409
  0.4444503086864370  0.5555496913135751  0.1257209321346099
  0.7777660492937902  0.5555496913135751  0.1257209321346099
  0.6111392074195016  0.0555487804249757  0.1244981516299873
  0.4444503086864370  0.5555496913135751  0.6242790678654087
  0.9444409712084673  0.0555590287915321  0.1241767788370963
  0.2777865667728852  0.7222134332271414  0.6254889352109160
  0.1110513230494719  0.2221923281914062  0.6256476172142721
  0.4444503086864370  0.2222339507062131  0.6242790678654087
  0.6111565708622801  0.7222905207052769  0.6250817508484301
  0.9444272512186906  0.7222205442443238  0.6250472976435688
  0.7778076718085943  0.2221923281914062  0.6256476172142721
  0.1110935331209398  0.7222134332271414  0.1245110647890632
  0.4444599596922766  0.7222205442443238  0.1249527023564409
  0.2777094792947132  0.2221993834903332  0.1249182491515646
  0.7778006165096644  0.7222905207052769  0.1249182491515646
  0.6111565708622801  0.2221993834903332  0.1249182491515646
  0.9444409712084673  0.2222152757502726  0.1241767788370963
  0.1110762396721410  0.3888607925804976  0.6255018483700322
  0.2777865667728852  0.8889064668790990  0.6254889352109160
  0.6111392074195016  0.8889237603278816  0.6255018483700322
  0.4442155736573085  0.3887744534953314  0.6260210895745442
  0.9444512195750345  0.8889237603278816  0.6255018483700322
  0.1111039508958186  0.8888960491041810  0.1243271560661030
  0.7778006165096644  0.3888434291376990  0.6250817508484301
  0.4444587648750307  0.8888960491041810  0.1243271560661030
  0.2777094792947132  0.3888434291376990  0.1249182491515646
  0.2777794557556942  0.5555400403077018  0.1249527023564409
  0.6112255465046696  0.3887744534953314  0.1239789104254911
  0.7778076718085943  0.8889486769505162  0.1243523827856846
  0.9444512195750345  0.3888607925804976  0.1244981516299873
  0.1111039508958186  0.5555412351249847  0.6256728439339251
  0.2777794557556942  0.0555727487813066  0.6250472976435688
  0.7777660492937902  0.5555496913135751  0.6242790678654087
  0.6111392074195016  0.0555487804249757  0.6255018483700322
  0.9444409712084673  0.0555590287915321  0.6258232211628691
  0.0543499487974323  0.1102968502223437  0.3750000000000000
  0.5556933019970911  0.6215936421611505  0.3750000000000000
  0.3875094113224169  0.1083521559781560  0.3750000000000000
  0.8916478440218234  0.6124905886775601  0.3750000000000000
  0.7226135680915805  0.1102968502223437  0.3750000000000000
  0.0555457560653378  0.7777590645813900  0.8750000000000000
  0.3888799751826724  0.7777590645813900  0.8750000000000000
  0.2222516230936754  0.2777924782135210  0.8750000000000000
  0.7222075217864543  0.7777483769062937  0.8750000000000000
  0.5555545474665936  0.2777772160687894  0.8750000000000000
  0.8889038563737413  0.2777895734775922  0.8750000000000000
  0.2222222222222214  0.7777777777777786  0.3750000000000000
  0.0543499487974323  0.2773864319084169  0.3750000000000000
  0.3784063578388209  0.2674329931692557  0.3750000000000000
  0.5550611616621214  0.7819252439010792  0.3750000000000000
  0.8935307489056445  0.7819252439010792  0.3750000000000000
  0.7241780077525869  0.2758219922474094  0.3750000000000000
  0.0555515288307715  0.9444484711692585  0.8750000000000000
  0.3888799751826724  0.9444542439346925  0.8750000000000000
  0.2222253744557565  0.4444495281866130  0.8750000000000000
  0.5555555555555571  0.4444444444444429  0.8750000000000000
  0.7222104265224001  0.9444476162295040  0.8750000000000000
  0.8888908203975149  0.4444495281866130  0.8750000000000000
  0.0557946514657588  0.4449226362648529  0.3750000000000000
  0.2217979578025843  0.9432803933094166  0.3750000000000000
  0.5550773637351782  0.9442053485342585  0.3750000000000000
  0.3784063578388210  0.4443066980029097  0.3750000000000000
  0.8897031497776762  0.9456500512025497  0.3750000000000000
  0.7325670068307656  0.4443066980029097  0.3750000000000000
  0.2222409354186407  0.6111200248172930  0.8750000000000000
  0.0555523837704798  0.1110961436262143  0.8750000000000000
  0.5555545474665936  0.6111106647311361  0.8750000000000000
  0.3888841266123407  0.1111015865580364  0.8750000000000000
  0.8888984134419758  0.6111158733876710  0.8750000000000000
  0.0567196066905858  0.6118508978264868  0.3750000000000000
  0.7222104265224001  0.1110961436262143  0.8750000000000000
  0.2180747560989054  0.1064692510943232  0.3750000000000000
  0.3875094113224169  0.6124905886775601  0.3750000000000000
  0.7325670068307656  0.6215936421611505  0.3750000000000000
  0.5550611616621214  0.1064692510943232  0.3750000000000000
  0.3888841266123407  0.6111158733876710  0.8750000000000000
  0.8888888888888857  0.1111111111111143  0.3750000000000000
  0.2222222222222214  0.7777777777777786  0.8750000000000000
  0.0555523837704798  0.2777895734775922  0.8750000000000000
  0.3888893352688785  0.2777772160687894  0.8750000000000000
  0.5555504718133900  0.7777746255442423  0.8750000000000000
  0.8888908203975149  0.7777746255442423  0.8750000000000000
  0.7222075217864543  0.2777924782135210  0.8750000000000000
  0.0567196066905858  0.7782020421973909  0.3750000000000000
  0.3881491021735032  0.7782020421973909  0.3750000000000000
  0.2183106511614787  0.2758219922474094  0.3750000000000000
  0.7241780077525869  0.7816893488385169  0.3750000000000000
  0.5556933019970911  0.2674329931692557  0.3750000000000000
  0.8897031497776762  0.2773864319084169  0.3750000000000000
  0.0555515288307712  0.4444363909948559  0.8750000000000000
  0.2222409354186407  0.9444542439346925  0.8750000000000000
  0.5555636090051143  0.9444484711692585  0.8750000000000000
  0.3888893352688785  0.4444454525334212  0.8750000000000000
  0.8889038563737413  0.9444476162295040  0.8750000000000000
  0.0557946514657588  0.9442053485342585  0.3750000000000000
  0.7222227839312150  0.4444454525334212  0.8750000000000000
  0.3881491021735032  0.9432803933094166  0.3750000000000000
  0.2180747560989054  0.4449388383379154  0.3750000000000000
  0.2217979578025843  0.6118508978264868  0.3750000000000000
  0.7226135680915805  0.9456500512025497  0.3750000000000000
  0.8935307489056445  0.4449388383379154  0.3750000000000000
  0.0555457560653378  0.6111200248172930  0.8750000000000000
  0.2222253744557565  0.1111091796024772  0.8750000000000000
  0.7222227839312150  0.6111106647311361  0.8750000000000000
  0.5555504718133900  0.1111091796024772  0.8750000000000000
  0.8888888888888857  0.1111111111111143  0.8750000000000000
  0.1089212628592269  0.0537708576715243  0.3750000000000000
  0.6234898007460378  0.5803129348254411  0.3750000000000000
  0.4438581671339533  0.0537772966404182  0.3750000000000000
  0.9462227033595417  0.5561418328660588  0.3750000000000000
  0.7782077598683873  0.0557705466008728  0.3750000000000000
  0.1109986939187181  0.7221660136260037  0.8750000000000000
  0.4443613537711019  0.7221489189560961  0.8750000000000000
  0.2779041434468881  0.2223662501167586  0.8750000000000000
  0.7776337498832420  0.7220958565530867  0.8750000000000000
  0.6111287733365338  0.2223662501167586  0.8750000000000000
  0.9445000336185698  0.2223334005703777  0.8750000000000000
  0.2775071007364645  0.7224928992635209  0.3750000000000000
  0.1088930636739738  0.2211131985036516  0.3750000000000000
  0.4431108162041252  0.2195549657415801  0.3750000000000000
  0.6119757518788831  0.7293747491205174  0.3750000000000000
  0.9462227033595417  0.7234142038268255  0.3750000000000000
  0.7788868014963719  0.2211131985036516  0.3750000000000000
  0.1111103152180020  0.8888896847820000  0.8750000000000000
  0.4444460362306819  0.8888896847820000  0.8750000000000000
  0.2779041434468881  0.3888712266634463  0.8750000000000000
  0.6111063757000481  0.3888936242999332  0.8750000000000000
  0.7777542073131679  0.8888417479596760  0.8750000000000000
  0.9444790139761172  0.3888554221311912  0.8750000000000000
  0.1089212628592269  0.3884837385210405  0.3750000000000000
  0.2775071007364645  0.8883475348062576  0.3750000000000000
  0.6115162614789871  0.8910787371407878  0.3750000000000000
  0.4196870651746101  0.3765101992539437  0.3750000000000000
  0.9462291423284693  0.8910787371407878  0.3750000000000000
  0.7840656639082473  0.3880242481211114  0.3750000000000000
  0.2778510810439135  0.5556386462289273  0.8750000000000000
  0.1110430748217272  0.0555209860238664  0.8750000000000000
  0.6111063757000481  0.5555460847334621  0.8750000000000000
  0.4443613537711019  0.0555457681483376  0.8750000000000000
  0.9444542318516930  0.5556386462289273  0.8750000000000000
  0.1112972367746566  0.5559278068826426  0.3750000000000000
  0.7776665994295943  0.0554999663814797  0.8750000000000000
  0.2765857961731416  0.0537772966404182  0.3750000000000000
  0.4431108162041252  0.5568891837959002  0.3750000000000000
  0.7804450342584139  0.5568891837959002  0.3750000000000000
  0.6115162614789871  0.0537708576715243  0.3750000000000000
  0.4444763263095489  0.5555236736904405  0.8750000000000000
  0.9442294533991414  0.0557705466008728  0.3750000000000000
  0.2778339863739830  0.7221660136260037  0.8750000000000000
  0.1111582520403544  0.2222457926868401  0.8750000000000000
  0.4444763263095489  0.2222859859524262  0.8750000000000000
  0.6111287733365338  0.7220958565530867  0.8750000000000000
  0.9444542318516930  0.7221489189560961  0.8750000000000000
  0.7777542073131679  0.2222457926868401  0.8750000000000000
  0.1116524651937603  0.7224928992635209  0.3750000000000000
  0.4438581671339533  0.7234142038268255  0.3750000000000000
  0.2706252508795303  0.2159343360917410  0.3750000000000000
  0.7840656639082473  0.7293747491205174  0.3750000000000000
  0.6119757518788831  0.2159343360917410  0.3750000000000000
  0.9442294533991414  0.2217922401315856  0.3750000000000000
  0.1110430748217272  0.3888554221311912  0.8750000000000000
  0.2778339863739830  0.8890013060812947  0.8750000000000000
  0.6111445778688211  0.8889569251782697  0.8750000000000000
  0.4444539152665207  0.3888936242999332  0.8750000000000000
  0.9444790139761172  0.8889569251782697  0.8750000000000000
  0.1112972367746566  0.8887027632253627  0.3750000000000000
  0.7776337498832420  0.3888712266634463  0.8750000000000000
  0.4440721931173566  0.8887027632253627  0.3750000000000000
  0.2706252508795303  0.3880242481211114  0.3750000000000000
  0.2765857961731416  0.5561418328660588  0.3750000000000000
  0.6234898007460378  0.3765101992539437  0.3750000000000000
  0.7788868014963719  0.8911069363260082  0.3750000000000000
  0.9462291423284693  0.3884837385210405  0.3750000000000000
  0.1111103152180020  0.5555539637693394  0.8750000000000000
  0.2778510810439135  0.0555457681483376  0.8750000000000000
  0.7777140140475666  0.5555236736904405  0.8750000000000000
  0.6111445778688211  0.0555209860238664  0.8750000000000000
  0.9445000336185698  0.0554999663814797  0.8750000000000000
  0.0555422109972356  0.1110821502487341  0.1244069308409332
  0.5557388444139456  0.6109608989831329  0.1254020341784181
  0.3889862148276511  0.1113057629886284  0.1254691458332748
  0.8886942370113551  0.6110137851723670  0.1254691458332748
  0.7222066059181450  0.1110821502487341  0.1244069308409332
  0.0554348958870076  0.7776787253576247  0.6253867250111553
  0.3889104961372613  0.7776787253576247  0.6253867250111553
  0.2223710512676475  0.2778521923004753  0.6251116772997526
  0.7221478076994891  0.7776289487323851  0.6251116772997526
  0.5557388444139456  0.2781112787641560  0.6245979658215864
  0.8889178497512707  0.2777933940818443  0.6255930691590754
  0.2222222222222214  0.7777777777777786  0.1245001888392400
  0.0555422109972356  0.2777933940818443  0.1244069308409332
  0.3890391010168975  0.2781112787641560  0.1254020341784181
  0.5556128188319971  0.7777026315668539  0.1249467174360717
  0.8887564794014740  0.7777026315668539  0.1249467174360717
  0.7221478076994891  0.2778521923004753  0.1248883227002602
  0.0555037103881999  0.9444962896118286  0.6255245007910328
  0.3889104961372613  0.9445651041129979  0.6253867250111553
  0.2222973684331548  0.4443871811679886  0.6250532825639535
  0.5555555555555571  0.4444444444444429  0.6214797181486894
  0.7222066059181450  0.9444577890027717  0.6255930691590754
  0.8887564794014740  0.4443871811679886  0.6250532825639535
  0.0555037103881999  0.4443407541097298  0.1244754992089821
  0.2223212746423956  0.9445651041129979  0.1246132749888330
  0.5556592458902497  0.9444962896118286  0.1244754992089821
  0.3890391010168975  0.4442611555860608  0.1254020341784181
  0.8889178497512707  0.9444577890027717  0.1244069308409332
  0.7218887212358497  0.4442611555860608  0.1254020341784181
  0.2223212746423956  0.6110895038627697  0.6253867250111553
  0.0555422109972356  0.1110821502487341  0.6255930691590754
  0.5557388444139456  0.6109608989831329  0.6245979658215864
  0.3889862148276511  0.1113057629886284  0.6245308541667502
  0.8886942370113551  0.6110137851723670  0.6245308541667502
  0.0554348958870076  0.6110895038627697  0.1246132749888330
  0.7222066059181450  0.1110821502487341  0.6255930691590754
  0.2222973684331548  0.1112435205985099  0.1249467174360717
  0.3889862148276511  0.6110137851723670  0.1254691458332748
  0.7218887212358498  0.6109608989831329  0.1254020341784181
  0.5556128188319971  0.1112435205985099  0.1249467174360717
  0.3889862148276511  0.6110137851723670  0.6245308541667502
  0.8888888888888857  0.1111111111111143  0.1242246703172150
  0.2222222222222214  0.7777777777777786  0.6254998111607626
  0.0555422109972356  0.2777933940818443  0.6255930691590754
  0.3890391010168975  0.2781112787641560  0.6245979658215864
  0.5556128188319971  0.7777026315668539  0.6250532825639535
  0.8887564794014740  0.7777026315668539  0.6250532825639535
  0.7221478076994891  0.2778521923004753  0.6251116772997526
  0.0554348958870076  0.7776787253576247  0.1246132749888330
  0.3889104961372613  0.7776787253576247  0.1246132749888330
  0.2223710512676475  0.2778521923004753  0.1248883227002602
  0.7221478076994891  0.7776289487323851  0.1248883227002602
  0.5557388444139456  0.2781112787641560  0.1254020341784181
  0.8889178497512707  0.2777933940818443  0.1244069308409332
  0.0555037103881999  0.4443407541097298  0.6255245007910328
  0.2223212746423956  0.9445651041129979  0.6253867250111553
  0.5556592458902497  0.9444962896118286  0.6255245007910328
  0.3890391010168975  0.4442611555860608  0.6245979658215864
  0.8889178497512707  0.9444577890027717  0.6255930691590754
  0.0555037103881999  0.9444962896118286  0.1244754992089821
  0.7218887212358497  0.4442611555860608  0.6245979658215864
  0.3889104961372613  0.9445651041129979  0.1246132749888330
  0.2222973684331548  0.4443871811679886  0.1249467174360717
  0.2223212746423956  0.6110895038627697  0.1246132749888330
  0.5555555555555571  0.4444444444444429  0.1285202818513425
  0.7222066059181450  0.9444577890027717  0.1244069308409332
  0.8887564794014740  0.4443871811679886  0.1249467174360717
  0.0554348958870076  0.6110895038627697  0.6253867250111553
  0.2222973684331548  0.1112435205985099  0.6250532825639535
  0.7218887212358498  0.6109608989831329  0.6245979658215864
  0.5556128188319971  0.1112435205985099  0.6250532825639535
  0.8888888888888857  0.1111111111111143  0.6257753296827405
 
  0.00000000E+00  0.00000000E+00  0.00000000E+00
  0.00000000E+00  0.00000000E+00  0.00000000E+00
  0.00000000E+00  0.00000000E+00  0.00000000E+00
  0.00000000E+00  0.00000000E+00  0.00000000E+00
  0.00000000E+00  0.00000000E+00  0.00000000E+00
  0.00000000E+00  0.00000000E+00  0.00000000E+00
  0.00000000E+00  0.00000000E+00  0.00000000E+00
  0.00000000E+00  0.00000000E+00  0.00000000E+00
  0.00000000E+00  0.00000000E+00  0.00000000E+00
  0.00000000E+00  0.00000000E+00  0.00000000E+00
  0.00000000E+00  0.00000000E+00  0.00000000E+00
  0.00000000E+00  0.00000000E+00  0.00000000E+00
  0.00000000E+00  0.00000000E+00  0.00000000E+00
  0.00000000E+00  0.00000000E+00  0.00000000E+00
  0.00000000E+00  0.00000000E+00  0.00000000E+00
  0.00000000E+00  0.00000000E+00  0.00000000E+00
  0.00000000E+00  0.00000000E+00  0.00000000E+00
  0.00000000E+00  0.00000000E+00  0.00000000E+00
  0.00000000E+00  0.00000000E+00  0.00000000E+00
  0.00000000E+00  0.00000000E+00  0.00000000E+00
  0.00000000E+00  0.00000000E+00  0.00000000E+00
  0.00000000E+00  0.00000000E+00  0.00000000E+00
  0.00000000E+00  0.00000000E+00  0.00000000E+00
  0.00000000E+00  0.00000000E+00  0.00000000E+00
  0.00000000E+00  0.00000000E+00  0.00000000E+00
  0.00000000E+00  0.00000000E+00  0.00000000E+00
  0.00000000E+00  0.00000000E+00  0.00000000E+00
  0.00000000E+00  0.00000000E+00  0.00000000E+00
  0.00000000E+00  0.00000000E+00  0.00000000E+00
  0.00000000E+00  0.00000000E+00  0.00000000E+00
  0.00000000E+00  0.00000000E+00  0.00000000E+00
  0.00000000E+00  0.00000000E+00  0.00000000E+00
  0.00000000E+00  0.00000000E+00  0.00000000E+00
  0.00000000E+00  0.00000000E+00  0.00000000E+00
  0.00000000E+00  0.00000000E+00  0.00000000E+00
  0.00000000E+00  0.00000000E+00  0.00000000E+00
  0.00000000E+00  0.00000000E+00  0.00000000E+00
  0.00000000E+00  0.00000000E+00  0.00000000E+00
  0.00000000E+00  0.00000000E+00  0.00000000E+00
  0.00000000E+00  0.00000000E+00  0.00000000E+00
  0.00000000E+00  0.00000000E+00  0.00000000E+00
  0.00000000E+00  0.00000000E+00  0.00000000E+00
  0.00000000E+00  0.00000000E+00  0.00000000E+00
  0.00000000E+00  0.00000000E+00  0.00000000E+00
  0.00000000E+00  0.00000000E+00  0.00000000E+00
  0.00000000E+00  0.00000000E+00  0.00000000E+00
  0.00000000E+00  0.00000000E+00  0.00000000E+00
  0.00000000E+00  0.00000000E+00  0.00000000E+00
  0.00000000E+00  0.00000000E+00  0.00000000E+00
  0.00000000E+00  0.00000000E+00  0.00000000E+00
  0.00000000E+00  0.00000000E+00  0.00000000E+00
  0.00000000E+00  0.00000000E+00  0.00000000E+00
  0.00000000E+00  0.00000000E+00  0.00000000E+00
  0.00000000E+00  0.00000000E+00  0.00000000E+00
  0.00000000E+00  0.00000000E+00  0.00000000E+00
  0.00000000E+00  0.00000000E+00  0.00000000E+00
  0.00000000E+00  0.00000000E+00  0.00000000E+00
  0.00000000E+00  0.00000000E+00  0.00000000E+00
  0.00000000E+00  0.00000000E+00  0.00000000E+00
  0.00000000E+00  0.00000000E+00  0.00000000E+00
  0.00000000E+00  0.00000000E+00  0.00000000E+00
  0.00000000E+00  0.00000000E+00  0.00000000E+00
  0.00000000E+00  0.00000000E+00  0.00000000E+00
  0.00000000E+00  0.00000000E+00  0.00000000E+00
  0.00000000E+00  0.00000000E+00  0.00000000E+00
  0.00000000E+00  0.00000000E+00  0.00000000E+00
  0.00000000E+00  0.00000000E+00  0.00000000E+00
  0.00000000E+00  0.00000000E+00  0.00000000E+00
  0.00000000E+00  0.00000000E+00  0.00000000E+00
  0.00000000E+00  0.00000000E+00  0.00000000E+00
  0.00000000E+00  0.00000000E+00  0.00000000E+00
  0.00000000E+00  0.00000000E+00  0.00000000E+00
  0.00000000E+00  0.00000000E+00  0.00000000E+00
  0.00000000E+00  0.00000000E+00  0.00000000E+00
  0.00000000E+00  0.00000000E+00  0.00000000E+00
  0.00000000E+00  0.00000000E+00  0.00000000E+00
  0.00000000E+00  0.00000000E+00  0.00000000E+00
  0.00000000E+00  0.00000000E+00  0.00000000E+00
  0.00000000E+00  0.00000000E+00  0.00000000E+00
  0.00000000E+00  0.00000000E+00  0.00000000E+00
  0.00000000E+00  0.00000000E+00  0.00000000E+00
  0.00000000E+00  0.00000000E+00  0.00000000E+00
  0.00000000E+00  0.00000000E+00  0.00000000E+00
  0.00000000E+00  0.00000000E+00  0.00000000E+00
  0.00000000E+00  0.00000000E+00  0.00000000E+00
  0.00000000E+00  0.00000000E+00  0.00000000E+00
  0.00000000E+00  0.00000000E+00  0.00000000E+00
  0.00000000E+00  0.00000000E+00  0.00000000E+00
  0.00000000E+00  0.00000000E+00  0.00000000E+00
  0.00000000E+00  0.00000000E+00  0.00000000E+00
  0.00000000E+00  0.00000000E+00  0.00000000E+00
  0.00000000E+00  0.00000000E+00  0.00000000E+00
  0.00000000E+00  0.00000000E+00  0.00000000E+00
  0.00000000E+00  0.00000000E+00  0.00000000E+00
  0.00000000E+00  0.00000000E+00  0.00000000E+00
  0.00000000E+00  0.00000000E+00  0.00000000E+00
  0.00000000E+00  0.00000000E+00  0.00000000E+00
  0.00000000E+00  0.00000000E+00  0.00000000E+00
  0.00000000E+00  0.00000000E+00  0.00000000E+00
  0.00000000E+00  0.00000000E+00  0.00000000E+00
  0.00000000E+00  0.00000000E+00  0.00000000E+00
  0.00000000E+00  0.00000000E+00  0.00000000E+00
  0.00000000E+00  0.00000000E+00  0.00000000E+00
  0.00000000E+00  0.00000000E+00  0.00000000E+00
  0.00000000E+00  0.00000000E+00  0.00000000E+00
  0.00000000E+00  0.00000000E+00  0.00000000E+00
  0.00000000E+00  0.00000000E+00  0.00000000E+00
  0.00000000E+00  0.00000000E+00  0.00000000E+00
  0.00000000E+00  0.00000000E+00  0.00000000E+00
  0.00000000E+00  0.00000000E+00  0.00000000E+00
  0.00000000E+00  0.00000000E+00  0.00000000E+00
  0.00000000E+00  0.00000000E+00  0.00000000E+00
  0.00000000E+00  0.00000000E+00  0.00000000E+00
  0.00000000E+00  0.00000000E+00  0.00000000E+00
  0.00000000E+00  0.00000000E+00  0.00000000E+00
  0.00000000E+00  0.00000000E+00  0.00000000E+00
  0.00000000E+00  0.00000000E+00  0.00000000E+00
  0.00000000E+00  0.00000000E+00  0.00000000E+00
  0.00000000E+00  0.00000000E+00  0.00000000E+00
  0.00000000E+00  0.00000000E+00  0.00000000E+00
  0.00000000E+00  0.00000000E+00  0.00000000E+00
  0.00000000E+00  0.00000000E+00  0.00000000E+00
  0.00000000E+00  0.00000000E+00  0.00000000E+00
  0.00000000E+00  0.00000000E+00  0.00000000E+00
  0.00000000E+00  0.00000000E+00  0.00000000E+00
  0.00000000E+00  0.00000000E+00  0.00000000E+00
  0.00000000E+00  0.00000000E+00  0.00000000E+00
  0.00000000E+00  0.00000000E+00  0.00000000E+00
  0.00000000E+00  0.00000000E+00  0.00000000E+00
  0.00000000E+00  0.00000000E+00  0.00000000E+00
  0.00000000E+00  0.00000000E+00  0.00000000E+00
  0.00000000E+00  0.00000000E+00  0.00000000E+00
  0.00000000E+00  0.00000000E+00  0.00000000E+00
  0.00000000E+00  0.00000000E+00  0.00000000E+00
  0.00000000E+00  0.00000000E+00  0.00000000E+00
  0.00000000E+00  0.00000000E+00  0.00000000E+00
  0.00000000E+00  0.00000000E+00  0.00000000E+00
  0.00000000E+00  0.00000000E+00  0.00000000E+00
  0.00000000E+00  0.00000000E+00  0.00000000E+00
  0.00000000E+00  0.00000000E+00  0.00000000E+00
  0.00000000E+00  0.00000000E+00  0.00000000E+00
  0.00000000E+00  0.00000000E+00  0.00000000E+00
  0.00000000E+00  0.00000000E+00  0.00000000E+00
  0.00000000E+00  0.00000000E+00  0.00000000E+00
  0.00000000E+00  0.00000000E+00  0.00000000E+00
  0.00000000E+00  0.00000000E+00  0.00000000E+00
  0.00000000E+00  0.00000000E+00  0.00000000E+00
  0.00000000E+00  0.00000000E+00  0.00000000E+00
  0.00000000E+00  0.00000000E+00  0.00000000E+00
  0.00000000E+00  0.00000000E+00  0.00000000E+00
  0.00000000E+00  0.00000000E+00  0.00000000E+00
  0.00000000E+00  0.00000000E+00  0.00000000E+00
  0.00000000E+00  0.00000000E+00  0.00000000E+00
  0.00000000E+00  0.00000000E+00  0.00000000E+00
  0.00000000E+00  0.00000000E+00  0.00000000E+00
  0.00000000E+00  0.00000000E+00  0.00000000E+00
  0.00000000E+00  0.00000000E+00  0.00000000E+00
  0.00000000E+00  0.00000000E+00  0.00000000E+00
  0.00000000E+00  0.00000000E+00  0.00000000E+00
  0.00000000E+00  0.00000000E+00  0.00000000E+00
  0.00000000E+00  0.00000000E+00  0.00000000E+00
  0.00000000E+00  0.00000000E+00  0.00000000E+00
  0.00000000E+00  0.00000000E+00  0.00000000E+00
  0.00000000E+00  0.00000000E+00  0.00000000E+00
  0.00000000E+00  0.00000000E+00  0.00000000E+00
  0.00000000E+00  0.00000000E+00  0.00000000E+00
  0.00000000E+00  0.00000000E+00  0.00000000E+00
  0.00000000E+00  0.00000000E+00  0.00000000E+00
  0.00000000E+00  0.00000000E+00  0.00000000E+00
  0.00000000E+00  0.00000000E+00  0.00000000E+00
  0.00000000E+00  0.00000000E+00  0.00000000E+00
  0.00000000E+00  0.00000000E+00  0.00000000E+00
  0.00000000E+00  0.00000000E+00  0.00000000E+00
  0.00000000E+00  0.00000000E+00  0.00000000E+00
  0.00000000E+00  0.00000000E+00  0.00000000E+00
  0.00000000E+00  0.00000000E+00  0.00000000E+00
  0.00000000E+00  0.00000000E+00  0.00000000E+00
  0.00000000E+00  0.00000000E+00  0.00000000E+00
  0.00000000E+00  0.00000000E+00  0.00000000E+00
  0.00000000E+00  0.00000000E+00  0.00000000E+00
  0.00000000E+00  0.00000000E+00  0.00000000E+00
  0.00000000E+00  0.00000000E+00  0.00000000E+00
  0.00000000E+00  0.00000000E+00  0.00000000E+00
  0.00000000E+00  0.00000000E+00  0.00000000E+00
  0.00000000E+00  0.00000000E+00  0.00000000E+00
  0.00000000E+00  0.00000000E+00  0.00000000E+00
  0.00000000E+00  0.00000000E+00  0.00000000E+00
  0.00000000E+00  0.00000000E+00  0.00000000E+00
  0.00000000E+00  0.00000000E+00  0.00000000E+00
  0.00000000E+00  0.00000000E+00  0.00000000E+00
  0.00000000E+00  0.00000000E+00  0.00000000E+00
  0.00000000E+00  0.00000000E+00  0.00000000E+00
  0.00000000E+00  0.00000000E+00  0.00000000E+00
  0.00000000E+00  0.00000000E+00  0.00000000E+00
  0.00000000E+00  0.00000000E+00  0.00000000E+00
  0.00000000E+00  0.00000000E+00  0.00000000E+00
  0.00000000E+00  0.00000000E+00  0.00000000E+00
  0.00000000E+00  0.00000000E+00  0.00000000E+00
  0.00000000E+00  0.00000000E+00  0.00000000E+00
  0.00000000E+00  0.00000000E+00  0.00000000E+00
  0.00000000E+00  0.00000000E+00  0.00000000E+00
  0.00000000E+00  0.00000000E+00  0.00000000E+00
  0.00000000E+00  0.00000000E+00  0.00000000E+00
  0.00000000E+00  0.00000000E+00  0.00000000E+00
  0.00000000E+00  0.00000000E+00  0.00000000E+00
  0.00000000E+00  0.00000000E+00  0.00000000E+00
  0.00000000E+00  0.00000000E+00  0.00000000E+00
  0.00000000E+00  0.00000000E+00  0.00000000E+00
  0.00000000E+00  0.00000000E+00  0.00000000E+00
  0.00000000E+00  0.00000000E+00  0.00000000E+00
  0.00000000E+00  0.00000000E+00  0.00000000E+00
  0.00000000E+00  0.00000000E+00  0.00000000E+00
  0.00000000E+00  0.00000000E+00  0.00000000E+00
  0.00000000E+00  0.00000000E+00  0.00000000E+00
  0.00000000E+00  0.00000000E+00  0.00000000E+00
  0.00000000E+00  0.00000000E+00  0.00000000E+00
  0.00000000E+00  0.00000000E+00  0.00000000E+00
  0.00000000E+00  0.00000000E+00  0.00000000E+00
  0.00000000E+00  0.00000000E+00  0.00000000E+00
  0.00000000E+00  0.00000000E+00  0.00000000E+00
  0.00000000E+00  0.00000000E+00  0.00000000E+00
  0.00000000E+00  0.00000000E+00  0.00000000E+00
  0.00000000E+00  0.00000000E+00  0.00000000E+00
  0.00000000E+00  0.00000000E+00  0.00000000E+00
  0.00000000E+00  0.00000000E+00  0.00000000E+00
  0.00000000E+00  0.00000000E+00  0.00000000E+00
  0.00000000E+00  0.00000000E+00  0.00000000E+00
  0.00000000E+00  0.00000000E+00  0.00000000E+00
  0.00000000E+00  0.00000000E+00  0.00000000E+00
  0.00000000E+00  0.00000000E+00  0.00000000E+00
  0.00000000E+00  0.00000000E+00  0.00000000E+00
  0.00000000E+00  0.00000000E+00  0.00000000E+00
  0.00000000E+00  0.00000000E+00  0.00000000E+00
  0.00000000E+00  0.00000000E+00  0.00000000E+00
  0.00000000E+00  0.00000000E+00  0.00000000E+00
  0.00000000E+00  0.00000000E+00  0.00000000E+00
  0.00000000E+00  0.00000000E+00  0.00000000E+00
  0.00000000E+00  0.00000000E+00  0.00000000E+00
  0.00000000E+00  0.00000000E+00  0.00000000E+00
  0.00000000E+00  0.00000000E+00  0.00000000E+00
  0.00000000E+00  0.00000000E+00  0.00000000E+00
  0.00000000E+00  0.00000000E+00  0.00000000E+00
  0.00000000E+00  0.00000000E+00  0.00000000E+00
  0.00000000E+00  0.00000000E+00  0.00000000E+00
  0.00000000E+00  0.00000000E+00  0.00000000E+00
  0.00000000E+00  0.00000000E+00  0.00000000E+00
  0.00000000E+00  0.00000000E+00  0.00000000E+00