B N S                                   
   1.0000000000000000     
     8.7639499999999995  -15.1796066749929999    0.0000000000000000
     8.7639499999999995   15.1796066749929999    0.0000000000000000
     0.0000000000000000    0.0000000000000000   15.0000000000000000
   B    N    S 
    49    47     1
Selective dynamics
Direct
  0.9027722071435572  0.9501635933585345  0.0976992840061179   T   T   T
  0.9035766408218037  0.0932063158877636  0.1020797240849020   T   T   T
  0.9042666384089287  0.2363580550488200  0.1051372128092613   T   T   T
  0.9046575837666887  0.3795546636013621  0.1069539249854781   T   T   T
  0.9055991437828319  0.5230568987501972  0.1058906973486328   T   T   T
  0.9057692066399927  0.6664110592694047  0.1012373654889804   T   T   T
  0.9043995030236033  0.8089319481686945  0.0951901276992613   T   T   T
  0.0476532275945102  0.9528291197612830  0.0991123797807201   T   T   T
  0.0479884295953389  0.0957664889851322  0.0995137614519214   T   T   T
  0.0478543096405773  0.2378987872978820  0.1002161448740016   T   T   T
  0.0475015826022364  0.3802275756489943  0.1020960448359280   T   T   T
  0.0473789193275095  0.5232650586907740  0.1043457635838296   T   T   T
  0.0476582205508576  0.6667195320241104  0.1038775891454993   T   T   T
  0.0478031216601232  0.8099419667523752  0.1009679137033316   T   T   T
  0.1907909904796088  0.9534145235398193  0.1062650738760263   T   T   T
  0.1914069933764297  0.0969877818912322  0.1038505233383990   T   T   T
  0.1935208524948844  0.2419584423465241  0.1011989818489489   T   T   T
  0.1915060086972563  0.3822682294552723  0.0994682297642591   T   T   T
  0.1896642676407324  0.5239050987710793  0.1047085998207766   T   T   T
  0.1892886148948953  0.6668473629938994  0.1085126700716302   T   T   T
  0.1902918080505838  0.8100902062268882  0.1084228483483415   T   T   T
  0.3332519043554835  0.9528460803721196  0.1150437438255463   T   T   T
  0.3339174285483995  0.0965831113662919  0.1140167985408223   T   T   T
  0.3346856145297896  0.2408835941713850  0.1124322146758768   T   T   T
  0.3408612793409456  0.3917228466204522  0.1050832635826245   T   T   T
  0.3326208694939258  0.5256043224623489  0.1073055556867536   T   T   T
  0.3303354042357894  0.6669473462239777  0.1179877781779991   T   T   T
  0.3324669109602188  0.8095847606472278  0.1179436824407872   T   T   T
  0.4755960463805581  0.9506204619847478  0.1203990589319007   T   T   T
  0.4762593864891472  0.0947760452173911  0.1198711739024392   T   T   T
  0.4767994912042254  0.2385983193843564  0.1255012279214828   T   T   T
  0.4733440044023857  0.3779308402776383  0.1415356138349004   T   T   T
  0.4908375856967352  0.5713831989427166  0.1223112650963623   T   T   T
  0.4684944400591844  0.6583214973722432  0.1397534462232548   T   T   T
  0.4744900419061256  0.8058055231904375  0.1265662709653529   T   T   T
  0.6174685721963479  0.9484658726328508  0.1169387856477787   T   T   T
  0.6185729595874569  0.0930259163305395  0.1179270304373627   T   T   T
  0.6193320357953220  0.2369276200763916  0.1221933790948731   T   T   T
  0.6207392162445062  0.3807636859349766  0.1319571736383127   T   T   T
  0.6311297779383147  0.5294195765851439  0.1356950829340746   T   T   T
  0.6106870546306588  0.6536595978748806  0.0938511392661066   T   T   T
  0.6143428632599693  0.8020058191503937  0.1136637789819897   T   T   T
  0.7589966882508284  0.9480824721505574  0.1045997092860231   T   T   T
  0.7607510958020756  0.0923842973412544  0.1099512720552047   T   T   T
  0.7616297039294588  0.2361187754417209  0.1132083418516898   T   T   T
  0.7624567581533813  0.3796654513553577  0.1157467013908412   T   T   T
  0.7646901630329337  0.5233185378726047  0.1133773014058933   T   T   T
  0.7637502457750278  0.6659739845770306  0.0994970268609199   T   T   T
  0.7568965248467507  0.8038244664191059  0.0955622658520541   T   T   T
  0.9519738656151303  0.9041529553807626  0.0961765643485193   T   T   T
  0.9517192861763379  0.0462152235820781  0.0993191098431715   T   T   T
  0.9519900546634015  0.1889220980841842  0.1022592961973469   T   T   T
  0.9519998588760339  0.3318407272227534  0.1044421778696982   T   T   T
  0.9522839723865045  0.4749949072291168  0.1052755532734174   T   T   T
  0.9526743580718839  0.6184557044873162  0.1031967208092731   T   T   T
  0.9524651323896633  0.7616783794779727  0.0979325230928369   T   T   T
  0.0954744076016464  0.9054233100240593  0.1015188518845807   T   T   T
  0.0958846054657338  0.0484426183633153  0.1001828492257804   T   T   T
  0.0969824466731169  0.1918222997871245  0.0997392745977191   T   T   T
  0.0956108245635374  0.3331480760618069  0.0996500124451116   T   T   T
  0.0945186379621615  0.4755337883587913  0.1032260514915403   T   T   T
  0.0944136080738662  0.6187310490863852  0.1050862153003946   T   T   T
  0.0951287534636177  0.7621955542099460  0.1040727720007571   T   T   T
  0.2380929615629898  0.9055593403974678  0.1099345232647063   T   T   T
  0.2388031351980064  0.0490812140356609  0.1077061492585839   T   T   T
  0.2399379810080354  0.1929156115144586  0.1043423871469195   T   T   T
  0.2429324572059426  0.3383680433728430  0.1002169444013477   T   T   T
  0.2374040574484954  0.4768147904548764  0.1020153004519749   T   T   T
  0.2359347111413576  0.6190775105617303  0.1091440168383929   T   T   T
  0.2373451951974503  0.7622238014795878  0.1116435633864495   T   T   T
  0.3803910072826391  0.9047821506585714  0.1186837325370812   T   T   T
  0.3810917097089658  0.0483593332719031  0.1167330015245418   T   T   T
  0.3819157799497577  0.1924866834387953  0.1181330253872030   T   T   T
  0.3833031698004667  0.3374246856083203  0.1177312559280669   T   T   T
  0.3892139582637092  0.4883052566729133  0.1006285300013598   T   T   T
  0.3760007902086287  0.6190750768514904  0.1224953150056073   T   T   T
  0.3792680474237539  0.7615915883276145  0.1233644829177007   T   T   T
  0.5224413184752461  0.9017550812016654  0.1221116751475302   T   T   T
  0.5233657238771365  0.0463280170079679  0.1198348134556347   T   T   T
  0.5240521947679279  0.1904732553083124  0.1230632695806443   T   T   T
  0.5247406846576191  0.3345850400187512  0.1363046762999828   T   T   T
  0.5204425193790818  0.7554239344126189  0.1320985476423332   T   T   T
  0.6635673013324559  0.8990235814210161  0.1114823667318365   T   T   T
  0.6655015768011995  0.0445018456374925  0.1151064977665537   T   T   T
  0.6663526515176734  0.1887461340776419  0.1179712327371276   T   T   T
  0.6671196003989202  0.3325084550834752  0.1240253378064820   T   T   T
  0.6705684063418184  0.4760541465736674  0.1288987722880728   T   T   T
  0.6689204562189622  0.6171010708468847  0.1054984519588280   T   T   T
  0.6593283829608382  0.7520812061392135  0.0968874371034894   T   T   T
  0.8063239258916575  0.9003011631054247  0.0986062911516606   T   T   T
  0.8078083601857818  0.0442593284950815  0.1052829325236356   T   T   T
  0.8087880502399746  0.1881412145156277  0.1092159515265891   T   T   T
  0.8093262537446982  0.3316171753228620  0.1116884106670770   T   T   T
  0.8106141173571165  0.4748980114090594  0.1106928294093394   T   T   T
  0.8108425302075966  0.6180970523094792  0.1041886903825544   T   T   T
  0.8087457617764514  0.7601767632601441  0.0929388466552236   T   T   T
  0.5259164403701377  0.4922945915915612  0.1915319790368546   T   T   T

  0.00000000E+00  0.00000000E+00  0.00000000E+00
  0.00000000E+00  0.00000000E+00  0.00000000E+00
  0.00000000E+00  0.00000000E+00  0.00000000E+00
  0.00000000E+00  0.00000000E+00  0.00000000E+00
  0.00000000E+00  0.00000000E+00  0.00000000E+00
  0.00000000E+00  0.00000000E+00  0.00000000E+00
  0.00000000E+00  0.00000000E+00  0.00000000E+00
  0.00000000E+00  0.00000000E+00  0.00000000E+00
  0.00000000E+00  0.00000000E+00  0.00000000E+00
  0.00000000E+00  0.00000000E+00  0.00000000E+00
  0.00000000E+00  0.00000000E+00  0.00000000E+00
  0.00000000E+00  0.00000000E+00  0.00000000E+00
  0.00000000E+00  0.00000000E+00  0.00000000E+00
  0.00000000E+00  0.00000000E+00  0.00000000E+00
  0.00000000E+00  0.00000000E+00  0.00000000E+00
  0.00000000E+00  0.00000000E+00  0.00000000E+00
  0.00000000E+00  0.00000000E+00  0.00000000E+00
  0.00000000E+00  0.00000000E+00  0.00000000E+00
  0.00000000E+00  0.00000000E+00  0.00000000E+00
  0.00000000E+00  0.00000000E+00  0.00000000E+00
  0.00000000E+00  0.00000000E+00  0.00000000E+00
  0.00000000E+00  0.00000000E+00  0.00000000E+00
  0.00000000E+00  0.00000000E+00  0.00000000E+00
  0.00000000E+00  0.00000000E+00  0.00000000E+00
  0.00000000E+00  0.00000000E+00  0.00000000E+00
  0.00000000E+00  0.00000000E+00  0.00000000E+00
  0.00000000E+00  0.00000000E+00  0.00000000E+00
  0.00000000E+00  0.00000000E+00  0.00000000E+00
  0.00000000E+00  0.00000000E+00  0.00000000E+00
  0.00000000E+00  0.00000000E+00  0.00000000E+00
  0.00000000E+00  0.00000000E+00  0.00000000E+00
  0.00000000E+00  0.00000000E+00  0.00000000E+00
  0.00000000E+00  0.00000000E+00  0.00000000E+00
  0.00000000E+00  0.00000000E+00  0.00000000E+00
  0.00000000E+00  0.00000000E+00  0.00000000E+00
  0.00000000E+00  0.00000000E+00  0.00000000E+00
  0.00000000E+00  0.00000000E+00  0.00000000E+00
  0.00000000E+00  0.00000000E+00  0.00000000E+00
  0.00000000E+00  0.00000000E+00  0.00000000E+00
  0.00000000E+00  0.00000000E+00  0.00000000E+00
  0.00000000E+00  0.00000000E+00  0.00000000E+00
  0.00000000E+00  0.00000000E+00  0.00000000E+00
  0.00000000E+00  0.00000000E+00  0.00000000E+00
  0.00000000E+00  0.00000000E+00  0.00000000E+00
  0.00000000E+00  0.00000000E+00  0.00000000E+00
  0.00000000E+00  0.00000000E+00  0.00000000E+00
  0.00000000E+00  0.00000000E+00  0.00000000E+00
  0.00000000E+00  0.00000000E+00  0.00000000E+00
  0.00000000E+00  0.00000000E+00  0.00000000E+00
  0.00000000E+00  0.00000000E+00  0.00000000E+00
  0.00000000E+00  0.00000000E+00  0.00000000E+00
  0.00000000E+00  0.00000000E+00  0.00000000E+00
  0.00000000E+00  0.00000000E+00  0.00000000E+00
  0.00000000E+00  0.00000000E+00  0.00000000E+00
  0.00000000E+00  0.00000000E+00  0.00000000E+00
  0.00000000E+00  0.00000000E+00  0.00000000E+00
  0.00000000E+00  0.00000000E+00  0.00000000E+00
  0.00000000E+00  0.00000000E+00  0.00000000E+00
  0.00000000E+00  0.00000000E+00  0.00000000E+00
  0.00000000E+00  0.00000000E+00  0.00000000E+00
  0.00000000E+00  0.00000000E+00  0.00000000E+00
  0.00000000E+00  0.00000000E+00  0.00000000E+00
  0.00000000E+00  0.00000000E+00  0.00000000E+00
  0.00000000E+00  0.00000000E+00  0.00000000E+00
  0.00000000E+00  0.00000000E+00  0.00000000E+00
  0.00000000E+00  0.00000000E+00  0.00000000E+00
  0.00000000E+00  0.00000000E+00  0.00000000E+00
  0.00000000E+00  0.00000000E+00  0.00000000E+00
  0.00000000E+00  0.00000000E+00  0.00000000E+00
  0.00000000E+00  0.00000000E+00  0.00000000E+00
  0.00000000E+00  0.00000000E+00  0.00000000E+00
  0.00000000E+00  0.00000000E+00  0.00000000E+00
  0.00000000E+00  0.00000000E+00  0.00000000E+00
  0.00000000E+00  0.00000000E+00  0.00000000E+00
  0.00000000E+00  0.00000000E+00  0.00000000E+00
  0.00000000E+00  0.00000000E+00  0.00000000E+00
  0.00000000E+00  0.00000000E+00  0.00000000E+00
  0.00000000E+00  0.00000000E+00  0.00000000E+00
  0.00000000E+00  0.00000000E+00  0.00000000E+00
  0.00000000E+00  0.00000000E+00  0.00000000E+00
  0.00000000E+00  0.00000000E+00  0.00000000E+00
  0.00000000E+00  0.00000000E+00  0.00000000E+00
  0.00000000E+00  0.00000000E+00  0.00000000E+00
  0.00000000E+00  0.00000000E+00  0.00000000E+00
  0.00000000E+00  0.00000000E+00  0.00000000E+00
  0.00000000E+00  0.00000000E+00  0.00000000E+00
  0.00000000E+00  0.00000000E+00  0.00000000E+00
  0.00000000E+00  0.00000000E+00  0.00000000E+00
  0.00000000E+00  0.00000000E+00  0.00000000E+00
  0.00000000E+00  0.00000000E+00  0.00000000E+00
  0.00000000E+00  0.00000000E+00  0.00000000E+00
  0.00000000E+00  0.00000000E+00  0.00000000E+00
  0.00000000E+00  0.00000000E+00  0.00000000E+00
  0.00000000E+00  0.00000000E+00  0.00000000E+00
  0.00000000E+00  0.00000000E+00  0.00000000E+00
  0.00000000E+00  0.00000000E+00  0.00000000E+00
  0.00000000E+00  0.00000000E+00  0.00000000E+00
