 As N B 
 1.0
 17.527899999999772   0.000000000000000   0.000000000000000
 -8.763949999999658  15.179606674993195   0.000000000000000
  0.000000000000001   0.000000000000002  15.000000000000000
 As N B 
   1  48  49
Cartesian
  5.009641430636857   7.218106376815860   3.307363458364110 
  8.766253434414484  13.742381255816236   1.563921812842050 
 16.275699412531448   0.727687290741446   1.570808302533885 
 15.023891111470288   2.894638571855018   1.576207059722925 
 13.772748731017547   5.059868891664398   1.564277745451800 
 12.523571922345699   7.228653211026240   1.555244944523655 
 11.272382513840821   9.399415734748622   1.561613843579205 
 10.019800500222097  11.571250955266082   1.566778808256360 
 -6.259466544442864  13.735100392648578   1.561945823014350 
  1.250044874750674   0.722362078541211   1.554145596679740 
 -0.000777428836100   2.893053635943986   1.574320763080815 
 -1.249261025039950   5.059868891664398   1.571043043012605 
 -2.507786060304841   7.228709181118597   1.553891299872225 
 -3.756315514826794   9.398198452365786   1.560156082061865 
 -5.006906626606631  11.566958718118826   1.569932044272990 
 -3.756174039743710  13.732793681693574   1.571434569151455 
  3.755063055872726   0.717932780475560   1.565453241980295 
  2.496626731342022   2.879941773126653   1.593416703083085 
  1.259619687192118   5.059868891664398   1.676235359967045 
 -0.014643432642923   7.228739164774831   1.586316805067895 
 -1.256867361438931   9.399600167319310   1.560471767377095 
 -2.505575522860931  11.567055405137967   1.569529576115040 
 -1.252857667897727  13.735351839748501   1.561941008352000 
  6.260878829168482   0.718103020834749   1.565792996453880 
  5.008096142352965   2.876220832493213   1.701661139573130 
  3.727017133051687   4.991875913933062   2.078588221759020 
  2.449973495351475   7.233703392141654   1.915195576482300 
  1.241866602572007   9.406238592168608   1.639186826730030 
 -0.004144430492955  11.571530965793055   1.566503439666345 
  1.249572946474951  13.742603699803254   1.563026585141325 
  8.765819437850121   0.722516383959260   1.553894513791680 
  7.519572896486638   2.880003102164796   1.594430975128845 
  6.289160048724566   4.991881076881329   2.078344358206920 
  3.722867593444782   9.451010651026753   1.927542545550075 
  2.495380887737310  11.586676489092504   1.609496788421625 
  3.755588547942325  13.743115117572128   1.589750205078840 
 11.265038635683187   0.727856300427777   1.568822431395345 
 10.014901541503860   2.893157263972964   1.574773805295660 
  8.756830641183019   5.059868891664398   1.677339407967900 
  7.566106453850927   7.233422420950836   1.913901192968115 
  6.292833214631744   9.451127503033970   1.926339883137450 
  5.007812338973798  11.578722660013819   1.698306373855470 
  6.260407690496609  13.742997667949535   1.591155670619550 
 13.772016818556159   0.728899520904914   1.582078439984730 
 12.520266976095032   2.894682340304233   1.575787704714510 
 11.266573649552061   5.059868891664398   1.572277385540055 
 10.030767462257282   7.228578544432794   1.587593933804655 
  8.773836478527210   9.405939153306024   1.638724930078800 
  7.520409276064244  11.586599997571541   1.609581470831205 
  7.512920547691117  14.463353677737858   1.573628049029100 
 15.023956464002566   1.450094276024376   1.577466213728580 
 13.772096596136370   3.616426100315576   1.572793619876325 
 12.519623377293442   5.783529532054199   1.561790781845085 
 11.276769095214494   7.952993491744053   1.560630071357115 
 10.023525922954747  10.125986043404334   1.579623198940380 
  8.771717821569037  12.301136788021205   1.573166710535055 
 -7.510415425240071  14.459382874961481   1.558110402584910 
 -0.000341782206920   1.447714140213474   1.563841133823060 
 -1.252182982833657   3.615712436116201   1.574839962657600 
 -2.503586565519593   5.783467655546570   1.560734986411920 
 -3.756173031891448   7.952519570127383   1.555387238785305 
 -5.004575950045099  10.119737783328796   1.562745402437175 
 -6.256993686527475  12.291201606819508   1.565103278969250 
 -5.007717384519804  14.454235754458240   1.564081333205250 
  2.501534777573690   1.437468793841275   1.561737791952225 
  1.250009729589724   3.612309766758955   1.615535109022635 
  0.002054766407178   5.782829791889866   1.606793954825730 
 -1.260911686080154   7.953058700685684   1.559027032630230 
 -2.505452615699469  10.119737783328796   1.562106798498150 
 -3.756298184139282  12.288825762963581   1.571646685942995 
 -2.502697211298599  14.454536509259324   1.564167544374900 
  5.008044432622047   1.436065534274459   1.598970189560835 
  3.739980109866351   3.581359780782734   1.758018565983330 
  2.503665001980194   5.767819305362518   1.900771925133960 
  1.222257050179048   7.955706132239748   1.687934443147350 
 -0.007917764153769  10.126214736051425   1.579402376415930 
 -1.253850211838879  12.291470055315072   1.564623553520595 
 -0.001744682556094  14.459561659368122   1.557740253590445 
  7.514437465789569   1.437665363135100   1.562240508004590 
  6.276287384740225   3.581290087565140   1.758339750109725 
  5.008105986248786   5.370681014029341   2.663342358941115 
  3.577686935451760   8.063026684263635   2.212533044563995 
  2.480618384287983  10.153642891826051   1.701496278135600 
  1.244159277933768  12.301374621482115   1.572813964483260 
  2.503052895797286  14.463557259162869   1.571785739915220 
 10.016191200520012   1.447886989466965   1.563159897150495 
  8.766245335578036   3.612235656315043   1.616718764292660 
  7.512668985589611   5.767412294121171   1.900689291833280 
  6.439034460483120   8.063472965125396   2.211481397237340 
  5.007721480502839  10.148305900679935   1.875944474389350 
  3.754152271005821  12.301080729011659   1.631106621681105 
  5.008118056788854  14.464682085398803   1.589296227458550 
 12.520052777824871   1.450084358771885   1.576282915350195 
 11.268530892842630   3.615808104532015   1.575134571384780 
 10.014257067621928   5.782880375113248   1.608076819572930 
  8.793771311685727   7.955333715806941   1.687716275631450 
  7.535078097697130  10.153456922632476   1.700546948387715 
  6.261606113874615  12.300922739973638   1.631729082196350 
