 N P B 
 1.0
 17.527899999999772   0.000000000000000   0.000000000000000
 -8.763949999999658  15.179606674993195   0.000000000000000
  0.000000000000001   0.000000000000002  15.000000000000000
 N P B 
  47   1  49
Cartesian
  8.783534189903637  13.752132153394555   1.561528916533755 
 16.280436255644094   0.728621163407021   1.603613793888945 
 15.012662034989001   2.874933502637287   1.617496820351220 
 13.755779619447535   5.038378199902703   1.604487428748450 
 12.517767014048520   7.211466597868245   1.598307574724640 
 11.292251303797642   9.392925447743936   1.573349184798075 
 10.044731255265035  11.576815378049879   1.535109407440230 
 -6.247098209247318  13.742066287327333   1.588706043523650 
  1.255672250772903   0.729610270448657   1.589462377261380 
 -0.002759048840876   2.897790196695396   1.595041304107830 
 -1.275741487690149   5.041572842215531   1.573294733630250 
 -2.537509205764465   7.209571840572968   1.560727565256210 
 -3.762623375436782   9.387945853348882   1.591543172199480 
 -4.996260837925233  11.567018682268930   1.596765291967590 
 -3.749577594756390  13.733089109978463   1.617962494308105 
  3.759011599592974   0.725747028765839   1.608592035858450 
  2.491261240092276   2.888463684913410   1.618733033656170 
  1.241522429895171   5.082443658584523   1.656856937498775 
 -0.074389875916640   7.204262576149052   1.553760691882530 
 -1.287636338602640   9.383723631585349   1.572855106599270 
 -2.504685090351911  11.559711008756370   1.622279377474575 
 -1.248069934278821  13.718974731941026   1.658164425958140 
  6.261933012238421   0.714717248317773   1.648802284246740 
  5.001623098363054   2.889909819849927   1.718559495397635 
  3.710887535727966   5.035870389671813   1.869661749445575 
  2.406335790302247   7.303834538140906   1.851046944214050 
  1.174612201094996   9.370770706976018   1.642839149822955 
 -0.004433059747525  11.545935591054539   1.662865846988970 
  1.266549775840519  13.677223968586270   1.695303388773825 
  8.768535990742148   0.691613107472318   1.671266111442165 
  7.511774568868862   2.873277155438988   1.729206101924685 
  6.257571610826853   5.043771900717402   1.968954852045885 
  2.538859186655825  11.449125970410019   1.740139589819460 
  3.754196715215963  13.697496437066892   1.678119197979015 
 11.264024747078764   0.691935865175682   1.673771534176515 
 10.009224457339061   2.869641981617725   1.679830778914155 
  8.759645914247528   5.049503619035440   1.768728708615810 
  7.591445653723809   7.237629456499176   1.839309919370025 
  6.391859151848124   9.440676325673499   1.644074816038995 
  5.033519973494372  11.596636960329874   1.643559627784740 
  6.275751935817167  13.746882389359696   1.591756289599335 
 13.766171970580457   0.702115950366300   1.646223231856905 
 12.509651577336834   2.867616235535665   1.645601666731260 
 11.260664963776064   5.039337860737486   1.646539220264595 
 10.046629326899513   7.215022298427540   1.616451484883655 
  8.827372672936999   9.401994196278777   1.526576949988410 
  7.558899644109681  11.600446101837884   1.482957462222720 
  4.863071798550675   7.460798936052132   2.576910750654420 
  7.531042236037781  14.472961432987358   1.582247676089400 
 15.017530013710219   1.433278862967993   1.623896409593070 
 13.758860014597502   3.593763726420347   1.623689195059380 
 12.511985171956681   5.764983798302722   1.614263159785065 
 11.290742479005587   7.945593359044329   1.589284999500645 
 10.070126434767189  10.133932906329131   1.536627743100930 
  8.810313306060685  12.319890848753786   1.519296746290725 
 -7.493881030826506  14.469341222105530   1.581162991919205 
  0.003911440417307   1.452362527746345   1.594698226663545 
 -1.267700884973660   3.599982246569072   1.595732764774230 
 -2.528463144129380   5.765061401967676   1.575128351145360 
 -3.771309071136365   7.942108998806637   1.582742838703155 
 -4.992528469523904  10.119737783328796   1.589164624346775 
 -6.235027870229532  12.299645773686144   1.575287104597980 
 -4.996935680097909  14.459208962277222   1.603984470190395 
  2.503877991094870   1.442634989259491   1.599487223449080 
  1.244063143003583   3.623137860632168   1.620665439490215 
 -0.039116560252323   5.767808228346485   1.588479755190915 
 -1.308139656568710   7.941673857510895   1.550947316584560 
 -2.522047067803977  10.116194398863135   1.595189306489220 
 -3.748091239587930  12.288775925382531   1.614119109128865 
 -2.498470136698943  14.447215001285336   1.638735821684715 
  5.012907754436723   1.437126858988347   1.651067496581910 
  3.732694052307386   3.588547216444704   1.716207395331675 
  2.469141603009013   5.825490645866073   1.807949240533590 
  1.124337347380520   7.942139490048168   1.652211200918655 
 -0.047770935965169  10.111875114940970   1.615545086534055 
 -1.252713440789428  12.277847466466959   1.648561699829895 
  0.011424334507996  14.418998900592177   1.674743785379970 
  7.518162023456081   1.420364138512198   1.677755136790350 
  6.263297837788087   3.586302075634097   1.796954083812390 
  4.963398755004123   5.640812149324007   2.104517201270475 
  3.348211533487066   8.432772882334861   2.024969475648435 
  2.492862451579533   9.963701610029432   1.779536270049780 
  1.271775711844841  12.218944196386440   1.701045323372370 
  2.500710089251642  14.424657858025599   1.687245634401660 
 10.013892921197780   1.418635847528004   1.674616375019670 
  8.763906206241616   3.592408104341522   1.730428315611750 
  7.528745515315434   5.773145583052634   1.886172064758615 
  6.472225734539182   8.068567159011668   1.977117072458940 
  5.278907880131311  10.260745450029408   1.738698460886655 
  3.737978451379607  12.256511564928458   1.695656087809470 
  5.003550342426941  14.441584876357547   1.641561883809585 
 12.511602996851220   1.422293773542206   1.658029730228565 
 11.261683736336217   3.591240386906882   1.658776020729270 
 10.023652990063026   5.766802000116170   1.678327395925500 
  8.835657071367589   7.955067351026035   1.636079380273245 
  7.634680258780991  10.176752296733213   1.506170519263155 
  6.311114148719111  12.328696855141104   1.561693823292465 
