B N O                                   
   1.0000000000000000     
     8.7639499999999995  -15.1796066749929999    0.0000000000000000
     8.7639499999999995   15.1796066749929999    0.0000000000000000
     0.0000000000000000    0.0000000000000000   15.0000000000000000
   B    N    O 
    48    48     1
Selective dynamics
Direct
  0.9047509696127644  0.9521735370577932  0.1110031027105711   T   T   T
  0.9049397322545432  0.0950622889414532  0.1110488902387793   T   T   T
  0.9049802739257534  0.2378841930470729  0.1110471108948018   T   T   T
  0.9050008611361240  0.3807649993996776  0.1110004970133230   T   T   T
  0.9049296988316848  0.5236567918831732  0.1109873159516188   T   T   T
  0.9046241594335288  0.6665019396433789  0.1110509312628783   T   T   T
  0.9043079587995462  0.8090558920769587  0.1110274392792805   T   T   T
  0.0475927513642182  0.9524092698317852  0.1110007238183774   T   T   T
  0.0478284841382106  0.0952510515832325  0.1110031027105711   T   T   T
  0.0477669304695503  0.2380473088257769  0.1109937188989658   T   T   T
  0.0475561539114798  0.3808634171755554  0.1110108263399175   T   T   T
  0.0473549371222955  0.5239319571046064  0.1110083383280228   T   T   T
  0.0473427894867874  0.6668461554345420  0.1110184650088389   T   T   T
  0.0474020629431994  0.8096152950938158  0.1109871344256878   T   T   T
  0.1903867261021873  0.9525999582528041  0.1109871344256878   T   T   T
  0.1909461291190444  0.0956940623964501  0.1110274392792805   T   T   T
  0.1908300970964633  0.2382298052809702  0.1109887501946970   T   T   T
  0.1904141992368377  0.3810693031785993  0.1109852975988067   T   T   T
  0.1895554724670058  0.5242133602556635  0.1110505146139848   T   T   T
  0.1898395137091884  0.6671279842029245  0.1110669991116471   T   T   T
  0.1901522689802506  0.8098497522157525  0.1109952049096610   T   T   T
  0.3331558657624563  0.9526592317092160  0.1110184650088389   T   T   T
  0.3335000815536192  0.0953778617624668  0.1110509312628783   T   T   T
  0.3346189306860627  0.2389414332367286  0.1110809009099430   T   T   T
  0.3345610149291303  0.3806949266630305  0.1110248527267695   T   T   T
  0.3321921126092438  0.5260921712361085  0.1110242261953151   T   T   T
  0.3322012883606386  0.6678007328363594  0.1110834358917257   T   T   T
  0.3328740369940737  0.8101625074868155  0.1110669991116471   T   T   T
  0.4760700640923917  0.9526470840737079  0.1110083383280228   T   T   T
  0.4763452293138249  0.0950723223643111  0.1109873159516188   T   T   T
  0.4767044921434923  0.2374533865812286  0.1110653295732630   T   T   T
  0.4791036675745283  0.3813438236474755  0.1111532655389186   T   T   T
  0.4739098499608894  0.6678099085877542  0.1110242261953151   T   T   T
  0.4757886609413349  0.8104465487289972  0.1110505146139848   T   T   T
  0.6191386040204484  0.9524458672845236  0.1110108263399175   T   T   T
  0.6192370217963257  0.0950011600598722  0.1110004970133230   T   T   T
  0.6195560833843754  0.2375093894203787  0.1110021902338650   T   T   T
  0.6200740410260785  0.3799279801699249  0.1110597172183272   T   T   T
  0.6186581975485281  0.5208983536224696  0.1111532655389186   T   T   T
  0.6193070945329731  0.6654410062678682  0.1110248527267695   T   T   T
  0.6189327180174038  0.8095878219591658  0.1109852975988067   T   T   T
  0.7619547123702264  0.9522350907264530  0.1109937188989658   T   T   T
  0.7621178281489307  0.0950217472702431  0.1110471108948018   T   T   T
  0.7622804628186952  0.2377215583773081  0.1110533501236296   T   T   T
  0.7624926317756249  0.3804459378116279  0.1110021902338650   T   T   T
  0.7625486346147745  0.5232975290535059  0.1110653295732630   T   T   T
  0.7610605879592743  0.6653830905109352  0.1110809009099430   T   T   T
  0.7617722159150331  0.8091719240995399  0.1109887501946970   T   T   T
  0.9522180478903435  0.9044513883556972  0.1109955644348616   T   T   T
  0.9525372480415051  0.0474641538765005  0.1110112869675079   T   T   T
  0.9525485646997771  0.1902949137970455  0.1110230502189799   T   T   T
  0.9524352020275225  0.3330943468589886  0.1110057152889927   T   T   T
  0.9523238020685556  0.4760187337297798  0.1109584876292187   T   T   T
  0.9521827233574154  0.6189293817788115  0.1110077512299889   T   T   T
  0.9521298045317287  0.7617156273444885  0.1110187006641974   T   T   T
  0.0951562284915902  0.9048451734264084  0.1109611390963136   T   T   T
  0.0955500135623017  0.0477833540276622  0.1109955644348616   T   T   T
  0.0955069852626955  0.1905298991269755  0.1109682570878640   T   T   T
  0.0951448271254541  0.3332268518032937  0.1109703989485268   T   T   T
  0.0946134281855618  0.4761374778483632  0.1110045288154280   T   T   T
  0.0947687763129582  0.6192167215540662  0.1110109072763037   T   T   T
  0.0949589150450641  0.7620801351220275  0.1109709572900981   T   T   T
  0.2379212667959780  0.9050424868729346  0.1109709572900981   T   T   T
  0.2382857745735171  0.0478715973862771  0.1110187006641974   T   T   T
  0.2390584689461429  0.1911380386840957  0.1110053150821931   T   T   T
  0.2381889269497963  0.3333424051870815  0.1109666008377779   T   T   T
  0.2365685414356419  0.4763326304306836  0.1110163072986165   T   T   T
  0.2371450415678069  0.6195312877693665  0.1110649580619240   T   T   T
  0.2376629482026665  0.7623384537153394  0.1110422130789152   T   T   T
  0.3807846803639323  0.9052326256050399  0.1110109072763037   T   T   T
  0.3810720201391869  0.0478186785605906  0.1110077512299889   T   T   T
  0.3815468341388926  0.1906460120074785  0.1110493196410936   T   T   T
  0.3836206149351389  0.3346985067484194  0.1111205902544374   T   T   T
  0.3707057469922957  0.4726445211662137  0.1108768900205603   T   T   T
  0.3794915271682188  0.6205098747497799  0.1110552104415744   T   T   T
  0.3804701141486322  0.7628563603501992  0.1110649580619240   T   T   T
  0.5238639240686336  0.9053879737324366  0.1110045288154280   T   T   T
  0.5239826681872169  0.0476775998494502  0.1109584876292187   T   T   T
  0.5243326995357522  0.1901329408629505  0.1109840981891336   T   T   T
  0.5249685935452717  0.3324723787716044  0.1110727623046025   T   T   T
  0.5273568807507827  0.6292956549257029  0.1108768900205603   T   T   T
  0.5236687714863130  0.7634328604823637  0.1110163072986165   T   T   T
  0.6667745501137033  0.9048565747925444  0.1109703989485268   T   T   T
  0.6669070550580081  0.0475661998904830  0.1110057152889927   T   T   T
  0.6670953467528640  0.1901093787035419  0.1110139638896778   T   T   T
  0.6674260419096730  0.3325753600073237  0.1109915894481285   T   T   T
  0.6675290231453922  0.4750328083717245  0.1110727623046025   T   T   T
  0.6653028951685773  0.6163807869828596  0.1111205902544374   T   T   T
  0.6666589967299152  0.7618124749682091  0.1109666008377779   T   T   T
  0.8094715027910228  0.9044944166553035  0.1109682570878640   T   T   T
  0.8097064881209530  0.0474528372182283  0.1110230502189799   T   T   T
  0.8098056406400069  0.1901957612779914  0.1110480580730009   T   T   T
  0.8098920232144566  0.3329060551641324  0.1110139638896778   T   T   T
  0.8098684610550482  0.4756687023812440  0.1109840981891336   T   T   T
  0.8093553899105200  0.6184545677791060  0.1110493196410936   T   T   T
  0.8088633632339030  0.7609429329718621  0.1110053150821931   T   T   T
  0.5278069665416474  0.4721944353753495  0.1112203644648617   T   T   T

  0.00000000E+00  0.00000000E+00  0.00000000E+00
  0.00000000E+00  0.00000000E+00  0.00000000E+00
  0.00000000E+00  0.00000000E+00  0.00000000E+00
  0.00000000E+00  0.00000000E+00  0.00000000E+00
  0.00000000E+00  0.00000000E+00  0.00000000E+00
  0.00000000E+00  0.00000000E+00  0.00000000E+00
  0.00000000E+00  0.00000000E+00  0.00000000E+00
  0.00000000E+00  0.00000000E+00  0.00000000E+00
  0.00000000E+00  0.00000000E+00  0.00000000E+00
  0.00000000E+00  0.00000000E+00  0.00000000E+00
  0.00000000E+00  0.00000000E+00  0.00000000E+00
  0.00000000E+00  0.00000000E+00  0.00000000E+00
  0.00000000E+00  0.00000000E+00  0.00000000E+00
  0.00000000E+00  0.00000000E+00  0.00000000E+00
  0.00000000E+00  0.00000000E+00  0.00000000E+00
  0.00000000E+00  0.00000000E+00  0.00000000E+00
  0.00000000E+00  0.00000000E+00  0.00000000E+00
  0.00000000E+00  0.00000000E+00  0.00000000E+00
  0.00000000E+00  0.00000000E+00  0.00000000E+00
  0.00000000E+00  0.00000000E+00  0.00000000E+00
  0.00000000E+00  0.00000000E+00  0.00000000E+00
  0.00000000E+00  0.00000000E+00  0.00000000E+00
  0.00000000E+00  0.00000000E+00  0.00000000E+00
  0.00000000E+00  0.00000000E+00  0.00000000E+00
  0.00000000E+00  0.00000000E+00  0.00000000E+00
  0.00000000E+00  0.00000000E+00  0.00000000E+00
  0.00000000E+00  0.00000000E+00  0.00000000E+00
  0.00000000E+00  0.00000000E+00  0.00000000E+00
  0.00000000E+00  0.00000000E+00  0.00000000E+00
  0.00000000E+00  0.00000000E+00  0.00000000E+00
  0.00000000E+00  0.00000000E+00  0.00000000E+00
  0.00000000E+00  0.00000000E+00  0.00000000E+00
  0.00000000E+00  0.00000000E+00  0.00000000E+00
  0.00000000E+00  0.00000000E+00  0.00000000E+00
  0.00000000E+00  0.00000000E+00  0.00000000E+00
  0.00000000E+00  0.00000000E+00  0.00000000E+00
  0.00000000E+00  0.00000000E+00  0.00000000E+00
  0.00000000E+00  0.00000000E+00  0.00000000E+00
  0.00000000E+00  0.00000000E+00  0.00000000E+00
  0.00000000E+00  0.00000000E+00  0.00000000E+00
  0.00000000E+00  0.00000000E+00  0.00000000E+00
  0.00000000E+00  0.00000000E+00  0.00000000E+00
  0.00000000E+00  0.00000000E+00  0.00000000E+00
  0.00000000E+00  0.00000000E+00  0.00000000E+00
  0.00000000E+00  0.00000000E+00  0.00000000E+00
  0.00000000E+00  0.00000000E+00  0.00000000E+00
  0.00000000E+00  0.00000000E+00  0.00000000E+00
  0.00000000E+00  0.00000000E+00  0.00000000E+00
  0.00000000E+00  0.00000000E+00  0.00000000E+00
  0.00000000E+00  0.00000000E+00  0.00000000E+00
  0.00000000E+00  0.00000000E+00  0.00000000E+00
  0.00000000E+00  0.00000000E+00  0.00000000E+00
  0.00000000E+00  0.00000000E+00  0.00000000E+00
  0.00000000E+00  0.00000000E+00  0.00000000E+00
  0.00000000E+00  0.00000000E+00  0.00000000E+00
  0.00000000E+00  0.00000000E+00  0.00000000E+00
  0.00000000E+00  0.00000000E+00  0.00000000E+00
  0.00000000E+00  0.00000000E+00  0.00000000E+00
  0.00000000E+00  0.00000000E+00  0.00000000E+00
  0.00000000E+00  0.00000000E+00  0.00000000E+00
  0.00000000E+00  0.00000000E+00  0.00000000E+00
  0.00000000E+00  0.00000000E+00  0.00000000E+00
  0.00000000E+00  0.00000000E+00  0.00000000E+00
  0.00000000E+00  0.00000000E+00  0.00000000E+00
  0.00000000E+00  0.00000000E+00  0.00000000E+00
  0.00000000E+00  0.00000000E+00  0.00000000E+00
  0.00000000E+00  0.00000000E+00  0.00000000E+00
  0.00000000E+00  0.00000000E+00  0.00000000E+00
  0.00000000E+00  0.00000000E+00  0.00000000E+00
  0.00000000E+00  0.00000000E+00  0.00000000E+00
  0.00000000E+00  0.00000000E+00  0.00000000E+00
  0.00000000E+00  0.00000000E+00  0.00000000E+00
  0.00000000E+00  0.00000000E+00  0.00000000E+00
  0.00000000E+00  0.00000000E+00  0.00000000E+00
  0.00000000E+00  0.00000000E+00  0.00000000E+00
  0.00000000E+00  0.00000000E+00  0.00000000E+00
  0.00000000E+00  0.00000000E+00  0.00000000E+00
  0.00000000E+00  0.00000000E+00  0.00000000E+00
  0.00000000E+00  0.00000000E+00  0.00000000E+00
  0.00000000E+00  0.00000000E+00  0.00000000E+00
  0.00000000E+00  0.00000000E+00  0.00000000E+00
  0.00000000E+00  0.00000000E+00  0.00000000E+00
  0.00000000E+00  0.00000000E+00  0.00000000E+00
  0.00000000E+00  0.00000000E+00  0.00000000E+00
  0.00000000E+00  0.00000000E+00  0.00000000E+00
  0.00000000E+00  0.00000000E+00  0.00000000E+00
  0.00000000E+00  0.00000000E+00  0.00000000E+00
  0.00000000E+00  0.00000000E+00  0.00000000E+00
  0.00000000E+00  0.00000000E+00  0.00000000E+00
  0.00000000E+00  0.00000000E+00  0.00000000E+00
  0.00000000E+00  0.00000000E+00  0.00000000E+00
  0.00000000E+00  0.00000000E+00  0.00000000E+00
  0.00000000E+00  0.00000000E+00  0.00000000E+00
  0.00000000E+00  0.00000000E+00  0.00000000E+00
  0.00000000E+00  0.00000000E+00  0.00000000E+00
  0.00000000E+00  0.00000000E+00  0.00000000E+00
  0.00000000E+00  0.00000000E+00  0.00000000E+00
