 B N Si 
 1.0
 17.527899999999772   0.000000000000000   0.000000000000000
 -8.763949999999658  15.179606674993195   0.000000000000000
  0.000000000000001   0.000000000000002  15.000000000000000
 B N Si 
  48  48   1
Cartesian
  7.557291185704083  14.494481382732907   1.658168123672790 
 15.055605602304661   1.484803758195855   1.660322012207220 
 13.795307201541892   3.649363573981741   1.662139052580285 
 12.525718971902158   5.803699668926509   1.660343702961390 
 11.237252330060176   7.952143405392462   1.659247109184120 
 10.030704583749085  10.115334822499953   1.661788380164370 
  8.810711807981523  12.312424578235641   1.660709874943635 
 -7.475959690567674  14.423628645797182   1.658835181628505 
  0.028495422338371   1.420482150329482   1.661483987875470 
 -1.215049509760989   3.623206590128623   1.662915711305040 
 -2.463267409017314   5.797662839278865   1.661771673885240 
 -3.734117072798572   7.950069654720550   1.659969251142210 
 -4.982031614295996  10.101094342487587   1.659756499204575 
 -6.224838713589758  12.259854670302914   1.659200382594765 
 -4.967340582424574  14.395957627573910   1.660951235104500 
  2.527885401896583   1.340948721654153   1.663590903249660 
  1.273299970350543   3.510506875003606   1.664084797610895 
  0.074726500783005   5.776070489963488   1.663817655374745 
 -1.190188259470952   7.956166849693319   1.661939162577810 
 -2.459550037721298  10.109094240848032   1.660780995947565 
 -3.714053277579171  12.254928355108365   1.660453708126650 
 -2.454863763873282  14.412972952170009   1.662678300392145 
  5.063748014612361   1.341605029378851   1.663121073321165 
  3.797484836809994   3.372581963684559   1.659268108664730 
  2.604583337105886   5.432325861817034   1.661756824549080 
  1.303507875625726   8.073817347192108   1.663937166710085 
  0.044220258289806  10.168562811561289   1.660759150681140 
 -1.206334946076379  12.287950141162925   1.661188024809405 
  0.044703932072883  14.463033032458751   1.662484708687305 
  7.551174536551597   1.423779606800342   1.663762637112705 
  6.288381989488355   3.555182241392799   1.659258288003675 
  4.965372739425042   5.594402133125858   1.633425524372655 
  2.610606925662327  10.171689727910595   1.659539595590145 
  1.313081258412439  12.319653084112023   1.660932813954375 
  2.535561637794077  14.516780943844310   1.660593682899270 
 10.038587176093156   1.482976577098213   1.662121493320170 
  8.766237665463322   3.641346506619997   1.661519325084990 
  7.441380056377818   5.799533009662234   1.658533290388395 
  6.065575540878854   8.145619578549708   1.666062747427950 
  5.118716555484609  10.339196194035914   1.666525297373820 
  3.801611060485379  12.391336712665533   1.661179157699640 
  5.045636523177423  14.528204878301221   1.658800299143490 
 12.543680109652085   1.498673556685282   1.660935055752945 
 11.275848589413027   3.652858985152454   1.661467646115705 
  9.984515559424985   5.806083337600983   1.659965683506360 
  8.654232133794387   7.969025541787430   1.661360432953995 
  7.564033018755689  10.200507525914132   1.667923593378810 
  6.328349195418903  12.395125828759760   1.662602249044155 
  8.796440934146609  13.743988909979624   1.657636462050285 
 16.300568931859193   0.744512910685505   1.659226568644695 
 15.052130711643015   2.926674124628772   1.661759990793855 
 13.798078228537735   5.091794052400205   1.661237788374510 
 12.518711682763229   7.244072829537070   1.659010673237070 
 11.279362970158505   9.392666905901748   1.659586037659635 
 10.044164104257721  11.558711316677540   1.660177014563325 
 -6.226209867875024  13.694738541480286   1.658680696867035 
  1.268392853940383   0.670726946315037   1.660903726247100 
  0.012629032872694   2.854247220111699   1.662964074166860 
 -1.195865545758314   5.077709454886795   1.662660524951415 
 -2.457173973112972   7.241439329700096   1.660796020096020 
 -3.719167002377800   9.389899124536338   1.659848939224050 
 -4.971556059845305  11.539395213742848   1.659397452884445 
 -3.709079492933716  13.688937474962344   1.660889630559540 
  3.794118158139046   0.642887338918246   1.662690579323430 
  2.508182695328706   2.756889719504224   1.665208483558785 
  1.280848301003067   4.953837748310232   1.664259521008530 
  0.097662564504139   7.249911314005918   1.663552189737750 
 -1.188863968514343   9.403652272715007   1.661188925565465 
 -2.453310948629211  11.548038831294853   1.660637835702600 
 -1.198513797759640  13.719600567223774   1.662076578683445 
  6.319587785520312   0.660655114846066   1.663561111669575 
  5.072584191755007   2.753259928699094   1.660694960789685 
  3.792635439798410   4.751536755636857   1.649365270879350 
  1.319413717161632   9.482785989692973   1.660299606988935 
  0.054706311849648  11.594585735735343   1.660515187243740 
  1.302892899257765  13.760396867119178   1.661199281980320 
  8.807199325645444   0.724592670765992   1.662972607064850 
  7.546110851157247   2.865790496735987   1.662684548951910 
  6.265587493510091   4.996958498705596   1.652224381342335 
  4.419347926316426   8.218354478958506   1.664770510413975 
  3.943843858782235   9.569696400055481   1.659830222051880 
  2.581024402587625  11.619077552264933   1.660049080854060 
  3.790981087827739  13.818779399772689   1.659085545178455 
 11.294937564997467   0.774657720437774   1.660936611767970 
 10.028792704783168   2.926868259311401   1.661599101940890 
  8.732702965131905   5.093835224091071   1.660140778010670 
  7.316002009793452   7.282505257878421   1.660407552224430 
  6.303219884252203   9.550796481321749   1.672336767720210 
  5.071049106496733  11.732667573415965   1.664193222223380 
  6.303520145775342  13.815810105966086   1.658176951040685 
 13.799961702589966   0.782735567686214   1.659387542475120 
 12.538898213820801   2.938606391621112   1.661611121787150 
 11.262258799775735   5.095925826692445   1.660309879561800 
  9.947942476015310   7.252835732385130   1.658999977144725 
  8.761682370357281   9.416822026321430   1.664154521182740 
  7.556480078013157  11.634230368285602   1.664377011488310 
  3.088434542715532   7.237853435198364   1.664977312963110 
