 N B Si 
 1.0
 17.527899999999772   0.000000000000000   0.000000000000000
 -8.763949999999658  15.179606674993195   0.000000000000000
  0.000000000000001   0.000000000000002  15.000000000000000
 N B Si 
  48  49   1
Cartesian
  8.763181554096718  13.735570855488037   1.790624069021025 
 16.275049220126679   0.723374590575317   1.780379404375830 
 15.023633463996823   2.890976392381415   1.768769750197755 
 13.771299207079021   5.059868891664398   1.781434291228365 
 12.520844102978916   7.226626369725935   1.792115213868810 
 11.268488752904009   9.396073055186921   1.782566699984940 
 10.015702243889079  11.566295137211931   1.781841997389510 
 -6.260838264666534  13.734451964611726   1.792213978320660 
  1.250220884601337   0.722735380177047   1.790879621768925 
 -0.000214704103380   2.892442382085564   1.758605369717850 
 -1.251693731977173   5.059868891664398   1.759088668647495 
 -2.505083850703650   7.226675945220981   1.791177076456305 
 -3.756066708862388   9.395832475198732   1.792097233780080 
 -5.008233081725346  11.565333494147785   1.784867325336540 
 -3.756017558845945  13.734199035266078   1.784748178052310 
  3.755132777571181   0.722625600333735   1.781930096670345 
  2.499908064344287   2.887937581293142   1.722340886962215 
  1.256359009573357   5.059868891664398   1.623250123269090 
 -0.005052524150391   7.226611311807275   1.722420012489225 
 -1.252672441820904   9.396194678791440   1.782063447205020 
 -2.503812734586319  11.565324586593958   1.784790837700875 
 -1.251111878692708  13.734523825519094   1.791625077652680 
  6.260980290410027   0.722765971239201   1.781990043098130 
  5.007754878440707   2.885339474914834   1.651695086639400 
  3.745542019177254   5.026204396426422   1.351914828213300 
  2.469702724113744   7.236262121017023   1.351838328260265 
  1.246828249583119   9.399902879306046   1.652049820188360 
  0.000280667058188  11.566370954831417   1.781917474710600 
  1.252926833109247  13.735728857047594   1.790678374035735 
  8.765953560383721   0.722906520339299   1.791249497102040 
  7.515829342676013   2.888050379008766   1.722631782663030 
  6.270201660026995   5.026253826852593   1.352250578383425 
  3.732021236571845   9.422679765719282   1.351882910548050 
  2.503016309352456  11.570702322695874   1.722313039635930 
  3.756103353753905  13.733713719476276   1.758797413009320 
 11.267612797602698   0.723397721196275   1.780903205060130 
 10.015186899506128   2.892663009414690   1.758537347624340 
  8.763949999999962   5.059868891664398   1.623338172244215 
  7.546170852260277   7.236371052857103   1.352519089027755 
  6.283891497052361   9.422796814112706   1.352082447747090 
  5.010122793321619  11.561688336465870   1.623153804691905 
  6.258940322437404  13.733644703400898   1.758330587129970 
 13.772135087017158   0.723315523424666   1.768636165227330 
 12.520597355572393   2.890993307958041   1.768483976760105 
 11.266420326900255   5.059868891664398   1.759014330023520 
 10.020696742813090   7.226717328013428   1.723382201373975 
  8.769044800523780   9.400120887020394   1.652082900042585 
  7.512884308747279  11.570724762074098   1.722141287624655 
  7.509960736719371  14.455384542590664   1.778590835901915 
 15.023903081127919   1.445714085578507   1.771003943275425 
 13.772153899634159   3.614042485030981   1.771111800510915 
 12.517647902655460   5.781471283507757   1.779972570274155 
 11.265139757226738   7.948381321174635   1.773414171279465 
 10.009957404568768  10.116273459237208   1.746980843925510 
  8.760435299903797  12.287179571452249   1.771786213127640 
 -7.513785515745073  14.457849586787965   1.793497592949765 
  0.000243840350988   1.448141981088778   1.778809013093835 
 -1.250141854875548   3.614905559745472   1.760528654225235 
 -2.501673883682155   5.781427268746351   1.779640683770190 
 -3.756280967927554   7.948814757113536   1.793831751170340 
 -5.011199328706178  10.119737783328796   1.788537829343505 
 -6.262710887281899  12.287710008987567   1.788299144851845 
 -5.008843966192650  14.459434599758939   1.788312294693315 
  2.503207172202540   1.449319299154164   1.772028441256680 
  1.255498473677271   3.620313612945589   1.701914315477865 
  0.007003277535321   5.782627861314676   1.702103393266335 
 -1.249372800998142   7.948482300169286   1.772124923007480 
 -2.503308380037089  10.119737783328796   1.788393019052700 
 -3.756187220715076  12.288383929781375   1.783741731576570 
 -2.505608063983813  14.459578254003462   1.788184514769210 
  5.008012780076954   1.452591646798621   1.746728821050780 
  3.754772306985815   3.616281376776798   1.593418045587330 
  2.510642401700445   5.786711283228487   1.414030972839165 
  1.254781746164838   7.946392046561491   1.593714285820005 
  0.005904280869434  10.116336357559724   1.747088388747930 
 -1.251655905752484  12.287669405686080   1.788170583417765 
  0.001972168858677  14.458199686077776   1.793262918769755 
  7.513041922170644   1.449497853584528   1.772595779153880 
  6.263989790522333   3.616119570708930   1.593817166975715 
  5.007991215734268   5.654432162037685   0.915415971531225 
  3.644928325625737   8.015376943885149   0.915023928672930 
  2.509600961197090  10.119737783328796   1.593703477353420 
  1.255679818324071  12.287364851778181   1.771894452495960 
  2.506276014829423  14.455396815062050   1.779194871281490 
 10.015879083672395   1.448329943043189   1.779284874863895 
  8.760286953710112   3.620397511408164   1.701845783658300 
  7.505144665424711   5.786662229728268   1.414508742363390 
  6.371048691578343   8.015340695135871   0.915573689700270 
  5.007817918036972  10.111991791020824   1.414071020590950 
  3.759572071740767  12.282278484927192   1.701929444516400 
  5.008300054657784  14.454854719540306   1.760305501437390 
 12.520196177113435   1.445583346079786   1.770855776054955 
 11.266410295515149   3.615096374069793   1.760207040079020 
 10.008704855172322   5.782811161086055   1.702265255924250 
  8.764255378289885   7.946802342420762   1.594350966791775 
  7.509566699198625  10.119737783328796   1.593542840146080 
  6.256427778573335  12.282230621623121   1.701679618860750 
  5.008565090765735   7.228133054293401  14.754468049308855 
