B N Se                                  
   1.0000000000000000     
     8.7639499999999995  -15.1796066749929999    0.0000000000000000
     8.7639499999999995   15.1796066749929999    0.0000000000000000
     0.0000000000000000    0.0000000000000000   15.0000000000000000
   B    N    Se
    48    48     1
Selective dynamics
Direct
  0.9058189302670239  0.9536830849678967  0.1110323793869737   T   T   T
  0.9043564181300263  0.0957901229546172  0.1110351808571687   T   T   T
  0.9039188887421350  0.2384783333973922  0.1110532929645973   T   T   T
  0.9041595823120505  0.3813388418240759  0.1109930049601734   T   T   T
  0.9055601318364330  0.5244184742117838  0.1109980679570253   T   T   T
  0.9070466336152575  0.6678409459819971  0.1110350328656972   T   T   T
  0.9075958758297908  0.8116766176519640  0.1110104555486161   T   T   T
  0.0479844743928231  0.9521345276208256  0.1110364110057853   T   T   T
  0.0464524975045641  0.0943073361424196  0.1110265180122703   T   T   T
  0.0460214706192353  0.2375203978460198  0.1110158055704221   T   T   T
  0.0464177125276068  0.3807668715472101  0.1110247152511692   T   T   T
  0.0475570850950856  0.5238487911498048  0.1110264360892885   T   T   T
  0.0486707112436865  0.6668020624970971  0.1110456763803099   T   T   T
  0.0488083483942709  0.8096587265337784  0.1110327142950797   T   T   T
  0.1904632358818064  0.9513081473902576  0.1110355005459109   T   T   T
  0.1884541032666296  0.0925262306537140  0.1110086107176485   T   T   T
  0.1868231910900083  0.2347165757505240  0.1109579005585917   T   T   T
  0.1879634760139695  0.3795513651690355  0.1109947926829371   T   T   T
  0.1896050778056183  0.5233990004860275  0.1110830376660260   T   T   T
  0.1910195704908056  0.6664020889602793  0.1110873599284094   T   T   T
  0.1910858643606919  0.8090646151019542  0.1110082030280569   T   T   T
  0.3333531878137608  0.9514776079814742  0.1110393536686823   T   T   T
  0.3322938289705438  0.0930839617653478  0.1110263202943832   T   T   T
  0.3282711120594227  0.2318926260550681  0.1109082834563646   T   T   T
  0.3267550233336281  0.3742970642199447  0.1108111031424409   T   T   T
  0.3318506479755166  0.5231281984123489  0.1108540621379791   T   T   T
  0.3338613181541530  0.6663011500213749  0.1110908055333162   T   T   T
  0.3337521819097752  0.8091390108792009  0.1110851337561973   T   T   T
  0.4763116019123275  0.9526016223004092  0.1110161023747958   T   T   T
  0.4757371558909733  0.0945919128173840  0.1109860317060722   T   T   T
  0.4746219737001282  0.2358706738827735  0.1109726733840284   T   T   T
  0.4665843010131202  0.3693633070030636  0.1108307984145652   T   T   T
  0.4770330172310532  0.6683170436131615  0.1108861106713337   T   T   T
  0.4767502110776485  0.8105571360717089  0.1110811815803588   T   T   T
  0.6193872262441450  0.9537345694550498  0.1110231936673474   T   T   T
  0.6188181847848911  0.0959879698917787  0.1109996761015313   T   T   T
  0.6184439186241910  0.2386315603611580  0.1109818890346477   T   T   T
  0.6182358767956064  0.3819111534038606  0.1109900766542254   T   T   T
  0.6308379254721259  0.5336009191904857  0.1108578417845663   T   T   T
  0.6258622882165733  0.6734164748694063  0.1108602342361428   T   T   T
  0.6205899099750417  0.8121920655768685  0.1109889016477205   T   T   T
  0.7626234654849690  0.9541266649844252  0.1110154515421640   T   T   T
  0.7616690156670950  0.0962277329746674  0.1110658756776586   T   T   T
  0.7613448393334635  0.2388124742905501  0.1110596174210891   T   T   T
  0.7615116274646792  0.3817052145204864  0.1109853655276519   T   T   T
  0.7642866780538352  0.5255214889227324  0.1109878084675416   T   T   T
  0.7682701050863869  0.6718925983224618  0.1109262294193579   T   T   T
  0.7654130757534340  0.8133165590566032  0.1109525905912838   T   T   T
  0.9536092869038564  0.9060544779324180  0.1110265434143547   T   T   T
  0.9520019037069335  0.0481301159789071  0.1110219112043330   T   T   T
  0.9512333863915479  0.1906520750792987  0.1110200192401193   T   T   T
  0.9513426815706323  0.3335203747110226  0.1110035788085832   T   T   T
  0.9523757140618017  0.4764419508010566  0.1109631862242819   T   T   T
  0.9536231584875334  0.6195139225505956  0.1110267532890328   T   T   T
  0.9540713985310195  0.7628490610541957  0.1110235412327548   T   T   T
  0.0956408031747395  0.9044759551137830  0.1110163139956610   T   T   T
  0.0940727178521480  0.0465092838117369  0.1110194517137311   T   T   T
  0.0926165722753974  0.1888131981309693  0.1109917051808650   T   T   T
  0.0931425579793957  0.3325283112437805  0.1110111882735465   T   T   T
  0.0944495826082159  0.4759140933042228  0.1110430327644018   T   T   T
  0.0957742870601562  0.6189675573913017  0.1110395618781675   T   T   T
  0.0960855232341094  0.7618237861807371  0.1109963331069024   T   T   T
  0.2383252996898663  0.9040579982534652  0.1109953180754183   T   T   T
  0.2372786140194789  0.0460446350705791  0.1110245797761805   T   T   T
  0.2342370929368753  0.1866164144257362  0.1109144853002135   T   T   T
  0.2325420957562351  0.3289857143872871  0.1109249312109665   T   T   T
  0.2358508145661528  0.4749853644567474  0.1109916819808194   T   T   T
  0.2383513663058388  0.6187193381475613  0.1110987474681178   T   T   T
  0.2386005799539960  0.7615536447432437  0.1110400339699378   T   T   T
  0.3811924201327400  0.9043822875246131  0.1110317009612746   T   T   T
  0.3806383031784454  0.0465220906078285  0.1110151191222816   T   T   T
  0.3792498818423469  0.1878212348300261  0.1109295081451199   T   T   T
  0.3734553189902315  0.3253497941997486  0.1108538146813571   T   T   T
  0.3667696150024328  0.4663927673592689  0.1105673929657516   T   T   T
  0.3814776946545765  0.6186831868352840  0.1109332695105162   T   T   T
  0.3814327543104253  0.7618074857008916  0.1110973468670647   T   T   T
  0.5242442352664952  0.9057106400261936  0.1110347648756647   T   T   T
  0.5237178234585994  0.0477798247934462  0.1109624999471940   T   T   T
  0.5231759855254212  0.1898412334414296  0.1109520200263313   T   T   T
  0.5220565089290350  0.3314998030500206  0.1109675363201207   T   T   T
  0.5337701289453755  0.6333988265916409  0.1106811036048679   T   T   T
  0.5251631437431952  0.7643113196958725  0.1109939266105656   T   T   T
  0.6676216753950239  0.9070110145602671  0.1110009080129764   T   T   T
  0.6666365329576750  0.0488066277675996  0.1110167729703566   T   T   T
  0.6661748514566366  0.1913018199627245  0.1110013168627768   T   T   T
  0.6658565621174135  0.3342869245303486  0.1109717639951707   T   T   T
  0.6686630687113988  0.4780953033304234  0.1109831300753820   T   T   T
  0.6748231185856256  0.6267273349216691  0.1108958351859302   T   T   T
  0.6711572522352879  0.7676187860113184  0.1109228557524004   T   T   T
  0.8113182236529879  0.9075236600233783  0.1109914545580587   T   T   T
  0.8094945237217989  0.0489120204695117  0.1110265354708732   T   T   T
  0.8088806668522187  0.1912669742757478  0.1110721539124395   T   T   T
  0.8088465125811619  0.3339797938951187  0.1109972557085717   T   T   T
  0.8103126810064698  0.4769709969790863  0.1109611764027344   T   T   T
  0.8123176024069231  0.6208918226455130  0.1109444537390434   T   T   T
  0.8135183131295763  0.7659137533418983  0.1109125833869756   T   T   T
  0.5084082591555084  0.4918054018700579  0.1105106124512016   T   T   T

  0.00000000E+00  0.00000000E+00  0.00000000E+00
  0.00000000E+00  0.00000000E+00  0.00000000E+00
  0.00000000E+00  0.00000000E+00  0.00000000E+00
  0.00000000E+00  0.00000000E+00  0.00000000E+00
  0.00000000E+00  0.00000000E+00  0.00000000E+00
  0.00000000E+00  0.00000000E+00  0.00000000E+00
  0.00000000E+00  0.00000000E+00  0.00000000E+00
  0.00000000E+00  0.00000000E+00  0.00000000E+00
  0.00000000E+00  0.00000000E+00  0.00000000E+00
  0.00000000E+00  0.00000000E+00  0.00000000E+00
  0.00000000E+00  0.00000000E+00  0.00000000E+00
  0.00000000E+00  0.00000000E+00  0.00000000E+00
  0.00000000E+00  0.00000000E+00  0.00000000E+00
  0.00000000E+00  0.00000000E+00  0.00000000E+00
  0.00000000E+00  0.00000000E+00  0.00000000E+00
  0.00000000E+00  0.00000000E+00  0.00000000E+00
  0.00000000E+00  0.00000000E+00  0.00000000E+00
  0.00000000E+00  0.00000000E+00  0.00000000E+00
  0.00000000E+00  0.00000000E+00  0.00000000E+00
  0.00000000E+00  0.00000000E+00  0.00000000E+00
  0.00000000E+00  0.00000000E+00  0.00000000E+00
  0.00000000E+00  0.00000000E+00  0.00000000E+00
  0.00000000E+00  0.00000000E+00  0.00000000E+00
  0.00000000E+00  0.00000000E+00  0.00000000E+00
  0.00000000E+00  0.00000000E+00  0.00000000E+00
  0.00000000E+00  0.00000000E+00  0.00000000E+00
  0.00000000E+00  0.00000000E+00  0.00000000E+00
  0.00000000E+00  0.00000000E+00  0.00000000E+00
  0.00000000E+00  0.00000000E+00  0.00000000E+00
  0.00000000E+00  0.00000000E+00  0.00000000E+00
  0.00000000E+00  0.00000000E+00  0.00000000E+00
  0.00000000E+00  0.00000000E+00  0.00000000E+00
  0.00000000E+00  0.00000000E+00  0.00000000E+00
  0.00000000E+00  0.00000000E+00  0.00000000E+00
  0.00000000E+00  0.00000000E+00  0.00000000E+00
  0.00000000E+00  0.00000000E+00  0.00000000E+00
  0.00000000E+00  0.00000000E+00  0.00000000E+00
  0.00000000E+00  0.00000000E+00  0.00000000E+00
  0.00000000E+00  0.00000000E+00  0.00000000E+00
  0.00000000E+00  0.00000000E+00  0.00000000E+00
  0.00000000E+00  0.00000000E+00  0.00000000E+00
  0.00000000E+00  0.00000000E+00  0.00000000E+00
  0.00000000E+00  0.00000000E+00  0.00000000E+00
  0.00000000E+00  0.00000000E+00  0.00000000E+00
  0.00000000E+00  0.00000000E+00  0.00000000E+00
  0.00000000E+00  0.00000000E+00  0.00000000E+00
  0.00000000E+00  0.00000000E+00  0.00000000E+00
  0.00000000E+00  0.00000000E+00  0.00000000E+00
  0.00000000E+00  0.00000000E+00  0.00000000E+00
  0.00000000E+00  0.00000000E+00  0.00000000E+00
  0.00000000E+00  0.00000000E+00  0.00000000E+00
  0.00000000E+00  0.00000000E+00  0.00000000E+00
  0.00000000E+00  0.00000000E+00  0.00000000E+00
  0.00000000E+00  0.00000000E+00  0.00000000E+00
  0.00000000E+00  0.00000000E+00  0.00000000E+00
  0.00000000E+00  0.00000000E+00  0.00000000E+00
  0.00000000E+00  0.00000000E+00  0.00000000E+00
  0.00000000E+00  0.00000000E+00  0.00000000E+00
  0.00000000E+00  0.00000000E+00  0.00000000E+00
  0.00000000E+00  0.00000000E+00  0.00000000E+00
  0.00000000E+00  0.00000000E+00  0.00000000E+00
  0.00000000E+00  0.00000000E+00  0.00000000E+00
  0.00000000E+00  0.00000000E+00  0.00000000E+00
  0.00000000E+00  0.00000000E+00  0.00000000E+00
  0.00000000E+00  0.00000000E+00  0.00000000E+00
  0.00000000E+00  0.00000000E+00  0.00000000E+00
  0.00000000E+00  0.00000000E+00  0.00000000E+00
  0.00000000E+00  0.00000000E+00  0.00000000E+00
  0.00000000E+00  0.00000000E+00  0.00000000E+00
  0.00000000E+00  0.00000000E+00  0.00000000E+00
  0.00000000E+00  0.00000000E+00  0.00000000E+00
  0.00000000E+00  0.00000000E+00  0.00000000E+00
  0.00000000E+00  0.00000000E+00  0.00000000E+00
  0.00000000E+00  0.00000000E+00  0.00000000E+00
  0.00000000E+00  0.00000000E+00  0.00000000E+00
  0.00000000E+00  0.00000000E+00  0.00000000E+00
  0.00000000E+00  0.00000000E+00  0.00000000E+00
  0.00000000E+00  0.00000000E+00  0.00000000E+00
  0.00000000E+00  0.00000000E+00  0.00000000E+00
  0.00000000E+00  0.00000000E+00  0.00000000E+00
  0.00000000E+00  0.00000000E+00  0.00000000E+00
  0.00000000E+00  0.00000000E+00  0.00000000E+00
  0.00000000E+00  0.00000000E+00  0.00000000E+00
  0.00000000E+00  0.00000000E+00  0.00000000E+00
  0.00000000E+00  0.00000000E+00  0.00000000E+00
  0.00000000E+00  0.00000000E+00  0.00000000E+00
  0.00000000E+00  0.00000000E+00  0.00000000E+00
  0.00000000E+00  0.00000000E+00  0.00000000E+00
  0.00000000E+00  0.00000000E+00  0.00000000E+00
  0.00000000E+00  0.00000000E+00  0.00000000E+00
  0.00000000E+00  0.00000000E+00  0.00000000E+00
  0.00000000E+00  0.00000000E+00  0.00000000E+00
  0.00000000E+00  0.00000000E+00  0.00000000E+00
  0.00000000E+00  0.00000000E+00  0.00000000E+00
  0.00000000E+00  0.00000000E+00  0.00000000E+00
  0.00000000E+00  0.00000000E+00  0.00000000E+00
  0.00000000E+00  0.00000000E+00  0.00000000E+00
