 N Ga B 
 1.0
 17.527899999999772   0.000000000000000   0.000000000000000
 -8.763949999999658  15.179606674993195   0.000000000000000
  0.000000000000001   0.000000000000002  15.000000000000000
 N Ga B 
  49   1  47
Cartesian
  8.812662362205714  13.738320686881151   1.652737968692985 
 16.341048060644514   0.750981479070493   1.666289740466415 
 15.080853029055650   2.896979406325626   1.676750713092780 
 13.828960064176149   5.054242177615839   1.670708605668600 
 12.577645011803014   7.220607507998228   1.656940935106725 
 11.330158730719248   9.393015360299612   1.646639695992120 
 10.058669570526906  11.566604538932982   1.646125874431740 
 -6.217857159719122  13.757586900066748   1.662236914238220 
  1.311668095752520   0.755303030866957   1.671354133484055 
  0.056613408913576   2.912788954019053   1.671627529928640 
 -1.216280554804627   5.059868891664398   1.664122133886390 
 -2.483384265655495   7.228149481057605   1.663625703600210 
 -3.735007557026699   9.406123832787390   1.658707431662715 
 -4.977218114654972  11.584249609976560   1.653099020361750 
 -3.726527032580582  13.766076226550577   1.658234640708705 
  3.802430623337424   0.765604072205332   1.670078574242775 
  2.575296231449896   2.959855474741554   1.669374129824760 
  1.282721806559769   5.077968973887351   1.627977953900520 
 -0.019884874869219   7.223903275125789   1.612726264609800 
 -1.280372662293448   9.408971251340860   1.646897108566455 
 -2.490500230174772  11.591444593490460   1.655815332971295 
 -1.230448236593585  13.763643253802003   1.657351585998480 
  6.295816671048340   0.758230797041388   1.660309451329875 
  5.060656954086941   2.948828557830048   1.675625146977885 
  3.849801273600424   5.199420241687586   1.665205171423815 
  2.428314761650152   7.227798472222977   1.634494836905640 
  1.144092948854895   9.407553646929642   1.633119244702260 
 -0.000386983186338  11.593988020195184   1.663264901431305 
  1.278618121243097  13.748795269418356   1.659954784956255 
  8.805392817069578   0.735637688810291   1.650725407577265 
  7.572187770679899   2.904783770803556   1.664865559959660 
  6.360474930960056   5.091436372693974   1.689532794443940 
  3.631078788786512   7.861216193267403   1.831956833397555 
  3.478640963145894   9.208131203903340   1.815285086640465 
  2.521193576074024  11.567536648924337   1.683466749429615 
  3.771098703956025  13.799657405231629   1.645195700838915 
 11.312015222315059   0.741680183727560   1.652103823231380 
 10.090897660638502   2.875552805017910   1.645635570685665 
  8.889599243306836   5.004164780716768   1.662706513809855 
  7.671579832972525   7.108293410597983   1.679979243968055 
  6.491482927625111   9.128781591589215   1.635280683893370 
  5.034476106030636  11.791599021641726   1.653377413541460 
  6.330484150625060  13.791719856994758   1.630699580613585 
 13.827154791002474   0.741623221273168   1.655852672275695 
 12.585312120787682   2.888194949351250   1.660325886307155 
 11.354044337112366   5.039764596956533   1.648882780107165 
 10.113543895200575   7.195929563787871   1.648235929113855 
  8.876161674981240   9.357182905607793   1.640443758242475 
  7.540620195426654  11.526079187171948   1.635876567649440 
  5.006718239962299  10.035411175328424   1.751457887987895 
  7.578590218365154  14.490931017915443   1.648975479728595 
 15.082088562494782   1.458114263345234   1.667226555633090 
 13.831362227284330   3.613134201840865   1.670492179292055 
 12.585802224939364   5.775383941757136   1.658959945299645 
 11.335153820244438   7.942677362262690   1.649223082451745 
 10.084407178521342  10.110761195220098   1.643088343916295 
  8.792697175138379  12.271660578083443   1.644375880758705 
 -7.465740982411146  14.479550826820228   1.663400414147490 
  0.061884823090077   1.474613986443587   1.672372533731445 
 -1.198868298484372   3.622510924577520   1.672832254948470 
 -2.460103335365985   5.784164395065744   1.667718501940080 
 -3.720310461565178   7.957713243498406   1.661657620824615 
 -4.971188685092368  10.133195194842543   1.653014417114445 
 -6.227244686166452  12.305973492553202   1.653907865042835 
 -4.970987376169898  14.496109029365197   1.664292014175945 
  2.563295554700098   1.506291100459842   1.672119825971340 
  1.306290116370870   3.648377076455041   1.656916467572970 
  0.028049968506664   5.787044465877990   1.634878482668145 
 -1.250232044970804   7.960755774866039   1.641343017100170 
 -2.502193392444734  10.140940733287490   1.655435549644065 
 -3.732061575970695  12.317495812283447   1.655680621495500 
 -2.475789395495965  14.493607737416877   1.657896107898435 
  5.050879008227784   1.504074762112118   1.668626817715170 
  3.833977160284169   3.734869471818286   1.672908959994570 
  2.535293133880308   5.815225078351376   1.631011796556660 
  1.208345508172953   7.960601060019723   1.616174184880200 
 -0.045708285949335  10.141765055450735   1.645867555341750 
 -1.237285680344886  12.317706527352806   1.659382017155265 
  0.029789761634287  14.472195916223866   1.655907012438795 
  7.555519981481567   1.468267525518210   1.657915441700445 
  6.321933358862941   3.660172795256798   1.679923162043895 
  5.159387285926386   5.969085510583612   1.654168484650860 
  2.405324352199357  10.079703603465090   1.700175598894950 
  1.273175489072340  12.294097726917517   1.669012620993435 
  2.523915988414576  14.489293476054067   1.653184610628465 
 10.064217102060915   1.447374630661740   1.649361676997895 
  8.844681080990771   3.586410662213416   1.656125389581480 
  7.650250578991140   5.704085716565227   1.683780967494600 
  6.371492050295781   7.698143798448306   1.677528929087595 
  3.749345167233017  12.366075872622870   1.660820651998905 
  5.053334752886556  14.482643233215862   1.642483737253605 
 12.572272700126508   1.450888252462368   1.656503270939895 
 11.337151927590677   3.601628255852671   1.650858925010985 
 10.109549288281523   5.752957658866772   1.651909200482970 
  8.862017964211065   7.901499895082947   1.655497778304165 
  7.602488900755880  10.019610917472752   1.634488278852675 
  6.325125737431008  12.352843905132664   1.634515749880350 
