 Al B N 
 1.0
 17.527899999999772   0.000000000000000   0.000000000000000
 -8.763949999999658  15.179606674993195   0.000000000000000
  0.000000000000001   0.000000000000002  15.000000000000000
 Al B N 
   2  49  47
Cartesian
  4.979906515027307   7.181862949522781  14.756596556366414 
  7.538816159476682   7.181862949522781  14.756596556366414 
  7.515038758811377  14.482595990830127   1.708063891629345 
 15.023935213582291   1.465533294757896   1.655397287391840 
 13.767671068443681   3.627496852285609   1.696037176948185 
 12.502092963655679   5.787559238076632   1.728872426926860 
 11.233809688842381   7.951275587714341   1.705275398351490 
 10.020247550687849  10.143428344219959   1.806727459896495 
  8.773858899229280  12.322081778690162   1.812960936864915 
 -7.507878891914396  14.465677724108643   1.709220492667815 
  0.003992266781737   1.459486615082198   1.692673177928190 
 -1.247730641261238   3.627496852285609   1.696037176948185 
 -2.503994786399830   5.788948888660567   1.719434430621945 
 -3.766633816452416   7.948738499326730   1.716384355602735 
 -5.013604441485615  10.114571794823622   1.712094481395795 
 -6.256680145963445  12.292885089712684   1.729671077648265 
 -5.007201486345256  14.442925901039686   1.722093821896110 
  2.503422405110708   1.432553264882611   1.787602251714270 
  1.261972086431115   3.617714871131929   1.762947624501435 
  0.017847463526827   5.787559238076632   1.728872426926860 
 -1.241355756364723   7.948738499326730   1.716384355602735 
 -2.503994786408582  10.111082119259050   1.676510960510490 
 -3.756806467020426  12.275991120390742   1.669189015248000 
 -2.503994786390972  14.433375522565658   1.729791467080590 
  5.005958375513508   1.407393733575276   1.847928728103960 
  3.755358912004291   3.570509324714604   1.801255548497550 
  2.543517070798329   5.771575555920702   1.629103580380545 
  1.286130738340050   7.951275587714341   1.705275398351490 
  0.002982584854245  10.114571794823622   1.712094481395795 
 -1.251183105779179  12.275991120390742   1.669189015248000 
 -0.000788086454301  14.442925901039686   1.722093821896110 
  7.513982051686362   1.407393733575276   1.847928728103960 
  6.259970213599913   3.534810565884990   1.753804695604935 
  4.984535804571440   5.515701424852938   1.026754082156685 
  3.778059659620487   8.048663270451501   1.435965499370100 
  2.499692876494735  10.143428344219959   1.806727459896495 
  1.248690573163858  12.292885089712684   1.729671077648265 
  2.499889319115004  14.465677724108657   1.709220492667815 
 10.016518022071722   1.432553264882611   1.787602251714255 
  8.764581515195600   3.570509324714589   1.801255548497550 
  7.535404622628624   5.515701424852938   1.026754082156685 
  6.259970213591386   8.279599345147597   1.096959968352540 
  4.993397401237464  10.192630513025154   1.840438310994300 
  3.746081527953537  12.322081778690148   1.812960936864915 
  5.004901668371373  14.482595990830127   1.708063891629345 
 12.515948160400692   1.459486615082198   1.692673177928190 
 11.257968340751221   3.617714871131929   1.762947624501435 
  9.976423356401618   5.771575555920702   1.629103580380545 
  8.741880767562087   8.048663270451501   1.435965499370100 
  7.526543025945261  10.192630513025154   1.840438310994300 
  6.259970213591344  12.334625443369852   1.847888369522205 
  8.765920605963807  13.756839675877258   1.730933745496440 
 16.277246806342326   0.743566322000772   1.658762314568670 
 15.023944786401016   2.909280147744203   1.665894959713395 
 13.763793599409757   5.071847927190356   1.718980754990190 
 12.495600543631632   7.232893981711887   1.725809645234130 
 11.255279171795838   9.398581741071895   1.745978501444415 
 10.017790523113154  11.584774116799871   1.807473022306635 
 -6.260738659879538  13.732994300798412   1.701659654377905 
  1.250448751906144   0.726179609171997   1.713944876238795 
  0.004762613447786   2.904338803384496   1.713928240667670 
 -1.243834026589722   5.071847927190356   1.718980754990190 
 -2.503985213581113   7.232577586794859   1.720012456447905 
 -3.761064857053423   9.392246098342168   1.694466564140175 
 -5.011220096933602  11.558742015449143   1.694031194592990 
 -3.757286362809134  13.717225353284970   1.689162725361750 
  3.751572636387429   0.700309297665355   1.793134018860225 
  2.498194266743534   2.872007438750383   1.834602115466355 
  1.276248843339953   5.069059109697275   1.736236487226480 
  0.024359029188644   7.232893981711887   1.725809645234130 
 -1.246905570126040   9.392246098342168   1.694466564140175 
 -2.503985213589734  11.554219601846043   1.653441890889045 
 -1.250684064370374  13.717225353284970   1.689162725361750 
  6.259979786401153   0.689527548175754   1.823117281075260 
  5.002118758040043   2.841366039233010   1.872260294495940 
  3.763597411534620   4.993819260843193   1.589158506077475 
  2.566199454624890   7.239311030022931   1.600446298160640 
  1.264680401006938   9.398581741071895   1.745978501444415 
  0.003249669753924  11.558742015449143   1.694031194592990 
  1.252768232699926  13.732994300798412   1.701659654377905 
  8.768386936414929   0.700309297665355   1.793134018860225 
  7.517840814762361   2.841366039233010   1.872260294495940 
  6.259979786401153   4.906991505381746   1.338080149914795 
  3.761848897286727   9.441636868387372   1.791426548772060 
  2.502169049689320  11.584774116799871   1.807473022306635 
  3.754038966838837  13.756839675877258   1.730933745496440 
 11.266006673831059   0.726179609171997   1.713944876238795 
 10.021765306058873   2.872007438750383   1.834602115466355 
  8.756362161267761   4.993819260843193   1.589158506077475 
  6.259979786392415   9.495324273739424   1.773826944639240 
  5.002936123641613  11.618514594653519   1.888169689331745 
  6.259979786410087  13.766958231250291   1.748396952435450 
 13.770642766459707   0.743566322000772   1.658762314568670 
 12.515196959371938   2.904338803384496   1.713928240667670 
 11.243710729480044   5.069059109697275   1.736236487226480 
  9.953760118195095   7.239311030022916   1.600446298160640 
  8.758110675515907   9.441636868387372   1.791426548772060 
  7.517023449160877  11.618514594653519   1.888169689331745 
