In B N                                  
   1.0000000000000000     
     8.7639499999999995  -15.1796066749929999    0.0000000000000000
     8.7639499999999995   15.1796066749929999    0.0000000000000000
     0.0000000000000000    0.0000000000000000   15.0000000000000000
   In   B    N 
     1    48    48
Selective dynamics
Direct
  0.4329127843893359  0.5021715948186781  0.1112451017470938   T   T   T
  0.9050731218510332  0.9526958109748886  0.1110031031536086   T   T   T
  0.9063027888938838  0.0962856553420501  0.1110403591302284   T   T   T
  0.9066608530081386  0.2390447733495714  0.1111015313550392   T   T   T
  0.9063027888938838  0.3814458272428307  0.1110403591302284   T   T   T
  0.9050731218510332  0.5238077161241624  0.1110031031536086   T   T   T
  0.9033370987417896  0.6660777389043524  0.1110513919199975   T   T   T
  0.9033370987417896  0.8086897650854559  0.1110513919199975   T   T   T
  0.0466469392067028  0.9513348042657114  0.1110020747526309   T   T   T
  0.0476844114137685  0.0946039892216194  0.1109984085608505   T   T   T
  0.0493091905685228  0.2389120394209570  0.1110289564814489   T   T   T
  0.0493091905685228  0.3818275563945632  0.1110289564814489   T   T   T
  0.0476844114137685  0.5245108274401469  0.1109984085608505   T   T   T
  0.0466469392067028  0.6667442517450072  0.1110020747526309   T   T   T
  0.0463009071496305  0.8088665119768260  0.1109912100728454   T   T   T
  0.1894547538615718  0.9512286980164188  0.1110148894916920   T   T   T
  0.1896710344862410  0.0931488335920618  0.1110474213269134   T   T   T
  0.1899708370008452  0.2358385704554957  0.1109952771920426   T   T   T
  0.1930422183206841  0.3822363117838476  0.1109997635213141   T   T   T
  0.1899708370008452  0.5255626717933621  0.1109952771920426   T   T   T
  0.1896710344862410  0.6679526061421698  0.1110474213269134   T   T   T
  0.1894547538615718  0.8096581726491668  0.1110148894916920   T   T   T
  0.3329246551341954  0.9521783859685984  0.1110380987602019   T   T   T
  0.3329513888688672  0.0922432534715101  0.1110714131686157   T   T   T
  0.3330011865625353  0.2317268373937841  0.1110421312404287   T   T   T
  0.3309298144407667  0.3679340350841066  0.1110790168737837   T   T   T
  0.3309298144407667  0.5344261846036616  0.1110790168737837   T   T   T
  0.3330011865625353  0.6727047544157567  0.1110421312404287   T   T   T
  0.3329513888688672  0.8121385406443502  0.1110714131686157   T   T   T
  0.4769006352215556  0.9542105791345800  0.1110117228137832   T   T   T
  0.4769006352215556  0.0941204613339797  0.1110117228137832   T   T   T
  0.4770450064884841  0.2338763939912802  0.1110179394571205   T   T   T
  0.4785502721025686  0.3739951649114978  0.1110383025446618   T   T   T
  0.4785502721025686  0.6759855124380781  0.1110383025446618   T   T   T
  0.4770450064884841  0.8145990177442081  0.1110179394571205   T   T   T
  0.6207167870946791  0.9547955030391683  0.1109894383108428   T   T   T
  0.6206766427844690  0.0960526682377346  0.1109807389869141   T   T   T
  0.6207167870946791  0.2373516893025084  0.1109894383108428   T   T   T
  0.6207136064094262  0.3790570170128130  0.1110101959592619   T   T   T
  0.6182659939698997  0.5205104886885499  0.1110392136254660   T   T   T
  0.6182659939698997  0.6691859105293414  0.1110392136254660   T   T   T
  0.6207136064094262  0.8130869946436354  0.1110101959592619   T   T   T
  0.7634882719690760  0.9542116205375724  0.1109996444108366   T   T   T
  0.7638148667756491  0.0966083963873334  0.1110319292576198   T   T   T
  0.7638148667756491  0.2386351640793138  0.1110319292576198   T   T   T
  0.7634882719690760  0.3807070566784981  0.1109996444108366   T   T   T
  0.7623564349977767  0.5229625140078871  0.1110477986266831   T   T   T
  0.7592430581491926  0.6653367316985969  0.1110919262242174   T   T   T
  0.7623564349977767  0.8108243262379048  0.1110477986266831   T   T   T
  0.9516962475781139  0.9041661059260077  0.1109994566457550   T   T   T
  0.9528825394513616  0.0477953339657601  0.1109878560378192   T   T   T
  0.9540497876198583  0.1914193523935755  0.1110571001627239   T   T   T
  0.9540497876198583  0.3340574173442812  0.1110571001627239   T   T   T
  0.9528825394513616  0.4765141876035960  0.1109878560378192   T   T   T
  0.9516962475781139  0.6189588353270898  0.1109994566457550   T   T   T
  0.9512914295538351  0.7613600616144187  0.1110180188997306   T   T   T
  0.0942371149548049  0.9038464890631900  0.1109740032892195   T   T   T
  0.0944969473068233  0.0462339695849036  0.1109947373588840   T   T   T
  0.0950827574167817  0.1894074575327142  0.1109746923950467   T   T   T
  0.0970177770323672  0.3342232353531847  0.1109981594210696   T   T   T
  0.0950827574167817  0.4771039935580699  0.1109746923950467   T   T   T
  0.0944969473068233  0.6196916713969213  0.1109947373588840   T   T   T
  0.0942371149548049  0.7618210311226161  0.1109740032892195   T   T   T
  0.2374825324188940  0.9044564688249391  0.1109936912984819   T   T   T
  0.2374481189246173  0.0456914530533393  0.1110465645047118   T   T   T
  0.2372841039713832  0.1873173424940843  0.1110194947782325   T   T   T
  0.2372392832387403  0.3304539798571654  0.1109927083429030   T   T   T
  0.2372392832387403  0.4782139970555600  0.1109927083429030   T   T   T
  0.2372841039713832  0.6213954551522948  0.1110194947782325   T   T   T
  0.2374481189246173  0.7631853595462803  0.1110465645047118   T   T   T
  0.3813871134090702  0.9065530451221799  0.1110323375082824   T   T   T
  0.3813871134090702  0.0462627619618891  0.1110323375082824   T   T   T
  0.3814115933135553  0.1856642274359658  0.1110401617664049   T   T   T
  0.3813570054626786  0.3241150077870866  0.1110065019417295   T   T   T
  0.3813570054626786  0.6286706913505850  0.1110065019417295   T   T   T
  0.3814115933135553  0.7671760595525959  0.1110401617664049   T   T   T
  0.5255032079720144  0.9088183156610858  0.1109800720806729   T   T   T
  0.5254008712887240  0.0484139267038655  0.1109707380776314   T   T   T
  0.5255032079720144  0.1881135859859310  0.1109800720806729   T   T   T
  0.5258974740172843  0.3272363040377920  0.1110073606078015   T   T   T
  0.5271598329272194  0.4655807100982240  0.1109900287160951   T   T   T
  0.5271598329272194  0.6330078165039791  0.1109900287160951   T   T   T
  0.5258974740172843  0.7700898636544931  0.1110073606078015   T   T   T
  0.6688182892701661  0.9081277804664299  0.1109758283945292   T   T   T
  0.6687968139363244  0.0495146927312731  0.1109793754018139   T   T   T
  0.6687968139363244  0.1907091033240564  0.1109793754018139   T   T   T
  0.6688182892701661  0.3321192024787571  0.1109758283945292   T   T   T
  0.6685507229917568  0.4744091143445255  0.1110188298575426   T   T   T
  0.6645350962430713  0.6179818949595346  0.1110461857682035   T   T   T
  0.6685507229917568  0.7655703023222276  0.1110188298575426   T   T   T
  0.8105710792944557  0.9062178940783000  0.1109967095232967   T   T   T
  0.8113910663289907  0.0492839478943701  0.1110063267106179   T   T   T
  0.8115959761917980  0.1915114791548986  0.1110529951362375   T   T   T
  0.8113910663289907  0.3335341005526198  0.1110063267106179   T   T   T
  0.8105710792944557  0.4757818788901595  0.1109967095232967   T   T   T
  0.8085774360976989  0.6184560046290749  0.1110672228819060   T   T   T
  0.8085774360976989  0.7615501251436444  0.1110672228819060   T   T   T

  0.00000000E+00  0.00000000E+00  0.00000000E+00
  0.00000000E+00  0.00000000E+00  0.00000000E+00
  0.00000000E+00  0.00000000E+00  0.00000000E+00
  0.00000000E+00  0.00000000E+00  0.00000000E+00
  0.00000000E+00  0.00000000E+00  0.00000000E+00
  0.00000000E+00  0.00000000E+00  0.00000000E+00
  0.00000000E+00  0.00000000E+00  0.00000000E+00
  0.00000000E+00  0.00000000E+00  0.00000000E+00
  0.00000000E+00  0.00000000E+00  0.00000000E+00
  0.00000000E+00  0.00000000E+00  0.00000000E+00
  0.00000000E+00  0.00000000E+00  0.00000000E+00
  0.00000000E+00  0.00000000E+00  0.00000000E+00
  0.00000000E+00  0.00000000E+00  0.00000000E+00
  0.00000000E+00  0.00000000E+00  0.00000000E+00
  0.00000000E+00  0.00000000E+00  0.00000000E+00
  0.00000000E+00  0.00000000E+00  0.00000000E+00
  0.00000000E+00  0.00000000E+00  0.00000000E+00
  0.00000000E+00  0.00000000E+00  0.00000000E+00
  0.00000000E+00  0.00000000E+00  0.00000000E+00
  0.00000000E+00  0.00000000E+00  0.00000000E+00
  0.00000000E+00  0.00000000E+00  0.00000000E+00
  0.00000000E+00  0.00000000E+00  0.00000000E+00
  0.00000000E+00  0.00000000E+00  0.00000000E+00
  0.00000000E+00  0.00000000E+00  0.00000000E+00
  0.00000000E+00  0.00000000E+00  0.00000000E+00
  0.00000000E+00  0.00000000E+00  0.00000000E+00
  0.00000000E+00  0.00000000E+00  0.00000000E+00
  0.00000000E+00  0.00000000E+00  0.00000000E+00
  0.00000000E+00  0.00000000E+00  0.00000000E+00
  0.00000000E+00  0.00000000E+00  0.00000000E+00
  0.00000000E+00  0.00000000E+00  0.00000000E+00
  0.00000000E+00  0.00000000E+00  0.00000000E+00
  0.00000000E+00  0.00000000E+00  0.00000000E+00
  0.00000000E+00  0.00000000E+00  0.00000000E+00
  0.00000000E+00  0.00000000E+00  0.00000000E+00
  0.00000000E+00  0.00000000E+00  0.00000000E+00
  0.00000000E+00  0.00000000E+00  0.00000000E+00
  0.00000000E+00  0.00000000E+00  0.00000000E+00
  0.00000000E+00  0.00000000E+00  0.00000000E+00
  0.00000000E+00  0.00000000E+00  0.00000000E+00
  0.00000000E+00  0.00000000E+00  0.00000000E+00
  0.00000000E+00  0.00000000E+00  0.00000000E+00
  0.00000000E+00  0.00000000E+00  0.00000000E+00
  0.00000000E+00  0.00000000E+00  0.00000000E+00
  0.00000000E+00  0.00000000E+00  0.00000000E+00
  0.00000000E+00  0.00000000E+00  0.00000000E+00
  0.00000000E+00  0.00000000E+00  0.00000000E+00
  0.00000000E+00  0.00000000E+00  0.00000000E+00
  0.00000000E+00  0.00000000E+00  0.00000000E+00
  0.00000000E+00  0.00000000E+00  0.00000000E+00
  0.00000000E+00  0.00000000E+00  0.00000000E+00
  0.00000000E+00  0.00000000E+00  0.00000000E+00
  0.00000000E+00  0.00000000E+00  0.00000000E+00
  0.00000000E+00  0.00000000E+00  0.00000000E+00
  0.00000000E+00  0.00000000E+00  0.00000000E+00
  0.00000000E+00  0.00000000E+00  0.00000000E+00
  0.00000000E+00  0.00000000E+00  0.00000000E+00
  0.00000000E+00  0.00000000E+00  0.00000000E+00
  0.00000000E+00  0.00000000E+00  0.00000000E+00
  0.00000000E+00  0.00000000E+00  0.00000000E+00
  0.00000000E+00  0.00000000E+00  0.00000000E+00
  0.00000000E+00  0.00000000E+00  0.00000000E+00
  0.00000000E+00  0.00000000E+00  0.00000000E+00
  0.00000000E+00  0.00000000E+00  0.00000000E+00
  0.00000000E+00  0.00000000E+00  0.00000000E+00
  0.00000000E+00  0.00000000E+00  0.00000000E+00
  0.00000000E+00  0.00000000E+00  0.00000000E+00
  0.00000000E+00  0.00000000E+00  0.00000000E+00
  0.00000000E+00  0.00000000E+00  0.00000000E+00
  0.00000000E+00  0.00000000E+00  0.00000000E+00
  0.00000000E+00  0.00000000E+00  0.00000000E+00
  0.00000000E+00  0.00000000E+00  0.00000000E+00
  0.00000000E+00  0.00000000E+00  0.00000000E+00
  0.00000000E+00  0.00000000E+00  0.00000000E+00
  0.00000000E+00  0.00000000E+00  0.00000000E+00
  0.00000000E+00  0.00000000E+00  0.00000000E+00
  0.00000000E+00  0.00000000E+00  0.00000000E+00
  0.00000000E+00  0.00000000E+00  0.00000000E+00
  0.00000000E+00  0.00000000E+00  0.00000000E+00
  0.00000000E+00  0.00000000E+00  0.00000000E+00
  0.00000000E+00  0.00000000E+00  0.00000000E+00
  0.00000000E+00  0.00000000E+00  0.00000000E+00
  0.00000000E+00  0.00000000E+00  0.00000000E+00
  0.00000000E+00  0.00000000E+00  0.00000000E+00
  0.00000000E+00  0.00000000E+00  0.00000000E+00
  0.00000000E+00  0.00000000E+00  0.00000000E+00
  0.00000000E+00  0.00000000E+00  0.00000000E+00
  0.00000000E+00  0.00000000E+00  0.00000000E+00
  0.00000000E+00  0.00000000E+00  0.00000000E+00
  0.00000000E+00  0.00000000E+00  0.00000000E+00
  0.00000000E+00  0.00000000E+00  0.00000000E+00
  0.00000000E+00  0.00000000E+00  0.00000000E+00
  0.00000000E+00  0.00000000E+00  0.00000000E+00
  0.00000000E+00  0.00000000E+00  0.00000000E+00
  0.00000000E+00  0.00000000E+00  0.00000000E+00
  0.00000000E+00  0.00000000E+00  0.00000000E+00
  0.00000000E+00  0.00000000E+00  0.00000000E+00
