 In N B 
 1.0
 17.527899999999772   0.000000000000000   0.000000000000000
 -8.763949999999658  15.179606674993195   0.000000000000000
  0.000000000000001   0.000000000000002  15.000000000000000
 In N B 
   1  48  48
Cartesian
  3.187045245086762   7.622767292701583   1.668676526206410 
  8.757170113894277  13.724885856817036   1.664991849686325 
 16.283153946140107   0.725514370500180   1.664817840567285 
 15.044899639012286   2.905670479316385   1.665856502440860 
 13.794826769687596   5.070860202150236   1.665856502440860 
 12.525883348800939   7.233297942876505   1.664817840567285 
 11.256712373059568   9.395551668277109   1.664991849686325 
 10.001619536091019  11.557146273355466   1.665270283495965 
 -6.269486710608730  13.720034198552764   1.664610049338285 
  1.251140844955637   0.701813473322441   1.664921060383260 
  0.006643576281827   2.875130706657076   1.664620385925705 
 -1.228597829427828   5.073377254305028   1.664972391316050 
 -2.514714480617493   7.242250965279990   1.664620385925705 
 -3.774613780839594   9.406675831574393   1.664921060383260 
 -5.024782698490485  11.564143609179061   1.664610049338285 
 -3.764041189972938  13.729293451415819   1.664905369477230 
  3.761529273711946   0.693578285758603   1.665698467570680 
  2.517452222248986   2.843403582465184   1.665292421673495 
  1.262224275911168   5.016161438417889   1.664890625143545 
 -0.032737126814655   7.259100381779755   1.664890625143545 
 -1.286786653181793   9.432538598840212   1.665292421673495 
 -2.526551448096619  11.584853578025793   1.665698467570680 
 -1.260070374675469  13.761118654972051   1.665485062624230 
  6.279470652426870   0.702250530280312   1.665485062624230 
  5.058192260403203   2.818309946094444   1.665602426496075 
  3.843859733553673   4.919938335670338   1.665097529125935 
  1.174748950587460   9.542973822797926   1.665097529125935 
 -0.038148360675138  11.645430834479564   1.665602426496075 
  1.246129401474881  13.795504570765093   1.664701081210095 
  8.784876698925183   0.734904364956621   1.664561071164465 
  7.562349617111209   2.855490245488945   1.664701081210095 
  6.349995728055537   4.967318385072170   1.665110409117030 
  5.159678771299711   7.067332054755073   1.664850430741425 
  3.692355982115052   9.608809676726667   1.664850430741425 
  2.468849274252902  11.689661234674341   1.665110409117030 
  3.764193630879930  13.785022518114975   1.664637425917935 
 11.288659383632115   0.751613560293869   1.664690631027210 
 10.051238628917543   2.894889177799807   1.664690631027210 
  8.812304007934801   5.041438862839956   1.664637425917935 
  7.560592459867527   7.201343758781761   1.665282447863145 
  6.231942285108367   9.380722097752702   1.665692786523060 
  5.008870366490436  11.621056071307050   1.665282447863145 
  6.265560507957904  13.756031193949239   1.664950642849455 
 13.790059416358890   0.748110944427396   1.665094900659270 
 12.547176083352518   2.907068927317525   1.665794927043555 
 11.298905290969717   5.062916459086402   1.665094900659270 
 10.037880223265866   7.222181784641862   1.664950642849455 
  8.752546940407903   9.387918896057130   1.666008343228590 
  7.498477222924297  11.560031362972360   1.666008343228590 
  7.514652719899461  14.461547691512481   1.665046547304135 
 15.041741984317978   1.461578376536277   1.665605386953420 
 13.796884324044262   3.628605637159383   1.666522970325585 
 12.542612495788227   5.790197625363579   1.665605386953420 
 11.273406538766343   7.951195104091270   1.665046547304135 
  9.996130333165448  10.110798091536875   1.665770878799955 
  8.746285666315611  12.275592556089867   1.665770878799955 
 -7.519827772122994  14.440888144985133   1.665031121289465 
  0.006702963480615   1.436051346269472   1.664976128412750 
 -1.229526606517212   3.626590788330597   1.665434347221735 
 -2.482031051497997   5.795992123743249   1.665434347221735 
 -3.760979071324506   7.961868057316659   1.664976128412750 
 -5.025010447611947  10.119737783328796   1.665031121289465 
 -6.277307997211039  12.278275504381892   1.664868151092675 
 -5.015776767770465  14.439277493855119   1.665223342375380 
  2.508183205212220   1.413962656161895   1.665711319903695 
  1.262912394323704   3.579936738307100   1.664929157880645 
  0.033724773845149   5.802196869778879   1.664996452819710 
 -1.276215143596188   7.977834640881776   1.664929157880645 
 -2.529368317228102  10.139257838774785   1.665711319903695 
 -3.775059761978185  12.290292602008087   1.665223342375380 
 -2.509373702982590  14.453693383433178   1.665571481403030 
  5.027523387692929   1.400216306119223   1.666071197529240 
  3.805969081372207   3.517522247677746   1.665631968606435 
  2.575949207761011   5.585093934919891   1.666185253106760 
  1.116820333979164   8.112379279100892   1.666185253106760 
 -0.058739334512362  10.211393580429082   1.665631968606435 
 -1.281602914325235  12.327943612584207   1.666071197529240 
 -0.003587160906372  14.484541276380392   1.665175842206745 
  7.534199626991901   1.428711583118722   1.665175842206745 
  6.311916146109591   3.550151671353372   1.665269091856815 
  5.110306388860515   5.677099501705755   1.665574538169930 
  2.463678082655046  10.261194196803745   1.665574538169930 
  1.222492107670316  12.365292687192879   1.665269091856815 
  2.512081723656893  14.493420191186841   1.664841574662645 
 10.037357345259688   1.458041723932429   1.664711084803710 
  8.799723435054050   3.602905287257261   1.664841574662645 
  7.557769277534321   5.753936425650706   1.665152939388930 
  6.275176618363029   7.901144488500684   1.665588204381990 
  4.972192655121480  10.157978914282584   1.665588204381990 
  3.753952255076828  12.342340771242679   1.665152939388930 
  5.019683150436663  14.484557084468202   1.664994666162555 
 12.541399447837989   1.466477458661549   1.665478938864300 
 11.296683957123902   3.622387929546451   1.665478938864300 
 10.045848472869199   5.778983378773941   1.664994666162555 
  8.779290032358119   7.938365268405343   1.665716979400245 
  7.476958549163376  10.099549893610179   1.666378893363255 
  6.256483503064952  12.307994354807763   1.665716979400245 
