In B N                                  
   1.0000000000000000     
     8.7639499999999995  -15.1796066749929999    0.0000000000000000
     8.7639499999999995   15.1796066749929999    0.0000000000000000
     0.0000000000000000    0.0000000000000000   15.0000000000000000
   In   B    N 
     1    48    48
Selective dynamics
Direct
  0.4977983899958192  0.5022030119211757  0.1111368462822188   T   T   T
  0.9065088866860591  0.9538079936761380  0.1109928734552839   T   T   T
  0.9044642059619055  0.0955378152340958  0.1110154735250852   T   T   T
  0.9038838112100688  0.2380822994074697  0.1110322435579573   T   T   T
  0.9042164272435519  0.3808750533582306  0.1109817690509657   T   T   T
  0.9057059495617557  0.5238930648995203  0.1110346206233871   T   T   T
  0.9070786637188298  0.6673171532992668  0.1110986465159522   T   T   T
  0.9083151195458701  0.8117202072239986  0.1110331503828775   T   T   T
  0.0483441387204544  0.9516578824755511  0.1110160644511853   T   T   T
  0.0461940275198593  0.0934931345099314  0.1109928734552839   T   T   T
  0.0455198644525190  0.2367248619404723  0.1109751583793048   T   T   T
  0.0461615375652279  0.3801640708367411  0.1109981825370403   T   T   T
  0.0477544698331191  0.5232908447288088  0.1109948549888096   T   T   T
  0.0490389153142550  0.6662008745914454  0.1110529603634822   T   T   T
  0.0491865165457463  0.8091157860038389  0.1110525010381507   T   T   T
  0.1908862351921624  0.9508155046502542  0.1110525010381507   T   T   T
  0.1882818139719996  0.0916869016501167  0.1110331503828775   T   T   T
  0.1853368786579120  0.2329839740645369  0.1109824425563581   T   T   T
  0.1869561824170067  0.3783181550943965  0.1110401085997549   T   T   T
  0.1897071470631809  0.5224390853177093  0.1110575207142431   T   T   T
  0.1917958020311419  0.6655871861638213  0.1110119701603549   T   T   T
  0.1916102777197545  0.8083917434762429  0.1109980732049018   T   T   T
  0.3338011466055505  0.9509631058817367  0.1110529603634822   T   T   T
  0.3326848678977442  0.0929233574771670  0.1110986465159522   T   T   T
  0.3273395113721951  0.2310772248952880  0.1109969279516582   T   T   T
  0.3231559949150814  0.3722771369479099  0.1110541154683725   T   T   T
  0.3313832340851665  0.5199637773782680  0.1111045959930389   T   T   T
  0.3352133330973890  0.6647886880996049  0.1110773723769116   T   T   T
  0.3344148350331805  0.8082062191648586  0.1110119701603549   T   T   T
  0.4767111764681810  0.9522475513628805  0.1109948549888096   T   T   T
  0.4761089562974749  0.0942960716342527  0.1110346206233871   T   T   T
  0.4752071680352651  0.2355994698006682  0.1110302791535704   T   T   T
  0.4639640545177197  0.3642659636675405  0.1111470172721859   T   T   T
  0.4800382438187297  0.6686187871118386  0.1111045959930389   T   T   T
  0.4775629358792914  0.8102948741328109  0.1110575207142431   T   T   T
  0.6198379503592615  0.9538404836307743  0.1109981825370403   T   T   T
  0.6191269678377845  0.0957855939524403  0.1109817690509657   T   T   T
  0.6190117053039628  0.2383805779929715  0.1109777967729937   T   T   T
  0.6186586339832774  0.3813433872127266  0.1109936643955567   T   T   T
  0.6357360575284700  0.5360379666792651  0.1111470172721859   T   T   T
  0.6277248842480907  0.6768460262819156  0.1110541154683725   T   T   T
  0.6216838661015985  0.8130458387789952  0.1110401085997549   T   T   T
  0.7632771592555521  0.9544821567434902  0.1109751583793048   T   T   T
  0.7619197217885395  0.0961182099859258  0.1110322435579573   T   T   T
  0.7615674559816655  0.2384345652143243  0.1110178360645212   T   T   T
  0.7616214432030276  0.3809903158920488  0.1109777967729937   T   T   T
  0.7644025513953339  0.5247948531617229  0.1110302791535704   T   T   T
  0.7689247963007190  0.6726625098248030  0.1109969279516582   T   T   T
  0.7670180471314718  0.8146651425380907  0.1109824425563581   T   T   T
  0.9542896872229513  0.9060759224321017  0.1109894107164271   T   T   T
  0.9520989382535693  0.0479024636644352  0.1109926545780127   T   T   T
  0.9509295193885444  0.1901479506197545  0.1109939525271502   T   T   T
  0.9512042004707583  0.3329945584748337  0.1109808982919095   T   T   T
  0.9526378527929138  0.4759868472707238  0.1109709616328440   T   T   T
  0.9540655994868843  0.6191025066646083  0.1110737207895710   T   T   T
  0.9546767250711911  0.7625969492694782  0.1110616906974434   T   T   T
  0.0960573455564252  0.9039440563615586  0.1110119416515476   T   T   T
  0.0939254794858946  0.0457117146950581  0.1109894107164271   T   T   T
  0.0913368789858977  0.1873906508560888  0.1109450650878294   T   T   T
  0.0921156987188973  0.3315257019774349  0.1109824617872066   T   T   T
  0.0943256788555888  0.4752888324659515  0.1109924764807159   T   T   T
  0.0963021035128106  0.6184549672225005  0.1109960655302957   T   T   T
  0.0965965975710416  0.7612938272193741  0.1110147587028151   T   T   T
  0.2387075746986320  0.9034048043469539  0.1110147587028151   T   T   T
  0.2374044526485275  0.0453246768468234  0.1110616906974434   T   T   T
  0.2330126095320134  0.1851078791999694  0.1109737728355844   T   T   T
  0.2294772656366892  0.3262763831925896  0.1110044913138257   T   T   T
  0.2350243646638791  0.4737740583564166  0.1110709364866511   T   T   T
  0.2390444082453832  0.6179344297585178  0.1110374434722392   T   T   T
  0.2391405715495478  0.7608608303684484  0.1109712364217794   T   T   T
  0.3815464346955088  0.9036992984051829  0.1109960655302957   T   T   T
  0.3808988952533809  0.0459358024311244  0.1110737207895710   T   T   T
  0.3792438925862135  0.1872057094826842  0.1110353363404456   T   T   T
  0.3702907817629346  0.3235027231199568  0.1109999497427260   T   T   T
  0.3664147558266427  0.4637102387946794  0.1110693952092597   T   T   T
  0.3827364773395630  0.6172649245784291  0.1110872221236478   T   T   T
  0.3820669721594760  0.7609569936726149  0.1110374434722392   T   T   T
  0.5247125694510364  0.9056757230624164  0.1109924764807159   T   T   T
  0.5240145546462749  0.0473635491250987  0.1109709616328440   T   T   T
  0.5236011402471014  0.1891914509195550  0.1109917166277854   T   T   T
  0.5231627064964700  0.3306797226277439  0.1110082807163302   T   T   T
  0.5362911631223161  0.6335866460913504  0.1110693952092597   T   T   T
  0.5262273435605639  0.7649770372541377  0.1110709364866511   T   T   T
  0.6684756999395574  0.9078857031991108  0.1109824617872066   T   T   T
  0.6670068434421661  0.0487972014472538  0.1109808982919095   T   T   T
  0.6665956423591770  0.1907876896385365  0.1109739239629623   T   T   T
  0.6666039694394668  0.3333974324775174  0.1109498111934572   T   T   T
  0.6693216792892549  0.4768386954205230  0.1110082807163302   T   T   T
  0.6764986787970333  0.6297106201550660  0.1109999497427260   T   T   T
  0.6737250187244083  0.7705241362813128  0.1110044913138257   T   T   T
  0.8126107510619093  0.9086645229321103  0.1109450650878294   T   T   T
  0.8098534512982517  0.0490718825294712  0.1109939525271502   T   T   T
  0.8090648422631285  0.1909365596548568  0.1110347610775655   T   T   T
  0.8092137122794640  0.3334057595578206  0.1109739239629623   T   T   T
  0.8108099509984510  0.4764002616698937  0.1109917166277854   T   T   T
  0.8127956924353180  0.6207575093317819  0.1110353363404456   T   T   T
  0.8148935227180302  0.7669887923860023  0.1109737728355844   T   T   T

  0.00000000E+00  0.00000000E+00  0.00000000E+00
  0.00000000E+00  0.00000000E+00  0.00000000E+00
  0.00000000E+00  0.00000000E+00  0.00000000E+00
  0.00000000E+00  0.00000000E+00  0.00000000E+00
  0.00000000E+00  0.00000000E+00  0.00000000E+00
  0.00000000E+00  0.00000000E+00  0.00000000E+00
  0.00000000E+00  0.00000000E+00  0.00000000E+00
  0.00000000E+00  0.00000000E+00  0.00000000E+00
  0.00000000E+00  0.00000000E+00  0.00000000E+00
  0.00000000E+00  0.00000000E+00  0.00000000E+00
  0.00000000E+00  0.00000000E+00  0.00000000E+00
  0.00000000E+00  0.00000000E+00  0.00000000E+00
  0.00000000E+00  0.00000000E+00  0.00000000E+00
  0.00000000E+00  0.00000000E+00  0.00000000E+00
  0.00000000E+00  0.00000000E+00  0.00000000E+00
  0.00000000E+00  0.00000000E+00  0.00000000E+00
  0.00000000E+00  0.00000000E+00  0.00000000E+00
  0.00000000E+00  0.00000000E+00  0.00000000E+00
  0.00000000E+00  0.00000000E+00  0.00000000E+00
  0.00000000E+00  0.00000000E+00  0.00000000E+00
  0.00000000E+00  0.00000000E+00  0.00000000E+00
  0.00000000E+00  0.00000000E+00  0.00000000E+00
  0.00000000E+00  0.00000000E+00  0.00000000E+00
  0.00000000E+00  0.00000000E+00  0.00000000E+00
  0.00000000E+00  0.00000000E+00  0.00000000E+00
  0.00000000E+00  0.00000000E+00  0.00000000E+00
  0.00000000E+00  0.00000000E+00  0.00000000E+00
  0.00000000E+00  0.00000000E+00  0.00000000E+00
  0.00000000E+00  0.00000000E+00  0.00000000E+00
  0.00000000E+00  0.00000000E+00  0.00000000E+00
  0.00000000E+00  0.00000000E+00  0.00000000E+00
  0.00000000E+00  0.00000000E+00  0.00000000E+00
  0.00000000E+00  0.00000000E+00  0.00000000E+00
  0.00000000E+00  0.00000000E+00  0.00000000E+00
  0.00000000E+00  0.00000000E+00  0.00000000E+00
  0.00000000E+00  0.00000000E+00  0.00000000E+00
  0.00000000E+00  0.00000000E+00  0.00000000E+00
  0.00000000E+00  0.00000000E+00  0.00000000E+00
  0.00000000E+00  0.00000000E+00  0.00000000E+00
  0.00000000E+00  0.00000000E+00  0.00000000E+00
  0.00000000E+00  0.00000000E+00  0.00000000E+00
  0.00000000E+00  0.00000000E+00  0.00000000E+00
  0.00000000E+00  0.00000000E+00  0.00000000E+00
  0.00000000E+00  0.00000000E+00  0.00000000E+00
  0.00000000E+00  0.00000000E+00  0.00000000E+00
  0.00000000E+00  0.00000000E+00  0.00000000E+00
  0.00000000E+00  0.00000000E+00  0.00000000E+00
  0.00000000E+00  0.00000000E+00  0.00000000E+00
  0.00000000E+00  0.00000000E+00  0.00000000E+00
  0.00000000E+00  0.00000000E+00  0.00000000E+00
  0.00000000E+00  0.00000000E+00  0.00000000E+00
  0.00000000E+00  0.00000000E+00  0.00000000E+00
  0.00000000E+00  0.00000000E+00  0.00000000E+00
  0.00000000E+00  0.00000000E+00  0.00000000E+00
  0.00000000E+00  0.00000000E+00  0.00000000E+00
  0.00000000E+00  0.00000000E+00  0.00000000E+00
  0.00000000E+00  0.00000000E+00  0.00000000E+00
  0.00000000E+00  0.00000000E+00  0.00000000E+00
  0.00000000E+00  0.00000000E+00  0.00000000E+00
  0.00000000E+00  0.00000000E+00  0.00000000E+00
  0.00000000E+00  0.00000000E+00  0.00000000E+00
  0.00000000E+00  0.00000000E+00  0.00000000E+00
  0.00000000E+00  0.00000000E+00  0.00000000E+00
  0.00000000E+00  0.00000000E+00  0.00000000E+00
  0.00000000E+00  0.00000000E+00  0.00000000E+00
  0.00000000E+00  0.00000000E+00  0.00000000E+00
  0.00000000E+00  0.00000000E+00  0.00000000E+00
  0.00000000E+00  0.00000000E+00  0.00000000E+00
  0.00000000E+00  0.00000000E+00  0.00000000E+00
  0.00000000E+00  0.00000000E+00  0.00000000E+00
  0.00000000E+00  0.00000000E+00  0.00000000E+00
  0.00000000E+00  0.00000000E+00  0.00000000E+00
  0.00000000E+00  0.00000000E+00  0.00000000E+00
  0.00000000E+00  0.00000000E+00  0.00000000E+00
  0.00000000E+00  0.00000000E+00  0.00000000E+00
  0.00000000E+00  0.00000000E+00  0.00000000E+00
  0.00000000E+00  0.00000000E+00  0.00000000E+00
  0.00000000E+00  0.00000000E+00  0.00000000E+00
  0.00000000E+00  0.00000000E+00  0.00000000E+00
  0.00000000E+00  0.00000000E+00  0.00000000E+00
  0.00000000E+00  0.00000000E+00  0.00000000E+00
  0.00000000E+00  0.00000000E+00  0.00000000E+00
  0.00000000E+00  0.00000000E+00  0.00000000E+00
  0.00000000E+00  0.00000000E+00  0.00000000E+00
  0.00000000E+00  0.00000000E+00  0.00000000E+00
  0.00000000E+00  0.00000000E+00  0.00000000E+00
  0.00000000E+00  0.00000000E+00  0.00000000E+00
  0.00000000E+00  0.00000000E+00  0.00000000E+00
  0.00000000E+00  0.00000000E+00  0.00000000E+00
  0.00000000E+00  0.00000000E+00  0.00000000E+00
  0.00000000E+00  0.00000000E+00  0.00000000E+00
  0.00000000E+00  0.00000000E+00  0.00000000E+00
  0.00000000E+00  0.00000000E+00  0.00000000E+00
  0.00000000E+00  0.00000000E+00  0.00000000E+00
  0.00000000E+00  0.00000000E+00  0.00000000E+00
  0.00000000E+00  0.00000000E+00  0.00000000E+00
  0.00000000E+00  0.00000000E+00  0.00000000E+00
