 O C B N 
 1.0
 17.527899999999772   0.000000000000000   0.000000000000000
 -8.763949999999658  15.179606674993195   0.000000000000000
  0.000000000000001   0.000000000000002  15.000000000000000
 O C B N 
   1   1  49  47
Cartesian
  5.015131091750969   7.211369184013730   1.628073647221215 
  2.507820224458287   7.226634234137009   1.607134222975305 
  7.512840501282934  14.455957020438669   1.648652287205220 
 15.023284943175875   1.443454534607154   1.667871759392070 
 13.769725145212277   3.614013217244846   1.667618373009975 
 12.517405090428882   5.782520239597531   1.647973588113810 
 11.264000793245325   7.950990585130838   1.635495651261465 
 10.011306119750078  10.119737783328796   1.658512889665380 
  8.764975712028269  12.287270496744650   1.636902962834550 
 -7.512568584323616  14.451855209801938   1.660801965191670 
 -0.003390819346767   1.435529588149103   1.668064637267565 
 -1.254764571140119   3.609822250520790   1.667858385732225 
 -2.510405334275171   5.783500669328050   1.668519398092560 
 -3.768256053979848   7.953343492296348   1.660664086143555 
 -5.014120200801822  10.119737783328796   1.657749076876530 
 -6.262163358884681  12.286165578836286   1.657837051345515 
 -5.009015709693251  14.452581111214386   1.667309769055380 
  2.503973837588196   1.434020229764221   1.668134190832170 
  1.242154051521673   3.588950778110112   1.661819104925130 
 -0.006770121131556   5.781052076770051   1.662587298727605 
 -1.277973503330059   7.957536325994339   1.674010926311100 
 -2.514764785489413  10.124499698114308   1.669119961383825 
 -3.760994498152886  12.288927238250160   1.666057996289430 
 -2.504125292159060  14.457010017866958   1.666958430393720 
  5.012862180590956   1.437205795204711   1.665486464568825 
  3.763320725924134   3.586840212193681   1.649659316311170 
  2.496760246268890   5.714807231206119   1.622333118396150 
  1.192404792745611   7.986767455765730   1.646369405231085 
 -0.016475559550494  10.139115388906653   1.671712101216630 
 -1.256146970555165  12.295448158104406   1.668245646314790 
  0.000127474604367  14.458823941801496   1.666825259993190 
  7.511771759450808   1.448835363075972   1.661095023969720 
  6.260884147733269   3.618533646856533   1.664756112690075 
  5.007601313577554   5.759530200482330   1.644973343607210 
  3.800117549228653   7.991251992473929   1.636191257612670 
  2.508066055997671  10.119737783328796   1.665531416602380 
  1.252468304448576  12.289005207039786   1.663134314466870 
  2.505341576974683  14.457013238814142   1.661508354881880 
 10.015766971537598   1.447136662903389   1.661428053529950 
  8.764961876957063   3.619476096190718   1.639932983276325 
  7.527542830635259   5.805296889731537   1.689017623796595 
  6.314634178243949   7.975218080750095   2.137429634625630 
  5.052992480565091  10.137787125204376   1.688266452407115 
  3.764838395876811  12.289486962207054   1.640069090847975 
  5.009579519520019  14.457375444708049   1.649123630744325 
 12.519585797030901   1.446294725252044   1.670158443036225 
 11.267217972336494   3.614861001533897   1.649558113039590 
 10.017798187086758   5.784914398242161   1.630056095869575 
  8.763227071016519   7.947738306523012   1.689923136943395 
  7.513175416837796  10.119737783328796   1.688175583234725 
  6.270139385039733  12.295239965825491   1.630575651656715 
  8.764373123741176  13.734199695263218   1.645112174970750 
 16.274412996949113   0.720382982039048   1.664188174008795 
 15.022326778999162   2.890465466171348   1.669411308906585 
 13.769926526405563   5.059868891664398   1.663199966924460 
 12.515677591629963   7.227075960429980   1.643389542397785 
 11.267429267459086   9.396679203406102   1.645453265330265 
 10.016709079282077  11.566193814435772   1.645786995499455 
 -6.259404223702093  13.732983160156936   1.663518550816140 
  1.251356577781530   0.718338131682332   1.669685063426865 
 -0.006632953725537   2.878482381558227   1.667832328347750 
 -1.253718467321205   5.059868891664398   1.668164216532840 
 -2.518657994886453   7.229341162638839   1.671529985425200 
 -3.761882830587215   9.398693456705583   1.663651734325290 
 -5.009380849037779  11.565864983209842   1.663267295305680 
 -3.756486180858302  13.734499535040010   1.666687423593720 
  3.757856522377809   0.719085621335061   1.668262947738360 
  2.504994430060442   2.880704475094740   1.659570020479215 
  1.241231695604262   5.028807723043990   1.650773880039675 
 -0.030090331860674   7.235551630396051   1.665792472685250 
 -1.261996201749327   9.403698606489211   1.673365399349445 
 -2.508122866128434  11.569485793653103   1.667467131614775 
 -1.253285633573618  13.738057885222359   1.665773942171025 
  6.262351493296991   0.722325430616124   1.666380010397295 
  5.014348009383068   2.883160072556610   1.658266736177325 
  3.766280527978267   5.036172186300900   1.627395983978565 
  1.233473132518520   9.420342453991246   1.664680252455810 
 -0.006046329883451  11.577819886296266   1.669578181610775 
  1.252978666062499  13.733718431214696   1.664626277802135 
  8.762914752878242   0.725067949181929   1.664226805219305 
  7.509586892967690   2.896551321899118   1.654137889130850 
  6.254452385254193   5.076039374176660   1.680684276435630 
  3.793121757218535   9.403283407052562   1.678058372799660 
  2.508535440808250  11.559875257721737   1.655120827098945 
  3.755953738952136  13.733972859914504   1.646274169248210 
 11.268110222336423   0.722536156284521   1.668850361417895 
 10.015505726419102   2.892110785002599   1.646688031850985 
  8.763949999999962   5.059868891664398   1.628995995897915 
  7.527461974632940   7.224170039478025   1.776283686988845 
  6.268738344839689   9.407466713442574   1.771351257717180 
  5.018695565125038  11.577891784042340   1.629585132609915 
  6.261879837804452  13.739625237960698   1.635996463658865 
 13.771147764994414   0.723306879380173   1.666695691834995 
 12.519179852379807   2.891174860293447   1.666944510616650 
 11.268063701503246   5.059868891664398   1.636369034700345 
 10.018695741265660   7.226827326666398   1.628851311588000 
  8.768500156357701   9.397714407412307   1.694283957343575 
  7.515914475938530  11.569488617930114   1.629927672413115 
