 S N B 
 1.0
 17.527899999999772   0.000000000000000   0.000000000000000
 -8.763949999999658  15.179606674993195   0.000000000000000
  0.000000000000001   0.000000000000002  15.000000000000000
 S N B 
   1  49  48
Cartesian
  3.755980213596274   7.951242049921758   1.666101193031070 
  8.768964856788745  13.737318024494440   1.664859067903605 
 16.274431633778647   0.723704485701095   1.664425600949310 
 15.014663062658569   2.886128328080271   1.664748087542655 
 13.762784482095681   5.054445634522476   1.664748087542655 
 12.519954786406270   7.226649141191297   1.664425600949310 
 11.273376317539455   9.399550131416273   1.664859067903605 
 10.022187509495620  11.569021198337307   1.665005865869880 
 -6.258028671711013  13.732826508580231   1.664387638961910 
  1.251578325655393   0.716822612437983   1.664859067903605 
 -0.018908857929197   2.868113429088902   1.664653123877760 
 -1.280702369706660   5.043294683948982   1.664656445029590 
 -2.533567838362450   7.223630546908799   1.664653123877760 
 -3.761396744726722   9.399550131416273   1.664859067903605 
 -5.007975213584762  11.567670406928315   1.664387638961910 
 -3.757921755458342  13.732826508580231   1.664387638961910 
  3.755989786406237   0.715648371674239   1.665005865869880 
  2.499504054493018   2.876934179281472   1.665257442907725 
  1.199334127875883   5.002388502672176   1.665772327472835 
 -0.076109913072873   7.211522383806456   1.665772327472835 
 -1.266722388412837   9.400229731204044   1.665257442907725 
 -2.510207936682838  11.569021198337307   1.665005865869880 
 -1.256985283975882  13.737318024494440   1.664859067903605 
  6.260401247156941   0.716822612437983   1.664859067903605 
  5.012475518319502   2.876934179281472   1.665257442907725 
  3.755989786406311   5.045996150882036   1.665559293953220 
  2.278543677976182   7.098226347690773   1.666555622066745 
  1.239983247332626   9.403847308733338   1.665559293953220 
 -0.010236656499615  11.576526857863257   1.665257442907725 
  1.241330805964260  13.761946792335848   1.664653123877760 
  8.765477939015959   0.723704485701095   1.664425600949310 
  7.530888430741593   2.868113429088902   1.664653123877760 
  6.312645444936676   5.002388502672191   1.665772327472835 
  5.233435894836413   7.098226347690773   1.666555622066745 
  3.755989786397580   9.657238072951836   1.666555622066745 
  2.480545745448821  11.639779881854871   1.665772327472835 
  3.755989786397466  13.767101400435537   1.664656445029590 
 11.268076205825514   0.733484149990740   1.664748087542655 
 10.025246510136085   2.886128328080271   1.664748087542655 
  8.792681942519071   5.043294683948982   1.664656445029590 
  7.588089485885454   7.211522383806456   1.665772327472835 
  6.271996325462474   9.403847308733338   1.665559293953220 
  5.031433827346311  11.639779881854871   1.665772327472835 
  6.270648766848446  13.761946792335848   1.664653123877760 
 13.771833366968934   0.733484149990740   1.664748087542655 
 12.519954786406029   2.891352704197829   1.665151687102110 
 11.277125090716618   5.054445634522476   1.664748087542655 
 10.045547411192526   7.223630546908799   1.664653123877760 
  8.778701961225487   9.400229731204044   1.665257442907725 
  7.522216229312223  11.576526857863257   1.665257442907725 
  7.521439509317998  14.467206422422256   1.665124062201720 
 15.022893555368176   1.446286599103322   1.665176574462510 
 13.767153921771619   3.611440781404177   1.665559004947005 
 12.519945213587377   5.781520295788088   1.665176574462510 
 11.281700538196780   7.954243270682759   1.665124062201720 
 10.025282321162749  10.125113124270834   1.665704100324600 
  8.773258842318013  12.293681401899127   1.665704100324600 
 -7.508140007160538  14.454584891550033   1.665243230865345 
 -0.004280815291379   1.432276456645081   1.665124062201720 
 -1.266300307442412   3.600423680856017   1.665042494330655 
 -2.523079281777175   5.777228718288204   1.665042494330655 
 -3.769740111021708   7.954243270682759   1.665124062201720 
 -5.007984786403453  10.124189022390031   1.665243230865345 
 -6.256570101223805  12.290248534212354   1.664921813139975 
 -5.007984786403495  14.452861737065600   1.664921813139975 
  2.503956734742742   1.434931623580118   1.665704100324600 
  1.228873519946813   3.572800254403906   1.665645404191860 
 -0.039375032929984   5.759992676659414   1.665820411962030 
 -1.299414957138419   7.951924352906620   1.665645404191860 
 -2.513321893987576  10.125113124270834   1.665704100324600 
 -3.759399471583177  12.290248534212354   1.664921813139975 
 -2.507829565628781  14.454584891550033   1.665243230865345 
  5.008003692449767   1.434931623580118   1.665704100324600 
  3.755980213604991   3.598347165225246   1.665785574337935 
  2.443753995157955   5.699473756308200   1.666336537618320 
  1.149778558680269   7.940704956033745   1.666336537618320 
 -0.013737336540995  10.127689492262395   1.665785574337935 
 -1.261298415125285  12.293681401899127   1.665704100324600 
 -0.009479082125241  14.467206422422256   1.665124062201720 
  7.516241242483871   1.432276456645081   1.665124062201720 
  6.283086907245655   3.572800254403906   1.665645404191860 
  5.068206432052140   5.699473756308200   1.666336537618320 
  2.462004777127395  10.213547437408105   1.666336537618320 
  1.227691736519803  12.329001542439721   1.665645404191860 
  2.499201239261613  14.476073750590725   1.665042494330655 
 10.016996871806535   1.446286599103322   1.665176574462510 
  8.778260734634902   3.600423680856017   1.665042494330655 
  7.551335460122607   5.759992676659414   1.665820411962030 
  6.362181868512367   7.940704956033745   1.666336537618320 
  5.049955650065308  10.213547437408105   1.666336537618320 
  3.755980213596400  12.333740796416132   1.665820411962030 
  5.012759187931309  14.476073750590725   1.665042494330655 
 12.519945213587331   1.451211931186499   1.665559004947005 
 11.272736505403001   3.611440781404177   1.665559004947005 
 10.035039708969833   5.777228718288204   1.665042494330655 
  8.811375384313456   7.951924352906620   1.665645404191860 
  7.525697763733783  10.127689492262395   1.665785574337935 
  6.284268690672855  12.329001542439691   1.665645404191860 
