B C N                                   
   1.0000000000000000     
     8.7639499999999995  -15.1796066749929999    0.0000000000000000
     8.7639499999999995   15.1796066749929999    0.0000000000000000
     0.0000000000000000    0.0000000000000000   15.0000000000000000
   B    C    N 
    46     2    48
Selective dynamics
Direct
  0.9049166901759635  0.9521344317477877  0.1110560102761364   T   T   T
  0.9051669843457048  0.0949413478470342  0.1111326818499816   T   T   T
  0.9050393929622622  0.2375908733743436  0.1111044993773619   T   T   T
  0.9048644561460533  0.3804774175557502  0.1110344686779932   T   T   T
  0.9048684353006856  0.5235504274171446  0.1111265025992075   T   T   T
  0.9053275309824154  0.6668067484228904  0.1112242100838725   T   T   T
  0.9052611685184940  0.8098047820005060  0.1111002028977875   T   T   T
  0.0484915891046162  0.9533763329785129  0.1109968973684423   T   T   T
  0.0486293060089284  0.0959684027694706  0.1109922016227172   T   T   T
  0.0483394522520955  0.2382375129248099  0.1109926353024276   T   T   T
  0.0475772284443501  0.3808311685060310  0.1110144274112490   T   T   T
  0.0471017319609640  0.5236877078518581  0.1110778368346875   T   T   T
  0.0473597137761997  0.6668461815188704  0.1111615916794529   T   T   T
  0.0477974859073916  0.8100365250876997  0.1110537918873984   T   T   T
  0.1906970305681025  0.9530760516836072  0.1110335644615361   T   T   T
  0.1924034988995727  0.0972758668912003  0.1110427236987865   T   T   T
  0.1925327689317879  0.2397821616949471  0.1109425096201054   T   T   T
  0.1908095463359239  0.3818157700199318  0.1109156692000447   T   T   T
  0.1894305388274088  0.5242146118611190  0.1109909084563484   T   T   T
  0.1893936986582562  0.6669650989377842  0.1111207872682818   T   T   T
  0.1900162191266239  0.8099979762559011  0.1110477145416031   T   T   T
  0.3330990981534871  0.9526551562297012  0.1110634188803870   T   T   T
  0.3335914658378983  0.0953965847950335  0.1111446197446585   T   T   T
  0.3382722724203815  0.2417292914456406  0.1109903434123110   T   T   T
  0.3358065816826919  0.3832098085096824  0.1106854527726465   T   T   T
  0.3322855190880816  0.5287394799473989  0.1108028062697437   T   T   T
  0.3322220447871395  0.6669390099495675  0.1111927923863635   T   T   T
  0.3321895577841093  0.8099725490705888  0.1110936568829681   T   T   T
  0.4756664288675513  0.9522892240507245  0.1109792266412486   T   T   T
  0.4762320999529521  0.0944875815546093  0.1111115144396908   T   T   T
  0.4754718926821398  0.2359909930772941  0.1109825905476162   T   T   T
  0.4731183906022205  0.8091675387572563  0.1108824058466424   T   T   T
  0.6187285747638127  0.9516557034277924  0.1110057850694194   T   T   T
  0.6192034927367864  0.0945275355249455  0.1110113293764446   T   T   T
  0.6194588673101521  0.2372048180182232  0.1109863467275626   T   T   T
  0.6201213873301510  0.3809565033567088  0.1108653823361861   T   T   T
  0.6199810033228909  0.5223910100735043  0.1110166623241409   T   T   T
  0.6186595959876200  0.6640384474716856  0.1111154479665357   T   T   T
  0.6189896203118109  0.8080712706962100  0.1108965328714454   T   T   T
  0.7619838025400038  0.9516949293494955  0.1111101124624176   T   T   T
  0.7620218417537401  0.0945023809814787  0.1111422815020617   T   T   T
  0.7621835910776975  0.2373357427274266  0.1110072550068503   T   T   T
  0.7623711042926479  0.3803372875721740  0.1109616912938592   T   T   T
  0.7627887011819169  0.5236285381658337  0.1111260062422342   T   T   T
  0.7630112937919981  0.6664382535237896  0.1111862017758591   T   T   T
  0.7613331044163275  0.8081757342744708  0.1111222274388282   T   T   T
  0.4692403443639968  0.5235512145888839  0.1107444817021093   T   T   T
  0.5171698203356886  0.4767330035078286  0.1108608329746002   T   T   T
  0.9528326200736874  0.9049765061761846  0.1110018209645293   T   T   T
  0.9528773636933089  0.0474749713676325  0.1110569546687526   T   T   T
  0.9528598197469210  0.1901679416755323  0.1110778242781997   T   T   T
  0.9523464700744591  0.3328154935617614  0.1110412566913554   T   T   T
  0.9519800121528953  0.4757507657336023  0.1110661476837689   T   T   T
  0.9521786352149418  0.6188767563783075  0.1112076751925682   T   T   T
  0.9524345719481618  0.7619923879947966  0.1111199508366899   T   T   T
  0.0954233700649653  0.9052841420712937  0.1109828562771872   T   T   T
  0.0965635230004292  0.0488298998111954  0.1109844087114861   T   T   T
  0.0965898207606014  0.1912903416326540  0.1109196771539182   T   T   T
  0.0955235983681186  0.3334204802196306  0.1109760878910098   T   T   T
  0.0942743479727633  0.4759149439486217  0.1109913769457626   T   T   T
  0.0942524663874702  0.6189664719091530  0.1111119622874361   T   T   T
  0.0947907957579086  0.7621367141298679  0.1110715664622320   T   T   T
  0.2378606500974247  0.9052262515267817  0.1110123646731608   T   T   T
  0.2385411738610236  0.0482920479753205  0.1110823277381862   T   T   T
  0.2409058034941956  0.1931453162939857  0.1109915433010370   T   T   T
  0.2397979330180963  0.3352119004392285  0.1108263134082696   T   T   T
  0.2368836688895060  0.4765455454049637  0.1108131150433359   T   T   T
  0.2360747905038584  0.6192153488302419  0.1111197450206298   T   T   T
  0.2370260800777039  0.7622828248558287  0.1110732483937634   T   T   T
  0.3805156247198446  0.9051666247369948  0.1109887916663000   T   T   T
  0.3810768163243516  0.0476720936889650  0.1111412398113745   T   T   T
  0.3813991615767856  0.1901707124361988  0.1110543794765552   T   T   T
  0.3824081817108323  0.3369050904378484  0.1115026113108468   T   T   T
  0.3811078441620019  0.4801978632280227  0.1104238518681146   T   T   T
  0.3753566306636034  0.6187687298712324  0.1112751468062862   T   T   T
  0.3790198670540638  0.7624969833211515  0.1111310075416174   T   T   T
  0.5235625985599609  0.9051498756842346  0.1109357467736253   T   T   T
  0.5240270068002926  0.0472646876792743  0.1109888866736683   T   T   T
  0.5244865824604921  0.1893139424423951  0.1111122095454343   T   T   T
  0.5280950628462381  0.3279276560698575  0.1104953577326400   T   T   T
  0.5227715053045114  0.6085822510234220  0.1108859078273937   T   T   T
  0.5274840213508724  0.7714239270191747  0.1103755860728116   T   T   T
  0.6668198574968476  0.9041567872937110  0.1109941497005816   T   T   T
  0.6668235702247167  0.0469107384597391  0.1110486829488496   T   T   T
  0.6671009398394293  0.1897219638931139  0.1109522465606621   T   T   T
  0.6673835859267766  0.3325541152163937  0.1108978771750049   T   T   T
  0.6672531891488060  0.4760670604632778  0.1109936613361686   T   T   T
  0.6670994360582670  0.6174105261864073  0.1111201826141335   T   T   T
  0.6649853689704497  0.7586281921230861  0.1111218320229904   T   T   T
  0.8091162768396888  0.9034878959154485  0.1110720187132925   T   T   T
  0.8097364444078458  0.0469053478090843  0.1111786256275859   T   T   T
  0.8097854271796117  0.1897559154665897  0.1110955315545547   T   T   T
  0.8096977722564345  0.3326640047305137  0.1109721898060653   T   T   T
  0.8096777549964299  0.4757673690317680  0.1110472778538340   T   T   T
  0.8099337622530481  0.6187150988228334  0.1112097285137997   T   T   T
  0.8095321858966835  0.7613282608108384  0.1111224674143515   T   T   T

  0.00000000E+00  0.00000000E+00  0.00000000E+00
  0.00000000E+00  0.00000000E+00  0.00000000E+00
  0.00000000E+00  0.00000000E+00  0.00000000E+00
  0.00000000E+00  0.00000000E+00  0.00000000E+00
  0.00000000E+00  0.00000000E+00  0.00000000E+00
  0.00000000E+00  0.00000000E+00  0.00000000E+00
  0.00000000E+00  0.00000000E+00  0.00000000E+00
  0.00000000E+00  0.00000000E+00  0.00000000E+00
  0.00000000E+00  0.00000000E+00  0.00000000E+00
  0.00000000E+00  0.00000000E+00  0.00000000E+00
  0.00000000E+00  0.00000000E+00  0.00000000E+00
  0.00000000E+00  0.00000000E+00  0.00000000E+00
  0.00000000E+00  0.00000000E+00  0.00000000E+00
  0.00000000E+00  0.00000000E+00  0.00000000E+00
  0.00000000E+00  0.00000000E+00  0.00000000E+00
  0.00000000E+00  0.00000000E+00  0.00000000E+00
  0.00000000E+00  0.00000000E+00  0.00000000E+00
  0.00000000E+00  0.00000000E+00  0.00000000E+00
  0.00000000E+00  0.00000000E+00  0.00000000E+00
  0.00000000E+00  0.00000000E+00  0.00000000E+00
  0.00000000E+00  0.00000000E+00  0.00000000E+00
  0.00000000E+00  0.00000000E+00  0.00000000E+00
  0.00000000E+00  0.00000000E+00  0.00000000E+00
  0.00000000E+00  0.00000000E+00  0.00000000E+00
  0.00000000E+00  0.00000000E+00  0.00000000E+00
  0.00000000E+00  0.00000000E+00  0.00000000E+00
  0.00000000E+00  0.00000000E+00  0.00000000E+00
  0.00000000E+00  0.00000000E+00  0.00000000E+00
  0.00000000E+00  0.00000000E+00  0.00000000E+00
  0.00000000E+00  0.00000000E+00  0.00000000E+00
  0.00000000E+00  0.00000000E+00  0.00000000E+00
  0.00000000E+00  0.00000000E+00  0.00000000E+00
  0.00000000E+00  0.00000000E+00  0.00000000E+00
  0.00000000E+00  0.00000000E+00  0.00000000E+00
  0.00000000E+00  0.00000000E+00  0.00000000E+00
  0.00000000E+00  0.00000000E+00  0.00000000E+00
  0.00000000E+00  0.00000000E+00  0.00000000E+00
  0.00000000E+00  0.00000000E+00  0.00000000E+00
  0.00000000E+00  0.00000000E+00  0.00000000E+00
  0.00000000E+00  0.00000000E+00  0.00000000E+00
  0.00000000E+00  0.00000000E+00  0.00000000E+00
  0.00000000E+00  0.00000000E+00  0.00000000E+00
  0.00000000E+00  0.00000000E+00  0.00000000E+00
  0.00000000E+00  0.00000000E+00  0.00000000E+00
  0.00000000E+00  0.00000000E+00  0.00000000E+00
  0.00000000E+00  0.00000000E+00  0.00000000E+00
  0.00000000E+00  0.00000000E+00  0.00000000E+00
  0.00000000E+00  0.00000000E+00  0.00000000E+00
  0.00000000E+00  0.00000000E+00  0.00000000E+00
  0.00000000E+00  0.00000000E+00  0.00000000E+00
  0.00000000E+00  0.00000000E+00  0.00000000E+00
  0.00000000E+00  0.00000000E+00  0.00000000E+00
  0.00000000E+00  0.00000000E+00  0.00000000E+00
  0.00000000E+00  0.00000000E+00  0.00000000E+00
  0.00000000E+00  0.00000000E+00  0.00000000E+00
  0.00000000E+00  0.00000000E+00  0.00000000E+00
  0.00000000E+00  0.00000000E+00  0.00000000E+00
  0.00000000E+00  0.00000000E+00  0.00000000E+00
  0.00000000E+00  0.00000000E+00  0.00000000E+00
  0.00000000E+00  0.00000000E+00  0.00000000E+00
  0.00000000E+00  0.00000000E+00  0.00000000E+00
  0.00000000E+00  0.00000000E+00  0.00000000E+00
  0.00000000E+00  0.00000000E+00  0.00000000E+00
  0.00000000E+00  0.00000000E+00  0.00000000E+00
  0.00000000E+00  0.00000000E+00  0.00000000E+00
  0.00000000E+00  0.00000000E+00  0.00000000E+00
  0.00000000E+00  0.00000000E+00  0.00000000E+00
  0.00000000E+00  0.00000000E+00  0.00000000E+00
  0.00000000E+00  0.00000000E+00  0.00000000E+00
  0.00000000E+00  0.00000000E+00  0.00000000E+00
  0.00000000E+00  0.00000000E+00  0.00000000E+00
  0.00000000E+00  0.00000000E+00  0.00000000E+00
  0.00000000E+00  0.00000000E+00  0.00000000E+00
  0.00000000E+00  0.00000000E+00  0.00000000E+00
  0.00000000E+00  0.00000000E+00  0.00000000E+00
  0.00000000E+00  0.00000000E+00  0.00000000E+00
  0.00000000E+00  0.00000000E+00  0.00000000E+00
  0.00000000E+00  0.00000000E+00  0.00000000E+00
  0.00000000E+00  0.00000000E+00  0.00000000E+00
  0.00000000E+00  0.00000000E+00  0.00000000E+00
  0.00000000E+00  0.00000000E+00  0.00000000E+00
  0.00000000E+00  0.00000000E+00  0.00000000E+00
  0.00000000E+00  0.00000000E+00  0.00000000E+00
  0.00000000E+00  0.00000000E+00  0.00000000E+00
  0.00000000E+00  0.00000000E+00  0.00000000E+00
  0.00000000E+00  0.00000000E+00  0.00000000E+00
  0.00000000E+00  0.00000000E+00  0.00000000E+00
  0.00000000E+00  0.00000000E+00  0.00000000E+00
  0.00000000E+00  0.00000000E+00  0.00000000E+00
  0.00000000E+00  0.00000000E+00  0.00000000E+00
  0.00000000E+00  0.00000000E+00  0.00000000E+00
  0.00000000E+00  0.00000000E+00  0.00000000E+00
  0.00000000E+00  0.00000000E+00  0.00000000E+00
  0.00000000E+00  0.00000000E+00  0.00000000E+00
  0.00000000E+00  0.00000000E+00  0.00000000E+00
  0.00000000E+00  0.00000000E+00  0.00000000E+00
