Species order:X N B                     
   2.51242800000000     
     5.9449720136058266    0.0000000000000000    0.0000000000000000
    -2.9724860068029120    5.1484967885702053   -0.0000000000000001
     0.0000000000000000    0.0000000000000009    5.3101128803662583
   Al   N    B 
     2   143   143
Direct
  0.4642343836363383  0.3987838584847727  0.3750000000000000
  0.6367879338164735  0.4850606335748975  0.3750000000000000
  0.1109814545254522  0.0554855103853961  0.1242965626999298
  0.6111615588544257  0.5555809276871673  0.1230177403754608
  0.4442925453126628  0.0554585748896516  0.1241158155136306
  0.9442930179612099  0.5554768390383810  0.1255185314232160
  0.7776142820863968  0.0554738077099789  0.1254751362015361
  0.1109433184294757  0.7221383258813648  0.6239866835931165
  0.4442925453126628  0.7221673037563058  0.6258841844865041
  0.2776949527398314  0.2221639223463765  0.6267098916724724
  0.7776908669097878  0.7222360656113282  0.6260667105762131
  0.6109850378629447  0.2221357335896359  0.6264210404511888
  0.9443136845873858  0.2221500341129101  0.6248332599498059
  0.2776078299319515  0.7221404761185884  0.1254076071012533
  0.1110172081349124  0.2221752707340792  0.1239986090217292
  0.4443758595158643  0.2221529649057747  0.1230915131358772
  0.6109850378629446  0.7221826376070052  0.1235789595486194
  0.9442930179612099  0.7221495122561316  0.1255185314232160
  0.7776212892955112  0.2221163425628531  0.1249019066155868
  0.1109491976615037  0.8888065047979949  0.6246197750579304
  0.4442617713850093  0.8887975523591030  0.6248154444287113
  0.2776949527398314  0.3888643637267613  0.6267098916724463
  0.6111615588544257  0.3889139645005056  0.6269822596246091
  0.7776212892955112  0.8888382800661311  0.6250980933845249
  0.9443069810497718  0.3888010433766511  0.6248782918133374
  0.1109814545254526  0.3888292774733691  0.1242965626999298
  0.2776078299320331  0.8888006871467158  0.1254076071012533
  0.6109370697421085  0.8888148168409171  0.1248635156061466
  0.4444572183938989  0.3888952758636062  0.1268566405397364
  0.9443069810497718  0.8888392710066404  0.1251217081866377
  0.7776908669097878  0.3887881346318322  0.1239332894238808
  0.2776413515193255  0.5555035485624196  0.6260433378906742
  0.1109814545254522  0.0554855103853982  0.6257034373000738
  0.6111615588544257  0.5555809276871673  0.6269822596246091
  0.4442925453126628  0.0554585748896510  0.6258841844865041
  0.9442930179612099  0.5554768390383810  0.6244814685767693
  0.1109491976615038  0.5554760261967570  0.1253802249419693
  0.7776142820863968  0.0554738077099807  0.6245248637983144
  0.2776413515193254  0.0554711362902877  0.1239566621093925
  0.4443758595158643  0.5555562279432091  0.1230915131358756
  0.7776437008978789  0.5554885171158879  0.1246836528387895
  0.6109370697421085  0.0554555862347675  0.1248635156061466
  0.4443758595158643  0.5555562279432091  0.6269084868642989
  0.9443136845873858  0.0554969838077444  0.1251667400501378
  0.2776078299319510  0.7221404761185884  0.6245923928988456
  0.1110172081349127  0.2221752707340792  0.6260013909783436
  0.4443758595158643  0.2221529649057747  0.6269084868642989
  0.6109850378629447  0.7221826376070052  0.6264210404511888
  0.9442930179612099  0.7221495122560840  0.6244814685767693
  0.7776212892955112  0.2221163425628531  0.6250980933845249
  0.1109433184294753  0.7221383258813648  0.1260133164069840
  0.4442925453126628  0.7221673037563058  0.1241158155136278
  0.2776949527398314  0.2221639223463765  0.1232901083274389
  0.7776908669097878  0.7222360656113282  0.1239332894238808
  0.6109850378629447  0.2221357335896359  0.1235789595486198
  0.9443136845873858  0.2221500341129101  0.1251667400501378
  0.1109814545254522  0.3888292774733691  0.6257034373000738
  0.2776078299319510  0.8888006871467158  0.6245923928988456
  0.6109370697421085  0.8888148168409171  0.6251364843939552
  0.4444572183938990  0.3888952758636063  0.6231433594603064
  0.9443069810497717  0.8888392710066404  0.6248782918133374
  0.1109491976615038  0.8888065047979949  0.1253802249419703
  0.7776908669097878  0.3887881346318322  0.6260667105762131
  0.4442617713850093  0.8887975523591030  0.1251845555714573
  0.2776949527398314  0.3888643637267613  0.1232901083274225
  0.2776413515193254  0.5555035485624196  0.1239566621093925
  0.6111615588544257  0.3889139645005056  0.1230177403754617
  0.7776212892955112  0.8888382800661311  0.1249019066155868
  0.9443069810497718  0.3888010433766511  0.1251217081866377
  0.1109491976615031  0.5554760261967570  0.6246197750579304
  0.2776413515193255  0.0554711362902877  0.6260433378906742
  0.7776437008978789  0.5554885171158879  0.6253163471613579
  0.6109370697421085  0.0554555862347676  0.6251364843939552
  0.9443136845873858  0.0554969838077444  0.6248332599498054
  0.0569117688545161  0.1121852605389060  0.3750000000000000
  0.5476537709031287  0.6286156314420099  0.3750000000000000
  0.3829428630875459  0.0992625604977167  0.3750000000000000
  0.8927643087271101  0.6130488210300906  0.3750000000000000
  0.7230250632524545  0.1098861075171998  0.3750000000000000
  0.0555618035971497  0.7777846263594932  0.8750000000000000
  0.3889009116118167  0.7777787373813383  0.8750000000000000
  0.2222318715889267  0.2777826024611455  0.8750000000000000
  0.7222418756108280  0.7777884188861306  0.8750000000000000
  0.5555738267164860  0.2777947616791344  0.8750000000000000
  0.8889057433940306  0.2777835903632353  0.8750000000000000
  0.2186466397159479  0.7759899865246493  0.3750000000000000
  0.0569117688545161  0.2780598416489513  0.3750000000000000
  0.3866892771265715  0.2649475724920066  0.3750000000000000
  0.5534585288659888  0.7852474531300336  0.3750000000000000
  0.8895342120990067  0.7800222064179578  0.3750000000000000
  0.7223140096736014  0.2737587102239677  0.3750000000000000
  0.0555668433967224  0.9444556799119252  0.8750000000000000
  0.3889009116118167  0.9444555075638529  0.8750000000000000
  0.2222335104609753  0.4444413493650746  0.8750000000000000
  0.5555614749555283  0.4444474041444285  0.8750000000000000
  0.7222358069824956  0.9444522725814780  0.8750000000000000
  0.8889091800357061  0.4444507002586901  0.8750000000000000
  0.0547412470915511  0.4438449223739915  0.3750000000000000
  0.2184129087661237  0.9404402599437116  0.3750000000000000
  0.5539748040826361  0.9436540687079789  0.3750000000000000
  0.3866892771265584  0.4550750379679230  0.3750000000000000
  0.8899000633607345  0.9464032255764658  0.3750000000000000
  0.7262725832809629  0.4418825366151242  0.3750000000000000
  0.2222311914849279  0.6111071830216163  0.8750000000000000
  0.0555648766387562  0.1111173242591173  0.8750000000000000
  0.5555738267164860  0.6111123983707378  0.8750000000000000
  0.3889067538442302  0.1111349923792487  0.8750000000000000
  0.8888978789804246  0.6111156061569225  0.8750000000000000
  0.0540429198817670  0.6101154266676811  0.3750000000000000
  0.7222358069824956  0.1111168677342669  0.8750000000000000
  0.2202077867947099  0.1079682573008290  0.3750000000000000
  0.3829428630875459  0.6170136359232392  0.3750000000000000
  0.7262725832809629  0.6177233799991163  0.3750000000000000
  0.5534585288659888  0.1015444090694649  0.3750000000000000
  0.3889067538442302  0.6111050947982569  0.8750000000000000
  0.8904364817053831  0.1118849075193707  0.3750000000000000
  0.2222281570420447  0.7777807451877857  0.8750000000000000
  0.0555648766387562  0.2777808857130397  0.8750000000000000
  0.3889090064509227  0.2778046839176397  0.8750000000000000
  0.5555716185655633  0.7777814590151875  0.8750000000000000
  0.8889091800357061  0.7777918131106019  0.8750000000000000
  0.7222418756108278  0.2777867900582820  0.8750000000000000
  0.0540429198817671  0.7772608265474634  0.3750000000000000
  0.3851598137305958  0.7787086893615537  0.3750000000000000
  0.2249873308731781  0.2791603321034013  0.3750000000000000
  0.7223140096736014  0.7818886327828520  0.3750000000000000
  0.5476537709031287  0.2523714727943773  0.3750000000000000
  0.8899000633607345  0.2768301711175008  0.3750000000000000
  0.0555668433967224  0.4444444968180777  0.8750000000000000
  0.2222311914849279  0.9444573417965737  0.8750000000000000
  0.5555657919302700  0.9444495626317992  0.8750000000000000
  0.3889090064509227  0.4444376558667704  0.8750000000000000
  0.8889057433940306  0.9444554863639459  0.8750000000000000
  0.0547412470915511  0.9442296580507940  0.3750000000000000
  0.7222441548910097  0.4444554390182685  0.8750000000000000
  0.3851598137305957  0.9397844577022899  0.3750000000000000
  0.2202077867947098  0.4455728628273243  0.3750000000000000
  0.2184129087661237  0.6113059821558202  0.3750000000000000
  0.7230250632524536  0.9464722890687768  0.3750000000000000
  0.8895342120990067  0.4428453390144124  0.3750000000000000
  0.0555618035971497  0.6111105105711638  0.8750000000000000
  0.2222335104609753  0.1111254944291828  0.8750000000000000
  0.7222441548910097  0.6111220492058986  0.8750000000000000
  0.5555716185655633  0.1111234928836401  0.8750000000000000
  0.8889028317632953  0.1111180825482682  0.8750000000000000
  0.1103992095460608  0.0549968806343916  0.3750000000000000
  0.5981265884755562  0.5771063225293340  0.3750000000000000
  0.4417796536398825  0.0483080249152496  0.3750000000000000
  0.9453454570311774  0.5538408001171296  0.3750000000000000
  0.7797644510810280  0.0565488922071497  0.3750000000000000
  0.1111499489229982  0.7222416411282132  0.8750000000000000
  0.4444473160974306  0.7222404835834972  0.8750000000000000
  0.2777192515432292  0.2221947032423444  0.8750000000000000
  0.7778360983211655  0.7223177064568961  0.8750000000000000
  0.6111317533719222  0.2221763976397017  0.8750000000000000
  0.9444676887806944  0.2222131071410017  0.8750000000000000
  0.2744678168840614  0.7217823492739884  0.3750000000000000
  0.1136134517839440  0.2234733925585972  0.3750000000000000
  0.4369565805341706  0.2063993113529788  0.3750000000000000
  0.6108471646329802  0.7352900518684224  0.3750000000000000
  0.9453454570311774  0.7248379902473214  0.3750000000000000
  0.7793552502593791  0.2200436404795336  0.3750000000000000
  0.1111389467787223  0.8889294293620958  0.8750000000000000
  0.4444562789847702  0.8888948061590843  0.8750000000000000
  0.2777192515432292  0.3888578816342945  0.8750000000000000
  0.6111247811482643  0.3888392366708667  0.8750000000000000
  0.7778174488612098  0.8889576258823828  0.8750000000000000
  0.9444913980895469  0.3888622462904305  0.8750000000000000
  0.1103992095460608  0.3887356622450537  0.3750000000000000
  0.2744678168840613  0.8860188009435832  0.3750000000000000
  0.6117327108944466  0.8932299000470387  0.3750000000000000
  0.9450063325110646  0.8910848677975742  0.3750000000000000
  0.7801465054327160  0.3844435969039418  0.3750000000000000
  0.2777655144325211  0.5555435825101953  0.8750000000000000
  0.1111121740573561  0.0555780029674694  0.8750000000000000
  0.6111247811482643  0.5556188778106820  0.8750000000000000
  0.4444473160974306  0.0555401658474505  0.8750000000000000
  0.9445073713748856  0.5555549386207520  0.8750000000000000
  0.1089291266058291  0.5545055381779810  0.3750000000000000
  0.7778080134359130  0.0555706733846110  0.8750000000000000
  0.2732152417266310  0.0499146050658181  0.3750000000000000
  0.4369565805341717  0.5638906025145829  0.3750000000000000
  0.7878128013534296  0.5605730673433809  0.3750000000000000
  0.6117327108944466  0.0518361441806887  0.3750000000000000
  0.4444161471354628  0.5555686967710561  0.8750000000000000
  0.9462849713199341  0.0573143592734866  0.3750000000000000
  0.2777911511574806  0.7222248639694668  0.8750000000000000
  0.1110902682369451  0.2222118007851593  0.8750000000000000
  0.4444161471354628  0.2221807836978212  0.8750000000000000
  0.6111317533719222  0.7222886890653413  0.8750000000000000
  0.9445073713748856  0.7222857660875237  0.8750000000000000
  0.7778174488612098  0.2221931563122920  0.8750000000000000
  0.1087886748008198  0.7210610040671109  0.3750000000000000
  0.4417796536398825  0.7268049620579659  0.3750000000000000
  0.2773159866544152  0.2189215417412015  0.3750000000000000
  0.7801465054327160  0.7290362418620241  0.3750000000000000
  0.6108471646329802  0.2088904460978867  0.3750000000000000
  0.9462849713199341  0.2223039453799174  0.3750000000000000
  0.1111121740573561  0.3888675044231816  0.8750000000000000
  0.2777911511574816  0.8888996205214962  0.8750000000000000
  0.6111324867141762  0.8889215905761048  0.8750000000000000
  0.4443615872505038  0.3888474602918110  0.8750000000000000
  0.9444913980895469  0.8889624851325636  0.8750000000000000
  0.1089291266058381  0.8877569217613064  0.3750000000000000
  0.7778360983211655  0.3888517251979642  0.8750000000000000
  0.4425899536183663  0.8879616434758084  0.3750000000000000
  0.2773159866544152  0.3917277782466008  0.3750000000000000
  0.2732152417266340  0.5566339699940631  0.3750000000000000
  0.5981265884755561  0.3543535992795977  0.3750000000000000
  0.7793552502593791  0.8926449431132845  0.3750000000000000
  0.9450063325110641  0.3872547980467057  0.3750000000000000
  0.1111389467787223  0.5555428507500653  0.8750000000000000
  0.2777655144325211  0.0555552652557190  0.8750000000000000
  0.7778348127925285  0.5555840730628140  0.8750000000000000
  0.6111324867141762  0.0555442294713210  0.8750000000000000
  0.9444676887806944  0.0555879149729754  0.8750000000000000
  0.0554338980804953  0.1110684906796256  0.1243864808844156
  0.5553162596249421  0.6112778306766914  0.1228437930952881
  0.3886567045784128  0.1108440891204700  0.1233924811269727
  0.8890658897821242  0.6111996115577455  0.1246567613261080
  0.7220343602989259  0.1109426933308041  0.1249544397608244
  0.0555698594417251  0.7778127498508558  0.6245454136352859
  0.3886969788216650  0.7777262187682856  0.6252050385157107
  0.2220395965064750  0.2776864649198811  0.6266049040478490
  0.7220936006273362  0.7779120712480323  0.6262567166513826
  0.5553162596249421  0.2773717622815412  0.6271562069047580
  0.8887725037880075  0.2776219704746297  0.6250941654932126
  0.2221314623363589  0.7777323978347327  0.1255485064870526
  0.0554338980804955  0.2776987407343133  0.1243864808844156
  0.3885295906071297  0.2773031377887799  0.1241044971511266
  0.5553374446402176  0.7778016141271270  0.1239370262079611
  0.8889123251634933  0.7779263584960927  0.1244934462948303
  0.7220936006273362  0.2775148627125026  0.1237432833486455
  0.0554775759580044  0.9444560105492333  0.6251999309221064
  0.3886969788216649  0.9443040933866226  0.6252050385157107
  0.2220403268837496  0.4444047869215286  0.6263971604638924
  0.5555271794845308  0.4444302564089279  0.6271113206671566
  0.7220343602989259  0.9444250003016127  0.6250455602393675
  0.8889123251634933  0.4443193000008672  0.6255065537050151
  0.0554775759580048  0.4443548987421460  0.1248000690776922
  0.2220901741979613  0.9443579137776814  0.1247975220716311
  0.5553391006772305  0.9443362170052827  0.1248660274036646
  0.3885295906071297  0.4445597861516004  0.1241044971511380
  0.8887725037880075  0.9444838666466361  0.1249058345068432
  0.7223558737347182  0.4442864285142271  0.1226091313089004
  0.2220901741979620  0.6110655937538927  0.6252024779283691
  0.0554338980804953  0.1110684906796256  0.6256135191154703
  0.5553162596249519  0.6112778306766914  0.6271562069047580
  0.3886567045784128  0.1108440891204700  0.6266075188730583
  0.8890658897821242  0.6111996115577455  0.6253432386738128
  0.0555698594417241  0.6110904429242091  0.1254545863647793
  0.7220343602989259  0.1109426933308037  0.6250455602393675
  0.2220403268837496  0.1109688732955863  0.1236028395361485
  0.3886567045784128  0.6111459487914624  0.1233924811269727
  0.7223558737347182  0.6114027785537478  0.1226091313089002
  0.5553374446402176  0.1108691638463506  0.1239370262079611
  0.3886567045784128  0.6111459487914624  0.6266075188730583
  0.8887418140481234  0.1110375736908003  0.1251928051780700
  0.2221314623363589  0.7777323978347327  0.6244514935131115
  0.0554338980804953  0.2776987407343133  0.6256135191154703
  0.3885295906071297  0.2773031377887799  0.6258955028487314
  0.5553374446402176  0.7778016141271270  0.6260629737919319
  0.8889123251634933  0.7779263584960927  0.6255065537050151
  0.7220936006273362  0.2775148627125026  0.6262567166513826
  0.0555698594417241  0.7778127498508558  0.1254545863647862
  0.3886969788216649  0.7777262187682856  0.1247949614844629
  0.2220395965064750  0.2776864649198811  0.1233950959521618
  0.7220936006273362  0.7779120712480302  0.1237432833486453
  0.5553162596249421  0.2773717622815412  0.1228437930952865
  0.8887725037880075  0.2776219704746297  0.1249058345068432
  0.0554775759580044  0.4443548987421461  0.6251999309221064
  0.2220901741979696  0.9443579137776814  0.6252024779283691
  0.5553391006772305  0.9443362170052827  0.6251339725963305
  0.3885295906071297  0.4445597861516004  0.6258955028487444
  0.8887725037880075  0.9444838666466361  0.6250941654932126
  0.0554775759580044  0.9444560105492333  0.1248000690776922
  0.7223558737347182  0.4442864285142271  0.6273908686911239
  0.3886969788216649  0.9443040933866226  0.1247949614844629
  0.2220403268837496  0.4444047869215286  0.1236028395361485
  0.2220901741979620  0.6110655937538927  0.1247975220716311
  0.5555271794845272  0.4444302564089279  0.1228886793329015
  0.7220343602989259  0.9444250003016127  0.1249544397608244
  0.8889123251634933  0.4443193000008672  0.1244934462948266
  0.0555698594417241  0.6110904429242091  0.6245454136352859
  0.2220403268837496  0.1109688732955863  0.6263971604638924
  0.7223558737347182  0.6114027785537478  0.6273908686911239
  0.5553374446402176  0.1108691638463516  0.6260629737919319
  0.8887418140481234  0.1110375736908003  0.6248071948218283
 
  0.00000000E+00  0.00000000E+00  0.00000000E+00
  0.00000000E+00  0.00000000E+00  0.00000000E+00
  0.00000000E+00  0.00000000E+00  0.00000000E+00
  0.00000000E+00  0.00000000E+00  0.00000000E+00
  0.00000000E+00  0.00000000E+00  0.00000000E+00
  0.00000000E+00  0.00000000E+00  0.00000000E+00
  0.00000000E+00  0.00000000E+00  0.00000000E+00
  0.00000000E+00  0.00000000E+00  0.00000000E+00
  0.00000000E+00  0.00000000E+00  0.00000000E+00
  0.00000000E+00  0.00000000E+00  0.00000000E+00
  0.00000000E+00  0.00000000E+00  0.00000000E+00
  0.00000000E+00  0.00000000E+00  0.00000000E+00
  0.00000000E+00  0.00000000E+00  0.00000000E+00
  0.00000000E+00  0.00000000E+00  0.00000000E+00
  0.00000000E+00  0.00000000E+00  0.00000000E+00
  0.00000000E+00  0.00000000E+00  0.00000000E+00
  0.00000000E+00  0.00000000E+00  0.00000000E+00
  0.00000000E+00  0.00000000E+00  0.00000000E+00
  0.00000000E+00  0.00000000E+00  0.00000000E+00
  0.00000000E+00  0.00000000E+00  0.00000000E+00
  0.00000000E+00  0.00000000E+00  0.00000000E+00
  0.00000000E+00  0.00000000E+00  0.00000000E+00
  0.00000000E+00  0.00000000E+00  0.00000000E+00
  0.00000000E+00  0.00000000E+00  0.00000000E+00
  0.00000000E+00  0.00000000E+00  0.00000000E+00
  0.00000000E+00  0.00000000E+00  0.00000000E+00
  0.00000000E+00  0.00000000E+00  0.00000000E+00
  0.00000000E+00  0.00000000E+00  0.00000000E+00
  0.00000000E+00  0.00000000E+00  0.00000000E+00
  0.00000000E+00  0.00000000E+00  0.00000000E+00
  0.00000000E+00  0.00000000E+00  0.00000000E+00
  0.00000000E+00  0.00000000E+00  0.00000000E+00
  0.00000000E+00  0.00000000E+00  0.00000000E+00
  0.00000000E+00  0.00000000E+00  0.00000000E+00
  0.00000000E+00  0.00000000E+00  0.00000000E+00
  0.00000000E+00  0.00000000E+00  0.00000000E+00
  0.00000000E+00  0.00000000E+00  0.00000000E+00
  0.00000000E+00  0.00000000E+00  0.00000000E+00
  0.00000000E+00  0.00000000E+00  0.00000000E+00
  0.00000000E+00  0.00000000E+00  0.00000000E+00
  0.00000000E+00  0.00000000E+00  0.00000000E+00
  0.00000000E+00  0.00000000E+00  0.00000000E+00
  0.00000000E+00  0.00000000E+00  0.00000000E+00
  0.00000000E+00  0.00000000E+00  0.00000000E+00
  0.00000000E+00  0.00000000E+00  0.00000000E+00
  0.00000000E+00  0.00000000E+00  0.00000000E+00
  0.00000000E+00  0.00000000E+00  0.00000000E+00
  0.00000000E+00  0.00000000E+00  0.00000000E+00
  0.00000000E+00  0.00000000E+00  0.00000000E+00
  0.00000000E+00  0.00000000E+00  0.00000000E+00
  0.00000000E+00  0.00000000E+00  0.00000000E+00
  0.00000000E+00  0.00000000E+00  0.00000000E+00
  0.00000000E+00  0.00000000E+00  0.00000000E+00
  0.00000000E+00  0.00000000E+00  0.00000000E+00
  0.00000000E+00  0.00000000E+00  0.00000000E+00
  0.00000000E+00  0.00000000E+00  0.00000000E+00
  0.00000000E+00  0.00000000E+00  0.00000000E+00
  0.00000000E+00  0.00000000E+00  0.00000000E+00
  0.00000000E+00  0.00000000E+00  0.00000000E+00
  0.00000000E+00  0.00000000E+00  0.00000000E+00
  0.00000000E+00  0.00000000E+00  0.00000000E+00
  0.00000000E+00  0.00000000E+00  0.00000000E+00
  0.00000000E+00  0.00000000E+00  0.00000000E+00
  0.00000000E+00  0.00000000E+00  0.00000000E+00
  0.00000000E+00  0.00000000E+00  0.00000000E+00
  0.00000000E+00  0.00000000E+00  0.00000000E+00
  0.00000000E+00  0.00000000E+00  0.00000000E+00
  0.00000000E+00  0.00000000E+00  0.00000000E+00
  0.00000000E+00  0.00000000E+00  0.00000000E+00
  0.00000000E+00  0.00000000E+00  0.00000000E+00
  0.00000000E+00  0.00000000E+00  0.00000000E+00
  0.00000000E+00  0.00000000E+00  0.00000000E+00
  0.00000000E+00  0.00000000E+00  0.00000000E+00
  0.00000000E+00  0.00000000E+00  0.00000000E+00
  0.00000000E+00  0.00000000E+00  0.00000000E+00
  0.00000000E+00  0.00000000E+00  0.00000000E+00
  0.00000000E+00  0.00000000E+00  0.00000000E+00
  0.00000000E+00  0.00000000E+00  0.00000000E+00
  0.00000000E+00  0.00000000E+00  0.00000000E+00
  0.00000000E+00  0.00000000E+00  0.00000000E+00
  0.00000000E+00  0.00000000E+00  0.00000000E+00
  0.00000000E+00  0.00000000E+00  0.00000000E+00
  0.00000000E+00  0.00000000E+00  0.00000000E+00
  0.00000000E+00  0.00000000E+00  0.00000000E+00
  0.00000000E+00  0.00000000E+00  0.00000000E+00
  0.00000000E+00  0.00000000E+00  0.00000000E+00
  0.00000000E+00  0.00000000E+00  0.00000000E+00
  0.00000000E+00  0.00000000E+00  0.00000000E+00
  0.00000000E+00  0.00000000E+00  0.00000000E+00
  0.00000000E+00  0.00000000E+00  0.00000000E+00
  0.00000000E+00  0.00000000E+00  0.00000000E+00
  0.00000000E+00  0.00000000E+00  0.00000000E+00
  0.00000000E+00  0.00000000E+00  0.00000000E+00
  0.00000000E+00  0.00000000E+00  0.00000000E+00
  0.00000000E+00  0.00000000E+00  0.00000000E+00
  0.00000000E+00  0.00000000E+00  0.00000000E+00
  0.00000000E+00  0.00000000E+00  0.00000000E+00
  0.00000000E+00  0.00000000E+00  0.00000000E+00
  0.00000000E+00  0.00000000E+00  0.00000000E+00
  0.00000000E+00  0.00000000E+00  0.00000000E+00
  0.00000000E+00  0.00000000E+00  0.00000000E+00
  0.00000000E+00  0.00000000E+00  0.00000000E+00
  0.00000000E+00  0.00000000E+00  0.00000000E+00
  0.00000000E+00  0.00000000E+00  0.00000000E+00
  0.00000000E+00  0.00000000E+00  0.00000000E+00
  0.00000000E+00  0.00000000E+00  0.00000000E+00
  0.00000000E+00  0.00000000E+00  0.00000000E+00
  0.00000000E+00  0.00000000E+00  0.00000000E+00
  0.00000000E+00  0.00000000E+00  0.00000000E+00
  0.00000000E+00  0.00000000E+00  0.00000000E+00
  0.00000000E+00  0.00000000E+00  0.00000000E+00
  0.00000000E+00  0.00000000E+00  0.00000000E+00
  0.00000000E+00  0.00000000E+00  0.00000000E+00
  0.00000000E+00  0.00000000E+00  0.00000000E+00
  0.00000000E+00  0.00000000E+00  0.00000000E+00
  0.00000000E+00  0.00000000E+00  0.00000000E+00
  0.00000000E+00  0.00000000E+00  0.00000000E+00
  0.00000000E+00  0.00000000E+00  0.00000000E+00
  0.00000000E+00  0.00000000E+00  0.00000000E+00
  0.00000000E+00  0.00000000E+00  0.00000000E+00
  0.00000000E+00  0.00000000E+00  0.00000000E+00
  0.00000000E+00  0.00000000E+00  0.00000000E+00
  0.00000000E+00  0.00000000E+00  0.00000000E+00
  0.00000000E+00  0.00000000E+00  0.00000000E+00
  0.00000000E+00  0.00000000E+00  0.00000000E+00
  0.00000000E+00  0.00000000E+00  0.00000000E+00
  0.00000000E+00  0.00000000E+00  0.00000000E+00
  0.00000000E+00  0.00000000E+00  0.00000000E+00
  0.00000000E+00  0.00000000E+00  0.00000000E+00
  0.00000000E+00  0.00000000E+00  0.00000000E+00
  0.00000000E+00  0.00000000E+00  0.00000000E+00
  0.00000000E+00  0.00000000E+00  0.00000000E+00
  0.00000000E+00  0.00000000E+00  0.00000000E+00
  0.00000000E+00  0.00000000E+00  0.00000000E+00
  0.00000000E+00  0.00000000E+00  0.00000000E+00
  0.00000000E+00  0.00000000E+00  0.00000000E+00
  0.00000000E+00  0.00000000E+00  0.00000000E+00
  0.00000000E+00  0.00000000E+00  0.00000000E+00
  0.00000000E+00  0.00000000E+00  0.00000000E+00
  0.00000000E+00  0.00000000E+00  0.00000000E+00
  0.00000000E+00  0.00000000E+00  0.00000000E+00
  0.00000000E+00  0.00000000E+00  0.00000000E+00
  0.00000000E+00  0.00000000E+00  0.00000000E+00
  0.00000000E+00  0.00000000E+00  0.00000000E+00
  0.00000000E+00  0.00000000E+00  0.00000000E+00
  0.00000000E+00  0.00000000E+00  0.00000000E+00
  0.00000000E+00  0.00000000E+00  0.00000000E+00
  0.00000000E+00  0.00000000E+00  0.00000000E+00
  0.00000000E+00  0.00000000E+00  0.00000000E+00
  0.00000000E+00  0.00000000E+00  0.00000000E+00
  0.00000000E+00  0.00000000E+00  0.00000000E+00
  0.00000000E+00  0.00000000E+00  0.00000000E+00
  0.00000000E+00  0.00000000E+00  0.00000000E+00
  0.00000000E+00  0.00000000E+00  0.00000000E+00
  0.00000000E+00  0.00000000E+00  0.00000000E+00
  0.00000000E+00  0.00000000E+00  0.00000000E+00
  0.00000000E+00  0.00000000E+00  0.00000000E+00
  0.00000000E+00  0.00000000E+00  0.00000000E+00
  0.00000000E+00  0.00000000E+00  0.00000000E+00
  0.00000000E+00  0.00000000E+00  0.00000000E+00
  0.00000000E+00  0.00000000E+00  0.00000000E+00
  0.00000000E+00  0.00000000E+00  0.00000000E+00
  0.00000000E+00  0.00000000E+00  0.00000000E+00
  0.00000000E+00  0.00000000E+00  0.00000000E+00
  0.00000000E+00  0.00000000E+00  0.00000000E+00
  0.00000000E+00  0.00000000E+00  0.00000000E+00
  0.00000000E+00  0.00000000E+00  0.00000000E+00
  0.00000000E+00  0.00000000E+00  0.00000000E+00
  0.00000000E+00  0.00000000E+00  0.00000000E+00
  0.00000000E+00  0.00000000E+00  0.00000000E+00
  0.00000000E+00  0.00000000E+00  0.00000000E+00
  0.00000000E+00  0.00000000E+00  0.00000000E+00
  0.00000000E+00  0.00000000E+00  0.00000000E+00
  0.00000000E+00  0.00000000E+00  0.00000000E+00
  0.00000000E+00  0.00000000E+00  0.00000000E+00
  0.00000000E+00  0.00000000E+00  0.00000000E+00
  0.00000000E+00  0.00000000E+00  0.00000000E+00
  0.00000000E+00  0.00000000E+00  0.00000000E+00
  0.00000000E+00  0.00000000E+00  0.00000000E+00
  0.00000000E+00  0.00000000E+00  0.00000000E+00
  0.00000000E+00  0.00000000E+00  0.00000000E+00
  0.00000000E+00  0.00000000E+00  0.00000000E+00
  0.00000000E+00  0.00000000E+00  0.00000000E+00
  0.00000000E+00  0.00000000E+00  0.00000000E+00
  0.00000000E+00  0.00000000E+00  0.00000000E+00
  0.00000000E+00  0.00000000E+00  0.00000000E+00
  0.00000000E+00  0.00000000E+00  0.00000000E+00
  0.00000000E+00  0.00000000E+00  0.00000000E+00
  0.00000000E+00  0.00000000E+00  0.00000000E+00
  0.00000000E+00  0.00000000E+00  0.00000000E+00
  0.00000000E+00  0.00000000E+00  0.00000000E+00
  0.00000000E+00  0.00000000E+00  0.00000000E+00
  0.00000000E+00  0.00000000E+00  0.00000000E+00
  0.00000000E+00  0.00000000E+00  0.00000000E+00
  0.00000000E+00  0.00000000E+00  0.00000000E+00
  0.00000000E+00  0.00000000E+00  0.00000000E+00
  0.00000000E+00  0.00000000E+00  0.00000000E+00
  0.00000000E+00  0.00000000E+00  0.00000000E+00
  0.00000000E+00  0.00000000E+00  0.00000000E+00
  0.00000000E+00  0.00000000E+00  0.00000000E+00
  0.00000000E+00  0.00000000E+00  0.00000000E+00
  0.00000000E+00  0.00000000E+00  0.00000000E+00
  0.00000000E+00  0.00000000E+00  0.00000000E+00
  0.00000000E+00  0.00000000E+00  0.00000000E+00
  0.00000000E+00  0.00000000E+00  0.00000000E+00
  0.00000000E+00  0.00000000E+00  0.00000000E+00
  0.00000000E+00  0.00000000E+00  0.00000000E+00
  0.00000000E+00  0.00000000E+00  0.00000000E+00
  0.00000000E+00  0.00000000E+00  0.00000000E+00
  0.00000000E+00  0.00000000E+00  0.00000000E+00
  0.00000000E+00  0.00000000E+00  0.00000000E+00
  0.00000000E+00  0.00000000E+00  0.00000000E+00
  0.00000000E+00  0.00000000E+00  0.00000000E+00
  0.00000000E+00  0.00000000E+00  0.00000000E+00
  0.00000000E+00  0.00000000E+00  0.00000000E+00
  0.00000000E+00  0.00000000E+00  0.00000000E+00
  0.00000000E+00  0.00000000E+00  0.00000000E+00
  0.00000000E+00  0.00000000E+00  0.00000000E+00
  0.00000000E+00  0.00000000E+00  0.00000000E+00
  0.00000000E+00  0.00000000E+00  0.00000000E+00
  0.00000000E+00  0.00000000E+00  0.00000000E+00
  0.00000000E+00  0.00000000E+00  0.00000000E+00
  0.00000000E+00  0.00000000E+00  0.00000000E+00
  0.00000000E+00  0.00000000E+00  0.00000000E+00
  0.00000000E+00  0.00000000E+00  0.00000000E+00
  0.00000000E+00  0.00000000E+00  0.00000000E+00
  0.00000000E+00  0.00000000E+00  0.00000000E+00
  0.00000000E+00  0.00000000E+00  0.00000000E+00
  0.00000000E+00  0.00000000E+00  0.00000000E+00
  0.00000000E+00  0.00000000E+00  0.00000000E+00
  0.00000000E+00  0.00000000E+00  0.00000000E+00
  0.00000000E+00  0.00000000E+00  0.00000000E+00
  0.00000000E+00  0.00000000E+00  0.00000000E+00
  0.00000000E+00  0.00000000E+00  0.00000000E+00
  0.00000000E+00  0.00000000E+00  0.00000000E+00
  0.00000000E+00  0.00000000E+00  0.00000000E+00
  0.00000000E+00  0.00000000E+00  0.00000000E+00
  0.00000000E+00  0.00000000E+00  0.00000000E+00
  0.00000000E+00  0.00000000E+00  0.00000000E+00
  0.00000000E+00  0.00000000E+00  0.00000000E+00
  0.00000000E+00  0.00000000E+00  0.00000000E+00
  0.00000000E+00  0.00000000E+00  0.00000000E+00
  0.00000000E+00  0.00000000E+00  0.00000000E+00
  0.00000000E+00  0.00000000E+00  0.00000000E+00
  0.00000000E+00  0.00000000E+00  0.00000000E+00
  0.00000000E+00  0.00000000E+00  0.00000000E+00
  0.00000000E+00  0.00000000E+00  0.00000000E+00