 C O N B 
 1.0
 17.527899999999772   0.000000000000000   0.000000000000000
 -8.763949999999658  15.179606674993195   0.000000000000000
  0.000000000000001   0.000000000000002  15.000000000000000
 C O N B 
   1   1  47  49
Cartesian
  2.517952927945955   7.215796595565819   1.706249166328245 
  5.081944827150692   7.258491918095538   1.570254202329030 
  8.764101636734175  13.733645343313794   1.661997766727595 
 16.270463690032383   0.717647570405808   1.662875395021380 
 15.017229482121373   2.887709570388387   1.663210591672905 
 13.764971014455558   5.059868891664398   1.663296033341415 
 12.514951855178580   7.227466720543185   1.662141956627895 
 11.269068054529207   9.397772595710590   1.663327825480410 
 10.018533143340036  11.567028103111259   1.662763843239945 
 -6.259696040553054  13.733902118502490   1.662419816328375 
  1.249759584857093   0.718302975050895   1.661418940604790 
 -0.012456315052090   2.875387718878411   1.662295125614190 
 -1.259299562121372   5.055739941750581   1.661751229701885 
 -2.518427056016279   7.227631582253005   1.663925151743655 
 -3.760636330166441   9.398305740867158   1.664653421124300 
 -5.008520928212068  11.567027491372183   1.663226742311325 
 -3.756732540436318  13.735026705425776   1.662524897661630 
  3.756747388385110   0.719981629146367   1.662575415745335 
  2.503299989017521   2.882503472056265   1.650235204020630 
  1.233643119541003   5.024558319274756   1.636420864828725 
 -0.026873557010875   7.232180403606414   1.660988633215605 
 -1.261626481602803   9.402129245916182   1.665152368395105 
 -2.507925976208702  11.569399991109197   1.664639948980275 
 -1.254558502527202  13.738369393659132   1.663955754068265 
  6.261206789944517   0.721809544690455   1.663832209201380 
  5.014380765033998   2.884276101354498   1.666983837461295 
  3.764985687933037   5.042029638667920   1.655049599403060 
  1.233655175724432   9.419064838391538   1.665196971472215 
 -0.007164011366147  11.577457074053580   1.666807542631830 
  1.250715465707180  13.735079025583259   1.664616843244380 
  8.762565998589386   0.723663399616420   1.662030655363890 
  7.512250002904074   2.893214876748241   1.656465477124830 
  6.263269123816833   5.067539358787660   1.690368655042845 
  3.786181786742914   9.414865317503976   1.716925213524525 
  2.505575854190365  11.565575381873630   1.664689677657465 
  3.755529325202184  13.734707966092849   1.663561408677780 
 11.268202056843522   0.722377094252337   1.662521767972170 
 10.016467203081392   2.890445458573219   1.661711634151455 
  8.763949999999962   5.059868891664398   1.654691207856300 
  7.522404557480360   7.229282409437231   1.649650446376080 
  6.271574739352115   9.399888299227396   1.653410461654740 
  5.015573999410827  11.576737942015203   1.654655179283940 
  6.259910119303168  13.735732601038897   1.660925943771585 
 13.767725043621825   0.721375975462525   1.663772941802280 
 12.515501440249786   2.889630253681059   1.663596518854845 
 11.264292437336675   5.059868891664398   1.661165981798325 
 10.018334623659122   7.228247586285764   1.665177827835330 
  8.770901786233425   9.398967664204207   1.666072005345120 
  7.516526306982264  11.567965050697463   1.664736260440650 
  7.511572617654586  14.455920922675595   1.662282887568645 
 15.019622364657312   1.442869217256276   1.663858606754025 
 13.767155647530808   3.611701613932348   1.663911348591390 
 12.516638543809576   5.781604250965074   1.662522437644215 
 11.269092381734911   7.952454141427580   1.663937649240780 
 10.022466682149151  10.123567635776793   1.664758828809105 
  8.768315439903848  12.291100031602696   1.663753629699345 
 -7.511635931212157  14.455630974915380   1.662361815362970 
 -0.006029419890595   1.436249730613398   1.662729772361460 
 -1.258177878017751   3.608336748280419   1.661947286821890 
 -2.510340372426291   5.780822529702428   1.663661241658470 
 -3.763978987021983   7.952298744306883   1.663921696868430 
 -5.006788675535622  10.119737783328796   1.664059528303005 
 -6.257858348218361  12.290519930548978   1.662842836958730 
 -5.007783428674695  14.456258883473387   1.662696940298625 
  2.503208202066994   1.439586713976690   1.658727676247160 
  1.238491094171845   3.591131457033988   1.653651329483925 
 -0.005292912164917   5.775361969350535   1.656584481512250 
 -1.272524191250728   7.954147074209232   1.664408863517955 
 -2.510634781035993  10.124012548150317   1.665371649710985 
 -3.757593589541343  12.291048587665847   1.663531730219925 
 -2.504757109951836  14.458104358385173   1.663774282556745 
  5.010880584574407   1.440638020185450   1.665614691227340 
  3.761441269336244   3.595655597090988   1.653919106100630 
  2.496912953845891   5.712681129376675   1.612089893672745 
  1.202101086564339   7.979938060830523   1.665995737244685 
 -0.013954890544750  10.136187352103120   1.665503231471430 
 -1.256248061500612  12.295623252758105   1.665840611211840 
 -0.002057441220161  14.458246386957850   1.664033465433330 
  7.511296010242772   1.445683092086932   1.660541977104720 
  6.261649047493025   3.613414799965571   1.666263940249305 
  5.004689497522288   5.752599899339309   1.817653365731460 
  3.799574479535498   7.992235900145168   1.880039613213795 
  2.506437935629600  10.119737783328796   1.678374632765835 
  1.249385718759904  12.290956482210243   1.665248191168560 
  2.501215248283243  14.457643089202174   1.664105958832920 
 10.013449504088113   1.444831717901354   1.662163503528225 
  8.763981726066625   3.611747466582513   1.659619086438900 
  7.516303986180962   5.775501745395996   1.657164889908315 
  6.314409064386786   7.974293876239409   1.611094660063095 
  5.019832758147133  10.141024618994507   1.663509881336490 
  3.756200513950323  12.292362733766957   1.663718457720960 
  5.006080479952269  14.457240178742227   1.662448139254230 
 12.516131871385475   1.444395867910001   1.663942329312135 
 11.265202629441847   3.612434041182483   1.662406396448055 
 10.016551014199266   5.781506799410747   1.660184994056010 
  8.777008134413926   7.955505091241712   1.665614262248505 
  7.525814697211191  10.126726673565019   1.666463465578125 
  6.265483266484076  12.295738253931409   1.659632435426910 
