B N                                     
   1.0000000000000000     
     8.7639499999999995  -15.1796066749929999    0.0000000000000000
     8.7639499999999995   15.1796066749929999    0.0000000000000000
     0.0000000000000000    0.0000000000000000   15.0000000000000000
   B    N 
    49    48
Selective dynamics
Direct
  0.9044219730052419  0.9517088236982437  0.1095649561962827   T   T   T
  0.9051014900954433  0.0949000076562223  0.1102945385681358   T   T   T
  0.9052460764820320  0.2378602032090563  0.1109064570792222   T   T   T
  0.9050662931905805  0.3807354733765690  0.1111155189818743   T   T   T
  0.9038749435503913  0.5233427784619046  0.1110823558624727   T   T   T
  0.9029252142522953  0.6656634062267821  0.1096822825373533   T   T   T
  0.9026863698148291  0.8077788562188830  0.1090599420073486   T   T   T
  0.0474858066824402  0.9525160637663469  0.1096434615071381   T   T   T
  0.0482931906683086  0.0955803175830365  0.1095620923616241   T   T   T
  0.0484179500282239  0.2382605924934836  0.1100108314956906   T   T   T
  0.0481288762669822  0.3809893660155584  0.1105992346426820   T   T   T
  0.0473828232962933  0.5237797508326525  0.1105715576100671   T   T   T
  0.0467936925176690  0.6665458979628518  0.1102065009395539   T   T   T
  0.0468036095037469  0.8093864254424692  0.1098027916377460   T   T   T
  0.1906152217755710  0.9531984403421460  0.1098008434560344   T   T   T
  0.1922230045076103  0.0973164202977594  0.1090546817026011   T   T   T
  0.1921147724293092  0.2394046303729369  0.1089362306300387   T   T   T
  0.1914955992304187  0.3814228768891303  0.1111029514967006   T   T   T
  0.1906368109537550  0.5239854940149041  0.1112799964967563   T   T   T
  0.1900975769162779  0.6668591239819646  0.1107276316568657   T   T   T
  0.1900986230459646  0.8099033160894044  0.1102730156458935   T   T   T
  0.3334557105376726  0.9532080342615611  0.1102048077512389   T   T   T
  0.3343382986664649  0.0970766093515484  0.1096767418585200   T   T   T
  0.3378374485186044  0.2432170887057190  0.1073877467902572   T   T   T
  0.3355966967280277  0.3828405178640282  0.1125003580292306   T   T   T
  0.3338827177361597  0.5242277591729183  0.1163536504435362   T   T   T
  0.3331314769266102  0.6668698405646644  0.1129729709396204   T   T   T
  0.3331423877422114  0.8099040261042458  0.1107271080764394   T   T   T
  0.4762215537506765  0.9526185586465505  0.1105697636166503   T   T   T
  0.4766589314856898  0.0961266945785290  0.1110790913817371   T   T   T
  0.4775805743231003  0.2404086078220784  0.1112527845752876   T   T   T
  0.4861317028553667  0.3917654068838328  0.1057466980929351   T   T   T
  0.4756996123417322  0.5243017397195424  0.1364128528311419   T   T   T
  0.4757730634785230  0.6661180823270465  0.1163569214909396   T   T   T
  0.4760144816409205  0.8093634319776417  0.1112832704563030   T   T   T
  0.6190117214946103  0.9518719307515516  0.1106005056762921   T   T   T
  0.6192661973672186  0.0949352303222883  0.1111139153472585   T   T   T
  0.6195573471583259  0.2377911546498765  0.1126216487999549   T   T   T
  0.6200151461805797  0.3799880946365826  0.1126060216134759   T   T   T
  0.6082368465514246  0.5138708901109740  0.1057441043188547   T   T   T
  0.6171611353259870  0.6644050218581333  0.1125015657142959   T   T   T
  0.6185777271953460  0.8085040326418048  0.1111090763160679   T   T   T
  0.7617402919441987  0.9515831846106914  0.1100137058563386   T   T   T
  0.7621415590108697  0.0947556128914873  0.1109066589746441   T   T   T
  0.7622935119587929  0.2377086129623531  0.1115364517637271   T   T   T
  0.7622112134921614  0.3804449807412880  0.1126223140891158   T   T   T
  0.7595942478860961  0.5224221458980750  0.1112553368121443   T   T   T
  0.7567848725861626  0.6621647774504353  0.1073893515130940   T   T   T
  0.7605988146151754  0.8078877247017967  0.1089420303544269   T   T   T
  0.9516348925898269  0.9038150997898358  0.1094784652754335   T   T   T
  0.9526976271041624  0.0473041770044567  0.1099207091815814   T   T   T
  0.9529510227411966  0.1902925285040764  0.1104338597869370   T   T   T
  0.9528455696828232  0.3331748659999181  0.1107963775369224   T   T   T
  0.9521196252621268  0.4760176969993959  0.1108626086315586   T   T   T
  0.9513823165935672  0.6186577790122052  0.1103214638675383   T   T   T
  0.9511851351812477  0.7611128315182280  0.1093392037781814   T   T   T
  0.0950631915172815  0.9049384249996564  0.1098206793375429   T   T   T
  0.0961866377861301  0.0483671012184475  0.1094746876758392   T   T   T
  0.0963355957645309  0.1909792747871839  0.1093294923255779   T   T   T
  0.0959729703167469  0.3335442976508283  0.1104049547550853   T   T   T
  0.0952971309072776  0.4762794458762604  0.1105118341369273   T   T   T
  0.0947599748802826  0.6191044537299081  0.1103895341353716   T   T   T
  0.0946595709795166  0.7619566617518828  0.1101005455730421   T   T   T
  0.2380450021039080  0.9053423676511229  0.1101002238867419   T   T   T
  0.2388886616354837  0.0488169149293991  0.1093340744652028   T   T   T
  0.2411007896171260  0.1933190925419840  0.1082886531567269   T   T   T
  0.2397325343581339  0.3344633095428021  0.1101418797571834   T   T   T
  0.2385117868634543  0.4765854761998209  0.1121436382017450   T   T   T
  0.2378305673202457  0.6192913960984181  0.1114832752382446   T   T   T
  0.2377700145582810  0.7622316552982616  0.1104624635579571   T   T   T
  0.3808970357562110  0.9052417208133444  0.1103878342748742   T   T   T
  0.3813443129591939  0.0486194464473627  0.1103184442431299   T   T   T
  0.3825179300552067  0.1926793695019743  0.1090673055493135   T   T   T
  0.3876308027627458  0.3401805638216506  0.1059179293591164   T   T   T
  0.3818128264307573  0.4769452209558713  0.1217866987054045   T   T   T
  0.3806644980019950  0.6193361714075907  0.1163342194520232   T   T   T
  0.3807093750587022  0.7621705753038890  0.1114842739095771   T   T   T
  0.5237217228983554  0.9047041601590363  0.1105124492352856   T   T   T
  0.5239840709237017  0.0478822070354997  0.1108597630381657   T   T   T
  0.5244182400710985  0.1913379514338898  0.1120265626340981   T   T   T
  0.5256893440069651  0.3356901263060195  0.1119813021233663   T   T   T
  0.5230565526514827  0.6181887233005819  0.1217881605925421   T   T   T
  0.5234153615240263  0.7614891178540810  0.1121505791957034   T   T   T
  0.6664565118950941  0.9040273458554874  0.1104082727602448   T   T   T
  0.6668266443766194  0.0471557507138816  0.1107962480238451   T   T   T
  0.6670817637907274  0.1899908850238786  0.1117840072695392   T   T   T
  0.6674737209557478  0.3325285573833642  0.1133021530685759   T   T   T
  0.6643133601675947  0.4743146227525354  0.1119782084927308   T   T   T
  0.6598212108099014  0.6123711647996621  0.1059151206618993   T   T   T
  0.6655395119185341  0.7602691293340178  0.1101463821237204   T   T   T
  0.8090227603448527  0.9036666069140817  0.1093334385675508   T   T   T
  0.8097084573619981  0.0470502468909556  0.1104356251922194   T   T   T
  0.8099511887714380  0.1900504414977468  0.1111444519490785   T   T   T
  0.8100106294710276  0.3329197932719909  0.1117849314335414   T   T   T
  0.8086637655350717  0.4755843211784436  0.1120294602062283   T   T   T
  0.8073224111144133  0.6174847771366044  0.1090727848216512   T   T   T
  0.8066835320239777  0.7589010582142682  0.1082935965348127   T   T   T

  0.00000000E+00  0.00000000E+00  0.00000000E+00
  0.00000000E+00  0.00000000E+00  0.00000000E+00
  0.00000000E+00  0.00000000E+00  0.00000000E+00
  0.00000000E+00  0.00000000E+00  0.00000000E+00
  0.00000000E+00  0.00000000E+00  0.00000000E+00
  0.00000000E+00  0.00000000E+00  0.00000000E+00
  0.00000000E+00  0.00000000E+00  0.00000000E+00
  0.00000000E+00  0.00000000E+00  0.00000000E+00
  0.00000000E+00  0.00000000E+00  0.00000000E+00
  0.00000000E+00  0.00000000E+00  0.00000000E+00
  0.00000000E+00  0.00000000E+00  0.00000000E+00
  0.00000000E+00  0.00000000E+00  0.00000000E+00
  0.00000000E+00  0.00000000E+00  0.00000000E+00
  0.00000000E+00  0.00000000E+00  0.00000000E+00
  0.00000000E+00  0.00000000E+00  0.00000000E+00
  0.00000000E+00  0.00000000E+00  0.00000000E+00
  0.00000000E+00  0.00000000E+00  0.00000000E+00
  0.00000000E+00  0.00000000E+00  0.00000000E+00
  0.00000000E+00  0.00000000E+00  0.00000000E+00
  0.00000000E+00  0.00000000E+00  0.00000000E+00
  0.00000000E+00  0.00000000E+00  0.00000000E+00
  0.00000000E+00  0.00000000E+00  0.00000000E+00
  0.00000000E+00  0.00000000E+00  0.00000000E+00
  0.00000000E+00  0.00000000E+00  0.00000000E+00
  0.00000000E+00  0.00000000E+00  0.00000000E+00
  0.00000000E+00  0.00000000E+00  0.00000000E+00
  0.00000000E+00  0.00000000E+00  0.00000000E+00
  0.00000000E+00  0.00000000E+00  0.00000000E+00
  0.00000000E+00  0.00000000E+00  0.00000000E+00
  0.00000000E+00  0.00000000E+00  0.00000000E+00
  0.00000000E+00  0.00000000E+00  0.00000000E+00
  0.00000000E+00  0.00000000E+00  0.00000000E+00
  0.00000000E+00  0.00000000E+00  0.00000000E+00
  0.00000000E+00  0.00000000E+00  0.00000000E+00
  0.00000000E+00  0.00000000E+00  0.00000000E+00
  0.00000000E+00  0.00000000E+00  0.00000000E+00
  0.00000000E+00  0.00000000E+00  0.00000000E+00
  0.00000000E+00  0.00000000E+00  0.00000000E+00
  0.00000000E+00  0.00000000E+00  0.00000000E+00
  0.00000000E+00  0.00000000E+00  0.00000000E+00
  0.00000000E+00  0.00000000E+00  0.00000000E+00
  0.00000000E+00  0.00000000E+00  0.00000000E+00
  0.00000000E+00  0.00000000E+00  0.00000000E+00
  0.00000000E+00  0.00000000E+00  0.00000000E+00
  0.00000000E+00  0.00000000E+00  0.00000000E+00
  0.00000000E+00  0.00000000E+00  0.00000000E+00
  0.00000000E+00  0.00000000E+00  0.00000000E+00
  0.00000000E+00  0.00000000E+00  0.00000000E+00
  0.00000000E+00  0.00000000E+00  0.00000000E+00
  0.00000000E+00  0.00000000E+00  0.00000000E+00
  0.00000000E+00  0.00000000E+00  0.00000000E+00
  0.00000000E+00  0.00000000E+00  0.00000000E+00
  0.00000000E+00  0.00000000E+00  0.00000000E+00
  0.00000000E+00  0.00000000E+00  0.00000000E+00
  0.00000000E+00  0.00000000E+00  0.00000000E+00
  0.00000000E+00  0.00000000E+00  0.00000000E+00
  0.00000000E+00  0.00000000E+00  0.00000000E+00
  0.00000000E+00  0.00000000E+00  0.00000000E+00
  0.00000000E+00  0.00000000E+00  0.00000000E+00
  0.00000000E+00  0.00000000E+00  0.00000000E+00
  0.00000000E+00  0.00000000E+00  0.00000000E+00
  0.00000000E+00  0.00000000E+00  0.00000000E+00
  0.00000000E+00  0.00000000E+00  0.00000000E+00
  0.00000000E+00  0.00000000E+00  0.00000000E+00
  0.00000000E+00  0.00000000E+00  0.00000000E+00
  0.00000000E+00  0.00000000E+00  0.00000000E+00
  0.00000000E+00  0.00000000E+00  0.00000000E+00
  0.00000000E+00  0.00000000E+00  0.00000000E+00
  0.00000000E+00  0.00000000E+00  0.00000000E+00
  0.00000000E+00  0.00000000E+00  0.00000000E+00
  0.00000000E+00  0.00000000E+00  0.00000000E+00
  0.00000000E+00  0.00000000E+00  0.00000000E+00
  0.00000000E+00  0.00000000E+00  0.00000000E+00
  0.00000000E+00  0.00000000E+00  0.00000000E+00
  0.00000000E+00  0.00000000E+00  0.00000000E+00
  0.00000000E+00  0.00000000E+00  0.00000000E+00
  0.00000000E+00  0.00000000E+00  0.00000000E+00
  0.00000000E+00  0.00000000E+00  0.00000000E+00
  0.00000000E+00  0.00000000E+00  0.00000000E+00
  0.00000000E+00  0.00000000E+00  0.00000000E+00
  0.00000000E+00  0.00000000E+00  0.00000000E+00
  0.00000000E+00  0.00000000E+00  0.00000000E+00
  0.00000000E+00  0.00000000E+00  0.00000000E+00
  0.00000000E+00  0.00000000E+00  0.00000000E+00
  0.00000000E+00  0.00000000E+00  0.00000000E+00
  0.00000000E+00  0.00000000E+00  0.00000000E+00
  0.00000000E+00  0.00000000E+00  0.00000000E+00
  0.00000000E+00  0.00000000E+00  0.00000000E+00
  0.00000000E+00  0.00000000E+00  0.00000000E+00
  0.00000000E+00  0.00000000E+00  0.00000000E+00
  0.00000000E+00  0.00000000E+00  0.00000000E+00
  0.00000000E+00  0.00000000E+00  0.00000000E+00
  0.00000000E+00  0.00000000E+00  0.00000000E+00
  0.00000000E+00  0.00000000E+00  0.00000000E+00
  0.00000000E+00  0.00000000E+00  0.00000000E+00
  0.00000000E+00  0.00000000E+00  0.00000000E+00
  0.00000000E+00  0.00000000E+00  0.00000000E+00
