 N B 
 1.0
 14.936314146199660   0.000000000000000   0.000000000000000
 -7.468157073099825  12.935227489513863   0.000000000000000
  0.000000000000001   0.000000000000001  13.341276283792837
 N B 
 143 145
Cartesian
  1.243999959173712   0.718530854142453   1.654684134225118 
  4.978771382057223   7.189852364252216   1.631711871233066 
  6.223762790088608   0.718874633004497   1.644049641515878 
  9.957474773831677   7.185853489667824   1.644049641515878 
 11.202599930624880   0.718834090222842   1.661515967793870 
 -3.734242151918119   9.342014279058775   8.369420519951689 
  1.245059398337296   9.342241863333326   8.361907571339009 
  2.487995812581624   2.873919003115123   8.364811566974291 
  6.223268114270315   9.343600409753329   8.364811566974291 
  7.469546951562574   2.873919003115123   8.364811566974291 
 12.446928455171376   2.874074316060720   8.344441245037057 
 -1.244529230167017   9.342014279058775   1.636536692898261 
 -0.001017910810684   2.873907306588650   1.655036916027371 
  4.978771382064511   2.874679583720639   1.639198232361167 
  3.734274649868914   9.343600409753329   1.641145645876473 
  8.712483365818288   9.342241863333742   1.644049641515878 
  9.958560674935075   2.873907306588650   1.655036916027371 
 -4.979023331197293  11.498125453578879   8.361233409864790 
  0.000251949118314  11.498125453578879   8.361233409864790 
  1.243499080376764   5.029450573146280   8.364811566974291 
  6.226594796892674   5.028558810883107   8.374245341599622 
  4.978771382067233  11.499155372823305   8.350920296812987 
 11.202662502481012   5.029812636381894   8.351273078619977 
 -1.245119738354542   5.029812636381894   1.654684134225118 
 -2.489385691033233  11.498168917409453   1.636536692898261 
  2.489651684551487  11.498626495482377   1.654684134225198 
  3.730947967236574   5.028558810883106   1.631711871233186 
  7.467891079591792  11.498626495482377   1.654684134225118 
  8.714043683759757   5.029450573146279   1.641145645876460 
  0.000067990317678   7.185853489667825   8.361907571339009 
  1.243999959173712   0.718530854142453   8.351273078619977 
  4.978771382057224   7.189852364252217   8.374245341598153 
  6.223762790088639   0.718874633004498   8.361907571339009 
  9.957474773831677   7.185853489667825   8.361907571339009 
 -2.489385691029798   7.185946568372865   1.644723802978757 
 11.202599930624880   0.718834090222843   8.344441245037057 
  3.733779974055841   0.718874633004497   1.644049641515878 
  2.489545547239306   7.186145201150977   1.639198232361180 
  7.467997216893422   7.186145201150977   1.639198232361193 
  8.713542804968959   0.718530854142453   1.654684134225118 
  2.489545547239306   7.186145201150978   8.366758980495961 
 13.691256979727175   0.718834090222842   1.661515967793870 
 -1.244529230167017   9.342014279058775   8.369420519951689 
 -0.001017910810728   2.873907306588650   8.350920296812987 
  4.978771382064512   2.874679583720640   8.366758980495961 
  3.734274649868915   9.343600409753329   8.364811566974291 
  8.712483365818528   9.342241863333326   8.361907571339009 
  9.958560674934956   2.873907306588650   8.350920296812987 
 -3.734242151918119   9.342014279058775   1.636536692898261 
  1.245059398337055   9.342241863333742   1.644049641515878 
  2.487995812581623   2.873919003115122   1.641145645876460 
  6.223268114270314   9.343600409753329   1.641145645876460 
  7.469546951562573   2.873919003115122   1.641145645876353 
 12.446928455171376   2.874074316060719   1.661515967793870 
 -1.245119738354542   5.029812636381894   8.351273078619977 
 -2.489385691033232  11.498168917409453   8.369420519951689 
  2.489651684551487  11.498626495482377   8.351273078619977 
  3.730947967236574   5.028558810883107   8.374245341598153 
  7.467891079591793  11.498626495482377   8.351273078619977 
 -4.979023331197294  11.498125453578879   1.644723802978757 
  8.714043683759757   5.029450573146280   8.364811566974291 
  0.000251949118313  11.498125453578879   1.644723802978757 
  1.243499080376764   5.029450573146279   1.641145645876353 
  0.000067990317677   7.185853489667824   1.644049641515878 
  6.226594796892673   5.028558810883106   1.631711871233120 
  4.978771382067113  11.499155372823305   1.655036916027371 
 11.202662502481012   5.029812636381894   1.654684134225198 
 -2.489385691029798   7.185946568372866   8.361233409864790 
  3.733779974055842   0.718874633004498   8.361907571339009 
  7.467997216893423   7.186145201150978   8.366758980495961 
  8.713542804968959   0.718530854142453   8.351273078619977 
 13.691256979727198   0.718834090222804   8.344441245037057 
 -0.005349603090953   1.431562498952230   5.002978606422314 
  3.699501878097901   7.972428523926812   5.002978606422314 
  4.978771382066452   1.419660541689104   5.002978606422314 
  8.728080670281958   7.913654722161366   5.002978606422314 
  9.962892367224901   1.431562498952230   5.002978606422314 
 -4.978557429506386  10.060834562074184  11.673616748318732 
 -0.000213952570265  10.060834562074184  11.673616748318732 
  1.244820698197990   3.593192562866254  11.673616748318732 
  4.978771382062423  10.060584860286003  11.673616748318732 
  6.223308859143253   3.592867802447814  11.673616748318732 
 11.202205222115982   3.593175418838732  11.673616748318732 
 -2.489385691033300  10.060732491844131   5.002978606422314 
 -1.252291001381172   3.591328354851728   5.002978606422314 
  3.692851884526402   3.529390842318683   5.002978606422314 
  2.469674846506621  10.086925048732526   5.002978606422314 
  7.487867917639285  10.086925048732526   5.002978606422314 
  8.735228826852333   3.580198278407225   5.002978606422314 
 -6.223392412577384  12.216562277688920  11.673616748318732 
 -1.244711426399901  12.216367416638247  11.673616748318732 
 -0.000091805851449   5.749144981761436  11.673616748318732 
  4.978771382066590   5.748989995339477  11.673616748318732 
  3.734044651137393  12.216549087837492  11.673616748318732 
  9.957634569994051   5.749144981761436  11.673616748318732 
 -2.489385691036296   5.753061025976988   5.002978606422314 
 -3.732405832725325  12.208267870483597   5.002978606422314 
  1.241167229580066  12.214568224769524   5.002978606422314 
  2.413582380559276   5.745150619763197   5.002978606422314 
  6.225712780359918  12.224079132221172   5.002978606422314 
  7.543960383574289   5.745150619763197   5.002978606422314 
 -1.244888217207822   7.904995496855034  11.673616748318732 
  0.000064272941642   1.437245479328057  11.673616748318732 
  3.733783527881553   7.904852162922846  11.673616748318732 
  4.978771382069514   1.436798441006680  11.673616748318732 
  8.713238814097732   7.905085772505319  11.673616748318732 
 -3.727695813629680   7.910477782403663   5.002978606422314 
  9.957478491186976   1.437245479328057  11.673616748318732 
  2.476557693636793   1.407081128302174   5.002978606422314 
  1.229462093854955   7.913654722161366   5.002978606422314 
  6.258040886045358   7.972428523926812   5.002978606422314 
  7.480985070490987   1.407081128302174   5.002978606422314 
  1.244303950032954   7.905085772505319  11.673616748318732 
 12.446928455166319   1.437247498834912   5.002978606422314 
 -2.489385691033299  10.060732491844133  11.673616748318732 
 -1.244662457988811   3.593175418838732  11.673616748318732 
  3.734233904966906   3.592867802447814  11.673616748318732 
  2.489205565908353  10.060734504839823  11.673616748318732 
  7.468337198209593  10.060734504839823  11.673616748318732 
  8.712722065932599   3.593192562866254  11.673616748318732 
 -4.970715955327532  10.063451822655871   5.002978606422314 
 -0.008055426760845  10.063451822655871   5.002978606422314 
  1.222313937291535   3.580198278407225   5.002978606422314 
  4.978771382091107  10.086573429204071   5.002978606422314 
  6.264690879580977   3.529390842318683   5.002978606422314 
 11.209833765521083   3.591328354851728   5.002978606422314 
 -2.489385691029619   5.749072920164453  11.673616748318732 
 -3.734059955671237  12.216367416638247  11.673616748318732 
  1.244621030496149  12.216562277688920  11.673616748318732 
  2.489246050816493   5.749250020642494  11.673616748318732 
  6.223498112996853  12.216549087837492  11.673616748318732 
 -6.219938611629965  12.214568224769524   5.002978606422314 
  7.468296713312607   5.749250020642494  11.673616748318732 
 -1.246365549336403  12.208267870483597   5.002978606422314 
 -0.032538841925384   5.752963808990947   5.002978606422314 
 -1.251075568451886   7.910477782403663   5.002978606422314 
  3.731829983773607  12.224079132221172   5.002978606422314 
  9.990081606061556   5.752963808990804   5.002978606422314 
 -3.733883164872608   7.904995496855034  11.673616748318732 
  2.489474010285345   1.437090499425802  11.673616748318732 
  6.223759236201096   7.904852162922846  11.673616748318732 
  7.468068753829606   1.437090499425802  11.673616748318732 
 12.446928455166319   1.437247498834912  11.673616748318732 
  1.240097965517698   0.709366336014846   5.002978606422314 
  4.978771382074863   7.262236273773485   5.002978606422314 
  6.222561549719781   0.712533085176992   5.002978606422314 
  9.962366095159693   7.190064568239093   5.002978606422314 
 11.202933768501980   0.719026831626073   5.002978606422314 
 -3.734379933994549   9.341934730503047  11.673616748318732 
  1.245256054639382   9.341192856351906  11.673616748318732 
  2.491113704582691   2.875855013215026  11.673616748318732 
  6.223150426350609   9.339932231010099  11.673616748318732 
  7.466429059542090   2.875855013215026  11.673616748318732 
 12.446928455162368   2.874958934133268  11.673616748318732 
 -1.247157239316494   9.343531560846149   5.002978606422314 
 -0.005209273005690   2.871487422494798   5.002978606422314 
  4.978771382063003   2.877405821046684   5.002978606422314 
  3.716422829261726   9.369566282187645   5.002978606422314 
  8.718575927506379   9.344372332569257   5.002978606422314 
  9.962752037160566   2.871487422494798   5.002978606422314 
 -4.978682020874316  11.497928397973913  11.673616748318732 
 -0.000089361199049  11.497928397973913  11.673616748318732 
  1.246734660304991   5.031182741778019  11.673616748318732 
  6.221853066853180   5.031296449992987  11.673616748318732 
  4.978771382078586  11.496398339087678  11.673616748318732 
 11.201439892649940   5.030922107233160  11.673616748318732 
 -1.255007440695888   5.031015669816564   5.002978606422314 
 -2.489385691033239  11.495134353827190   5.002978606422314 
  2.483665975832556  11.506587980199594   5.002978606422314 
  3.668261662758543   4.992366856122473   5.002978606422314 
  7.473876788259505  11.506587980199594   5.002978606422314 
  8.745456699215666   5.031927767053216   5.002978606422314 
  0.001074785145158   7.186207683807961  11.673616748318732 
  1.245572094018401   0.719034929880208  11.673616748318732 
  4.978771382048838   7.184377086032444  11.673616748318732 
  6.222952651552707   0.719569445835269  11.673616748318732 
  9.956467978983792   7.186207683807961  11.673616748318732 
 -2.489385691047258   7.189863662326754   5.002978606422314 
 11.201833828896216   0.718391781184745  11.673616748318732 
  3.734981214409746   0.712533085176992   5.002978606422314 
  2.491906538016531   7.184782082492056   5.002978606422314 
  7.465636226113002   7.184782082492056   5.002978606422314 
  8.717444798602674   0.709366336014769   5.002978606422314 
  2.490699489165392   7.185478972473092  11.673616748318732 
 13.690923141816185   0.719026831626073   5.002978606422314 
 -1.244391448042775   9.341934730503047  11.673616748318732 
  0.001369750442872   2.875285823462713  11.673616748318732 
  4.978771382065564   2.876012041085894  11.673616748318732 
  3.734392337785604   9.339932231010099  11.673616748318732 
  8.712286709515903   9.341192856351906  11.673616748318732 
  9.956173013688675   2.875285823462713  11.673616748318732 
 -3.731614142739905   9.343531560846149   5.002978606422314 
  1.238966836636314   9.344372332569257   5.002978606422314 
  2.474434617721021   2.845475936790362   5.002978606422314 
  6.241119934855531   9.369566282187645   5.002978606422314 
  7.483108146394260   2.845475936790362   5.002978606422314 
 12.446928455165438   2.873688833250907   5.002978606422314 
 -1.243897128541605   5.030922107233160  11.673616748318732 
 -2.489385691033239  11.498328014493298  11.673616748318732 
  2.489302159508129  11.497012948917831  11.673616748318732 
  3.735689697271408   5.031296449992987  11.673616748318732 
  7.468240604598749  11.497012948917831  11.673616748318732 
 -4.975631028356224  11.496166906627209   5.002978606422314 
  8.710808103829393   5.031182741778019  11.673616748318732 
 -0.003140353717992  11.496166906627209   5.002978606422314 
  1.212086064948620   5.031927767053216   5.002978606422314 
 -0.004823331020407   7.190064568239093   5.002978606422314 
  6.289281101380965   4.992366856122473   5.002978606422314 
  4.978771382086381  11.503995141023761   5.002978606422314 
 11.212550204816008   5.031015669816564   5.002978606422314 
 -2.489385691032329   7.186340679592828  11.673616748318732 
  3.734590112590645   0.719569445835257  11.673616748318732 
  7.466843274960841   7.185478972473092  11.673616748318732 
  8.711970670119326   0.719034929880208  11.673616748318732 
 13.692023081442695   0.718391781184745  11.673616748318732 
  0.000015456759976   1.437887109812505   1.662585875853193 
  3.739108489143361   7.901084092091126   1.651278412181137 
  4.978771382065428   1.442913873945957   1.649455184220243 
  8.707942693823295   7.902028056039205   1.649455184220243 
  9.957527307366908   1.437887109812505   1.662585875853193 
 -4.980976337317928  10.059996405978353   8.359992763177841 
  0.002204955283233  10.059996405978353   8.359992763177841 
  1.246356364518462   3.594079180234558   8.352473298113029 
  4.978771382054867  10.058811625549392   8.352473298113029 
  6.222708094719830   3.599363389574631   8.354678800646001 
 11.201673961878194   3.592812327553986   8.343371336993009 
 -2.489385691033300  10.060732491844131   1.639054662514967 
 -1.244131197786572   3.592812327553985   1.662585875853193 
  3.734834669406669   3.599363389574630   1.651278412181137 
  2.492046418559299  10.058836174802732   1.653023375302759 
  7.465496345598974  10.058836174802732   1.653023375302759 
  8.711186399596269   3.594079180234557   1.653483914721192 
 -6.224562024865073  12.217237553651518   8.349220519435930 
 -1.244227836923551  12.218881330300226   8.359992763177841 
  0.002972622484980   5.747633896230807   8.352933837545711 
  4.978771382066590   5.748989995339477   8.282715154105313 
  3.734624727516465  12.216270548664991   8.343371336993009 
  9.954570141663385   5.747633896230807   8.352933837545711 
 -2.489385691026005   5.747722368213356   1.656736693391888 
 -3.734543545145391  12.218881330300226   1.645964449671669 
  1.245790642799112  12.217237553651454   1.656736693391915 
  2.495171776487355   5.746522504368713   1.651278412181137 
  6.222918036574298  12.216270548664991   1.662585875853193 
  7.462370987660323   5.746522504368713   1.651278412181137 
 -1.242952898842377   7.903319739240001   8.359992763177841 
  0.000015456759977   1.437887109812505   8.343371336993009 
  3.739108489143362   7.901084092091127   8.354678800646054 
  4.978771382065310   1.442913873945958   8.356502028629187 
  8.707942693823295   7.902028056039206   8.356502028629187 
 -3.735818483221565   7.903319739240001   1.645964449671669 
  9.957527307366908   1.437887109812505   8.343371336993009 
  2.489697585997064   1.440499914977983   1.653023375302759 
  1.249600070307269   7.902028056039205   1.649455184220243 
  6.218434275003170   7.901084092091126   1.651278412181137 
  7.467845178135796   1.440499914977983   1.653023375302759 
  1.249600070307389   7.902028056039206   8.356502028629187 
 12.446928455166319   1.437247498834911   1.666799250390876 
 -2.489385691033300  10.060732491844131   8.366902550334157 
 -1.244131197786572   3.592812327553986   8.343371336993009 
  3.734834669406670   3.599363389574631   8.354678800646001 
  2.492046418559299  10.058836174802732   8.352933837545711 
  7.465496345598975  10.058836174802732   8.352933837545711 
  8.711186399596269   3.594079180234558   8.352473298115003 
 -4.980976337317929  10.059996405978353   1.645964449671669 
  0.002204955283233  10.059996405978353   1.645964449671669 
  1.246356364518462   3.594079180234557   1.653483914721192 
  4.978771382054866  10.058811625549392   1.653483914721192 
  6.222708094719829   3.599363389574630   1.651278412180857 
 11.201673961878194   3.592812327553985   1.662585875853193 
 -2.489385691026005   5.747722368213357   8.349220519435930 
 -3.734543545145391  12.218881330300226   8.359992763177841 
  1.245790642799113  12.217237553651454   8.349220519435930 
  2.495171776487356   5.746522504368714   8.354678800646001 
  6.222918036574299  12.216270548664991   8.343371336993009 
 -6.224562024865074  12.217237553651518   1.656736693391915 
  7.462370987660324   5.746522504368714   8.354678800646054 
 -1.244227836923417  12.218881330300226   1.645964449671669 
  0.002972622484979   5.747633896230806   1.653023375302759 
 -1.242952898842377   7.903319739240001   1.645964449671669 
  4.978771382066589   5.748989995339476   1.723242058740302 
  3.734624727516464  12.216270548664991   1.662585875853193 
  9.954570141663385   5.747633896230806   1.653023375302759 
 -3.735818483221565   7.903319739240001   8.359992763177841 
  2.489697585997065   1.440499914977984   8.352933837545711 
  6.218434275003171   7.901084092091127   8.354678800646001 
  7.467845178135796   1.440499914977984   8.352933837545711 
 12.446928455166319   1.437247498834912   8.339157962434074 
  4.978771382066589   5.748989995339477   5.002978606422314 
Generated by cif2cell 2.0.0.  :  Failed to get author information, No journal information. Species order: N B 
 1.0
 14.936314146199660   0.000000000000000   0.000000000000000
 -7.468157073099825  12.935227489513863   0.000000000000000
  0.000000000000001   0.000000000000001  13.341276283792837
 N B 
 143 145
Cartesian
  1.243999959173712   0.718530854142453   1.654684134225118 
  4.978771382057223   7.189852364252216   1.631711871233066 
  6.223762790088608   0.718874633004497   1.644049641515878 
  9.957474773831677   7.185853489667824   1.644049641515878 
 11.202599930624880   0.718834090222842   1.661515967793870 
 -3.734242151918119   9.342014279058775   8.369420519951689 
  1.245059398337296   9.342241863333326   8.361907571339009 
  2.487995812581624   2.873919003115123   8.364811566974291 
  6.223268114270315   9.343600409753329   8.364811566974291 
  7.469546951562574   2.873919003115123   8.364811566974291 
 12.446928455171376   2.874074316060720   8.344441245037057 
 -1.244529230167017   9.342014279058775   1.636536692898261 
 -0.001017910810684   2.873907306588650   1.655036916027371 
  4.978771382064511   2.874679583720639   1.639198232361167 
  3.734274649868914   9.343600409753329   1.641145645876473 
  8.712483365818288   9.342241863333742   1.644049641515878 
  9.958560674935075   2.873907306588650   1.655036916027371 
 -4.979023331197293  11.498125453578879   8.361233409864790 
  0.000251949118314  11.498125453578879   8.361233409864790 
  1.243499080376764   5.029450573146280   8.364811566974291 
  6.226594796892674   5.028558810883107   8.374245341599622 
  4.978771382067233  11.499155372823305   8.350920296812987 
 11.202662502481012   5.029812636381894   8.351273078619977 
 -1.245119738354542   5.029812636381894   1.654684134225118 
 -2.489385691033233  11.498168917409453   1.636536692898261 
  2.489651684551487  11.498626495482377   1.654684134225198 
  3.730947967236574   5.028558810883106   1.631711871233186 
  7.467891079591792  11.498626495482377   1.654684134225118 
  8.714043683759757   5.029450573146279   1.641145645876460 
  0.000067990317678   7.185853489667825   8.361907571339009 
  1.243999959173712   0.718530854142453   8.351273078619977 
  4.978771382057224   7.189852364252217   8.374245341598153 
  6.223762790088639   0.718874633004498   8.361907571339009 
  9.957474773831677   7.185853489667825   8.361907571339009 
 -2.489385691029798   7.185946568372865   1.644723802978757 
 11.202599930624880   0.718834090222843   8.344441245037057 
  3.733779974055841   0.718874633004497   1.644049641515878 
  2.489545547239306   7.186145201150977   1.639198232361180 
  7.467997216893422   7.186145201150977   1.639198232361193 
  8.713542804968959   0.718530854142453   1.654684134225118 
  2.489545547239306   7.186145201150978   8.366758980495961 
 13.691256979727175   0.718834090222842   1.661515967793870 
 -1.244529230167017   9.342014279058775   8.369420519951689 
 -0.001017910810728   2.873907306588650   8.350920296812987 
  4.978771382064512   2.874679583720640   8.366758980495961 
  3.734274649868915   9.343600409753329   8.364811566974291 
  8.712483365818528   9.342241863333326   8.361907571339009 
  9.958560674934956   2.873907306588650   8.350920296812987 
 -3.734242151918119   9.342014279058775   1.636536692898261 
  1.245059398337055   9.342241863333742   1.644049641515878 
  2.487995812581623   2.873919003115122   1.641145645876460 
  6.223268114270314   9.343600409753329   1.641145645876460 
  7.469546951562573   2.873919003115122   1.641145645876353 
 12.446928455171376   2.874074316060719   1.661515967793870 
 -1.245119738354542   5.029812636381894   8.351273078619977 
 -2.489385691033232  11.498168917409453   8.369420519951689 
  2.489651684551487  11.498626495482377   8.351273078619977 
  3.730947967236574   5.028558810883107   8.374245341598153 
  7.467891079591793  11.498626495482377   8.351273078619977 
 -4.979023331197294  11.498125453578879   1.644723802978757 
  8.714043683759757   5.029450573146280   8.364811566974291 
  0.000251949118313  11.498125453578879   1.644723802978757 
  1.243499080376764   5.029450573146279   1.641145645876353 
  0.000067990317677   7.185853489667824   1.644049641515878 
  6.226594796892673   5.028558810883106   1.631711871233120 
  4.978771382067113  11.499155372823305   1.655036916027371 
 11.202662502481012   5.029812636381894   1.654684134225198 
 -2.489385691029798   7.185946568372866   8.361233409864790 
  3.733779974055842   0.718874633004498   8.361907571339009 
  7.467997216893423   7.186145201150978   8.366758980495961 
  8.713542804968959   0.718530854142453   8.351273078619977 
 13.691256979727198   0.718834090222804   8.344441245037057 
 -0.005349603090953   1.431562498952230   5.002978606422314 
  3.699501878097901   7.972428523926812   5.002978606422314 
  4.978771382066452   1.419660541689104   5.002978606422314 
  8.728080670281958   7.913654722161366   5.002978606422314 
  9.962892367224901   1.431562498952230   5.002978606422314 
 -4.978557429506386  10.060834562074184  11.673616748318732 
 -0.000213952570265  10.060834562074184  11.673616748318732 
  1.244820698197990   3.593192562866254  11.673616748318732 
  4.978771382062423  10.060584860286003  11.673616748318732 
  6.223308859143253   3.592867802447814  11.673616748318732 
 11.202205222115982   3.593175418838732  11.673616748318732 
 -2.489385691033300  10.060732491844131   5.002978606422314 
 -1.252291001381172   3.591328354851728   5.002978606422314 
  3.692851884526402   3.529390842318683   5.002978606422314 
  2.469674846506621  10.086925048732526   5.002978606422314 
  7.487867917639285  10.086925048732526   5.002978606422314 
  8.735228826852333   3.580198278407225   5.002978606422314 
 -6.223392412577384  12.216562277688920  11.673616748318732 
 -1.244711426399901  12.216367416638247  11.673616748318732 
 -0.000091805851449   5.749144981761436  11.673616748318732 
  4.978771382066590   5.748989995339477  11.673616748318732 
  3.734044651137393  12.216549087837492  11.673616748318732 
  9.957634569994051   5.749144981761436  11.673616748318732 
 -2.489385691036296   5.753061025976988   5.002978606422314 
 -3.732405832725325  12.208267870483597   5.002978606422314 
  1.241167229580066  12.214568224769524   5.002978606422314 
  2.413582380559276   5.745150619763197   5.002978606422314 
  6.225712780359918  12.224079132221172   5.002978606422314 
  7.543960383574289   5.745150619763197   5.002978606422314 
 -1.244888217207822   7.904995496855034  11.673616748318732 
  0.000064272941642   1.437245479328057  11.673616748318732 
  3.733783527881553   7.904852162922846  11.673616748318732 
  4.978771382069514   1.436798441006680  11.673616748318732 
  8.713238814097732   7.905085772505319  11.673616748318732 
 -3.727695813629680   7.910477782403663   5.002978606422314 
  9.957478491186976   1.437245479328057  11.673616748318732 
  2.476557693636793   1.407081128302174   5.002978606422314 
  1.229462093854955   7.913654722161366   5.002978606422314 
  6.258040886045358   7.972428523926812   5.002978606422314 
  7.480985070490987   1.407081128302174   5.002978606422314 
  1.244303950032954   7.905085772505319  11.673616748318732 
 12.446928455166319   1.437247498834912   5.002978606422314 
 -2.489385691033299  10.060732491844133  11.673616748318732 
 -1.244662457988811   3.593175418838732  11.673616748318732 
  3.734233904966906   3.592867802447814  11.673616748318732 
  2.489205565908353  10.060734504839823  11.673616748318732 
  7.468337198209593  10.060734504839823  11.673616748318732 
  8.712722065932599   3.593192562866254  11.673616748318732 
 -4.970715955327532  10.063451822655871   5.002978606422314 
 -0.008055426760845  10.063451822655871   5.002978606422314 
  1.222313937291535   3.580198278407225   5.002978606422314 
  4.978771382091107  10.086573429204071   5.002978606422314 
  6.264690879580977   3.529390842318683   5.002978606422314 
 11.209833765521083   3.591328354851728   5.002978606422314 
 -2.489385691029619   5.749072920164453  11.673616748318732 
 -3.734059955671237  12.216367416638247  11.673616748318732 
  1.244621030496149  12.216562277688920  11.673616748318732 
  2.489246050816493   5.749250020642494  11.673616748318732 
  6.223498112996853  12.216549087837492  11.673616748318732 
 -6.219938611629965  12.214568224769524   5.002978606422314 
  7.468296713312607   5.749250020642494  11.673616748318732 
 -1.246365549336403  12.208267870483597   5.002978606422314 
 -0.032538841925384   5.752963808990947   5.002978606422314 
 -1.251075568451886   7.910477782403663   5.002978606422314 
  3.731829983773607  12.224079132221172   5.002978606422314 
  9.990081606061556   5.752963808990804   5.002978606422314 
 -3.733883164872608   7.904995496855034  11.673616748318732 
  2.489474010285345   1.437090499425802  11.673616748318732 
  6.223759236201096   7.904852162922846  11.673616748318732 
  7.468068753829606   1.437090499425802  11.673616748318732 
 12.446928455166319   1.437247498834912  11.673616748318732 
  1.240097965517698   0.709366336014846   5.002978606422314 
  4.978771382074863   7.262236273773485   5.002978606422314 
  6.222561549719781   0.712533085176992   5.002978606422314 
  9.962366095159693   7.190064568239093   5.002978606422314 
 11.202933768501980   0.719026831626073   5.002978606422314 
 -3.734379933994549   9.341934730503047  11.673616748318732 
  1.245256054639382   9.341192856351906  11.673616748318732 
  2.491113704582691   2.875855013215026  11.673616748318732 
  6.223150426350609   9.339932231010099  11.673616748318732 
  7.466429059542090   2.875855013215026  11.673616748318732 
 12.446928455162368   2.874958934133268  11.673616748318732 
 -1.247157239316494   9.343531560846149   5.002978606422314 
 -0.005209273005690   2.871487422494798   5.002978606422314 
  4.978771382063003   2.877405821046684   5.002978606422314 
  3.716422829261726   9.369566282187645   5.002978606422314 
  8.718575927506379   9.344372332569257   5.002978606422314 
  9.962752037160566   2.871487422494798   5.002978606422314 
 -4.978682020874316  11.497928397973913  11.673616748318732 
 -0.000089361199049  11.497928397973913  11.673616748318732 
  1.246734660304991   5.031182741778019  11.673616748318732 
  6.221853066853180   5.031296449992987  11.673616748318732 
  4.978771382078586  11.496398339087678  11.673616748318732 
 11.201439892649940   5.030922107233160  11.673616748318732 
 -1.255007440695888   5.031015669816564   5.002978606422314 
 -2.489385691033239  11.495134353827190   5.002978606422314 
  2.483665975832556  11.506587980199594   5.002978606422314 
  3.668261662758543   4.992366856122473   5.002978606422314 
  7.473876788259505  11.506587980199594   5.002978606422314 
  8.745456699215666   5.031927767053216   5.002978606422314 
  0.001074785145158   7.186207683807961  11.673616748318732 
  1.245572094018401   0.719034929880208  11.673616748318732 
  4.978771382048838   7.184377086032444  11.673616748318732 
  6.222952651552707   0.719569445835269  11.673616748318732 
  9.956467978983792   7.186207683807961  11.673616748318732 
 -2.489385691047258   7.189863662326754   5.002978606422314 
 11.201833828896216   0.718391781184745  11.673616748318732 
  3.734981214409746   0.712533085176992   5.002978606422314 
  2.491906538016531   7.184782082492056   5.002978606422314 
  7.465636226113002   7.184782082492056   5.002978606422314 
  8.717444798602674   0.709366336014769   5.002978606422314 
  2.490699489165392   7.185478972473092  11.673616748318732 
 13.690923141816185   0.719026831626073   5.002978606422314 
 -1.244391448042775   9.341934730503047  11.673616748318732 
  0.001369750442872   2.875285823462713  11.673616748318732 
  4.978771382065564   2.876012041085894  11.673616748318732 
  3.734392337785604   9.339932231010099  11.673616748318732 
  8.712286709515903   9.341192856351906  11.673616748318732 
  9.956173013688675   2.875285823462713  11.673616748318732 
 -3.731614142739905   9.343531560846149   5.002978606422314 
  1.238966836636314   9.344372332569257   5.002978606422314 
  2.474434617721021   2.845475936790362   5.002978606422314 
  6.241119934855531   9.369566282187645   5.002978606422314 