 B S N 
 1.0
 14.936314146199660   0.000000000000000   0.000000000000000
 -7.468157073099825  12.935227489513863   0.000000000000000
  0.000000000000001   0.000000000000001  13.341276283792837
 B S N 
 143   1 143
Cartesian
  1.216122882785844   0.697447106514880   5.002978606422314 
  5.062636863134752   7.312883220149641   5.002978606422314 
  6.229095296237434   0.713138110597381   5.002978606422314 
  9.988786445456647   7.195989406198386   5.002978606422314 
 11.189972707817832   0.711543759743759   5.002978606422314 
 -3.734005247729249   9.342151055746973  11.673616748318732 
  1.244479652882508   9.342769186168198  11.673616748318732 
  2.488733938125011   2.873801686973583  11.673616748318732 
  6.223654232444880   9.343002685871953  11.673616748318732 
  7.469047572277348   2.873895874695564  11.673616748318732 
 12.446725075386054   2.874216687591623  11.673616748318732 
 -1.239435330644718   9.346041418104246   5.002978606422314 
 -0.049747867595823   2.845773052921643   5.002978606422314 
  4.987242288104976   2.838522941295592   5.002978606422314 
  3.744772300583870   9.342970818127144   5.002978606422314 
  8.736917162826497   9.364290608148622   5.002978606422314 
  9.954017222635343   2.868549220130172   5.002978606422314 
 -4.978883438914442  11.497884680408491  11.673616748318732 
  0.000172320750142  11.498079480110432  11.673616748318732 
  1.243766544386952   5.030148466694523  11.673616748318732 
  6.224249763920365   5.030145740030487  11.673616748318732 
  4.978748086426432  11.498670132933686  11.673616748318732 
 11.202474359995536   5.030101586079217  11.673616748318732 
 -1.277317337602479   5.016212253863225   5.002978606422314 
 -2.483351136555663  11.500566794280003   5.002978606422314 
  2.489076396501633  11.494127353689207   5.002978606422314 
  7.465927379906961  11.505615403617471   5.002978606422314 
  8.762676883074837   5.031417039907825   5.002978606422314 
 -0.000580501901933   7.186433414052167  11.673616748318732 
  1.244165209535347   0.718243552210895  11.673616748318732 
  4.978973186531388   7.187028041543686  11.673616748318732 
  6.223929592324037   0.718108897309641  11.673616748318732 
  9.957965486216782   7.186246467551495  11.673616748318732 
 -2.484046568480761   7.186446640108223   5.002978606422314 
 11.202370296514989   0.718701510915357  11.673616748318732 
  3.723844268947889   0.706069794014991   5.002978606422314 
  2.462468429406086   7.211559542183827   5.002978606422314 
  7.534786835555106   7.224706205463985   5.002978606422314 
  8.709358789845965   0.720282210990613   5.002978606422314 
  2.488925172629306   7.186878768962899  11.673616748318732 
 13.668514197905456   0.705651218565729   5.002978606422314 
 -1.244799201513272   9.342272862465233  11.673616748318732 
 -0.000834212827302   2.874013364669306  11.673616748318732 
  4.979096483122229   2.873775539638753  11.673616748318732 
  3.734004930423076   9.343179498823496  11.673616748318732 
  8.713069050830837   9.342470343801356  11.673616748318732 
  9.958128797037874   2.874129751926184  11.673616748318732 
 -3.719629119067708   9.350451117499626   5.002978606422314 
  1.242757677269588   9.349728210341770   5.002978606422314 
  2.403431207010042   2.813339866397358   5.002978606422314 
  6.249287724098213   9.384734762448176   5.002978606422314 
  7.474250534573426   2.883325031134939   5.002978606422314 
 12.424140362508616   2.860969925082420   5.002978606422314 
 -1.245285923946563   5.030099398361525  11.673616748318732 
 -2.489296736908894  11.497805823664713  11.673616748318732 
  2.489479442790606  11.498541712914452  11.673616748318732 
  3.733816316852277   5.030214853309010  11.673616748318732 
  7.468047246125493  11.498319084464985  11.673616748318732 
 -4.975920695098445  11.502499233476401   5.002978606422314 
  8.713719098780505   5.030083823236414  11.673616748318732 
  0.003541711508737  11.500024798771909   5.002978606422314 
  1.148753706251401   4.986505044824878   5.002978606422314 
 -0.015989178097526   7.183651336143145   5.002978606422314 
  6.375075384092631   5.039673020040026   5.002978606422314 
  4.971859416923198  11.497899670949536   5.002978606422314 
 11.207733224626473   5.024617568505050   5.002978606422314 
 -2.489524260572661   7.186188105232580  11.673616748318732 
  3.733957957190207   0.718023060084551  11.673616748318732 
  7.468781414802662   7.186597958024578  11.673616748318732 
  8.713383260220949   0.718424079703131  11.673616748318732 
 13.691278587195050   0.718586772400154  11.673616748318732 
 -0.001115250437508   1.435811546959999   1.664079834345732 
  3.733142000754268   7.907426866602357   1.668192073072824 
  4.978889693196568   1.433494853592752   1.665822917895506 
  8.715635761631722   7.906469650806645   1.664567071718049 
  9.957683703069014   1.436669322189253   1.664296360971256 
 -4.977622943714393  10.060878462761432   8.341570279836951 
 -0.001655795206902  10.061296994324547   8.341386194280330 
  1.241834994362617   3.591468765954129   8.342125680633922 
  4.979184086320971  10.062571997728778   8.341127714436501 
  6.225217854389020   3.591024871791358   8.337765139771818 
 11.202424466560361   3.593159421577205   8.341995977951436 
 -2.489743557080436  10.060525877785459   1.664626226835618 
 -1.246494041537657   3.592870887814179   1.664079834345732 
  3.733010301951235   3.589695568754010   1.662301773097471 
  2.487913050725945  10.062266986779269   1.664816105400429 
  7.469841339824616  10.061942444035083   1.664100934374905 
  8.714649329570200   3.592556406513434   1.664829498408125 
 -6.223262487857605  12.215484817202583   8.341786664034572 
 -1.245031869631553  12.214887528143599   8.341386194280330 
 -0.003417344176541   5.749794427733980   8.341019260506334 
  4.980074320412097   5.749742247143986   8.335217208886693 
  3.733648290354872  12.217014885118148   8.341660851873373 
  9.959432746830215   5.749843637014468   8.341856278469722 
 -2.490253836821397   5.749724168513667   1.664170548810069 
 -3.734065051863888  12.214420140750251   1.664854398156617 
  1.244027941960351  12.216219857849179   1.664208359291314 
  2.485887014335698   5.749776466206471   1.662301773097471 
  6.223593881180120  12.216746957733735   1.663961234893178 
  7.471466331727990   5.750077837457812   1.668247917566891 
 -1.246577155679119   7.905964721345586   8.341102814687996 
 -0.001115250437508   1.435811546960000   8.341877378498895 
  3.733142000754268   7.907426866602358   8.337765139771818 
  4.978889693196569   1.433494853592753   8.340134294949108 
  8.715635761631722   7.906469650806646   8.341390141126579 
 -3.733377902851236   7.905782834920815   1.664386933007675 
  9.957683703069014   1.436669322189253   8.341660851873373 
  2.488373677834228   1.433885775767317   1.664937952338294 
  1.241502114970515   7.906840026657122   1.665822917895506 
  6.226060955807023   7.907183224572359   1.668247917566891 
  7.468749664541964   1.435204907450543   1.664816105400429 
  1.241502114970516   7.906840026657123   8.340134294949108 
 12.446398826659292   1.436941717673826   1.664331150368515 
 -2.489743557080436  10.060525877785459   8.341330986009011 
 -1.246494041537656   3.592870887814180   8.341877378498895 
  3.733010301951236   3.589695568754011   8.343655439747183 
  2.487913050725945  10.062266986779269   8.341141107444200 
  7.469841339824617  10.061942444035083   8.341856278469722 
  8.714649329570200   3.592556406513435   8.341127714436501 
 -4.977622943714394  10.060878462761432   1.664386933007675 
 -0.001655795206902  10.061296994324547   1.664571018564283 
  1.241834994362617   3.591468765954128   1.663831532210718 
  4.979184086320970  10.062571997728778   1.664829498408125 
  6.225217854389019   3.591024871791357   1.668192073072824 
 11.202424466560361   3.593159421577204   1.663961234893178 
 -2.490253836821396   5.749724168513668   8.341786664034572 
 -3.734065051863888  12.214420140750251   8.341102814687996 
  1.244027941960351  12.216219857849179   8.341748853553302 
  2.485887014335698   5.749776466206471   8.343655439747183 
  6.223593881180121  12.216746957733735   8.341995977951436 
 -6.223262487857606  12.215484817202583   1.664170548810069 
  7.471466331727991   5.750077837457813   8.337709295277737 
 -1.245031869631553  12.214887528143599   1.664571018564283 
 -0.003417344176542   5.749794427733979   1.664937952338294 
 -1.246577155679119   7.905964721345585   1.664854398156617 
  4.980074320412096   5.749742247143985   1.670740003957949 
  3.733648290354871  12.217014885118148   1.664296360971256 
  9.959432746830215   5.749843637014467   1.664100934374905 
 -3.733377902851236   7.905782834920815   8.341570279836951 
  2.488373677834229   1.433885775767318   8.341019260506334 
  6.226060955807024   7.907183224572360   8.337709295277737 
  7.468749664541964   1.435204907450544   8.341141107444200 
 12.446398826659292   1.436941717673826   8.341626062476113 
  3.817847084883271   5.078730039851891   5.002978606422314 
  1.244606182848283   0.718295679116190   1.671048590528290 
  4.978849049796422   7.186003930022153   1.688994807117017 
  6.223060186181098   0.718433829459316   1.672514850577474 
  9.957754565731175   7.186474880660280   1.670861009304692 
 11.201820025189866   0.718383811617678   1.669753537552668 
 -3.733996102678693   9.342156335644390   8.335983788548988 
  1.244326349307158   9.341853792287381   8.333442362267155 
  2.489154638321229   2.874262175730413   8.328796932967238 
  6.223696903233001   9.341888351631166   8.331579936804202 
  7.467634793183189   2.874603204583480   8.330403101680769 
 12.446624661083916   2.874491902179946   8.336403356387111 
 -1.244920805895164   9.342055084538874   1.670288077779631 
 -0.000193183323390   2.874383463225938   1.671547060110276 
  4.978395301565921   2.874554325300758   1.681492272014178 
  3.733911106527801   9.341602331294032   1.675554111163832 
  8.713161402142799   9.342173474748247   1.670861009304692 
  9.957119510419236   2.874580094128648   1.670232146749310 
 -4.978692147278740  11.497821887914391   8.335713162419161 
 -0.000409871528865  11.497743351241434   8.336082611274206 
  1.244375689446626   5.030282559373422   8.328796932967238 
  6.223300788958935   5.030550290225216   8.316962405727612 
  4.978633450904836  11.497570893981024   8.335725066095318 
 11.202104212954893   5.030563164701362   8.336325965690726 
 -1.245020294065882   5.030455229000257   1.671048590528290 
 -2.489546140316458  11.497809400143973   1.670288077779631 
  2.488946605814713  11.497585187118801   1.670171153715027 
  3.733288182254313   5.029909934656682   1.683278869078099 
  7.468261911417814  11.497767738413540   1.669631247153901 
  8.712775392413738   5.030677944343318   1.674377276040425 
 -0.000243101782879   7.186220243265319   8.332466963179410 
  1.244606182848283   0.718295679116190   8.334908622316339 
  4.978849049796423   7.186003930022154   8.316962405727612 
  6.223060186181099   0.718433829459317   8.333442362267155 
  9.957754565731175   7.186474880660281   8.335096203539935 
 -2.489482994649880   7.186385164895703   1.670244050425468 
 11.201820025189866   0.718383811617679   8.336203675291960 
  3.733942045932978   0.718421842552315   1.673490249665204 
  2.489249030018544   7.185882135091481   1.681492272014178 
  7.468455868548316   7.186410003806998   1.677978178952192 
  8.712288466094590   0.718440892243768   1.670171153715027 
  2.489249030018545   7.185882135091482   8.324464940830449 
 13.691466722868961   0.718362203769436   1.669553856457517 
 -1.244920805895164   9.342055084538874   8.335669135065009 
 -0.000193183323390   2.874383463225939   8.334410152734364 
  4.978395301565921   2.874554325300759   8.324464940830449 
  3.733911106527801   9.341602331294032   8.330403101680769 
  8.713161402142799   9.342173474748247   8.335096203539935 
  9.957119510419236   2.874580094128649   8.335725066095318 
 -3.733996102678693   9.342156335644390   1.669973424295639 
  1.244326349307157   9.341853792287381   1.672514850577474 
  2.489154638321228   2.874262175730412   1.677160279877404 
  6.223696903233000   9.341888351631166   1.674377276040425 
  7.467634793183188   2.874603204583479   1.675554111163832 
 12.446624661083916   2.874491902179945   1.669553856457517 
 -1.245020294065881   5.030455229000258   8.334908622316339 
 -2.489546140316457  11.497809400143973   8.335669135065009 
  2.488946605814714  11.497585187118801   8.335786059129601 
  3.733288182254314   5.029909934656683   8.322678343766528 
  7.468261911417815  11.497767738413540   8.336325965690726 
 -4.978692147278741  11.497821887914391   1.670244050425468 
  8.712775392413738   5.030677944343319   8.331579936804202 
 -0.000409871528865  11.497743351241434   1.669874601570421 
  1.244375689446626   5.030282559373421   1.677160279877404 
 -0.000243101782879   7.186220243265319   1.673490249665204 
  6.223300788958934   5.030550290225215   1.688994807117017 
  4.978633450904835  11.497570893981024   1.670232146749310 
 11.202104212954893   5.030563164701361   1.669631247153901 
 -2.489482994649880   7.186385164895704   8.335713162419161 
  3.733942045932979   0.718421842552316   8.332466963179410 
  7.468455868548317   7.186410003806999   8.327979033892436 
  8.712288466094590   0.718440892243769   8.335786059129601 
 13.691466722868961   0.718362203769437   8.336403356387111 
 -0.022356456643176   1.420600505902557   5.002978606422314 
  3.761162548866558   7.845120142460116   5.002978606422314 
  4.975426729068587   1.436390811382671   5.002978606422314 
  8.748464081939943   7.925423090373640   5.002978606422314 
  9.947151332561134   1.436359320745080   5.002978606422314 
 -4.978844070352179  10.060754603598586  11.673616748318732 
  0.000135593909497  10.060773107097793  11.673616748318732 
  1.244687643208732   3.593115743533329  11.673616748318732 
  4.978756932550104  10.060790634893699  11.673616748318732 
  6.223482469595656   3.593156027978261  11.673616748318732 
 11.202277132107813   3.593089743527765  11.673616748318732 
 -2.478546097805681  10.066990733912013   5.002978606422314 
 -1.270287792614244   3.582080984161768   5.002978606422314 
  3.682869645601813   3.507960134158002   5.002978606422314 
  2.499460406576112  10.042157327540798   5.002978606422314 
  7.484936188802862  10.072302238399049   5.002978606422314 
  8.705588465445913   3.602914809791355   5.002978606422314 
 -6.223522755962549  12.216667312534007  11.673616748318732 
 -1.244589874720434  12.216700860239831  11.673616748318732 
  0.000049938504461   5.748923278897424  11.673616748318732 
  4.978774399709104   5.748991737576188  11.673616748318732 
  3.734108241926356  12.216660758089184  11.673616748318732 
  9.957558105015483   5.748904114682627  11.673616748318732 
 -2.496142649666297   5.748578875949471   5.002978606422314 
 -3.730813665103493  12.220049423534913   5.002978606422314 
  1.244537330450309  12.216513953430978   5.002978606422314 
  2.390031723411490   5.747221101343436   5.002978606422314 
  6.214356411603024  12.207237420813522   5.002978606422314 
  7.517078343636948   5.785973331358303   5.002978606422314 
 -1.244609262972280   7.904796954077416  11.673616748318732 
 -0.000038056827350   1.437256332712976  11.673616748318732 
  3.734119943754870   7.904858401192524  11.673616748318732 
  4.978824475709263   1.437375384654372  11.673616748318732 
  8.712763743691900   7.904811490476000  11.673616748318732 
 -3.717322435303080   7.913083231257939   5.002978606422314 
  9.957606995851505   1.437244715449154  11.673616748318732 
  2.466780308308286   1.412202998155154   5.002978606422314 
  1.242278605920874   7.902393032854950   5.002978606422314 
  6.279953371360715   7.928736638652992   5.002978606422314 
  7.457107866705082   1.455260040582562   5.002978606422314 
  1.244830144706394   7.904843281125547  11.673616748318732 
 12.430197411560421   1.427587826305223   5.002978606422314 
 -2.489331912291960  10.060763541014905  11.673616748318732 
 -1.244704223567483   3.593081371968895  11.673616748318732 
  3.734108086136190   3.593170900610233  11.673616748318732 
  2.489458417830850  10.060789098006675  11.673616748318732 
  7.468090368710468  10.060788717766426  11.673616748318732 
  8.712893047216220   3.593077161914094  11.673616748318732 
 -4.963272881254688  10.071132707359238   5.002978606422314 
  0.006635317834058  10.061848693851802   5.002978606422314 
  1.202816781579211   3.568941590300331   5.002978606422314 
  4.983624294640129  10.049545857577986   5.002978606422314 
  6.185268922511401   3.646444740355671   5.002978606422314 
 11.189570231220689   3.589914306716847   5.002978606422314 
 -2.489359899876999   5.748907522057280  11.673616748318732 
 -3.734092421630411  12.216708269460382  11.673616748318732 
  1.244771725829666  12.216649281666331  11.673616748318732 
  2.489445632102260   5.748989509270377  11.673616748318732 
  6.223459870992960  12.216654201379676  11.673616748318732 
 -6.227198746735415  12.210957601962864   5.002978606422314 
  7.468110529333947   5.748925168228147  11.673616748318732 
 -1.240408527305214  12.221791992899092   5.002978606422314 
 -0.032991865176247   5.741935409977278   5.002978606422314 
 -1.240076360402317   7.905965863485284   5.002978606422314 
  3.728113635975061  12.208048585418354   5.002978606422314 
  9.975952016416521   5.757736262513926   5.002978606422314 
 -3.734095731351641   7.904787237812668  11.673616748318732 
  2.489352882151810   1.437324105069420  11.673616748318732 
  6.223384813774944   7.904853349063882  11.673616748318732 
  7.468242458873388   1.437282179007847  11.673616748318732 
 12.446959536441451   1.437265443617485  11.673616748318732 
Generated by cif2cell 2.0.0.  :  Failed to get author information, No journal information. Species order: B S N 
 1.0
 14.936314146199660   0.000000000000000   0.000000000000000
 -7.468157073099825  12.935227489513863   0.000000000000000
  0.000000000000001   0.000000000000001  13.341276283792837
 B S N 
 143   1 143
Cartesian
  1.216122882785844   0.697447106514880   5.002978606422314 
  5.062636863134752   7.312883220149641   5.002978606422314 
  6.229095296237434   0.713138110597381   5.002978606422314 
  9.988786445456647   7.195989406198386   5.002978606422314 
 11.189972707817832   0.711543759743759   5.002978606422314 
 -3.734005247729249   9.342151055746973  11.673616748318732 
  1.244479652882508   9.342769186168198  11.673616748318732 
  2.488733938125011   2.873801686973583  11.673616748318732 
  6.223654232444880   9.343002685871953  11.673616748318732 
  7.469047572277348   2.873895874695564  11.673616748318732 
 12.446725075386054   2.874216687591623  11.673616748318732 
 -1.239435330644718   9.346041418104246   5.002978606422314 
 -0.049747867595823   2.845773052921643   5.002978606422314 
  4.987242288104976   2.838522941295592   5.002978606422314 
  3.744772300583870   9.342970818127144   5.002978606422314 
  8.736917162826497   9.364290608148622   5.002978606422314 
  9.954017222635343   2.868549220130172   5.002978606422314 
 -4.978883438914442  11.497884680408491  11.673616748318732 
  0.000172320750142  11.498079480110432  11.673616748318732 
  1.243766544386952   5.030148466694523  11.673616748318732 
  6.224249763920365   5.030145740030487  11.673616748318732 
  4.978748086426432  11.498670132933686  11.673616748318732 
 11.202474359995536   5.030101586079217  11.673616748318732 
 -1.277317337602479   5.016212253863225   5.002978606422314 
 -2.483351136555663  11.500566794280003   5.002978606422314 
  2.489076396501633  11.494127353689207   5.002978606422314 
  7.465927379906961  11.505615403617471   5.002978606422314 
  8.762676883074837   5.031417039907825   5.002978606422314 
 -0.000580501901933   7.186433414052167  11.673616748318732 
  1.244165209535347   0.718243552210895  11.673616748318732 
  4.978973186531388   7.187028041543686  11.673616748318732 
  6.223929592324037   0.718108897309641  11.673616748318732 
  9.957965486216782   7.186246467551495  11.673616748318732 
 -2.484046568480761   7.186446640108223   5.002978606422314 
 11.202370296514989   0.718701510915357  11.673616748318732 
  3.723844268947889   0.706069794014991   5.002978606422314 
  2.462468429406086   7.211559542183827   5.002978606422314 
  7.534786835555106   7.224706205463985   5.002978606422314 
  8.709358789845965   0.720282210990613   5.002978606422314 
  2.488925172629306   7.186878768962899  11.673616748318732 
 13.668514197905456   0.705651218565729   5.002978606422314 
 -1.244799201513272   9.342272862465233  11.673616748318732 
 -0.000834212827302   2.874013364669306  11.673616748318732 
  4.979096483122229   2.873775539638753  11.673616748318732 
  3.734004930423076   9.343179498823496  11.673616748318732 
  8.713069050830837   9.342470343801356  11.673616748318732 
  9.958128797037874   2.874129751926184  11.673616748318732 
 -3.719629119067708   9.350451117499626   5.002978606422314 
  1.242757677269588   9.349728210341770   5.002978606422314 
  2.403431207010042   2.813339866397358   5.002978606422314 
  6.249287724098213   9.384734762448176   5.002978606422314 
  7.474250534573426   2.883325031134939   5.002978606422314 
 12.424140362508616   2.860969925082420   5.002978606422314 
 -1.245285923946563   5.030099398361525  11.673616748318732 
 -2.489296736908894  11.497805823664713  11.673616748318732 
  2.489479442790606  11.498541712914452  11.673616748318732 
  3.733816316852277   5.030214853309010  11.673616748318732 
  7.468047246125493  11.498319084464985  11.673616748318732 
 -4.975920695098445  11.502499233476401   5.002978606422314 
  8.713719098780505   5.030083823236414  11.673616748318732 
  0.003541711508737  11.500024798771909   5.002978606422314 
  1.148753706251401   4.986505044824878   5.002978606422314 
 -0.015989178097526   7.183651336143145   5.002978606422314 
  6.375075384092631   5.039673020040026   5.002978606422314 
  4.971859416923198  11.497899670949536   5.002978606422314 
 11.207733224626473   5.024617568505050   5.002978606422314 
 -2.489524260572661   7.186188105232580  11.673616748318732 
  3.733957957190207   0.718023060084551  11.673616748318732 
  7.468781414802662   7.186597958024578  11.673616748318732 
  8.713383260220949   0.718424079703131  11.673616748318732 
 13.691278587195050   0.718586772400154  11.673616748318732 
 -0.001115250437508   1.435811546959999   1.664079834345732 
  3.733142000754268   7.907426866602357   1.668192073072824 
  4.978889693196568   1.433494853592752   1.665822917895506 
  8.715635761631722   7.906469650806645   1.664567071718049 
  9.957683703069014   1.436669322189253   1.664296360971256 
 -4.977622943714393  10.060878462761432   8.341570279836951 
 -0.001655795206902  10.061296994324547   8.341386194280330 
  1.241834994362617   3.591468765954129   8.342125680633922 
  4.979184086320971  10.062571997728778   8.341127714436501 
  6.225217854389020   3.591024871791358   8.337765139771818 
 11.202424466560361   3.593159421577205   8.341995977951436 
 -2.489743557080436  10.060525877785459   1.664626226835618 
 -1.246494041537657   3.592870887814179   1.664079834345732 
  3.733010301951235   3.589695568754010   1.662301773097471 
  2.487913050725945  10.062266986779269   1.664816105400429 
  7.469841339824616  10.061942444035083   1.664100934374905 
  8.714649329570200   3.592556406513434   1.664829498408125 
 -6.223262487857605  12.215484817202583   8.341786664034572 
 -1.245031869631553  12.214887528143599   8.341386194280330 
 -0.003417344176541   5.749794427733980   8.341019260506334 
  4.980074320412097   5.749742247143986   8.335217208886693 
  3.733648290354872  12.217014885118148   8.341660851873373 
  9.959432746830215   5.749843637014468   8.341856278469722 
 -2.490253836821397   5.749724168513667   1.664170548810069 
 -3.734065051863888  12.214420140750251   1.664854398156617 
  1.244027941960351  12.216219857849179   1.664208359291314 
  2.485887014335698   5.749776466206471   1.662301773097471 
  6.223593881180120  12.216746957733735   1.663961234893178 
  7.471466331727990   5.750077837457812   1.668247917566891 
 -1.246577155679119   7.905964721345586   8.341102814687996 
 -0.001115250437508   1.435811546960000   8.341877378498895 
  3.733142000754268   7.907426866602358   8.337765139771818 
  4.978889693196569   1.433494853592753   8.340134294949108 
  8.715635761631722   7.906469650806646   8.341390141126579 
 -3.733377902851236   7.905782834920815   1.664386933007675 
  9.957683703069014   1.436669322189253   8.341660851873373 
  2.488373677834228   1.433885775767317   1.664937952338294 
  1.241502114970515   7.906840026657122   1.665822917895506 
  6.226060955807023   7.907183224572359   1.668247917566891 
  7.468749664541964   1.435204907450543   1.664816105400429 
  1.241502114970516   7.906840026657123   8.340134294949108 
 12.446398826659292   1.436941717673826   1.664331150368515 
 -2.489743557080436  10.060525877785459   8.341330986009011 
 -1.246494041537656   3.592870887814180   8.341877378498895 
  3.733010301951236   3.589695568754011   8.343655439747183 
  2.487913050725945  10.062266986779269   8.341141107444200 
  7.469841339824617  10.061942444035083   8.341856278469722 
  8.714649329570200   3.592556406513435   8.341127714436501 
 -4.977622943714394  10.060878462761432   1.664386933007675 
 -0.001655795206902  10.061296994324547   1.664571018564283 
  1.241834994362617   3.591468765954128   1.663831532210718 
  4.979184086320970  10.062571997728778   1.664829498408125 
  6.225217854389019   3.591024871791357   1.668192073072824 
 11.202424466560361   3.593159421577204   1.663961234893178 
 -2.490253836821396   5.749724168513668   8.341786664034572 
 -3.734065051863888  12.214420140750251   8.341102814687996 
  1.244027941960351  12.216219857849179   8.341748853553302 
  2.485887014335698   5.749776466206471   8.343655439747183 
  6.223593881180121  12.216746957733735   8.341995977951436 
 -6.223262487857606  12.215484817202583   1.664170548810069 
  7.471466331727991   5.750077837457813   8.337709295277737 
 -1.245031869631553  12.214887528143599   1.664571018564283 
 -0.003417344176542   5.749794427733979   1.664937952338294 
 -1.246577155679119   7.905964721345585   1.664854398156617 
  4.980074320412096   5.749742247143985   1.670740003957949 
  3.733648290354871  12.217014885118148   1.664296360971256 
  9.959432746830215   5.749843637014467   1.664100934374905 
 -3.733377902851236   7.905782834920815   8.341570279836951 
  2.488373677834229   1.433885775767318   8.341019260506334 
  6.226060955807024   7.907183224572360   8.337709295277737 
  7.468749664541964   1.435204907450544   8.341141107444200 
 12.446398826659292   1.436941717673826   8.341626062476113 
  3.817847084883271   5.078730039851891   5.002978606422314 
  1.244606182848283   0.718295679116190   1.671048590528290 
  4.978849049796422   7.186003930022153   1.688994807117017 
  6.223060186181098   0.718433829459316   1.672514850577474 
  9.957754565731175   7.186474880660280   1.670861009304692 
 11.201820025189866   0.718383811617678   1.669753537552668 
 -3.733996102678693   9.342156335644390   8.335983788548988 
  1.244326349307158   9.341853792287381   8.333442362267155 
  2.489154638321229   2.874262175730413   8.328796932967238 
  6.223696903233001   9.341888351631166   8.331579936804202 
  7.467634793183189   2.874603204583480   8.330403101680769 
 12.446624661083916   2.874491902179946   8.336403356387111 
 -1.244920805895164   9.342055084538874   1.670288077779631 
 -0.000193183323390   2.874383463225938   1.671547060110276 
  4.978395301565921   2.874554325300758   1.681492272014178 
  3.733911106527801   9.341602331294032   1.675554111163832 
  8.713161402142799   9.342173474748247   1.670861009304692 
  9.957119510419236   2.874580094128648   1.670232146749310 
 -4.978692147278740  11.497821887914391   8.335713162419161 
 -0.000409871528865  11.497743351241434   8.336082611274206 
  1.244375689446626   5.030282559373422   8.328796932967238 
  6.223300788958935   5.030550290225216   8.316962405727612 
  4.978633450904836  11.497570893981024   8.335725066095318 
 11.202104212954893   5.030563164701362   8.336325965690726 
 -1.245020294065882   5.030455229000257   1.671048590528290 
 -2.489546140316458  11.497809400143973   1.670288077779631 
  2.488946605814713  11.497585187118801   1.670171153715027 
  3.733288182254313   5.029909934656682   1.683278869078099 
  7.468261911417814  11.497767738413540   1.669631247153901 
  8.712775392413738   5.030677944343318   1.674377276040425 
 -0.000243101782879   7.186220243265319   8.332466963179410 
  1.244606182848283   0.718295679116190   8.334908622316339 
  4.978849049796423   7.186003930022154   8.316962405727612 
  6.223060186181099   0.718433829459317   8.333442362267155 
  9.957754565731175   7.186474880660281   8.335096203539935 
 -2.489482994649880   7.186385164895703   1.670244050425468 
 11.201820025189866   0.718383811617679   8.336203675291960 
  3.733942045932978   0.718421842552315   1.673490249665204 
  2.489249030018544   7.185882135091481   1.681492272014178 
  7.468455868548316   7.186410003806998   1.677978178952192 
  8.712288466094590   0.718440892243768   1.670171153715027 
  2.489249030018545   7.185882135091482   8.324464940830449 
 13.691466722868961   0.718362203769436   1.669553856457517 
 -1.244920805895164   9.342055084538874   8.335669135065009 
 -0.000193183323390   2.874383463225939   8.334410152734364 
  4.978395301565921   2.874554325300759   8.324464940830449 
  3.733911106527801   9.341602331294032   8.330403101680769 
  8.713161402142799   9.342173474748247   8.335096203539935 
  9.957119510419236   2.874580094128649   8.335725066095318 
 -3.733996102678693   9.342156335644390   1.669973424295639 
  1.244326349307157   9.341853792287381   1.672514850577474 
  2.489154638321228   2.874262175730412   1.677160279877404 