Si B N                                  
   1.0000000000000000     
     8.7639499999999995  -15.1796066749929999    0.0000000000000000
     8.7639499999999995   15.1796066749929999    0.0000000000000000
     0.0000000000000000    0.0000000000000000   15.0000000000000000
   Si   B    N 
     1    48    48
Selective dynamics
Direct
  0.4421913898961117  0.5068108975720573  0.1112982479398168   T   T   T
  0.9046800718635035  0.9523826627995501  0.1109941486674722   T   T   T
  0.9062428705987063  0.0962277797979750  0.1110342542967753   T   T   T
  0.9067218264805588  0.2390752600857818  0.1110834053413089   T   T   T
  0.9062428705987063  0.3814437844917294  0.1110342542967753   T   T   T
  0.9046800718635035  0.5237278143119576  0.1109941486674722   T   T   T
  0.9033269621287265  0.6660587427297691  0.1110366509494721   T   T   T
  0.9033269621287265  0.8086986246469595  0.1110366509494721   T   T   T
  0.0468957590752516  0.9517603896364354  0.1110011297770598   T   T   T
  0.0484886167102185  0.0956549531205035  0.1110103660636027   T   T   T
  0.0500980960257175  0.2394866974223250  0.1110230508369956   T   T   T
  0.0500980960257175  0.3820418038503929  0.1110230508369956   T   T   T
  0.0484886167102185  0.5242640688377094  0.1110103660636027   T   T   T
  0.0468957590752516  0.6665674862428129  0.1110011297770598   T   T   T
  0.0465725050903925  0.8090023109471980  0.1109772558027675   T   T   T
  0.1897741838020604  0.9516584739389898  0.1109917618640475   T   T   T
  0.1901176433269658  0.0940853187220316  0.1110471980290634   T   T   T
  0.1925635091466404  0.2386245173184932  0.1110221414702091   T   T   T
  0.1945724293728736  0.3830014173099366  0.1110275237887864   T   T   T
  0.1925635091466404  0.5253693970761487  0.1110221414702091   T   T   T
  0.1901176433269657  0.6674627298529289  0.1110471980290634   T   T   T
  0.1897741838020604  0.8095478266670744  0.1109917618640475   T   T   T
  0.3330578792739148  0.9522449980384593  0.1110156722472823   T   T   T
  0.3331332321564807  0.0934113521793230  0.1110571360882471   T   T   T
  0.3331512551951397  0.2340335851424671  0.1110501770240280   T   T   T
  0.3369920558497858  0.3768399659332866  0.1110598281833014   T   T   T
  0.3369920558497858  0.5315824951634992  0.1110598281833014   T   T   T
  0.3331512551951397  0.6705480752996722  0.1110501770240280   T   T   T
  0.3331332321564807  0.8111522852241584  0.1110571360882471   T   T   T
  0.4766589168831910  0.9534181880389196  0.1110087687646881   T   T   T
  0.4766589168831910  0.0946711340912711  0.1110087687646881   T   T   T
  0.4767065691977704  0.2358169801057515  0.1110412716412777   T   T   T
  0.4768801175232140  0.3764733217658258  0.1110010285725248   T   T   T
  0.4768801175232140  0.6718372010043880  0.1110010285725248   T   T   T
  0.4767065691977704  0.8123199943390259  0.1110412716412777   T   T   T
  0.6201193945848571  0.9536902978837063  0.1110130331144436   T   T   T
  0.6201361776676984  0.0957824356793443  0.1109886322883876   T   T   T
  0.6201193945848571  0.2378595019481493  0.1110130331144436   T   T   T
  0.6196478687188184  0.3799726333301391  0.1110137198839440   T   T   T
  0.6153666633913544  0.5215390932048388  0.1110586601051899   T   T   T
  0.6153666633913544  0.6652579754345102  0.1110586601051899   T   T   T
  0.6196478687188184  0.8111056406356792  0.1110137198839440   T   T   T
  0.7628076130052275  0.9532619830766970  0.1110006859323821   T   T   T
  0.7633640620996117  0.0961812804360068  0.1110344610681964   T   T   T
  0.7633640620996117  0.2386114753546027  0.1110344610681964   T   T   T
  0.7628076130052275  0.3809760351755312  0.1110006859323821   T   T   T
  0.7606546204022000  0.5231354076199546  0.1110451479805356   T   T   T
  0.7590921390821023  0.6652612721650485  0.1110803453852448   T   T   T
  0.7606546204022000  0.8089496180302463  0.1110451479805356   T   T   T
  0.9516182672573414  0.9041754686084372  0.1109908267444422   T   T   T
  0.9531528961766647  0.0479993507480379  0.1109824938833297   T   T   T
  0.9545946387365636  0.1916896942110341  0.1110366956066870   T   T   T
  0.9545946387365636  0.3343319266435287  0.1110366956066870   T   T   T
  0.9531528961766647  0.4765805275466255  0.1109824938833297   T   T   T
  0.9516182672573414  0.6188714923238995  0.1109908267444422   T   T   T
  0.9511865037542447  0.7613075987146242  0.1110030477911416   T   T   T
  0.0944716897759855  0.9041954499827245  0.1109607292709524   T   T   T
  0.0950459881336333  0.0470761644400762  0.1110055102124056   T   T   T
  0.0971997783285607  0.1913612541707612  0.1109941523901972   T   T   T
  0.0987539081835781  0.3350913009287896  0.1109986893900744   T   T   T
  0.0971997783285607  0.4772672178318009  0.1109941523901972   T   T   T
  0.0950459881336333  0.6193985173685603  0.1110055102124056   T   T   T
  0.0944716897759855  0.7617066450242665  0.1109607292709524   T   T   T
  0.2376738535054023  0.9045521293682003  0.1109738822368115   T   T   T
  0.2377862721428329  0.0466340478396004  0.1110238238128478   T   T   T
  0.2383120540941529  0.1891572979000712  0.1110358130856863   T   T   T
  0.2422379916333519  0.3350220766174952  0.1110161450604035   T   T   T
  0.2422379916333519  0.4786446086898504  0.1110161450604035   T   T   T
  0.2383120540941529  0.6205834498690767  0.1110358130856863   T   T   T
  0.2377862721428329  0.7625809179782356  0.1110238238128478   T   T   T
  0.3812422411089287  0.9057760857752686  0.1110081537870258   T   T   T
  0.3812422411089287  0.0468948490086631  0.1110081537870258   T   T   T
  0.3813638106973364  0.1878544951007597  0.1110508128027623   T   T   T
  0.3817443637391947  0.3280414772448575  0.1109858978895637   T   T   T
  0.3817443637391947  0.6251315801693327  0.1109858978895637   T   T   T
  0.3813638106973364  0.7649380092715802  0.1110508128027623   T   T   T
  0.5248100713020606  0.9068234747393886  0.1110156360549956   T   T   T
  0.5247921483544505  0.0481095652367288  0.1109659399605731   T   T   T
  0.5248100713020606  0.1894152902376748  0.1110156360549956   T   T   T
  0.5247835422958271  0.3304289530747098  0.1109937207976050   T   T   T
  0.5198662138565219  0.4704550246211081  0.1110199095478953   T   T   T
  0.5198662138565220  0.6208398829104104  0.1110199095478953   T   T   T
  0.5247835422958271  0.7657832828961207  0.1109937207976050   T   T   T
  0.6677230392501786  0.9061615835627481  0.1109945078863586   T   T   T
  0.6680671320436944  0.0486741655991300  0.1109915146537232   T   T   T
  0.6680671320436944  0.1908199485635716  0.1109915146537232   T   T   T
  0.6677230392501786  0.3329901493624338  0.1109945078863586   T   T   T
  0.6651723985371628  0.4751800581098073  0.1110130901245499   T   T   T
  0.6631700352807665  0.6172993644783821  0.1110609706698541   T   T   T
  0.6651723985371628  0.7614210341023580  0.1110130901245499   T   T   T
  0.8093399642304671  0.9046557686337859  0.1109884655958076   T   T   T
  0.8109427520076334  0.0485954463842534  0.1110087283017998   T   T   T
  0.8113357421078068  0.1913813621129062  0.1110469130296578   T   T   T
  0.8109427520076334  0.3337742877413850  0.1110087283017998   T   T   T
  0.8093399642304671  0.4761128892706827  0.1109884655958076   T   T   T
  0.8077919211830226  0.6183572719736820  0.1110505660806484   T   T   T
  0.8077919211830226  0.7608633428843425  0.1110505660806484   T   T   T

  0.00000000E+00  0.00000000E+00  0.00000000E+00
  0.00000000E+00  0.00000000E+00  0.00000000E+00
  0.00000000E+00  0.00000000E+00  0.00000000E+00
  0.00000000E+00  0.00000000E+00  0.00000000E+00
  0.00000000E+00  0.00000000E+00  0.00000000E+00
  0.00000000E+00  0.00000000E+00  0.00000000E+00
  0.00000000E+00  0.00000000E+00  0.00000000E+00
  0.00000000E+00  0.00000000E+00  0.00000000E+00
  0.00000000E+00  0.00000000E+00  0.00000000E+00
  0.00000000E+00  0.00000000E+00  0.00000000E+00
  0.00000000E+00  0.00000000E+00  0.00000000E+00
  0.00000000E+00  0.00000000E+00  0.00000000E+00
  0.00000000E+00  0.00000000E+00  0.00000000E+00
  0.00000000E+00  0.00000000E+00  0.00000000E+00
  0.00000000E+00  0.00000000E+00  0.00000000E+00
  0.00000000E+00  0.00000000E+00  0.00000000E+00
  0.00000000E+00  0.00000000E+00  0.00000000E+00
  0.00000000E+00  0.00000000E+00  0.00000000E+00
  0.00000000E+00  0.00000000E+00  0.00000000E+00
  0.00000000E+00  0.00000000E+00  0.00000000E+00
  0.00000000E+00  0.00000000E+00  0.00000000E+00
  0.00000000E+00  0.00000000E+00  0.00000000E+00
  0.00000000E+00  0.00000000E+00  0.00000000E+00
  0.00000000E+00  0.00000000E+00  0.00000000E+00
  0.00000000E+00  0.00000000E+00  0.00000000E+00
  0.00000000E+00  0.00000000E+00  0.00000000E+00
  0.00000000E+00  0.00000000E+00  0.00000000E+00
  0.00000000E+00  0.00000000E+00  0.00000000E+00
  0.00000000E+00  0.00000000E+00  0.00000000E+00
  0.00000000E+00  0.00000000E+00  0.00000000E+00
  0.00000000E+00  0.00000000E+00  0.00000000E+00
  0.00000000E+00  0.00000000E+00  0.00000000E+00
  0.00000000E+00  0.00000000E+00  0.00000000E+00
  0.00000000E+00  0.00000000E+00  0.00000000E+00
  0.00000000E+00  0.00000000E+00  0.00000000E+00
  0.00000000E+00  0.00000000E+00  0.00000000E+00
  0.00000000E+00  0.00000000E+00  0.00000000E+00
  0.00000000E+00  0.00000000E+00  0.00000000E+00
  0.00000000E+00  0.00000000E+00  0.00000000E+00
  0.00000000E+00  0.00000000E+00  0.00000000E+00
  0.00000000E+00  0.00000000E+00  0.00000000E+00
  0.00000000E+00  0.00000000E+00  0.00000000E+00
  0.00000000E+00  0.00000000E+00  0.00000000E+00
  0.00000000E+00  0.00000000E+00  0.00000000E+00
  0.00000000E+00  0.00000000E+00  0.00000000E+00
  0.00000000E+00  0.00000000E+00  0.00000000E+00
  0.00000000E+00  0.00000000E+00  0.00000000E+00
  0.00000000E+00  0.00000000E+00  0.00000000E+00
  0.00000000E+00  0.00000000E+00  0.00000000E+00
  0.00000000E+00  0.00000000E+00  0.00000000E+00
  0.00000000E+00  0.00000000E+00  0.00000000E+00
  0.00000000E+00  0.00000000E+00  0.00000000E+00
  0.00000000E+00  0.00000000E+00  0.00000000E+00
  0.00000000E+00  0.00000000E+00  0.00000000E+00
  0.00000000E+00  0.00000000E+00  0.00000000E+00
  0.00000000E+00  0.00000000E+00  0.00000000E+00
  0.00000000E+00  0.00000000E+00  0.00000000E+00
  0.00000000E+00  0.00000000E+00  0.00000000E+00
  0.00000000E+00  0.00000000E+00  0.00000000E+00
  0.00000000E+00  0.00000000E+00  0.00000000E+00
  0.00000000E+00  0.00000000E+00  0.00000000E+00
  0.00000000E+00  0.00000000E+00  0.00000000E+00
  0.00000000E+00  0.00000000E+00  0.00000000E+00
  0.00000000E+00  0.00000000E+00  0.00000000E+00
  0.00000000E+00  0.00000000E+00  0.00000000E+00
  0.00000000E+00  0.00000000E+00  0.00000000E+00
  0.00000000E+00  0.00000000E+00  0.00000000E+00
  0.00000000E+00  0.00000000E+00  0.00000000E+00
  0.00000000E+00  0.00000000E+00  0.00000000E+00
  0.00000000E+00  0.00000000E+00  0.00000000E+00
  0.00000000E+00  0.00000000E+00  0.00000000E+00
  0.00000000E+00  0.00000000E+00  0.00000000E+00
  0.00000000E+00  0.00000000E+00  0.00000000E+00
  0.00000000E+00  0.00000000E+00  0.00000000E+00
  0.00000000E+00  0.00000000E+00  0.00000000E+00
  0.00000000E+00  0.00000000E+00  0.00000000E+00
  0.00000000E+00  0.00000000E+00  0.00000000E+00
  0.00000000E+00  0.00000000E+00  0.00000000E+00
  0.00000000E+00  0.00000000E+00  0.00000000E+00
  0.00000000E+00  0.00000000E+00  0.00000000E+00
  0.00000000E+00  0.00000000E+00  0.00000000E+00
  0.00000000E+00  0.00000000E+00  0.00000000E+00
  0.00000000E+00  0.00000000E+00  0.00000000E+00
  0.00000000E+00  0.00000000E+00  0.00000000E+00
  0.00000000E+00  0.00000000E+00  0.00000000E+00
  0.00000000E+00  0.00000000E+00  0.00000000E+00
  0.00000000E+00  0.00000000E+00  0.00000000E+00
  0.00000000E+00  0.00000000E+00  0.00000000E+00
  0.00000000E+00  0.00000000E+00  0.00000000E+00
  0.00000000E+00  0.00000000E+00  0.00000000E+00
  0.00000000E+00  0.00000000E+00  0.00000000E+00
  0.00000000E+00  0.00000000E+00  0.00000000E+00
  0.00000000E+00  0.00000000E+00  0.00000000E+00
  0.00000000E+00  0.00000000E+00  0.00000000E+00
  0.00000000E+00  0.00000000E+00  0.00000000E+00
  0.00000000E+00  0.00000000E+00  0.00000000E+00
  0.00000000E+00  0.00000000E+00  0.00000000E+00
