 N B S 
 1.0
 17.527899999999772   0.000000000000000   0.000000000000000
 -8.763949999999658  15.179606674993195   0.000000000000000
  0.000000000000001   0.000000000000002  15.000000000000000
 N B S 
  48  48   1
Cartesian
  8.792705394977311  13.711145737566353   1.660390103924535 
 16.335439427533963   0.718238491690819   1.661255714361630 
 15.098355980689185   2.893269386303730   1.661172265518735 
 13.841186237072719   5.059868891664398   1.660280216248290 
 12.550784044058826   7.225228936260821   1.660177489228320 
 11.273069120241333   9.389140623774255   1.661099310427890 
 10.021827202014578  11.545750295782026   1.660576867849665 
 -6.237716722745144  13.733999634905341   1.660080000240105 
  1.306558189258935   0.730336737474229   1.660288083071565 
  0.067732600400592   2.895270750186755   1.661053567028235 
 -1.185240689644683   5.074021948629874   1.661019338709945 
 -2.502953887721897   7.241555385110227   1.659972686737170 
 -3.760803960752530   9.410903722075240   1.660738218039315 
 -5.005899685441898  11.572090712181222   1.660543883732145 
 -3.738965139690185  13.750115549452207   1.660212554977995 
  3.802366091379966   0.734370937745109   1.659954211047660 
  2.595813841445873   2.927064124843003   1.660725947042640 
  1.325366338973113   5.064145052917446   1.661523722487990 
 -0.047349019589875   7.265294739184663   1.660751848867575 
 -1.278228226749513   9.439408081597017   1.661330572670445 
 -2.509676321346440  11.595642669798155   1.661605000569240 
 -1.234880228039396  13.768068049512358   1.661382731092455 
  6.308510226061789   0.731616056960605   1.660488813239880 
  5.100137365600758   2.887513140320138   1.660621423286070 
  3.962832153632160   5.110354473116335   1.661284896671265 
  1.183665344514353   9.526309561650132   1.660997195213775 
 -0.016810454028998  11.638051195938221   1.661631754789815 
  1.282260069434491  13.768886231781085   1.661123711910585 
  8.822026590747020   0.729376526278883   1.661169796692960 
  7.603666888535763   2.874478120990453   1.660888183545480 
  6.414809721931876   5.026141861305518   1.660613139064065 
  3.881650444809902   8.231099882879711   1.672626451689675 
  3.718981096722542   9.543477696278828   1.659963791449530 
  2.504374028301507  11.633906531329600   1.659531758926950 
  3.804476858078699  13.742235816990044   1.660887981864225 
 11.337032846632681   0.720620277909193   1.660573757054730 
 10.109906411566497   2.868544442576761   1.660486466865150 
  8.895326651465185   5.010273906613745   1.660365415741410 
  7.589434671157674   7.146927353179674   1.661072363506320 
  6.202294689162708   9.242837016618981   1.660563110800560 
  5.040301725331236  11.567504914389289   1.659914036406945 
  6.306770728281174  13.723520266211558   1.660793121151440 
 13.839680808722925   0.719550250783403   1.661319651839250 
 12.602478248044944   2.882753370045086   1.660586981398110 
 11.358017067301605   5.042522126367671   1.659927010842420 
 10.067300193342975   7.203280310806304   1.660712343019110 
  8.763382994521251   9.354398284696869   1.661032269509535 
  7.510616664448095  11.499749467062118   1.660122004800885 
  7.557383721485500  14.446498433533348   1.661134590694635 
 15.090209815133063   1.443531269286091   1.661589230649870 
 13.844417618301250   3.611435360439028   1.660904077227285 
 12.584222079226548   5.778671790607953   1.660185046556055 
 11.290458827219780   7.940995397806898   1.660970737970370 
 10.004778366493330  10.093495706526429   1.661295252096930 
  8.764720552742485  12.246799073863004   1.660540394858910 
 -7.483335620531173  14.452151163990674   1.660372228996275 
  0.057849293037636   1.443432277858939   1.661208969709500 
 -1.183358035689109   3.617715914163142   1.661545839023010 
 -2.454476368001775   5.791468611709019   1.660538208564315 
 -3.755686593345410   7.964286984672728   1.660366351191870 
 -5.018074823818736  10.125608616300248   1.661082923548920 
 -6.259575673948600  12.284229333179104   1.660492508672700 
 -4.986940474051614  14.468051966997411   1.660238573547555 
  2.565607257581124   1.466605380479251   1.660441852787025 
  1.323473898608061   3.604516058991965   1.661121382581165 
  0.053261244286282   5.799246590962841   1.661592714180885 
 -1.298382973211051   7.990649526646282   1.660659385911735 
 -2.531056141745083  10.154488988414645   1.661684697709185 
 -3.762203697692116  12.308656019073204   1.660846376692080 
 -2.485197389110856  14.479329879854596   1.660751731163160 
  5.064710651195810   1.454092961504067   1.660508514348465 
  3.894950651635137   3.645384770954934   1.661017942381095 
  2.668545432809102   5.592162645836924   1.663121854590060 
  1.052167081756815   8.131428335330734   1.661564435056710 
 -0.067331742915939  10.220580015553763   1.661793434961765 
 -1.268804011022254  12.340022015385433   1.662077732112630 
  0.028474311571097  14.481687036487317   1.661632833271050 
  7.571857892158732   1.448230975702141   1.661255916271935 
  6.363423485808326   3.614582767409502   1.660730223014775 
  5.326672875478792   5.990310016862678   1.660287620220330 
  2.453958143686196  10.226117398791587   1.659440900302605 
  1.250964345853161  12.346713916135860   1.661058559323975 
  2.553785541822512  14.467277986118905   1.660864001727600 
 10.085664083309192   1.437893236425549   1.660957163058570 
  8.861676148280299   3.584447146605645   1.660834903413180 
  7.657561402983943   5.720347973972892   1.661020538700795 
  6.188326749588074   7.596464091159871   1.660328171578770 
  5.071804282348149  10.122959022783277   1.660350525815760 
  3.795884667673846  12.307369094343615   1.660441871611725 
  5.065340734962355  14.455153010312436   1.661407420146720 
 12.590746867867223   1.441269001523883   1.661024775051180 
 11.350903390832354   3.601329266657048   1.660464599254665 
 10.106436977939813   5.760442983617709   1.660449179235060 
  8.789726337801568   7.902474074595434   1.661386380636585 
  7.468532717172136  10.008011308817176   1.660689313752375 
  6.299298234205195  12.272986187055581   1.660159035068355 
  2.586940257335233   7.352375423056830   1.667359268726235 
