B C N                                   
   1.0000000000000000     
     8.7639499999999995  -15.1796066749929999    0.0000000000000000
     8.7639499999999995   15.1796066749929999    0.0000000000000000
     0.0000000000000000    0.0000000000000000   15.0000000000000000
   B    C    N 
    48     3    47
Selective dynamics
Direct
  0.9050972239532086  0.9527215574630761  0.1110202856795981   T   T   T
  0.9046959114561918  0.0952623029072004  0.1110492263893274   T   T   T
  0.9046663380840215  0.2380576248548280  0.1110575556931575   T   T   T
  0.9046913398361738  0.3808713021505092  0.1110042962010890   T   T   T
  0.9050951608452130  0.5237999536432613  0.1110100558114939   T   T   T
  0.9058773174170591  0.6669866815597001  0.1110856301616531   T   T   T
  0.9058802188484674  0.8103291360979971  0.1110632588119116   T   T   T
  0.0478533279590311  0.9525609274039926  0.1110144806578423   T   T   T
  0.0476269031838004  0.0953441766820569  0.1110186390718980   T   T   T
  0.0475073889846281  0.2380947698967968  0.1110055035221767   T   T   T
  0.0474968072715131  0.3808334008249719  0.1110246169739641   T   T   T
  0.0476337547152145  0.5237099353935694  0.1110168783180978   T   T   T
  0.0478710251444473  0.6667347951467212  0.1110329678690755   T   T   T
  0.0480443523706963  0.8097433541377839  0.1110132091655252   T   T   T
  0.1904748443234440  0.9522935095573305  0.1110070955122090   T   T   T
  0.1900044103374546  0.0947376854604324  0.1110732594994155   T   T   T
  0.1903369960950844  0.2380889549226584  0.1110194183285464   T   T   T
  0.1903666679284773  0.3808808732800602  0.1110282965611935   T   T   T
  0.1903350704976748  0.5236592101003672  0.1110874091912257   T   T   T
  0.1900172073730614  0.6666956250583614  0.1110767313299789   T   T   T
  0.1904869327593895  0.8096020941573191  0.1110040151967317   T   T   T
  0.3332748168443859  0.9523386918755096  0.1110248955478902   T   T   T
  0.3331127306214102  0.0947941793910339  0.1110832272338361   T   T   T
  0.3319862546869251  0.2364763760803636  0.1110786587303726   T   T   T
  0.3334112710284255  0.3806531424908299  0.1110751787915512   T   T   T
  0.3334123606953502  0.5241516513428667  0.1110923526875944   T   T   T
  0.3319841052718507  0.6669210157006168  0.1110931489769312   T   T   T
  0.3331237259932992  0.8097429557370478  0.1110633079526087   T   T   T
  0.4761547252546782  0.9525455086768571  0.1110172591995310   T   T   T
  0.4761557866592316  0.0950311330904287  0.1110148028700585   T   T   T
  0.4759427445544179  0.2373436323454253  0.1110603107503838   T   T   T
  0.4734947747231599  0.3775642426498403  0.1109877491721689   T   T   T
  0.4735050895796634  0.6673738840833170  0.1109350538845272   T   T   T
  0.4759495261363500  0.8100324874158086  0.1110607761677780   T   T   T
  0.6189933325967767  0.9522693511797068  0.1110347739393076   T   T   T
  0.6190569098105825  0.0952528009925725  0.1110067075037682   T   T   T
  0.6189948772775806  0.2381698894472509  0.1110262172159981   T   T   T
  0.6187358243701143  0.3812428318654021  0.1110131608968694   T   T   T
  0.6221788004041049  0.5267681089050744  0.1109426927445413   T   T   T
  0.6221945903769838  0.6668572644126008  0.1109321349354333   T   T   T
  0.6187463959393198  0.8089290233389601  0.1110044960426445   T   T   T
  0.7618493008876787  0.9522959909220144  0.1110247644449873   T   T   T
  0.7618437493274755  0.0952028375364142  0.1110609543962361   T   T   T
  0.7618419700989569  0.2380969361516911  0.1110654688224917   T   T   T
  0.7618410979032497  0.3809807287406814  0.1110248394030035   T   T   T
  0.7627245103373276  0.5241100365615170  0.1110561109878335   T   T   T
  0.7649736657610736  0.6682102041263800  0.1110473790264529   T   T   T
  0.7627258817680823  0.8100606740691330  0.1110398718340545   T   T   T
  0.4744233010116796  0.5229332030964350  0.1109547005590748   T   T   T
  0.5213140287922335  0.4772953572371489  0.1108768529162171   T   T   T
  0.5213303337274116  0.6154810052249355  0.1107352537346648   T   T   T
  0.9530016633034947  0.9053783350332310  0.1110032278987335   T   T   T
  0.9525040187721109  0.0478843070566690  0.1110030529976082   T   T   T
  0.9522688955416808  0.1904742167294002  0.1110211716112931   T   T   T
  0.9522645022467217  0.3332346395016298  0.1110018597101127   T   T   T
  0.9525076668773141  0.4760540918024802  0.1109577653236240   T   T   T
  0.9530074441780061  0.6190582963634481  0.1110183364163725   T   T   T
  0.9532038526369225  0.7623205737311790  0.1110458500482534   T   T   T
  0.0954412870292876  0.9048909330192382  0.1109704825048309   T   T   T
  0.0950510696379806  0.0475448198658618  0.1110152418256600   T   T   T
  0.0950986836322128  0.1905172269322498  0.1109735846862719   T   T   T
  0.0950423540756663  0.3332327460103999  0.1109800874942641   T   T   T
  0.0950984630711432  0.4760031724022790  0.1110179259438333   T   T   T
  0.0950618078009702  0.6189380918732845  0.1110204464999397   T   T   T
  0.0954494091733098  0.7619887991364521  0.1109863403623171   T   T   T
  0.2380818007869668  0.9047483589189937  0.1109772818793830   T   T   T
  0.2378757646347060  0.0473244594612662  0.1110420069476426   T   T   T
  0.2370676934557937  0.1895453442623697  0.1110446382831635   T   T   T
  0.2379339635554100  0.3333481321444424  0.1110185466116858   T   T   T
  0.2379327064370759  0.4759884565376339  0.1110634681003434   T   T   T
  0.2370678585030025  0.6189371716625749  0.1110804827130004   T   T   T
  0.2378874277075727  0.7619740431146155  0.1110261304259453   T   T   T
  0.3808903219699906  0.9049114419201795  0.1110124495955580   T   T   T
  0.3808867346148080  0.0473904073977670  0.1110220753536580   T   T   T
  0.3804740990159373  0.1896502695055879  0.1110707714448897   T   T   T
  0.3788461048651146  0.3309357814127520  0.1110405468109541   T   T   T
  0.3813359643605232  0.4763711836566717  0.1110597057336812   T   T   T
  0.3788485311910597  0.6193201557282207  0.1110407931855698   T   T   T
  0.3804801744859521  0.7622416929808740  0.1110643540372191   T   T   T
  0.5237538244795104  0.9051967454997762  0.1110235339929022   T   T   T
  0.5238424728539395  0.0476343929928378  0.1109659743645384   T   T   T
  0.5237525094006319  0.1899864050775290  0.1110166526408158   T   T   T
  0.5231640242732397  0.3319599796181049  0.1110071085664824   T   T   T
  0.5231733229458746  0.7626432825537159  0.1109941992118240   T   T   T
  0.6665629709235921  0.9045570369523883  0.1110061621964876   T   T   T
  0.6666643286049132  0.0476111233091215  0.1110086331914921   T   T   T
  0.6666642687571580  0.1905018090703044  0.1110155336204776   T   T   T
  0.6665582074158275  0.3334419188404809  0.1110059294075742   T   T   T
  0.6677193373385307  0.4768306689514281  0.1110004084165360   T   T   T
  0.6713659826818171  0.6214014725590619  0.1109790411754039   T   T   T
  0.6677276563302087  0.7623303402117624  0.1110011616275229   T   T   T
  0.8100478666360935  0.9053021716124027  0.1110065347606327   T   T   T
  0.8094699748475656  0.0476338230263272  0.1110237901290260   T   T   T
  0.8094552875260680  0.1904552739292387  0.1110457490350903   T   T   T
  0.8094695277093870  0.3332813016943654  0.1110128834466711   T   T   T
  0.8100430394071823  0.4761805179863790  0.1110143536290474   T   T   T
  0.8113512380810205  0.6194895187850558  0.1110643515994241   T   T   T
  0.8113520807006379  0.7633059200761416  0.1110434432192687   T   T   T

  0.00000000E+00  0.00000000E+00  0.00000000E+00
  0.00000000E+00  0.00000000E+00  0.00000000E+00
  0.00000000E+00  0.00000000E+00  0.00000000E+00
  0.00000000E+00  0.00000000E+00  0.00000000E+00
  0.00000000E+00  0.00000000E+00  0.00000000E+00
  0.00000000E+00  0.00000000E+00  0.00000000E+00
  0.00000000E+00  0.00000000E+00  0.00000000E+00
  0.00000000E+00  0.00000000E+00  0.00000000E+00
  0.00000000E+00  0.00000000E+00  0.00000000E+00
  0.00000000E+00  0.00000000E+00  0.00000000E+00
  0.00000000E+00  0.00000000E+00  0.00000000E+00
  0.00000000E+00  0.00000000E+00  0.00000000E+00
  0.00000000E+00  0.00000000E+00  0.00000000E+00
  0.00000000E+00  0.00000000E+00  0.00000000E+00
  0.00000000E+00  0.00000000E+00  0.00000000E+00
  0.00000000E+00  0.00000000E+00  0.00000000E+00
  0.00000000E+00  0.00000000E+00  0.00000000E+00
  0.00000000E+00  0.00000000E+00  0.00000000E+00
  0.00000000E+00  0.00000000E+00  0.00000000E+00
  0.00000000E+00  0.00000000E+00  0.00000000E+00
  0.00000000E+00  0.00000000E+00  0.00000000E+00
  0.00000000E+00  0.00000000E+00  0.00000000E+00
  0.00000000E+00  0.00000000E+00  0.00000000E+00
  0.00000000E+00  0.00000000E+00  0.00000000E+00
  0.00000000E+00  0.00000000E+00  0.00000000E+00
  0.00000000E+00  0.00000000E+00  0.00000000E+00
  0.00000000E+00  0.00000000E+00  0.00000000E+00
  0.00000000E+00  0.00000000E+00  0.00000000E+00
  0.00000000E+00  0.00000000E+00  0.00000000E+00
  0.00000000E+00  0.00000000E+00  0.00000000E+00
  0.00000000E+00  0.00000000E+00  0.00000000E+00
  0.00000000E+00  0.00000000E+00  0.00000000E+00
  0.00000000E+00  0.00000000E+00  0.00000000E+00
  0.00000000E+00  0.00000000E+00  0.00000000E+00
  0.00000000E+00  0.00000000E+00  0.00000000E+00
  0.00000000E+00  0.00000000E+00  0.00000000E+00
  0.00000000E+00  0.00000000E+00  0.00000000E+00
  0.00000000E+00  0.00000000E+00  0.00000000E+00
  0.00000000E+00  0.00000000E+00  0.00000000E+00
  0.00000000E+00  0.00000000E+00  0.00000000E+00
  0.00000000E+00  0.00000000E+00  0.00000000E+00
  0.00000000E+00  0.00000000E+00  0.00000000E+00
  0.00000000E+00  0.00000000E+00  0.00000000E+00
  0.00000000E+00  0.00000000E+00  0.00000000E+00
  0.00000000E+00  0.00000000E+00  0.00000000E+00
  0.00000000E+00  0.00000000E+00  0.00000000E+00
  0.00000000E+00  0.00000000E+00  0.00000000E+00
  0.00000000E+00  0.00000000E+00  0.00000000E+00
  0.00000000E+00  0.00000000E+00  0.00000000E+00
  0.00000000E+00  0.00000000E+00  0.00000000E+00
  0.00000000E+00  0.00000000E+00  0.00000000E+00
  0.00000000E+00  0.00000000E+00  0.00000000E+00
  0.00000000E+00  0.00000000E+00  0.00000000E+00
  0.00000000E+00  0.00000000E+00  0.00000000E+00
  0.00000000E+00  0.00000000E+00  0.00000000E+00
  0.00000000E+00  0.00000000E+00  0.00000000E+00
  0.00000000E+00  0.00000000E+00  0.00000000E+00
  0.00000000E+00  0.00000000E+00  0.00000000E+00
  0.00000000E+00  0.00000000E+00  0.00000000E+00
  0.00000000E+00  0.00000000E+00  0.00000000E+00
  0.00000000E+00  0.00000000E+00  0.00000000E+00
  0.00000000E+00  0.00000000E+00  0.00000000E+00
  0.00000000E+00  0.00000000E+00  0.00000000E+00
  0.00000000E+00  0.00000000E+00  0.00000000E+00
  0.00000000E+00  0.00000000E+00  0.00000000E+00
  0.00000000E+00  0.00000000E+00  0.00000000E+00
  0.00000000E+00  0.00000000E+00  0.00000000E+00
  0.00000000E+00  0.00000000E+00  0.00000000E+00
  0.00000000E+00  0.00000000E+00  0.00000000E+00
  0.00000000E+00  0.00000000E+00  0.00000000E+00
  0.00000000E+00  0.00000000E+00  0.00000000E+00
  0.00000000E+00  0.00000000E+00  0.00000000E+00
  0.00000000E+00  0.00000000E+00  0.00000000E+00
  0.00000000E+00  0.00000000E+00  0.00000000E+00
  0.00000000E+00  0.00000000E+00  0.00000000E+00
  0.00000000E+00  0.00000000E+00  0.00000000E+00
  0.00000000E+00  0.00000000E+00  0.00000000E+00
  0.00000000E+00  0.00000000E+00  0.00000000E+00
  0.00000000E+00  0.00000000E+00  0.00000000E+00
  0.00000000E+00  0.00000000E+00  0.00000000E+00
  0.00000000E+00  0.00000000E+00  0.00000000E+00
  0.00000000E+00  0.00000000E+00  0.00000000E+00
  0.00000000E+00  0.00000000E+00  0.00000000E+00
  0.00000000E+00  0.00000000E+00  0.00000000E+00
  0.00000000E+00  0.00000000E+00  0.00000000E+00
  0.00000000E+00  0.00000000E+00  0.00000000E+00
  0.00000000E+00  0.00000000E+00  0.00000000E+00
  0.00000000E+00  0.00000000E+00  0.00000000E+00
  0.00000000E+00  0.00000000E+00  0.00000000E+00
  0.00000000E+00  0.00000000E+00  0.00000000E+00
  0.00000000E+00  0.00000000E+00  0.00000000E+00
  0.00000000E+00  0.00000000E+00  0.00000000E+00
  0.00000000E+00  0.00000000E+00  0.00000000E+00
  0.00000000E+00  0.00000000E+00  0.00000000E+00
  0.00000000E+00  0.00000000E+00  0.00000000E+00
  0.00000000E+00  0.00000000E+00  0.00000000E+00
  0.00000000E+00  0.00000000E+00  0.00000000E+00
  0.00000000E+00  0.00000000E+00  0.00000000E+00
