 N B C 
 1.0
 17.527899999999772   0.000000000000000   0.000000000000000
 -8.763949999999658  15.179606674993195   0.000000000000000
  0.000000000000001   0.000000000000002  15.000000000000000
 N B C 
  47  48   3
Cartesian
  8.769427394902937  13.743287017864658   1.665048418481010 
 16.275739517806187   0.726864947024837   1.665045794964120 
 15.021967462459255   2.891323691679700   1.665317574169395 
 13.769880302263548   5.059868891664398   1.665027895651695 
 12.523344876406473   7.226313869582748   1.664366479854360 
 11.278823224393225   9.397061447688511   1.665275046245595 
 10.026722416483398  11.571726469494447   1.665687750723795 
 -6.257533557513006  13.735888446999645   1.664557237572465 
  1.249365219444140   0.721711664997188   1.665228627384900 
 -0.002803234135783   2.891976569641975   1.664603770294080 
 -1.255423788663708   5.059868891664398   1.664701312413960 
 -2.504791651910125   7.225540933115571   1.665268889157495 
 -3.758108629318064   9.395236790807267   1.665306697499100 
 -5.005004037142809  11.566690261641735   1.664795105434755 
 -3.756095384133983  13.733724228235900   1.664659228190745 
  3.754713418445063   0.718366680728678   1.665630104214645 
  2.494132904275625   2.877223772978954   1.665669574247445 
  1.249166053136264   5.059868891664398   1.665278199175290 
 -0.001078348514465   7.225317552078377   1.665952021505145 
 -1.269032708537298   9.395222822370632   1.666207240695000 
 -2.508235371038555  11.566466271034162   1.665391956389175 
 -1.254391156958325  13.736199764049267   1.665186743933370 
  6.260817434741162   0.719367744465791   1.665331130304870 
  5.006826480707922   2.878816496901282   1.666061571673350 
  3.740071999952988   5.023474996527099   1.665608202164310 
  2.509125414706997   7.231127199209228   1.665895586005215 
  1.212728291069562   9.401036369849928   1.665611897783550 
 -0.011229634827239  11.570529090730588   1.665965310558285 
  1.247205642371831  13.740530560170516   1.665353009893530 
  8.764393041466873   0.723071349833333   1.664489615468070 
  7.515250254744073   2.883918902672820   1.665249789612240 
  6.260686037684826   5.039021922441592   1.665106628497230 
  2.486362091126505  11.576625062491109   1.664912988177360 
  3.757774022667943  13.730820036034535   1.665092432947320 
 11.268005162541559   0.722718125187057   1.665129497872380 
 10.015718337064889   2.891742532561866   1.665233004307170 
  8.763949999999962   5.059868891664398   1.665088941113610 
  7.524797631779179   7.238102005256567   1.665006126248040 
  6.321704372414689   9.432629940708138   1.664685617631060 
  5.022838602291507  11.571874720828296   1.665017424412845 
  6.264415034708396  13.742130887093468   1.665098021409495 
 13.770848328818905   0.723062697965878   1.665356851935390 
 12.518910836275893   2.891036147423934   1.665686235526350 
 11.266984268070626   5.059868891664398   1.665193251700065 
 10.025131139818397   7.228232969327756   1.665215304435705 
  8.792108197804046   9.403607234437958   1.665965273991360 
  7.531723217061485  11.586683639449626   1.665651648289035 
  7.514849538201046  14.461938513076420   1.665304285193970 
 15.022545406849257   1.446044289085357   1.665738395839905 
 13.770575985956334   3.613621111279373   1.665863335397370 
 12.519402287032445   5.781476560437217   1.665064443016335 
 11.273860866046924   7.951077272684372   1.665150837172410 
 10.032689104099358  10.124595483535183   1.666284452424795 
  8.776493855648074  12.300477563254624   1.665948882178680 
 -7.509427992588810  14.459500211959361   1.665217209867630 
 -0.000792000917364   1.447287100784683   1.665279586078470 
 -1.253945895253302   3.614184958406389   1.665082552832655 
 -2.505085594985542   5.780901233223104   1.665369254609460 
 -3.754847999019502   7.949710831060475   1.665253174771470 
 -5.003554791703763  10.119737783328796   1.665494518036140 
 -6.254433664577244  12.291585623501284   1.665198137482875 
 -5.007228679267786  14.455440914229143   1.665106432683135 
  2.500101965462914   1.438080802588580   1.666098892491240 
  1.249608137360632   3.614096689386133   1.665291274928190 
 -0.001293010599143   5.781621846419235   1.665424448417910 
 -1.253149052182778   7.948940841061194   1.666311137868390 
 -2.512030724218873  10.119737783328796   1.666150969949685 
 -3.756476364376509  12.289441352558908   1.665060227950980 
 -2.503615345328793  14.456126764047779   1.665373433218350 
  5.007995182584916   1.438938358234642   1.666248408507540 
  3.746554737377451   3.589618376827695   1.666179880955595 
  2.506608225200878   5.778164982610939   1.666127681873265 
  1.248994468547117   7.956415905432890   1.666385290313910 
 -0.025878236754793  10.123598701622328   1.666397234653965 
 -1.257587420093556  12.291579575934813   1.665949619289135 
 -0.002068801976852  14.459266161746006   1.665258887992965 
  7.513162914136411   1.442535222191643   1.665222043050870 
  6.262209105581668   3.602782985817744   1.665904661255760 
  4.990414917499031   5.731276697966262   1.664816237582535 
  2.450718508231508  10.130473065547253   1.664025808267905 
  1.243311481077717  12.295974552938356   1.665911642516670 
  2.504012254151839  14.455074199558920   1.665521609089620 
 10.015976824209940   1.445900053758645   1.665100612556520 
  8.762371306812415   3.615325243635883   1.665393258239970 
  7.503946539650121   5.787116235377364   1.665197413453035 
  6.288918427564526   7.996132702109003   1.664140391168115 
  5.063131227335490  10.119737783328796   1.663982024031495 
  3.755911439293463  12.279224402271803   1.665067440639660 
  5.007743911388316  14.455478580369062   1.665371466674805 
 12.519168145809653   1.445141628146043   1.665914315943540 
 11.266820224110806   3.614217841303637   1.665982032337380 
 10.014578522291441   5.783137613035813   1.665372591045060 
  8.775684789818349   7.955784209420131   1.665841664817495 
  7.552221097640193  10.143168074855364   1.665710685396795 
  6.269651738534689  12.296402415249299   1.665598077510825 
  3.732683732525696   7.937920340298216   1.664320508386125 
  4.954547519208930   7.245155790660289   1.663152793743255 
  3.743781200799718   9.342759575243960   1.661028806019975 
