Species order:X N B                     
   2.51242800000000     
     5.9449720136058266    0.0000000000000000    0.0000000000000000
    -2.9724860068029120    5.1484967885702053   -0.0000000000000001
     0.0000000000000000    0.0000000000000009    5.3101128803662583
   C    O    N    B 
     1     1   142   144
Direct
  0.3895463160750928  0.4447396966820117  0.3750000000000000
  0.5578617402385828  0.4438521087511731  0.3750000000000000
  0.1111206806915357  0.0555539620121297  0.1249865077832736
  0.6110962941494913  0.5555314774341727  0.1258752011029537
  0.4444381432583787  0.0555412503340013  0.1249832857342382
  0.9444630967480355  0.5555657980503621  0.1249938765474861
  0.7777696394989972  0.0555503082500165  0.1249443980817701
  0.1111195427390005  0.7222226326269652  0.6250434790158664
  0.4444373694273367  0.7222325400935925  0.6250102041013246
  0.2777953306974877  0.2222318540936130  0.6247739180364562
  0.7777839870961287  0.7222105915944580  0.6249041377438775
  0.6110978017133961  0.2222170334732008  0.6249248204438131
  0.9444453235461713  0.2222296331749606  0.6250557895235710
  0.2777786832663859  0.7222248340404583  0.1249844892284676
  0.1111170525496798  0.2222243063769674  0.1249759298578252
  0.4444426217905113  0.2222151708188536  0.1252604925354623
  0.6111011991393223  0.7222127053198866  0.1250844812668107
  0.9444621096611344  0.7222258264048602  0.1249873421046713
  0.7777713747741050  0.2222285206287283  0.1249680107637291
  0.1111202251278999  0.8888858235537881  0.6250415765260331
  0.4444367667617239  0.8888879202196096  0.6250546797200910
  0.2777748713097856  0.3889012571213489  0.6249263166509335
  0.6111051919318171  0.3889036286782491  0.6241391672787134
  0.7777757078167218  0.8888774835798864  0.6250255631186048
  0.9444493957388066  0.3889021129220429  0.6250506093588397
  0.1111113498010141  0.3889021652791236  0.1249540648840721
  0.2777786306540033  0.8888841384267360  0.1249624797574398
  0.6111006700287442  0.8888843144204354  0.1249522964306703
  0.4444752298564019  0.3889005217385459  0.1259286379999977
  0.9444545707686833  0.8888839828625673  0.1249572144687935
  0.7777863372389562  0.3889034880554834  0.1250734825337110
  0.2777798331906661  0.5555653908589482  0.6249103275468864
  0.1111206806915357  0.0555539620121297  0.6250134922167260
  0.6110962941494913  0.5555314774341727  0.6241247988970471
  0.4444381432583787  0.0555412503340013  0.6250167142657617
  0.9444630967480355  0.5555657980503621  0.6250061234525136
  0.1111178975058122  0.5555663142703758  0.1249811894907849
  0.7777696394989972  0.0555503082500165  0.6250556019182296
  0.2777780898350881  0.0555462404722771  0.1250355652162436
  0.4444495519671300  0.5555761503470822  0.1251747781629758
  0.7777883515438041  0.5555588153791350  0.1252162732398177
  0.6110974169048949  0.0555497031720167  0.1249430471783539
  0.4444495519671300  0.5555761503470822  0.6248252218370244
  0.9444490386405441  0.0555494700577411  0.1249464584713115
  0.2777786832663859  0.7222248340404583  0.6250155107715326
  0.1111170525496798  0.2222243063769674  0.6250240701421745
  0.4444426217905113  0.2222151708188536  0.6247395074645380
  0.6111011991393223  0.7222127053198866  0.6249155187331895
  0.9444621096611344  0.7222258264048602  0.6250126578953291
  0.7777713747741050  0.2222285206287283  0.6250319892362708
  0.1111195427390005  0.7222226326269652  0.1249565209841339
  0.4444373694273367  0.7222325400935925  0.1249897958986756
  0.2777953306974877  0.2222318540936130  0.1252260819635436
  0.7777839870961287  0.7222105915944580  0.1250958622561225
  0.6110978017133961  0.2222170334732008  0.1250751795561869
  0.9444453235461713  0.2222296331749606  0.1249442104764287
  0.1111113498010141  0.3889021652791236  0.6250459351159288
  0.2777786306540033  0.8888841384267360  0.6250375202425602
  0.6111006700287442  0.8888843144204354  0.6250477035693295
  0.4444752298564019  0.3889005217385459  0.6240713620000022
  0.9444545707686833  0.8888839828625673  0.6250427855312065
  0.1111202251278999  0.8888858235537881  0.1249584234739662
  0.7777863372389562  0.3889034880554834  0.6249265174662889
  0.4444367667617239  0.8888879202196096  0.1249453202799090
  0.2777748713097856  0.3889012571213489  0.1250736833490666
  0.2777798331906661  0.5555653908589482  0.1250896724531137
  0.6111051919318171  0.3889036286782491  0.1258608327212869
  0.7777757078167218  0.8888774835798864  0.1249744368813952
  0.9444493957388066  0.3889021129220429  0.1249493906411602
  0.1111178975058122  0.5555663142703758  0.6250188105092142
  0.2777780898350881  0.0555462404722771  0.6249644347837566
  0.7777883515438041  0.5555588153791350  0.6247837267601818
  0.6110974169048949  0.0555497031720167  0.6250569528216467
  0.9444490386405441  0.0555494700577411  0.6250535415286885
  0.0546495172753396  0.1102012208938229  0.3750000000000000
  0.5572957778306299  0.6125381557895149  0.3750000000000000
  0.3890404453190215  0.1104806173217722  0.3750000000000000
  0.8887259953145352  0.6110719807908953  0.3750000000000000
  0.7222247057819832  0.1111660877280416  0.3750000000000000
  0.0555534757431263  0.7777734700009826  0.8750000000000000
  0.3888880952100086  0.7777756748218542  0.8750000000000000
  0.2222271765176561  0.2777779462734607  0.8750000000000000
  0.7222229138390088  0.7777763071441760  0.8750000000000000
  0.5555625356230938  0.2777789586079546  0.8750000000000000
  0.8888905402961710  0.2777738807162639  0.8750000000000000
  0.2221060160487023  0.7778405159125112  0.3750000000000000
  0.0546437623012919  0.2773069716412436  0.3750000000000000
  0.3903218047079342  0.2766599640418070  0.3750000000000000
  0.5560742471911657  0.7784293047292843  0.3750000000000000
  0.8887107537254951  0.7775541511806958  0.3750000000000000
  0.7223022318782043  0.2778158547721775  0.3750000000000000
  0.0555577835957269  0.9444464510938840  0.8750000000000000
  0.3888910867254176  0.9444446754617476  0.8750000000000000
  0.2222143853528160  0.4444391202362859  0.8750000000000000
  0.5555546691303800  0.4444476936958836  0.8750000000000000
  0.7222280128167842  0.9444482200522920  0.8750000000000000
  0.8888972256362937  0.4444440237155296  0.8750000000000000
  0.0546003135585866  0.4444097255763609  0.3750000000000000
  0.2221615581214699  0.9444724832159055  0.3750000000000000
  0.5557266229327958  0.9447681174274919  0.3750000000000000
  0.8888537620790130  0.9443314668422267  0.3750000000000000
  0.7223380037960954  0.4446021217073289  0.3750000000000000
  0.2222197168374605  0.6111044285728365  0.8750000000000000
  0.0555534435538465  0.1111066119052551  0.8750000000000000
  0.5555591519783218  0.6111159779963068  0.8750000000000000
  0.3888936394423109  0.1111161663600104  0.8750000000000000
  0.8888844192850192  0.6111063641690346  0.8750000000000000
  0.0553727443554530  0.6111412378667227  0.3750000000000000
  0.7222247858348427  0.1111102201064801  0.8750000000000000
  0.2223567550288114  0.1112409172202914  0.3750000000000000
  0.3894551215219511  0.6134017892291930  0.3750000000000000
  0.7216780292120305  0.6102944314403224  0.3750000000000000
  0.5557353653370440  0.1112670394437537  0.3750000000000000
  0.3888903954861819  0.6111014415617901  0.8750000000000000
  0.8885824673062254  0.1109136635544054  0.3750000000000000
  0.2222210722739958  0.7777728848542792  0.8750000000000000
  0.0555534442037578  0.2777698300154040  0.8750000000000000
  0.3888889707108523  0.2777769964096083  0.8750000000000000
  0.5555566203798049  0.7777832016600661  0.8750000000000000
  0.8888968697727013  0.7777853742711434  0.8750000000000000
  0.7222221179618803  0.2777761377268172  0.8750000000000000
  0.0554242536237943  0.7777547642586244  0.3750000000000000
  0.3889454563364441  0.7786786635439329  0.3750000000000000
  0.2199730855647540  0.2759180636925171  0.3750000000000000
  0.7230133983983205  0.7784162829627146  0.3750000000000000
  0.5559227118207095  0.2781064027563538  0.3750000000000000
  0.8885491320120286  0.2776873001850053  0.3750000000000000
  0.0555544568566112  0.4444403485624622  0.8750000000000000
  0.2222217593466799  0.9444415563459583  0.8750000000000000
  0.5555556895196508  0.9444417508666947  0.8750000000000000
  0.3888909185860070  0.4444404629509643  0.8750000000000000
  0.8888906981769805  0.9444447101272435  0.8750000000000000
  0.0554652399981580  0.9443297272997406  0.3750000000000000
  0.7222253595311795  0.4444424872893064  0.8750000000000000
  0.3889061232367308  0.9445484507697676  0.3750000000000000
  0.2200868279321078  0.4439155487680130  0.3750000000000000
  0.2221229334347511  0.6111382248109329  0.3750000000000000
  0.7223948950903798  0.9446605944751403  0.3750000000000000
  0.8885887820567594  0.4444729574498678  0.3750000000000000
  0.0555550009042479  0.6111060151480125  0.8750000000000000
  0.2222179300634382  0.1111052930021776  0.8750000000000000
  0.7222202304571278  0.6111132185978893  0.8750000000000000
  0.5555560898248375  0.1110998462049588  0.8750000000000000
  0.8888927915558823  0.1111085832593371  0.8750000000000000
  0.1106478314707553  0.0552536239504716  0.3750000000000000
  0.6130477712797364  0.5590252320139022  0.3750000000000000
  0.4446481773428729  0.0550148357129019  0.3750000000000000
  0.9446026597484128  0.5555560672618193  0.3750000000000000
  0.7777870552402388  0.0556500383679376  0.3750000000000000
  0.1113016557825623  0.7223651363370472  0.8750000000000000
  0.4444085757143811  0.7220523459593698  0.8750000000000000
  0.2776132691762991  0.2222422809448732  0.8750000000000000
  0.7776559002415206  0.7222950850566694  0.8750000000000000
  0.6113051024439231  0.2223410987971536  0.8750000000000000
  0.9444113036131834  0.2220293076011255  0.8750000000000000
  0.2777403442072598  0.7224992024025602  0.3750000000000000
  0.1090209041660322  0.2206852656850248  0.3750000000000000
  0.4445890144275857  0.2200111419119627  0.3750000000000000
  0.6128229050791021  0.7245222618520720  0.3750000000000000
  0.9446723347618365  0.7224617435248585  0.3750000000000000
  0.7778776476847212  0.2219551266900831  0.3750000000000000
  0.1109667691639376  0.8889279198247243  0.8750000000000000
  0.4446299503056290  0.8890313839436909  0.8750000000000000
  0.2777182786744494  0.3887061427092178  0.8750000000000000
  0.6109883935341530  0.3889087233940267  0.8750000000000000
  0.7777565077910564  0.8887338515180985  0.8750000000000000
  0.9446439055358933  0.3890256969887338  0.8750000000000000
  0.1092351912305232  0.3884020086454868  0.3750000000000000
  0.2777339659324209  0.8888660818037983  0.3750000000000000
  0.6115396302839464  0.8896344470230760  0.3750000000000000
  0.9444585112925850  0.8890017141302978  0.3750000000000000
  0.7783657802697523  0.3884215318136059  0.3750000000000000
  0.2779320965894052  0.5556831734851895  0.8750000000000000
  0.1110634300519307  0.0553641042193129  0.8750000000000000
  0.6110836505316102  0.5554225306999380  0.8750000000000000
  0.4443013373951575  0.0555729487781848  0.8750000000000000
  0.9443213156185293  0.5555903932121751  0.8750000000000000
  0.1107999231742727  0.5555004990300979  0.3750000000000000
  0.7779756852858422  0.0557061624044351  0.8750000000000000
  0.2775490843048780  0.0551455584827352  0.3750000000000000
  0.4464758296677060  0.5609094682311119  0.3750000000000000
  0.7787792871793026  0.5559417653581529  0.3750000000000000
  0.6113801901964827  0.0556090536626178  0.3750000000000000
  0.4442856288617911  0.5555942898245558  0.8750000000000000
  0.9438712104619339  0.0551913782200592  0.3750000000000000
  0.2776219534927423  0.7222501971159071  0.8750000000000000
  0.1112671993534650  0.2223561347926384  0.8750000000000000
  0.4443869946253320  0.2220183841602514  0.8750000000000000
  0.6112942046135030  0.7223895426842646  0.8750000000000000
  0.9444261062594282  0.7220586983273872  0.8750000000000000
  0.7776504507687477  0.2222442578299212  0.8750000000000000
  0.1110811393326500  0.7222890390351385  0.3750000000000000
  0.4448398484099191  0.7241876859244840  0.3750000000000000
  0.2767263811345351  0.2216272205331301  0.3750000000000000
  0.7782887666893957  0.7230686094173515  0.3750000000000000
  0.6118306630372762  0.2217010872464666  0.3750000000000000
  0.9437711308163904  0.2218290996996492  0.3750000000000000
  0.1109586012966996  0.3889176069796817  0.8750000000000000
  0.2777345330723561  0.8886934801246449  0.8750000000000000
  0.6109681911498689  0.8889365125716654  0.8750000000000000
  0.4445724185790191  0.3890134310768038  0.8750000000000000
  0.9446404172085298  0.8890514955111742  0.8750000000000000
  0.1110100581738559  0.8888518218675032  0.3750000000000000
  0.7777650479917265  0.3886975110378386  0.8750000000000000
  0.4446509404445033  0.8894448498991134  0.3750000000000000
  0.2723320070584623  0.3860910537193208  0.3750000000000000
  0.2773865101554662  0.5556453165421139  0.3750000000000000
  0.6139966764387360  0.3869728359533983  0.3750000000000000
  0.7782888073133711  0.8896713128282254  0.3750000000000000
  0.9439494179007545  0.3886560241303523  0.3750000000000000
  0.1110772068729665  0.5553652987268457  0.8750000000000000
  0.2779411157437156  0.0556840663267065  0.8750000000000000
  0.7779867810242654  0.5557130916618710  0.8750000000000000
  0.6110788546006489  0.0553579194441140  0.8750000000000000
  0.9442978091378884  0.0555987599399453  0.8750000000000000
  0.0555224350525176  0.1110853867642685  0.1251197685684194
  0.5555155009091437  0.6112608077932559  0.1251426549667340
  0.3888080936801351  0.1109310639848086  0.1250290323806731
  0.8890718842622143  0.6111984438439469  0.1250152916941429
  0.7222219262692442  0.1110807325152212  0.1250812744244144
  0.0556331795072304  0.7778025047998860  0.6249170621886146
  0.3888497243723757  0.7778092024752300  0.6248757824226002
  0.2221098850153979  0.2777347363538636  0.6249165563206074
  0.7222716089847625  0.7778780952042087  0.6249730318248008
  0.5555260950055307  0.2775967219451276  0.6248881423988846
  0.8889177397084891  0.2777783410613662  0.6248931969708397
  0.2222255092699161  0.7777762025392859  0.1250710368135086
  0.0555220181046651  0.2777797122216439  0.1250854482567148
  0.3887511651428168  0.2775963179061596  0.1251967565634828
  0.5555211918797466  0.7778592030092969  0.1250557594853020
  0.8890088447933437  0.7778572615756177  0.1250750048762303
  0.7222763119289373  0.2777281678885629  0.1250161453539556
  0.0555729930593939  0.9444275424910601  0.6249521942053174
  0.3888486534277717  0.9443699786121198  0.6249152277502696
  0.2221333120734900  0.4444804489749312  0.6248671444902841
  0.5555727747594703  0.4444563120665589  0.6251028115547557
  0.7222227354370713  0.9444744574915495  0.6248907685283813
  0.8890070887047581  0.4444794219602716  0.6249472511852615
  0.0555692125387051  0.4444737631267972  0.1250550010654358
  0.2221971897783079  0.9443659146748873  0.1251191374902459
  0.5555247034978235  0.9444293570066845  0.1250403733546930
  0.3887397432827346  0.4445010529204836  0.1252255634737224
  0.8889194177596242  0.9444753898626036  0.1250845662369569
  0.7224143104744305  0.4444859252429678  0.1251240932894744
  0.2221965580042238  0.6111582169035072  0.6248597045664402
  0.0555224350525176  0.1110853867642685  0.6248802314315808
  0.5555155009091437  0.6112608077932559  0.6248573450332661
  0.3888080936801351  0.1109310639848086  0.6249709676193268
  0.8890718842622143  0.6111984438439469  0.6249847083058574
  0.0556319301974251  0.6111556629390151  0.1251190221405752
  0.7222219262692442  0.1110807325152212  0.6249187255755856
  0.2221406366592399  0.1109933975678031  0.1251050438835763
  0.3888059146184633  0.6112103039133870  0.1250598098316639
  0.7224103697837055  0.6112548114574269  0.1251128846216267
  0.5555236382955743  0.1109937816233011  0.1250683921324521
  0.3888059146184633  0.6112103039133870  0.6249401901683361
  0.8888874536195507  0.1111107455553669  0.1250608315315881
  0.2222255092699161  0.7777762025392859  0.6249289631864914
  0.0555220181046651  0.2777797122216439  0.6249145517432857
  0.3887511651428168  0.2775963179061596  0.6248032434365173
  0.5555211918797466  0.7778592030092969  0.6249442405146982
  0.8890088447933437  0.7778572615756177  0.6249249951237700
  0.7222763119289373  0.2777281678885629  0.6249838546460443
  0.0556331795072304  0.7778025047998860  0.1250829378113854
  0.3888497243723757  0.7778092024752300  0.1251242175773998
  0.2221098850153979  0.2777347363538636  0.1250834436793921
  0.7222716089847625  0.7778780952042087  0.1250269681751994
  0.5555260950055307  0.2775967219451276  0.1251118576011152
  0.8889177397084891  0.2777783410613662  0.1251068030291601
  0.0555692125387051  0.4444737631267972  0.6249449989345643
  0.2221971897783079  0.9443659146748873  0.6248808625097539
  0.5555247034978235  0.9444293570066845  0.6249596266453072
  0.3887397432827346  0.4445010529204836  0.6247744365262777
  0.8889194177596242  0.9444753898626036  0.6249154337630431
  0.0555729930593939  0.9444275424910601  0.1250478057946828
  0.7224143104744305  0.4444859252429678  0.6248759067105253
  0.3888486534277717  0.9443699786121198  0.1250847722497306
  0.2221333120734900  0.4444804489749312  0.1251328555097152
  0.2221965580042238  0.6111582169035072  0.1251402954335601
  0.5555727747594703  0.4444563120665589  0.1248971884452444
  0.7222227354370713  0.9444744574915495  0.1251092314716190
  0.8890070887047581  0.4444794219602716  0.1250527488147377
  0.0556319301974251  0.6111556629390151  0.6248809778594246
  0.2221406366592399  0.1109933975678031  0.6248949561164240
  0.7224103697837055  0.6112548114574269  0.6248871153783733
  0.5555236382955743  0.1109937816233011  0.6249316078675480
  0.8888874536195507  0.1111107455553669  0.6249391684684116
  0.4440991376620192  0.3845105940728386  0.3750000000000000
 
  0.00000000E+00  0.00000000E+00  0.00000000E+00
  0.00000000E+00  0.00000000E+00  0.00000000E+00
  0.00000000E+00  0.00000000E+00  0.00000000E+00
  0.00000000E+00  0.00000000E+00  0.00000000E+00
  0.00000000E+00  0.00000000E+00  0.00000000E+00
  0.00000000E+00  0.00000000E+00  0.00000000E+00
  0.00000000E+00  0.00000000E+00  0.00000000E+00
  0.00000000E+00  0.00000000E+00  0.00000000E+00
  0.00000000E+00  0.00000000E+00  0.00000000E+00
  0.00000000E+00  0.00000000E+00  0.00000000E+00
  0.00000000E+00  0.00000000E+00  0.00000000E+00
  0.00000000E+00  0.00000000E+00  0.00000000E+00
  0.00000000E+00  0.00000000E+00  0.00000000E+00
  0.00000000E+00  0.00000000E+00  0.00000000E+00
  0.00000000E+00  0.00000000E+00  0.00000000E+00
  0.00000000E+00  0.00000000E+00  0.00000000E+00
  0.00000000E+00  0.00000000E+00  0.00000000E+00
  0.00000000E+00  0.00000000E+00  0.00000000E+00
  0.00000000E+00  0.00000000E+00  0.00000000E+00
  0.00000000E+00  0.00000000E+00  0.00000000E+00
  0.00000000E+00  0.00000000E+00  0.00000000E+00
  0.00000000E+00  0.00000000E+00  0.00000000E+00
  0.00000000E+00  0.00000000E+00  0.00000000E+00
  0.00000000E+00  0.00000000E+00  0.00000000E+00
  0.00000000E+00  0.00000000E+00  0.00000000E+00
  0.00000000E+00  0.00000000E+00  0.00000000E+00
  0.00000000E+00  0.00000000E+00  0.00000000E+00
  0.00000000E+00  0.00000000E+00  0.00000000E+00
  0.00000000E+00  0.00000000E+00  0.00000000E+00
  0.00000000E+00  0.00000000E+00  0.00000000E+00
  0.00000000E+00  0.00000000E+00  0.00000000E+00
  0.00000000E+00  0.00000000E+00  0.00000000E+00
  0.00000000E+00  0.00000000E+00  0.00000000E+00
  0.00000000E+00  0.00000000E+00  0.00000000E+00
  0.00000000E+00  0.00000000E+00  0.00000000E+00
  0.00000000E+00  0.00000000E+00  0.00000000E+00
  0.00000000E+00  0.00000000E+00  0.00000000E+00
  0.00000000E+00  0.00000000E+00  0.00000000E+00
  0.00000000E+00  0.00000000E+00  0.00000000E+00
  0.00000000E+00  0.00000000E+00  0.00000000E+00
  0.00000000E+00  0.00000000E+00  0.00000000E+00
  0.00000000E+00  0.00000000E+00  0.00000000E+00
  0.00000000E+00  0.00000000E+00  0.00000000E+00
  0.00000000E+00  0.00000000E+00  0.00000000E+00
  0.00000000E+00  0.00000000E+00  0.00000000E+00
  0.00000000E+00  0.00000000E+00  0.00000000E+00
  0.00000000E+00  0.00000000E+00  0.00000000E+00
  0.00000000E+00  0.00000000E+00  0.00000000E+00
  0.00000000E+00  0.00000000E+00  0.00000000E+00
  0.00000000E+00  0.00000000E+00  0.00000000E+00
  0.00000000E+00  0.00000000E+00  0.00000000E+00
  0.00000000E+00  0.00000000E+00  0.00000000E+00
  0.00000000E+00  0.00000000E+00  0.00000000E+00
  0.00000000E+00  0.00000000E+00  0.00000000E+00
  0.00000000E+00  0.00000000E+00  0.00000000E+00
  0.00000000E+00  0.00000000E+00  0.00000000E+00
  0.00000000E+00  0.00000000E+00  0.00000000E+00
  0.00000000E+00  0.00000000E+00  0.00000000E+00
  0.00000000E+00  0.00000000E+00  0.00000000E+00
  0.00000000E+00  0.00000000E+00  0.00000000E+00
  0.00000000E+00  0.00000000E+00  0.00000000E+00
  0.00000000E+00  0.00000000E+00  0.00000000E+00
  0.00000000E+00  0.00000000E+00  0.00000000E+00
  0.00000000E+00  0.00000000E+00  0.00000000E+00
  0.00000000E+00  0.00000000E+00  0.00000000E+00
  0.00000000E+00  0.00000000E+00  0.00000000E+00
  0.00000000E+00  0.00000000E+00  0.00000000E+00
  0.00000000E+00  0.00000000E+00  0.00000000E+00
  0.00000000E+00  0.00000000E+00  0.00000000E+00
  0.00000000E+00  0.00000000E+00  0.00000000E+00
  0.00000000E+00  0.00000000E+00  0.00000000E+00
  0.00000000E+00  0.00000000E+00  0.00000000E+00
  0.00000000E+00  0.00000000E+00  0.00000000E+00
  0.00000000E+00  0.00000000E+00  0.00000000E+00
  0.00000000E+00  0.00000000E+00  0.00000000E+00
  0.00000000E+00  0.00000000E+00  0.00000000E+00
  0.00000000E+00  0.00000000E+00  0.00000000E+00
  0.00000000E+00  0.00000000E+00  0.00000000E+00
  0.00000000E+00  0.00000000E+00  0.00000000E+00
  0.00000000E+00  0.00000000E+00  0.00000000E+00
  0.00000000E+00  0.00000000E+00  0.00000000E+00
  0.00000000E+00  0.00000000E+00  0.00000000E+00
  0.00000000E+00  0.00000000E+00  0.00000000E+00
  0.00000000E+00  0.00000000E+00  0.00000000E+00
  0.00000000E+00  0.00000000E+00  0.00000000E+00
  0.00000000E+00  0.00000000E+00  0.00000000E+00
  0.00000000E+00  0.00000000E+00  0.00000000E+00
  0.00000000E+00  0.00000000E+00  0.00000000E+00
  0.00000000E+00  0.00000000E+00  0.00000000E+00
  0.00000000E+00  0.00000000E+00  0.00000000E+00
  0.00000000E+00  0.00000000E+00  0.00000000E+00
  0.00000000E+00  0.00000000E+00  0.00000000E+00
  0.00000000E+00  0.00000000E+00  0.00000000E+00
  0.00000000E+00  0.00000000E+00  0.00000000E+00
  0.00000000E+00  0.00000000E+00  0.00000000E+00
  0.00000000E+00  0.00000000E+00  0.00000000E+00
  0.00000000E+00  0.00000000E+00  0.00000000E+00
  0.00000000E+00  0.00000000E+00  0.00000000E+00
  0.00000000E+00  0.00000000E+00  0.00000000E+00
  0.00000000E+00  0.00000000E+00  0.00000000E+00
  0.00000000E+00  0.00000000E+00  0.00000000E+00
  0.00000000E+00  0.00000000E+00  0.00000000E+00
  0.00000000E+00  0.00000000E+00  0.00000000E+00
  0.00000000E+00  0.00000000E+00  0.00000000E+00
  0.00000000E+00  0.00000000E+00  0.00000000E+00
  0.00000000E+00  0.00000000E+00  0.00000000E+00
  0.00000000E+00  0.00000000E+00  0.00000000E+00
  0.00000000E+00  0.00000000E+00  0.00000000E+00
  0.00000000E+00  0.00000000E+00  0.00000000E+00
  0.00000000E+00  0.00000000E+00  0.00000000E+00
  0.00000000E+00  0.00000000E+00  0.00000000E+00
  0.00000000E+00  0.00000000E+00  0.00000000E+00
  0.00000000E+00  0.00000000E+00  0.00000000E+00
  0.00000000E+00  0.00000000E+00  0.00000000E+00
  0.00000000E+00  0.00000000E+00  0.00000000E+00
  0.00000000E+00  0.00000000E+00  0.00000000E+00
  0.00000000E+00  0.00000000E+00  0.00000000E+00
  0.00000000E+00  0.00000000E+00  0.00000000E+00
  0.00000000E+00  0.00000000E+00  0.00000000E+00
  0.00000000E+00  0.00000000E+00  0.00000000E+00
  0.00000000E+00  0.00000000E+00  0.00000000E+00
  0.00000000E+00  0.00000000E+00  0.00000000E+00
  0.00000000E+00  0.00000000E+00  0.00000000E+00
  0.00000000E+00  0.00000000E+00  0.00000000E+00
  0.00000000E+00  0.00000000E+00  0.00000000E+00
  0.00000000E+00  0.00000000E+00  0.00000000E+00
  0.00000000E+00  0.00000000E+00  0.00000000E+00
  0.00000000E+00  0.00000000E+00  0.00000000E+00
  0.00000000E+00  0.00000000E+00  0.00000000E+00
  0.00000000E+00  0.00000000E+00  0.00000000E+00
  0.00000000E+00  0.00000000E+00  0.00000000E+00
  0.00000000E+00  0.00000000E+00  0.00000000E+00
  0.00000000E+00  0.00000000E+00  0.00000000E+00
  0.00000000E+00  0.00000000E+00  0.00000000E+00
  0.00000000E+00  0.00000000E+00  0.00000000E+00
  0.00000000E+00  0.00000000E+00  0.00000000E+00
  0.00000000E+00  0.00000000E+00  0.00000000E+00
  0.00000000E+00  0.00000000E+00  0.00000000E+00
  0.00000000E+00  0.00000000E+00  0.00000000E+00
  0.00000000E+00  0.00000000E+00  0.00000000E+00
  0.00000000E+00  0.00000000E+00  0.00000000E+00
  0.00000000E+00  0.00000000E+00  0.00000000E+00
  0.00000000E+00  0.00000000E+00  0.00000000E+00
  0.00000000E+00  0.00000000E+00  0.00000000E+00
  0.00000000E+00  0.00000000E+00  0.00000000E+00
  0.00000000E+00  0.00000000E+00  0.00000000E+00
  0.00000000E+00  0.00000000E+00  0.00000000E+00
  0.00000000E+00  0.00000000E+00  0.00000000E+00
  0.00000000E+00  0.00000000E+00  0.00000000E+00
  0.00000000E+00  0.00000000E+00  0.00000000E+00
  0.00000000E+00  0.00000000E+00  0.00000000E+00
  0.00000000E+00  0.00000000E+00  0.00000000E+00
  0.00000000E+00  0.00000000E+00  0.00000000E+00
  0.00000000E+00  0.00000000E+00  0.00000000E+00
  0.00000000E+00  0.00000000E+00  0.00000000E+00
  0.00000000E+00  0.00000000E+00  0.00000000E+00
  0.00000000E+00  0.00000000E+00  0.00000000E+00
  0.00000000E+00  0.00000000E+00  0.00000000E+00
  0.00000000E+00  0.00000000E+00  0.00000000E+00
  0.00000000E+00  0.00000000E+00  0.00000000E+00
  0.00000000E+00  0.00000000E+00  0.00000000E+00
  0.00000000E+00  0.00000000E+00  0.00000000E+00
  0.00000000E+00  0.00000000E+00  0.00000000E+00
  0.00000000E+00  0.00000000E+00  0.00000000E+00
  0.00000000E+00  0.00000000E+00  0.00000000E+00
  0.00000000E+00  0.00000000E+00  0.00000000E+00
  0.00000000E+00  0.00000000E+00  0.00000000E+00
  0.00000000E+00  0.00000000E+00  0.00000000E+00
  0.00000000E+00  0.00000000E+00  0.00000000E+00
  0.00000000E+00  0.00000000E+00  0.00000000E+00
  0.00000000E+00  0.00000000E+00  0.00000000E+00
  0.00000000E+00  0.00000000E+00  0.00000000E+00
  0.00000000E+00  0.00000000E+00  0.00000000E+00
  0.00000000E+00  0.00000000E+00  0.00000000E+00
  0.00000000E+00  0.00000000E+00  0.00000000E+00
  0.00000000E+00  0.00000000E+00  0.00000000E+00
  0.00000000E+00  0.00000000E+00  0.00000000E+00
  0.00000000E+00  0.00000000E+00  0.00000000E+00
  0.00000000E+00  0.00000000E+00  0.00000000E+00
  0.00000000E+00  0.00000000E+00  0.00000000E+00
  0.00000000E+00  0.00000000E+00  0.00000000E+00
  0.00000000E+00  0.00000000E+00  0.00000000E+00
  0.00000000E+00  0.00000000E+00  0.00000000E+00
  0.00000000E+00  0.00000000E+00  0.00000000E+00
  0.00000000E+00  0.00000000E+00  0.00000000E+00
  0.00000000E+00  0.00000000E+00  0.00000000E+00
  0.00000000E+00  0.00000000E+00  0.00000000E+00
  0.00000000E+00  0.00000000E+00  0.00000000E+00
  0.00000000E+00  0.00000000E+00  0.00000000E+00
  0.00000000E+00  0.00000000E+00  0.00000000E+00
  0.00000000E+00  0.00000000E+00  0.00000000E+00
  0.00000000E+00  0.00000000E+00  0.00000000E+00
  0.00000000E+00  0.00000000E+00  0.00000000E+00
  0.00000000E+00  0.00000000E+00  0.00000000E+00
  0.00000000E+00  0.00000000E+00  0.00000000E+00
  0.00000000E+00  0.00000000E+00  0.00000000E+00
  0.00000000E+00  0.00000000E+00  0.00000000E+00
  0.00000000E+00  0.00000000E+00  0.00000000E+00
  0.00000000E+00  0.00000000E+00  0.00000000E+00
  0.00000000E+00  0.00000000E+00  0.00000000E+00
  0.00000000E+00  0.00000000E+00  0.00000000E+00
  0.00000000E+00  0.00000000E+00  0.00000000E+00
  0.00000000E+00  0.00000000E+00  0.00000000E+00
  0.00000000E+00  0.00000000E+00  0.00000000E+00
  0.00000000E+00  0.00000000E+00  0.00000000E+00
  0.00000000E+00  0.00000000E+00  0.00000000E+00
  0.00000000E+00  0.00000000E+00  0.00000000E+00
  0.00000000E+00  0.00000000E+00  0.00000000E+00
  0.00000000E+00  0.00000000E+00  0.00000000E+00
  0.00000000E+00  0.00000000E+00  0.00000000E+00
  0.00000000E+00  0.00000000E+00  0.00000000E+00
  0.00000000E+00  0.00000000E+00  0.00000000E+00
  0.00000000E+00  0.00000000E+00  0.00000000E+00
  0.00000000E+00  0.00000000E+00  0.00000000E+00
  0.00000000E+00  0.00000000E+00  0.00000000E+00
  0.00000000E+00  0.00000000E+00  0.00000000E+00
  0.00000000E+00  0.00000000E+00  0.00000000E+00
  0.00000000E+00  0.00000000E+00  0.00000000E+00
  0.00000000E+00  0.00000000E+00  0.00000000E+00
  0.00000000E+00  0.00000000E+00  0.00000000E+00
  0.00000000E+00  0.00000000E+00  0.00000000E+00
  0.00000000E+00  0.00000000E+00  0.00000000E+00
  0.00000000E+00  0.00000000E+00  0.00000000E+00
  0.00000000E+00  0.00000000E+00  0.00000000E+00
  0.00000000E+00  0.00000000E+00  0.00000000E+00
  0.00000000E+00  0.00000000E+00  0.00000000E+00
  0.00000000E+00  0.00000000E+00  0.00000000E+00
  0.00000000E+00  0.00000000E+00  0.00000000E+00
  0.00000000E+00  0.00000000E+00  0.00000000E+00
  0.00000000E+00  0.00000000E+00  0.00000000E+00
  0.00000000E+00  0.00000000E+00  0.00000000E+00
  0.00000000E+00  0.00000000E+00  0.00000000E+00
  0.00000000E+00  0.00000000E+00  0.00000000E+00
  0.00000000E+00  0.00000000E+00  0.00000000E+00
  0.00000000E+00  0.00000000E+00  0.00000000E+00
  0.00000000E+00  0.00000000E+00  0.00000000E+00
  0.00000000E+00  0.00000000E+00  0.00000000E+00
  0.00000000E+00  0.00000000E+00  0.00000000E+00
  0.00000000E+00  0.00000000E+00  0.00000000E+00
  0.00000000E+00  0.00000000E+00  0.00000000E+00
  0.00000000E+00  0.00000000E+00  0.00000000E+00
  0.00000000E+00  0.00000000E+00  0.00000000E+00
  0.00000000E+00  0.00000000E+00  0.00000000E+00
  0.00000000E+00  0.00000000E+00  0.00000000E+00
  0.00000000E+00  0.00000000E+00  0.00000000E+00
  0.00000000E+00  0.00000000E+00  0.00000000E+00
  0.00000000E+00  0.00000000E+00  0.00000000E+00