 O N C B 
 1.0
 14.936314146199660   0.000000000000000   0.000000000000000
 -7.468157073099825  12.935227489513863   0.000000000000000
  0.000000000000001   0.000000000000001  13.341276283792837
 O N C B 
   1 142   1 144
Cartesian
  5.017640936968762   5.741327998396870   5.002978606422314 
  1.244847680608717   0.718603136570713   1.667479532083082 
  4.978729890465616   7.185926038196765   1.679335835192494 
  6.223476944730160   0.718438708122341   1.667436545836693 
  9.957744868239068   7.186369983174750   1.667577840802305 
 11.202153241463240   0.718555874326589   1.666917734921089 
 -3.733955664074065   9.342114051105389   8.338877742933740 
  1.244510115354479   9.342242206440067   8.338433813105528 
  2.489575934627799   2.874619588117338   8.335281455432099 
  6.223643831267725   9.341958297610702   8.337018752526411 
  7.467997030147166   2.874427880020773   8.337294686140540 
 12.446886239546824   2.874590860029338   8.339041980818225 
 -1.244698826323158   9.342142526889720   1.667452601985721 
  0.000073178397948   2.874521956685494   1.667338409057158 
  4.978796819322765   2.874403786163059   1.671134838359569 
  3.734001561946957   9.341985639129978   1.668786623395435 
  8.713086855240348   9.342155363349013   1.667490662995349 
  9.957400089369676   2.874576468990721   1.667232758234906 
 -4.978612359844639  11.497940339872128   8.338852361291249 
 -0.000107442106695  11.497967460721506   8.339027174623377 
  1.244557065694932   5.030526231822574   8.337314647453105 
  6.223265737799605   5.030556908450579   8.326813070201704 
  4.978825641117059  11.497832460412450   8.338638721998509 
 11.202210804581043   5.030537301799236   8.338972870809354 
 -1.244788430536903   5.030537979049989   1.667046702401381 
 -2.489337475008517  11.497918542370362   1.667158967551877 
  2.489263902595960  11.497920818888895   1.667023108975950 
  3.734451481185588   5.030516719478724   1.680048751599707 
  7.468344962034985  11.497916530112446   1.667088721881337 
  8.712868736548288   5.030555089463110   1.668639886258376 
 -0.000042751297994   7.186364716061179   8.337101332398484 
  1.244847680608717   0.718603136570714   8.338477680761546 
  4.978729890465617   7.185926038196766   8.326621377652147 
  6.223476944730161   0.718438708122342   8.338520667007934 
  9.957744868239068   7.186369983174751   8.338379372042324 
 -2.489364675082284   7.186376660598065   1.667408579273628 
 11.202153241463240   0.718555874326590   8.339039477923539 
  3.734152764041006   0.718503256696145   1.668134020850109 
  2.489308173458612   7.186503892487861   1.669991299234741 
  7.468290661316387   7.186279660733944   1.670544896519307 
  8.712689084169959   0.718548047505010   1.666899712145384 
  2.489308173458613   7.186503892487862   8.335965913609886 
 13.691735368492761   0.718545032118819   1.666945223147221 
 -1.244698826323158   9.342142526889720   8.338504610858919 
  0.000073178397948   2.874521956685495   8.338618803787469 
  4.978796819322766   2.874403786163060   8.334822374485059 
  3.734001561946957   9.341985639129978   8.337170589449206 
  8.713086855240348   9.342155363349013   8.338466549849279 
  9.957400089369676   2.874576468990722   8.338724454609721 
 -3.733955664074066   9.342114051105389   1.667079469910889 
  1.244510115354479   9.342242206440067   1.667523399739113 
  2.489575934627799   2.874619588117337   1.670675757412528 
  6.223643831267724   9.341958297610702   1.668938460318216 
  7.467997030147165   2.874427880020772   1.668662526704088 
 12.446886239546824   2.874590860029338   1.666915232026403 
 -1.244788430536903   5.030537979049990   8.338910510443259 
 -2.489337475008516  11.497918542370362   8.338798245292750 
  2.489263902595960  11.497920818888895   8.338934103868665 
  3.734451481185588   5.030516719478725   8.325908461244921 
  7.468344962034986  11.497916530112446   8.338868490963304 
 -4.978612359844640  11.497940339872128   1.667104851553365 
  8.712868736548288   5.030555089463111   8.337317326586252 
 -0.000107442106696  11.497967460721506   1.666930038221250 
  1.244557065694931   5.030526231822573   1.668642565391522 
 -0.000042751297994   7.186364716061178   1.668855880446144 
  6.223265737799604   5.030556908450579   1.679144142642924 
  4.978825641117059  11.497832460412450   1.667318490846120 
 11.202210804581043   5.030537301799235   1.666984342035275 
 -2.489364675082284   7.186376660598066   8.338548633570987 
  3.734152764041006   0.718503256696146   8.337823191994532 
  7.468290661316388   7.186279660733945   8.335412316325320 
  8.712689084169959   0.718548047505011   8.339057500699257 
 13.691735368492761   0.718545032118820   8.339011989697418 
 -0.006737669319797   1.425477861883769   5.002978606422314 
  3.749413649325994   7.923320391144660   5.002978606422314 
  4.985743703170281   1.429091918239047   5.002978606422314 
  8.710709120395219   7.904355083998073   5.002978606422314 
  9.957169285351307   1.437958633881479   5.002978606422314 
 -4.978770275644622  10.060676769771304  11.673616748318732 
  0.000003850568081  10.060705289630842  11.673616748318732 
  1.244765586077384   3.593120926617179  11.673616748318732 
  4.978792695194890  10.060713468863925  11.673616748318732 
  6.223559665439470   3.593134021394154  11.673616748318732 
 11.202289379455204   3.593068337709965  11.673616748318732 
 -2.491589921191359  10.061544023889159   5.002978606422314 
 -1.254795621820090   3.587028762607662   5.002978606422314 
  3.763829025926932   3.578659572121499   5.002978606422314 
  2.492267326636559  10.069160141177399   5.002978606422314 
  7.467166468891627  10.057839830938159   5.002978606422314 
  8.713760602997889   3.593611281671869   5.002978606422314 
 -6.223445934848460  12.216629696563421  11.673616748318732 
 -1.244661743213302  12.216606728357805  11.673616748318732 
 -0.000077291920554   5.748921125495765  11.673616748318732 
  4.978733876221546   5.749032025146037  11.673616748318732 
  3.734136829856936  12.216652578442847  11.673616748318732 
  9.957670426480929   5.748984553115275  11.673616748318732 
 -2.503394199625392   5.748540898882658   5.002978606422314 
 -3.735194032565546  12.216966427983795   5.002978606422314 
  1.244830720925554  12.220790523764355   5.002978606422314 
  6.223783296995039  12.215142349110524   5.002978606422314 
  7.468708864493459   5.751029586604831   5.002978606422314 
 -1.244680360485007   7.904774803439023  11.673616748318732 
  0.000002055255028   1.437189300583604  11.673616748318732 
  3.734095907187061   7.904924197858981  11.673616748318732 
  4.978804584432015   1.437312889629398  11.673616748318732 
  8.712818610118005   7.904799840816172  11.673616748318732 
 -3.737034053407099   7.905250940029168   5.002978606422314 
  9.957587709219098   1.437235973487277  11.673616748318732 
  2.490425702883054   1.438926570386645   5.002978606422314 
  1.236043130014140   7.934491686154447   5.002978606422314 
  6.221435081886673   7.894297306264089   5.002978606422314 
  7.469678271202379   1.439264467289671   5.002978606422314 
  1.244787562240259   7.904736165771617  11.673616748318732 
 12.443826215513722   1.434693469771632   5.002978606422314 
 -2.489366325899994  10.060669200765572  11.673616748318732 
 -1.244665026192571   3.593015940972848  11.673616748318732 
  3.734085594048686   3.593108639912157  11.673616748318732 
  2.489361089177908  10.060802650995392  11.673616748318732 
  7.468219546281960  10.060830754213919  11.673616748318732 
  8.712860609509427   3.593097532654913  11.673616748318732 
 -4.980560680391497  10.060434806738527   5.002978606422314 
 -0.005883047239431  10.072385654171399   5.002978606422314 
  1.224987670742745   3.569062922328883   5.002978606422314 
  4.985820180964644  10.068991701664514   5.002978606422314 
  6.226493965942133   3.597369585943805   5.002978606422314 
 11.197836595078059   3.591948398841965   5.002978606422314 
 -2.489371512855863   5.748937014174283  11.673616748318732 
 -3.734063881431279  12.216566381885494  11.673616748318732 
  1.244714962508178  12.216568898055479  11.673616748318732 
  2.489445741645755   5.748938493815579  11.673616748318732 
  6.223489267517644  12.216607176763880  11.673616748318732 
 -6.223956483465142  12.215119847732739   5.002978606422314 
  7.468218549273989   5.748964679092548  11.673616748318732 
 -1.245212163457271  12.217949085574835   5.002978606422314 
 -0.027945043956271   5.742148609446635   5.002978606422314 
 -1.246378343406604   7.905211965467085   5.002978606422314 
  3.735043390372662  12.219399689915338   5.002978606422314 
  9.952847334607865   5.749358817551059   5.002978606422314 
 -3.734048763543226   7.904795326149854  11.673616748318732 
  2.489365032552692   1.437172240272266  11.673616748318732 
  6.223418738911756   7.904888504412710  11.673616748318732 
  7.468249181202229   1.437101784711149  11.673616748318732 
 12.447005625020706   1.437214800497117  11.673616748318732 
  2.497000239928337   5.752809150199220   5.002978606422314 
  1.240028027922839   0.714718195419408   5.002978606422314 
  4.981785857955802   7.231118548478091   5.002978606422314 
  6.230545426873515   0.711629415244620   5.002978606422314 
  9.959902096113169   7.186244113211296   5.002978606422314 
 11.201668568259965   0.719845906089453   5.002978606422314 
 -3.732299806535710   9.343957369013403  11.673616748318732 
  1.245425761510362   9.339911354321618  11.673616748318732 
  2.486778737190398   2.874754461810386  11.673616748318732 
  6.221099675321861   9.343051239765780  11.673616748318732 
  7.470166799654447   2.876032693209666  11.673616748318732 
 12.447874169991650   2.871999603159803  11.673616748318732 
 -1.247320496578400   9.345691544069435   5.002978606422314 
 -0.019741754727952   2.854614115219607   5.002978606422314 
  4.997443419809121   2.845894170858960   5.002978606422314 
  3.742469371779328   9.371860278273683   5.002978606422314 
  8.714464977277487   9.345207004964857   5.002978606422314 
  9.961029163824502   2.871040056200094   5.002978606422314 
 -4.981218807893526  11.498484864713147  11.673616748318732 
  0.001706598367217  11.499823196628988  11.673616748318732 
  1.245168925392196   5.028002382515177  11.673616748318732 
  6.221483152102649   5.030622809758162  11.673616748318732 
  4.979611530300264  11.495974547018436  11.673616748318732 
 11.204193118793050   5.032135889815963  11.673616748318732 
 -1.269076076032687   5.024068339213506   5.002978606422314 
 -2.489869751625007  11.497684975844967   5.002978606422314 
  2.490218242763176  11.507623954751358   5.002978606422314 
  7.467524583338054  11.499439410843177   5.002978606422314 
  8.725122804602782   5.024320875834441   5.002978606422314 
  0.001351883505290   7.187888261125919  11.673616748318732 
  1.245410454888816   0.716147282829969  11.673616748318732 
  4.979354672740870   7.184516787405197  11.673616748318732 
  6.221196840419895   0.718848734708926  11.673616748318732 
  9.955443500217092   7.186688127187943  11.673616748318732 
 -2.493622521036379   7.185525325492794   5.002978606422314 
 11.204066862758369   0.720571883269173  11.673616748318732 
  3.733724621534834   0.713320344010469   5.002978606422314 
  2.479743238063147   7.255491572591684   5.002978606422314 
  7.480231656672417   7.191233205829647   5.002978606422314 
  8.716469436099100   0.719315759602549   5.002978606422314 
  2.486724297994449   7.186738530755531  11.673616748318732 
 13.685779031384920   0.713913032736264   5.002978606422314 
 -1.247229206889676   9.342470604040489  11.673616748318732 
  0.001331302912400   2.876227187231782  11.673616748318732 
  4.979435588184926   2.871858305967129  11.673616748318732 
  3.735563703127695   9.344273070666855  11.673616748318732 
  8.713797235856031   9.339993523647015  11.673616748318732 
  9.955476402547445   2.874780033268202  11.673616748318732 
 -3.735025202902512   9.342973033101881   5.002978606422314 
  1.235920331709657   9.367532462537818   5.002978606422314 
  2.478125266550445   2.866798515464695   5.002978606422314 
  6.224775565974459   9.353056953339895   5.002978606422314 
  7.482796444568757   2.867753998205612   5.002978606422314 
 12.439807532046395   2.869409868409012   5.002978606422314 
 -1.247185251227941   5.030737720959532  11.673616748318732 
 -2.488572264193777  11.495452333860053  11.673616748318732 
  2.486895332451036  11.498596013849589  11.673616748318732 
  3.735059897804935   5.031977227454782  11.673616748318732 
  7.469869812071964  11.500083344329552  11.673616748318732 
 -4.980003918144845  11.497500520325005   5.002978606422314 
  8.714089022384954   5.027890729882274  11.673616748318732 
 -0.001067715024060  11.505171472821539   5.002978606422314 
  1.184247775795740   4.994175611525535   5.002978606422314 
 -0.006514445268737   7.187398572955186   5.002978606422314 
  6.280873322088600   5.005581665319533   5.002978606422314 
  4.980561014871451  11.508100822327544   5.002978606422314 
 11.196580808276021   5.027354087296094   5.002978606422314 
 -2.488471227504049   7.183776478813578  11.673616748318732 
  3.735558465096634   0.720286065477122  11.673616748318732 
  7.470102306860293   7.188275259547372  11.673616748318732 
  8.713844102766510   0.716067281355799  11.673616748318732 
 13.689108452550503   0.719182607958060  11.673616748318732 
 -0.000302584775229   1.436914748556452   1.669257401035497 
  3.732362309432522   7.906797604229775   1.669562734798558 
  4.978909219666883   1.434918548297323   1.668046864485839 
  8.714930980433316   7.905990912358318   1.667863546190514 
  9.957765215812220   1.436854544786223   1.668743840025018 
 -4.977796631624123  10.061052341500224   8.337191181114463 
 -0.000819658098563  10.061138977454450   8.336640456351127 
  1.243336381819645   3.592561996477388   8.337184432189606 
  4.978759851968772  10.062030120576166   8.337937887494324 
  6.224376348950337   3.590776748703557   8.336805354209606 
 11.202662327864356   3.593126033288540   8.336872788650554 
 -2.489324830527821  10.060712115775875   1.668607257229449 
 -1.245208218149443   3.593143769558659   1.668799524274908 
  3.733376622236901   3.590771522367591   1.670284519148181 
  2.488264327957487  10.061785745737204   1.668403438172961 
  7.469355174685430  10.061760632850909   1.668660196250521 
  8.714028313913072   3.592477031884462   1.667874935101931 
 -6.223077549105212  12.216385109484381   8.337659887055691 
 -1.244737692471314  12.215640507615115   8.337166707365677 
 -0.001596877401264   5.749455722131993   8.336525215309578 
  4.978939944239534   5.749143505731307   8.339669314727690 
  3.733862059938108  12.216991965688377   8.336840390128769 
  9.959047016132725   5.749442437463744   8.337593940859460 
 -2.489400662567650   5.749369239165418   1.668393319883989 
 -3.733865956342091  12.215587939662502   1.669248981647234 
  1.244344704845313  12.216408580656774   1.668198167553568 
  2.486735244415507   5.749722238854901   1.670668840096562 
  6.223689111143518  12.217004026120080   1.668787757005628 
  7.470716378459711   5.749526558904844   1.669315098333942 
 -1.245427967795638   7.905470567732522   8.336425957230045 
 -0.000302584775228   1.436914748556453   8.336699811809131 
  3.732362309432522   7.906797604229776   8.336394478046069 
  4.978909219666884   1.434918548297323   8.337910348358788 
  8.714930980433316   7.905990912358319   8.338093666654114 
 -3.733270500954826   7.905437531620816   1.669247442735404 
  9.957765215812220   1.436854544786224   8.337213372819610 
  2.489046206665837   1.435724847373587   1.669060954946815 
  1.242712728319591   7.906144325054567   1.668457474962821 
  6.225201281909612   7.906720040261724   1.669165560399422 
  7.468556581922333   1.435729815218822   1.668571973808785 
  1.242712728319592   7.906144325054568   8.337499737881807 
 12.446909747560385   1.437242770288164   1.668471105743786 
 -2.489324830527820  10.060712115775875   8.337349955615180 
 -1.245208218149442   3.593143769558660   8.337157688569734 
  3.733376622236901   3.590771522367592   8.335672693696447 
  2.488264327957487  10.061785745737204   8.337553774671667 
  7.469355174685431  10.061760632850909   8.337297016594107 
  8.714028313913072   3.592477031884463   8.338082277742696 
 -4.977796631624124  10.061052341500224   1.668766031730165 
 -0.000819658098564  10.061138977454450   1.669316756493501 
  1.243336381819645   3.592561996477387   1.668772780655010 
  4.978759851968771  10.062030120576166   1.668019325350304 
  6.224376348950336   3.590776748703556   1.669151858635022 
 11.202662327864356   3.593126033288539   1.669084424194074 
 -2.489400662567649   5.749369239165419   8.337563892960638 
 -3.733865956342090  12.215587939662502   8.336708231197393 
  1.244344704845313  12.216408580656774   8.337759045291060 
  2.486735244415507   5.749722238854901   8.335288372748066 
  6.223689111143519  12.217004026120080   8.337169455839000 
 -6.223077549105213  12.216385109484381   1.668297325788937 
  7.470716378459712   5.749526558904845   8.336642114510672 
 -1.244737692471315  12.215640507615115   1.668790505478964 
 -0.001596877401265   5.749455722131992   1.669431997535037 
 -1.245427967795638   7.905470567732521   1.669531255614583 
  4.978939944239533   5.749143505731306   1.666287898116938 
  3.733862059938107  12.216991965688377   1.669116822715859 
  9.959047016132725   5.749442437463743   1.668363271985167 
 -3.733270500954826   7.905437531620817   8.336709770109223 
  2.489046206665837   1.435724847373588   8.336896257897813 
  6.225201281909613   7.906720040261725   8.336791652445207 
  7.468556581922334   1.435729815218823   8.337385239035843 
 12.446909747560385   1.437242770288164   8.337486107100842 
  3.761618719369397   4.973732006460295   5.002978606422314 
Generated by cif2cell 2.0.0.  :  Failed to get author information, No journal information. Species order: O N C B 
 1.0
 14.936314146199660   0.000000000000000   0.000000000000000
 -7.468157073099825  12.935227489513863   0.000000000000000
  0.000000000000001   0.000000000000001  13.341276283792837
 O N C B 
   1 142   1 144
Cartesian
  5.017640936968762   5.741327998396870   5.002978606422314 
  1.244847680608717   0.718603136570713   1.667479532083082 
  4.978729890465616   7.185926038196765   1.679335835192494 
  6.223476944730160   0.718438708122341   1.667436545836693 
  9.957744868239068   7.186369983174750   1.667577840802305 
 11.202153241463240   0.718555874326589   1.666917734921089 
 -3.733955664074065   9.342114051105389   8.338877742933740 
  1.244510115354479   9.342242206440067   8.338433813105528 
  2.489575934627799   2.874619588117338   8.335281455432099 
  6.223643831267725   9.341958297610702   8.337018752526411 
  7.467997030147166   2.874427880020773   8.337294686140540 
 12.446886239546824   2.874590860029338   8.339041980818225 
 -1.244698826323158   9.342142526889720   1.667452601985721 
  0.000073178397948   2.874521956685494   1.667338409057158 
  4.978796819322765   2.874403786163059   1.671134838359569 
  3.734001561946957   9.341985639129978   1.668786623395435 
  8.713086855240348   9.342155363349013   1.667490662995349 
  9.957400089369676   2.874576468990721   1.667232758234906 
 -4.978612359844639  11.497940339872128   8.338852361291249 
 -0.000107442106695  11.497967460721506   8.339027174623377 
  1.244557065694932   5.030526231822574   8.337314647453105 
  6.223265737799605   5.030556908450579   8.326813070201704 
  4.978825641117059  11.497832460412450   8.338638721998509 
 11.202210804581043   5.030537301799236   8.338972870809354 
 -1.244788430536903   5.030537979049989   1.667046702401381 
 -2.489337475008517  11.497918542370362   1.667158967551877 
  2.489263902595960  11.497920818888895   1.667023108975950 
  3.734451481185588   5.030516719478724   1.680048751599707 
  7.468344962034985  11.497916530112446   1.667088721881337 
  8.712868736548288   5.030555089463110   1.668639886258376 
 -0.000042751297994   7.186364716061179   8.337101332398484 
  1.244847680608717   0.718603136570714   8.338477680761546 
  4.978729890465617   7.185926038196766   8.326621377652147 
  6.223476944730161   0.718438708122342   8.338520667007934 
  9.957744868239068   7.186369983174751   8.338379372042324 
 -2.489364675082284   7.186376660598065   1.667408579273628 
 11.202153241463240   0.718555874326590   8.339039477923539 
  3.734152764041006   0.718503256696145   1.668134020850109 
  2.489308173458612   7.186503892487861   1.669991299234741 
  7.468290661316387   7.186279660733944   1.670544896519307 
  8.712689084169959   0.718548047505010   1.666899712145384 
  2.489308173458613   7.186503892487862   8.335965913609886 
 13.691735368492761   0.718545032118819   1.666945223147221 
 -1.244698826323158   9.342142526889720   8.338504610858919 
  0.000073178397948   2.874521956685495   8.338618803787469 
  4.978796819322766   2.874403786163060   8.334822374485059 
  3.734001561946957   9.341985639129978   8.337170589449206 
  8.713086855240348   9.342155363349013   8.338466549849279 
  9.957400089369676   2.874576468990722   8.338724454609721 
 -3.733955664074066   9.342114051105389   1.667079469910889 
  1.244510115354479   9.342242206440067   1.667523399739113 
  2.489575934627799   2.874619588117337   1.670675757412528 
  6.223643831267724   9.341958297610702   1.668938460318216 
  7.467997030147165   2.874427880020772   1.668662526704088 
 12.446886239546824   2.874590860029338   1.666915232026403 
 -1.244788430536903   5.030537979049990   8.338910510443259 
 -2.489337475008516  11.497918542370362   8.338798245292750 
  2.489263902595960  11.497920818888895   8.338934103868665 
  3.734451481185588   5.030516719478725   8.325908461244921 
  7.468344962034986  11.497916530112446   8.338868490963304 
 -4.978612359844640  11.497940339872128   1.667104851553365 
  8.712868736548288   5.030555089463111   8.337317326586252 
 -0.000107442106696  11.497967460721506   1.666930038221250 
  1.244557065694931   5.030526231822573   1.668642565391522 
 -0.000042751297994   7.186364716061178   1.668855880446144 
  6.223265737799604   5.030556908450579   1.679144142642924 
  4.978825641117059  11.497832460412450   1.667318490846120 
 11.202210804581043   5.030537301799235   1.666984342035275 
 -2.489364675082284   7.186376660598066   8.338548633570987 
  3.734152764041006   0.718503256696146   8.337823191994532 
  7.468290661316388   7.186279660733945   8.335412316325320 
  8.712689084169959   0.718548047505011   8.339057500699257 
 13.691735368492761   0.718545032118820   8.339011989697418 
 -0.006737669319797   1.425477861883769   5.002978606422314 
  3.749413649325994   7.923320391144660   5.002978606422314 
  4.985743703170281   1.429091918239047   5.002978606422314 
  8.710709120395219   7.904355083998073   5.002978606422314 
  9.957169285351307   1.437958633881479   5.002978606422314 
 -4.978770275644622  10.060676769771304  11.673616748318732 
  0.000003850568081  10.060705289630842  11.673616748318732 
  1.244765586077384   3.593120926617179  11.673616748318732 
  4.978792695194890  10.060713468863925  11.673616748318732 
  6.223559665439470   3.593134021394154  11.673616748318732 
 11.202289379455204   3.593068337709965  11.673616748318732 
 -2.491589921191359  10.061544023889159   5.002978606422314 
 -1.254795621820090   3.587028762607662   5.002978606422314 
  3.763829025926932   3.578659572121499   5.002978606422314 
  2.492267326636559  10.069160141177399   5.002978606422314 
  7.467166468891627  10.057839830938159   5.002978606422314 
  8.713760602997889   3.593611281671869   5.002978606422314 
 -6.223445934848460  12.216629696563421  11.673616748318732 
 -1.244661743213302  12.216606728357805  11.673616748318732 
 -0.000077291920554   5.748921125495765  11.673616748318732 
  4.978733876221546   5.749032025146037  11.673616748318732 
  3.734136829856936  12.216652578442847  11.673616748318732 
  9.957670426480929   5.748984553115275  11.673616748318732 
 -2.503394199625392   5.748540898882658   5.002978606422314 
 -3.735194032565546  12.216966427983795   5.002978606422314 
  1.244830720925554  12.220790523764355   5.002978606422314 
  6.223783296995039  12.215142349110524   5.002978606422314 
  7.468708864493459   5.751029586604831   5.002978606422314 
 -1.244680360485007   7.904774803439023  11.673616748318732 
  0.000002055255028   1.437189300583604  11.673616748318732 
  3.734095907187061   7.904924197858981  11.673616748318732 
  4.978804584432015   1.437312889629398  11.673616748318732 
  8.712818610118005   7.904799840816172  11.673616748318732 
 -3.737034053407099   7.905250940029168   5.002978606422314 
  9.957587709219098   1.437235973487277  11.673616748318732 
  2.490425702883054   1.438926570386645   5.002978606422314 
  1.236043130014140   7.934491686154447   5.002978606422314 
  6.221435081886673   7.894297306264089   5.002978606422314 
  7.469678271202379   1.439264467289671   5.002978606422314 
  1.244787562240259   7.904736165771617  11.673616748318732 
 12.443826215513722   1.434693469771632   5.002978606422314 
 -2.489366325899994  10.060669200765572  11.673616748318732 
 -1.244665026192571   3.593015940972848  11.673616748318732 
  3.734085594048686   3.593108639912157  11.673616748318732 
  2.489361089177908  10.060802650995392  11.673616748318732 
  7.468219546281960  10.060830754213919  11.673616748318732 
  8.712860609509427   3.593097532654913  11.673616748318732 
 -4.980560680391497  10.060434806738527   5.002978606422314 
 -0.005883047239431  10.072385654171399   5.002978606422314 
  1.224987670742745   3.569062922328883   5.002978606422314 
  4.985820180964644  10.068991701664514   5.002978606422314 
  6.226493965942133   3.597369585943805   5.002978606422314 
 11.197836595078059   3.591948398841965   5.002978606422314 
 -2.489371512855863   5.748937014174283  11.673616748318732 
 -3.734063881431279  12.216566381885494  11.673616748318732 
  1.244714962508178  12.216568898055479  11.673616748318732 
  2.489445741645755   5.748938493815579  11.673616748318732 
  6.223489267517644  12.216607176763880  11.673616748318732 
 -6.223956483465142  12.215119847732739   5.002978606422314 
  7.468218549273989   5.748964679092548  11.673616748318732 
 -1.245212163457271  12.217949085574835   5.002978606422314 
 -0.027945043956271   5.742148609446635   5.002978606422314 
 -1.246378343406604   7.905211965467085   5.002978606422314 
  3.735043390372662  12.219399689915338   5.002978606422314 
  9.952847334607865   5.749358817551059   5.002978606422314 
 -3.734048763543226   7.904795326149854  11.673616748318732 
  2.489365032552692   1.437172240272266  11.673616748318732 
  6.223418738911756   7.904888504412710  11.673616748318732 
  7.468249181202229   1.437101784711149  11.673616748318732 
 12.447005625020706   1.437214800497117  11.673616748318732 
  2.497000239928337   5.752809150199220   5.002978606422314 
  1.240028027922839   0.714718195419408   5.002978606422314 
  4.981785857955802   7.231118548478091   5.002978606422314 
  6.230545426873515   0.711629415244620   5.002978606422314 
  9.959902096113169   7.186244113211296   5.002978606422314 
 11.201668568259965   0.719845906089453   5.002978606422314 
 -3.732299806535710   9.343957369013403  11.673616748318732 
  1.245425761510362   9.339911354321618  11.673616748318732 
  2.486778737190398   2.874754461810386  11.673616748318732 
  6.221099675321861   9.343051239765780  11.673616748318732 
  7.470166799654447   2.876032693209666  11.673616748318732 
 12.447874169991650   2.871999603159803  11.673616748318732 
 -1.247320496578400   9.345691544069435   5.002978606422314 
 -0.019741754727952   2.854614115219607   5.002978606422314 
  4.997443419809121   2.845894170858960   5.002978606422314 
  3.742469371779328   9.371860278273683   5.002978606422314 
  8.714464977277487   9.345207004964857   5.002978606422314 
  9.961029163824502   2.871040056200094   5.002978606422314 
 -4.981218807893526  11.498484864713147  11.673616748318732 
  0.001706598367217  11.499823196628988  11.673616748318732 
  1.245168925392196   5.028002382515177  11.673616748318732 
  6.221483152102649   5.030622809758162  11.673616748318732 
  4.979611530300264  11.495974547018436  11.673616748318732 
 11.204193118793050   5.032135889815963  11.673616748318732 
 -1.269076076032687   5.024068339213506   5.002978606422314 
 -2.489869751625007  11.497684975844967   5.002978606422314 
  2.490218242763176  11.507623954751358   5.002978606422314 
  7.467524583338054  11.499439410843177   5.002978606422314 
  8.725122804602782   5.024320875834441   5.002978606422314 
  0.001351883505290   7.187888261125919  11.673616748318732 
  1.245410454888816   0.716147282829969  11.673616748318732 
  4.979354672740870   7.184516787405197  11.673616748318732 
  6.221196840419895   0.718848734708926  11.673616748318732 
  9.955443500217092   7.186688127187943  11.673616748318732 
 -2.493622521036379   7.185525325492794   5.002978606422314 
 11.204066862758369   0.720571883269173  11.673616748318732 
  3.733724621534834   0.713320344010469   5.002978606422314 
  2.479743238063147   7.255491572591684   5.002978606422314 
  7.480231656672417   7.191233205829647   5.002978606422314 
  8.716469436099100   0.719315759602549   5.002978606422314 
  2.486724297994449   7.186738530755531  11.673616748318732 
 13.685779031384920   0.713913032736264   5.002978606422314 
 -1.247229206889676   9.342470604040489  11.673616748318732 
  0.001331302912400   2.876227187231782  11.673616748318732 
  4.979435588184926   2.871858305967129  11.673616748318732 
  3.735563703127695   9.344273070666855  11.673616748318732 
  8.713797235856031   9.339993523647015  11.673616748318732 
  9.955476402547445   2.874780033268202  11.673616748318732 
 -3.735025202902512   9.342973033101881   5.002978606422314 
  1.235920331709657   9.367532462537818   5.002978606422314 
  2.478125266550445   2.866798515464695   5.002978606422314 