 P B N 
 1.0
 17.527899999999772   0.000000000000000   0.000000000000000
 -8.763949999999658  15.179606674993195   0.000000000000000
  0.000000000000001   0.000000000000002  15.000000000000000
 P B N 
   1  47  49
Cartesian
  3.829359419428295   7.911865843324756   1.743258760114995 
  7.514983364219860  14.471298138921680   1.664536904934960 
 15.020023995401861   1.451464196139874   1.661860291510500 
 13.766006296416062   3.617551810181142   1.662525449016030 
 12.519161508716417   5.788656287215721   1.665681102096210 
 11.283236676156262   7.960627803383002   1.664771583754530 
 10.033816046335856  10.141861655562739   1.653947342240070 
  8.773174310019872  12.309552832528976   1.654793585113275 
 -7.510947908783740  14.458715061760625   1.665680018101800 
 -0.006173168113348   1.440352656826459   1.659596979780450 
 -1.262681917457833   3.610013789685021   1.659427801596780 
 -2.515978674726081   5.784541212111383   1.661717318586165 
 -3.761034986724583   7.958298376430710   1.670116089623175 
 -5.001774508907157  10.129384747285988   1.670070999182280 
 -6.255608986178882  12.296617644781998   1.666393774658550 
 -5.009354008934734  14.450096651446843   1.662263501113740 
  2.497155593532943   1.425744589853964   1.654987975311390 
  1.235354316438353   3.585081753837464   1.653474043565610 
 -0.024078608731520   5.772043544350889   1.650644257617510 
 -1.281072762023919   7.958647977913031   1.654945734145560 
 -2.512491563120108  10.127680687462467   1.664128916578215 
 -3.756962044234845  12.291189434806881   1.664795406990825 
 -2.506219480435260  14.449448748430948   1.660623572560200 
  5.004429427709649   1.422382828835971   1.654696693424160 
  3.743278617557638   3.564997630583253   1.658596070353545 
  2.475999639802727   5.703975153255692   1.668393590100840 
  1.174304499769505   7.969600338732616   1.646767547702355 
 -0.023089103518883  10.135848590366997   1.656555733310490 
 -1.259795117789196  12.293795359396084   1.662495009165525 
 -0.003517331844817  14.456193672115360   1.660638567202995 
  7.513468151710835   1.425706680745722   1.654175743388385 
  6.262497047526683   3.568328514092582   1.648989970980090 
  5.010847266937423   5.690692591224813   1.730525639302875 
  2.461859225262171  10.170150672981174   1.667823501671745 
  1.239888450551366  12.306441725700491   1.659993137269755 
  2.501859905976875  14.466566438771512   1.660548460615605 
 10.015240326449691   1.442041402045295   1.658985902041875 
  8.767186204873601   3.595442680879205   1.659302831609715 
  7.506743050834690   5.743353604219778   1.670702705697345 
  5.102524097774316  10.181887656589771   1.694689926497745 
  3.763043438814615  12.316910053807202   1.666192264944495 
  5.010278193179927  14.473057437068281   1.663600319503380 
 12.517195671652683   1.451440061115947   1.661245125924870 
 11.265819551696703   3.613317626992091   1.661679705320070 
 10.022851409002975   5.786249726830479   1.657242986708970 
  8.805568882237544   7.989324642593097   1.640516442884610 
  7.513249149429934  10.148414677618216   1.660080317992365 
  6.278205506481319  12.322989975335936   1.659367226976615 
  8.766991165739334  13.748886781748149   1.666803008868000 
 16.271837102383540   0.732494266844701   1.661683630157775 
 15.016582209320109   2.896858326441199   1.661495088742515 
 13.765938873133647   5.063910856424432   1.663604915047260 
 12.523593186709553   7.232391559053724   1.673399190783960 
 11.275831573818401   9.404485305999833   1.667341698161385 
 10.024727029039468  11.579459273595718   1.660607327483175 
 -6.258995202223447  13.736811091245301   1.665797993136855 
  1.246506538278668   0.720696380513710   1.659498705551250 
 -0.012098647203475   2.885543016095596   1.657262271568680 
 -1.263377907123899   5.059868891664398   1.657518354618915 
 -2.514535696925053   7.230868551616702   1.662348457175430 
 -3.755924311376567   9.401327950281686   1.669180658021775 
 -5.005603397595921  11.569343079406648   1.667603634697065 
 -3.756281210844898  13.731463743773080   1.662235511903295 
  3.752041413918384   0.712904461391044   1.657503724534485 
  2.490152726241675   2.871068577063473   1.650686321664750 
  1.228429071672018   5.038135530056032   1.651696737867870 
 -0.028965023728636   7.226667513516294   1.645485247901010 
 -1.259151826027905   9.400972720810339   1.658017216301490 
 -2.505585920773601  11.567710345204512   1.663400690991345 
 -1.253004348346051  13.732657328198812   1.661892769059000 
  6.259716587521682   0.712242765744483   1.656050932930845 
  5.002500223757543   2.866326243341549   1.651283181679455 
  3.736489646655485   5.014531235066686   1.684673298535245 
  2.419406382878680   7.190606513099387   1.659397818253695 
  1.240895330769706   9.404087142769729   1.653358253469390 
 -0.004374136596870  11.570991955814765   1.660325273670465 
  1.249393519665395  13.739947008134060   1.660282009936545 
  8.764917149604146   0.717276247379894   1.658443791132600 
  7.516938359140454   2.871400937710892   1.648875852642030 
  6.265004113725636   5.009656603925833   1.663516789041000 
  5.075572461567885   7.106646986452804   1.844470672073025 
  3.762686730538645   9.474985500406357   1.700026612236075 
  2.497883314285496  11.584869435085974   1.661778643948950 
  3.754008787248032  13.750250297092371   1.662194231747310 
 11.265291007760073   0.727419179168197   1.659388637363865 
 10.018202259743896   2.887440252279752   1.660035763836345 
  8.767142442783927   5.048178029856890   1.663789674038550 
  7.628019065363350   7.182234961857319   1.696205795807085 
  6.292135967004030   9.494140488954013   1.724245057271475 
  5.015817749814501  11.614086958109104   1.669498865230470 
  6.263150681398876  13.760390941378143   1.664576965625085 
 13.768249250246948   0.734481554455013   1.661973472479675 
 12.515004160865374   2.897029315846899   1.661849895867885 
 11.264502256254621   5.063935741986783   1.661063169738060 
 10.037268888237064   7.233863601621512   1.644474952259175 
  8.785259882378039   9.417544765509732   1.641946024322910 
  7.526992544684870  11.602264012125223   1.641202076676420 
