 B N Al 
 1.0
 17.527899999999772   0.000000000000000   0.000000000000000
 -8.763949999999658  15.179606674993195   0.000000000000000
  0.000000000000001   0.000000000000002  15.000000000000000
 B N Al 
  49  47   2
Cartesian
  7.513601174117445  14.479067909481127   1.899233219547105 
 15.023935213582325   1.465787204899007   1.864775038644735 
 13.767094682047311   3.628753144945200   1.811013306197580 
 12.501548133638140   5.789167529319580   1.721863699403250 
 11.244249411890600   7.952145347455113   1.604757901618425 
 10.017148245533857  10.139801721078042   1.678016390182305 
  8.769648903167081  12.312767357504102   1.842556887184680 
 -7.510297138965782  14.465430924916561   1.929270624178815 
  0.004201054185896   1.461797942579907   1.868831104516755 
 -1.247154254865078   3.628753144945200   1.811013306197580 
 -2.503994786399804   5.789363472510825   1.814504991077835 
 -3.766854147447676   7.947737359051885   1.831318704133950 
 -5.016919664230627  10.111425166789626   1.853027141841975 
 -6.261635919196894  12.287528440579720   1.918358461881810 
 -5.009538160200190  14.443912959820823   1.939115807517675 
  2.504960660261831   1.440033871510706   1.863782489547330 
  1.263505947235582   3.623508477892425   1.733229335556525 
  0.018392293544454   5.789167529319580   1.721863699403250 
 -1.241135425369516   7.947737359051885   1.831318704133950 
 -2.503994786408556  10.108234432647295   1.908528182586870 
 -3.758232867090328  12.273631622723528   1.941282207639270 
 -2.503994786390988  14.436008291310909   1.935673406329695 
  5.004732875415644   1.414568666057167   1.841768857596360 
  3.754607208543289   3.577442194913520   1.600176729739470 
  2.528021454956267   5.779829605967402   1.388723643903120 
  1.275691015291603   7.952145347455113   1.604757901618425 
  0.008930091431167  10.111425166789626   1.853027141841975 
 -1.249756705709277  12.273631622723528   1.941282207639270 
  0.001548587400700  14.443912959820823   1.939115807517675 
  7.515207551784260   1.414568666057167   1.841768857596360 
  6.259970213599956   3.524849909863048   1.535841131527950 
  4.999623124349407   5.513226866392543   0.774398404207515 
  3.698264445569693   8.063561988483832   0.976541937819090 
  2.502792181648764  10.139801721078042   1.678016390182305 
  1.253646346397465  12.287528440579720   1.918358461881810 
  2.502307566166223  14.465430924916561   1.929270624178815 
 10.014979766920730   1.440033871510721   1.863782489547330 
  8.765333218656625   3.577442194913520   1.600176729739470 
  7.520317302850621   5.513226866392543   0.774398404207515 
  6.259970213591317   8.281739251554422   0.676711144972920 
  4.984372606786791  10.192413022556268   1.482530388367005 
  3.750291524015533  12.312767357504102   1.842556887184680 
  5.006339253065166  14.479067909481127   1.899233219547105 
 12.515739372996586   1.461797942579907   1.868831104516755 
 11.256434479946826   3.623508477892425   1.733229335556525 
  9.991918972243742   5.779829605967417   1.388723643903120 
  8.821675981612838   8.063561988483848   0.976541937819090 
  7.535567820395655  10.192413022556268   1.482530388367005 
  6.259970213591345  12.319877299932770   1.792845299568150 
  8.763920140285752  13.752024518295251   1.914385856340150 
 16.277032061605293   0.743269208720037   1.884999823800585 
 15.023944786400973   2.909801902866297   1.831416132446385 
 13.762370956944686   5.072725986674030   1.795584102414810 
 12.498858454614414   7.232809627306357   1.739049341654010 
 11.256357621842014   9.397407542787674   1.719563999875935 
 10.012490476526917  11.575128059956397   1.851448644446880 
 -6.263696491767419  13.731103094819190   1.947877160356605 
  1.251082479919086   0.729056773645184   1.902888596686665 
  0.007218012055182   2.907390905484286   1.814297973650655 
 -1.242411384124651   5.072725986674030   1.795584102414810 
 -2.503985213581156   7.231669240312354   1.843651547770140 
 -3.762232617518961   9.390665853051201   1.880580192837240 
 -5.013890075066010  11.556068642871040   1.920691709062080 
 -3.758305249093567  13.717669981413819   1.947369420056700 
  3.751263404875922   0.705963692867929   1.899792973762965 
  2.504167350862430   2.881459733665748   1.760996023579830 
  1.277857675356939   5.072054576600540   1.629250385211195 
  0.021101118205756   7.232809627306357   1.739049341654010 
 -1.245737809660657   9.390665853051201   1.880580192837240 
 -2.503985213589795  11.552358804349849   1.935469033759725 
 -1.249665178085818  13.717669981413819   1.947369420056700 
  6.259979786401136   0.697816546750408   1.892205111499695 
  5.000612511351038   2.845208792420428   1.690865061016920 
  3.756560595972323   4.996322257862738   1.292775301612110 
  2.527415350232281   7.244803957636287   1.317699883407555 
  1.263601950960743   9.397407542787674   1.719563999875950 
  0.005919647886404  11.556068642871040   1.920691709062080 
  1.255726064587720  13.731103094819190   1.947877160356605 
  8.768696167926489   0.705963692867929   1.899792973762965 
  7.519347061451436   2.845208792420428   1.690865061016920 
  6.259979786401207   4.886942140286463   1.089021658229010 
  3.745630632818330   9.450918267495188   1.400043654309600 
  2.507469096275853  11.575128059956397   1.851448644446880 
  3.756039432516682  13.752024518295251   1.914385856340150 
 11.268877092883081   0.729056773645184   1.902888596686665 
 10.015792221939906   2.881459733665748   1.760996023579830 
  8.763398976830086   4.996322257862754   1.292775301612110 
  6.259979786392433   9.514300099587928   1.308059240990370 
  5.003008568674499  11.602943952434424   1.736799198165240 
  6.259979786410069  13.758054042829619   1.887189158368380 
 13.770857511196775   0.743269208720037   1.884999823800585 
 12.512741560764542   2.907390905484286   1.814297973650655 
 11.242101897463147   5.072054576600540   1.629250385211195 
  9.992544222587853   7.244803957636287   1.317699883407555 
  8.774328939984361   9.450918267495188   1.400043654309600 
  7.516951004128167  11.602943952434424   1.736799198165240 
  4.971770575861699   7.159851200126669  14.394997916286405 
  7.551524648915862   7.159851200126669  14.394997916286375 
