B N Al                                  
   1.0000000000000000     
     8.7639499999999995  -15.1796066749929999    0.0000000000000000
     8.7639499999999995   15.1796066749929999    0.0000000000000000
     0.0000000000000000    0.0000000000000000   15.0000000000000000
   B    N    Al
    49    47     2
Selective dynamics
Direct
  0.9055902263974096  0.9538500054374838  0.1266155479698068   T   T   T
  0.9054255130908806  0.0965629239467541  0.1243183359096488   T   T   T
  0.9049661560771265  0.2390544908468011  0.1207342204131716   T   T   T
  0.9039260587448998  0.3813779667200876  0.1147909132935502   T   T   T
  0.9034409523604586  0.5238703161232391  0.1069838601078954   T   T   T
  0.9054915590987906  0.6679884359442786  0.1118677593454869   T   T   T
  0.9058945139743653  0.8111387614402475  0.1228371258123118   T   T   T
  0.0479990928450330  0.9529516300805633  0.1286180416119207   T   T   T
  0.0483897380653261  0.0963001198830837  0.1245887403011173   T   T   T
  0.0483747254486662  0.2390544908468011  0.1207342204131716   T   T   T
  0.0478377770805862  0.3813908750381655  0.1209669994051888   T   T   T
  0.0468837770782136  0.5235799272813136  0.1220879136089301   T   T   T
  0.0468347250786419  0.6661190492799220  0.1235351427894654   T   T   T
  0.0474998107957456  0.8094760756101885  0.1278905641254545   T   T   T
  0.1899633655659634  0.9515340725933072  0.1292743871678446   T   T   T
  0.1903459401080984  0.0948663494610184  0.1242521659698223   T   T   T
  0.1914399067975987  0.2387089834061228  0.1155486223704345   T   T   T
  0.1917382986541963  0.3813779667200876  0.1147909132935502   T   T   T
  0.1909808293251000  0.5235799272813136  0.1220879136089301   T   T   T
  0.1900967648327547  0.6659088505435090  0.1272352121724584   T   T   T
  0.1898659653594098  0.8085605829921170  0.1294188138426181   T   T   T
  0.3326490045368143  0.9510133299496303  0.1290448937553129   T   T   T
  0.3321238982166152  0.0931887562269664  0.1227845905064238   T   T   T
  0.3320445930651671  0.2356742352756074  0.1066784486492977   T   T   T
  0.3346098296904754  0.3807628043148882  0.0925815762602079   T   T   T
  0.3347157544417624  0.5238703161232391  0.1069838601078954   T   T   T
  0.3335690033242880  0.6661190492799220  0.1235351427894654   T   T   T
  0.3329792967557030  0.8085605829921170  0.1294188138426178   T   T   T
  0.4758553861503425  0.9515340725933072  0.1292743871678446   T   T   T
  0.4753512486903543  0.0931887562269664  0.1227845905064238   T   T   T
  0.4732479793878587  0.2322095680957180  0.1023894087685302   T   T   T
  0.4668377923062441  0.3631995864211029  0.0516265602805014   T   T   T
  0.4765981167309268  0.5312102059777151  0.0651027958546058   T   T   T
  0.4767832675244901  0.6679884359442786  0.1118677593454869   T   T   T
  0.4762609439374487  0.8094760756101885  0.1278905641254545   T   T   T
  0.6192372163585247  0.9529516300805633  0.1286180416119207   T   T   T
  0.6188068000319336  0.0948663494610186  0.1242521659698223   T   T   T
  0.6179160328904395  0.2356742352756075  0.1066784486492977   T   T   T
  0.6106481847948624  0.3631995864211029  0.0516265602805013   T   T   T
  0.6299348238998697  0.5455832571207340  0.0451140763315277   T   T   T
  0.6200951060338910  0.6714543558857294  0.0988353592244666   T   T   T
  0.6195306381448806  0.8111387614402475  0.1228371258123118   T   T   T
  0.7625461697190679  0.9538500054374838  0.1266155479698068   T   T   T
  0.7621967724967668  0.0963001198830837  0.1245887403011173   T   T   T
  0.7615554672875245  0.2387089834061228  0.1155486223704345   T   T   T
  0.7604393653044147  0.3807628043148886  0.0925815762602079   T   T   T
  0.7688984799257893  0.5312102059777161  0.0651027958546058   T   T   T
  0.7656456405308300  0.6714543558857294  0.0988353592244666   T   T   T
  0.7629467699547932  0.8116071492305843  0.1195230199712103   T   T   T
  0.9529752678772578  0.9059539428613960  0.1276257237560098   T   T   T
  0.9531180996776776  0.0489649847083650  0.1256666549200385   T   T   T
  0.9529903581324335  0.1916915217348738  0.1220944088297587   T   T   T
  0.9522595787787616  0.3341803312355128  0.1197056068276544   T   T   T
  0.9513246332953250  0.4764820184189393  0.1159366227769343   T   T   T
  0.9517371388674696  0.6190810963678601  0.1146375999917294   T   T   T
  0.9525039381698395  0.7625446632306490  0.1234299096297916   T   T   T
  0.0949320555398358  0.9045756842593116  0.1298584773571069   T   T   T
  0.0953909826298453  0.0480286999034185  0.1268592397791112   T   T   T
  0.0961781464964980  0.1915326903874197  0.1209531982433773   T   T   T
  0.0962082354307545  0.3341803312355128  0.1197056068276544   T   T   T
  0.0953463317912245  0.4764068921644569  0.1229101031846760   T   T   T
  0.0946759646397922  0.6186369682767431  0.1253720128558155   T   T   T
  0.0945925790693217  0.7612890696244747  0.1280461139374717   T   T   T
  0.2374269140815455  0.9036907394980294  0.1298246280037804   T   T   T
  0.2372703936576176  0.0465073771661643  0.1266528649175313   T   T   T
  0.2377797057122306  0.1898244002865138  0.1173997349053218   T   T   T
  0.2399722585421921  0.3341361001768394  0.1086166923474125   T   T   T
  0.2394448680976217  0.4764820184189393  0.1159366227769343   T   T   T
  0.2382467750539511  0.6186369682767431  0.1253720128558155   T   T   T
  0.2376652224097901  0.7610446734025824  0.1290312689173151   T   T   T
  0.3805495968334888  0.9036907394980294  0.1298246280037804   T   T   T
  0.3801290717948257  0.0459706606166536  0.1261470074333134   T   T   T
  0.3790125784352774  0.1874362658623830  0.1127243374011284   T   T   T
  0.3788924284430811  0.3291470171024692  0.0861850201074744   T   T   T
  0.3828299377221234  0.4772721792305287  0.0878466588938370   T   T   T
  0.3816314404734009  0.6190810963678601  0.1146375999917296   T   T   T
  0.3809822619721500  0.7612890696244747  0.1280461139374717   T   T   T
  0.5239294001364644  0.9045756842593116  0.1298584773571069   T   T   T
  0.5235244664815525  0.0465073771661642  0.1266528649175313   T   T   T
  0.5227111704001117  0.1874362658623830  0.1127243374011284   T   T   T
  0.5181143860137117  0.3219412890544249  0.0726014438819338   T   T   T
  0.5249984789190810  0.6226062683866893  0.0933362436206399   T   T   T
  0.5243282080338184  0.7625446632306490  0.1234299096297916   T   T   T
  0.6672661579571233  0.9059539428613960  0.1276257237560098   T   T   T
  0.6669252002465659  0.0480286999034185  0.1268592397791112   T   T   T
  0.6663321775472814  0.1898244002865138  0.1173997349053218   T   T   T
  0.6645420716323869  0.3291470171024695  0.0861850201074744   T   T   T
  0.6705346054028358  0.6267817278336816  0.0872039493993582   T   T   T
  0.6676197024746022  0.7643771146948793  0.1157866132110163   T   T   T
  0.8103193190035930  0.9063511550331905  0.1258126105578924   T   T   T
  0.8101360795606898  0.0489649847083651  0.1256666549200385   T   T   T
  0.8096420268649116  0.1915326903874197  0.1209531982433773   T   T   T
  0.8084513246086542  0.3341361001768394  0.1086166923474125   T   T   T
  0.8087297244824118  0.4772721792305287  0.0878466588938370   T   T   T
  0.8118952724406145  0.6226062683866893  0.0933362436206399   T   T   T
  0.8110448951932790  0.7643771146948793  0.1157866132110163   T   T   T
  0.5194867949732984  0.4716756733836703  0.9596665277524266   T   T   T
  0.6664763613833669  0.4716756733836703  0.9596665277524246   T   T   T

  0.00000000E+00  0.00000000E+00  0.00000000E+00
  0.00000000E+00  0.00000000E+00  0.00000000E+00
  0.00000000E+00  0.00000000E+00  0.00000000E+00
  0.00000000E+00  0.00000000E+00  0.00000000E+00
  0.00000000E+00  0.00000000E+00  0.00000000E+00
  0.00000000E+00  0.00000000E+00  0.00000000E+00
  0.00000000E+00  0.00000000E+00  0.00000000E+00
  0.00000000E+00  0.00000000E+00  0.00000000E+00
  0.00000000E+00  0.00000000E+00  0.00000000E+00
  0.00000000E+00  0.00000000E+00  0.00000000E+00
  0.00000000E+00  0.00000000E+00  0.00000000E+00
  0.00000000E+00  0.00000000E+00  0.00000000E+00
  0.00000000E+00  0.00000000E+00  0.00000000E+00
  0.00000000E+00  0.00000000E+00  0.00000000E+00
  0.00000000E+00  0.00000000E+00  0.00000000E+00
  0.00000000E+00  0.00000000E+00  0.00000000E+00
  0.00000000E+00  0.00000000E+00  0.00000000E+00
  0.00000000E+00  0.00000000E+00  0.00000000E+00
  0.00000000E+00  0.00000000E+00  0.00000000E+00
  0.00000000E+00  0.00000000E+00  0.00000000E+00
  0.00000000E+00  0.00000000E+00  0.00000000E+00
  0.00000000E+00  0.00000000E+00  0.00000000E+00
  0.00000000E+00  0.00000000E+00  0.00000000E+00
  0.00000000E+00  0.00000000E+00  0.00000000E+00
  0.00000000E+00  0.00000000E+00  0.00000000E+00
  0.00000000E+00  0.00000000E+00  0.00000000E+00
  0.00000000E+00  0.00000000E+00  0.00000000E+00
  0.00000000E+00  0.00000000E+00  0.00000000E+00
  0.00000000E+00  0.00000000E+00  0.00000000E+00
  0.00000000E+00  0.00000000E+00  0.00000000E+00
  0.00000000E+00  0.00000000E+00  0.00000000E+00
  0.00000000E+00  0.00000000E+00  0.00000000E+00
  0.00000000E+00  0.00000000E+00  0.00000000E+00
  0.00000000E+00  0.00000000E+00  0.00000000E+00
  0.00000000E+00  0.00000000E+00  0.00000000E+00
  0.00000000E+00  0.00000000E+00  0.00000000E+00
  0.00000000E+00  0.00000000E+00  0.00000000E+00
  0.00000000E+00  0.00000000E+00  0.00000000E+00
  0.00000000E+00  0.00000000E+00  0.00000000E+00
  0.00000000E+00  0.00000000E+00  0.00000000E+00
  0.00000000E+00  0.00000000E+00  0.00000000E+00
  0.00000000E+00  0.00000000E+00  0.00000000E+00
  0.00000000E+00  0.00000000E+00  0.00000000E+00
  0.00000000E+00  0.00000000E+00  0.00000000E+00
  0.00000000E+00  0.00000000E+00  0.00000000E+00
  0.00000000E+00  0.00000000E+00  0.00000000E+00
  0.00000000E+00  0.00000000E+00  0.00000000E+00
  0.00000000E+00  0.00000000E+00  0.00000000E+00
  0.00000000E+00  0.00000000E+00  0.00000000E+00
  0.00000000E+00  0.00000000E+00  0.00000000E+00
  0.00000000E+00  0.00000000E+00  0.00000000E+00
  0.00000000E+00  0.00000000E+00  0.00000000E+00
  0.00000000E+00  0.00000000E+00  0.00000000E+00
  0.00000000E+00  0.00000000E+00  0.00000000E+00
  0.00000000E+00  0.00000000E+00  0.00000000E+00
  0.00000000E+00  0.00000000E+00  0.00000000E+00
  0.00000000E+00  0.00000000E+00  0.00000000E+00
  0.00000000E+00  0.00000000E+00  0.00000000E+00
  0.00000000E+00  0.00000000E+00  0.00000000E+00
  0.00000000E+00  0.00000000E+00  0.00000000E+00
  0.00000000E+00  0.00000000E+00  0.00000000E+00
  0.00000000E+00  0.00000000E+00  0.00000000E+00
  0.00000000E+00  0.00000000E+00  0.00000000E+00
  0.00000000E+00  0.00000000E+00  0.00000000E+00
  0.00000000E+00  0.00000000E+00  0.00000000E+00
  0.00000000E+00  0.00000000E+00  0.00000000E+00
  0.00000000E+00  0.00000000E+00  0.00000000E+00
  0.00000000E+00  0.00000000E+00  0.00000000E+00
  0.00000000E+00  0.00000000E+00  0.00000000E+00
  0.00000000E+00  0.00000000E+00  0.00000000E+00
  0.00000000E+00  0.00000000E+00  0.00000000E+00
  0.00000000E+00  0.00000000E+00  0.00000000E+00
  0.00000000E+00  0.00000000E+00  0.00000000E+00
  0.00000000E+00  0.00000000E+00  0.00000000E+00
  0.00000000E+00  0.00000000E+00  0.00000000E+00
  0.00000000E+00  0.00000000E+00  0.00000000E+00
  0.00000000E+00  0.00000000E+00  0.00000000E+00
  0.00000000E+00  0.00000000E+00  0.00000000E+00
  0.00000000E+00  0.00000000E+00  0.00000000E+00
  0.00000000E+00  0.00000000E+00  0.00000000E+00
  0.00000000E+00  0.00000000E+00  0.00000000E+00
  0.00000000E+00  0.00000000E+00  0.00000000E+00
  0.00000000E+00  0.00000000E+00  0.00000000E+00
  0.00000000E+00  0.00000000E+00  0.00000000E+00
  0.00000000E+00  0.00000000E+00  0.00000000E+00
  0.00000000E+00  0.00000000E+00  0.00000000E+00
  0.00000000E+00  0.00000000E+00  0.00000000E+00
  0.00000000E+00  0.00000000E+00  0.00000000E+00
  0.00000000E+00  0.00000000E+00  0.00000000E+00
  0.00000000E+00  0.00000000E+00  0.00000000E+00
  0.00000000E+00  0.00000000E+00  0.00000000E+00
  0.00000000E+00  0.00000000E+00  0.00000000E+00
  0.00000000E+00  0.00000000E+00  0.00000000E+00
  0.00000000E+00  0.00000000E+00  0.00000000E+00
  0.00000000E+00  0.00000000E+00  0.00000000E+00
  0.00000000E+00  0.00000000E+00  0.00000000E+00
  0.00000000E+00  0.00000000E+00  0.00000000E+00
  0.00000000E+00  0.00000000E+00  0.00000000E+00
