 In B N 
 1.0
 17.527899999999772   0.000000000000000   0.000000000000000
 -8.763949999999658  15.179606674993195   0.000000000000000
  0.000000000000001   0.000000000000002  15.000000000000000
 In B N 
   1  49  47
Cartesian
  4.232918609574594   7.690063808915455   0.786483170824365 
  7.524747566955448  14.439694955989808   1.785655632564750 
 15.022652758325103   1.416864405377885   1.784552977295820 
 13.769608183386083   3.585215797871999   1.780619531448270 
 12.525395194266043   5.757334706978074   1.781557487025315 
 11.293825897479248   7.933142360516571   1.795394975218350 
 10.060599246436450  10.111699196297417   1.794926826429945 
  8.799525266960838  12.286556263867574   1.778410425155775 
 -7.496072146891251  14.435770191945627   1.813088679647520 
 -0.000617063328780   1.412551658947411   1.808298113025705 
 -1.261986644119854   3.582597578207065   1.794303373857780 
 -2.513479492206371   5.755107735116808   1.770804488551410 
 -3.751369785288476   7.928587927756668   1.781956993873470 
 -4.986333130170869  10.101323927550689   1.807260339006285 
 -6.235697541790127  12.271674230716091   1.815897452335305 
 -4.994959640713137  14.428905848001394   1.799485898196960 
  2.507147392707091   1.406554536273627   1.791090639601005 
  1.232067423288777   3.564709631237716   1.783181612598600 
 -0.027578637377133   5.752972830857049   1.718520933007140 
 -1.269421957753934   7.926375425218348   1.688278492238325 
 -2.500585266683184  10.097676661144243   1.748284780132005 
 -3.742751287084135  12.265116656280785   1.790252654044155 
 -2.495391389675293  14.426428361677985   1.776571208211075 
  5.015339830500641   1.404498973521875   1.764648052343565 
  3.745974915854511   3.545758808048794   1.729506486524340 
  2.426708529904471   5.730632443035700   1.613661421483635 
  1.206785768746676   7.920034400046429   1.420020046017105 
 -0.020013034431590  10.097003655802444   1.550238602292840 
 -1.249158387159938  12.263877834591728   1.718460147452085 
  0.002953536001343  14.429955895194949   1.743887836823790 
  7.520940787039644   1.407336352415068   1.756698126831870 
  6.274914297673912   3.551270576781461   1.708793006786880 
  5.011700958483813   5.574660579035468   1.581020498153070 
  3.775209503708055   9.761759868289378   0.210836061355365 
  2.369695699898892  10.163063855741044   0.966450427872465 
  1.240244816586626  12.276278634363162   1.576538909772945 
  2.505099938479223  14.429152138656130   1.689636012574875 
 10.021018868394393   1.415123277370845   1.754704810913985 
  8.775459410918467   3.580924422913758   1.734115750841010 
  7.545176510899351   5.752726728923836   1.620160370655810 
  6.475002161256405   8.040473383641284   1.265824176217230 
  5.177013976423302  10.222048948109862   0.954556767221610 
  3.754342120496756  12.273885978578802   1.440100851375600 
  5.011056152499444  14.432228495914304   1.706140746324885 
 12.520682983502262   1.417193675239771   1.753351381193340 
 11.273300979409193   3.585858424370606   1.763197446058380 
 10.035472040846331   5.758445816196044   1.741199204160540 
  8.824717969448336   7.945611239479669   1.674757308784650 
  7.606434140826302  10.149477612025668   1.582848878242350 
  6.292723160733811  12.295367450527642   1.621373123671170 
  8.780549573523286  13.720679021098107   1.805072725097925 
 16.277968044947713   0.697459550692374   1.800901428261120 
 15.018480636190160   2.860576893971334   1.792092322542285 
 13.766921329086548   5.030348654407913   1.781747996946645 
 12.527164482606700   7.202283154406602   1.794899973118635 
 11.291381792514073   9.375865683833689   1.814428087529790 
 10.040734124304498  11.550678554809545   1.810662699792795 
 -6.245685494156329  13.713581628023830   1.813372314235770 
  1.257553850024967   0.696882305503187   1.809612893744085 
 -0.009824469358753   2.853331618857295   1.805036820252705 
 -1.267063670594518   5.027273400658553   1.773503069810280 
 -2.511664004306097   7.199613036112165   1.756786102569870 
 -3.747778117763066   9.372632537648446   1.786465635927720 
 -4.992460666798809  11.544359024840032   1.808894012457075 
 -3.745788083427701  13.710208472174182   1.792953355188315 
  3.764040049793162   0.696064899362223   1.785291863877300 
  2.499325105821200   2.853728016847948   1.772225419981440 
  1.216645069763298   5.001719768231873   1.743489179695860 
 -0.027853686546137   7.197651026556190   1.627643419045890 
 -1.259398543046164   9.371339335449758   1.681878559163010 
 -2.497657246258163  11.542066796485772   1.758306913248915 
 -1.246367922365838  13.709309479485928   1.756817340115140 
  6.267390832466412   0.695900105453316   1.768282953696105 
  5.013199983344318   2.860620115127829   1.734066026179320 
  3.735538114236074   5.016338219217440   1.652618977863405 
  2.396062615621916   7.124557452784090   1.408225187520345 
  1.207698368122414   9.374605302456571   1.299969581162385 
 -0.004285749036036  11.543211478869118   1.614972863328660 
  1.252474009782265  13.713302885310735   1.694008795305525 
  8.769044133871171   0.696562661084176   1.760649803634525 
  7.521569484311826   2.860175611183071   1.733378022245115 
  6.281327780041014   5.026028875141499   1.636538258484390 
  2.481891838778502  11.566620253004288   1.359848312970705 
  3.760227212714730  13.702914025735057   1.631594459714805 
 11.270237699589112   0.694372136359280   1.740892427628675 
 10.018367687638481   2.865659294950906   1.756250828616630 
  8.770474725184464   5.038369253703782   1.704766529508945 
  7.553168782481514   7.209493374057245   1.528600975374765 
  6.379195528822447   9.436748643421492   1.254139833609990 
  5.053348133990418  11.580607305811602   1.392559693743390 
  6.273494922187624  13.721152601787670   1.730480319105090 
 13.771681540388236   0.693775397661267   1.754495844622950 
 12.518302172178396   2.862844657673927   1.768788481931400 
 11.270534623143043   5.033740462732888   1.767147859440105 
 10.037932310995899   7.205307224825911   1.756259479875600 
  8.809325535573063   9.383798192905337   1.716951193745940 
  7.549829579952434  11.569158019094562   1.678990326978630 
