Species order: X N B                    
   2.51242800000000     
     5.9449720136058266    0.0000000000000000    0.0000000000000000
    -2.9724860068029120    5.1484967885702053   -0.0000000000000001
     0.0000000000000000    0.0000000000000009    5.3101128803662583
   C    N    B 
     1   143   143
Direct
  0.5464731319313549  0.4399032326323418  0.3750000000000000
  0.1111156272752850  0.0555775778550862  0.1248224933482203
  0.6111461353222862  0.5556467551278564  0.1246741576892180
  0.4444992365803145  0.0555667984792770  0.1248041348376247
  0.9444256646840299  0.5555329004145201  0.1248433420214659
  0.7778135152834820  0.0555734243084088  0.1248194980753961
  0.1111125252620103  0.7222229292976698  0.6251544607767814
  0.4444992365803145  0.7222657714343731  0.6251958651623754
  0.2777810313871723  0.2222301932719086  0.6248318210987287
  0.7777791636637433  0.7222626168493407  0.6252165007177759
  0.6111631557675128  0.2221874195165703  0.6253073713084967
  0.9444521992573499  0.2222127399488199  0.6251687309018554
  0.2778093668456746  0.7222319491838549  0.1248418120023931
  0.1111021112772916  0.2222177223053103  0.1248146283900993
  0.4445043497757634  0.2222108105720030  0.1249727895076834
  0.6111631557675128  0.7223090695842724  0.1246926286915033
  0.9444256646840299  0.7222260976028450  0.1248433420214659
  0.7778108325264578  0.2221991944098285  0.1248243312822300
  0.1111151279045543  0.8889107782029074  0.6251689759813205
  0.4444947044740977  0.8889140189037135  0.6251579833297694
  0.2777810313871723  0.3888841714485926  0.6248318210987287
  0.6111461353222862  0.3888327135277596  0.6253258423107816
  0.7778108325264578  0.8889449714499574  0.6251756687177705
  0.9444466864947100  0.3888636447221249  0.6251455177870777
  0.1111156272752850  0.3888713827535273  0.1248224933482203
  0.2778093668456746  0.8889107509951486  0.1248418120023931
  0.6111638790609500  0.8889406687994410  0.1248215579039547
  0.4444364450510848  0.3888848891922068  0.1248794924073798
  0.9444466864947100  0.8889163751059143  0.1248544822129224
  0.7777791636637433  0.3888498801477320  0.1247834992822241
  0.2778073654260140  0.5555607825234260  0.6251338959801809
  0.1111156272752850  0.0555775778550862  0.6251775066517797
  0.6111461353222862  0.5556467551278564  0.6253258423107816
  0.4444992365803145  0.0555667984792770  0.6251958651623754
  0.9444256646840299  0.5555329004145201  0.6251566579785337
  0.1111151279045543  0.5555376830349755  0.1248310240186797
  0.7778135152834820  0.0555734243084088  0.6251805019246041
  0.2778073654260140  0.0555799162359239  0.1248661040198188
  0.4445043497757634  0.5556268725370963  0.1249727895076834
  0.7777544109958220  0.5555438721645793  0.1248183392182596
  0.6111638790609500  0.0555565435948376  0.1248215579039547
  0.4445043497757634  0.5556268725370963  0.6250272104923164
  0.9444521992573499  0.0555727926418652  0.1248312690981440
  0.2778093668456746  0.7222319491838549  0.6251581879976067
  0.1111021112772916  0.2222177223053103  0.6251853716099005
  0.4445043497757634  0.2222108105720030  0.6250272104923164
  0.6111631557675128  0.7223090695842724  0.6253073713084967
  0.9444256646840299  0.7222260976028450  0.6251566579785337
  0.7778108325264578  0.2221991944098285  0.6251756687177705
  0.1111125252620103  0.7222229292976698  0.1248455392232183
  0.4444992365803145  0.7222657714343731  0.1248041348376247
  0.2777810313871723  0.2222301932719086  0.1251681789012714
  0.7777791636637433  0.7222626168493407  0.1247834992822241
  0.6111631557675128  0.2221874195165703  0.1246926286915033
  0.9444521992573499  0.2222127399488199  0.1248312690981440
  0.1111156272752850  0.3888713827535273  0.6251775066517797
  0.2778093668456746  0.8889107509951486  0.6251581879976067
  0.6111638790609500  0.8889406687994410  0.6251784420960453
  0.4444364450510848  0.3888848891922068  0.6251205075926205
  0.9444466864947100  0.8889163751059143  0.6251455177870777
  0.1111151279045543  0.8889107782029074  0.1248310240186797
  0.7777791636637433  0.3888498801477320  0.6252165007177759
  0.4444947044740977  0.8889140189037135  0.1248420166702301
  0.2777810313871723  0.3888841714485926  0.1251681789012714
  0.2778073654260140  0.5555607825234260  0.1248661040198188
  0.6111461353222862  0.3888327135277596  0.1246741576892180
  0.7778108325264578  0.8889449714499574  0.1248243312822300
  0.9444466864947100  0.3888636447221249  0.1248544822129224
  0.1111151279045543  0.5555376830349755  0.6251689759813205
  0.2778073654260140  0.0555799162359239  0.6251338959801809
  0.7777544109958220  0.5555438721645793  0.6251816607817404
  0.6111638790609500  0.0555565435948376  0.6251784420960453
  0.9444521992573499  0.0555727926418652  0.6251687309018554
  0.0583275198253234  0.1126895254948255  0.3750000000000000
  0.5551564943139978  0.6168374093531382  0.3750000000000000
  0.3880948879179428  0.1065333704999104  0.3750000000000000
  0.8855955930347450  0.6094644631840442  0.3750000000000000
  0.7235069983638488  0.1111947241032772  0.3750000000000000
  0.0555584143580722  0.7777761292421915  0.8750000000000000
  0.3888795478872216  0.7777764078485986  0.8750000000000000
  0.2222248668513116  0.2777791000923236  0.8750000000000000
  0.7222229012342958  0.7777717015777325  0.8750000000000000
  0.5555501408050119  0.2777766192577212  0.8750000000000000
  0.8888941844792684  0.2777868786242240  0.8750000000000000
  0.2204496710708351  0.7768915022020855  0.3750000000000000
  0.0583275198253234  0.2789713276638336  0.3750000000000000
  0.3946555100294220  0.2759128366893128  0.3750000000000000
  0.5557015305793297  0.7804563090622818  0.3750000000000000
  0.8873451821886890  0.7769461135673693  0.3750000000000000
  0.7228377744610421  0.2767244221181898  0.3750000000000000
  0.0555570041206183  0.9444378534328164  0.8750000000000000
  0.3888795478872216  0.9444364733719591  0.8750000000000000
  0.2222199651151196  0.4444508269412533  0.8750000000000000
  0.5555554208741598  0.4444443771037442  0.8750000000000000
  0.7222184975474417  0.9444397576506165  0.8750000000000000
  0.8888979239270949  0.4444541518212640  0.8750000000000000
  0.0556419209521390  0.4446629209282182  0.3750000000000000
  0.2208329475877790  0.9426196904403502  0.3750000000000000
  0.5557437218385403  0.9445385275859342  0.3750000000000000
  0.3946555100294220  0.4520760066734453  0.3750000000000000
  0.8903414927897260  0.9456048569227421  0.3750000000000000
  0.7178639928538031  0.4419337919428048  0.3750000000000000
  0.2222145557589849  0.6111153637148623  0.8750000000000000
  0.0555596270276862  0.1111086824771527  0.8750000000000000
  0.5555501408050119  0.6111068548806263  0.8750000000000000
  0.3888797540198528  0.1111006730706967  0.8750000000000000
  0.8889033566816984  0.6111183450075207  0.8750000000000000
  0.0534946659312663  0.6103710635436155  0.3750000000000000
  0.7222184975474417  0.1111120732301608  0.8750000000000000
  0.2240982323283039  0.1113488856605754  0.3750000000000000
  0.3880948879179428  0.6148948507513747  0.3750000000000000
  0.7178639928538031  0.6092635342443338  0.3750000000000000
  0.5557015305793297  0.1085785548503835  0.3750000000000000
  0.3888797540198528  0.6111124142824993  0.8750000000000000
  0.8910319029823516  0.1121826181578471  0.3750000000000000
  0.2222158190445462  0.7777745761889411  0.8750000000000000
  0.0555596270276862  0.2777842778838693  0.8750000000000000
  0.3888859263429035  0.2777721156198731  0.8750000000000000
  0.5555462989302919  0.7777725660361254  0.8750000000000000
  0.8888979239270949  0.7777771054391655  0.8750000000000000
  0.7222229012342958  0.2777845329898994  0.8750000000000000
  0.0534946659312663  0.7764569357209862  0.3750000000000000
  0.3878821096578880  0.7786085867577438  0.3750000000000000
  0.2272472349781388  0.2802902841557375  0.3750000000000000
  0.7228377744610421  0.7794466856761884  0.3750000000000000
  0.5551564943139977  0.2716524182941957  0.3750000000000000
  0.8903414927897260  0.2780699692003198  0.3750000000000000
  0.0555570041206183  0.4444524840211306  0.8750000000000000
  0.2222145557589849  0.9444325253774584  0.8750000000000000
  0.5555453529310135  0.9444393431321717  0.8750000000000000
  0.3888859263429034  0.4444471440563657  0.8750000000000000
  0.8888941844792684  0.9444406391883812  0.8750000000000000
  0.0556419209521390  0.9443123333572491  0.3750000000000000
  0.7222304972684427  0.4444530138606738  0.8750000000000000
  0.3878821096578880  0.9426068562334800  0.3750000000000000
  0.2240982323283039  0.4460826800010639  0.3750000000000000
  0.2208329475877790  0.6115465904807644  0.3750000000000000
  0.7235069983638488  0.9456456075939076  0.3750000000000000
  0.8873451821886890  0.4437324019546570  0.3750000000000000
  0.0555584143580722  0.6111156184492157  0.8750000000000000
  0.2222199651151196  0.1111024715072020  0.8750000000000000
  0.7222304972684427  0.6111108167411039  0.8750000000000000
  0.5555462989302919  0.1111070662275016  0.8750000000000000
  0.8888931463839560  0.1111132398586493  0.8750000000000000
  0.1138243136138952  0.0567768854646270  0.3750000000000000
  0.6022682252308105  0.5539226751993594  0.3750000000000000
  0.4441247972167779  0.0534463231129595  0.3750000000000000
  0.9419061870728986  0.5546806732405777  0.3750000000000000
  0.7796779432192456  0.0565056382762906  0.3750000000000000
  0.1111088800883230  0.7222211067108266  0.8750000000000000
  0.4444204362628809  0.7221435677040577  0.8750000000000000
  0.2778782561913400  0.2223026108470335  0.8750000000000000
  0.7777186609179122  0.7221350762446955  0.8750000000000000
  0.6110506631181003  0.2222819530492174  0.8750000000000000
  0.9444951085934623  0.2222577143675152  0.8750000000000000
  0.2766688265322310  0.7221379596121940  0.3750000000000000
  0.1170740534410284  0.2252036933871785  0.3750000000000000
  0.4432231644050184  0.2189009669833535  0.3750000000000000
  0.6111700726871131  0.7247576279718052  0.3750000000000000
  0.9419061870728986  0.7205588471656561  0.3750000000000000
  0.7790018546361080  0.2224558355626487  0.3750000000000000
  0.1111305032190856  0.8889099307587662  0.8750000000000000
  0.4444189983235693  0.8888761658284490  0.8750000000000000
  0.2778782561913400  0.3889089786776347  0.8750000000000000
  0.6110279341289768  0.3889096311008486  0.8750000000000000
  0.7777560589725150  0.8888298772206370  0.8750000000000000
  0.9444543959209042  0.3889156712710301  0.8750000000000000
  0.1138243136138952  0.3903807614825968  0.3750000000000000
  0.2766688265322310  0.8878642002533657  0.3750000000000000
  0.6118969372890920  0.8901355561661984  0.3750000000000000
  0.9444159807237745  0.8885738245335351  0.3750000000000000
  0.7750415060554748  0.3880976726270683  0.3750000000000000
  0.2778148466928054  0.5555228219889135  0.8750000000000000
  0.1111889067065165  0.0556078251718723  0.8750000000000000
  0.6110279341289768  0.5554516363614559  0.8750000000000000
  0.4444204362628809  0.0556102018921592  0.8750000000000000
  0.9444187452463803  0.5555541777899681  0.8750000000000000
  0.1100641837441123  0.5555442088555086  0.3750000000000000
  0.7777740568838261  0.0555536951085807  0.8750000000000000
  0.2777917176835483  0.0545025241666144  0.3750000000000000
  0.4432231644050184  0.5576555307550000  0.3750000000000000
  0.7725292842825903  0.5529313088079625  0.3750000000000000
  0.6118969372890920  0.0550947144562219  0.3750000000000000
  0.4444335340726778  0.5554631427039591  0.8750000000000000
  0.9474053860259024  0.0571858702900291  0.3750000000000000
  0.2777794036088862  0.7222011172036866  0.8750000000000000
  0.1112240834285829  0.2222787083809555  0.8750000000000000
  0.4444335340726778  0.2223037247020538  0.8750000000000000
  0.6110506631181003  0.7221020434022114  0.8750000000000000
  0.9444187452463803  0.7221979007897487  0.8750000000000000
  0.7777560589725150  0.2222595150852070  0.8750000000000000
  0.1092704742411705  0.7213019037872497  0.3750000000000000
  0.4441247972167779  0.7240118074371542  0.3750000000000000
  0.2871011569977284  0.2268100808914521  0.3750000000000000
  0.7750415060554748  0.7202771667617347  0.3750000000000000
  0.6111700726871131  0.2197457780486359  0.3750000000000000
  0.9474053860259024  0.2235528490692091  0.3750000000000000
  0.1111889067065165  0.3889144148679730  0.8750000000000000
  0.2777794036088862  0.8889116197385284  0.8750000000000000
  0.6110723018952237  0.8888326085098190  0.8750000000000000
  0.4444578683693218  0.3888956008513251  0.8750000000000000
  0.9444543959209042  0.8888720579832022  0.8750000000000000
  0.1100641837441123  0.8878533082219323  0.3750000000000000
  0.7777186609179122  0.3889169180065452  0.8750000000000000
  0.4441816688256262  0.8887575010794774  0.3750000000000000
  0.2871011569977284  0.3936244094396050  0.3750000000000000
  0.2777917176835483  0.5566225268502699  0.3750000000000000
  0.6022682252308105  0.3816788833647791  0.3750000000000000
  0.7790018546361080  0.8898793524067875  0.3750000000000000
  0.9444159807237745  0.3891754895235677  0.3750000000000000
  0.1111305032190856  0.5555539057936476  0.8750000000000000
  0.2778148466928055  0.0556253580372272  0.8750000000000000
  0.7777024879571752  0.5555179106452548  0.8750000000000000
  0.6110723018952237  0.0555730267187325  0.8750000000000000
  0.9444951085934623  0.0555707275592831  0.8750000000000000
  0.0557224681955508  0.1112624108041824  0.1253212634310989
  0.5554638316375645  0.6108515820415065  0.1258149810395504
  0.3890564746807642  0.1114888518702799  0.1256416156520613
  0.8886272281492034  0.6109802807412733  0.1252786696744637
  0.7222309550592144  0.1111360502758442  0.1251884564547504
  0.0555138081088512  0.7778098453082702  0.6248041815107460
  0.3889977335151721  0.7777273975945993  0.6247647029445023
  0.2225419830576297  0.2779376581954826  0.6239228118556041
  0.7221014097732283  0.7776613099509465  0.6247347028730487
  0.5554638316375645  0.2779455829293938  0.6241850189604495
  0.8888952150442559  0.2777528353291653  0.6247823916468003
  0.2222945660274954  0.7778139496804155  0.1251920936033504
  0.0557224681955508  0.2777933907247041  0.1253212634310989
  0.3891377084961441  0.2781709459998625  0.1273040016727557
  0.5555844729103633  0.7776624282404183  0.1252788475709999
  0.8887374544778044  0.7777213462648870  0.1252465556941795
  0.7221014097732283  0.2777734331556184  0.1252652971269511
  0.0556281819540260  0.9446026320508399  0.6247511492301395
  0.3889977335151721  0.9446036692539090  0.6247647029445023
  0.2224764177182293  0.4443310809689557  0.6242778020949221
  0.5552509614504949  0.4442921473919118  0.6223040105397702
  0.7222309550592144  0.9444282381167054  0.6248115435452495
  0.8887374544778044  0.4443494415462532  0.6247534443058206
  0.0556281819540260  0.4443588832365142  0.1252488507698599
  0.2223496412767123  0.9446857055379392  0.1252721766358049
  0.5556105660442330  0.9444719496887809  0.1252084837096642
  0.3891377084961441  0.4443000958296168  0.1273040016727557
  0.8888952150442559  0.9444757130484257  0.1252176083531997
  0.7218318104003735  0.4442862343345567  0.1255249777865690
  0.2223496412767123  0.6109972690721095  0.6247278233641949
  0.0557224681955508  0.1112624108041824  0.6246787365689010
  0.5554638316375645  0.6108515820415065  0.6241850189604495
  0.3890564746807642  0.1114888518702799  0.6243583843479396
  0.8886272281492034  0.6109802807412733  0.6247213303255360
  0.0555138081088512  0.6110372961339154  0.1251958184892542
  0.7222309550592144  0.1111360502758442  0.6248115435452495
  0.2224764177182293  0.1114786700826091  0.1257221979050780
  0.3890564746807642  0.6109009561438277  0.1256416156520613
  0.7218318104003735  0.6108789093991525  0.1255249777865690
  0.5555844729103633  0.1112553780032811  0.1252788475709999
  0.3890564746807642  0.6109009561438277  0.6243583843479396
  0.8889538773682766  0.1111436053508094  0.1251942282470836
  0.2222945660274954  0.7778139496804155  0.6248079063966493
  0.0557224681955508  0.2777933907247041  0.6246787365689010
  0.3891377084961441  0.2781709459998625  0.6226959983272440
  0.5555844729103625  0.7776624282404183  0.6247211524289997
  0.8887374544778044  0.7777213462648870  0.6247534443058206
  0.7221014097732283  0.2777734331556184  0.6247347028730487
  0.0555138081088512  0.7778098453082702  0.1251958184892542
  0.3889977335151721  0.7777273975945993  0.1252352970554981
  0.2225419830576297  0.2779376581954826  0.1260771881443959
  0.7221014097732283  0.7776613099509465  0.1252652971269511
  0.5554638316375645  0.2779455829293938  0.1258149810395504
  0.8888952150442559  0.2777528353291653  0.1252176083531997
  0.0556281819540260  0.4443588832365142  0.6247511492301395
  0.2223496412767123  0.9446857055379392  0.6247278233641949
  0.5556105660442330  0.9444719496887809  0.6247915162903368
  0.3891377084961441  0.4443000958296168  0.6226959983272440
  0.8888952150442559  0.9444757130484257  0.6247823916468003
  0.0556281819540260  0.9446026320508399  0.1252488507698599
  0.7218318104003735  0.4442862343345567  0.6244750222134308
  0.3889977335151721  0.9446036692539090  0.1252352970554981
  0.2224764177182293  0.4443310809689557  0.1257221979050780
  0.2223496412767123  0.6109972690721095  0.1252721766358049
  0.5552509614504949  0.4442921473919118  0.1276959894602299
  0.7222309550592144  0.9444282381167054  0.1251884564547504
  0.8887374544778044  0.4443494415462532  0.1252465556941795
  0.0555138081088512  0.6110372961339154  0.6248041815107460
  0.2224764177182293  0.1114786700826091  0.6242778020949221
  0.7218318104003735  0.6108789093991525  0.6244750222134308
  0.5555844729103633  0.1112553780032811  0.6247211524289997
  0.8889538773682766  0.1111436053508094  0.6248057717529166
 
  0.00000000E+00  0.00000000E+00  0.00000000E+00
  0.00000000E+00  0.00000000E+00  0.00000000E+00
  0.00000000E+00  0.00000000E+00  0.00000000E+00
  0.00000000E+00  0.00000000E+00  0.00000000E+00
  0.00000000E+00  0.00000000E+00  0.00000000E+00
  0.00000000E+00  0.00000000E+00  0.00000000E+00
  0.00000000E+00  0.00000000E+00  0.00000000E+00
  0.00000000E+00  0.00000000E+00  0.00000000E+00
  0.00000000E+00  0.00000000E+00  0.00000000E+00
  0.00000000E+00  0.00000000E+00  0.00000000E+00
  0.00000000E+00  0.00000000E+00  0.00000000E+00
  0.00000000E+00  0.00000000E+00  0.00000000E+00
  0.00000000E+00  0.00000000E+00  0.00000000E+00
  0.00000000E+00  0.00000000E+00  0.00000000E+00
  0.00000000E+00  0.00000000E+00  0.00000000E+00
  0.00000000E+00  0.00000000E+00  0.00000000E+00
  0.00000000E+00  0.00000000E+00  0.00000000E+00
  0.00000000E+00  0.00000000E+00  0.00000000E+00
  0.00000000E+00  0.00000000E+00  0.00000000E+00
  0.00000000E+00  0.00000000E+00  0.00000000E+00
  0.00000000E+00  0.00000000E+00  0.00000000E+00
  0.00000000E+00  0.00000000E+00  0.00000000E+00
  0.00000000E+00  0.00000000E+00  0.00000000E+00
  0.00000000E+00  0.00000000E+00  0.00000000E+00
  0.00000000E+00  0.00000000E+00  0.00000000E+00
  0.00000000E+00  0.00000000E+00  0.00000000E+00
  0.00000000E+00  0.00000000E+00  0.00000000E+00
  0.00000000E+00  0.00000000E+00  0.00000000E+00
  0.00000000E+00  0.00000000E+00  0.00000000E+00
  0.00000000E+00  0.00000000E+00  0.00000000E+00
  0.00000000E+00  0.00000000E+00  0.00000000E+00
  0.00000000E+00  0.00000000E+00  0.00000000E+00
  0.00000000E+00  0.00000000E+00  0.00000000E+00
  0.00000000E+00  0.00000000E+00  0.00000000E+00
  0.00000000E+00  0.00000000E+00  0.00000000E+00
  0.00000000E+00  0.00000000E+00  0.00000000E+00
  0.00000000E+00  0.00000000E+00  0.00000000E+00
  0.00000000E+00  0.00000000E+00  0.00000000E+00
  0.00000000E+00  0.00000000E+00  0.00000000E+00
  0.00000000E+00  0.00000000E+00  0.00000000E+00
  0.00000000E+00  0.00000000E+00  0.00000000E+00
  0.00000000E+00  0.00000000E+00  0.00000000E+00
  0.00000000E+00  0.00000000E+00  0.00000000E+00
  0.00000000E+00  0.00000000E+00  0.00000000E+00
  0.00000000E+00  0.00000000E+00  0.00000000E+00
  0.00000000E+00  0.00000000E+00  0.00000000E+00
  0.00000000E+00  0.00000000E+00  0.00000000E+00
  0.00000000E+00  0.00000000E+00  0.00000000E+00
  0.00000000E+00  0.00000000E+00  0.00000000E+00
  0.00000000E+00  0.00000000E+00  0.00000000E+00
  0.00000000E+00  0.00000000E+00  0.00000000E+00
  0.00000000E+00  0.00000000E+00  0.00000000E+00
  0.00000000E+00  0.00000000E+00  0.00000000E+00
  0.00000000E+00  0.00000000E+00  0.00000000E+00
  0.00000000E+00  0.00000000E+00  0.00000000E+00
  0.00000000E+00  0.00000000E+00  0.00000000E+00
  0.00000000E+00  0.00000000E+00  0.00000000E+00
  0.00000000E+00  0.00000000E+00  0.00000000E+00
  0.00000000E+00  0.00000000E+00  0.00000000E+00
  0.00000000E+00  0.00000000E+00  0.00000000E+00
  0.00000000E+00  0.00000000E+00  0.00000000E+00
  0.00000000E+00  0.00000000E+00  0.00000000E+00
  0.00000000E+00  0.00000000E+00  0.00000000E+00
  0.00000000E+00  0.00000000E+00  0.00000000E+00
  0.00000000E+00  0.00000000E+00  0.00000000E+00
  0.00000000E+00  0.00000000E+00  0.00000000E+00
  0.00000000E+00  0.00000000E+00  0.00000000E+00
  0.00000000E+00  0.00000000E+00  0.00000000E+00
  0.00000000E+00  0.00000000E+00  0.00000000E+00
  0.00000000E+00  0.00000000E+00  0.00000000E+00
  0.00000000E+00  0.00000000E+00  0.00000000E+00
  0.00000000E+00  0.00000000E+00  0.00000000E+00
  0.00000000E+00  0.00000000E+00  0.00000000E+00
  0.00000000E+00  0.00000000E+00  0.00000000E+00
  0.00000000E+00  0.00000000E+00  0.00000000E+00
  0.00000000E+00  0.00000000E+00  0.00000000E+00
  0.00000000E+00  0.00000000E+00  0.00000000E+00
  0.00000000E+00  0.00000000E+00  0.00000000E+00
  0.00000000E+00  0.00000000E+00  0.00000000E+00
  0.00000000E+00  0.00000000E+00  0.00000000E+00
  0.00000000E+00  0.00000000E+00  0.00000000E+00
  0.00000000E+00  0.00000000E+00  0.00000000E+00
  0.00000000E+00  0.00000000E+00  0.00000000E+00
  0.00000000E+00  0.00000000E+00  0.00000000E+00
  0.00000000E+00  0.00000000E+00  0.00000000E+00
  0.00000000E+00  0.00000000E+00  0.00000000E+00
  0.00000000E+00  0.00000000E+00  0.00000000E+00
  0.00000000E+00  0.00000000E+00  0.00000000E+00
  0.00000000E+00  0.00000000E+00  0.00000000E+00
  0.00000000E+00  0.00000000E+00  0.00000000E+00
  0.00000000E+00  0.00000000E+00  0.00000000E+00
  0.00000000E+00  0.00000000E+00  0.00000000E+00
  0.00000000E+00  0.00000000E+00  0.00000000E+00
  0.00000000E+00  0.00000000E+00  0.00000000E+00
  0.00000000E+00  0.00000000E+00  0.00000000E+00
  0.00000000E+00  0.00000000E+00  0.00000000E+00
  0.00000000E+00  0.00000000E+00  0.00000000E+00
  0.00000000E+00  0.00000000E+00  0.00000000E+00
  0.00000000E+00  0.00000000E+00  0.00000000E+00
  0.00000000E+00  0.00000000E+00  0.00000000E+00
  0.00000000E+00  0.00000000E+00  0.00000000E+00
  0.00000000E+00  0.00000000E+00  0.00000000E+00
  0.00000000E+00  0.00000000E+00  0.00000000E+00
  0.00000000E+00  0.00000000E+00  0.00000000E+00
  0.00000000E+00  0.00000000E+00  0.00000000E+00
  0.00000000E+00  0.00000000E+00  0.00000000E+00
  0.00000000E+00  0.00000000E+00  0.00000000E+00
  0.00000000E+00  0.00000000E+00  0.00000000E+00
  0.00000000E+00  0.00000000E+00  0.00000000E+00
  0.00000000E+00  0.00000000E+00  0.00000000E+00
  0.00000000E+00  0.00000000E+00  0.00000000E+00
  0.00000000E+00  0.00000000E+00  0.00000000E+00
  0.00000000E+00  0.00000000E+00  0.00000000E+00
  0.00000000E+00  0.00000000E+00  0.00000000E+00
  0.00000000E+00  0.00000000E+00  0.00000000E+00
  0.00000000E+00  0.00000000E+00  0.00000000E+00
  0.00000000E+00  0.00000000E+00  0.00000000E+00
  0.00000000E+00  0.00000000E+00  0.00000000E+00
  0.00000000E+00  0.00000000E+00  0.00000000E+00
  0.00000000E+00  0.00000000E+00  0.00000000E+00
  0.00000000E+00  0.00000000E+00  0.00000000E+00
  0.00000000E+00  0.00000000E+00  0.00000000E+00
  0.00000000E+00  0.00000000E+00  0.00000000E+00
  0.00000000E+00  0.00000000E+00  0.00000000E+00
  0.00000000E+00  0.00000000E+00  0.00000000E+00
  0.00000000E+00  0.00000000E+00  0.00000000E+00
  0.00000000E+00  0.00000000E+00  0.00000000E+00
  0.00000000E+00  0.00000000E+00  0.00000000E+00
  0.00000000E+00  0.00000000E+00  0.00000000E+00
  0.00000000E+00  0.00000000E+00  0.00000000E+00
  0.00000000E+00  0.00000000E+00  0.00000000E+00
  0.00000000E+00  0.00000000E+00  0.00000000E+00
  0.00000000E+00  0.00000000E+00  0.00000000E+00
  0.00000000E+00  0.00000000E+00  0.00000000E+00
  0.00000000E+00  0.00000000E+00  0.00000000E+00
  0.00000000E+00  0.00000000E+00  0.00000000E+00
  0.00000000E+00  0.00000000E+00  0.00000000E+00
  0.00000000E+00  0.00000000E+00  0.00000000E+00
  0.00000000E+00  0.00000000E+00  0.00000000E+00
  0.00000000E+00  0.00000000E+00  0.00000000E+00
  0.00000000E+00  0.00000000E+00  0.00000000E+00
  0.00000000E+00  0.00000000E+00  0.00000000E+00
  0.00000000E+00  0.00000000E+00  0.00000000E+00
  0.00000000E+00  0.00000000E+00  0.00000000E+00
  0.00000000E+00  0.00000000E+00  0.00000000E+00
  0.00000000E+00  0.00000000E+00  0.00000000E+00
  0.00000000E+00  0.00000000E+00  0.00000000E+00
  0.00000000E+00  0.00000000E+00  0.00000000E+00
  0.00000000E+00  0.00000000E+00  0.00000000E+00
  0.00000000E+00  0.00000000E+00  0.00000000E+00
  0.00000000E+00  0.00000000E+00  0.00000000E+00
  0.00000000E+00  0.00000000E+00  0.00000000E+00
  0.00000000E+00  0.00000000E+00  0.00000000E+00
  0.00000000E+00  0.00000000E+00  0.00000000E+00
  0.00000000E+00  0.00000000E+00  0.00000000E+00
  0.00000000E+00  0.00000000E+00  0.00000000E+00
  0.00000000E+00  0.00000000E+00  0.00000000E+00
  0.00000000E+00  0.00000000E+00  0.00000000E+00
  0.00000000E+00  0.00000000E+00  0.00000000E+00
  0.00000000E+00  0.00000000E+00  0.00000000E+00
  0.00000000E+00  0.00000000E+00  0.00000000E+00
  0.00000000E+00  0.00000000E+00  0.00000000E+00
  0.00000000E+00  0.00000000E+00  0.00000000E+00
  0.00000000E+00  0.00000000E+00  0.00000000E+00
  0.00000000E+00  0.00000000E+00  0.00000000E+00
  0.00000000E+00  0.00000000E+00  0.00000000E+00
  0.00000000E+00  0.00000000E+00  0.00000000E+00
  0.00000000E+00  0.00000000E+00  0.00000000E+00
  0.00000000E+00  0.00000000E+00  0.00000000E+00
  0.00000000E+00  0.00000000E+00  0.00000000E+00
  0.00000000E+00  0.00000000E+00  0.00000000E+00
  0.00000000E+00  0.00000000E+00  0.00000000E+00
  0.00000000E+00  0.00000000E+00  0.00000000E+00
  0.00000000E+00  0.00000000E+00  0.00000000E+00
  0.00000000E+00  0.00000000E+00  0.00000000E+00
  0.00000000E+00  0.00000000E+00  0.00000000E+00
  0.00000000E+00  0.00000000E+00  0.00000000E+00
  0.00000000E+00  0.00000000E+00  0.00000000E+00
  0.00000000E+00  0.00000000E+00  0.00000000E+00
  0.00000000E+00  0.00000000E+00  0.00000000E+00
  0.00000000E+00  0.00000000E+00  0.00000000E+00
  0.00000000E+00  0.00000000E+00  0.00000000E+00
  0.00000000E+00  0.00000000E+00  0.00000000E+00
  0.00000000E+00  0.00000000E+00  0.00000000E+00
  0.00000000E+00  0.00000000E+00  0.00000000E+00
  0.00000000E+00  0.00000000E+00  0.00000000E+00
  0.00000000E+00  0.00000000E+00  0.00000000E+00
  0.00000000E+00  0.00000000E+00  0.00000000E+00
  0.00000000E+00  0.00000000E+00  0.00000000E+00
  0.00000000E+00  0.00000000E+00  0.00000000E+00
  0.00000000E+00  0.00000000E+00  0.00000000E+00
  0.00000000E+00  0.00000000E+00  0.00000000E+00
  0.00000000E+00  0.00000000E+00  0.00000000E+00
  0.00000000E+00  0.00000000E+00  0.00000000E+00
  0.00000000E+00  0.00000000E+00  0.00000000E+00
  0.00000000E+00  0.00000000E+00  0.00000000E+00
  0.00000000E+00  0.00000000E+00  0.00000000E+00
  0.00000000E+00  0.00000000E+00  0.00000000E+00
  0.00000000E+00  0.00000000E+00  0.00000000E+00
  0.00000000E+00  0.00000000E+00  0.00000000E+00
  0.00000000E+00  0.00000000E+00  0.00000000E+00
  0.00000000E+00  0.00000000E+00  0.00000000E+00
  0.00000000E+00  0.00000000E+00  0.00000000E+00
  0.00000000E+00  0.00000000E+00  0.00000000E+00
  0.00000000E+00  0.00000000E+00  0.00000000E+00
  0.00000000E+00  0.00000000E+00  0.00000000E+00
  0.00000000E+00  0.00000000E+00  0.00000000E+00
  0.00000000E+00  0.00000000E+00  0.00000000E+00
  0.00000000E+00  0.00000000E+00  0.00000000E+00
  0.00000000E+00  0.00000000E+00  0.00000000E+00
  0.00000000E+00  0.00000000E+00  0.00000000E+00
  0.00000000E+00  0.00000000E+00  0.00000000E+00
  0.00000000E+00  0.00000000E+00  0.00000000E+00
  0.00000000E+00  0.00000000E+00  0.00000000E+00
  0.00000000E+00  0.00000000E+00  0.00000000E+00
  0.00000000E+00  0.00000000E+00  0.00000000E+00
  0.00000000E+00  0.00000000E+00  0.00000000E+00
  0.00000000E+00  0.00000000E+00  0.00000000E+00
  0.00000000E+00  0.00000000E+00  0.00000000E+00
  0.00000000E+00  0.00000000E+00  0.00000000E+00
  0.00000000E+00  0.00000000E+00  0.00000000E+00
  0.00000000E+00  0.00000000E+00  0.00000000E+00
  0.00000000E+00  0.00000000E+00  0.00000000E+00
  0.00000000E+00  0.00000000E+00  0.00000000E+00
  0.00000000E+00  0.00000000E+00  0.00000000E+00
  0.00000000E+00  0.00000000E+00  0.00000000E+00
  0.00000000E+00  0.00000000E+00  0.00000000E+00
  0.00000000E+00  0.00000000E+00  0.00000000E+00
  0.00000000E+00  0.00000000E+00  0.00000000E+00
  0.00000000E+00  0.00000000E+00  0.00000000E+00
  0.00000000E+00  0.00000000E+00  0.00000000E+00
  0.00000000E+00  0.00000000E+00  0.00000000E+00
  0.00000000E+00  0.00000000E+00  0.00000000E+00
  0.00000000E+00  0.00000000E+00  0.00000000E+00
  0.00000000E+00  0.00000000E+00  0.00000000E+00
  0.00000000E+00  0.00000000E+00  0.00000000E+00
  0.00000000E+00  0.00000000E+00  0.00000000E+00
  0.00000000E+00  0.00000000E+00  0.00000000E+00
  0.00000000E+00  0.00000000E+00  0.00000000E+00
  0.00000000E+00  0.00000000E+00  0.00000000E+00
  0.00000000E+00  0.00000000E+00  0.00000000E+00
  0.00000000E+00  0.00000000E+00  0.00000000E+00
  0.00000000E+00  0.00000000E+00  0.00000000E+00
  0.00000000E+00  0.00000000E+00  0.00000000E+00
  0.00000000E+00  0.00000000E+00  0.00000000E+00
  0.00000000E+00  0.00000000E+00  0.00000000E+00
  0.00000000E+00  0.00000000E+00  0.00000000E+00
  0.00000000E+00  0.00000000E+00  0.00000000E+00