 C N B 
 1.0
 14.936314146199660   0.000000000000000   0.000000000000000
 -7.468157073099825  12.935227489513863   0.000000000000000
  0.000000000000001   0.000000000000001  13.341276283792837
 C N B 
   1 143 143
Cartesian
  4.877027932721630   5.690248387471883   5.002978606422314 
  1.244595834371471   0.718908612871706   1.665291370190497 
  4.978613421956447   7.187417181389021   1.663312383181012 
  6.224198656216968   0.718769179193421   1.665046444228490 
  9.957431455883736   7.185944444771266   1.665569518100422 
 11.202635949608734   0.718854885800550   1.665251409428206 
 -3.734062694898341   9.342117888608447   8.340358381268569 
  1.245186005713980   9.342672061392838   8.340910768616139 
  2.489374758914201   2.874598105010777   8.336053956183562 
  6.223183254191111   9.342631256117814   8.341186073262012 
  7.469194340509861   2.874044816754886   8.342398402918892 
 12.447115098595265   2.874372342306172   8.340548762949783 
 -1.244293663752254   9.342234562888182   1.665549105693250 
 -0.000100818258868   2.874436790220804   1.665186441611244 
  4.979751370910461   2.874347385378131   1.667296512778285 
  3.734207302146396   9.343232132811657   1.663558809925735 
  8.712540476264124   9.342158871356643   1.665569518100422 
  9.958208455563430   2.874197127677842   1.665315890575915 
 -4.978874858813135  11.498263133935403   8.340552032622639 
  0.000563024693952  11.498305053137555   8.340405376621206 
  1.244776673033774   5.030305224758663   8.336053956183562 
  6.224406886624574   5.029639604846551   8.342644829663616 
  4.978846264801752  11.498705431364600   8.340641322268725 
 11.202457625019418   5.030039706882184   8.340239070372137 
 -1.244494652101174   5.030139800078690   1.665291370190497 
 -2.489077136435074  11.498262781996864   1.665549105693250 
  2.489787149203694  11.498649775601368   1.665278890170109 
  3.733988925460787   5.030314508935589   1.666051810386666 
  7.467985289680844  11.498335531149037   1.665718142472491 
  8.713161942050800   5.029861658981114   1.664771139582615 
  0.000402894591834   7.186305106192854   8.340084020635407 
  1.244595834371472   0.718908612871706   8.340665842654131 
  4.978613421956448   7.187417181389022   8.342644829663616 
  6.224198656216969   0.718769179193422   8.340910768616139 
  9.957431455883736   7.185944444771267   8.340387694744207 
 -2.489192220153570   7.186006309054861   1.665405180221990 
 11.202635949608734   0.718854885800551   8.340705803416421 
  3.734338537571419   0.718938860359802   1.665873192209221 
  2.489747849460763   7.187159995554460   1.667296512778285 
  7.467895312902916   7.186086366854238   1.665235948794981 
  8.713630698459559   0.718636529930324   1.665278890170109 
  2.489747849460763   7.187159995554461   8.338660700066329 
 13.691608399736683   0.718846715050106   1.665408449894830 
 -1.244293663752253   9.342234562888182   8.340408107151378 
 -0.000100818258868   2.874436790220805   8.340770771233384 
  4.979751370910462   2.874347385378132   8.338660700066329 
  3.734207302146397   9.343232132811657   8.342398402918892 
  8.712540476264124   9.342158871356643   8.340387694744207 
  9.958208455563430   2.874197127677843   8.340641322268725 
 -3.734062694898342   9.342117888608447   1.665598831576047 
  1.245186005713980   9.342672061392838   1.665046444228490 
  2.489374758914200   2.874598105010776   1.669903256661066 
  6.223183254191110   9.342631256117814   1.664771139582615 
  7.469194340509860   2.874044816754886   1.663558809925735 
 12.447115098595265   2.874372342306172   1.665408449894830 
 -1.244494652101173   5.030139800078691   8.340665842654131 
 -2.489077136435073  11.498262781996864   8.340408107151378 
  2.489787149203694  11.498649775601368   8.340678322674519 
  3.733988925460787   5.030314508935589   8.339905402457976 
  7.467985289680845  11.498335531149037   8.340239070372137 
 -4.978874858813136  11.498263133935403   1.665405180221990 
  8.713161942050800   5.029861658981114   8.341186073262012 
  0.000563024693952  11.498305053137555   1.665551836223409 
  1.244776673033773   5.030305224758663   1.669903256661066 
  0.000402894591834   7.186305106192854   1.665873192209221 
  6.224406886624573   5.029639604846550   1.663312383181012 
  4.978846264801751  11.498705431364600   1.665315890575915 
 11.202457625019418   5.030039706882183   1.665718142472491 
 -2.489192220153569   7.186006309054862   8.340552032622639 
  3.734338537571420   0.718938860359803   8.340084020635407 
  7.467895312902916   7.186086366854239   8.340721264049646 
  8.713630698459559   0.718636529930325   8.340678322674519 
 13.691608399736683   0.718846715050107   8.340548762949783 
  0.029615082591273   1.457664647960934   5.002978606422314 
  3.685353137763570   7.978932214025228   5.002978606422314 
  5.001099220056476   1.378033382641002   5.002978606422314 
  8.675957642526033   7.883561478060057   5.002978606422314 
  9.976108149233141   1.438329051909619   5.002978606422314 
 -4.978716370571385  10.060711167661291  11.673616748318732 
 -0.000129289289046  10.060714771498546  11.673616748318732 
  1.244722471274794   3.593135851526653  11.673616748318732 
  4.978826902020551  10.060653894814253  11.673616748318732 
  6.223392003177808   3.593103761366700  11.673616748318732 
 11.202246739700481   3.593236468606315  11.673616748318732 
 -2.509242226661274  10.049268315654130   5.002978606422314 
 -1.212203534404997   3.608557586383405   5.002978606422314 
  3.834138274447768   3.568995309853351   5.002978606422314 
  2.471562327487985  10.095379903346958   5.002978606422314 
  7.451310783831463  10.049974726087591   5.002978606422314 
  8.729910625748518   3.579493352003050   5.002978606422314 
 -6.223393368650240  12.216518483861629  11.673616748318732 
 -1.244772836430607  12.216500632460495  11.673616748318732 
 -0.000081378349422   5.749072554387666  11.673616748318732 
  4.978769873333850   5.748989124272216  11.673616748318732 
  3.734057905349792  12.216543115352062  11.673616748318732 
  9.957605218087222   5.749115562466984  11.673616748318732 
 -2.489727327036142   5.751816038358216   5.002978606422314 
 -3.741201629402955  12.193000131941064   5.002978606422314 
  1.246800728552447  12.217820726934523   5.002978606422314 
  2.518524050511086   5.847705988872000   5.002978606422314 
  6.236494633118584  12.231613939484875   5.002978606422314 
  7.421811137370144   5.716514134083673   5.002978606422314 
 -1.244839113332717   7.904916251988746  11.673616748318732 
  0.000078950206651   1.437216083902138  11.673616748318732 
  3.734029446332579   7.904806188282233  11.673616748318732 
  4.978712893718298   1.437112480407574  11.673616748318732 
  8.713011990240229   7.904954815687504  11.673616748318732 
 -3.759333839923318   7.895288559953183   5.002978606422314 
  9.957479945964311   1.437259944063657  11.673616748318732 
  2.515630629635778   1.440323166723406   5.002978606422314 
  1.204575835625002   7.953804776599711   5.002978606422314 
  6.172166338861009   7.880962416515681   5.002978606422314 
  7.489250929864004   1.404488307472363   5.002978606422314 
  1.244546671954420   7.904878100410166  11.673616748318732 
 12.470935003956125   1.451107686241020   5.002978606422314 
 -2.489457420938261  10.060691078564187  11.673616748318732 
 -1.244680576543139   3.593202827438182  11.673616748318732 
  3.734076572917005   3.593045505786606  11.673616748318732 
  2.489286353275698  10.060665076780223  11.673616748318732 
  7.468297044399170  10.060723794991212  11.673616748318732 
  8.712809611568929   3.593206127292714  11.673616748318732 
 -4.999689220966704  10.043647099361797   5.002978606422314 
 -0.021242182830224  10.071479195000311   5.002978606422314 
  1.300984222349909   3.625618588654941   5.002978606422314 
  4.975501797353101  10.082320195169100   5.002978606422314 
  6.263248870268307   3.513885828712003   5.002978606422314 
 11.221750026403686   3.596898309608253   5.002978606422314 
 -2.489424095631936   5.749093989092856  11.673616748318732 
 -3.734104031788791  12.216449564253496  11.673616748318732 
  1.244578553312689  12.216537753461690  11.673616748318732 
  2.489321280389896   5.749024915433834  11.673616748318732 
  6.223571742434676  12.216554518243591  11.673616748318732 
 -6.221187620538181  12.214894853129666   5.002978606422314 
  7.468216674043334   5.749100842687877  11.673616748318732 
 -1.246007018991572  12.192834118555552   5.002978606422314 
  0.015786075826313   5.770180944945780   5.002978606422314 
 -1.268695716226688   7.910494268305256   5.002978606422314 
  3.744297881538187  12.232141058686759   5.002978606422314 
  9.939803121065783   5.739779563751895   5.002978606422314 
 -3.734069498086392   7.904919547035566  11.673616748318732 
  2.489416500091580   1.437135743592891  11.673616748318732 
  6.223590024674575   7.904857435848799  11.673616748318732 
  7.468049021063096   1.437195177345223  11.673616748318732 
 12.446976148629201   1.437275034668545  11.673616748318732 
  1.276097006841454   0.734421929631024   5.002978606422314 
  4.858885867581042   7.165115815303809   5.002978606422314 
  6.234441955359793   0.691340347944188   5.002978606422314 
  9.926164313196528   7.174920692403583   5.002978606422314 
 11.223521710622377   0.730913285544007   5.002978606422314 
 -3.734103528992824   9.342094313033016  11.673616748318732 
  1.244921656070892   9.341091328341149  11.673616748318732 
  2.490286113306170   2.875534842819258  11.673616748318732 
  6.223232059441358   9.340981489382584  11.673616748318732 
  7.466808123688607   2.875267629505063  11.673616748318732 
 12.447420129896152   2.874954096643202  11.673616748318732 
 -1.260627203285859   9.341018786397104   5.002978606422314 
  0.066798284906504   2.913061005441877   5.002978606422314 
  4.985333615540922   2.831533805604248   5.002978606422314 
  3.716024396789714   9.374904792575753   5.002978606422314 
  8.687360055325074   9.320592607669612   5.002978606422314 
  9.974081299507542   2.877516839372753   5.002978606422314 
 -4.978638879439232  11.498252172052657  11.673616748318732 
 -0.000285053441377  11.497815414997838  11.673616748318732 
  1.246043588968596   5.030626111909706  11.673616748318732 
  6.222066963951346   5.030634551152398  11.673616748318732 
  4.978887691575926  11.497216661325618  11.673616748318732 
 11.202184232991742   5.030712682127765  11.673616748318732 
 -1.215309139455666   5.049663957307044   5.002978606422314 
 -2.498296799528472  11.484725410072581   5.002978606422314 
  2.491812730647073  11.514105915514715   5.002978606422314 
  7.470084880120064  11.493904561568650   5.002978606422314 
  8.677889031904861   5.020131683582003   5.002978606422314 
  0.000798132377158   7.185814078043305  11.673616748318732 
  1.245464467264010   0.719299868795281  11.673616748318732 
  4.978305109396115   7.184893275758164  11.673616748318732 
  6.222697526416058   0.719330612212872  11.673616748318732 
  9.957169202207332   7.186219672463067  11.673616748318732 
 -2.504938188136817   7.186090722028013   5.002978606422314 
 11.202193927319009   0.718599684112590  11.673616748318732 
  3.742150951177188   0.705002548847880   5.002978606422314 
  2.455461324064860   7.213401151101520   5.002978606422314 
  7.409362212371022   7.152292265505631   5.002978606422314 
  8.728028898990662   0.712662664961040   5.002978606422314 
  2.489912883984420   7.185042112916014  11.673616748318732 
 13.723671407796580   0.739712241387358   5.002978606422314 
 -1.244510945999001   9.341835744210757  11.673616748318732 
  0.001265542517706   2.875225658982979  11.673616748318732 
  4.977999748005169   2.875549250787333  11.673616748318732 
  3.734073180641502   9.340554202050415  11.673616748318732 
  8.712647703598829   9.341794139164769  11.673616748318732 
  9.956939856276348   2.874977389336192  11.673616748318732 
 -3.754697784438771   9.330204214107519   5.002978606422314 
  1.226553590627448   9.365257434293692   5.002978606422314 
  2.594379762795614   2.933839993245973   5.002978606422314 
  6.197120393244326   9.316949007565556   5.002978606422314 
  7.487532215792656   2.842461628919329   5.002978606422314 
 12.481216678496599   2.891706958639177   5.002978606422314 
 -1.243721498085707   5.030696430268405  11.673616748318732 
 -2.489531164664600  11.498274019390102  11.673616748318732 
  2.489226335104051  11.497251991172527  11.673616748318732 
  3.734228914519222   5.030453066683071  11.673616748318732 
  7.468431407325805  11.497762279085077  11.673616748318732 
 -4.986674739025601  11.484584519168159   5.002978606422314 
  8.711757604772901   5.030728808935271  11.673616748318732 
 -0.002943674394451  11.496280459474898   5.002978606422314 
  1.348584155154327   5.091621281526840   5.002978606422314 
 -0.007760098409661   7.200039010596282   5.002978606422314 
  6.145229559867994   4.937103184267046   5.002978606422314 
  4.989657641434826  11.510791861603078   5.002978606422314 
 11.199670088019024   5.034073490330273   5.002978606422314 
 -2.489083723735544   7.186216154128792  11.673616748318732 
  3.734110913612607   0.719526660397191  11.673616748318732 
  7.467313658790427   7.185750548695809  11.673616748318732 
  8.712139774585351   0.718849742887645  11.673616748318732 
 13.692264729421748   0.718820002737124  11.673616748318732 
  0.001363129752979   1.439204594783840   1.671945599668276 
  3.734646723152937   7.901504176036322   1.678532422688794 
  4.978453468778055   1.442133661486785   1.676219507156256 
  8.709918733360681   7.903168922995412   1.671377344593043 
  9.957486950930306   1.437570092604092   1.670173785104388 
 -4.979634420399992  10.061147292646060   8.335685208803911 
  0.002001984652645  10.060080812713736   8.335158514344363 
  1.248274881733606   3.595186836661321   8.323926612726511 
  4.977836689400345  10.059225954008850   8.334758275102573 
  6.220841015099422   3.595289344897253   8.327424790155833 
 11.202516373217675   3.592796110840233   8.335394504208821 
 -2.488575278681721  10.061200383633469   1.670222309308746 
 -1.242316385830712   3.593320704107457   1.671945599668276 
  3.734858742330936   3.598204467481491   1.698397858348663 
  2.490679058192273  10.059240419337558   1.671379717959880 
  7.466316640565466  10.060002537387296   1.670948903109502 
  8.711077872246234   3.593062548411191   1.671198937742054 
 -6.223560826771904  12.218649932771175   8.334977690496386 
 -1.244256223872358  12.218663349228825   8.335158514344363 
  0.004643360024209   5.747523612995051   8.328662635587301 
  4.975359247136375   5.747019998319006   8.302329737123401 
  3.734330004347755  12.216394107560347   8.335783427740227 
  9.955990388762693   5.747761111239226   8.335008309735139 
 -2.487661935790224   5.747883241650637   1.670979522348242 
 -3.733977141265684  12.219724507225147   1.671290719170373 
  1.245309085971827  12.216959526689076   1.670440974245402 
  2.494180156981791   5.747122813168906   1.698397858348663 
  6.223325198181106  12.217008206602207   1.670562708635807 
  7.463507297433496   5.746943511576959   1.674663409167575 
 -1.241939484261774   7.903388670919445   8.334666493674256 
  0.001363129752979   1.439204594783840   8.334011613176353 
  3.734646723152938   7.901504176036322   8.327424790155833 
  4.978453468778056   1.442133661486786   8.329737705688384 
  8.709918733360681   7.903168922995413   8.334579868251584 
 -3.734150827684644   7.903906430069640   1.670272004040717 
  9.957486950930306   1.437570092604093   8.335783427740227 
  2.490437446683410   1.442001957747011   1.677294577257326 
  1.248765429855890   7.902142841281947   1.676219507156256 
  6.219367032823219   7.901857661624160   1.674663409167575 
  7.467511583984337   1.439113623904297   1.671379717959880 
  1.248765429855891   7.902142841281948   8.329737705688384 
 12.447656471424374   1.437667819217465   1.670250788180569 
 -2.488575278681721  10.061200383633469   8.335734903535867 
 -1.242316385830712   3.593320704107458   8.334011613176353 
  3.734858742330936   3.598204467481492   8.307559354495964 
  2.490679058192274  10.059240419337558   8.334577494884746 
  7.466316640565467  10.060002537387296   8.335008309735139 
  8.711077872246234   3.593062548411192   8.334758275102573 
 -4.979634420399993  10.061147292646060   1.670272004040717 
  0.002001984652645  10.060080812713736   1.670798698500266 
  1.248274881733606   3.595186836661320   1.682030600118118 
  4.977836689400344  10.059225954008850   1.671198937742054 
  6.220841015099421   3.595289344897252   1.678532422688794 
 11.202516373217675   3.592796110840232   1.670562708635807 
 -2.487661935790224   5.747883241650638   8.334977690496386 
 -3.733977141265683  12.219724507225147   8.334666493674256 
  1.245309085971827  12.216959526689076   8.335516238599240 
  2.494180156981791   5.747122813168906   8.307559354495964 
  6.223325198181107  12.217008206602207   8.335394504208821 
 -6.223560826771905  12.218649932771175   1.670979522348242 
  7.463507297433496   5.746943511576960   8.331293803677053 
 -1.244256223872359  12.218663349228825   1.670798698500266 
  0.004643360024209   5.747523612995050   1.677294577257326 
 -1.241939484261774   7.903388670919444   1.671290719170373 
  4.975359247136375   5.747019998319005   1.703627475721227 
  3.734330004347754  12.216394107560347   1.670173785104388 
  9.955990388762693   5.747761111239226   1.670948903109502 
 -3.734150827684644   7.903906430069641   8.335685208803911 
  2.490437446683411   1.442001957747012   8.328662635587301 
  6.219367032823220   7.901857661624160   8.331293803677053 
  7.467511583984338   1.439113623904297   8.334577494884746 
 12.447656471424374   1.437667819217466   8.335706424664071 
Generated by cif2cell 2.0.0.  :  Failed to get author information, No journal information. Species order: C N B 
 1.0
 14.936314146199660   0.000000000000000   0.000000000000000
 -7.468157073099825  12.935227489513863   0.000000000000000
  0.000000000000001   0.000000000000001  13.341276283792837
 C N B 
   1 143 143
Cartesian
  4.877027932721630   5.690248387471883   5.002978606422314 
  1.244595834371471   0.718908612871706   1.665291370190497 
  4.978613421956447   7.187417181389021   1.663312383181012 
  6.224198656216968   0.718769179193421   1.665046444228490 
  9.957431455883736   7.185944444771266   1.665569518100422 
 11.202635949608734   0.718854885800550   1.665251409428206 
 -3.734062694898341   9.342117888608447   8.340358381268569 
  1.245186005713980   9.342672061392838   8.340910768616139 
  2.489374758914201   2.874598105010777   8.336053956183562 
  6.223183254191111   9.342631256117814   8.341186073262012 
  7.469194340509861   2.874044816754886   8.342398402918892 
 12.447115098595265   2.874372342306172   8.340548762949783 
 -1.244293663752254   9.342234562888182   1.665549105693250 
 -0.000100818258868   2.874436790220804   1.665186441611244 
  4.979751370910461   2.874347385378131   1.667296512778285 
  3.734207302146396   9.343232132811657   1.663558809925735 
  8.712540476264124   9.342158871356643   1.665569518100422 
  9.958208455563430   2.874197127677842   1.665315890575915 
 -4.978874858813135  11.498263133935403   8.340552032622639 
  0.000563024693952  11.498305053137555   8.340405376621206 
  1.244776673033774   5.030305224758663   8.336053956183562 
  6.224406886624574   5.029639604846551   8.342644829663616 
  4.978846264801752  11.498705431364600   8.340641322268725 
 11.202457625019418   5.030039706882184   8.340239070372137 
 -1.244494652101174   5.030139800078690   1.665291370190497 
 -2.489077136435074  11.498262781996864   1.665549105693250 
  2.489787149203694  11.498649775601368   1.665278890170109 
  3.733988925460787   5.030314508935589   1.666051810386666 
  7.467985289680844  11.498335531149037   1.665718142472491 
  8.713161942050800   5.029861658981114   1.664771139582615 
  0.000402894591834   7.186305106192854   8.340084020635407 
  1.244595834371472   0.718908612871706   8.340665842654131 
  4.978613421956448   7.187417181389022   8.342644829663616 
  6.224198656216969   0.718769179193422   8.340910768616139 
  9.957431455883736   7.185944444771267   8.340387694744207 
 -2.489192220153570   7.186006309054861   1.665405180221990 
 11.202635949608734   0.718854885800551   8.340705803416421 
  3.734338537571419   0.718938860359802   1.665873192209221 
  2.489747849460763   7.187159995554460   1.667296512778285 
  7.467895312902916   7.186086366854238   1.665235948794981 
  8.713630698459559   0.718636529930324   1.665278890170109 
  2.489747849460763   7.187159995554461   8.338660700066329 
 13.691608399736683   0.718846715050106   1.665408449894830 
 -1.244293663752253   9.342234562888182   8.340408107151378 
 -0.000100818258868   2.874436790220805   8.340770771233384 
  4.979751370910462   2.874347385378132   8.338660700066329 
  3.734207302146397   9.343232132811657   8.342398402918892 
  8.712540476264124   9.342158871356643   8.340387694744207 
  9.958208455563430   2.874197127677843   8.340641322268725 
 -3.734062694898342   9.342117888608447   1.665598831576047 
  1.245186005713980   9.342672061392838   1.665046444228490 
  2.489374758914200   2.874598105010776   1.669903256661066 
  6.223183254191110   9.342631256117814   1.664771139582615 
  7.469194340509860   2.874044816754886   1.663558809925735 
 12.447115098595265   2.874372342306172   1.665408449894830 
 -1.244494652101173   5.030139800078691   8.340665842654131 
 -2.489077136435073  11.498262781996864   8.340408107151378 
  2.489787149203694  11.498649775601368   8.340678322674519 
  3.733988925460787   5.030314508935589   8.339905402457976 
  7.467985289680845  11.498335531149037   8.340239070372137 
 -4.978874858813136  11.498263133935403   1.665405180221990 
  8.713161942050800   5.029861658981114   8.341186073262012 
  0.000563024693952  11.498305053137555   1.665551836223409 
  1.244776673033773   5.030305224758663   1.669903256661066 
  0.000402894591834   7.186305106192854   1.665873192209221 
  6.224406886624573   5.029639604846550   1.663312383181012 
  4.978846264801751  11.498705431364600   1.665315890575915 
 11.202457625019418   5.030039706882183   1.665718142472491 
 -2.489192220153569   7.186006309054862   8.340552032622639 
  3.734338537571420   0.718938860359803   8.340084020635407 
  7.467895312902916   7.186086366854239   8.340721264049646 
  8.713630698459559   0.718636529930325   8.340678322674519 
 13.691608399736683   0.718846715050107   8.340548762949783 
  0.029615082591273   1.457664647960934   5.002978606422314 
  3.685353137763570   7.978932214025228   5.002978606422314 
  5.001099220056476   1.378033382641002   5.002978606422314 
  8.675957642526033   7.883561478060057   5.002978606422314 
  9.976108149233141   1.438329051909619   5.002978606422314 
 -4.978716370571385  10.060711167661291  11.673616748318732 
 -0.000129289289046  10.060714771498546  11.673616748318732 
  1.244722471274794   3.593135851526653  11.673616748318732 
  4.978826902020551  10.060653894814253  11.673616748318732 
  6.223392003177808   3.593103761366700  11.673616748318732 
 11.202246739700481   3.593236468606315  11.673616748318732 
 -2.509242226661274  10.049268315654130   5.002978606422314 
 -1.212203534404997   3.608557586383405   5.002978606422314 
  3.834138274447768   3.568995309853351   5.002978606422314 
  2.471562327487985  10.095379903346958   5.002978606422314 
  7.451310783831463  10.049974726087591   5.002978606422314 
  8.729910625748518   3.579493352003050   5.002978606422314 
 -6.223393368650240  12.216518483861629  11.673616748318732 
 -1.244772836430607  12.216500632460495  11.673616748318732 
 -0.000081378349422   5.749072554387666  11.673616748318732 
  4.978769873333850   5.748989124272216  11.673616748318732 
  3.734057905349792  12.216543115352062  11.673616748318732 
  9.957605218087222   5.749115562466984  11.673616748318732 
 -2.489727327036142   5.751816038358216   5.002978606422314 
 -3.741201629402955  12.193000131941064   5.002978606422314 
  1.246800728552447  12.217820726934523   5.002978606422314 
  2.518524050511086   5.847705988872000   5.002978606422314 
  6.236494633118584  12.231613939484875   5.002978606422314 
  7.421811137370144   5.716514134083673   5.002978606422314 
 -1.244839113332717   7.904916251988746  11.673616748318732 
  0.000078950206651   1.437216083902138  11.673616748318732 
  3.734029446332579   7.904806188282233  11.673616748318732 
  4.978712893718298   1.437112480407574  11.673616748318732 
  8.713011990240229   7.904954815687504  11.673616748318732 
 -3.759333839923318   7.895288559953183   5.002978606422314 
  9.957479945964311   1.437259944063657  11.673616748318732 
  2.515630629635778   1.440323166723406   5.002978606422314 
  1.204575835625002   7.953804776599711   5.002978606422314 
  6.172166338861009   7.880962416515681   5.002978606422314 
  7.489250929864004   1.404488307472363   5.002978606422314 
  1.244546671954420   7.904878100410166  11.673616748318732 
 12.470935003956125   1.451107686241020   5.002978606422314 
 -2.489457420938261  10.060691078564187  11.673616748318732 
 -1.244680576543139   3.593202827438182  11.673616748318732 
  3.734076572917005   3.593045505786606  11.673616748318732 
  2.489286353275698  10.060665076780223  11.673616748318732 
  7.468297044399170  10.060723794991212  11.673616748318732 
  8.712809611568929   3.593206127292714  11.673616748318732 
 -4.999689220966704  10.043647099361797   5.002978606422314 
 -0.021242182830224  10.071479195000311   5.002978606422314 
  1.300984222349909   3.625618588654941   5.002978606422314 
  4.975501797353101  10.082320195169100   5.002978606422314 
  6.263248870268307   3.513885828712003   5.002978606422314 
 11.221750026403686   3.596898309608253   5.002978606422314 
 -2.489424095631936   5.749093989092856  11.673616748318732 
 -3.734104031788791  12.216449564253496  11.673616748318732 
  1.244578553312689  12.216537753461690  11.673616748318732 
  2.489321280389896   5.749024915433834  11.673616748318732 
  6.223571742434676  12.216554518243591  11.673616748318732 
 -6.221187620538181  12.214894853129666   5.002978606422314 
  7.468216674043334   5.749100842687877  11.673616748318732 
 -1.246007018991572  12.192834118555552   5.002978606422314 
  0.015786075826313   5.770180944945780   5.002978606422314 
 -1.268695716226688   7.910494268305256   5.002978606422314 
  3.744297881538187  12.232141058686759   5.002978606422314 
  9.939803121065783   5.739779563751895   5.002978606422314 
 -3.734069498086392   7.904919547035566  11.673616748318732 
  2.489416500091580   1.437135743592891  11.673616748318732 
  6.223590024674575   7.904857435848799  11.673616748318732 
  7.468049021063096   1.437195177345223  11.673616748318732 
 12.446976148629201   1.437275034668545  11.673616748318732 
  1.276097006841454   0.734421929631024   5.002978606422314 
  4.858885867581042   7.165115815303809   5.002978606422314 
  6.234441955359793   0.691340347944188   5.002978606422314 
  9.926164313196528   7.174920692403583   5.002978606422314 
 11.223521710622377   0.730913285544007   5.002978606422314 
 -3.734103528992824   9.342094313033016  11.673616748318732 
  1.244921656070892   9.341091328341149  11.673616748318732 
  2.490286113306170   2.875534842819258  11.673616748318732 
  6.223232059441358   9.340981489382584  11.673616748318732 
  7.466808123688607   2.875267629505063  11.673616748318732 
 12.447420129896152   2.874954096643202  11.673616748318732 
 -1.260627203285859   9.341018786397104   5.002978606422314 
  0.066798284906504   2.913061005441877   5.002978606422314 
  4.985333615540922   2.831533805604248   5.002978606422314 
  3.716024396789714   9.374904792575753   5.002978606422314 
  8.687360055325074   9.320592607669612   5.002978606422314 
  9.974081299507542   2.877516839372753   5.002978606422314 
 -4.978638879439232  11.498252172052657  11.673616748318732 
 -0.000285053441377  11.497815414997838  11.673616748318732 
  1.246043588968596   5.030626111909706  11.673616748318732 
  6.222066963951346   5.030634551152398  11.673616748318732 
  4.978887691575926  11.497216661325618  11.673616748318732 
 11.202184232991742   5.030712682127765  11.673616748318732 
 -1.215309139455666   5.049663957307044   5.002978606422314 
 -2.498296799528472  11.484725410072581   5.002978606422314 
  2.491812730647073  11.514105915514715   5.002978606422314 
  7.470084880120064  11.493904561568650   5.002978606422314 
  8.677889031904861   5.020131683582003   5.002978606422314 
  0.000798132377158   7.185814078043305  11.673616748318732 
  1.245464467264010   0.719299868795281  11.673616748318732 
  4.978305109396115   7.184893275758164  11.673616748318732 
  6.222697526416058   0.719330612212872  11.673616748318732 
  9.957169202207332   7.186219672463067  11.673616748318732 
 -2.504938188136817   7.186090722028013   5.002978606422314 
 11.202193927319009   0.718599684112590  11.673616748318732 
  3.742150951177188   0.705002548847880   5.002978606422314 
  2.455461324064860   7.213401151101520   5.002978606422314 
  7.409362212371022   7.152292265505631   5.002978606422314 
  8.728028898990662   0.712662664961040   5.002978606422314 
  2.489912883984420   7.185042112916014  11.673616748318732 
 13.723671407796580   0.739712241387358   5.002978606422314 
 -1.244510945999001   9.341835744210757  11.673616748318732 
  0.001265542517706   2.875225658982979  11.673616748318732 
  4.977999748005169   2.875549250787333  11.673616748318732 
  3.734073180641502   9.340554202050415  11.673616748318732 
  8.712647703598829   9.341794139164769  11.673616748318732 
  9.956939856276348   2.874977389336192  11.673616748318732 
 -3.754697784438771   9.330204214107519   5.002978606422314 
  1.226553590627448   9.365257434293692   5.002978606422314 
  2.594379762795614   2.933839993245973   5.002978606422314 
  6.197120393244326   9.316949007565556   5.002978606422314 