Species order: X N B                    
   2.51242800000000     
     5.9449720136058266    0.0000000000000000    0.0000000000000000
    -2.9724860068029120    5.1484967885702053   -0.0000000000000001
     0.0000000000000000    0.0000000000000009    5.3101128803662583
   Al   N    B 
     1   143   143
Direct
  0.4681772836522137  0.4007553084927708  0.3750000000000000
  0.1111518321404583  0.0555702211639153  0.1249218842080426
  0.6111832946306268  0.5556106616430300  0.1261179360939606
  0.4444557156015158  0.0555352544900595  0.1249661116151640
  0.9444914733161022  0.5555791389583182  0.1251817489957910
  0.7777864740580064  0.0555599036956709  0.1251282823166544
  0.1111413112778672  0.7222373223055988  0.6248715022290711
  0.4444557156015158  0.7222537944447908  0.6250338883848372
  0.2778443718419225  0.2222436622529176  0.6246539286098036
  0.7778280360331549  0.7222483111382292  0.6247962292004501
  0.6111245888203253  0.2222140805421656  0.6248645166736866
  0.9444772966377292  0.2222405982986048  0.6248878023744140
  0.2777932130701368  0.7222383001379771  0.1251208278967945
  0.1111722490578713  0.2222527911955998  0.1249648148030511
  0.4444971417452223  0.2222151496592029  0.1255530678943243
  0.6111245888203253  0.7222438416114876  0.1251354833263143
  0.9444914733161022  0.7222456676911190  0.1251817489957910
  0.7777931370101570  0.2222340792264847  0.1251439041493335
  0.1111419927058884  0.8888995680293523  0.6248888891526289
  0.4444487313930197  0.8888910323631743  0.6248845657836529
  0.2778443718419225  0.3889340429223335  0.6246539286098036
  0.6111832946306268  0.3889059663209257  0.6238820639060385
  0.7777931370101570  0.8888923911169999  0.6248560958506660
  0.9444858862536701  0.3889086171674360  0.6248831626951722
  0.1111518321404583  0.3889149443098721  0.1249218842080426
  0.2777932130701368  0.8888882462654898  0.1251208278967945
  0.6111115761991738  0.8888977059280876  0.1251039199347887
  0.4446306448496032  0.3889819890914661  0.1307208883440632
  0.9444858862536701  0.8889106024195623  0.1251168373048279
  0.7778280360331549  0.3889130582282536  0.1252037707995494
  0.2778050320389561  0.5555880309147976  0.6250250926155015
  0.1111518321404583  0.0555702211639153  0.6250781157919576
  0.6111832946306268  0.5556106616430300  0.6238820639060385
  0.4444557156015158  0.0555352544900595  0.6250338883848372
  0.9444914733161022  0.5555791389583182  0.6248182510042098
  0.1111419927058884  0.5555757580098621  0.1251111108473703
  0.7777864740580064  0.0555599036956709  0.6248717176833456
  0.2778050320389560  0.0555503344574946  0.1249749073844983
  0.4444971417452223  0.5556153254193554  0.1255530678943243
  0.7778313805556814  0.5555823569445084  0.1254582512044835
  0.6111115761991738  0.0555472036044157  0.1251039199347887
  0.4444971417452223  0.5556153254193554  0.6244469321056759
  0.9444772966377292  0.0555700316724601  0.1251121976255865
  0.2777932130701368  0.7222383001379771  0.6248791721032054
  0.1111722490578713  0.2222527911955998  0.6250351851969494
  0.4444971417452223  0.2222151496592029  0.6244469321056759
  0.6111245888203253  0.7222438416114876  0.6248645166736866
  0.9444914733161022  0.7222456676911190  0.6248182510042098
  0.7777931370101570  0.2222340792264847  0.6248560958506660
  0.1111413112778672  0.7222373223055988  0.1251284977709280
  0.4444557156015158  0.7222537944447908  0.1249661116151640
  0.2778443718419225  0.2222436622529176  0.1253460713901961
  0.7778280360331549  0.7222483111382292  0.1252037707995494
  0.6111245888203253  0.2222140805421656  0.1251354833263143
  0.9444772966377292  0.2222405982986048  0.1251121976255865
  0.1111518321404583  0.3889149443098721  0.6250781157919576
  0.2777932130701368  0.8888882462654898  0.6248791721032054
  0.6111115761991738  0.8888977059280876  0.6248960800652122
  0.4446306448496032  0.3889819890914661  0.6192791116559367
  0.9444858862536701  0.8889106024195623  0.6248831626951722
  0.1111419927058884  0.8888995680293523  0.1251111108473703
  0.7778280360331549  0.3889130582282536  0.6247962292004501
  0.4444487313930197  0.8888910323631743  0.1251154342163475
  0.2778443718419225  0.3889340429223335  0.1253460713901961
  0.2778050320389561  0.5555880309147976  0.1249749073844983
  0.6111832946306268  0.3889059663209257  0.1261179360939606
  0.7777931370101570  0.8888923911169999  0.1251439041493335
  0.9444858862536701  0.3889086171674360  0.1251168373048279
  0.1111419927058884  0.5555757580098621  0.6248888891526289
  0.2778050320389560  0.0555503344574946  0.6250250926155015
  0.7778313805556814  0.5555823569445084  0.6245417487955166
  0.6111115761991738  0.0555472036044157  0.6248960800652122
  0.9444772966377292  0.0555700316724601  0.6248878023744140
  0.0552845210343608  0.1109640932246594  0.3750000000000000
  0.5548408874523171  0.6096620932924858  0.3750000000000000
  0.3877814518850632  0.1069021065929216  0.3750000000000000
  0.8887576429257339  0.6110454881295374  0.3750000000000000
  0.7221841566403125  0.1110604868997902  0.3750000000000000
  0.0555504784728524  0.7777785369676244  0.8750000000000000
  0.3888959442012888  0.7777786197744034  0.8750000000000000
  0.2222197925910085  0.2777765629621723  0.8750000000000000
  0.7222272967991014  0.7777829815954220  0.8750000000000000
  0.5555605919300769  0.2777839606244185  0.8750000000000000
  0.8888926364591043  0.2777767449014497  0.8750000000000000
  0.2213331262416393  0.7773332297874876  0.3750000000000000
  0.0552845210343608  0.2776537611430372  0.3750000000000000
  0.3859292159267140  0.2682524977539765  0.3750000000000000
  0.5555016022550041  0.7777990875257590  0.3750000000000000
  0.8884737054877605  0.7775337137385884  0.3750000000000000
  0.7220248936158189  0.2777542976395692  0.3750000000000000
  0.0555521112144825  0.9444461793451636  0.8750000000000000
  0.3888959442012888  0.9444506577602210  0.8750000000000000
  0.2222203218545170  0.4444368432729267  0.8750000000000000
  0.5555440198032999  0.4444386765683143  0.8750000000000000
  0.7222271182635671  0.9444481654085342  0.8750000000000000
  0.8888887044780419  0.4444401067133092  0.8750000000000000
  0.0545522274151093  0.4443383814072877  0.3750000000000000
  0.2210420305923624  0.9429986403788195  0.3750000000000000
  0.5555329000923198  0.9444331167128241  0.3750000000000000
  0.3859292159267140  0.4510100515060741  0.3750000000000000
  0.8885869438750732  0.9443490945209407  0.3750000000000000
  0.7225602236561538  0.4451574062167741  0.3750000000000000
  0.2222228177869891  0.6111047814143522  0.8750000000000000
  0.0555529260967778  0.1111108751163005  0.8750000000000000
  0.5555605919300769  0.6111099646389945  0.8750000000000000
  0.3888970507641162  0.1111247863030669  0.8750000000000000
  0.8888821130101627  0.6111077231717521  0.8750000000000000
  0.0547509482678869  0.6108615609795334  0.3750000000000000
  0.7222271182635671  0.1111122861883673  0.8750000000000000
  0.2204389660804289  0.1088536378576195  0.3750000000000000
  0.3877814518850632  0.6142126786254831  0.3750000000000000
  0.7225602236561538  0.6107361507727155  0.3750000000000000
  0.5555016022550041  0.1110358480625804  0.3750000000000000
  0.3888970507641162  0.6111055977943922  0.8750000000000000
  0.8887134988485903  0.1110234160909665  0.3750000000000000
  0.2222225423922506  0.7777779378627935  0.8750000000000000
  0.0555529260967778  0.2777753843138134  0.8750000000000000
  0.3888971947567263  0.2777961651472909  0.8750000000000000
  0.5555630291892326  0.7777813995921962  0.8750000000000000
  0.8888887044780419  0.7777819310980695  0.8750000000000000
  0.7222272967991014  0.2777776485370164  0.8750000000000000
  0.0547509482678869  0.7772227206216904  0.3750000000000000
  0.3883424295022873  0.7784497539640124  0.3750000000000000
  0.2225786217041827  0.2779559775187592  0.3750000000000000
  0.7220248936158189  0.7776039293095864  0.3750000000000000
  0.5548408874523171  0.2785121274931672  0.3750000000000000
  0.8885869438750732  0.2775711826874689  0.3750000000000000
  0.0555521112144825  0.4444392652026460  0.8750000000000000
  0.2222228177869891  0.9444513697059728  0.8750000000000000
  0.5555615205024199  0.9444474269178738  0.8750000000000000
  0.3888971947567263  0.4444343629427716  0.8750000000000000
  0.8888926364591043  0.9444492248909897  0.8750000000000000
  0.0545522274151093  0.9435471793411490  0.3750000000000000
  0.7222184893771976  0.4444413261715016  0.8750000000000000
  0.3883424295022873  0.9432260088716109  0.3750000000000000
  0.2204389660804289  0.4449186615561450  0.3750000000000000
  0.2210420305923624  0.6113767235468776  0.3750000000000000
  0.7221841566403125  0.9444570030738575  0.3750000000000000
  0.8884737054877605  0.4442733250825094  0.3750000000000000
  0.0555504784728524  0.6111052748385626  0.8750000000000000
  0.2222203218545170  0.1111168119149265  0.8750000000000000
  0.7222184893771976  0.6111104965390314  0.8750000000000000
  0.5555630291892326  0.1111149629303718  0.8750000000000000
  0.8888915991844025  0.1111124662588724  0.8750000000000000
  0.1098716537098457  0.0544887067379185  0.3750000000000000
  0.6157246926710860  0.5617996737406994  0.3750000000000000
  0.4440766164493487  0.0532221788830932  0.3750000000000000
  0.9444599269598412  0.5553192736966713  0.3750000000000000
  0.7779115805365993  0.0556224569349678  0.3750000000000000
  0.1111234963083657  0.7222284148208472  0.8750000000000000
  0.4444403690859731  0.7222444169590071  0.8750000000000000
  0.2777049739694880  0.2221809803305346  0.8750000000000000
  0.7778223966514283  0.7222907729153994  0.8750000000000000
  0.6111319158809072  0.2221790134611416  0.8750000000000000
  0.9444499354958039  0.2222120166799342  0.8750000000000000
  0.2770258138168921  0.7222815443918116  0.3750000000000000
  0.1112850157766805  0.2223091745550044  0.3750000000000000
  0.4411630893108441  0.2158396402956410  0.3750000000000000
  0.6115990486780980  0.7233695787324567  0.3750000000000000
  0.9444599269598412  0.7224739865965073  0.3750000000000000
  0.7779436413912556  0.2217933403499251  0.3750000000000000
  0.1111133072399317  0.8889011929867791  0.8750000000000000
  0.4444476498796085  0.8888904916064689  0.8750000000000000
  0.2777049739694880  0.3888573269722816  0.8750000000000000
  0.6111310881972450  0.3888546179738978  0.8750000000000000
  0.7778094106477745  0.8889424206388780  0.8750000000000000
  0.9444653455850597  0.3888689953507165  0.8750000000000000
  0.1098716537098458  0.3887162803052556  0.3750000000000000
  0.2770258138168921  0.8880776027584081  0.3750000000000000
  0.6113162238154736  0.8892399028041935  0.3750000000000000
  0.9440670386306858  0.8889440445332586  0.3750000000000000
  0.7785622317813827  0.3882041210739827  0.3750000000000000
  0.2777486668292814  0.5555472751725838  0.8750000000000000
  0.1110860935023963  0.0555499480247663  0.8750000000000000
  0.6111310881972450  0.5556098035566751  0.8750000000000000
  0.4444403690859731  0.0555292854603027  0.8750000000000000
  0.9444801339943402  0.5555559675750298  0.8750000000000000
  0.1102074092021233  0.5553408485408828  0.3750000000000000
  0.7777991735015196  0.0555662534174275  0.8750000000000000
  0.2762043522576931  0.0534816045183868  0.3750000000000000
  0.4411630893108441  0.5586567823485394  0.3750000000000000
  0.7796293801560645  0.5564813567446999  0.3750000000000000
  0.6113162238154736  0.0554096543446077  0.3750000000000000
  0.4444151158237848  0.5555746500554890  0.8750000000000000
  0.9444080286723945  0.0557091953911048  0.3750000000000000
  0.2777730036823455  0.7222219830951216  0.8750000000000000
  0.1110699170316188  0.2222016251824735  0.8750000000000000
  0.4444151158237848  0.2221737991016323  0.8750000000000000
  0.6111319158809072  0.7222862357530943  0.8750000000000000
  0.9444801339943402  0.7222574997526474  0.8750000000000000
  0.7778094106477745  0.2222003233422252  0.8750000000000000
  0.1104692322781597  0.7219012828057434  0.3750000000000000
  0.4440766164493487  0.7241877708995900  0.3750000000000000
  0.2761700902517892  0.2197433663089268  0.3750000000000000
  0.7785622317813827  0.7236914440407274  0.3750000000000000
  0.6115990486780980  0.2215628032789684  0.3750000000000000
  0.9444080286723945  0.2220321666146263  0.3750000000000000
  0.1110860935023963  0.3888694788109591  0.8750000000000000
  0.2777730036823455  0.8888843539205535  0.8750000000000000
  0.6111286543552035  0.8889191652857734  0.8750000000000000
  0.4443783544320089  0.3888558438826686  0.8750000000000000
  0.9444653455850597  0.8889296835676710  0.8750000000000000
  0.1102074092021233  0.8881998939945688  0.3750000000000000
  0.7778223966514283  0.3888649570693570  0.8750000000000000
  0.4443233275265046  0.8888283304299166  0.3750000000000000
  0.2761700902517890  0.3897600572761903  0.3750000000000000
  0.2762043522576931  0.5560560810726421  0.3750000000000000
  0.6157246926710860  0.3872583522637152  0.3750000000000000
  0.7779436413912556  0.8894836343746596  0.3750000000000000
  0.9440670386306858  0.3884563274307548  0.3750000000000000
  0.1111133072399317  0.5555454475864805  0.8750000000000000
  0.2777486668292814  0.0555347249900340  0.8750000000000000
  0.7778253789744967  0.5555793561539154  0.8750000000000000
  0.6111286543552035  0.0555428224027597  0.8750000000000000
  0.9444499354958039  0.0555712521492059  0.8750000000000000
  0.0555902609887283  0.1111273518962544  0.1248850066727616
  0.5555126541987147  0.6113207846896602  0.1249775406072314
  0.3887837965212315  0.1108839778199207  0.1247989999306155
  0.8891557767758526  0.6112445550545983  0.1248713265088502
  0.7222343387847594  0.1110706858175558  0.1249245100106939
  0.0556995207988608  0.7778535499812876  0.6250638533749119
  0.3888458426049933  0.7778170978919938  0.6251099588522390
  0.2221659432517192  0.2777496382925275  0.6248773509578078
  0.7223059849759252  0.7779334334721271  0.6252107361932054
  0.5555126541987147  0.2775252028423906  0.6250224593927683
  0.8889723798268813  0.2777789322292393  0.6250645260235220
  0.2222593413206793  0.7777963373270083  0.1249772467812703
  0.0555902609887283  0.2777962424258100  0.1248850066727616
  0.3886402239342653  0.2773620404117558  0.1268773334335714
  0.5555088302194744  0.7778887803903590  0.1247878592187046
  0.8890855047686500  0.7779299503080509  0.1248600905830991
  0.7223059849759252  0.2777058848371336  0.1247892638067943
  0.0556378495114213  0.9444903810607505  0.6251093198105681
  0.3888458426049933  0.9443620780463333  0.6251099588522390
  0.2221786189366113  0.4444957774371164  0.6251716412532072
  0.5558331074082076  0.4445832203707681  0.6237468341114293
  0.7222343387847594  0.9444969863005387  0.6250754899893062
  0.8890855047686500  0.4444888877939352  0.6251399094169025
  0.0556378495114213  0.4444808017839996  0.1248906801894332
  0.2222299937247923  0.9443984652884170  0.1249105753323659
  0.5555195806334506  0.9444264569833904  0.1249231762161150
  0.3886402239342653  0.4446115168558455  0.1268773334335714
  0.8889723798268813  0.9445267809309765  0.1249354739764783
  0.7225120075620972  0.4445119789288059  0.1248611099816783
  0.2222299937247923  0.6111648617697104  0.6250894246676348
  0.0555902609887283  0.1111273518962544  0.6251149933272385
  0.5555126541987147  0.6113207846896602  0.6250224593927683
  0.3887837965212315  0.1108839778199207  0.6252010000693845
  0.8891557767758526  0.6112445550545983  0.6251286734911504
  0.0556995207988608  0.6111793041509099  0.1249361466250868
  0.7222343387847594  0.1110706858175558  0.6250754899893062
  0.2221786189366113  0.1110161748328312  0.1248283587467929
  0.3887837965212315  0.6112331520346531  0.1247989999306155
  0.7225120075620972  0.6113333619666268  0.1248611099816783
  0.5555088302194744  0.1109533831624521  0.1247878592187046
  0.3887837965212315  0.6112331520346531  0.6252010000693845
  0.8889331232900016  0.1111332283116719  0.1249743675418183
  0.2222593413206793  0.7777963373270083  0.6250227532187290
  0.0555902609887283  0.2777962424258100  0.6251149933272385
  0.3886402239342653  0.2773620404117558  0.6231226665664297
  0.5555088302194744  0.7778887803903590  0.6252121407812956
  0.8890855047686500  0.7779299503080509  0.6251399094169025
  0.7223059849759252  0.2777058848371336  0.6252107361932054
  0.0556995207988608  0.7778535499812876  0.1249361466250868
  0.3888458426049933  0.7778170978919938  0.1248900411477600
  0.2221659432517192  0.2777496382925275  0.1251226490421933
  0.7223059849759252  0.7779334334721271  0.1247892638067943
  0.5555126541987147  0.2775252028423906  0.1249775406072314
  0.8889723798268813  0.2777789322292393  0.1249354739764783
  0.0556378495114213  0.4444808017839996  0.6251093198105681
  0.2222299937247923  0.9443984652884170  0.6250894246676348
  0.5555195806334506  0.9444264569833904  0.6250768237838850
  0.3886402239342653  0.4446115168558455  0.6231226665664297
  0.8889723798268813  0.9445267809309765  0.6250645260235220
  0.0556378495114213  0.9444903810607505  0.1248906801894332
  0.7225120075620972  0.4445119789288059  0.6251388900183222
  0.3888458426049933  0.9443620780463333  0.1248900411477600
  0.2221786189366113  0.4444957774371164  0.1248283587467929
  0.2222299937247923  0.6111648617697104  0.1249105753323659
  0.5558331074082076  0.4445832203707681  0.1262531658885708
  0.7222343387847594  0.9444969863005387  0.1249245100106939
  0.8890855047686500  0.4444888877939352  0.1248600905830991
  0.0556995207988608  0.6111793041509099  0.6250638533749119
  0.2221786189366113  0.1110161748328312  0.6251716412532072
  0.7225120075620972  0.6113333619666268  0.6251388900183222
  0.5555088302194744  0.1109533831624521  0.6252121407812956
  0.8889331232900016  0.1111332283116719  0.6250256324581820
 
  0.00000000E+00  0.00000000E+00  0.00000000E+00
  0.00000000E+00  0.00000000E+00  0.00000000E+00
  0.00000000E+00  0.00000000E+00  0.00000000E+00
  0.00000000E+00  0.00000000E+00  0.00000000E+00
  0.00000000E+00  0.00000000E+00  0.00000000E+00
  0.00000000E+00  0.00000000E+00  0.00000000E+00
  0.00000000E+00  0.00000000E+00  0.00000000E+00
  0.00000000E+00  0.00000000E+00  0.00000000E+00
  0.00000000E+00  0.00000000E+00  0.00000000E+00
  0.00000000E+00  0.00000000E+00  0.00000000E+00
  0.00000000E+00  0.00000000E+00  0.00000000E+00
  0.00000000E+00  0.00000000E+00  0.00000000E+00
  0.00000000E+00  0.00000000E+00  0.00000000E+00
  0.00000000E+00  0.00000000E+00  0.00000000E+00
  0.00000000E+00  0.00000000E+00  0.00000000E+00
  0.00000000E+00  0.00000000E+00  0.00000000E+00
  0.00000000E+00  0.00000000E+00  0.00000000E+00
  0.00000000E+00  0.00000000E+00  0.00000000E+00
  0.00000000E+00  0.00000000E+00  0.00000000E+00
  0.00000000E+00  0.00000000E+00  0.00000000E+00
  0.00000000E+00  0.00000000E+00  0.00000000E+00
  0.00000000E+00  0.00000000E+00  0.00000000E+00
  0.00000000E+00  0.00000000E+00  0.00000000E+00
  0.00000000E+00  0.00000000E+00  0.00000000E+00
  0.00000000E+00  0.00000000E+00  0.00000000E+00
  0.00000000E+00  0.00000000E+00  0.00000000E+00
  0.00000000E+00  0.00000000E+00  0.00000000E+00
  0.00000000E+00  0.00000000E+00  0.00000000E+00
  0.00000000E+00  0.00000000E+00  0.00000000E+00
  0.00000000E+00  0.00000000E+00  0.00000000E+00
  0.00000000E+00  0.00000000E+00  0.00000000E+00
  0.00000000E+00  0.00000000E+00  0.00000000E+00
  0.00000000E+00  0.00000000E+00  0.00000000E+00
  0.00000000E+00  0.00000000E+00  0.00000000E+00
  0.00000000E+00  0.00000000E+00  0.00000000E+00
  0.00000000E+00  0.00000000E+00  0.00000000E+00
  0.00000000E+00  0.00000000E+00  0.00000000E+00
  0.00000000E+00  0.00000000E+00  0.00000000E+00
  0.00000000E+00  0.00000000E+00  0.00000000E+00
  0.00000000E+00  0.00000000E+00  0.00000000E+00
  0.00000000E+00  0.00000000E+00  0.00000000E+00
  0.00000000E+00  0.00000000E+00  0.00000000E+00
  0.00000000E+00  0.00000000E+00  0.00000000E+00
  0.00000000E+00  0.00000000E+00  0.00000000E+00
  0.00000000E+00  0.00000000E+00  0.00000000E+00
  0.00000000E+00  0.00000000E+00  0.00000000E+00
  0.00000000E+00  0.00000000E+00  0.00000000E+00
  0.00000000E+00  0.00000000E+00  0.00000000E+00
  0.00000000E+00  0.00000000E+00  0.00000000E+00
  0.00000000E+00  0.00000000E+00  0.00000000E+00
  0.00000000E+00  0.00000000E+00  0.00000000E+00
  0.00000000E+00  0.00000000E+00  0.00000000E+00
  0.00000000E+00  0.00000000E+00  0.00000000E+00
  0.00000000E+00  0.00000000E+00  0.00000000E+00
  0.00000000E+00  0.00000000E+00  0.00000000E+00
  0.00000000E+00  0.00000000E+00  0.00000000E+00
  0.00000000E+00  0.00000000E+00  0.00000000E+00
  0.00000000E+00  0.00000000E+00  0.00000000E+00
  0.00000000E+00  0.00000000E+00  0.00000000E+00
  0.00000000E+00  0.00000000E+00  0.00000000E+00
  0.00000000E+00  0.00000000E+00  0.00000000E+00
  0.00000000E+00  0.00000000E+00  0.00000000E+00
  0.00000000E+00  0.00000000E+00  0.00000000E+00
  0.00000000E+00  0.00000000E+00  0.00000000E+00
  0.00000000E+00  0.00000000E+00  0.00000000E+00
  0.00000000E+00  0.00000000E+00  0.00000000E+00
  0.00000000E+00  0.00000000E+00  0.00000000E+00
  0.00000000E+00  0.00000000E+00  0.00000000E+00
  0.00000000E+00  0.00000000E+00  0.00000000E+00
  0.00000000E+00  0.00000000E+00  0.00000000E+00
  0.00000000E+00  0.00000000E+00  0.00000000E+00
  0.00000000E+00  0.00000000E+00  0.00000000E+00
  0.00000000E+00  0.00000000E+00  0.00000000E+00
  0.00000000E+00  0.00000000E+00  0.00000000E+00
  0.00000000E+00  0.00000000E+00  0.00000000E+00
  0.00000000E+00  0.00000000E+00  0.00000000E+00
  0.00000000E+00  0.00000000E+00  0.00000000E+00
  0.00000000E+00  0.00000000E+00  0.00000000E+00
  0.00000000E+00  0.00000000E+00  0.00000000E+00
  0.00000000E+00  0.00000000E+00  0.00000000E+00
  0.00000000E+00  0.00000000E+00  0.00000000E+00
  0.00000000E+00  0.00000000E+00  0.00000000E+00
  0.00000000E+00  0.00000000E+00  0.00000000E+00
  0.00000000E+00  0.00000000E+00  0.00000000E+00
  0.00000000E+00  0.00000000E+00  0.00000000E+00
  0.00000000E+00  0.00000000E+00  0.00000000E+00
  0.00000000E+00  0.00000000E+00  0.00000000E+00
  0.00000000E+00  0.00000000E+00  0.00000000E+00
  0.00000000E+00  0.00000000E+00  0.00000000E+00
  0.00000000E+00  0.00000000E+00  0.00000000E+00
  0.00000000E+00  0.00000000E+00  0.00000000E+00
  0.00000000E+00  0.00000000E+00  0.00000000E+00
  0.00000000E+00  0.00000000E+00  0.00000000E+00
  0.00000000E+00  0.00000000E+00  0.00000000E+00
  0.00000000E+00  0.00000000E+00  0.00000000E+00
  0.00000000E+00  0.00000000E+00  0.00000000E+00
  0.00000000E+00  0.00000000E+00  0.00000000E+00
  0.00000000E+00  0.00000000E+00  0.00000000E+00
  0.00000000E+00  0.00000000E+00  0.00000000E+00
  0.00000000E+00  0.00000000E+00  0.00000000E+00
  0.00000000E+00  0.00000000E+00  0.00000000E+00
  0.00000000E+00  0.00000000E+00  0.00000000E+00
  0.00000000E+00  0.00000000E+00  0.00000000E+00
  0.00000000E+00  0.00000000E+00  0.00000000E+00
  0.00000000E+00  0.00000000E+00  0.00000000E+00
  0.00000000E+00  0.00000000E+00  0.00000000E+00
  0.00000000E+00  0.00000000E+00  0.00000000E+00
  0.00000000E+00  0.00000000E+00  0.00000000E+00
  0.00000000E+00  0.00000000E+00  0.00000000E+00
  0.00000000E+00  0.00000000E+00  0.00000000E+00
  0.00000000E+00  0.00000000E+00  0.00000000E+00
  0.00000000E+00  0.00000000E+00  0.00000000E+00
  0.00000000E+00  0.00000000E+00  0.00000000E+00
  0.00000000E+00  0.00000000E+00  0.00000000E+00
  0.00000000E+00  0.00000000E+00  0.00000000E+00
  0.00000000E+00  0.00000000E+00  0.00000000E+00
  0.00000000E+00  0.00000000E+00  0.00000000E+00
  0.00000000E+00  0.00000000E+00  0.00000000E+00
  0.00000000E+00  0.00000000E+00  0.00000000E+00
  0.00000000E+00  0.00000000E+00  0.00000000E+00
  0.00000000E+00  0.00000000E+00  0.00000000E+00
  0.00000000E+00  0.00000000E+00  0.00000000E+00
  0.00000000E+00  0.00000000E+00  0.00000000E+00
  0.00000000E+00  0.00000000E+00  0.00000000E+00
  0.00000000E+00  0.00000000E+00  0.00000000E+00
  0.00000000E+00  0.00000000E+00  0.00000000E+00
  0.00000000E+00  0.00000000E+00  0.00000000E+00
  0.00000000E+00  0.00000000E+00  0.00000000E+00
  0.00000000E+00  0.00000000E+00  0.00000000E+00
  0.00000000E+00  0.00000000E+00  0.00000000E+00
  0.00000000E+00  0.00000000E+00  0.00000000E+00
  0.00000000E+00  0.00000000E+00  0.00000000E+00
  0.00000000E+00  0.00000000E+00  0.00000000E+00
  0.00000000E+00  0.00000000E+00  0.00000000E+00
  0.00000000E+00  0.00000000E+00  0.00000000E+00
  0.00000000E+00  0.00000000E+00  0.00000000E+00
  0.00000000E+00  0.00000000E+00  0.00000000E+00
  0.00000000E+00  0.00000000E+00  0.00000000E+00
  0.00000000E+00  0.00000000E+00  0.00000000E+00
  0.00000000E+00  0.00000000E+00  0.00000000E+00
  0.00000000E+00  0.00000000E+00  0.00000000E+00
  0.00000000E+00  0.00000000E+00  0.00000000E+00
  0.00000000E+00  0.00000000E+00  0.00000000E+00
  0.00000000E+00  0.00000000E+00  0.00000000E+00
  0.00000000E+00  0.00000000E+00  0.00000000E+00
  0.00000000E+00  0.00000000E+00  0.00000000E+00
  0.00000000E+00  0.00000000E+00  0.00000000E+00
  0.00000000E+00  0.00000000E+00  0.00000000E+00
  0.00000000E+00  0.00000000E+00  0.00000000E+00
  0.00000000E+00  0.00000000E+00  0.00000000E+00
  0.00000000E+00  0.00000000E+00  0.00000000E+00
  0.00000000E+00  0.00000000E+00  0.00000000E+00
  0.00000000E+00  0.00000000E+00  0.00000000E+00
  0.00000000E+00  0.00000000E+00  0.00000000E+00
  0.00000000E+00  0.00000000E+00  0.00000000E+00
  0.00000000E+00  0.00000000E+00  0.00000000E+00
  0.00000000E+00  0.00000000E+00  0.00000000E+00
  0.00000000E+00  0.00000000E+00  0.00000000E+00
  0.00000000E+00  0.00000000E+00  0.00000000E+00
  0.00000000E+00  0.00000000E+00  0.00000000E+00
  0.00000000E+00  0.00000000E+00  0.00000000E+00
  0.00000000E+00  0.00000000E+00  0.00000000E+00
  0.00000000E+00  0.00000000E+00  0.00000000E+00
  0.00000000E+00  0.00000000E+00  0.00000000E+00
  0.00000000E+00  0.00000000E+00  0.00000000E+00
  0.00000000E+00  0.00000000E+00  0.00000000E+00
  0.00000000E+00  0.00000000E+00  0.00000000E+00
  0.00000000E+00  0.00000000E+00  0.00000000E+00
  0.00000000E+00  0.00000000E+00  0.00000000E+00
  0.00000000E+00  0.00000000E+00  0.00000000E+00
  0.00000000E+00  0.00000000E+00  0.00000000E+00
  0.00000000E+00  0.00000000E+00  0.00000000E+00
  0.00000000E+00  0.00000000E+00  0.00000000E+00
  0.00000000E+00  0.00000000E+00  0.00000000E+00
  0.00000000E+00  0.00000000E+00  0.00000000E+00
  0.00000000E+00  0.00000000E+00  0.00000000E+00
  0.00000000E+00  0.00000000E+00  0.00000000E+00
  0.00000000E+00  0.00000000E+00  0.00000000E+00
  0.00000000E+00  0.00000000E+00  0.00000000E+00
  0.00000000E+00  0.00000000E+00  0.00000000E+00
  0.00000000E+00  0.00000000E+00  0.00000000E+00
  0.00000000E+00  0.00000000E+00  0.00000000E+00
  0.00000000E+00  0.00000000E+00  0.00000000E+00
  0.00000000E+00  0.00000000E+00  0.00000000E+00
  0.00000000E+00  0.00000000E+00  0.00000000E+00
  0.00000000E+00  0.00000000E+00  0.00000000E+00
  0.00000000E+00  0.00000000E+00  0.00000000E+00
  0.00000000E+00  0.00000000E+00  0.00000000E+00
  0.00000000E+00  0.00000000E+00  0.00000000E+00
  0.00000000E+00  0.00000000E+00  0.00000000E+00
  0.00000000E+00  0.00000000E+00  0.00000000E+00
  0.00000000E+00  0.00000000E+00  0.00000000E+00
  0.00000000E+00  0.00000000E+00  0.00000000E+00
  0.00000000E+00  0.00000000E+00  0.00000000E+00
  0.00000000E+00  0.00000000E+00  0.00000000E+00
  0.00000000E+00  0.00000000E+00  0.00000000E+00
  0.00000000E+00  0.00000000E+00  0.00000000E+00
  0.00000000E+00  0.00000000E+00  0.00000000E+00
  0.00000000E+00  0.00000000E+00  0.00000000E+00
  0.00000000E+00  0.00000000E+00  0.00000000E+00
  0.00000000E+00  0.00000000E+00  0.00000000E+00
  0.00000000E+00  0.00000000E+00  0.00000000E+00
  0.00000000E+00  0.00000000E+00  0.00000000E+00
  0.00000000E+00  0.00000000E+00  0.00000000E+00
  0.00000000E+00  0.00000000E+00  0.00000000E+00
  0.00000000E+00  0.00000000E+00  0.00000000E+00
  0.00000000E+00  0.00000000E+00  0.00000000E+00
  0.00000000E+00  0.00000000E+00  0.00000000E+00
  0.00000000E+00  0.00000000E+00  0.00000000E+00
  0.00000000E+00  0.00000000E+00  0.00000000E+00
  0.00000000E+00  0.00000000E+00  0.00000000E+00
  0.00000000E+00  0.00000000E+00  0.00000000E+00
  0.00000000E+00  0.00000000E+00  0.00000000E+00
  0.00000000E+00  0.00000000E+00  0.00000000E+00
  0.00000000E+00  0.00000000E+00  0.00000000E+00
  0.00000000E+00  0.00000000E+00  0.00000000E+00
  0.00000000E+00  0.00000000E+00  0.00000000E+00
  0.00000000E+00  0.00000000E+00  0.00000000E+00
  0.00000000E+00  0.00000000E+00  0.00000000E+00
  0.00000000E+00  0.00000000E+00  0.00000000E+00
  0.00000000E+00  0.00000000E+00  0.00000000E+00
  0.00000000E+00  0.00000000E+00  0.00000000E+00
  0.00000000E+00  0.00000000E+00  0.00000000E+00
  0.00000000E+00  0.00000000E+00  0.00000000E+00
  0.00000000E+00  0.00000000E+00  0.00000000E+00
  0.00000000E+00  0.00000000E+00  0.00000000E+00
  0.00000000E+00  0.00000000E+00  0.00000000E+00
  0.00000000E+00  0.00000000E+00  0.00000000E+00
  0.00000000E+00  0.00000000E+00  0.00000000E+00
  0.00000000E+00  0.00000000E+00  0.00000000E+00
  0.00000000E+00  0.00000000E+00  0.00000000E+00
  0.00000000E+00  0.00000000E+00  0.00000000E+00
  0.00000000E+00  0.00000000E+00  0.00000000E+00
  0.00000000E+00  0.00000000E+00  0.00000000E+00
  0.00000000E+00  0.00000000E+00  0.00000000E+00
  0.00000000E+00  0.00000000E+00  0.00000000E+00
  0.00000000E+00  0.00000000E+00  0.00000000E+00
  0.00000000E+00  0.00000000E+00  0.00000000E+00
  0.00000000E+00  0.00000000E+00  0.00000000E+00
  0.00000000E+00  0.00000000E+00  0.00000000E+00
  0.00000000E+00  0.00000000E+00  0.00000000E+00
  0.00000000E+00  0.00000000E+00  0.00000000E+00
  0.00000000E+00  0.00000000E+00  0.00000000E+00
  0.00000000E+00  0.00000000E+00  0.00000000E+00
  0.00000000E+00  0.00000000E+00  0.00000000E+00
  0.00000000E+00  0.00000000E+00  0.00000000E+00
  0.00000000E+00  0.00000000E+00  0.00000000E+00
  0.00000000E+00  0.00000000E+00  0.00000000E+00