B N O S                                 
   1.0000000000000000     
     8.7639499999999995  -15.1796066749929999    0.0000000000000000
     8.7639499999999995   15.1796066749929999    0.0000000000000000
     0.0000000000000000    0.0000000000000000   15.0000000000000000
   B    N    O    S 
    48    48     1     1
Selective dynamics
Direct
  0.9052355782524728  0.9528902425370660  0.1102891976094398   T   T   T
  0.9045753864199568  0.0954266347760324  0.1094067105257182   T   T   T
  0.9043769082843625  0.2382242225164433  0.1098410789300459   T   T   T
  0.9045422659242988  0.3811054701674337  0.1114375229207738   T   T   T
  0.9051421130611601  0.5240298480592145  0.1140573828169451   T   T   T
  0.9056409237069829  0.6670593715700406  0.1140182566120700   T   T   T
  0.9056344561453287  0.8100698067877730  0.1131003336570657   T   T   T
  0.0477487102209366  0.9522533109750668  0.1113315877194623   T   T   T
  0.0471117786589375  0.0947664429435235  0.1102891976094398   T   T   T
  0.0469066016914184  0.2377522037325761  0.1091745846935126   T   T   T
  0.0470797274580406  0.3808263802429508  0.1087440980990380   T   T   T
  0.0475663771042107  0.5238032712925644  0.1094545260891380   T   T   T
  0.0481227022676549  0.6666768475123916  0.1112701974331429   T   T   T
  0.0480944483727868  0.8095345633857107  0.1118533035781155   T   T   T
  0.1904674578102998  0.9519075728232238  0.1118533035781155   T   T   T
  0.1899322144082163  0.0943675650506677  0.1131003336570657   T   T   T
  0.1888450309119207  0.2364715554839520  0.1110668200030602   T   T   T
  0.1893041077187902  0.3801108892300462  0.1116270691467989   T   T   T
  0.1899427808882450  0.5234757250983719  0.1101198778888914   T   T   T
  0.1909014773270243  0.6664377705529390  0.1091262007328169   T   T   T
  0.1907545412549254  0.8092474799410780  0.1098887980636718   T   T   T
  0.3333251736846137  0.9518793189283414  0.1112701974331429   T   T   T
  0.3329426496269505  0.0943610974890063  0.1140182566120700   T   T   T
  0.3320578648245984  0.2363163944552795  0.1118785220540630   T   T   T
  0.3304953016967147  0.3774734068561756  0.1172121611280872   T   T   T
  0.3314562831797048  0.5225885513591777  0.1241991181787512   T   T   T
  0.3339481894786971  0.6660538317183082  0.1138233891002258   T   T   T
  0.3335642506440593  0.8091005438689862  0.1091262007328169   T   T   T
  0.4761987499044409  0.9524356440917998  0.1094545260891380   T   T   T
  0.4759721731377837  0.0948599081348434  0.1140573828169451   T   T   T
  0.4756574734440662  0.2370401532112751  0.1128472822088327   T   T   T
  0.4718173534556698  0.3731570889463356  0.0847691600691078   T   T   T
  0.4774134698378205  0.6685457380172934  0.1241991181787512   T   T   T
  0.4765262960986263  0.8100592403077513  0.1101198778888914   T   T   T
  0.6191756409530456  0.9529222937379558  0.1087440980990380   T   T   T
  0.6188965510285911  0.0954597552716976  0.1114375229207738   T   T   T
  0.6187967983208296  0.2381547201623491  0.1140591643184834   T   T   T
  0.6190291830972185  0.3809728380987991  0.1054986502060800   T   T   T
  0.6268449322496750  0.5281846677413213  0.0847691600691078   T   T   T
  0.6225286143398350  0.6695067195002906  0.1172121611280872   T   T   T
  0.6198911319659572  0.8106979134772132  0.1116270691467989   T   T   T
  0.7622498174634273  0.9530954195045851  0.1091745846935126   T   T   T
  0.7617777986795673  0.0956251129116410  0.1098410789300459   T   T   T
  0.7616618002930338  0.2383402209029768  0.1122552831992394   T   T   T
  0.7618473010336544  0.3812052228751668  0.1140591643184834   T   T   T
  0.7629618679847283  0.5243445477529320  0.1128472822088327   T   T   T
  0.7636856267407168  0.6679441563724069  0.1118785220540630   T   T   T
  0.7635304657120514  0.8111569902840898  0.1110668200030602   T   T   T
  0.9527662344062975  0.9050741850557813  0.1113310789772015   T   T   T
  0.9522349368526335  0.0477664650653580  0.1097177228834809   T   T   T
  0.9518716792255333  0.1905012462396272  0.1092831217827879   T   T   T
  0.9519237384295209  0.3333773763568715  0.1096119078605184   T   T   T
  0.9523559009315719  0.4762719603435244  0.1114665137640358   T   T   T
  0.9529011253955275  0.6191929620978982  0.1137057824110883   T   T   T
  0.9530062825807093  0.7621757596917718  0.1134152961683981   T   T   T
  0.0953895673100078  0.9046118346079908  0.1113535237325394   T   T   T
  0.0949272168622244  0.0472351675117082  0.1113310789772015   T   T   T
  0.0941012517037407  0.1896264811663997  0.1097934875691706   T   T   T
  0.0942958924196660  0.3328584888875596  0.1089601156749822   T   T   T
  0.0947860089826591  0.4760008988141777  0.1081203691232346   T   T   T
  0.0955588946396659  0.6189738331666703  0.1094308509248805   T   T   T
  0.0955806096261114  0.7618259880038067  0.1107637327870847   T   T   T
  0.2381754139141918  0.9044207922918872  0.1107637327870847   T   T   T
  0.2378256422262197  0.0469951193372822  0.1134152961683981   T   T   T
  0.2371070659119923  0.1893185684132064  0.1137150899374149   T   T   T
  0.2356435992541819  0.3310141045579300  0.1117533720261150   T   T   T
  0.2366121330127839  0.4754128459971128  0.1133132661379861   T   T   T
  0.2384668928864784  0.6187493685490111  0.1102212606136774   T   T   T
  0.2383631604495022  0.7616382414685106  0.1089482304247298   T   T   T
  0.3810275687513212  0.9044425072783326  0.1094308509248805   T   T   T
  0.3808084398201004  0.0471002765224853  0.1137057824110883   T   T   T
  0.3804330498771265  0.1895265205508210  0.1135481503350348   T   T   T
  0.3796024278251906  0.3314117422507223  0.1054537567447795   T   T   T
  0.3697051847823829  0.4683134507359199  0.1363866875862456   T   T   T
  0.3815718610719401  0.6184295408460514  0.1224003810283989   T   T   T
  0.3812520333689946  0.7615345090315273  0.1102212606136774   T   T   T
  0.5240005031028190  0.9052153929353395  0.1081203691232346   T   T   T
  0.5237294415734866  0.0476455009864409  0.1114665137640358   T   T   T
  0.5235981085042951  0.1901367213017124  0.1158020897344940   T   T   T
  0.5232545724565654  0.3321576327718319  0.1039378476455184   T   T   T
  0.5316879511810768  0.6302962171356157  0.1363866875862456   T   T   T
  0.5245885559198911  0.7633892689052146  0.1133132661379861   T   T   T
  0.6671429130294371  0.9057055094983326  0.1089601156749822   T   T   T
  0.6666240255601323  0.0480776634884847  0.1096119078605184   T   T   T
  0.6664481588106881  0.1907334084096277  0.1131399762772674   T   T   T
  0.6663837808118487  0.3336176211051409  0.1126391901878065   T   T   T
  0.6678437691451720  0.4767468294604456  0.1039378476455184   T   T   T
  0.6685896596662744  0.6203989740928080  0.1054537567447795   T   T   T
  0.6689872973590667  0.7643578026638238  0.1117533720261150   T   T   T
  0.8103749207516060  0.9059001502142507  0.1097934875691706   T   T   T
  0.8095001556783714  0.0481297226924724  0.1092831217827879   T   T   T
  0.8092239465556688  0.1907774553623298  0.1106258712242010   T   T   T
  0.8092679935083638  0.3335532431063015  0.1131399762772674   T   T   T
  0.8098646806162932  0.4764032934127087  0.1158020897344940   T   T   T
  0.8104748813671847  0.6195683520408721  0.1135481503350348   T   T   T
  0.8106828335047851  0.7628943360060063  0.1137150899374149   T   T   T
  0.4741907277632507  0.5258112934337476  0.1538903718856730   T   T   T
  0.5231528301444541  0.4768485717725497  0.0215810653185500   T   T   T

  0.00000000E+00  0.00000000E+00  0.00000000E+00
  0.00000000E+00  0.00000000E+00  0.00000000E+00
  0.00000000E+00  0.00000000E+00  0.00000000E+00
  0.00000000E+00  0.00000000E+00  0.00000000E+00
  0.00000000E+00  0.00000000E+00  0.00000000E+00
  0.00000000E+00  0.00000000E+00  0.00000000E+00
  0.00000000E+00  0.00000000E+00  0.00000000E+00
  0.00000000E+00  0.00000000E+00  0.00000000E+00
  0.00000000E+00  0.00000000E+00  0.00000000E+00
  0.00000000E+00  0.00000000E+00  0.00000000E+00
  0.00000000E+00  0.00000000E+00  0.00000000E+00
  0.00000000E+00  0.00000000E+00  0.00000000E+00
  0.00000000E+00  0.00000000E+00  0.00000000E+00
  0.00000000E+00  0.00000000E+00  0.00000000E+00
  0.00000000E+00  0.00000000E+00  0.00000000E+00
  0.00000000E+00  0.00000000E+00  0.00000000E+00
  0.00000000E+00  0.00000000E+00  0.00000000E+00
  0.00000000E+00  0.00000000E+00  0.00000000E+00
  0.00000000E+00  0.00000000E+00  0.00000000E+00
  0.00000000E+00  0.00000000E+00  0.00000000E+00
  0.00000000E+00  0.00000000E+00  0.00000000E+00
  0.00000000E+00  0.00000000E+00  0.00000000E+00
  0.00000000E+00  0.00000000E+00  0.00000000E+00
  0.00000000E+00  0.00000000E+00  0.00000000E+00
  0.00000000E+00  0.00000000E+00  0.00000000E+00
  0.00000000E+00  0.00000000E+00  0.00000000E+00
  0.00000000E+00  0.00000000E+00  0.00000000E+00
  0.00000000E+00  0.00000000E+00  0.00000000E+00
  0.00000000E+00  0.00000000E+00  0.00000000E+00
  0.00000000E+00  0.00000000E+00  0.00000000E+00
  0.00000000E+00  0.00000000E+00  0.00000000E+00
  0.00000000E+00  0.00000000E+00  0.00000000E+00
  0.00000000E+00  0.00000000E+00  0.00000000E+00
  0.00000000E+00  0.00000000E+00  0.00000000E+00
  0.00000000E+00  0.00000000E+00  0.00000000E+00
  0.00000000E+00  0.00000000E+00  0.00000000E+00
  0.00000000E+00  0.00000000E+00  0.00000000E+00
  0.00000000E+00  0.00000000E+00  0.00000000E+00
  0.00000000E+00  0.00000000E+00  0.00000000E+00
  0.00000000E+00  0.00000000E+00  0.00000000E+00
  0.00000000E+00  0.00000000E+00  0.00000000E+00
  0.00000000E+00  0.00000000E+00  0.00000000E+00
  0.00000000E+00  0.00000000E+00  0.00000000E+00
  0.00000000E+00  0.00000000E+00  0.00000000E+00
  0.00000000E+00  0.00000000E+00  0.00000000E+00
  0.00000000E+00  0.00000000E+00  0.00000000E+00
  0.00000000E+00  0.00000000E+00  0.00000000E+00
  0.00000000E+00  0.00000000E+00  0.00000000E+00
  0.00000000E+00  0.00000000E+00  0.00000000E+00
  0.00000000E+00  0.00000000E+00  0.00000000E+00
  0.00000000E+00  0.00000000E+00  0.00000000E+00
  0.00000000E+00  0.00000000E+00  0.00000000E+00
  0.00000000E+00  0.00000000E+00  0.00000000E+00
  0.00000000E+00  0.00000000E+00  0.00000000E+00
  0.00000000E+00  0.00000000E+00  0.00000000E+00
  0.00000000E+00  0.00000000E+00  0.00000000E+00
  0.00000000E+00  0.00000000E+00  0.00000000E+00
  0.00000000E+00  0.00000000E+00  0.00000000E+00
  0.00000000E+00  0.00000000E+00  0.00000000E+00
  0.00000000E+00  0.00000000E+00  0.00000000E+00
  0.00000000E+00  0.00000000E+00  0.00000000E+00
  0.00000000E+00  0.00000000E+00  0.00000000E+00
  0.00000000E+00  0.00000000E+00  0.00000000E+00
  0.00000000E+00  0.00000000E+00  0.00000000E+00
  0.00000000E+00  0.00000000E+00  0.00000000E+00
  0.00000000E+00  0.00000000E+00  0.00000000E+00
  0.00000000E+00  0.00000000E+00  0.00000000E+00
  0.00000000E+00  0.00000000E+00  0.00000000E+00
  0.00000000E+00  0.00000000E+00  0.00000000E+00
  0.00000000E+00  0.00000000E+00  0.00000000E+00
  0.00000000E+00  0.00000000E+00  0.00000000E+00
  0.00000000E+00  0.00000000E+00  0.00000000E+00
  0.00000000E+00  0.00000000E+00  0.00000000E+00
  0.00000000E+00  0.00000000E+00  0.00000000E+00
  0.00000000E+00  0.00000000E+00  0.00000000E+00
  0.00000000E+00  0.00000000E+00  0.00000000E+00
  0.00000000E+00  0.00000000E+00  0.00000000E+00
  0.00000000E+00  0.00000000E+00  0.00000000E+00
  0.00000000E+00  0.00000000E+00  0.00000000E+00
  0.00000000E+00  0.00000000E+00  0.00000000E+00
  0.00000000E+00  0.00000000E+00  0.00000000E+00
  0.00000000E+00  0.00000000E+00  0.00000000E+00
  0.00000000E+00  0.00000000E+00  0.00000000E+00
  0.00000000E+00  0.00000000E+00  0.00000000E+00
  0.00000000E+00  0.00000000E+00  0.00000000E+00
  0.00000000E+00  0.00000000E+00  0.00000000E+00
  0.00000000E+00  0.00000000E+00  0.00000000E+00
  0.00000000E+00  0.00000000E+00  0.00000000E+00
  0.00000000E+00  0.00000000E+00  0.00000000E+00
  0.00000000E+00  0.00000000E+00  0.00000000E+00
  0.00000000E+00  0.00000000E+00  0.00000000E+00
  0.00000000E+00  0.00000000E+00  0.00000000E+00
  0.00000000E+00  0.00000000E+00  0.00000000E+00
  0.00000000E+00  0.00000000E+00  0.00000000E+00
  0.00000000E+00  0.00000000E+00  0.00000000E+00
  0.00000000E+00  0.00000000E+00  0.00000000E+00
  0.00000000E+00  0.00000000E+00  0.00000000E+00
  0.00000000E+00  0.00000000E+00  0.00000000E+00
