 B O S N 
 1.0
 17.527899999999772   0.000000000000000   0.000000000000000
 -8.763949999999658  15.179606674993195   0.000000000000000
  0.000000000000001   0.000000000000002  15.000000000000000
 B O S N 
  48   1   1  48
Cartesian
  7.515796250968922  14.464499086151532   1.654337964141600 
 15.018992659784786   1.448538782218393   1.641100657885770 
 13.764042835794363   3.616149998255663   1.647616183950690 
 12.514737097620561   5.785031138830002   1.671562843811610 
 11.272669056626128   7.954566979495316   1.710860742254175 
 10.027908567172389  10.125698889301361   1.710273849181050 
  8.774458900672078  12.296541046326126   1.696505004855990 
 -7.508565786838063  14.454830715561499   1.669973815791930 
 -0.004757822478876   1.438517329870879   1.654337964141600 
 -1.261474202115033   3.608984938773353   1.637618770402695 
 -2.512334600218295   5.780794663549396   1.631161471485570 
 -3.756846978199398   7.951127633295876   1.641817891337070 
 -4.999143420255886  10.119737783328796   1.669052961497145 
 -6.251725755150563  12.288416262007440   1.677799553671740 
 -5.003975819090655  14.449582546403983   1.677799553671740 
  2.502080239199957   1.432462520345975   1.696505004855990 
  1.237631928637517   3.589545202070221   1.666002300045900 
 -0.013169357983396   5.769933791394005   1.674406037201985 
 -1.258417011844672   7.946155610900151   1.651798168333365 
 -2.494525294796901  10.116263230352976   1.636893010992255 
 -3.748677928167178  12.284058448235010   1.648331970955080 
 -2.499589423788452  14.449153663392622   1.669052961497145 
  5.008809528057417   1.432364345303799   1.710273849181050 
  3.749211983672733   3.587189918683678   1.678177830810945 
  2.484730534592720   5.729897846346431   1.758182416921305 
  1.229792651261386   7.932688662486803   1.862986772681265 
  0.016147991876139  10.110435189856023   1.707350836503390 
 -1.244235882576398  12.281828016454284   1.636893010992255 
 -0.000334294588063  14.457598460557332   1.641817891337070 
  7.511445161643331   1.439936094712904   1.710860742254175 
  6.259868578044264   3.598176291927280   1.692709233132495 
  4.999637319964417   5.664377838190831   1.271537401036620 
  2.508954137273807  10.148261347345553   1.862986772681265 
  1.253186586292161  12.296380651315454   1.651798168333365 
  2.501485380856320  14.464985610774503   1.631161471485570 
 10.011352334560533   1.449041538315484   1.671562843811610 
  8.759032341520799   3.615094979857529   1.710887464777245 
  7.511454713953764   5.783017836195631   1.582479753091200 
  6.358291269127566   8.017635508075220   1.271537401036620 
  5.044095884922706  10.162848668279413   1.758182416921305 
  3.760473793167613  12.306075458821757   1.674406037201985 
  5.007757973750145  14.467613591817237   1.637618770402695 
 12.514311369173464   1.451551602250524   1.647616183950690 
 11.261530090373533   3.617910808138182   1.683829247988585 
 10.012719794770920   5.786545345698154   1.710887464777245 
  8.777789926570211   7.959343997066695   1.692709233132495 
  7.531976107708712  10.139129574593287   1.678177830810945 
  6.274146344954109  12.313044064183764   1.666002300045900 
  3.703383772072864   7.981608619593727   2.308355578285095 
  4.990693450902979   7.238373763039572   0.323715979778250 
  8.767966375930612  13.738670140836760   1.669966184658030 
 16.272055838149523   0.725076151946938   1.645765843252215 
 15.014768209315287   2.891733989013564   1.639246826741820 
 13.763907428152031   5.059868891664398   1.644178617907770 
 12.518775349085818   7.229621028342651   1.671997706460540 
 11.275779475642395   9.399105620570062   1.705586736166320 
 10.024528571295747  11.569528249335232   1.701229442525970 
 -6.255994091059327  13.731651842893301   1.670302855988085 
  1.249908118125137   0.717011264055145   1.669966184658030 
 -0.012479669880226   2.878455399268957   1.646902313537565 
 -1.264346180943375   5.052660939745754   1.634401735124730 
 -2.510248390315226   7.225506420942457   1.621805536848525 
 -3.749708975826246   9.395779329582908   1.641462763873215 
 -5.001277500100215  11.564218852685874   1.661455991806275 
 -3.751583765059662  13.728751895676561   1.661455991806275 
  3.756721198260951   0.713367427184308   1.701229442525970 
  2.496810472953898   2.873781404785257   1.705726349061225 
  1.229346381726965   5.024663911064450   1.676300580391725 
 -0.019180605441512   7.216580010475288   1.699698992069790 
 -1.242864676670050   9.392372044974392   1.653318909205155 
 -2.496953826274925  11.561368934125488   1.634223456370950 
 -1.247875789345446  13.729081520629764   1.641462763873215 
  6.261987783893427   0.714963671894739   1.705586736166320 
  5.007191505159905   2.876938036441477   1.703222255025525 
  3.749157456178977   5.030699894840184   1.581806351171685 
  2.375879841770141   7.108813982780068   2.045800313793690 
  1.268267849185233   9.387517186239691   1.836005715425985 
  0.008497155261729  11.559794316532633   1.653318909205155 
  1.251365975420425  13.740813620907861   1.621805536848525 
  8.762314490585700   0.723239964807175   1.671997706460540 
  7.511226567400239   2.886200643832789   1.737031346017410 
  6.260540934830724   5.042022219573240   1.559067714682770 
  3.795488707341211   9.567648664854756   2.045800313793690 
  2.504630366086539  11.587948841891777   1.699698992069790 
  3.756056465320909  13.748253397559008   1.634401735124730 
 11.263916427736623   0.729800021607884   1.644178617907770 
 10.009858628186212   2.895258119438992   1.697099644159005 
  8.756500121207569   5.064184268222949   1.689587852817105 
  7.527713425149793   7.236829354759629   1.559067714682770 
  6.281827106663879   9.417412408298118   1.581806351171685 
  5.027148884724479  11.602650803398914   1.676300580391725 
  6.264906951972014  13.751207967069583   1.646902313537565 
 13.767031295524060   0.730590259848220   1.639246826741820 
 12.512032332910298   2.895926734856241   1.659388068363015 
 11.261524518493706   5.063207035522050   1.697099644159005 
 10.020052492069990   7.231614612676299   1.737031346017410 
  8.776056614247310   9.404803892254154   1.703222255025525 
  7.523599821348760  11.580435955151270   1.705726349061225 
