 As B N 
 1.0
 17.527899999999772   0.000000000000000   0.000000000000000
 -8.763949999999658  15.179606674993195   0.000000000000000
  0.000000000000001   0.000000000000002  15.000000000000000
 As B N 
   1  49  47
Cartesian
  4.860279047937664   7.454039455333562   1.661560428556755 
  7.537111278345080  14.476057162684004   1.665110445384780 
 15.012088300522699   1.425321148147516   1.665835276761585 
 13.753245101247686   3.584546034209084   1.665773407356105 
 12.512795743228804   5.759537239321473   1.665001010131860 
 11.311825336881185   7.949783890065932   1.665150837283080 
 10.106236440438266  10.150724164630587   1.665059591975910 
  8.843481453385820  12.346911805132089   1.665201569523510 
 -7.484103349214334  14.480491793079805   1.664835787470705 
 -0.001560533251234   1.449487340420965   1.664802535544940 
 -1.280420246192777   3.590645676880754   1.664667955089915 
 -2.539991738416969   5.757156099465505   1.664629562804760 
 -3.774354273031977   7.942846193970242   1.665117608596230 
 -4.983053454281666  10.132297235383438   1.665453550745970 
 -6.218188223296929  12.314978161589918   1.665506579477235 
 -4.991693599983700  14.469038532995961   1.665507803828400 
  2.498249606301813   1.438259200067229   1.665858826265175 
  1.226503660815506   3.613881547316065   1.665631591960845 
 -0.062075480058077   5.756000251422155   1.664955853222785 
 -1.334598285652694   7.939382725619471   1.664874355370100 
 -2.535174130255422  10.123573569298454   1.665776434192395 
 -3.745776751512287  12.300760409013566   1.665283953093675 
 -2.498695931879204  14.456462066466800   1.665780157159575 
  5.011119049554845   1.440224986723506   1.666614187562130 
  3.713364418885478   3.566328387188768   1.666144996245945 
  2.445239450864224   5.809577524834848   1.666012203749385 
  1.075135801262959   7.932920690562727   1.665939837339000 
 -0.089120119767816  10.119737783328796   1.665745698539655 
 -1.265168326892379  12.289078186015079   1.665459310254885 
  0.006252499630458  14.423367989931689   1.665460929204390 
  7.520662346461462   1.420048566155150   1.666200959202855 
  6.269175609726264   3.578339818413381   1.665861335323485 
  4.950680237051310   5.598352445048411   1.665127231588560 
  3.289514195713532   8.415128260811198   1.666079468246745 
  2.411938562288976   9.976871142607301   1.665989513551155 
  1.248246401192959  12.226099533146940   1.665095626905390 
  2.494851284777400  14.417108084576853   1.665892967933730 
 10.014770366513096   1.414430246375715   1.665858600543690 
  8.768984229938845   3.589912390732877   1.664753800015170 
  7.533551165751238   5.770374520078445   1.664794700203830 
  6.550230662841342   8.087899389919651   1.664697764641215 
  5.387026826732649  10.290724422780764   1.666648431291135 
  3.721206113496886  12.244418852232874   1.665492291341940 
  5.000990718628559  14.433650266738184   1.666019219843940 
 12.508659675010602   1.413252820668399   1.666497987642945 
 11.263110109425826   3.584197631890599   1.665568722970200 
 10.033923977240342   5.762471768896028   1.664437058861475 
  8.884626132876424   7.962345893826797   1.664659567374300 
  7.712835799232591  10.224204215455407   1.665316067728200 
  6.338371177750159  12.337302303755646   1.665746359899135 
  8.794531644953118  13.768643737554358   1.664599232801580 
 16.275001688652221   0.724222934424699   1.664856323641635 
 15.002622795701884   2.862885845642726   1.665204591076800 
 13.749785790292115   5.028087303817290   1.664875263578745 
 12.525902617448825   7.207738884329681   1.664915266939590 
 11.314664160297063   9.399954555482346   1.665004432597110 
 10.067232466283070  11.594110754689131   1.665173557651485 
 -6.239413800300296  13.753185749557064   1.664961132174210 
  1.251065932605567   0.730634441892762   1.664732569406220 
 -0.019029235464385   2.888407950353066   1.664639733874005 
 -1.295274139036421   5.029840205011431   1.664306138446350 
 -2.552351595183553   7.203592537868973   1.664415518986590 
 -3.763865228746189   9.390539120961812   1.665291092795685 
 -4.986918663833232  11.577005320409247   1.665209579464260 
 -3.746979733718597  13.741647439447263   1.665082854981360 
  3.757687019273395   0.728539592264558   1.665921922540650 
  2.470449613789197   2.872431457998788   1.665782449866615 
  1.209391852815633   5.066630840835711   1.665331572979245 
 -0.114766004026737   7.195912232496571   1.664840899598220 
 -1.313455820289632   9.385413812834807   1.665309484892490 
 -2.509512182894453  11.567314889326264   1.665348579968520 
 -1.251314018765521  13.725835896949885   1.665188701872780 
  6.263339257210347   0.717721287970942   1.666317202194240 
  4.997425472926084   2.883950986687361   1.666065698447490 
  3.673860466834183   5.003115143664920   1.665712338406515 
  2.346088869043753   7.292045106818881   1.666092670669635 
  1.121909875210117   9.379436102480417   1.665771610319550 
 -0.022635639724781  11.553381159982477   1.665094335336540 
  1.259622655843270  13.676994906064383   1.665047017174185 
  8.770673206548139   0.689455207283530   1.665575650948545 
  7.519896491223314   2.865742958369097   1.665299746279560 
  6.269404511584375   5.028236541690246   1.665058530648645 
  2.512841120452225  11.446081827803081   1.665124164119565 
  3.751361456332242  13.678049173560071   1.665503793463140 
 11.264069750223129   0.680434288836578   1.665969447173730 
 10.014512453001574   2.861830021504027   1.665045125203485 
  8.773195318654038   5.043855530023373   1.664135549526570 
  7.647588188089173   7.238714582612674   1.664476324658550 
  6.479905075780927   9.507715191402390   1.665573628805775 
  5.035184998483847  11.578923662675942   1.665540456870555 
  6.277347198398892  13.744146625284571   1.665393174609240 
 13.761769811932284   0.688499781635955   1.666057562846565 
 12.508016273204179   2.855666432142053   1.665996208530720 
 11.267291425337715   5.031194726498915   1.664692863028725 
 10.080173395755732   7.215624711710084   1.664371065692970 
  8.875972068419522   9.422153416555762   1.664565994056855 
  7.594590535881820  11.636232645534182   1.665201286223340 
