B N Al                                  
   1.0000000000000000     
     8.7639499999999995  -15.1796066749929999    0.0000000000000000
     8.7639499999999995   15.1796066749929999    0.0000000000000000
     0.0000000000000000    0.0000000000000000   15.0000000000000000
   B    N    Al
    49    47     1
Selective dynamics
Direct
  0.9031560201959975  0.9501168773964322  0.1074605517447920   T   T   T
  0.9043087139480356  0.0932445736580205  0.1088802671549532   T   T   T
  0.9050497120619269  0.2361911942672507  0.1086709012886822   T   T   T
  0.9054296057150867  0.3791951060028826  0.1074095875503411   T   T   T
  0.9061159246425967  0.5226451721328926  0.1051649521777098   T   T   T
  0.9057763926624687  0.6660599209002023  0.1035546163768754   T   T   T
  0.9043532444007957  0.8086419013661698  0.1045616379841710   T   T   T
  0.0474589872174375  0.9525294157950815  0.1058311512084192   T   T   T
  0.0483882036093315  0.0956764215902535  0.1070910523705724   T   T   T
  0.0485704282605848  0.2378868338460265  0.1081336226412569   T   T   T
  0.0480734338006798  0.3802045864497670  0.1079209070447631   T   T   T
  0.0473303996021600  0.5232225863535285  0.1071359450041203   T   T   T
  0.0470734177573370  0.6666072652311192  0.1062503656146485   T   T   T
  0.0472778334489805  0.8097010345610235  0.1054077425274328   T   T   T
  0.1901924576581571  0.9530572321846389  0.1073958439015813   T   T   T
  0.1912580436230115  0.0964814415226777  0.1072856608314857   T   T   T
  0.1940238358475544  0.2417768284832712  0.1085565129053944   T   T   T
  0.1919550150342036  0.3824058939310219  0.1092303565938433   T   T   T
  0.1891109831220975  0.5244032727980782  0.1081683734854600   T   T   T
  0.1880170566885530  0.6672289477478296  0.1084542502690282   T   T   T
  0.1893866717809742  0.8101592848977737  0.1083044358550369   T   T   T
  0.3326122100853821  0.9528138138604215  0.1094371929597334   T   T   T
  0.3335384953509837  0.0957126760440478  0.1099767022235015   T   T   T
  0.3348722318822811  0.2396424848139879  0.1119520794916687   T   T   T
  0.3413112026917244  0.3906634933013212  0.1137625820398555   T   T   T
  0.3314105756440827  0.5273544113647454  0.1087226731414863   T   T   T
  0.3283560399065110  0.6686590000638614  0.1060114501625881   T   T   T
  0.3314152802313525  0.8104933779197584  0.1091672465390652   T   T   T
  0.4751384609534067  0.9512401122944169  0.1101257807283702   T   T   T
  0.4760697719085623  0.0939151974683591  0.1110156620944096   T   T   T
  0.4769543233640443  0.2363108475639838  0.1166029795230091   T   T   T
  0.4771626208644124  0.3763975817188782  0.1314499392767735   T   T   T
  0.4842389353898207  0.5765621096742266  0.1217589995767383   T   T   T
  0.4672260755494524  0.6641475027674704  0.1070329792884647   T   T   T
  0.4733834409780041  0.8081303478061042  0.1088230339030213   T   T   T
  0.6174225514180408  0.9489870069334798  0.1108446126384914   T   T   T
  0.6187368433938283  0.0925745089550737  0.1105165368351555   T   T   T
  0.6196694785563794  0.2353223507572420  0.1131357978507308   T   T   T
  0.6215146822225580  0.3778259162748238  0.1209614740318218   T   T   T
  0.6311134840776103  0.5236417762257293  0.1330272536401095   T   T   T
  0.6149687250992568  0.6560387212949687  0.1199391698465071   T   T   T
  0.6145391322730320  0.8037879929379967  0.1125328282700674   T   T   T
  0.7597372924569404  0.9484913836501007  0.1108219314089800   T   T   T
  0.7613337216690501  0.0923074142351047  0.1101824820480331   T   T   T
  0.7622921541902457  0.2354979614971902  0.1097000822850047   T   T   T
  0.7633662469457833  0.3785918453288553  0.1098399673008554   T   T   T
  0.7656650822055103  0.5221349872618337  0.1083701571960166   T   T   T
  0.7642013722222307  0.6652252611660360  0.1061139560214710   T   T   T
  0.7577359116769389  0.8040251010190208  0.1103152396349349   T   T   T
  0.9516602802871690  0.9036575741692472  0.1056269176272706   T   T   T
  0.9521842702367328  0.0460873328584525  0.1077227126385503   T   T   T
  0.9529224931472990  0.1889288710035815  0.1085487094526781   T   T   T
  0.9528680645964542  0.3316602464654208  0.1078716169013669   T   T   T
  0.9525720660083571  0.4746136813326314  0.1063064958175635   T   T   T
  0.9522359069962372  0.6179916266188281  0.1043927096272322   T   T   T
  0.9518269184790852  0.7611530541490058  0.1036632028928368   T   T   T
  0.0948976533177438  0.9050525175253603  0.1060482089196199   T   T   T
  0.0959118796914827  0.0482348729259096  0.1063714960668038   T   T   T
  0.0978860246045625  0.1920539029181975  0.1076702268200929   T   T   T
  0.0967021750367553  0.3333654049966527  0.1083295044971937   T   T   T
  0.0946271771648077  0.4754925038333760  0.1077788072747004   T   T   T
  0.0935785826828773  0.6185546591448923  0.1075985579536881   T   T   T
  0.0942937694186298  0.7619302231658063  0.1068155427776186   T   T   T
  0.2374558675570760  0.9054543054973557  0.1085550780304475   T   T   T
  0.2385125102073185  0.0487516513695032  0.1077946035086144   T   T   T
  0.2403685092091229  0.1929078577182299  0.1084139676180638   T   T   T
  0.2445475871130376  0.3392293942086150  0.1100244602494884   T   T   T
  0.2376359315976836  0.4772272674872506  0.1092748371640085   T   T   T
  0.2344934388481261  0.6193694000116349  0.1080200676273773   T   T   T
  0.2363735596006995  0.7624381895396026  0.1090409515150256   T   T   T
  0.3799747406262081  0.9052519876164523  0.1098689554313305   T   T   T
  0.3809212669984714  0.0480952539560693  0.1099372353745047   T   T   T
  0.3821276606747283  0.1917796805834087  0.1129896536408926   T   T   T
  0.3850614292260771  0.3376309123957605  0.1167459249318435   T   T   T
  0.3914017558990265  0.4906853853435876  0.1147355789526613   T   T   T
  0.3742311371814081  0.6210733263621969  0.1034082688037997   T   T   T
  0.3784446595124755  0.7628529901913665  0.1078998823718712   T   T   T
  0.5222686895565922  0.9029596411353031  0.1102360539999437   T   T   T
  0.5234876259857698  0.0462947195249911  0.1103632507750212   T   T   T
  0.5243782878152881  0.1892532912621655  0.1134194963273319   T   T   T
  0.5258091812567117  0.3322298977280740  0.1248120696369406   T   T   T
  0.5194777727776843  0.7582344199277402  0.1090030464089023   T   T   T
  0.6639244181338377  0.8994745907008012  0.1117697987796435   T   T   T
  0.6659041065900028  0.0444420607271126  0.1105351579260431   T   T   T
  0.6669094478194187  0.1879477253546655  0.1107835903650344   T   T   T
  0.6678814291135126  0.3307863187840973  0.1146459772633376   T   T   T
  0.6707141148264314  0.4731428037831736  0.1190544489569563   T   T   T
  0.6680179640820790  0.6148211503473422  0.1134903321649543   T   T   T
  0.6593056936814337  0.7516635233770955  0.1156531937615550   T   T   T
  0.8064586468840120  0.8999200533110769  0.1095352512808908   T   T   T
  0.8084924180106076  0.0442124182744918  0.1101300259863570   T   T   T
  0.8095899404141604  0.1878452591793352  0.1094633630946067   T   T   T
  0.8101499048636605  0.3309543144258613  0.1086011215481116   T   T   T
  0.8111231836888187  0.4739760440285581  0.1063801896463749   T   T   T
  0.8104423413868986  0.6171089678875338  0.1044395268988808   T   T   T
  0.8081012544132191  0.7592378327265812  0.1057294955118104   T   T   T
  0.5198269056128287  0.5010754949956601  0.2064350643707053   T   T   T

  0.00000000E+00  0.00000000E+00  0.00000000E+00
  0.00000000E+00  0.00000000E+00  0.00000000E+00
  0.00000000E+00  0.00000000E+00  0.00000000E+00
  0.00000000E+00  0.00000000E+00  0.00000000E+00
  0.00000000E+00  0.00000000E+00  0.00000000E+00
  0.00000000E+00  0.00000000E+00  0.00000000E+00
  0.00000000E+00  0.00000000E+00  0.00000000E+00
  0.00000000E+00  0.00000000E+00  0.00000000E+00
  0.00000000E+00  0.00000000E+00  0.00000000E+00
  0.00000000E+00  0.00000000E+00  0.00000000E+00
  0.00000000E+00  0.00000000E+00  0.00000000E+00
  0.00000000E+00  0.00000000E+00  0.00000000E+00
  0.00000000E+00  0.00000000E+00  0.00000000E+00
  0.00000000E+00  0.00000000E+00  0.00000000E+00
  0.00000000E+00  0.00000000E+00  0.00000000E+00
  0.00000000E+00  0.00000000E+00  0.00000000E+00
  0.00000000E+00  0.00000000E+00  0.00000000E+00
  0.00000000E+00  0.00000000E+00  0.00000000E+00
  0.00000000E+00  0.00000000E+00  0.00000000E+00
  0.00000000E+00  0.00000000E+00  0.00000000E+00
  0.00000000E+00  0.00000000E+00  0.00000000E+00
  0.00000000E+00  0.00000000E+00  0.00000000E+00
  0.00000000E+00  0.00000000E+00  0.00000000E+00
  0.00000000E+00  0.00000000E+00  0.00000000E+00
  0.00000000E+00  0.00000000E+00  0.00000000E+00
  0.00000000E+00  0.00000000E+00  0.00000000E+00
  0.00000000E+00  0.00000000E+00  0.00000000E+00
  0.00000000E+00  0.00000000E+00  0.00000000E+00
  0.00000000E+00  0.00000000E+00  0.00000000E+00
  0.00000000E+00  0.00000000E+00  0.00000000E+00
  0.00000000E+00  0.00000000E+00  0.00000000E+00
  0.00000000E+00  0.00000000E+00  0.00000000E+00
  0.00000000E+00  0.00000000E+00  0.00000000E+00
  0.00000000E+00  0.00000000E+00  0.00000000E+00
  0.00000000E+00  0.00000000E+00  0.00000000E+00
  0.00000000E+00  0.00000000E+00  0.00000000E+00
  0.00000000E+00  0.00000000E+00  0.00000000E+00
  0.00000000E+00  0.00000000E+00  0.00000000E+00
  0.00000000E+00  0.00000000E+00  0.00000000E+00
  0.00000000E+00  0.00000000E+00  0.00000000E+00
  0.00000000E+00  0.00000000E+00  0.00000000E+00
  0.00000000E+00  0.00000000E+00  0.00000000E+00
  0.00000000E+00  0.00000000E+00  0.00000000E+00
  0.00000000E+00  0.00000000E+00  0.00000000E+00
  0.00000000E+00  0.00000000E+00  0.00000000E+00
  0.00000000E+00  0.00000000E+00  0.00000000E+00
  0.00000000E+00  0.00000000E+00  0.00000000E+00
  0.00000000E+00  0.00000000E+00  0.00000000E+00
  0.00000000E+00  0.00000000E+00  0.00000000E+00
  0.00000000E+00  0.00000000E+00  0.00000000E+00
  0.00000000E+00  0.00000000E+00  0.00000000E+00
  0.00000000E+00  0.00000000E+00  0.00000000E+00
  0.00000000E+00  0.00000000E+00  0.00000000E+00
  0.00000000E+00  0.00000000E+00  0.00000000E+00
  0.00000000E+00  0.00000000E+00  0.00000000E+00
  0.00000000E+00  0.00000000E+00  0.00000000E+00
  0.00000000E+00  0.00000000E+00  0.00000000E+00
  0.00000000E+00  0.00000000E+00  0.00000000E+00
  0.00000000E+00  0.00000000E+00  0.00000000E+00
  0.00000000E+00  0.00000000E+00  0.00000000E+00
  0.00000000E+00  0.00000000E+00  0.00000000E+00
  0.00000000E+00  0.00000000E+00  0.00000000E+00
  0.00000000E+00  0.00000000E+00  0.00000000E+00
  0.00000000E+00  0.00000000E+00  0.00000000E+00
  0.00000000E+00  0.00000000E+00  0.00000000E+00
  0.00000000E+00  0.00000000E+00  0.00000000E+00
  0.00000000E+00  0.00000000E+00  0.00000000E+00
  0.00000000E+00  0.00000000E+00  0.00000000E+00
  0.00000000E+00  0.00000000E+00  0.00000000E+00
  0.00000000E+00  0.00000000E+00  0.00000000E+00
  0.00000000E+00  0.00000000E+00  0.00000000E+00
  0.00000000E+00  0.00000000E+00  0.00000000E+00
  0.00000000E+00  0.00000000E+00  0.00000000E+00
  0.00000000E+00  0.00000000E+00  0.00000000E+00
  0.00000000E+00  0.00000000E+00  0.00000000E+00
  0.00000000E+00  0.00000000E+00  0.00000000E+00
  0.00000000E+00  0.00000000E+00  0.00000000E+00
  0.00000000E+00  0.00000000E+00  0.00000000E+00
  0.00000000E+00  0.00000000E+00  0.00000000E+00
  0.00000000E+00  0.00000000E+00  0.00000000E+00
  0.00000000E+00  0.00000000E+00  0.00000000E+00
  0.00000000E+00  0.00000000E+00  0.00000000E+00
  0.00000000E+00  0.00000000E+00  0.00000000E+00
  0.00000000E+00  0.00000000E+00  0.00000000E+00
  0.00000000E+00  0.00000000E+00  0.00000000E+00
  0.00000000E+00  0.00000000E+00  0.00000000E+00
  0.00000000E+00  0.00000000E+00  0.00000000E+00
  0.00000000E+00  0.00000000E+00  0.00000000E+00
  0.00000000E+00  0.00000000E+00  0.00000000E+00
  0.00000000E+00  0.00000000E+00  0.00000000E+00
  0.00000000E+00  0.00000000E+00  0.00000000E+00
  0.00000000E+00  0.00000000E+00  0.00000000E+00
  0.00000000E+00  0.00000000E+00  0.00000000E+00
  0.00000000E+00  0.00000000E+00  0.00000000E+00
  0.00000000E+00  0.00000000E+00  0.00000000E+00
  0.00000000E+00  0.00000000E+00  0.00000000E+00
  0.00000000E+00  0.00000000E+00  0.00000000E+00
