As B N                                  
   1.0000000000000000     
     8.7639499999999995  -15.1796066749929999    0.0000000000000000
     8.7639499999999995   15.1796066749929999    0.0000000000000000
     0.0000000000000000    0.0000000000000000   15.0000000000000000
   As   B    N 
     1    49    47
Selective dynamics
Direct
  0.5229250007328166  0.4931708459623763  0.1109165619285287   T   T   T
  0.9058943313942730  0.9529331909182855  0.1110102645862073   T   T   T
  0.9034400873120014  0.0937788288896164  0.1110784692561151   T   T   T
  0.9028330749022759  0.2361625326823457  0.1110570889771850   T   T   T
  0.9035827328154966  0.3794643132624699  0.1109679713421156   T   T   T
  0.9069209502581548  0.5237737375935806  0.1109771262587943   T   T   T
  0.9096283652606332  0.6684523949492209  0.1109822376318725   T   T   T
  0.9096683508798087  0.8126237492360154  0.1109899889924638   T   T   T
  0.0496180518229065  0.9536259402454207  0.1109665453606564   T   T   T
  0.0476239599680664  0.0954451441162709  0.1109742862938301   T   T   T
  0.0453981724768653  0.2367091146848437  0.1109568445898813   T   T   T
  0.0447200817704571  0.3792655965962300  0.1109098369683431   T   T   T
  0.0461359250603717  0.5230828435003403  0.1109427913177352   T   T   T
  0.0490198645932469  0.6672853895062987  0.1110123156001973   T   T   T
  0.0504490465636586  0.8109490354733175  0.1110179537207083   T   T   T
  0.1920706528514030  0.9530515037839763  0.1110185273001184   T   T   T
  0.1901984053225202  0.0949947898131411  0.1110495198035673   T   T   T
  0.1895761842157505  0.2387018938401504  0.1110408579517319   T   T   T
  0.1864008418186446  0.3797031065208360  0.1109684215053774   T   T   T
  0.1854519661707221  0.5227824822576219  0.1109270242573230   T   T   T
  0.1887973095843433  0.6664410938039165  0.1109984252645450   T   T   T
  0.1917795928288422  0.8099588852654015  0.1109975102402810   T   T   T
  0.3342778711460161  0.9520191905872237  0.1110023912197129   T   T   T
  0.3338577403723438  0.0950629352682760  0.1111040873995427   T   T   T
  0.3300926388504659  0.2358910559744676  0.1111449222705378   T   T   T
  0.3321054111091032  0.3852726364892733  0.1111449974624639   T   T   T
  0.3235248673816649  0.5232341123144295  0.1110368282381666   T   T   T
  0.3285800506675704  0.6656858938968141  0.1109906273030253   T   T   T
  0.3335569918502613  0.8087992490102094  0.1110081253580561   T   T   T
  0.4763183813937398  0.9496213827824049  0.1109675770493436   T   T   T
  0.4764787184947932  0.0935415810316480  0.1110327944556090   T   T   T
  0.4761830900247095  0.2362454242549706  0.1110971857152378   T   T   T
  0.4679687942217309  0.3699172741899662  0.1111138261304128   T   T   T
  0.4700874534692250  0.5646853057411623  0.1114829679684907   T   T   T
  0.4682675264793466  0.6553038931327557  0.1112404239286418   T   T   T
  0.4755999638380792  0.8042830106963970  0.1110216278798300   T   T   T
  0.6181203936106753  0.9492056281566876  0.1110322455838205   T   T   T
  0.6185225408868492  0.0930510066048016  0.1110288229069366   T   T   T
  0.6190850983165481  0.2368328950314425  0.1109931312159722   T   T   T
  0.6207577561589199  0.3811936593297841  0.1110366821121524   T   T   T
  0.6412381265751116  0.5348494827801217  0.1109606491864901   T   T   T
  0.6268807269769255  0.6683479901620167  0.1112578073576587   T   T   T
  0.6170497229666909  0.8050473267248294  0.1110872492234825   T   T   T
  0.7607438951309081  0.9503425464868326  0.1110887595503738   T   T   T
  0.7605538282360503  0.0930014463454087  0.1111456064312367   T   T   T
  0.7609363136582407  0.2362274189618576  0.1110559100184541   T   T   T
  0.7624856712102611  0.3799522991647986  0.1109593628730103   T   T   T
  0.7687395075007530  0.5248718710695078  0.1109593750221005   T   T   T
  0.7733332102328080  0.6729196835970460  0.1109599517556859   T   T   T
  0.7644850775175904  0.8106195295680735  0.1109896496602072   T   T   T
  0.9553171575683912  0.9069447754533787  0.1109590465202735   T   T   T
  0.9525925878316412  0.0477700412801156  0.1110012339422363   T   T   T
  0.9504039430437129  0.1887599219113477  0.1110184821643195   T   T   T
  0.9499391239271261  0.3312006694168723  0.1109531140607759   T   T   T
  0.9518189217774001  0.4747562273861716  0.1109417888814661   T   T   T
  0.9547635634406175  0.6192627265617681  0.1109809543760804   T   T   T
  0.9560960068826582  0.7637202352435386  0.1109939827242195   T   T   T
  0.0972427930337716  0.9059644367046477  0.1109745663763294   T   T   T
  0.0956244663339879  0.0480832206438496  0.1109461219528843   T   T   T
  0.0942297285229661  0.1903347185534367  0.1109605011400704   T   T   T
  0.0915207753911246  0.3312320762321684  0.1108930142484948   T   T   T
  0.0910962251232844  0.4742367766207010  0.1108795115836028   T   T   T
  0.0941060393248237  0.6184497607166135  0.1109716608511365   T   T   T
  0.0968523132260156  0.7625937272049442  0.1110106825874772   T   T   T
  0.2392334635119356  0.9051817818524088  0.1109847362704525   T   T   T
  0.2387426500869710  0.0479566802770410  0.1110579941560661   T   T   T
  0.2357704394102148  0.1891951200735917  0.1110815470564130   T   T   T
  0.2359875607826170  0.3338517495336243  0.1110347993206517   T   T   T
  0.2298132635636994  0.4736605145485976  0.1109416043169557   T   T   T
  0.2333210790182438  0.6178134422736961  0.1109479222440112   T   T   T
  0.2379790994793523  0.7618487904400023  0.1109927639030823   T   T   T
  0.3812437790979986  0.9041384575769864  0.1109666056961946   T   T   T
  0.3814434124894912  0.0472133953284007  0.1110327989305250   T   T   T
  0.3806119312293570  0.1899595780679499  0.1111087527821468   T   T   T
  0.3748964234323804  0.3293441237602109  0.1111450895955138   T   T   T
  0.3742935882431325  0.4804832705417953  0.1111632921010129   T   T   T
  0.3713033242778824  0.6172062965626771  0.1110071053332450   T   T   T
  0.3796953018434713  0.7610468317429505  0.1109946112588264   T   T   T
  0.5231520635149784  0.9012558770065305  0.1109581644049304   T   T   T
  0.5236043196381623  0.0454677331410538  0.1109742442577809   T   T   T
  0.5238907673779908  0.1888297828304309  0.1110178934061258   T   T   T
  0.5239496035477990  0.3314236720292914  0.1110851736221319   T   T   T
  0.5219315106437473  0.7552101859776053  0.1110986773561145   T   T   T
  0.6656980076671808  0.9019431590563443  0.1110449849436567   T   T   T
  0.6656795096007041  0.0452188497083851  0.1110609187702599   T   T   T
  0.6660008071037526  0.1886578117877483  0.1110041930137917   T   T   T
  0.6671152102257250  0.3323281714030064  0.1109618907277378   T   T   T
  0.6750500389553155  0.4767339966733531  0.1109930960185364   T   T   T
  0.6811707361768219  0.6270688326048499  0.1110442512595576   T   T   T
  0.6698877627332422  0.7625285251169478  0.1110458678804988   T   T   T
  0.8111142454699770  0.9054465144941415  0.1110097790660454   T   T   T
  0.8084123553208213  0.0458935854520229  0.1111219298740723   T   T   T
  0.8079471102408221  0.1883522061013627  0.1111097254626398   T   T   T
  0.8086947601731306  0.3314915835349079  0.1109797099560024   T   T   T
  0.8128527626694542  0.4753789346369846  0.1109339482485645   T   T   T
  0.8160175921432253  0.6207960289645575  0.1109100208385219   T   T   T
  0.8162009251402871  0.7664186369011234  0.1109412457723087   T   T   T

  0.00000000E+00  0.00000000E+00  0.00000000E+00
  0.00000000E+00  0.00000000E+00  0.00000000E+00
  0.00000000E+00  0.00000000E+00  0.00000000E+00
  0.00000000E+00  0.00000000E+00  0.00000000E+00
  0.00000000E+00  0.00000000E+00  0.00000000E+00
  0.00000000E+00  0.00000000E+00  0.00000000E+00
  0.00000000E+00  0.00000000E+00  0.00000000E+00
  0.00000000E+00  0.00000000E+00  0.00000000E+00
  0.00000000E+00  0.00000000E+00  0.00000000E+00
  0.00000000E+00  0.00000000E+00  0.00000000E+00
  0.00000000E+00  0.00000000E+00  0.00000000E+00
  0.00000000E+00  0.00000000E+00  0.00000000E+00
  0.00000000E+00  0.00000000E+00  0.00000000E+00
  0.00000000E+00  0.00000000E+00  0.00000000E+00
  0.00000000E+00  0.00000000E+00  0.00000000E+00
  0.00000000E+00  0.00000000E+00  0.00000000E+00
  0.00000000E+00  0.00000000E+00  0.00000000E+00
  0.00000000E+00  0.00000000E+00  0.00000000E+00
  0.00000000E+00  0.00000000E+00  0.00000000E+00
  0.00000000E+00  0.00000000E+00  0.00000000E+00
  0.00000000E+00  0.00000000E+00  0.00000000E+00
  0.00000000E+00  0.00000000E+00  0.00000000E+00
  0.00000000E+00  0.00000000E+00  0.00000000E+00
  0.00000000E+00  0.00000000E+00  0.00000000E+00
  0.00000000E+00  0.00000000E+00  0.00000000E+00
  0.00000000E+00  0.00000000E+00  0.00000000E+00
  0.00000000E+00  0.00000000E+00  0.00000000E+00
  0.00000000E+00  0.00000000E+00  0.00000000E+00
  0.00000000E+00  0.00000000E+00  0.00000000E+00
  0.00000000E+00  0.00000000E+00  0.00000000E+00
  0.00000000E+00  0.00000000E+00  0.00000000E+00
  0.00000000E+00  0.00000000E+00  0.00000000E+00
  0.00000000E+00  0.00000000E+00  0.00000000E+00
  0.00000000E+00  0.00000000E+00  0.00000000E+00
  0.00000000E+00  0.00000000E+00  0.00000000E+00
  0.00000000E+00  0.00000000E+00  0.00000000E+00
  0.00000000E+00  0.00000000E+00  0.00000000E+00
  0.00000000E+00  0.00000000E+00  0.00000000E+00
  0.00000000E+00  0.00000000E+00  0.00000000E+00
  0.00000000E+00  0.00000000E+00  0.00000000E+00
  0.00000000E+00  0.00000000E+00  0.00000000E+00
  0.00000000E+00  0.00000000E+00  0.00000000E+00
  0.00000000E+00  0.00000000E+00  0.00000000E+00
  0.00000000E+00  0.00000000E+00  0.00000000E+00
  0.00000000E+00  0.00000000E+00  0.00000000E+00
  0.00000000E+00  0.00000000E+00  0.00000000E+00
  0.00000000E+00  0.00000000E+00  0.00000000E+00
  0.00000000E+00  0.00000000E+00  0.00000000E+00
  0.00000000E+00  0.00000000E+00  0.00000000E+00
  0.00000000E+00  0.00000000E+00  0.00000000E+00
  0.00000000E+00  0.00000000E+00  0.00000000E+00
  0.00000000E+00  0.00000000E+00  0.00000000E+00
  0.00000000E+00  0.00000000E+00  0.00000000E+00
  0.00000000E+00  0.00000000E+00  0.00000000E+00
  0.00000000E+00  0.00000000E+00  0.00000000E+00
  0.00000000E+00  0.00000000E+00  0.00000000E+00
  0.00000000E+00  0.00000000E+00  0.00000000E+00
  0.00000000E+00  0.00000000E+00  0.00000000E+00
  0.00000000E+00  0.00000000E+00  0.00000000E+00
  0.00000000E+00  0.00000000E+00  0.00000000E+00
  0.00000000E+00  0.00000000E+00  0.00000000E+00
  0.00000000E+00  0.00000000E+00  0.00000000E+00
  0.00000000E+00  0.00000000E+00  0.00000000E+00
  0.00000000E+00  0.00000000E+00  0.00000000E+00
  0.00000000E+00  0.00000000E+00  0.00000000E+00
  0.00000000E+00  0.00000000E+00  0.00000000E+00
  0.00000000E+00  0.00000000E+00  0.00000000E+00
  0.00000000E+00  0.00000000E+00  0.00000000E+00
  0.00000000E+00  0.00000000E+00  0.00000000E+00
  0.00000000E+00  0.00000000E+00  0.00000000E+00
  0.00000000E+00  0.00000000E+00  0.00000000E+00
  0.00000000E+00  0.00000000E+00  0.00000000E+00
  0.00000000E+00  0.00000000E+00  0.00000000E+00
  0.00000000E+00  0.00000000E+00  0.00000000E+00
  0.00000000E+00  0.00000000E+00  0.00000000E+00
  0.00000000E+00  0.00000000E+00  0.00000000E+00
  0.00000000E+00  0.00000000E+00  0.00000000E+00
  0.00000000E+00  0.00000000E+00  0.00000000E+00
  0.00000000E+00  0.00000000E+00  0.00000000E+00
  0.00000000E+00  0.00000000E+00  0.00000000E+00
  0.00000000E+00  0.00000000E+00  0.00000000E+00
  0.00000000E+00  0.00000000E+00  0.00000000E+00
  0.00000000E+00  0.00000000E+00  0.00000000E+00
  0.00000000E+00  0.00000000E+00  0.00000000E+00
  0.00000000E+00  0.00000000E+00  0.00000000E+00
  0.00000000E+00  0.00000000E+00  0.00000000E+00
  0.00000000E+00  0.00000000E+00  0.00000000E+00
  0.00000000E+00  0.00000000E+00  0.00000000E+00
  0.00000000E+00  0.00000000E+00  0.00000000E+00
  0.00000000E+00  0.00000000E+00  0.00000000E+00
  0.00000000E+00  0.00000000E+00  0.00000000E+00
  0.00000000E+00  0.00000000E+00  0.00000000E+00
  0.00000000E+00  0.00000000E+00  0.00000000E+00
  0.00000000E+00  0.00000000E+00  0.00000000E+00
  0.00000000E+00  0.00000000E+00  0.00000000E+00
  0.00000000E+00  0.00000000E+00  0.00000000E+00
  0.00000000E+00  0.00000000E+00  0.00000000E+00
