 B C N 
 1.0
 17.527899999999772   0.000000000000000   0.000000000000000
 -8.763949999999658  15.179606674993195   0.000000000000000
  0.000000000000001   0.000000000000002  15.000000000000000
 B C N 
  48   2  48
Cartesian
  7.511987382891151  14.456037148292790   1.665310775744430 
 15.024756589777599   1.445208422222747   1.665864640733190 
 13.773475345749317   3.614486178118129   1.665978098276595 
 12.521855304154075   5.783362531172046   1.665123432673215 
 11.274511169231273   7.953010924078358   1.665142097469990 
 10.026578243479708  10.125327677239859   1.666524895118130 
  8.772114172612230  12.297029259324166   1.666203399164715 
 -7.511027371093829  14.456248885687771   1.665233691551880 
  0.000663263560152   1.446042032960074   1.665310793594355 
 -1.249253618054256   3.615785972671964   1.665047385626340 
 -2.501163831793698   5.784320376141311   1.665335153591340 
 -3.753381283351137   7.952184152796783   1.665249570795375 
 -5.004033860273147  10.119737783328796   1.665422393085975 
 -6.256331058501112  12.290116476787031   1.664989673208945 
 -5.007753416919678  14.452716663010396   1.664989620168810 
  2.500482055223479   1.434244791942989   1.666203368249700 
  1.255973067040535   3.614791621343520   1.665051765040845 
  0.002805359347058   5.787366797181922   1.664894688415170 
 -1.253351267106655   7.954992580741941   1.666233611581425 
 -2.507850049804062  10.119737783328796   1.666333455072075 
 -3.756492522358172  12.288566311632694   1.665099179481540 
 -2.502031314924633  14.453383142907040   1.665422349840990 
  5.008463590734273   1.433697773192908   1.666524880058175 
  3.748656451718532   3.581075823929544   1.665690500780925 
  2.521666360477320   5.773100540644684   1.665271415460495 
  1.234084082720686   7.975699287929161   1.666216390730340 
 -0.019589854546829  10.131066435480392   1.666840809706890 
 -1.253939788538143  12.291625206709373   1.666333428342105 
  0.000480733428741  14.454062297666326   1.665249650235405 
  7.513711614151288   1.439113463327311   1.665142307770035 
  6.260993661768885   3.598904729395432   1.665449623339080 
  4.987944846947823   5.724320525825642   1.663670960453310 
  2.473848706334910  10.123035615263561   1.666216385795295 
  1.248063990627784  12.287572197886560   1.666233611206365 
  2.504015137307485  14.453544130453734   1.665335194586385 
 10.016353698502115   1.443705111955113   1.665123540943185 
  8.762518799242532   3.612599353844808   1.665325133331120 
  7.507720497497976   5.785171541329541   1.664275555307250 
  6.300531487932736   7.997784291397543   1.663670957843235 
  5.025146503927870  10.109253532638441   1.665271379250525 
  3.753360786974235  12.283520534892681   1.664894660890200 
  5.007975556011530  14.453625595409246   1.665047420936340 
 12.520465831872537   1.444209676593653   1.665978090836580 
 11.268216215564481   3.614046544657795   1.666080435593145 
 10.016621835934991   5.784769295947513   1.665325034676165 
  8.777721141150344   7.958001644305679   1.665449514829080 
  7.536992114753357  10.142662738129278   1.665690524165850 
  6.261449599849154  12.284531536137314   1.665051780340935 
  3.703459462374614   7.981560037469674   1.665569366423925 
  4.946190171700195   7.264071304959382   1.662184914692640 
  8.764869076263576  13.737137618475085   1.665342531193845 
 16.276166333056707   0.722706176817732   1.665219107228160 
 15.027281671901070   2.892746139748228   1.665514547403510 
 13.776362458189293   5.059868891664398   1.665204370075350 
 12.524223183036002   7.228743993950461   1.664427966161955 
 11.272591704032656   9.398267827327503   1.665437974700490 
 10.019474648676276  11.568780036692681   1.665837126935310 
 -6.259689425234717  13.733789025167502   1.664417619127800 
  1.249689313279862   0.720464792351470   1.665342688798875 
  0.004810768105695   2.897084501923000   1.664691771208065 
 -1.242909805970381   5.065047428106843   1.664656417949175 
 -2.498174491358763   7.229810557544789   1.665284870024310 
 -3.754806477859557   9.396953287608687   1.665417487576050 
 -5.006299398793630  11.565817588009775   1.664707429675740 
 -3.755476797517732  13.732305421757808   1.664707415830710 
  3.754844899262066   0.718124057868871   1.665836973830265 
  2.497788865544985   2.880690280736936   1.665682694376900 
  1.268338658453588   5.078800962689110   1.664378978219910 
  0.011385365691047   7.234817048387922   1.665208996703025 
 -1.254563028252922   9.398337633946110   1.666451704767510 
 -2.504210143390229  11.565560875653297   1.665800088491880 
 -1.251438921286010  13.732912467135717   1.665417348316035 
  6.261122759848448   0.718146734839451   1.665438058100550 
  5.006717570122172   2.881108182397758   1.666000501577475 
  3.744972441798599   5.029762232342504   1.664352015917250 
  2.537345821566190   7.277999290480204   1.665486364863690 
  1.241563020605184   9.402938797636608   1.665971221327545 
 -0.002515420666113  11.566949527823802   1.666451807997465 
  1.253678480090874  13.728211338611022   1.665284949044295 
  8.765801163427625   0.718962677764498   1.664428236116895 
  7.512301462606228   2.885976504814079   1.665177742433325 
  6.251226979416195   5.050012686089086   1.663869928501635 
  3.729704602601458   9.343223858938888   1.665486417858645 
  2.504121871168011  11.552365656766344   1.665208921298055 
  3.756050482073011  13.723501510309404   1.664656398524175 
 11.270141554894513   0.719017785086841   1.665204410740305 
 10.015815205092307   2.891574752216747   1.665434468059710 
  8.755852350250741   5.064561864136164   1.664825712767145 
  7.516142573781473   7.240905907163311   1.663869855856605 
  6.280551374284366   9.421509306020541   1.664352035537280 
  4.999762319331806  11.541817739082349   1.664378906444895 
  6.257421142866268  13.726924104729282   1.664691796303095 
 13.772414586177375   0.719252995126261   1.665514599393495 
 12.520824361902408   2.890853240275495   1.665956940010140 
 11.267708951284957   5.059868891664398   1.665434385319710 
 10.020786942982440   7.230800594177721   1.665177452498325 
  8.772212700237372   9.403134558684169   1.666000492127430 
  7.518108911518437  11.576138632911086   1.665682765656840 
