 B N Ga 
 1.0
 17.527899999999772   0.000000000000000   0.000000000000000
 -8.763949999999658  15.179606674993195   0.000000000000000
  0.000000000000001   0.000000000000002  15.000000000000000
 B N Ga 
  47  49   1
Cartesian
  7.528861915744672  14.518156985247497   1.665440319199275 
 15.028200857274502   1.489848807234906   1.665674417368545 
 13.767778872818745   3.641389666224387   1.666404300934425 
 12.492857588161588   5.787610936081570   1.664993728628445 
 11.157719781767145   7.929499034416030   1.665453908223675 
  9.951302250510487  10.088014446426932   1.666634312712600 
  8.764918213412745  12.335095393258813   1.666272272590875 
 -7.507917986261773  14.474585095190315   1.665528652609920 
  0.016158090397459   1.474547470597659   1.664671572126330 
 -1.238247104586083   3.638141317170737   1.665058967310435 
 -2.511532466835753   5.793426215994909   1.665206937558645 
 -3.807969378599978   7.941544526355603   1.665437626637880 
 -5.057869300410155  10.091651431263390   1.665333394206555 
 -6.288389556760745  12.264275165977958   1.665533817315360 
 -5.022153928623496  14.421608976471859   1.665846329164170 
  2.520879286390413   1.447384437492824   1.664509651455900 
  1.271458699783298   3.609301873943193   1.663477815255870 
  0.019575926913957   5.787110014899477   1.664884320827745 
 -1.264130309253696   7.946341842240128   1.666854783780450 
 -2.532122491742682  10.097191355268745   1.666297706487315 
 -3.784919138408132  12.251742548588050   1.665336602685600 
 -2.522781287836577  14.407076447365027   1.665406352322780 
  5.000474195104786   1.380907695169938   1.665729823586640 
  3.808614218375703   3.609495855222128   1.663493613952125 
  2.538709843798155   5.744450295413541   1.666379576869875 
  1.272441712587457   7.944150621047811   1.670273334619665 
 -0.009499591405323  10.108479185137140   1.668238767370545 
 -1.275854209332479  12.260612867939621   1.665207000799425 
 -0.014996165840490  14.433484027225225   1.664625094587150 
  7.518874603515282   1.362790445974527   1.665974612228670 
  6.292125448977661   3.448430431242009   1.661247823683615 
  5.228845120699697   5.677055068825454   1.662620880422955 
  2.468094782348221  10.209608084978976   1.670600097632970 
  1.219001081642364  12.322512722935789   1.664200553846955 
  2.481563191000504  14.494888830947300   1.663885013281845 
 10.009177972510914   1.429897807843446   1.666279937867160 
  8.773949941640483   3.541044939463373   1.664248681582365 
  7.526025179431848   5.620177711335044   1.661575965922905 
  4.960196206540489  10.355651627729937   1.665184704749490 
  3.723702718001454  12.396007308192422   1.662578180176065 
  5.000976131557143  14.530163225815217   1.664039131432635 
 12.516532885204400   1.479529137910480   1.666070967138645 
 11.259259144602861   3.616512406350976   1.666181138862435 
  9.981204117092599   5.757912627557234   1.664667018832905 
  8.542098073892964   7.908729033313493   1.666611671075985 
  7.515313687431118  10.199511682088582   1.663142859016695 
  6.264837701410179  12.404738891224707   1.662698532784965 
  8.765863953140737  13.772296768018506   1.666007708405265 
 16.286169932934857   0.770458820901120   1.665074752065060 
 15.028191041899229   2.926736322782429   1.665855742848720 
 13.756631678344350   5.080397356578598   1.665220523200800 
 12.442376572540173   7.227455851990132   1.664712640912260 
 11.196026129561471   9.370841518907065   1.665560810235375 
  9.974360368239079  11.546850040423285   1.666313160365520 
 -6.280070930518169  13.713050550909051   1.665334726728075 
  1.261600527825971   0.740718150867403   1.664499550014645 
  0.014632758841707   2.910169262858288   1.663916230924455 
 -1.244740769823638   5.077576177323002   1.664328213283845 
 -2.532399546384508   7.232829642642397   1.665340221203925 
 -3.798842369511623   9.380549426778849   1.665344573546985 
 -5.045765838953025  11.534296402627996   1.664882145667560 
 -3.777848965655813  13.693585214546616   1.665349387196805 
  3.747698806609197   0.685288222724550   1.665591447637110 
  2.537942853905393   2.900334455111535   1.663504525164615 
  1.276602812133513   5.043065037691677   1.663516914603450 
  0.005892106075209   7.232721164841020   1.666751066021685 
 -1.266830336706518   9.387973767471186   1.667285042340180 
 -2.529922108687667  11.537863993787557   1.665296886505710 
 -1.265290926619713  13.701781620715542   1.664346985496745 
  6.252578607832300   0.664951519815969   1.665940863889005 
  5.014322906459551   2.817087655689413   1.663589020421580 
  3.860578098679963   5.083599244972850   1.664015551854750 
  2.489816812544923   7.154396669836655   1.671608441237790 
  1.262083755255602   9.404191470353659   1.670358463403220 
 -0.013025051212953  11.558056431595309   1.665737382402015 
  1.238590959816615  13.751868856709724   1.663264110019995 
  8.770360307593233   0.683447411631064   1.665926173113150 
  7.545013893390739   2.785550897131750   1.664160280593330 
  6.344840293722950   4.846622318923669   1.656748816732815 
  5.768402018927653   7.043331456718685   1.667601938702895 
  3.764671822561009   9.651901485580906   1.676659209558150 
  2.478330602274073  11.647760334793025   1.663860419397930 
  3.742315088125465  13.817058318976935   1.662759527704245 
 11.266573846654619   0.745803581424009   1.665548518061940 
 10.024675586672254   2.865110778470855   1.665805100541345 
  8.780669260307981   4.982621631023829   1.663583325262365 
  7.258452952804956   7.032683562412858   1.665799684063350 
  6.209928455081875   9.706336700816522   1.654905411649500 
  5.000629696435745  11.754204438694787   1.660967322089415 
  6.266939459203252  13.826911898150630   1.663950148958805 
 13.772573142858565   0.778878594989857   1.665123771041505 
 12.516816291882636   2.917022797705120   1.666481687453580 
 11.244779678093623   5.059868891664398   1.665015496250490 
  9.855103197889800   7.205276875418101   1.665262356398535 
  8.670315133931425   9.361640431817699   1.666885918550010 
  7.501984840172378  11.647024555890063   1.664385932257260 
  4.151574728390733   7.916334347149061   1.678046797125030 
