Species order: X N B                    
   2.51242800000000     
     5.9449720136058266    0.0000000000000000    0.0000000000000000
    -2.9724860068029120    5.1484967885702053   -0.0000000000000001
     0.0000000000000000    0.0000000000000009    5.3101128803662583
   Sn   N    B 
     1   143   143
Direct
  0.4980196375524836  0.4156764854428921  0.3750000000000000
  0.1115666930743015  0.0557741466233761  0.1247327403044114
  0.6116129660164690  0.5558810452812974  0.1239752843340113
  0.4448857088839195  0.0557364035123957  0.1246838128180729
  0.9448593614035677  0.5557618306560275  0.1248964965004082
  0.7782488117102175  0.0557910725217940  0.1249161752740811
  0.1115204765149212  0.7224269049240987  0.6252345617880429
  0.4448857088839195  0.7224826387048294  0.6253161871819349
  0.2782557401500128  0.2224389916507265  0.6247246618867967
  0.7782354652422571  0.7224808236972455  0.6254233691046620
  0.6115599454576531  0.2223901341951428  0.6255235110421913
  0.9449188491483851  0.2224573498659921  0.6251311450076124
  0.2782011540949791  0.7224457231981903  0.1247094144188412
  0.1116050505503794  0.2224691919418718  0.1248437956923812
  0.4449148604940423  0.2223981492689921  0.1249607582129156
  0.6115599454576531  0.7225031445957681  0.1244764889578152
  0.9448593614035677  0.7224308640808262  0.1248964965004082
  0.7782401911050176  0.2224359261059113  0.1248559518551469
  0.1115334442417710  0.8890911562243845  0.6252220221810669
  0.4448849426920528  0.8891091380126690  0.6251618146676996
  0.2782557401500128  0.3891500818326850  0.6247246618867967
  0.6116129660164690  0.3890652540684733  0.6260247156659817
  0.7782401911050176  0.8891375983324411  0.6251440481448091
  0.9448940530548702  0.3891067813027024  0.6251112968666787
  0.1115666930743015  0.3891258797843249  0.1247327403044114
  0.2782011540949791  0.8890887642301682  0.1247094144188412
  0.6115694439266105  0.8891398601724407  0.1248697417205709
  0.4450321665465013  0.3891827499399607  0.1289084347757795
  0.9448940530548702  0.8891206050853401  0.1248887031333923
  0.7782354652422571  0.3890879748782249  0.1245766308952811
  0.2782200490938628  0.5558019332581046  0.6252516321432683
  0.1115666930743015  0.0557741466233761  0.6252672596956795
  0.6116129660164690  0.5558810452812974  0.6260247156659817
  0.4448857088839195  0.0557364035123957  0.6253161871819349
  0.9448593614035677  0.5557618306560275  0.6251035034994289
  0.1115334442417710  0.5557756213510003  0.1247779778189827
  0.7782488117102175  0.0557910725217940  0.6250838247258831
  0.2782200490938628  0.0557514491691650  0.1247483678568026
  0.4449148604940423  0.5558500445585004  0.1249607582129156
  0.7781941457553780  0.5557637395444915  0.1244884245067555
  0.6115694439266105  0.0557629170873764  0.1248697417205709
  0.4449148604940423  0.5558500445585004  0.6250392417871550
  0.9449188491483851  0.0557948326158996  0.1248688549923525
  0.2782011540949791  0.7224457231981903  0.6252905855812224
  0.1116050505503794  0.2224691919418718  0.6251562043075402
  0.4449148604940423  0.2223981492689921  0.6250392417871550
  0.6115599454576531  0.7225031445957681  0.6255235110421913
  0.9448593614035677  0.7224308640808262  0.6251035034994289
  0.7782401911050176  0.2224359261059113  0.6251440481448091
  0.1115204765149212  0.7224269049240987  0.1247654382119577
  0.4448857088839195  0.7224826387048294  0.1246838128180729
  0.2782557401500128  0.2224389916507265  0.1252753381133158
  0.7782354652422571  0.7224808236972455  0.1245766308952811
  0.6115599454576531  0.2223901341951428  0.1244764889578152
  0.9449188491483851  0.2224573498659921  0.1248688549923525
  0.1115666930743015  0.3891258797843249  0.6252672596956795
  0.2782011540949791  0.8890887642301682  0.6252905855812224
  0.6115694439266105  0.8891398601724407  0.6251302582794863
  0.4450321665465013  0.3891827499399607  0.6210915652241564
  0.9448940530548702  0.8891206050853401  0.6251112968666787
  0.1115334442417710  0.8890911562243845  0.1247779778189827
  0.7782354652422571  0.3890879748782249  0.6254233691046620
  0.4448849426920528  0.8891091380126690  0.1248381853324057
  0.2782557401500128  0.3891500818326921  0.1252753381133158
  0.2782200490938699  0.5558019332581046  0.1247483678568026
  0.6116129660164690  0.3890652540684733  0.1239752843340113
  0.7782401911050176  0.8891375983324411  0.1248559518551469
  0.9448940530548702  0.3891067813027024  0.1248887031333923
  0.1115334442417710  0.5557756213510003  0.6252220221810669
  0.2782200490938628  0.0557514491691650  0.6252516321432683
  0.7781941457553780  0.5557637395444915  0.6255115754933079
  0.6115694439266105  0.0557629170873764  0.6251302582794863
  0.9449188491483851  0.0557948326158996  0.6251311450076124
  0.0585398531951430  0.1127914680461331  0.3750000000000000
  0.5559184812782794  0.6251744700567536  0.3750000000000000
  0.3869933294561422  0.1028790590124194  0.3750000000000000
  0.8842650187302759  0.6087991760318554  0.3750000000000000
  0.7244647904475990  0.1107921260720289  0.3750000000000000
  0.0553278277009932  0.7776654397882765  0.8750000000000000
  0.3886653827011721  0.7776648996634750  0.8750000000000000
  0.2220021822851911  0.2776677578092815  0.8750000000000000
  0.7219984868859776  0.7776654755456508  0.8750000000000000
  0.5553296509513256  0.2776646583595390  0.8750000000000000
  0.8886666368652397  0.2776670342137392  0.8750000000000000
  0.2194163497428678  0.7763748415381658  0.3750000000000000
  0.0585398531951430  0.2790817184823879  0.3750000000000000
  0.3880743121335234  0.2655053175947896  0.3750000000000000
  0.5557706606539701  0.7841324085594207  0.3750000000000000
  0.8887833668515027  0.7788902965596379  0.3750000000000000
  0.7241396850317606  0.2749073326117725  0.3750000000000000
  0.0553302921233738  0.9443337536944277  0.8750000000000000
  0.3886653827011721  0.9443338163710039  0.8750000000000000
  0.2219998350459668  0.4443275737234298  0.8750000000000000
  0.5553211886042245  0.4443272609687766  0.8750000000000000
  0.7219973156363276  0.9443319669708331  0.8750000000000000
  0.8886664116425602  0.4443320285681190  0.8750000000000000
  0.0554939300739388  0.4447850689806190  0.3750000000000000
  0.2198458358208153  0.9413149158644309  0.3750000000000000
  0.5557689898579993  0.9445511615956931  0.3750000000000000
  0.3880743121335234  0.4559023278720764  0.3750000000000000
  0.8913393931978643  0.9468340893835356  0.3750000000000000
  0.7208957352663830  0.4397363101206886  0.3750000000000000
  0.2219968382082845  0.6109941828525273  0.8750000000000000
  0.0553317980131513  0.1109997711384905  0.8750000000000000
  0.5553296509513256  0.6109983259252133  0.8750000000000000
  0.3886684590802229  0.1110074253677833  0.8750000000000000
  0.8886614285970724  0.6109973809652068  0.8750000000000000
  0.0525570082227251  0.6100834452167765  0.3750000000000000
  0.7219973156363276  0.1109986819987974  0.8750000000000000
  0.2219686356327216  0.1087396237276329  0.3750000000000000
  0.3869933294561422  0.6174476037771650  0.3750000000000000
  0.7208957352663758  0.6144927584790087  0.3750000000000000
  0.5557706606539701  0.1049715854280932  0.3750000000000000
  0.3886684590802229  0.6109943670458741  0.8750000000000000
  0.8919504552148610  0.1126418942740738  0.3750000000000000
  0.2219956806003901  0.7776645069668265  0.8750000000000000
  0.0553317980131513  0.2776653602079542  0.8750000000000000
  0.3886743267981704  0.2776818617973350  0.8750000000000000
  0.5553307302469843  0.7776661662751765  0.8750000000000000
  0.8886664116425602  0.7776677164078516  0.8750000000000000
  0.7219984868859776  0.2776663446736988  0.8750000000000000
  0.0525570082227180  0.7758068963391002  0.3750000000000000
  0.3870985705370105  0.7792083294704478  0.3750000000000000
  0.2266912924335022  0.2800123128834228  0.3750000000000000
  0.7241396850317606  0.7825656857532807  0.3750000000000000
  0.5559184812782794  0.2640773445549311  0.3750000000000000
  0.8913393931978643  0.2778386371474166  0.3750000000000000
  0.0553302921233738  0.4443298717622249  0.8750000000000000
  0.2219968382082845  0.9443359886891209  0.8750000000000000
  0.5553294525862438  0.9443313929598678  0.8750000000000000
  0.3886743267981704  0.4443257983341643  0.8750000000000000
  0.8886666368652397  0.9443329359849429  0.8750000000000000
  0.0554939300739388  0.9440421944266977  0.3750000000000000
  0.7219971966359298  0.4443312270593556  0.8750000000000000
  0.3870985705370105  0.9412235743999988  0.3750000000000000
  0.2219686356327216  0.4465623452384245  0.3750000000000000
  0.2198458358208153  0.6118642532896195  0.3750000000000000
  0.7244647904475990  0.9470059977089061  0.3750000000000000
  0.8887833668515027  0.4432264036253711  0.3750000000000000
  0.0553278277009932  0.6109957212459870  0.8750000000000000
  0.2219998350459668  0.1110055946559076  0.8750000000000000
  0.7219971966359298  0.6109993029097552  0.8750000000000000
  0.5553307302469843  0.1109978973052499  0.8750000000000000
  0.8886662769628813  0.1109998051480658  0.8750000000000000
  0.1118780830873539  0.0551226975378662  0.3750000000000000
  0.6124277668282768  0.5745887361235417  0.3750000000000000
  0.4442154630850225  0.0505135943979547  0.3750000000000000
  0.9415407848594570  0.5542094671004352  0.3750000000000000
  0.7810548503112571  0.0571940918222749  0.3750000000000000
  0.1108849919562595  0.7221091626447611  0.8750000000000000
  0.4442156472873428  0.7221086955650609  0.8750000000000000
  0.2775384069929674  0.2221064596510305  0.8750000000000000
  0.7775597775546526  0.7221234247371905  0.8750000000000000
  0.6108865676533914  0.2220988353102966  0.8750000000000000
  0.9442241995807331  0.2221082097977310  0.8750000000000000
  0.2758455149572027  0.7224257582858039  0.3750000000000000
  0.1154090119198010  0.2243711726265573  0.3750000000000000
  0.4426277508217183  0.2115296876325177  0.3750000000000000
  0.6133989263056647  0.7330754091121424  0.3750000000000000
  0.9415407848594570  0.7206646510922665  0.3750000000000000
  0.7807271823796055  0.2212908755270929  0.3750000000000000
  0.1108848460619074  0.8887833565280018  0.8750000000000000
  0.4442173300333948  0.8887753316833089  0.8750000000000000
  0.2775384069929674  0.3887652806752792  0.8750000000000000
  0.6108919546794250  0.3887575063879924  0.8750000000000000
  0.7775592821114491  0.8887878494252658  0.8750000000000000
  0.9442254403145244  0.3887701447177934  0.8750000000000000
  0.1118780830873539  0.3900887188828378  0.3750000000000000
  0.2758455149572027  0.8867530900046569  0.3750000000000000
  0.6131930256383086  0.8929002917344478  0.3750000000000000
  0.9451700077860365  0.8898958577009878  0.3750000000000000
  0.7786268416333678  0.3861446658353865  0.3750000000000000
  0.2775453980082877  0.5554323438106000  0.8750000000000000
  0.1108833443900775  0.0554487432254099  0.8750000000000000
  0.6108919546794250  0.5554677816247769  0.8750000000000000
  0.4442156472873428  0.0554402850555948  0.8750000000000000
  0.9442240052158499  0.5554403139506967  0.8750000000000000
  0.1091083759477984  0.5555544660289290  0.3750000000000000
  0.7775585288713138  0.0554459311022612  0.8750000000000000
  0.2761192738861555  0.0517667310949445  0.3750000000000000
  0.4426277508217183  0.5644313965223148  0.3750000000000000
  0.7724927343386429  0.5529130338358981  0.3750000000000000
  0.6131930256383086  0.0536260672371702  0.3750000000000000
  0.4442122565758253  0.5554429284922907  0.8750000000000000
  0.9477778499045242  0.0577559028849308  0.3750000000000000
  0.2775492130870449  0.7221046134836279  0.8750000000000000
  0.1108808007966847  0.2221070670649998  0.8750000000000000
  0.4442122565758253  0.2221026614167929  0.8750000000000000
  0.6108865676533914  0.7221210656763394  0.8750000000000000
  0.9442240052158499  0.7221170245983666  0.8750000000000000
  0.7775592821114491  0.2221047660195344  0.8750000000000000
  0.1083773596529127  0.7208553464930784  0.3750000000000000
  0.4442154630850225  0.7270352020203742  0.3750000000000000
  0.2797597268379743  0.2204281646562227  0.3750000000000000
  0.7786268416333678  0.7258155091314886  0.3750000000000000
  0.6133989263056647  0.2136568505268645  0.3750000000000000
  0.9477778499045242  0.2233552803528308  0.3750000000000000
  0.1108833443900775  0.3887679344979402  0.8750000000000000
  0.2775492130870449  0.8887779329368445  0.8750000000000000
  0.6108873852630716  0.8887812644491861  0.8750000000000000
  0.4441955980516780  0.3887644656924356  0.8750000000000000
  0.9442254403145244  0.8887886289301177  0.8750000000000000
  0.1091083759477984  0.8868872432521631  0.3750000000000000
  0.7775597775546526  0.3887696861508402  0.8750000000000000
  0.4442483801956346  0.8887908567644093  0.3750000000000000
  0.2797597268379743  0.3926648955151013  0.3750000000000000
  0.2761192738861555  0.5576858761245056  0.3750000000000000
  0.6124277668282626  0.3711723640381701  0.3750000000000000
  0.7807271823796055  0.8927696401860481  0.3750000000000000
  0.9451700077860365  0.3886074834183284  0.3750000000000000
  0.1108848460619074  0.5554348228672050  0.8750000000000000
  0.2775453980082877  0.0554463875309651  0.8750000000000000
  0.7775559538822209  0.5554446436077208  0.8750000000000000
  0.6108873852630716  0.0554394541472553  0.8750000000000000
  0.9442241995807331  0.0554493231163508  0.8750000000000000
  0.0560429992924242  0.1113635047956432  0.1248799628002615
  0.5559815087297396  0.6114431813361382  0.1244394477197985
  0.3892901989151003  0.1112382813658594  0.1247881051714553
  0.8893451063301704  0.6113392198317489  0.1247669724051948
  0.7226832892221994  0.1113176216124172  0.1249037106570982
  0.0559940157354421  0.7780039938425284  0.6251712089672022
  0.3893069803286541  0.7780107649320285  0.6252440480097663
  0.2227006804839722  0.2780170069086638  0.6246632017284861
  0.7226773427206128  0.7780603791029591  0.6253870689223469
  0.5559815087297396  0.2778716607269365  0.6255605522801718
  0.8893634770710651  0.2779873301899830  0.6251011618138567
  0.2226419376374121  0.7779876354853593  0.1247226855422134
  0.0560429992924242  0.2780128278301017  0.1248799628002615
  0.3892049429292940  0.2777139644736836  0.1265837301797545
  0.5559843566618753  0.7780498352516029  0.1247044557635225
  0.8893575150839480  0.7780467274094471  0.1248037481180491
  0.7226773427206128  0.2779502969510411  0.1246129310776464
  0.0560146938085145  0.9446915759320729  0.6251706143816169
  0.3893069803286541  0.9446295487298536  0.6252440480097663
  0.2226663900036857  0.4446814284090434  0.6250565230595913
  0.5563095288449971  0.4448214310891628  0.6249605263828244
  0.7226832892221994  0.9446990009431465  0.6250962893429426
  0.8893575150839480  0.4446441210079285  0.6251962518819941
  0.0560146938085145  0.4446564512099126  0.1248293856183103
  0.2226494379958800  0.9446511414570978  0.1247536723146671
  0.5559985243118164  0.9446659288227438  0.1248886728566466
  0.3892049429292940  0.4448243117889390  0.1265837301797545
  0.8893634770711006  0.9447094802141833  0.1248988381860231
  0.7227525258558241  0.4446582395451677  0.1241467397959271
  0.2226494379958800  0.6113316298720615  0.6252463276853187
  0.0560429992924242  0.1113635047956432  0.6251200371996743
  0.5559815087297396  0.6114431813361382  0.6255605522801718
  0.3892901989151003  0.1112382813658594  0.6252118948284737
  0.8893451063301704  0.6113392198317489  0.6252330275949255
  0.0559940157354492  0.6113233552262567  0.1248287910328340
  0.7226832892221994  0.1113176216124172  0.6250962893429426
  0.2226663900036857  0.1113182949280349  0.1249434769402745
  0.3892901989151003  0.6113852508826042  0.1247881051714553
  0.7227525258558241  0.6114276196436866  0.1241467397959271
  0.5559843566618753  0.1112678547436302  0.1247044557635225
  0.3892901989151003  0.6113852508826042  0.6252118948284737
  0.8893703852574283  0.1113518592954105  0.1249219099749192
  0.2226419376374121  0.7779876354853593  0.6252773144579499
  0.0560429992924242  0.2780128278301017  0.6251200371996743
  0.3892049429292940  0.2777139644736836  0.6234162698202240
  0.5559843566618753  0.7780498352516029  0.6252955442363780
  0.8893575150839480  0.7780467274094471  0.6251962518819941
  0.7226773427206128  0.2779502969510411  0.6253870689223469
  0.0559940157354492  0.7780039938425284  0.1248287910328340
  0.3893069803286541  0.7780107649320285  0.1247559519901776
  0.2227006804839722  0.2780170069086638  0.1253367982715559
  0.7226773427206128  0.7780603791029591  0.1246129310776464
  0.5559815087297396  0.2778716607269365  0.1244394477197985
  0.8893634770711006  0.2779873301899830  0.1248988381860231
  0.0560146938085145  0.4446564512099126  0.6251706143816169
  0.2226494379958800  0.9446511414570978  0.6252463276853187
  0.5559985243118164  0.9446659288227438  0.6251113271433535
  0.3892049429292940  0.4448243117889390  0.6234162698202240
  0.8893634770711006  0.9447094802141833  0.6251011618138567
  0.0560146938085145  0.9446915759320729  0.1248293856183103
  0.7227525258558951  0.4446582395451606  0.6258532602039946
  0.3893069803286541  0.9446295487298536  0.1247559519901776
  0.2226663900036857  0.4446814284090434  0.1249434769402745
  0.2226494379958800  0.6113316298720615  0.1247536723146671
  0.5563095288449971  0.4448214310891628  0.1250394736172967
  0.7226832892221994  0.9446990009431465  0.1249037106570982
  0.8893575150839480  0.4446441210079285  0.1248037481180349
  0.0559940157354492  0.6113233552262567  0.6251712089672022
  0.2226663900036857  0.1113182949280349  0.6250565230595913
  0.7227525258558951  0.6114276196436866  0.6258532602039946
  0.5559843566618753  0.1112678547436302  0.6252955442363780
  0.8893703852574283  0.1113518592954105  0.6250780900249735
 
  0.00000000E+00  0.00000000E+00  0.00000000E+00
  0.00000000E+00  0.00000000E+00  0.00000000E+00
  0.00000000E+00  0.00000000E+00  0.00000000E+00
  0.00000000E+00  0.00000000E+00  0.00000000E+00
  0.00000000E+00  0.00000000E+00  0.00000000E+00
  0.00000000E+00  0.00000000E+00  0.00000000E+00
  0.00000000E+00  0.00000000E+00  0.00000000E+00
  0.00000000E+00  0.00000000E+00  0.00000000E+00
  0.00000000E+00  0.00000000E+00  0.00000000E+00
  0.00000000E+00  0.00000000E+00  0.00000000E+00
  0.00000000E+00  0.00000000E+00  0.00000000E+00
  0.00000000E+00  0.00000000E+00  0.00000000E+00
  0.00000000E+00  0.00000000E+00  0.00000000E+00
  0.00000000E+00  0.00000000E+00  0.00000000E+00
  0.00000000E+00  0.00000000E+00  0.00000000E+00
  0.00000000E+00  0.00000000E+00  0.00000000E+00
  0.00000000E+00  0.00000000E+00  0.00000000E+00
  0.00000000E+00  0.00000000E+00  0.00000000E+00
  0.00000000E+00  0.00000000E+00  0.00000000E+00
  0.00000000E+00  0.00000000E+00  0.00000000E+00
  0.00000000E+00  0.00000000E+00  0.00000000E+00
  0.00000000E+00  0.00000000E+00  0.00000000E+00
  0.00000000E+00  0.00000000E+00  0.00000000E+00
  0.00000000E+00  0.00000000E+00  0.00000000E+00
  0.00000000E+00  0.00000000E+00  0.00000000E+00
  0.00000000E+00  0.00000000E+00  0.00000000E+00
  0.00000000E+00  0.00000000E+00  0.00000000E+00
  0.00000000E+00  0.00000000E+00  0.00000000E+00
  0.00000000E+00  0.00000000E+00  0.00000000E+00
  0.00000000E+00  0.00000000E+00  0.00000000E+00
  0.00000000E+00  0.00000000E+00  0.00000000E+00
  0.00000000E+00  0.00000000E+00  0.00000000E+00
  0.00000000E+00  0.00000000E+00  0.00000000E+00
  0.00000000E+00  0.00000000E+00  0.00000000E+00
  0.00000000E+00  0.00000000E+00  0.00000000E+00
  0.00000000E+00  0.00000000E+00  0.00000000E+00
  0.00000000E+00  0.00000000E+00  0.00000000E+00
  0.00000000E+00  0.00000000E+00  0.00000000E+00
  0.00000000E+00  0.00000000E+00  0.00000000E+00
  0.00000000E+00  0.00000000E+00  0.00000000E+00
  0.00000000E+00  0.00000000E+00  0.00000000E+00
  0.00000000E+00  0.00000000E+00  0.00000000E+00
  0.00000000E+00  0.00000000E+00  0.00000000E+00
  0.00000000E+00  0.00000000E+00  0.00000000E+00
  0.00000000E+00  0.00000000E+00  0.00000000E+00
  0.00000000E+00  0.00000000E+00  0.00000000E+00
  0.00000000E+00  0.00000000E+00  0.00000000E+00
  0.00000000E+00  0.00000000E+00  0.00000000E+00
  0.00000000E+00  0.00000000E+00  0.00000000E+00
  0.00000000E+00  0.00000000E+00  0.00000000E+00
  0.00000000E+00  0.00000000E+00  0.00000000E+00
  0.00000000E+00  0.00000000E+00  0.00000000E+00
  0.00000000E+00  0.00000000E+00  0.00000000E+00
  0.00000000E+00  0.00000000E+00  0.00000000E+00
  0.00000000E+00  0.00000000E+00  0.00000000E+00
  0.00000000E+00  0.00000000E+00  0.00000000E+00
  0.00000000E+00  0.00000000E+00  0.00000000E+00
  0.00000000E+00  0.00000000E+00  0.00000000E+00
  0.00000000E+00  0.00000000E+00  0.00000000E+00
  0.00000000E+00  0.00000000E+00  0.00000000E+00
  0.00000000E+00  0.00000000E+00  0.00000000E+00
  0.00000000E+00  0.00000000E+00  0.00000000E+00
  0.00000000E+00  0.00000000E+00  0.00000000E+00
  0.00000000E+00  0.00000000E+00  0.00000000E+00
  0.00000000E+00  0.00000000E+00  0.00000000E+00
  0.00000000E+00  0.00000000E+00  0.00000000E+00
  0.00000000E+00  0.00000000E+00  0.00000000E+00
  0.00000000E+00  0.00000000E+00  0.00000000E+00
  0.00000000E+00  0.00000000E+00  0.00000000E+00
  0.00000000E+00  0.00000000E+00  0.00000000E+00
  0.00000000E+00  0.00000000E+00  0.00000000E+00
  0.00000000E+00  0.00000000E+00  0.00000000E+00
  0.00000000E+00  0.00000000E+00  0.00000000E+00
  0.00000000E+00  0.00000000E+00  0.00000000E+00
  0.00000000E+00  0.00000000E+00  0.00000000E+00
  0.00000000E+00  0.00000000E+00  0.00000000E+00
  0.00000000E+00  0.00000000E+00  0.00000000E+00
  0.00000000E+00  0.00000000E+00  0.00000000E+00
  0.00000000E+00  0.00000000E+00  0.00000000E+00
  0.00000000E+00  0.00000000E+00  0.00000000E+00
  0.00000000E+00  0.00000000E+00  0.00000000E+00
  0.00000000E+00  0.00000000E+00  0.00000000E+00
  0.00000000E+00  0.00000000E+00  0.00000000E+00
  0.00000000E+00  0.00000000E+00  0.00000000E+00
  0.00000000E+00  0.00000000E+00  0.00000000E+00
  0.00000000E+00  0.00000000E+00  0.00000000E+00
  0.00000000E+00  0.00000000E+00  0.00000000E+00
  0.00000000E+00  0.00000000E+00  0.00000000E+00
  0.00000000E+00  0.00000000E+00  0.00000000E+00
  0.00000000E+00  0.00000000E+00  0.00000000E+00
  0.00000000E+00  0.00000000E+00  0.00000000E+00
  0.00000000E+00  0.00000000E+00  0.00000000E+00
  0.00000000E+00  0.00000000E+00  0.00000000E+00
  0.00000000E+00  0.00000000E+00  0.00000000E+00
  0.00000000E+00  0.00000000E+00  0.00000000E+00
  0.00000000E+00  0.00000000E+00  0.00000000E+00
  0.00000000E+00  0.00000000E+00  0.00000000E+00
  0.00000000E+00  0.00000000E+00  0.00000000E+00
  0.00000000E+00  0.00000000E+00  0.00000000E+00
  0.00000000E+00  0.00000000E+00  0.00000000E+00
  0.00000000E+00  0.00000000E+00  0.00000000E+00
  0.00000000E+00  0.00000000E+00  0.00000000E+00
  0.00000000E+00  0.00000000E+00  0.00000000E+00
  0.00000000E+00  0.00000000E+00  0.00000000E+00
  0.00000000E+00  0.00000000E+00  0.00000000E+00
  0.00000000E+00  0.00000000E+00  0.00000000E+00
  0.00000000E+00  0.00000000E+00  0.00000000E+00
  0.00000000E+00  0.00000000E+00  0.00000000E+00
  0.00000000E+00  0.00000000E+00  0.00000000E+00
  0.00000000E+00  0.00000000E+00  0.00000000E+00
  0.00000000E+00  0.00000000E+00  0.00000000E+00
  0.00000000E+00  0.00000000E+00  0.00000000E+00
  0.00000000E+00  0.00000000E+00  0.00000000E+00
  0.00000000E+00  0.00000000E+00  0.00000000E+00
  0.00000000E+00  0.00000000E+00  0.00000000E+00
  0.00000000E+00  0.00000000E+00  0.00000000E+00
  0.00000000E+00  0.00000000E+00  0.00000000E+00
  0.00000000E+00  0.00000000E+00  0.00000000E+00
  0.00000000E+00  0.00000000E+00  0.00000000E+00
  0.00000000E+00  0.00000000E+00  0.00000000E+00
  0.00000000E+00  0.00000000E+00  0.00000000E+00
  0.00000000E+00  0.00000000E+00  0.00000000E+00
  0.00000000E+00  0.00000000E+00  0.00000000E+00
  0.00000000E+00  0.00000000E+00  0.00000000E+00
  0.00000000E+00  0.00000000E+00  0.00000000E+00
  0.00000000E+00  0.00000000E+00  0.00000000E+00
  0.00000000E+00  0.00000000E+00  0.00000000E+00
  0.00000000E+00  0.00000000E+00  0.00000000E+00
  0.00000000E+00  0.00000000E+00  0.00000000E+00
  0.00000000E+00  0.00000000E+00  0.00000000E+00
  0.00000000E+00  0.00000000E+00  0.00000000E+00
  0.00000000E+00  0.00000000E+00  0.00000000E+00
  0.00000000E+00  0.00000000E+00  0.00000000E+00
  0.00000000E+00  0.00000000E+00  0.00000000E+00
  0.00000000E+00  0.00000000E+00  0.00000000E+00
  0.00000000E+00  0.00000000E+00  0.00000000E+00
  0.00000000E+00  0.00000000E+00  0.00000000E+00
  0.00000000E+00  0.00000000E+00  0.00000000E+00
  0.00000000E+00  0.00000000E+00  0.00000000E+00
  0.00000000E+00  0.00000000E+00  0.00000000E+00
  0.00000000E+00  0.00000000E+00  0.00000000E+00
  0.00000000E+00  0.00000000E+00  0.00000000E+00
  0.00000000E+00  0.00000000E+00  0.00000000E+00
  0.00000000E+00  0.00000000E+00  0.00000000E+00
  0.00000000E+00  0.00000000E+00  0.00000000E+00
  0.00000000E+00  0.00000000E+00  0.00000000E+00
  0.00000000E+00  0.00000000E+00  0.00000000E+00
  0.00000000E+00  0.00000000E+00  0.00000000E+00
  0.00000000E+00  0.00000000E+00  0.00000000E+00
  0.00000000E+00  0.00000000E+00  0.00000000E+00
  0.00000000E+00  0.00000000E+00  0.00000000E+00
  0.00000000E+00  0.00000000E+00  0.00000000E+00
  0.00000000E+00  0.00000000E+00  0.00000000E+00
  0.00000000E+00  0.00000000E+00  0.00000000E+00
  0.00000000E+00  0.00000000E+00  0.00000000E+00
  0.00000000E+00  0.00000000E+00  0.00000000E+00
  0.00000000E+00  0.00000000E+00  0.00000000E+00
  0.00000000E+00  0.00000000E+00  0.00000000E+00
  0.00000000E+00  0.00000000E+00  0.00000000E+00
  0.00000000E+00  0.00000000E+00  0.00000000E+00
  0.00000000E+00  0.00000000E+00  0.00000000E+00
  0.00000000E+00  0.00000000E+00  0.00000000E+00
  0.00000000E+00  0.00000000E+00  0.00000000E+00
  0.00000000E+00  0.00000000E+00  0.00000000E+00
  0.00000000E+00  0.00000000E+00  0.00000000E+00
  0.00000000E+00  0.00000000E+00  0.00000000E+00
  0.00000000E+00  0.00000000E+00  0.00000000E+00
  0.00000000E+00  0.00000000E+00  0.00000000E+00
  0.00000000E+00  0.00000000E+00  0.00000000E+00
  0.00000000E+00  0.00000000E+00  0.00000000E+00
  0.00000000E+00  0.00000000E+00  0.00000000E+00
  0.00000000E+00  0.00000000E+00  0.00000000E+00
  0.00000000E+00  0.00000000E+00  0.00000000E+00
  0.00000000E+00  0.00000000E+00  0.00000000E+00
  0.00000000E+00  0.00000000E+00  0.00000000E+00
  0.00000000E+00  0.00000000E+00  0.00000000E+00
  0.00000000E+00  0.00000000E+00  0.00000000E+00
  0.00000000E+00  0.00000000E+00  0.00000000E+00
  0.00000000E+00  0.00000000E+00  0.00000000E+00
  0.00000000E+00  0.00000000E+00  0.00000000E+00
  0.00000000E+00  0.00000000E+00  0.00000000E+00
  0.00000000E+00  0.00000000E+00  0.00000000E+00
  0.00000000E+00  0.00000000E+00  0.00000000E+00
  0.00000000E+00  0.00000000E+00  0.00000000E+00
  0.00000000E+00  0.00000000E+00  0.00000000E+00
  0.00000000E+00  0.00000000E+00  0.00000000E+00
  0.00000000E+00  0.00000000E+00  0.00000000E+00
  0.00000000E+00  0.00000000E+00  0.00000000E+00
  0.00000000E+00  0.00000000E+00  0.00000000E+00
  0.00000000E+00  0.00000000E+00  0.00000000E+00
  0.00000000E+00  0.00000000E+00  0.00000000E+00
  0.00000000E+00  0.00000000E+00  0.00000000E+00
  0.00000000E+00  0.00000000E+00  0.00000000E+00
  0.00000000E+00  0.00000000E+00  0.00000000E+00
  0.00000000E+00  0.00000000E+00  0.00000000E+00
  0.00000000E+00  0.00000000E+00  0.00000000E+00
  0.00000000E+00  0.00000000E+00  0.00000000E+00
  0.00000000E+00  0.00000000E+00  0.00000000E+00
  0.00000000E+00  0.00000000E+00  0.00000000E+00
  0.00000000E+00  0.00000000E+00  0.00000000E+00
  0.00000000E+00  0.00000000E+00  0.00000000E+00
  0.00000000E+00  0.00000000E+00  0.00000000E+00
  0.00000000E+00  0.00000000E+00  0.00000000E+00
  0.00000000E+00  0.00000000E+00  0.00000000E+00
  0.00000000E+00  0.00000000E+00  0.00000000E+00
  0.00000000E+00  0.00000000E+00  0.00000000E+00
  0.00000000E+00  0.00000000E+00  0.00000000E+00
  0.00000000E+00  0.00000000E+00  0.00000000E+00
  0.00000000E+00  0.00000000E+00  0.00000000E+00
  0.00000000E+00  0.00000000E+00  0.00000000E+00
  0.00000000E+00  0.00000000E+00  0.00000000E+00
  0.00000000E+00  0.00000000E+00  0.00000000E+00
  0.00000000E+00  0.00000000E+00  0.00000000E+00
  0.00000000E+00  0.00000000E+00  0.00000000E+00
  0.00000000E+00  0.00000000E+00  0.00000000E+00
  0.00000000E+00  0.00000000E+00  0.00000000E+00
  0.00000000E+00  0.00000000E+00  0.00000000E+00
  0.00000000E+00  0.00000000E+00  0.00000000E+00
  0.00000000E+00  0.00000000E+00  0.00000000E+00
  0.00000000E+00  0.00000000E+00  0.00000000E+00
  0.00000000E+00  0.00000000E+00  0.00000000E+00
  0.00000000E+00  0.00000000E+00  0.00000000E+00
  0.00000000E+00  0.00000000E+00  0.00000000E+00
  0.00000000E+00  0.00000000E+00  0.00000000E+00
  0.00000000E+00  0.00000000E+00  0.00000000E+00
  0.00000000E+00  0.00000000E+00  0.00000000E+00
  0.00000000E+00  0.00000000E+00  0.00000000E+00
  0.00000000E+00  0.00000000E+00  0.00000000E+00
  0.00000000E+00  0.00000000E+00  0.00000000E+00
  0.00000000E+00  0.00000000E+00  0.00000000E+00
  0.00000000E+00  0.00000000E+00  0.00000000E+00
  0.00000000E+00  0.00000000E+00  0.00000000E+00
  0.00000000E+00  0.00000000E+00  0.00000000E+00
  0.00000000E+00  0.00000000E+00  0.00000000E+00
  0.00000000E+00  0.00000000E+00  0.00000000E+00
  0.00000000E+00  0.00000000E+00  0.00000000E+00
  0.00000000E+00  0.00000000E+00  0.00000000E+00
  0.00000000E+00  0.00000000E+00  0.00000000E+00
  0.00000000E+00  0.00000000E+00  0.00000000E+00
  0.00000000E+00  0.00000000E+00  0.00000000E+00
  0.00000000E+00  0.00000000E+00  0.00000000E+00
  0.00000000E+00  0.00000000E+00  0.00000000E+00
  0.00000000E+00  0.00000000E+00  0.00000000E+00
  0.00000000E+00  0.00000000E+00  0.00000000E+00
  0.00000000E+00  0.00000000E+00  0.00000000E+00
  0.00000000E+00  0.00000000E+00  0.00000000E+00
  0.00000000E+00  0.00000000E+00  0.00000000E+00
  0.00000000E+00  0.00000000E+00  0.00000000E+00