 B N Sn 
 1.0
 14.936314146199660   0.000000000000000   0.000000000000000
 -7.468157073099825  12.935227489513863   0.000000000000000
  0.000000000000001   0.000000000000001  13.341276283792837
 B N Sn 
 143 143   1
Cartesian
  1.259381231561590   0.713024632487963   5.002978606422314 
  4.856294583398142   7.432436014670269   5.002978606422314 
  6.257698247946679   0.653404834850582   5.002978606422314 
  9.924225592415240   7.168825533786376   5.002978606422314 
 11.238946148279842   0.739818588777272   5.002978606422314 
 -3.736611576598141   9.340646291072352  11.673616748318732 
  1.242123294210082   9.340640249290177  11.673616748318732 
  2.486674906858764   2.872997582476620  11.673616748318732 
  6.220945942903310   9.340830774482399  11.673616748318732 
  7.465724694314873   2.872898959894767  11.673616748318732 
 12.444490271387288   2.873020221022324  11.673616748318732 
 -1.275073769310630   9.344741527711429   5.002978606422314 
  0.048146097485926   2.902292160013501   5.002978606422314 
  5.031490203235578   2.736184630312428   5.002978606422314 
  3.687196758566597   9.482497183834001   5.002978606422314 
  8.681112132732508   9.321961205529609   5.002978606422314 
 10.008551441218984   2.862447816296644   5.002978606422314 
 -4.981362815674367  11.496614905583414  11.673616748318732 
 -0.002544189142506  11.496511102391743  11.673616748318732 
  1.242040653832049   5.028767345559443  11.673616748318732 
  6.221172023425726   5.028666783384816  11.673616748318732 
  4.976262440739606  11.496673022231612  11.673616748318732 
 11.199851295287200   5.028830263055879  11.673616748318732 
 -1.242197629993969   5.045886319842533   5.002978606422314 
 -2.502296093990403  11.470352946239601   5.002978606422314 
  2.490524033902932  11.549868399038379   5.002978606422314 
  7.471474113846359  11.511005361338338   5.002978606422314 
  8.746026091900930   4.994869096443030   5.002978606422314 
 -0.002550732573739   7.184643722223989  11.673616748318732 
  1.242088541478110   0.717242107628320  11.673616748318732 
  4.976153502257713   7.185102118412099  11.673616748318732 
  6.220907699568568   0.717132699277618  11.673616748318732 
  9.955110856971118   7.184746817799268  11.673616748318732 
 -2.519291035828175   7.186223400899599   5.002978606422314 
 11.199779531742848   0.717205732175659  11.673616748318732 
  3.737602137606185   0.669614443101605   5.002978606422314 
  2.395964809881227   7.301048516240150   5.002978606422314 
  7.408952771288085   7.152055874584617   5.002978606422314 
  8.758355769852647   0.693665379080761   5.002978606422314 
  2.486758776685786   7.184780637489567  11.673616748318732 
 13.724977552340276   0.747085742678853   5.002978606422314 
 -1.247228439007157   9.340587446638210  11.673616748318732 
 -0.002579990405463   2.873005439514488  11.673616748318732 
  4.976196249994651   2.872948451452692  11.673616748318732 
  3.731480137899566   9.340800259493628  11.673616748318732 
  8.710343001426708   9.340747987230758  11.673616748318732 
  9.955156425592122   2.872975674967922  11.673616748318732 
 -3.764702664482532   9.324427893920303   5.002978606422314 
  1.205328618876446   9.404365731018206   5.002978606422314 
  2.532387008519200   2.851288454924264   5.002978606422314 
  6.209310881013358   9.388588726033136   5.002978606422314 
  7.566296140764548   2.763699966258059   5.002978606422314 
 12.488255390202450   2.889151362348016   5.002978606422314 
 -1.247191534423749   5.028801673359279  11.673616748318732 
 -2.491970968578719  11.496544750197975  11.673616748318732 
  2.486847807704949  11.496587844068003  11.673616748318732 
  3.731290900628057   5.028756803570968  11.673616748318732 
  7.465634715736273  11.496683105304202  11.673616748318732 
 -4.993736259597680  11.472088249014547   5.002978606422314 
  8.710484023571230   5.028824331388024  11.673616748318732 
 -0.002196357909226  11.496711922847563   5.002978606422314 
  1.246096048707879   5.079209750634024   5.002978606422314 
 -0.040681503762948   7.213793675359335   5.002978606422314 
  6.375440001371610   4.801198966654384   5.002978606422314 
  4.993842555494878  11.548178391537968   5.002978606422314 
 11.215174431908117   5.026726202143561   5.002978606422314 
 -2.491863606208031   7.184675789385135  11.673616748318732 
  3.731422923266597   0.717211636184778  11.673616748318732 
  7.465672149558376   7.184802822897824  11.673616748318732 
  8.710375342621127   0.717121951289217  11.673616748318732 
 13.689125014751779   0.717249608649561  11.673616748318732 
  0.005395697102123   1.440512268561210   1.666058086028054 
  3.737960754371307   7.909156647495021   1.660181052632420 
  4.983815747250580   1.438892475009937   1.664832588023379 
  8.717960573882955   7.907811881785598   1.664550649950064 
  9.962887152826211   1.439918759148239   1.666374912747264 
 -4.973911820183179  10.063658648103443   8.340581823504229 
  0.004504760422219  10.063746233686478   8.341553589295321 
  1.250052647694060   3.596213230317317   8.333804358578352 
  4.983458693719379  10.064388004274173   8.343461670804423 
  6.229125265393583   3.594333144391933   8.345776160211809 
 11.207759237499408   3.595829355210036   8.339647305078559 
 -2.484683940063213  10.063447049032106   1.663959806675278 
 -1.239167623444970   3.596159172985420   1.666058086028054 
  3.739275786762908   3.592293307481874   1.688788517361184 
  2.493758631116068  10.064251617158268   1.663716598161182 
  7.473148063072316  10.064211416512979   1.665041284895782 
  8.718359341070759   3.595350321839647   1.662495542040110 
 -6.218452011167765  12.219800442108724   8.340573890973664 
 -1.239830488308807  12.218998106137484   8.341553589295321 
  0.004864396046138   5.752055436832945   8.339051767124932 
  4.987217568498277   5.753866403349439   8.337771048937856 
  3.739064110187732  12.219896486316077   8.339582300097911 
  9.963051096259738   5.751572857112480   8.340915927949419 
 -2.484111157675613   5.751732351080147   1.665383321869990 
 -3.729241153303383  12.219277412976504   1.664373209767730 
  1.249655085890721  12.219468690915106   1.666174289296747 
  2.491269464472318   5.753903665856369   1.688788517361184 
  6.228573497004392  12.220032038070853   1.666309907764468 
  7.474481199370516   5.751755483603497   1.656275955349601 
 -1.239958685257409   7.907713703930400   8.341584003076710 
  0.005395697102123   1.440512268561211   8.339899126815707 
  3.737960754371307   7.909156647495022   8.345776160211809 
  4.983815747250580   1.438892475009938   8.341124624820301 
  8.717960573882955   7.907811881785599   8.341406562896166 
 -3.729114629952175   7.907606669504529   1.665375389340880 
  9.962887152826211   1.439918759148240   8.339582300097911 
  2.494472639263049   1.439927468638930   1.666905445717895 
  1.248639619264658   7.908407303899989   1.664832588023379 
  6.229021273811289   7.908955353463046   1.656275955349601 
  7.473391195062195   1.439275013379039   1.663716598161182 
  1.248639619264658   7.908407303899990   8.341124624820301 
 12.452322290931729   1.440361631366468   1.666617714874491 
 -2.484683940063213  10.063447049032106   8.341997406171524 
 -1.239167623444970   3.596159172985421   8.339899126815707 
  3.739275786762908   3.592293307481875   8.317168695483151 
  2.493758631116068  10.064251617158268   8.342240614682124 
  7.473148063072317  10.064211416512979   8.340915927949419 
  8.718359341070759   3.595350321839648   8.343461670804423 
 -4.973911820183075  10.063658648103443   1.665375389340880 
  0.004504760422218  10.063746233686478   1.664403623548560 
  1.250052647694060   3.596213230317316   1.672152854266837 
  4.983458693719379  10.064388004274173   1.662495542040110 
  6.229125265393582   3.594333144391932   1.660181052632420 
 11.207759237499944   3.595829355210035   1.666309907764468 
 -2.484111157675613   5.751732351080148   8.340573890973664 
 -3.729241153303383  12.219277412976504   8.341584003076710 
  1.249655085890721  12.219468690915106   8.339782923547881 
  2.491269464472319   5.753903665856370   8.317168695483151 
  6.228573497004393  12.220032038070853   8.339647305078559 
 -6.218452011167765  12.219800442108724   1.665383321869990 
  7.474481199371632   5.751755483603408   8.349681257493986 
 -1.239830488308807  12.218998106137484   1.664403623548560 
  0.004864396046138   5.752055436832944   1.666905445717895 
 -1.239958685257410   7.907713703930399   1.664373209767730 
  4.987217568498276   5.753866403349438   1.668186163908385 
  3.739064110187732  12.219896486316077   1.666374912747264 
  9.963051096259738   5.751572857112479   1.665041284895595 
 -3.729114629952174   7.907606669504530   8.340581823504229 
  2.494472639263049   1.439927468638931   8.339051767124932 
  6.229021273812352   7.908955353463047   8.349681257493986 
  7.473391195062196   1.439275013379039   8.342240614682124 
 12.452322290931729   1.440361631366468   8.339339497968696 
  1.249865088408940   0.721451274606870   1.664093950035729 
  4.983836436191275   7.190447777822333   1.653988520661815 
  6.228704490924697   0.720963058880182   1.663441194922623 
  9.962199599328574   7.188905709524390   1.666278666689708 
 11.207512242740943   0.721670214953372   1.666541206646206 
 -3.729492728845782   9.344756359738623   8.341427030990426 
  1.249338878609649   9.345477288871217   8.342516017922112 
  2.494905819034326   2.877298959540230   8.334624315530823 
  6.228369114898621   9.345453811335235   8.343945961565842 
  7.473607010911159   2.876666977237692   8.345281982822009 
 12.452258342680976   2.877536427230984   8.340047319150315 
 -1.240038304235375   9.344999778394952   1.663782752951776 
  0.005533225975460   2.877689607176439   1.665575570649441 
  4.984483813144075   2.876770654041273   1.667135999950747 
  3.738684494938485   9.345742537235388   1.660675230022698 
  8.717489078490450   9.344807572331554   1.666278666689708 
  9.962853540683637   2.877259306020655   1.665737749375453 
 -4.973973845984905  11.500596364677330   8.341259736629269 
  0.004934565155534  11.500828963199451   8.340456491559079 
  1.249881211727753   5.033744836068718   8.334624315530823 
  6.229642967242071   5.032647569641208   8.351968692182719 
  4.983820731597597  11.501197103910126   8.340219463468587 
 11.207323850326507   5.033184733862971   8.339782519618408 
 -1.239658015427086   5.033431777067467   1.664093950035729 
 -2.484554709801206  11.500565423687979   1.663782752951776 
  2.494357200982694  11.501226361325070   1.665921723779991 
  3.740662338009826   5.034167405467984   1.719803043654970 
  7.473142075596509  11.500977292393090   1.666174693227167 
  8.718199276927292   5.032941468484095   1.662011251278026 
  0.004765915932957   7.189424445805191   8.341654771315744 
  1.249865088408941   0.721451274606871   8.341863262810111 
  4.983836436191276   7.190447777822334   8.351968692182719 
  6.228704490924698   0.720963058880183   8.342516017922112 
  9.962199599328574   7.188905709524390   8.339678546152745 
 -2.484721076646185   7.189084095301103   1.664697476216027 
 11.207512242740943   0.721670214953372   8.339416006197942 
  3.739221475588765   0.721157677873218   1.664302441529831 
  2.494212682799193   7.190046776420615   1.667135999950747 
  7.472821325284206   7.188930401430936   1.660834465478706 
  8.718147113041733   0.721306018004109   1.665921723779991 
  2.494212682799194   7.190046776420616   8.338821212894828 
 13.696920199702872   0.721718852626015   1.665909893693832 
 -1.240038304235374   9.344999778394952   8.342174459893691 
  0.005533225975461   2.877689607176440   8.340381642194133 
  4.984483813144076   2.876770654041274   8.338821212894828 
  3.738684494938485   9.345742537235388   8.345281982822009 
  8.717489078490450   9.344807572331554   8.339678546152745 
  9.962853540683637   2.877259306020655   8.340219463468587 
 -3.729492728845782   9.344756359738623   1.664530181854216 
  1.249338878609649   9.345477288871217   1.663441194922623 
  2.494905819034325   2.877298959540229   1.671332897315312 
  6.228369114898620   9.345453811335235   1.662011251278026 
  7.473607010911159   2.876666977237691   1.660675230022698 
 12.452258342680976   2.877536427230983   1.665909893693832 
 -1.239658015427086   5.033431777067468   8.341863262810111 
 -2.484554709801206  11.500565423687979   8.342174459893691 
  2.494357200982694  11.501226361325070   8.340035489065396 
  3.740662338009826   5.034167405467985   8.286154169188805 
  7.473142075596510  11.500977292393090   8.339782519618408 
 -4.973973845984906  11.500596364677330   1.664697476216027 
  8.718199276927292   5.032941468484096   8.343945961565842 
  0.004934565155534  11.500828963199451   1.665500721286963 
  1.249881211727701   5.033744836068808   1.671332897315312 
  0.004765915933060   7.189424445805190   1.664302441529831 
  6.229642967242071   5.032647569641207   1.653988520661815 
  4.983820731597596  11.501197103910126   1.665737749375453 
 11.207323850326507   5.033184733862970   1.666174693227167 
 -2.484721076646184   7.189084095301104   8.341259736629269 
  3.739221475588765   0.721157677873219   8.341654771315744 
  7.472821325284207   7.188930401430937   8.345122747366764 
  8.718147113041733   0.721306018004109   8.340035489065396 
 13.696920199702872   0.721718852626015   8.340047319150315 
  0.032025237521025   1.458983298052965   5.002978606422314 
  3.634471935574809   8.086773990820385   5.002978606422314 
  5.011936969003228   1.330764032232762   5.002978606422314 
  8.661052235670883   7.874955837400641   5.002978606422314 
  9.993420698017456   1.433121354788595   5.002978606422314 
 -4.981333839091266  10.059279374394210  11.673616748318732 
 -0.002495367145626  10.059272387757023  11.673616748318732 
  1.242227906298344   3.591695613766290  11.673616748318732 
  4.976268291507991  10.059279836923977  11.673616748318732 
  6.220934839030773   3.591655521678786  11.673616748318732 
 11.199743033935974   3.591686253893345  11.673616748318732 
 -2.520817735638119  10.042585192431455   5.002978606422314 
 -1.209856472462034   3.609985516734155   5.002978606422314 
  3.813564422555496   3.434371682764237   5.002978606422314 
  2.445141187538782  10.142931086616539   5.002978606422314 
  7.458272497790386  10.075123175373836   5.002978606422314 
  8.762926680872839   3.555988885868738   5.002978606422314 
 -6.226002177064238  12.215171930063979  11.673616748318732 
 -1.247205016320844  12.215172740799749  11.673616748318732 
 -0.002448835824849   5.747478245976311  11.673616748318732 
  4.976145948258652   5.747474200423725  11.673616748318732 
  3.731559260569570  12.215148818387819  11.673616748318732 
  9.955059313513468   5.747535870405793  11.673616748318732 
 -2.492849986125213   5.753396051203423   5.002978606422314 
 -3.746201179373789  12.176122575979017   5.002978606422314 
  1.247083786859597  12.217984150724860   5.002978606422314 
  2.391649643556123   5.897200324024241   5.002978606422314 
  6.242219486004593  12.247514341002741   5.002978606422314 
  7.483505333867639   5.688089206810530   5.002978606422314 
 -1.247186013350942   7.903348749967069  11.673616748318732 
 -0.002510608541886   1.435807290960345  11.673616748318732 
  3.731546651897879   7.903402341554767  11.673616748318732 
  4.976253314614550   1.435906300157507  11.673616748318732 
  8.710301854835667   7.903390118282120  11.673616748318732 
 -3.771191011177755   7.891568151465368   5.002978606422314 
  9.955023126982992   1.435793202690648  11.673616748318732 
  2.503308682345928   1.406571770041073   5.002978606422314 
  1.169058251823707   7.986825217712850   5.002978606422314 
  6.178396727990543   7.948603621584881   5.002978606422314 
  7.517220892579307   1.357831337447322   5.002978606422314 
  1.242272299663765   7.903351132549913  11.673616748318732 
 12.481224842484668   1.457048527284917   5.002978606422314 
 -2.491923463656169  10.059267308136548  11.673616748318732 
 -1.247195406393352   3.591664600247697  11.673616748318732 
  3.731590085366842   3.591878052060279  11.673616748318732 
  2.486861161829036  10.059288771667518  11.673616748318732 
  7.465656038656571  10.059308822986321  11.673616748318732 
  8.710340337273124   3.591677334536064  11.673616748318732 
 -5.008839774855558  10.035238692079959   5.002978606422314 
 -0.037424342067400  10.079237003424316   5.002978606422314 
  1.294756422979424   3.622022967012010   5.002978606422314 
  4.971654360140877  10.122665170706108   5.002978606422314 
  6.331201987467264   3.415900526644768   5.002978606422314 
 11.238382604493379   3.593905976878337   5.002978606422314 
 -2.491894649634887   5.747507971630903  11.673616748318732 
 -3.736634978369370  12.215200840228773  11.673616748318732 
  1.242159986781783  12.215141393425405  11.673616748318732 
  2.487066992030124   5.747455280912273  11.673616748318732 
  6.220977364228886  12.215161352805771  11.673616748318732 
 -6.221380618820834  12.211400544609216   5.002978606422314 
  7.465641545467286   5.747525502707609  11.673616748318732 
 -1.247379639438026  12.174941053357365   5.002978606422314 
 -0.019604464758718   5.776385523909843   5.002978606422314 
 -1.285811883428284   7.914603309002755   5.002978606422314 
  3.748444157928323  12.249738014298744   5.002978606422314 
  9.965063173991656   5.733234360253268   5.002978606422314 
 -3.736618201688107   7.903368649436442  11.673616748318732 
  2.486852059767897   1.435882619482936  11.673616748318732 
  6.220938175945190   7.903414979072072  11.673616748318732 
  7.465644510148005   1.435783052501108  11.673616748318732 
 12.444434703922035   1.435807730881947  11.673616748318732 
  4.334240472578784   5.376869901245406   5.002978606422314 
Generated by cif2cell 2.0.0.  :  Failed to get author information, No journal information. Species order: B N Sn 
 1.0
 14.936314146199660   0.000000000000000   0.000000000000000
 -7.468157073099825  12.935227489513863   0.000000000000000
  0.000000000000001   0.000000000000001  13.341276283792837
 B N Sn 
 143 143   1
Cartesian
  1.259381231561590   0.713024632487963   5.002978606422314 
  4.856294583398142   7.432436014670269   5.002978606422314 
  6.257698247946679   0.653404834850582   5.002978606422314 
  9.924225592415240   7.168825533786376   5.002978606422314 
 11.238946148279842   0.739818588777272   5.002978606422314 
 -3.736611576598141   9.340646291072352  11.673616748318732 
  1.242123294210082   9.340640249290177  11.673616748318732 
  2.486674906858764   2.872997582476620  11.673616748318732 
  6.220945942903310   9.340830774482399  11.673616748318732 
  7.465724694314873   2.872898959894767  11.673616748318732 
 12.444490271387288   2.873020221022324  11.673616748318732 
 -1.275073769310630   9.344741527711429   5.002978606422314 
  0.048146097485926   2.902292160013501   5.002978606422314 
  5.031490203235578   2.736184630312428   5.002978606422314 
  3.687196758566597   9.482497183834001   5.002978606422314 
  8.681112132732508   9.321961205529609   5.002978606422314 
 10.008551441218984   2.862447816296644   5.002978606422314 
 -4.981362815674367  11.496614905583414  11.673616748318732 
 -0.002544189142506  11.496511102391743  11.673616748318732 
  1.242040653832049   5.028767345559443  11.673616748318732 
  6.221172023425726   5.028666783384816  11.673616748318732 
  4.976262440739606  11.496673022231612  11.673616748318732 
 11.199851295287200   5.028830263055879  11.673616748318732 
 -1.242197629993969   5.045886319842533   5.002978606422314 
 -2.502296093990403  11.470352946239601   5.002978606422314 
  2.490524033902932  11.549868399038379   5.002978606422314 
  7.471474113846359  11.511005361338338   5.002978606422314 
  8.746026091900930   4.994869096443030   5.002978606422314 
 -0.002550732573739   7.184643722223989  11.673616748318732 
  1.242088541478110   0.717242107628320  11.673616748318732 
  4.976153502257713   7.185102118412099  11.673616748318732 
  6.220907699568568   0.717132699277618  11.673616748318732 
  9.955110856971118   7.184746817799268  11.673616748318732 
 -2.519291035828175   7.186223400899599   5.002978606422314 
 11.199779531742848   0.717205732175659  11.673616748318732 
  3.737602137606185   0.669614443101605   5.002978606422314 
  2.395964809881227   7.301048516240150   5.002978606422314 
  7.408952771288085   7.152055874584617   5.002978606422314 
  8.758355769852647   0.693665379080761   5.002978606422314 
  2.486758776685786   7.184780637489567  11.673616748318732 
 13.724977552340276   0.747085742678853   5.002978606422314 
 -1.247228439007157   9.340587446638210  11.673616748318732 
 -0.002579990405463   2.873005439514488  11.673616748318732 
  4.976196249994651   2.872948451452692  11.673616748318732 
  3.731480137899566   9.340800259493628  11.673616748318732 
  8.710343001426708   9.340747987230758  11.673616748318732 
  9.955156425592122   2.872975674967922  11.673616748318732 
 -3.764702664482532   9.324427893920303   5.002978606422314 
  1.205328618876446   9.404365731018206   5.002978606422314 
  2.532387008519200   2.851288454924264   5.002978606422314 
  6.209310881013358   9.388588726033136   5.002978606422314 
  7.566296140764548   2.763699966258059   5.002978606422314 
 12.488255390202450   2.889151362348016   5.002978606422314 
 -1.247191534423749   5.028801673359279  11.673616748318732 
 -2.491970968578719  11.496544750197975  11.673616748318732 
  2.486847807704949  11.496587844068003  11.673616748318732 
  3.731290900628057   5.028756803570968  11.673616748318732 
  7.465634715736273  11.496683105304202  11.673616748318732 
 -4.993736259597680  11.472088249014547   5.002978606422314 
  8.710484023571230   5.028824331388024  11.673616748318732 
 -0.002196357909226  11.496711922847563   5.002978606422314 
  1.246096048707879   5.079209750634024   5.002978606422314 
 -0.040681503762948   7.213793675359335   5.002978606422314 
  6.375440001371610   4.801198966654384   5.002978606422314 
  4.993842555494878  11.548178391537968   5.002978606422314 
 11.215174431908117   5.026726202143561   5.002978606422314 
 -2.491863606208031   7.184675789385135  11.673616748318732 
  3.731422923266597   0.717211636184778  11.673616748318732 
  7.465672149558376   7.184802822897824  11.673616748318732 
  8.710375342621127   0.717121951289217  11.673616748318732 
 13.689125014751779   0.717249608649561  11.673616748318732 
  0.005395697102123   1.440512268561210   1.666058086028054 
  3.737960754371307   7.909156647495021   1.660181052632420 
  4.983815747250580   1.438892475009937   1.664832588023379 
  8.717960573882955   7.907811881785598   1.664550649950064 
  9.962887152826211   1.439918759148239   1.666374912747264 
 -4.973911820183179  10.063658648103443   8.340581823504229 
  0.004504760422219  10.063746233686478   8.341553589295321 
  1.250052647694060   3.596213230317317   8.333804358578352 
  4.983458693719379  10.064388004274173   8.343461670804423 
  6.229125265393583   3.594333144391933   8.345776160211809 
 11.207759237499408   3.595829355210036   8.339647305078559 
 -2.484683940063213  10.063447049032106   1.663959806675278 
 -1.239167623444970   3.596159172985420   1.666058086028054 
  3.739275786762908   3.592293307481874   1.688788517361184 
  2.493758631116068  10.064251617158268   1.663716598161182 
  7.473148063072316  10.064211416512979   1.665041284895782 
  8.718359341070759   3.595350321839647   1.662495542040110 
 -6.218452011167765  12.219800442108724   8.340573890973664 
 -1.239830488308807  12.218998106137484   8.341553589295321 
  0.004864396046138   5.752055436832945   8.339051767124932 
  4.987217568498277   5.753866403349439   8.337771048937856 
  3.739064110187732  12.219896486316077   8.339582300097911 
  9.963051096259738   5.751572857112480   8.340915927949419 
 -2.484111157675613   5.751732351080147   1.665383321869990 
 -3.729241153303383  12.219277412976504   1.664373209767730 
  1.249655085890721  12.219468690915106   1.666174289296747 
  2.491269464472318   5.753903665856369   1.688788517361184 
  6.228573497004392  12.220032038070853   1.666309907764468 
  7.474481199370516   5.751755483603497   1.656275955349601 
 -1.239958685257409   7.907713703930400   8.341584003076710 
  0.005395697102123   1.440512268561211   8.339899126815707 
  3.737960754371307   7.909156647495022   8.345776160211809 
  4.983815747250580   1.438892475009938   8.341124624820301 
  8.717960573882955   7.907811881785599   8.341406562896166 
 -3.729114629952175   7.907606669504529   1.665375389340880 
  9.962887152826211   1.439918759148240   8.339582300097911 
  2.494472639263049   1.439927468638930   1.666905445717895 
  1.248639619264658   7.908407303899989   1.664832588023379 
  6.229021273811289   7.908955353463046   1.656275955349601 
  7.473391195062195   1.439275013379039   1.663716598161182 
  1.248639619264658   7.908407303899990   8.341124624820301 
 12.452322290931729   1.440361631366468   1.666617714874491 
 -2.484683940063213  10.063447049032106   8.341997406171524 
 -1.239167623444970   3.596159172985421   8.339899126815707 
  3.739275786762908   3.592293307481875   8.317168695483151 
  2.493758631116068  10.064251617158268   8.342240614682124 
  7.473148063072317  10.064211416512979   8.340915927949419 
  8.718359341070759   3.595350321839648   8.343461670804423 
 -4.973911820183075  10.063658648103443   1.665375389340880 
  0.004504760422218  10.063746233686478   1.664403623548560 
  1.250052647694060   3.596213230317316   1.672152854266837 
  4.983458693719379  10.064388004274173   1.662495542040110 
  6.229125265393582   3.594333144391932   1.660181052632420 
 11.207759237499944   3.595829355210035   1.666309907764468 
 -2.484111157675613   5.751732351080148   8.340573890973664 
 -3.729241153303383  12.219277412976504   8.341584003076710 
  1.249655085890721  12.219468690915106   8.339782923547881 
  2.491269464472319   5.753903665856370   8.317168695483151 
  6.228573497004393  12.220032038070853   8.339647305078559 
 -6.218452011167765  12.219800442108724   1.665383321869990 
  7.474481199371632   5.751755483603408   8.349681257493986 
 -1.239830488308807  12.218998106137484   1.664403623548560 
  0.004864396046138   5.752055436832944   1.666905445717895 
 -1.239958685257410   7.907713703930399   1.664373209767730 
  4.987217568498276   5.753866403349438   1.668186163908385 
  3.739064110187732  12.219896486316077   1.666374912747264 
  9.963051096259738   5.751572857112479   1.665041284895595 
 -3.729114629952174   7.907606669504530   8.340581823504229 
  2.494472639263049   1.439927468638931   8.339051767124932 
  6.229021273812352   7.908955353463047   8.349681257493986 
  7.473391195062196   1.439275013379039   8.342240614682124 
 12.452322290931729   1.440361631366468   8.339339497968696 
  1.249865088408940   0.721451274606870   1.664093950035729 
  4.983836436191275   7.190447777822333   1.653988520661815 
  6.228704490924697   0.720963058880182   1.663441194922623 
  9.962199599328574   7.188905709524390   1.666278666689708 
 11.207512242740943   0.721670214953372   1.666541206646206 
 -3.729492728845782   9.344756359738623   8.341427030990426 
  1.249338878609649   9.345477288871217   8.342516017922112 
  2.494905819034326   2.877298959540230   8.334624315530823 
  6.228369114898621   9.345453811335235   8.343945961565842 
  7.473607010911159   2.876666977237692   8.345281982822009 
 12.452258342680976   2.877536427230984   8.340047319150315 
 -1.240038304235375   9.344999778394952   1.663782752951776 
  0.005533225975460   2.877689607176439   1.665575570649441 
  4.984483813144075   2.876770654041273   1.667135999950747 
  3.738684494938485   9.345742537235388   1.660675230022698 
  8.717489078490450   9.344807572331554   1.666278666689708 
  9.962853540683637   2.877259306020655   1.665737749375453 
 -4.973973845984905  11.500596364677330   8.341259736629269 
  0.004934565155534  11.500828963199451   8.340456491559079 
  1.249881211727753   5.033744836068718   8.334624315530823 
  6.229642967242071   5.032647569641208   8.351968692182719 
  4.983820731597597  11.501197103910126   8.340219463468587 
 11.207323850326507   5.033184733862971   8.339782519618408 
 -1.239658015427086   5.033431777067467   1.664093950035729 
 -2.484554709801206  11.500565423687979   1.663782752951776 
  2.494357200982694  11.501226361325070   1.665921723779991 
  3.740662338009826   5.034167405467984   1.719803043654970 
  7.473142075596509  11.500977292393090   1.666174693227167 
  8.718199276927292   5.032941468484095   1.662011251278026 
  0.004765915932957   7.189424445805191   8.341654771315744 
  1.249865088408941   0.721451274606871   8.341863262810111 
  4.983836436191276   7.190447777822334   8.351968692182719 
  6.228704490924698   0.720963058880183   8.342516017922112 
  9.962199599328574   7.188905709524390   8.339678546152745 
 -2.484721076646185   7.189084095301103   1.664697476216027 
 11.207512242740943   0.721670214953372   8.339416006197942 
  3.739221475588765   0.721157677873218   1.664302441529831 
  2.494212682799193   7.190046776420615   1.667135999950747 
  7.472821325284206   7.188930401430936   1.660834465478706 
  8.718147113041733   0.721306018004109   1.665921723779991 
  2.494212682799194   7.190046776420616   8.338821212894828 
 13.696920199702872   0.721718852626015   1.665909893693832 
 -1.240038304235374   9.344999778394952   8.342174459893691 
  0.005533225975461   2.877689607176440   8.340381642194133 
  4.984483813144076   2.876770654041274   8.338821212894828 
  3.738684494938485   9.345742537235388   8.345281982822009 
  8.717489078490450   9.344807572331554   8.339678546152745 
  9.962853540683637   2.877259306020655   8.340219463468587 
 -3.729492728845782   9.344756359738623   1.664530181854216 
  1.249338878609649   9.345477288871217   1.663441194922623 
  2.494905819034325   2.877298959540229   1.671332897315312 
  6.228369114898620   9.345453811335235   1.662011251278026 