 N B 
 1.0
 17.527899999999772   0.000000000000000   0.000000000000000
 -8.763949999999658  15.179606674993195   0.000000000000000
  0.000000000000001   0.000000000000002  15.000000000000000
 N B 
  48  49
Cartesian
  8.759422397287560  13.725169255802481   1.664967507080190 
 16.277355117104381   0.722016539598019   1.665290723682480 
 15.024629175623721   2.891583170331739   1.665389764558155 
 13.772804936945338   5.059868891664398   1.665142693574250 
 12.509878013061826   7.228737139039501   1.664925257117655 
 11.253310364355920   9.391494732372147   1.665109494014940 
 10.004018012570771  11.555402769308273   1.665147662967540 
 -6.261714815257801  13.734954104784572   1.664618435018880 
  1.257333069931458   0.731165441760663   1.664979694355190 
  0.002085116236098   2.892830286111267   1.664884764782400 
 -1.248992669176910   5.059868891664398   1.664914283742990 
 -2.494077753239894   7.228647034308608   1.664996060992260 
 -3.756064758272895   9.394701865175570   1.665180721628235 
 -5.011950504855292  11.563124407284787   1.664933662744755 
 -3.755966857449449  13.738548836543904   1.664821654982160 
  3.758698839928705   0.738184301306095   1.664951898682995 
  2.519352069409281   2.924520019769474   1.665270379491810 
  1.252946472601852   5.059868891664398   1.665060547311045 
  0.036521992626305   7.225038511529788   1.665108517694220 
 -1.237370894994062   9.391432446732770   1.665193880824890 
 -2.499975012576364  11.563118272161738   1.665388144147590 
 -1.250114652641485  13.735134211545025   1.665215732739390 
  6.257346031993290   0.738229581847601   1.665099468886335 
  5.007929089742282   2.926581549653011   1.665207150210900 
  3.781586749376255   5.141218605344966   1.665626747932590 
  2.587415894812502   7.210064634271232   1.665580014503820 
  1.282497584776745   9.379302878809600   1.665467056404600 
  0.012055239572665  11.555518334155048   1.665371155718610 
  1.256737196034624  13.725256449804448   1.665039869424645 
  8.758633888868561   0.731390266962775   1.664986501468065 
  7.496386093929871   2.924666504830991   1.665040307083530 
  6.233976809200682   5.141366181551708   1.665139295048985 
  3.813572804155378   9.333835122289109   1.665387154918470 
  2.525146800338293  11.535486810779974   1.665146240287530 
  3.757460341180081  13.731363348308907   1.664962682007480 
 11.268365193235431   0.722094533732990   1.665294039066240 
 10.014959883361771   2.893056212910854   1.665318948483195 
  8.763949999999962   5.059868891664398   1.665061468012050 
  7.428387903769312   7.210161087317696   1.665255243293430 
  6.202332263576047   9.334082696948037   1.665548613519120 
  5.008432506232475  11.564615999583644   1.665008042405595 
  6.259745145758392  13.731404423498601   1.664943596188695 
 13.772097383295726   0.722128602657187   1.665489366017910 
 12.519372703038780   2.891692761918009   1.665643116300390 
 11.266003345495243   5.059868891664398   1.665336135365250 
  9.979323244786682   7.225233088189707   1.665129517103295 
  8.733416361462538   9.379331338041341   1.665348584496435 
  7.490937018463946  11.535552608019511   1.665380829644565 
  7.509857798142280  14.452752110193286   1.665292680257910 
 15.025058159266466   1.445032962833246   1.665826525111890 
 13.772048024574108   3.615101566849175   1.665798846853875 
 12.515215394844084   5.782788073385815   1.665168561545610 
 11.238790765298679   7.943680042194413   1.665237106933770 
  9.986171780302049  10.102411500396983   1.665453731003520 
  8.742926538575453  12.266915625356811   1.665345194670150 
 -7.515338200917086  14.458738557373644   1.664935141367130 
  0.002443277499502   1.449529907775680   1.665267565488720 
 -1.247954569743069   3.616271478533773   1.665112572508860 
 -2.499178888255146   5.782621174318628   1.665310956336120 
 -3.756108388327366   7.947133778996176   1.665211521457185 
 -5.017381718030536  10.113156318007738   1.665373179698490 
 -6.270298456273126  12.283471668978549   1.665037760477160 
 -5.008986293670514  14.468118758517111   1.664936110254075 
  2.511970057974409   1.474575550665048   1.665232960489050 
  1.258028751993816   3.625582819900108   1.665355274894805 
  0.013080050061206   5.782144010642127   1.665145801491420 
 -1.223019838003631   7.943499506428114   1.665147343121070 
 -2.494743538191771  10.112994857745413   1.665714542493495 
 -3.756021510225264  12.288296556690863   1.665120258555945 
 -2.502974815749919  14.468235296584755   1.665338807394945 
  5.008104977542456   1.480142293107081   1.665314209557390 
  3.777243365104931   3.691333895780868   1.665805437052275 
  2.514420051749700   5.788933993503417   1.665711913856070 
  1.329526309235096   7.931109180361734   1.665638524390275 
  0.029888774231722  10.102503333736705   1.665726336148200 
 -1.241513376051788  12.283651446971279   1.665779113541775 
  0.003493331931814  14.458953234879001   1.665275598808035 
  7.503933599578025   1.474713241013168   1.665224335669515 
  6.238502068912997   3.691532389672508   1.665278514459705 
  5.007640558967319   6.028960982613788   1.665911215699845 
  3.969519167310094   7.827956391744155   1.665980022778695 
  2.560187744535189  10.062676847615359   1.665590960426400 
  1.273191990027464  12.267046514134455   1.665242392920795 
  2.506474094473354  14.452674535641560   1.665396179280990 
 10.013535124468525   1.449750111348143   1.665229518923430 
  8.757596595358855   3.625795520504279   1.665339921805845 
  7.501201426708993   5.788933428929172   1.665223286589810 
  6.046555714915707   7.828408625774510   1.666145490622380 
  5.007813581468082  10.107615455729309   1.665582980434440 
  3.763025897902621  12.277234304511076   1.665144023268435 
  5.008206390272280  14.452257926213171   1.665190275110115 
 12.519222125960484   1.445138566778875   1.665885373007310 
 11.263936746548081   3.616521795069964   1.665869770870815 
 10.002735165052895   5.782432969008451   1.665379393243110 
  8.686258549706835   7.931157228567834   1.665389565825660 
  7.455796025915657  10.062783100326403   1.665859999999020 
  6.253130296712176  12.277362714397064   1.665382882503510 
