Species order: X N B                    
   2.51242800000000     
     5.9449720136058266    0.0000000000000000    0.0000000000000000
    -2.9724860068029120    5.1484967885702053   -0.0000000000000001
     0.0000000000000000    0.0000000000000009    5.3101128803662583
   As   N    B 
     1   143   143
Direct
  0.4955029781677741  0.4144181557505513  0.3750000000000000
  0.1110760771973404  0.0555270267303282  0.1250777564969640
  0.6110951468386810  0.5555839780187314  0.1234537268299748
  0.4444426704686602  0.0555462031977488  0.1250738712461310
  0.9444102675242799  0.5555404609788854  0.1250899063658599
  0.7777778733546390  0.0555556033439874  0.1250185814331671
  0.1110896690658560  0.7222115011995920  0.6249721506783589
  0.4444426704686602  0.7222298006042476  0.6249261287538690
  0.2777074931603664  0.2221803817856866  0.6255184077941875
  0.7777396243169412  0.7222049580735914  0.6250015842173026
  0.6110969011784381  0.2221971330034338  0.6251055799812881
  0.9444255146650399  0.2222172294866282  0.6249664396810701
  0.2777735187716296  0.7222231400741898  0.1250327894447153
  0.1110632524251231  0.2221982928792258  0.1250022830771291
  0.4444311161563558  0.2222040646872113  0.1243291618832440
  0.6110969011784381  0.7222331015083322  0.1248944200187112
  0.9444102675242799  0.7222031398787288  0.1250899063658599
  0.7777700136709664  0.2222135346142462  0.1250647646016508
  0.1110893791327233  0.8888722022793317  0.6249745091774944
  0.4444501652470241  0.8888917492901774  0.6249634511035677
  0.2777074931603664  0.3888604447080090  0.6255184077941875
  0.6110951468386810  0.3888445021532790  0.6265462731700249
  0.7777700136709664  0.8888898123900479  0.6249352353983494
  0.9444187421937768  0.3888850085495576  0.6249187051793779
  0.1110760771973404  0.3888823838003409  0.1250777564969640
  0.2777735187716296  0.8888837120307688  0.1250327894447153
  0.6111142019946431  0.8888985289398137  0.1250588077868439
  0.4442318524640295  0.3887825928986792  0.1218242014384522
  0.9444187421937768  0.8888670669775485  0.1250812948206219
  0.7777396243169412  0.3888679995766784  0.1249984157826989
  0.2777615188485886  0.5555529108142270  0.6249781565228650
  0.1110760771973404  0.0555270267303282  0.6249222435030346
  0.6110951468386810  0.5555839780187314  0.6265462731700249
  0.4444426704686602  0.0555462031977488  0.6249261287538690
  0.9444102675242799  0.5555404609788854  0.6249100936341389
  0.1110893791327233  0.5555505101867181  0.1250254908225047
  0.7777778733546390  0.0555556033439874  0.6249814185668313
  0.2777615188485886  0.0555419413676975  0.1250218434771350
  0.4444311161563558  0.5555603848024788  0.1243291618832440
  0.7777349071512152  0.5555341202422753  0.1248087653942068
  0.6111142019946431  0.0555490063881598  0.1250588077868439
  0.4444311161563558  0.5555603848024788  0.6256708381167557
  0.9444255146650399  0.0555416185117485  0.1250335603189290
  0.2777735187716296  0.7222231400741898  0.6249672105552831
  0.1110632524251233  0.2221982928792258  0.6249977169228715
  0.4444311161563558  0.2222040646872113  0.6256708381167557
  0.6110969011784381  0.7222331015083322  0.6251055799812881
  0.9444102675242799  0.7222031398787288  0.6249100936341389
  0.7777700136709664  0.2222135346142462  0.6249352353983494
  0.1110896690658560  0.7222115011995920  0.1250278493216424
  0.4444426704686602  0.7222298006042476  0.1250738712461310
  0.2777074931603664  0.2221803817856866  0.1244815922058132
  0.7777396243169412  0.7222049580735914  0.1249984157826989
  0.6110969011784381  0.2221971330034338  0.1248944200187112
  0.9444255146650399  0.2222172294866282  0.1250335603189290
  0.1110760771973404  0.3888823838003409  0.6249222435030346
  0.2777735187716296  0.8888837120307688  0.6249672105552831
  0.6111142019946431  0.8888985289398137  0.6249411922131570
  0.4442318524640295  0.3887825928986792  0.6281757985615483
  0.9444187421937768  0.8888670669775485  0.6249187051793779
  0.1110893791327233  0.8888722022793317  0.1250254908225047
  0.7777396243169412  0.3888679995766784  0.6250015842173026
  0.4444501652470241  0.8888917492901774  0.1250365488964347
  0.2777074931603664  0.3888604447080090  0.1244815922058132
  0.2777615188485886  0.5555529108142270  0.1250218434771350
  0.6110951468386810  0.3888445021532790  0.1234537268299748
  0.7777700136709664  0.8888898123900479  0.1250647646016508
  0.9444187421937768  0.3888850085495576  0.1250812948206219
  0.1110893791327233  0.5555505101867181  0.6249745091774944
  0.2777615188485886  0.0555419413676975  0.6249781565228650
  0.7777349071512152  0.5555341202422753  0.6251912346057924
  0.6111142019946431  0.0555490063881598  0.6249411922131570
  0.9444255146650399  0.0555416185117485  0.6249664396810701
  0.0591413542626253  0.1131353901196434  0.3750000000000000
  0.5554645273293959  0.6185348627639673  0.3750000000000000
  0.3884305305376158  0.1062408306357915  0.3750000000000000
  0.8861357160891612  0.6097345247112519  0.3750000000000000
  0.7244498370655453  0.1115407049869667  0.3750000000000000
  0.0555372758961893  0.7777692476684301  0.8750000000000000
  0.3888690098265707  0.7777704869329591  0.8750000000000000
  0.2222095483426559  0.2777714408379968  0.8750000000000000
  0.7222055781493868  0.7777688097621746  0.8750000000000000
  0.5555368159900201  0.2777647403616660  0.8750000000000000
  0.8888746734322636  0.2777719462588366  0.8750000000000000
  0.2209907823464214  0.7771620578398798  0.3750000000000000
  0.0591413542626253  0.2793392974763175  0.3750000000000000
  0.3941093668793021  0.2739620384407550  0.3750000000000000
  0.5563833990855417  0.7814193497516299  0.3750000000000000
  0.8882983796221114  0.7777047085170922  0.3750000000000000
  0.7236581536222148  0.2767975908190907  0.3750000000000000
  0.0555370739381926  0.9444344939416114  0.8750000000000000
  0.3888690098265707  0.9444318562269464  0.8750000000000000
  0.2222040222028328  0.4444393018768304  0.8750000000000000
  0.5555454208786763  0.4444393771060025  0.8750000000000000
  0.7222041980290059  0.9444351959497612  0.8750000000000000
  0.8888752628631067  0.4444376885992873  0.8750000000000000
  0.0566161887462848  0.4449209892571477  0.3750000000000000
  0.2214348677503805  0.9429762345557275  0.3750000000000000
  0.5565371041042211  0.9449352187187764  0.3750000000000000
  0.3941093668793021  0.4534806617718823  0.3750000000000000
  0.8912323291190114  0.9461973281311067  0.3750000000000000
  0.7192138660118822  0.4424788220541785  0.3750000000000000
  0.2221999278404455  0.6111024996528563  0.8750000000000000
  0.0555408305945404  0.1111022212926340  0.8750000000000000
  0.5555368159900201  0.6111054089616895  0.8750000000000000
  0.3888679361091394  0.1110930013568010  0.8750000000000000
  0.8888786648756573  0.6111059991044999  0.8750000000000000
  0.0540409556792410  0.6105714908524822  0.3750000000000000
  0.7222041980290059  0.1111023354125792  0.8750000000000000
  0.2251980982613203  0.1121577789398377  0.3750000000000000
  0.3884305305376158  0.6155230332351673  0.3750000000000000
  0.7192138660118822  0.6100683772910417  0.3750000000000000
  0.5563833990855417  0.1082973826672479  0.3750000000000000
  0.3888679361091394  0.6111082680856811  0.8750000000000000
  0.8919741763965968  0.1126537548649700  0.3750000000000000
  0.2222010605270238  0.7777671969301788  0.8750000000000000
  0.0555408305945404  0.2777719426352412  0.8750000000000000
  0.3888731531119238  0.2777592851692934  0.8750000000000000
  0.5555354683296676  0.7777699447634517  0.8750000000000000
  0.8888752628631067  0.7777709075971575  0.8750000000000000
  0.7222055781493868  0.2777701017205470  0.8750000000000000
  0.0540409556792410  0.7768027981600935  0.3750000000000000
  0.3884923409939567  0.7790327069948851  0.3750000000000000
  0.2277554188044537  0.2805443760688938  0.3750000000000000
  0.7236581536222148  0.7801938961364573  0.3750000000000000
  0.5554645273293961  0.2702629978987641  0.3750000000000000
  0.8912323291190114  0.2783683343212415  0.3750000000000000
  0.0555370739381926  0.4444359133299112  0.8750000000000000
  0.2221999278404455  0.9444307615209262  0.8750000000000000
  0.5555351872870901  0.9444342603102108  0.8750000000000000
  0.3888731531119238  0.4444472012759665  0.8750000000000000
  0.8888746734322636  0.9444360605067623  0.8750000000000000
  0.0566161887462848  0.9450285328224639  0.3750000000000000
  0.7222128235933217  0.4444404931882954  0.8750000000000000
  0.3884923409939567  0.9427929673324061  0.3750000000000000
  0.2251980982613203  0.4463736526548187  0.3750000000000000
  0.2214348677503805  0.6117919665279877  0.3750000000000000
  0.7244498370655453  0.9462424654119165  0.3750000000000000
  0.8882983796221114  0.4439270044383551  0.3750000000000000
  0.0555372758961893  0.6111013615610956  0.8750000000000000
  0.2222040222028328  0.1110980536593381  0.8750000000000000
  0.7222128235933217  0.6111056637383623  0.8750000000000000
  0.5555354683296676  0.1110988568995516  0.8750000000000000
  0.8888747874696200  0.1111040604014811  0.8750000000000000
  0.1138390687585783  0.0567948385397058  0.3750000000000000
  0.6095305698367650  0.5641722103970204  0.3750000000000000
  0.4449743371544806  0.0527612758876672  0.3750000000000000
  0.9428910066403511  0.5549744566517677  0.3750000000000000
  0.7807558783958749  0.0570446058646052  0.3750000000000000
  0.1110947577059079  0.7222140455196185  0.8750000000000000
  0.4444185812460467  0.7222029027619559  0.8750000000000000
  0.2777888307579738  0.2222313917916227  0.8750000000000000
  0.7777504084605199  0.7221969693979692  0.8750000000000000
  0.6110773708585867  0.2222211890925252  0.8750000000000000
  0.9444406227504706  0.2222203289924123  0.8750000000000000
  0.2772004704935450  0.7226279417118641  0.3750000000000000
  0.1159720312870386  0.2246526823101829  0.3750000000000000
  0.4444839022147222  0.2156007288642257  0.3750000000000000
  0.6129322117620291  0.7281860625412230  0.3750000000000000
  0.9428910066403510  0.7212498833219184  0.3750000000000000
  0.7802648877240530  0.2223783984075716  0.3750000000000000
  0.1110979040542697  0.8888837405710950  0.8750000000000000
  0.4444198233900021  0.8888765783616650  0.8750000000000000
  0.2777888307579738  0.3888907722996788  0.8750000000000000
  0.6110693004854088  0.3888907376419496  0.8750000000000000
  0.7777583460974697  0.8888739796735935  0.8750000000000000
  0.9444324717365179  0.3888850134077712  0.8750000000000000
  0.1138390687585783  0.3903775635522017  0.3750000000000000
  0.2772004704935450  0.8879058621150118  0.3750000000000000
  0.6131448159253620  0.8914432219619858  0.3750000000000000
  0.9454425216128155  0.8895357722460562  0.3750000000000000
  0.7772601697906135  0.3877623349180973  0.3750000000000000
  0.2777650939534208  0.5555435338560115  0.8750000000000000
  0.1111103073685623  0.0555576630422215  0.8750000000000000
  0.6110693004854088  0.5555118961767881  0.8750000000000000
  0.4444185812460467  0.0555490118174261  0.8750000000000000
  0.9444280319378697  0.5555494186763318  0.8750000000000000
  0.1105434639372764  0.5558332705738941  0.3750000000000000
  0.7777621475455763  0.0555477404394564  0.8750000000000000
  0.2778468549721243  0.0537942330390241  0.3750000000000000
  0.4444839022147222  0.5622165066838326  0.3750000000000000
  0.7746479373319932  0.5539906353326637  0.3750000000000000
  0.6131448159253620  0.0550349272967061  0.3750000000000000
  0.4444225898279738  0.5555314497434877  0.8750000000000000
  0.9478627596491179  0.0575243601070855  0.3750000000000000
  0.2777579207187561  0.7222104552307869  0.8750000000000000
  0.1111215147217733  0.2222274240275511  0.8750000000000000
  0.4444225898279738  0.2222244734178216  0.8750000000000000
  0.6110773708585867  0.7221895150993912  0.8750000000000000
  0.9444280319378697  0.7222119465948725  0.8750000000000000
  0.7777583460974697  0.2222176997572071  0.8750000000000000
  0.1098360284081433  0.7215846808707355  0.3750000000000000
  0.4449743371544806  0.7255463946001487  0.3750000000000000
  0.2833475989471368  0.2245696777721519  0.3750000000000000
  0.7772601697906135  0.7228311682058455  0.3750000000000000
  0.6129322117620291  0.2180794825541358  0.3750000000000000
  0.9478627596491179  0.2236717328753686  0.3750000000000000
  0.1111103073685623  0.3888859776596701  0.8750000000000000
  0.2777579207187561  0.8888807988212984  0.8750000000000000
  0.6110849441142624  0.8888726676297881  0.8750000000000000
  0.4444434083475081  0.3888883708404176  0.8750000000000000
  0.9444324717365179  0.8888807916620741  0.8750000000000000
  0.1105434639372764  0.8880435266967108  0.3750000000000000
  0.7777504084605199  0.3888867723958789  0.8750000000000000
  0.4450500323396132  0.8891916828364722  0.3750000000000000
  0.2833475989471368  0.3921112545083128  0.3750000000000000
  0.2778468549721243  0.5573859552664364  0.3750000000000000
  0.6095305698367650  0.3786916927730746  0.3750000000000000
  0.7802648877240530  0.8912198226498107  0.3750000000000000
  0.9454425216128155  0.3892400827000901  0.3750000000000000
  0.1110979040542697  0.5555474968165010  0.8750000000000000
  0.2777650939534208  0.0555548934307453  0.8750000000000000
  0.7777489714755415  0.5555411524044371  0.8750000000000000
  0.6110849441142624  0.0555456098178013  0.8750000000000000
  0.9444406227504706  0.0555536270913927  0.8750000000000000
  0.0555579186987545  0.1111176945862831  0.1250147898201288
  0.5555146348872080  0.6110338200322564  0.1241536496597959
  0.3888933118177690  0.1111616650487497  0.1248819102384120
  0.8888139499837956  0.6110736416585688  0.1249666018764160
  0.7222158506411499  0.1111002713805821  0.1249915668863562
  0.0555391853881653  0.7777734590212371  0.6249943895572093
  0.3888893264370879  0.7777695847643020  0.6249882356065618
  0.2222225306316238  0.2777779319824804  0.6253301291258633
  0.7221798268501647  0.7777630996479875  0.6250986930303088
  0.5555146348872080  0.2778141481882857  0.6258463503402032
  0.8888830030643299  0.2777695081991762  0.6249871475719101
  0.2222217313493064  0.7777775323413212  0.1249984205868111
  0.0555579186987545  0.2777735574458081  0.1250147898201288
  0.3888605944318846  0.2778295351196094  0.1236479624641114
  0.5555382676819645  0.7777676593227565  0.1249832935901748
  0.8888456767879647  0.7777569741960501  0.1250063455866937
  0.7221798268501647  0.2777500605355117  0.1249013069696919
  0.0555505329553102  0.9444482427563204  0.6249680410020736
  0.3888893264370879  0.9444530750061191  0.6249882356065618
  0.2222223815909848  0.4444152074130379  0.6250452660771468
  0.5553563251329376  0.4443448292331331  0.6260024629830945
  0.7222158506411499  0.9444489125939022  0.6250084331136428
  0.8888456767879647  0.4444220359252480  0.6249936544133070
  0.0555505329553102  0.4444356235323186  0.1250319589979252
  0.2222290460131342  0.9444664717780408  0.1250090319315940
  0.5555522237032013  0.9444427785182659  0.1250122165555913
  0.3888605944318846  0.4443643926456121  0.1236479624641114
  0.8888830030643299  0.9444468281984912  0.1250128524280905
  0.7220633283916778  0.4443753999675735  0.1243342909305521
  0.2222290460131342  0.6110959075684285  0.6249909680684064
  0.0555579186987545  0.1111176945862831  0.6249852101798705
  0.5555146348872080  0.6110338200322564  0.6258463503402032
  0.3888933118177690  0.1111616650487497  0.6251180897615870
  0.8888139499837956  0.6110736416585688  0.6250333981235853
  0.0555391853881653  0.6110990597002631  0.1250056104427917
  0.7222158506411499  0.1111002713805821  0.6250084331136428
  0.2222223815909848  0.1111405075112828  0.1249547339228538
  0.3888933118177690  0.6110649801023632  0.1248819102384120
  0.7220633283916778  0.6110212617574414  0.1243342909305521
  0.5555382676819645  0.1111039416925422  0.1249832935901748
  0.3888933118177690  0.6110649801023632  0.6251180897615870
  0.8888908569777880  0.1111120951555659  0.1250009727920339
  0.2222217313493064  0.7777775323413212  0.6250015794131888
  0.0555579186987545  0.2777735574458081  0.6249852101798705
  0.3888605944318846  0.2778295351196094  0.6263520375358884
  0.5555382676819645  0.7777676593227565  0.6250167064098247
  0.8888456767879647  0.7777569741960501  0.6249936544133070
  0.7221798268501647  0.2777500605355117  0.6250986930303088
  0.0555391853881653  0.7777734590212371  0.1250056104427917
  0.3888893264370879  0.7777695847643020  0.1250117643934391
  0.2222225306316238  0.2777779319824804  0.1246698708741371
  0.7221798268501647  0.7777630996479875  0.1249013069696919
  0.5555146348872080  0.2778141481882857  0.1241536496597959
  0.8888830030643299  0.2777695081991762  0.1250128524280905
  0.0555505329553102  0.4444356235323186  0.6249680410020736
  0.2222290460131342  0.9444664717780408  0.6249909680684064
  0.5555522237032013  0.9444427785182659  0.6249877834444101
  0.3888605944318846  0.4443643926456121  0.6263520375358884
  0.8888830030643299  0.9444468281984912  0.6249871475719101
  0.0555505329553102  0.9444482427563204  0.1250319589979252
  0.7220633283916778  0.4443753999675735  0.6256657090694473
  0.3888893264370879  0.9444530750061191  0.1250117643934391
  0.2222223815909848  0.4444152074130379  0.1249547339228538
  0.2222290460131342  0.6110959075684285  0.1250090319315940
  0.5553563251329376  0.4443448292331331  0.1239975370169053
  0.7222158506411499  0.9444489125939022  0.1249915668863562
  0.8888456767879647  0.4444220359252480  0.1250063455866937
  0.0555391853881653  0.6110990597002631  0.6249943895572093
  0.2222223815909848  0.1111405075112828  0.6250452660771468
  0.7220633283916778  0.6110212617574414  0.6256657090694473
  0.5555382676819645  0.1111039416925422  0.6250167064098247
  0.8888908569777880  0.1111120951555659  0.6249990272079671
 
  0.00000000E+00  0.00000000E+00  0.00000000E+00
  0.00000000E+00  0.00000000E+00  0.00000000E+00
  0.00000000E+00  0.00000000E+00  0.00000000E+00
  0.00000000E+00  0.00000000E+00  0.00000000E+00
  0.00000000E+00  0.00000000E+00  0.00000000E+00
  0.00000000E+00  0.00000000E+00  0.00000000E+00
  0.00000000E+00  0.00000000E+00  0.00000000E+00
  0.00000000E+00  0.00000000E+00  0.00000000E+00
  0.00000000E+00  0.00000000E+00  0.00000000E+00
  0.00000000E+00  0.00000000E+00  0.00000000E+00
  0.00000000E+00  0.00000000E+00  0.00000000E+00
  0.00000000E+00  0.00000000E+00  0.00000000E+00
  0.00000000E+00  0.00000000E+00  0.00000000E+00
  0.00000000E+00  0.00000000E+00  0.00000000E+00
  0.00000000E+00  0.00000000E+00  0.00000000E+00
  0.00000000E+00  0.00000000E+00  0.00000000E+00
  0.00000000E+00  0.00000000E+00  0.00000000E+00
  0.00000000E+00  0.00000000E+00  0.00000000E+00
  0.00000000E+00  0.00000000E+00  0.00000000E+00
  0.00000000E+00  0.00000000E+00  0.00000000E+00
  0.00000000E+00  0.00000000E+00  0.00000000E+00
  0.00000000E+00  0.00000000E+00  0.00000000E+00
  0.00000000E+00  0.00000000E+00  0.00000000E+00
  0.00000000E+00  0.00000000E+00  0.00000000E+00
  0.00000000E+00  0.00000000E+00  0.00000000E+00
  0.00000000E+00  0.00000000E+00  0.00000000E+00
  0.00000000E+00  0.00000000E+00  0.00000000E+00
  0.00000000E+00  0.00000000E+00  0.00000000E+00
  0.00000000E+00  0.00000000E+00  0.00000000E+00
  0.00000000E+00  0.00000000E+00  0.00000000E+00
  0.00000000E+00  0.00000000E+00  0.00000000E+00
  0.00000000E+00  0.00000000E+00  0.00000000E+00
  0.00000000E+00  0.00000000E+00  0.00000000E+00
  0.00000000E+00  0.00000000E+00  0.00000000E+00
  0.00000000E+00  0.00000000E+00  0.00000000E+00
  0.00000000E+00  0.00000000E+00  0.00000000E+00
  0.00000000E+00  0.00000000E+00  0.00000000E+00
  0.00000000E+00  0.00000000E+00  0.00000000E+00
  0.00000000E+00  0.00000000E+00  0.00000000E+00
  0.00000000E+00  0.00000000E+00  0.00000000E+00
  0.00000000E+00  0.00000000E+00  0.00000000E+00
  0.00000000E+00  0.00000000E+00  0.00000000E+00
  0.00000000E+00  0.00000000E+00  0.00000000E+00
  0.00000000E+00  0.00000000E+00  0.00000000E+00
  0.00000000E+00  0.00000000E+00  0.00000000E+00
  0.00000000E+00  0.00000000E+00  0.00000000E+00
  0.00000000E+00  0.00000000E+00  0.00000000E+00
  0.00000000E+00  0.00000000E+00  0.00000000E+00
  0.00000000E+00  0.00000000E+00  0.00000000E+00
  0.00000000E+00  0.00000000E+00  0.00000000E+00
  0.00000000E+00  0.00000000E+00  0.00000000E+00
  0.00000000E+00  0.00000000E+00  0.00000000E+00
  0.00000000E+00  0.00000000E+00  0.00000000E+00
  0.00000000E+00  0.00000000E+00  0.00000000E+00
  0.00000000E+00  0.00000000E+00  0.00000000E+00
  0.00000000E+00  0.00000000E+00  0.00000000E+00
  0.00000000E+00  0.00000000E+00  0.00000000E+00
  0.00000000E+00  0.00000000E+00  0.00000000E+00
  0.00000000E+00  0.00000000E+00  0.00000000E+00
  0.00000000E+00  0.00000000E+00  0.00000000E+00
  0.00000000E+00  0.00000000E+00  0.00000000E+00
  0.00000000E+00  0.00000000E+00  0.00000000E+00
  0.00000000E+00  0.00000000E+00  0.00000000E+00
  0.00000000E+00  0.00000000E+00  0.00000000E+00
  0.00000000E+00  0.00000000E+00  0.00000000E+00
  0.00000000E+00  0.00000000E+00  0.00000000E+00
  0.00000000E+00  0.00000000E+00  0.00000000E+00
  0.00000000E+00  0.00000000E+00  0.00000000E+00
  0.00000000E+00  0.00000000E+00  0.00000000E+00
  0.00000000E+00  0.00000000E+00  0.00000000E+00
  0.00000000E+00  0.00000000E+00  0.00000000E+00
  0.00000000E+00  0.00000000E+00  0.00000000E+00
  0.00000000E+00  0.00000000E+00  0.00000000E+00
  0.00000000E+00  0.00000000E+00  0.00000000E+00
  0.00000000E+00  0.00000000E+00  0.00000000E+00
  0.00000000E+00  0.00000000E+00  0.00000000E+00
  0.00000000E+00  0.00000000E+00  0.00000000E+00
  0.00000000E+00  0.00000000E+00  0.00000000E+00
  0.00000000E+00  0.00000000E+00  0.00000000E+00
  0.00000000E+00  0.00000000E+00  0.00000000E+00
  0.00000000E+00  0.00000000E+00  0.00000000E+00
  0.00000000E+00  0.00000000E+00  0.00000000E+00
  0.00000000E+00  0.00000000E+00  0.00000000E+00
  0.00000000E+00  0.00000000E+00  0.00000000E+00
  0.00000000E+00  0.00000000E+00  0.00000000E+00
  0.00000000E+00  0.00000000E+00  0.00000000E+00
  0.00000000E+00  0.00000000E+00  0.00000000E+00
  0.00000000E+00  0.00000000E+00  0.00000000E+00
  0.00000000E+00  0.00000000E+00  0.00000000E+00
  0.00000000E+00  0.00000000E+00  0.00000000E+00
  0.00000000E+00  0.00000000E+00  0.00000000E+00
  0.00000000E+00  0.00000000E+00  0.00000000E+00
  0.00000000E+00  0.00000000E+00  0.00000000E+00
  0.00000000E+00  0.00000000E+00  0.00000000E+00
  0.00000000E+00  0.00000000E+00  0.00000000E+00
  0.00000000E+00  0.00000000E+00  0.00000000E+00
  0.00000000E+00  0.00000000E+00  0.00000000E+00
  0.00000000E+00  0.00000000E+00  0.00000000E+00
  0.00000000E+00  0.00000000E+00  0.00000000E+00
  0.00000000E+00  0.00000000E+00  0.00000000E+00
  0.00000000E+00  0.00000000E+00  0.00000000E+00
  0.00000000E+00  0.00000000E+00  0.00000000E+00
  0.00000000E+00  0.00000000E+00  0.00000000E+00
  0.00000000E+00  0.00000000E+00  0.00000000E+00
  0.00000000E+00  0.00000000E+00  0.00000000E+00
  0.00000000E+00  0.00000000E+00  0.00000000E+00
  0.00000000E+00  0.00000000E+00  0.00000000E+00
  0.00000000E+00  0.00000000E+00  0.00000000E+00
  0.00000000E+00  0.00000000E+00  0.00000000E+00
  0.00000000E+00  0.00000000E+00  0.00000000E+00
  0.00000000E+00  0.00000000E+00  0.00000000E+00
  0.00000000E+00  0.00000000E+00  0.00000000E+00
  0.00000000E+00  0.00000000E+00  0.00000000E+00
  0.00000000E+00  0.00000000E+00  0.00000000E+00
  0.00000000E+00  0.00000000E+00  0.00000000E+00
  0.00000000E+00  0.00000000E+00  0.00000000E+00
  0.00000000E+00  0.00000000E+00  0.00000000E+00
  0.00000000E+00  0.00000000E+00  0.00000000E+00
  0.00000000E+00  0.00000000E+00  0.00000000E+00
  0.00000000E+00  0.00000000E+00  0.00000000E+00
  0.00000000E+00  0.00000000E+00  0.00000000E+00
  0.00000000E+00  0.00000000E+00  0.00000000E+00
  0.00000000E+00  0.00000000E+00  0.00000000E+00
  0.00000000E+00  0.00000000E+00  0.00000000E+00
  0.00000000E+00  0.00000000E+00  0.00000000E+00
  0.00000000E+00  0.00000000E+00  0.00000000E+00
  0.00000000E+00  0.00000000E+00  0.00000000E+00
  0.00000000E+00  0.00000000E+00  0.00000000E+00
  0.00000000E+00  0.00000000E+00  0.00000000E+00
  0.00000000E+00  0.00000000E+00  0.00000000E+00
  0.00000000E+00  0.00000000E+00  0.00000000E+00
  0.00000000E+00  0.00000000E+00  0.00000000E+00
  0.00000000E+00  0.00000000E+00  0.00000000E+00
  0.00000000E+00  0.00000000E+00  0.00000000E+00
  0.00000000E+00  0.00000000E+00  0.00000000E+00
  0.00000000E+00  0.00000000E+00  0.00000000E+00
  0.00000000E+00  0.00000000E+00  0.00000000E+00
  0.00000000E+00  0.00000000E+00  0.00000000E+00
  0.00000000E+00  0.00000000E+00  0.00000000E+00
  0.00000000E+00  0.00000000E+00  0.00000000E+00
  0.00000000E+00  0.00000000E+00  0.00000000E+00
  0.00000000E+00  0.00000000E+00  0.00000000E+00
  0.00000000E+00  0.00000000E+00  0.00000000E+00
  0.00000000E+00  0.00000000E+00  0.00000000E+00
  0.00000000E+00  0.00000000E+00  0.00000000E+00
  0.00000000E+00  0.00000000E+00  0.00000000E+00
  0.00000000E+00  0.00000000E+00  0.00000000E+00
  0.00000000E+00  0.00000000E+00  0.00000000E+00
  0.00000000E+00  0.00000000E+00  0.00000000E+00
  0.00000000E+00  0.00000000E+00  0.00000000E+00
  0.00000000E+00  0.00000000E+00  0.00000000E+00
  0.00000000E+00  0.00000000E+00  0.00000000E+00
  0.00000000E+00  0.00000000E+00  0.00000000E+00
  0.00000000E+00  0.00000000E+00  0.00000000E+00
  0.00000000E+00  0.00000000E+00  0.00000000E+00
  0.00000000E+00  0.00000000E+00  0.00000000E+00
  0.00000000E+00  0.00000000E+00  0.00000000E+00
  0.00000000E+00  0.00000000E+00  0.00000000E+00
  0.00000000E+00  0.00000000E+00  0.00000000E+00
  0.00000000E+00  0.00000000E+00  0.00000000E+00
  0.00000000E+00  0.00000000E+00  0.00000000E+00
  0.00000000E+00  0.00000000E+00  0.00000000E+00
  0.00000000E+00  0.00000000E+00  0.00000000E+00
  0.00000000E+00  0.00000000E+00  0.00000000E+00
  0.00000000E+00  0.00000000E+00  0.00000000E+00
  0.00000000E+00  0.00000000E+00  0.00000000E+00
  0.00000000E+00  0.00000000E+00  0.00000000E+00
  0.00000000E+00  0.00000000E+00  0.00000000E+00
  0.00000000E+00  0.00000000E+00  0.00000000E+00
  0.00000000E+00  0.00000000E+00  0.00000000E+00
  0.00000000E+00  0.00000000E+00  0.00000000E+00
  0.00000000E+00  0.00000000E+00  0.00000000E+00
  0.00000000E+00  0.00000000E+00  0.00000000E+00
  0.00000000E+00  0.00000000E+00  0.00000000E+00
  0.00000000E+00  0.00000000E+00  0.00000000E+00
  0.00000000E+00  0.00000000E+00  0.00000000E+00
  0.00000000E+00  0.00000000E+00  0.00000000E+00
  0.00000000E+00  0.00000000E+00  0.00000000E+00
  0.00000000E+00  0.00000000E+00  0.00000000E+00
  0.00000000E+00  0.00000000E+00  0.00000000E+00
  0.00000000E+00  0.00000000E+00  0.00000000E+00
  0.00000000E+00  0.00000000E+00  0.00000000E+00
  0.00000000E+00  0.00000000E+00  0.00000000E+00
  0.00000000E+00  0.00000000E+00  0.00000000E+00
  0.00000000E+00  0.00000000E+00  0.00000000E+00
  0.00000000E+00  0.00000000E+00  0.00000000E+00
  0.00000000E+00  0.00000000E+00  0.00000000E+00
  0.00000000E+00  0.00000000E+00  0.00000000E+00
  0.00000000E+00  0.00000000E+00  0.00000000E+00
  0.00000000E+00  0.00000000E+00  0.00000000E+00
  0.00000000E+00  0.00000000E+00  0.00000000E+00
  0.00000000E+00  0.00000000E+00  0.00000000E+00
  0.00000000E+00  0.00000000E+00  0.00000000E+00
  0.00000000E+00  0.00000000E+00  0.00000000E+00
  0.00000000E+00  0.00000000E+00  0.00000000E+00
  0.00000000E+00  0.00000000E+00  0.00000000E+00
  0.00000000E+00  0.00000000E+00  0.00000000E+00
  0.00000000E+00  0.00000000E+00  0.00000000E+00
  0.00000000E+00  0.00000000E+00  0.00000000E+00
  0.00000000E+00  0.00000000E+00  0.00000000E+00
  0.00000000E+00  0.00000000E+00  0.00000000E+00
  0.00000000E+00  0.00000000E+00  0.00000000E+00
  0.00000000E+00  0.00000000E+00  0.00000000E+00
  0.00000000E+00  0.00000000E+00  0.00000000E+00
  0.00000000E+00  0.00000000E+00  0.00000000E+00
  0.00000000E+00  0.00000000E+00  0.00000000E+00
  0.00000000E+00  0.00000000E+00  0.00000000E+00
  0.00000000E+00  0.00000000E+00  0.00000000E+00
  0.00000000E+00  0.00000000E+00  0.00000000E+00
  0.00000000E+00  0.00000000E+00  0.00000000E+00
  0.00000000E+00  0.00000000E+00  0.00000000E+00
  0.00000000E+00  0.00000000E+00  0.00000000E+00
  0.00000000E+00  0.00000000E+00  0.00000000E+00
  0.00000000E+00  0.00000000E+00  0.00000000E+00
  0.00000000E+00  0.00000000E+00  0.00000000E+00
  0.00000000E+00  0.00000000E+00  0.00000000E+00
  0.00000000E+00  0.00000000E+00  0.00000000E+00
  0.00000000E+00  0.00000000E+00  0.00000000E+00
  0.00000000E+00  0.00000000E+00  0.00000000E+00
  0.00000000E+00  0.00000000E+00  0.00000000E+00
  0.00000000E+00  0.00000000E+00  0.00000000E+00
  0.00000000E+00  0.00000000E+00  0.00000000E+00
  0.00000000E+00  0.00000000E+00  0.00000000E+00
  0.00000000E+00  0.00000000E+00  0.00000000E+00
  0.00000000E+00  0.00000000E+00  0.00000000E+00
  0.00000000E+00  0.00000000E+00  0.00000000E+00
  0.00000000E+00  0.00000000E+00  0.00000000E+00
  0.00000000E+00  0.00000000E+00  0.00000000E+00
  0.00000000E+00  0.00000000E+00  0.00000000E+00
  0.00000000E+00  0.00000000E+00  0.00000000E+00
  0.00000000E+00  0.00000000E+00  0.00000000E+00
  0.00000000E+00  0.00000000E+00  0.00000000E+00
  0.00000000E+00  0.00000000E+00  0.00000000E+00
  0.00000000E+00  0.00000000E+00  0.00000000E+00
  0.00000000E+00  0.00000000E+00  0.00000000E+00
  0.00000000E+00  0.00000000E+00  0.00000000E+00
  0.00000000E+00  0.00000000E+00  0.00000000E+00
  0.00000000E+00  0.00000000E+00  0.00000000E+00
  0.00000000E+00  0.00000000E+00  0.00000000E+00
  0.00000000E+00  0.00000000E+00  0.00000000E+00
  0.00000000E+00  0.00000000E+00  0.00000000E+00
  0.00000000E+00  0.00000000E+00  0.00000000E+00
  0.00000000E+00  0.00000000E+00  0.00000000E+00
  0.00000000E+00  0.00000000E+00  0.00000000E+00
  0.00000000E+00  0.00000000E+00  0.00000000E+00
  0.00000000E+00  0.00000000E+00  0.00000000E+00
  0.00000000E+00  0.00000000E+00  0.00000000E+00
  0.00000000E+00  0.00000000E+00  0.00000000E+00