 In N B 
 1.0
 14.936314146199660   0.000000000000000   0.000000000000000
 -7.468157073099825  12.935227489513863   0.000000000000000
  0.000000000000001   0.000000000000001  13.341276283792837
 In N B 
   1 144 143
Cartesian
  3.734078536549917   5.030366245922021   5.002978606422314 
  1.244425723803683   0.718228049850254   1.663991457443755 
  4.978866397658635   7.187012059582256   1.669118697681391 
  6.223731349296147   0.718228049850254   1.663991457443755 
  9.957559044677343   7.186366460933260   1.667293981343127 
 11.202235609649751   0.718623749417456   1.667512381912814 
 -3.734078536549858   9.342108742426664   8.338182152440037 
  1.244483720495668   9.342537926399601   8.341965755400899 
  2.488762405509215   2.874025429049343   8.336838515163237 
  6.223673352604185   9.342537926399601   8.341965755400899 
  7.468553646952386   2.874266035649238   8.341915586008465 
 12.446682084611391   2.874416566819043   8.339490855270807 
 -1.244812674278166   9.342058358412173   1.667293981343127 
 -0.000396573852461   2.874266035649237   1.664041626836177 
  4.979394667590602   2.874025429049342   1.669118697681391 
  3.734078536549965   9.342566666467665   1.664041626836177 
  8.712969747378004   9.342058358412173   1.667293981343127 
  9.957789134688101   2.874416566819042   1.666466357573807 
 -4.978667833849232  11.497901407934595   8.338663231501489 
  0.000120075963756  11.498049316568947   8.339140913589787 
  1.243974544400550   5.030061249134556   8.336838515163237 
  6.224182528699389   5.030061249134556   8.336838515163237 
  4.978826644234938  11.498232569263653   8.339490855270807 
 11.202235609649748   5.030227594142033   8.339140913589787 
 -1.245169092250522   5.030332761516259   1.663991457443755 
 -2.489489239250512  11.497901407934595   1.667293981343127 
  2.489330428865024  11.498232569263653   1.666466357573807 
  3.734078536549917   5.030366245922020   1.732834421164953 
  7.468036997136085  11.498049316568947   1.666816299254814 
  8.713326165350459   5.030332761516259   1.663991457443755 
 -0.000200920530185   7.186353495696600   8.340750719593213 
  1.244425723803683   0.718228049850254   8.341965755400899 
  4.978866397658636   7.187012059582257   8.336838515163237 
  6.223731349296148   0.718228049850254   8.341965755400899 
  9.957559044677343   7.186366460933261   8.338663231501489 
 -2.489401971577551   7.186366460933260   1.667293981343127 
 11.202235609649751   0.718623749417456   8.338444830931799 
  3.734078536549923   0.718391746373085   1.665206493251428 
  2.489290675441184   7.187012059582256   1.669118697681391 
  7.468357993629976   7.186353495696599   1.665206493251428 
  8.713041027003166   0.718449601683430   1.666466357573807 
  2.489290675441185   7.187012059582257   8.336838515163237 
 13.691430192296369   0.718449601683430   1.666466357573807 
 -1.244812674278166   9.342058358412173   8.338663231501489 
 -0.000396573852461   2.874266035649238   8.341915586008465 
  4.979394667590603   2.874025429049343   8.336838515163237 
  3.734078536549965   9.342566666467665   8.341915586008465 
  8.712969747378004   9.342058358412173   8.338663231501489 
  9.957789134688101   2.874416566819043   8.339490855270807 
 -3.734078536549859   9.342108742426664   1.667775060404591 
  1.244483720495667   9.342537926399601   1.663991457443755 
  2.488762405509214   2.874025429049342   1.669118697681391 
  6.223673352604184   9.342537926399601   1.663991457443755 
  7.468553646952385   2.874266035649237   1.664041626836177 
 12.446682084611391   2.874416566819042   1.666466357573807 
 -1.245169092250521   5.030332761516259   8.341965755400899 
 -2.489489239250511  11.497901407934595   8.338663231501489 
  2.489330428865025  11.498232569263653   8.339490855270807 
  3.734078536549917   5.030366245922021   8.273122791679688 
  7.468036997136086  11.498049316568947   8.339140913589787 
 -4.978667833849233  11.497901407934595   1.667293981343127 
  8.713326165350459   5.030332761516259   8.341965755400899 
  0.000120075963755  11.498049316568947   1.666816299254814 
  1.243974544400549   5.030061249134555   1.669118697681391 
 -0.000200920530186   7.186353495696599   1.665206493251428 
  6.224182528699388   5.030061249134555   1.669118697681391 
  4.978826644234937  11.498232569263653   1.666466357573807 
 11.202235609649748   5.030227594142032   1.666816299254814 
 -2.489401971577550   7.186366460933261   8.338663231501489 
  3.734078536549923   0.718391746373085   8.340750719593213 
  7.468357993629977   7.186353495696600   8.340750719593213 
  8.713041027003166   0.718449601683431   8.339490855270807 
 13.691430192296369   0.718449601683431   8.339490855270807 
 -0.016383502291576   1.423930030783664   5.002978606422314 
  3.734078536549963   7.923344804699755   5.002978606422314 
  5.025886536231572   1.312289482010624   5.002978606422314 
  8.750223391238183   7.926438828070594   5.002978606422314 
  9.964145717943191   1.433435281675208   5.002978606422314 
 -4.978713319964872  10.060698969674117  11.673616748318732 
  0.000062905184285  10.060767430388758  11.673616748318732 
  1.244777080189087   3.593167379998038  11.673616748318732 
  4.978850420322177  10.060638583908769  11.673616748318732 
  6.223379992910734   3.593167379998038  11.673616748318732 
 11.202235609649708   3.593063334994835  11.673616748318732 
 -2.496547353274579  10.056597704221268   5.002978606422314 
 -1.264417862308881   3.585588951925358   5.002978606422314 
  3.734078536549879   3.171036750284605   5.002978606422314 
  2.486044176532577  10.081579755057261   5.002978606422314 
  7.492163043666975  10.089152121412651   5.002978606422314 
  8.732574935408730   3.585588951925358   5.002978606422314 
 -6.223525937842497  12.216640748311749  11.673616748318732 
 -1.244631135257277  12.216640748311749  11.673616748318732 
 -0.000133936108303   5.749027537232847  11.673616748318732 
  4.978532490603834   5.748852071289139  11.673616748318732 
  3.734078536549928  12.216668985101025  11.673616748318732 
  9.957541569208125   5.748918048579504  11.673616748318732 
 -2.526000797489297   5.755569960908894   5.002978606422314 
 -3.734078536549902  12.173448571138932   5.002978606422314 
  1.249952211086482  12.219640236223919   5.002978606422314 
  2.123851959322169   5.960030993740749   5.002978606422314 
  6.218204862013330  12.219640236223919   5.002978606422314 
  7.599931467158736   5.770666083341439   5.002978606422314 
 -1.244860275305756   7.904957909225649  11.673616748318732 
  0.000120845785445   1.437226003665347  11.673616748318732 
  3.734078536549943   7.904763977770157  11.673616748318732 
  4.978805837887260   1.437112735815956  11.673616748318732 
  8.713017348405504   7.904957909225649  11.673616748318732 
 -3.734078536549911   7.913130818837547   5.002978606422314 
  9.957599267964548   1.437214876332605  11.673616748318732 
  2.442270536868155   1.312289482010624   5.002978606422314 
  1.160033605622763   8.008143172414169   5.002978606422314 
  6.308123467476984   8.008143172414169   5.002978606422314 
  7.484540575391392   1.423930030783664   5.002978606422314 
  1.244593365229070   7.904958464717391  11.673616748318732 
 12.440325501356211   1.433435281675208   5.002978606422314 
 -2.489443753134962  10.060698969674117  11.673616748318732 
 -1.244651037986797   3.593234150192106  11.673616748318732 
  3.734078536549873   3.593394595187838  11.673616748318732 
  2.489306652777678  10.060638583908769  11.673616748318732 
  7.468094167915449  10.060767430388758  11.673616748318732 
  8.712808111086645   3.593234150192106  11.673616748318732 
 -4.971609719825243  10.056597704221268   5.002978606422314 
 -0.024005970567224  10.089152121412651   5.002978606422314 
  1.228685612044760   3.583876966533245   5.002978606422314 
  4.982112896567218  10.081579755057261   5.002978606422314 
  6.239471461055103   3.583876966533245   5.002978606422314 
 11.202235609649673   3.587045754832217   5.002978606422314 
 -2.489384496108259   5.748918048579504  11.673616748318732 
 -3.734078536549894  12.216410408828786  11.673616748318732 
  1.244740833796335  12.216631446142580  11.673616748318732 
  2.489624582496003   5.748852071289139  11.673616748318732 
  6.223416239303521  12.216631446142580  11.673616748318732 
 -6.236073363472025  12.181604144958458   5.002978606422314 
  7.468291009208170   5.749027537232847  11.673616748318732 
 -1.232083709627765  12.181604144958458   5.002978606422314 
 -0.131774394058902   5.770666083341439   5.002978606422314 
 -1.282066318138450   7.926438828070594   5.002978606422314 
  5.344305113777667   5.960030993740749   5.002978606422314 
  3.734078536549937  12.224228174415828   5.002978606422314 
  9.994157870589161   5.755569960908894   5.002978606422314 
 -3.734078536549926   7.904928287931929  11.673616748318732 
  2.489351235212454   1.437112735815956  11.673616748318732 
  6.223563707870738   7.904958464717391  11.673616748318732 
  7.468036227314389   1.437226003665347  11.673616748318732 
 12.446871951334836   1.437214876332605  11.673616748318732 
  1.202804712021860   0.658004529345845   5.002978606422314 
  5.082106013751172   7.313328162132624   5.002978606422314 
  6.265352361077985   0.658004529345845   5.002978606422314 
  9.975444110879597   7.192024714178442   5.002978606422314 
 11.202235609649751   0.718623749417456   5.002978606422314 
 -3.734078536549858   9.342108742426666  11.673616748318732 
  1.244561012293091   9.342181736160240  11.673616748318732 
  2.488385252034075   2.874646769106766  11.673616748318732 
  6.223596060806748   9.342181736160240  11.673616748318732 
  7.467525473616212   2.874859651801650  11.673616748318732 
 12.446154100849165   2.874909613268501  11.673616748318732 
 -1.258655398430673   9.354718153469088   5.002978606422314 
 -0.015752415059538   2.865400336594690   5.002978606422314 
  5.037167813260051   2.721459247561094   5.002978606422314 
  3.734078536549963   9.360298064576760   5.002978606422314 
  8.726812471530511   9.354718153469088   5.002978606422314 
  9.966216640995345   2.865476017190114   5.002978606422314 
 -4.977973748481999  11.498261947080165  11.673616748318732 
  0.000712193339198  11.498391175695035  11.673616748318732 
  1.244324063937090   5.029423954615261  11.673616748318732 
  6.223833009162850   5.029423954615261  11.673616748318732 
  4.979517626866510  11.498443293389801  11.673616748318732 
 11.202235609649769   5.029543875889822  11.673616748318732 
 -1.318134696803584   5.024399668234194   5.002978606422314 
 -2.485446897200764  11.479583359632473   5.002978606422314 
  2.492859418813871  11.510001278630707   5.002978606422314 
  7.461154019173483  11.502023205748472   5.002978606422314 
  8.786291769903523   5.024399668234194   5.002978606422314 
 -0.001016577971846   7.186824415740067  11.673616748318732 
  1.244695547700865   0.718473081630047  11.673616748318732 
  4.978139724646987   7.187028014044103  11.673616748318732 
  6.223461525398968   0.718473081630047  11.673616748318732 
  9.956899765934605   7.186787286920898  11.673616748318732 
 -2.507287037779775   7.192024714178442   5.002978606422314 
 11.202235609649751   0.718623749417457  11.673616748318732 
  3.734078536549908   0.654793367344924   5.002978606422314 
  2.386051059348723   7.313328162132624   5.002978606422314 
  7.523435805507926   7.218152685210642   5.002978606422314 
  8.724997523259212   0.715621441945307   5.002978606422314 
  2.490017348452881   7.187028014044103  11.673616748318732 
 13.679473696040306   0.715621441945307   5.002978606422314 
 -1.244847480902700   9.341276993279010  11.673616748318732 
  0.000631599483725   2.874859651801650  11.673616748318732 
  4.979771821065729   2.874646769106766  11.673616748318732 
  3.734078536549963   9.341379434162844  11.673616748318732 
  8.713004554002481   9.341276993279010  11.673616748318732 
  9.958317118450312   2.874909613268501  11.673616748318732 
 -3.734078536549858   9.342108742426664   5.002978606422314 
  1.213139127724405   9.408694540186142   5.002978606422314 
  2.430989259839796   2.721459247561094   5.002978606422314 
  6.255017945375372   9.408694540186142   5.002978606422314 
  7.483909488159474   2.865400336594690   5.002978606422314 
 12.438254578304177   2.865476017190114   5.002978606422314 
 -1.244821976555895   5.030443919975870  11.673616748318732 
 -2.490183324617761  11.498261947080165  11.673616748318732 
  2.488639446233389  11.498443293389801  11.673616748318732 
  3.734078536549918   5.030366245922021  11.673616748318732 
  7.467444879760673  11.498391175695035  11.673616748318732 
 -4.982710175898951  11.479583359632473   5.002978606422314 
  8.712979049655864   5.030443919975870  11.673616748318732 
  0.007003053926297  11.502023205748472   5.002978606422314 
  1.082961782638639   5.056311328072411   5.002978606422314 
 -0.055278732408076   7.218152685210642   5.002978606422314 
  6.385195290461344   5.056311328072411   5.002978606422314 
  4.975297654286133  11.510001278630707   5.002978606422314 
 11.202235609649708   5.022279815783021   5.002978606422314 
 -2.488742692834813   7.186787286920898  11.673616748318732 
  3.734078536549917   0.717449906286034  11.673616748318732 
  7.469173651071731   7.186824415740067  11.673616748318732 
  8.712878028133749   0.717745831107841  11.673616748318732 
 13.691593191165724   0.717745831107841  11.673616748318732 
  0.000305424113233   1.436357944634383   1.665106849654690 
  3.734078536549911   7.906460969845828   1.667389127151018 
  4.979899932896440   1.435581452968447   1.665209215229096 
  8.713128989269510   7.905022365108535   1.666514981264102 
  9.958362970393559   1.436773952529634   1.667151736157719 
 -4.977947094352738  10.060256589110690   8.338623704636724 
  0.000451677575265  10.060503147555004   8.339829965114738 
  1.243307441941595   3.592318883960202   8.338568085693609 
  4.979694470658870  10.060912763903396   8.340850363189963 
  6.224849631158254   3.592318883960202   8.338568085693609 
 11.202235609649694   3.593160657418269   8.339142468062349 
 -2.490209978747096  10.060256589110690   1.667333508207889 
 -1.245310509995701   3.593828029228438   1.665106849654690 
  3.734078536549857   3.589190602285975   1.686566386471965 
  2.488462602440969  10.060912763903396   1.665106849654690 
  7.467705395524439  10.060503147555004   1.666127247729902 
  8.713467583095550   3.593828029228438   1.665106849654690 
 -6.223491448390227  12.217109576495538   8.339829965114738 
 -1.244665624709623  12.217109576495538   8.339829965114738 
 -0.002007113459216   5.748845664584496   8.340747997615573 
  4.982173255254197   5.750954067740083   8.319390826372677 
  3.734078536549935  12.217550832706950   8.338805476686922 
  9.957118307364800   5.748713503229488   8.339829965114738 
 -2.488961234264980   5.748713503229487   1.666127247729902 
 -3.734078536549902  12.216281497063022   1.666514981264102 
  1.244656550105280  12.216582784930861   1.666814744782266 
  2.485983817845638   5.750954067740082   1.686566386471965 
  6.223500522994557  12.216582784930861   1.666814744782266 
  7.470164186559052   5.748845664584495   1.665209215229096 
 -1.244971916169763   7.905022365108536   8.339442231580552 
  0.000305424113233   1.436357944634384   8.340850363189963 
  3.734078536549912   7.906460969845829   8.338568085693609 
  4.979899932896441   1.435581452968447   8.340747997615573 
  8.713128989269510   7.905022365108536   8.339442231580552 
 -3.734078536549896   7.905813049058726   1.667333508207889 
  9.958362970393559   1.436773952529635   8.338805476686922 
  2.488257140203271   1.435581452968447   1.665209215229096 
  1.243814282887294   7.906671620213326   1.665209215229096 
  6.224342790212393   7.906671620213326   1.665209215229096 
  7.467851648986583   1.436357944634383   1.665106849654690 
  1.243814282887294   7.906671620213327   8.340747997615573 
 12.446108248905844   1.436773952529634   1.667151736157719 
 -2.490209978747095  10.060256589110690   8.338623704636724 
 -1.245310509995701   3.593828029228439   8.340850363189963 
  3.734078536549857   3.589190602285976   8.319390826372677 
  2.488462602440970  10.060912763903396   8.340850363189963 
  7.467705395524440  10.060503147555004   8.339829965114738 
  8.713467583095550   3.593828029228439   8.340850363189963 
 -4.977947094352739  10.060256589110690   1.667333508207889 
  0.000451677575264  10.060503147555004   1.666127247729902 
  1.243307441941595   3.592318883960201   1.667389127151018 
  4.979694470658869  10.060912763903396   1.665106849654690 
  6.224849631158254   3.592318883960201   1.667389127151018 
 11.202235609649694   3.593160657418268   1.666814744782266 
 -2.488961234264980   5.748713503229488   8.339829965114738 
 -3.734078536549901  12.216281497063022   8.339442231580552 
  1.244656550105281  12.216582784930861   8.339142468062349 
  2.485983817845638   5.750954067740083   8.319390826372677 
  6.223500522994557  12.216582784930861   8.339142468062349 
 -6.223491448390228  12.217109576495538   1.666127247729902 
  7.470164186559053   5.748845664584496   8.340747997615573 
 -1.244665624709623  12.217109576495538   1.666127247729902 
 -0.002007113459216   5.748845664584495   1.665209215229096 
 -1.244971916169764   7.905022365108535   1.666514981264102 
  4.982173255254196   5.750954067740082   1.686566386471965 
  3.734078536549934  12.217550832706950   1.667151736157719 
  9.957118307364800   5.748713503229487   1.666127247729902 
 -3.734078536549896   7.905813049058727   8.338623704636724 
  2.488257140203272   1.435581452968447   8.340747997615573 
  6.224342790212394   7.906671620213327   8.340747997615573 
  7.467851648986584   1.436357944634384   8.340850363189963 
 12.446108248905844   1.436773952529635   8.338805476686922 
Generated by cif2cell 2.0.0.  :  Failed to get author information, No journal information. Species order: In N B 
 1.0
 14.936314146199660   0.000000000000000   0.000000000000000
 -7.468157073099825  12.935227489513863   0.000000000000000
  0.000000000000001   0.000000000000001  13.341276283792837
 In N B 
   1 144 143
Cartesian
  3.734078536549917   5.030366245922021   5.002978606422314 
  1.244425723803683   0.718228049850254   1.663991457443755 
  4.978866397658635   7.187012059582256   1.669118697681391 
  6.223731349296147   0.718228049850254   1.663991457443755 
  9.957559044677343   7.186366460933260   1.667293981343127 
 11.202235609649751   0.718623749417456   1.667512381912814 
 -3.734078536549858   9.342108742426664   8.338182152440037 
  1.244483720495668   9.342537926399601   8.341965755400899 
  2.488762405509215   2.874025429049343   8.336838515163237 
  6.223673352604185   9.342537926399601   8.341965755400899 
  7.468553646952386   2.874266035649238   8.341915586008465 
 12.446682084611391   2.874416566819043   8.339490855270807 
 -1.244812674278166   9.342058358412173   1.667293981343127 
 -0.000396573852461   2.874266035649237   1.664041626836177 
  4.979394667590602   2.874025429049342   1.669118697681391 
  3.734078536549965   9.342566666467665   1.664041626836177 
  8.712969747378004   9.342058358412173   1.667293981343127 
  9.957789134688101   2.874416566819042   1.666466357573807 
 -4.978667833849232  11.497901407934595   8.338663231501489 
  0.000120075963756  11.498049316568947   8.339140913589787 
  1.243974544400550   5.030061249134556   8.336838515163237 
  6.224182528699389   5.030061249134556   8.336838515163237 
  4.978826644234938  11.498232569263653   8.339490855270807 
 11.202235609649748   5.030227594142033   8.339140913589787 
 -1.245169092250522   5.030332761516259   1.663991457443755 
 -2.489489239250512  11.497901407934595   1.667293981343127 
  2.489330428865024  11.498232569263653   1.666466357573807 
  3.734078536549917   5.030366245922020   1.732834421164953 
  7.468036997136085  11.498049316568947   1.666816299254814 
  8.713326165350459   5.030332761516259   1.663991457443755 
 -0.000200920530185   7.186353495696600   8.340750719593213 
  1.244425723803683   0.718228049850254   8.341965755400899 
  4.978866397658636   7.187012059582257   8.336838515163237 
  6.223731349296148   0.718228049850254   8.341965755400899 
  9.957559044677343   7.186366460933261   8.338663231501489 
 -2.489401971577551   7.186366460933260   1.667293981343127 
 11.202235609649751   0.718623749417456   8.338444830931799 
  3.734078536549923   0.718391746373085   1.665206493251428 
  2.489290675441184   7.187012059582256   1.669118697681391 
  7.468357993629976   7.186353495696599   1.665206493251428 
  8.713041027003166   0.718449601683430   1.666466357573807 
  2.489290675441185   7.187012059582257   8.336838515163237 
 13.691430192296369   0.718449601683430   1.666466357573807 
 -1.244812674278166   9.342058358412173   8.338663231501489 
 -0.000396573852461   2.874266035649238   8.341915586008465 
  4.979394667590603   2.874025429049343   8.336838515163237 
  3.734078536549965   9.342566666467665   8.341915586008465 
  8.712969747378004   9.342058358412173   8.338663231501489 
  9.957789134688101   2.874416566819043   8.339490855270807 
 -3.734078536549859   9.342108742426664   1.667775060404591 
  1.244483720495667   9.342537926399601   1.663991457443755 
  2.488762405509214   2.874025429049342   1.669118697681391 
  6.223673352604184   9.342537926399601   1.663991457443755 
  7.468553646952385   2.874266035649237   1.664041626836177 
 12.446682084611391   2.874416566819042   1.666466357573807 
 -1.245169092250521   5.030332761516259   8.341965755400899 
 -2.489489239250511  11.497901407934595   8.338663231501489 
  2.489330428865025  11.498232569263653   8.339490855270807 
  3.734078536549917   5.030366245922021   8.273122791679688 
  7.468036997136086  11.498049316568947   8.339140913589787 
 -4.978667833849233  11.497901407934595   1.667293981343127 
  8.713326165350459   5.030332761516259   8.341965755400899 
  0.000120075963755  11.498049316568947   1.666816299254814 
  1.243974544400549   5.030061249134555   1.669118697681391 
 -0.000200920530186   7.186353495696599   1.665206493251428 
  6.224182528699388   5.030061249134555   1.669118697681391 
  4.978826644234937  11.498232569263653   1.666466357573807 
 11.202235609649748   5.030227594142032   1.666816299254814 
 -2.489401971577550   7.186366460933261   8.338663231501489 
  3.734078536549923   0.718391746373085   8.340750719593213 
  7.468357993629977   7.186353495696600   8.340750719593213 
  8.713041027003166   0.718449601683431   8.339490855270807 
 13.691430192296369   0.718449601683431   8.339490855270807 
 -0.016383502291576   1.423930030783664   5.002978606422314 
  3.734078536549963   7.923344804699755   5.002978606422314 
  5.025886536231572   1.312289482010624   5.002978606422314 
  8.750223391238183   7.926438828070594   5.002978606422314 
  9.964145717943191   1.433435281675208   5.002978606422314 
 -4.978713319964872  10.060698969674117  11.673616748318732 
  0.000062905184285  10.060767430388758  11.673616748318732 
  1.244777080189087   3.593167379998038  11.673616748318732 
  4.978850420322177  10.060638583908769  11.673616748318732 
  6.223379992910734   3.593167379998038  11.673616748318732 
 11.202235609649708   3.593063334994835  11.673616748318732 
 -2.496547353274579  10.056597704221268   5.002978606422314 
 -1.264417862308881   3.585588951925358   5.002978606422314 
  3.734078536549879   3.171036750284605   5.002978606422314 
  2.486044176532577  10.081579755057261   5.002978606422314 
  7.492163043666975  10.089152121412651   5.002978606422314 
  8.732574935408730   3.585588951925358   5.002978606422314 
 -6.223525937842497  12.216640748311749  11.673616748318732 
 -1.244631135257277  12.216640748311749  11.673616748318732 
 -0.000133936108303   5.749027537232847  11.673616748318732 
  4.978532490603834   5.748852071289139  11.673616748318732 
  3.734078536549928  12.216668985101025  11.673616748318732 
  9.957541569208125   5.748918048579504  11.673616748318732 
 -2.526000797489297   5.755569960908894   5.002978606422314 
 -3.734078536549902  12.173448571138932   5.002978606422314 
  1.249952211086482  12.219640236223919   5.002978606422314 
  2.123851959322169   5.960030993740749   5.002978606422314 
  6.218204862013330  12.219640236223919   5.002978606422314 
  7.599931467158736   5.770666083341439   5.002978606422314 
 -1.244860275305756   7.904957909225649  11.673616748318732 
  0.000120845785445   1.437226003665347  11.673616748318732 
  3.734078536549943   7.904763977770157  11.673616748318732 
  4.978805837887260   1.437112735815956  11.673616748318732 
  8.713017348405504   7.904957909225649  11.673616748318732 
 -3.734078536549911   7.913130818837547   5.002978606422314 
  9.957599267964548   1.437214876332605  11.673616748318732 
  2.442270536868155   1.312289482010624   5.002978606422314 
  1.160033605622763   8.008143172414169   5.002978606422314 
  6.308123467476984   8.008143172414169   5.002978606422314 
  7.484540575391392   1.423930030783664   5.002978606422314 
  1.244593365229070   7.904958464717391  11.673616748318732 
 12.440325501356211   1.433435281675208   5.002978606422314 
 -2.489443753134962  10.060698969674117  11.673616748318732 
 -1.244651037986797   3.593234150192106  11.673616748318732 
  3.734078536549873   3.593394595187838  11.673616748318732 
  2.489306652777678  10.060638583908769  11.673616748318732 
  7.468094167915449  10.060767430388758  11.673616748318732 
  8.712808111086645   3.593234150192106  11.673616748318732 
 -4.971609719825243  10.056597704221268   5.002978606422314 
 -0.024005970567224  10.089152121412651   5.002978606422314 
  1.228685612044760   3.583876966533245   5.002978606422314 
  4.982112896567218  10.081579755057261   5.002978606422314 
  6.239471461055103   3.583876966533245   5.002978606422314 
 11.202235609649673   3.587045754832217   5.002978606422314 
 -2.489384496108259   5.748918048579504  11.673616748318732 
 -3.734078536549894  12.216410408828786  11.673616748318732 
  1.244740833796335  12.216631446142580  11.673616748318732 
  2.489624582496003   5.748852071289139  11.673616748318732 
  6.223416239303521  12.216631446142580  11.673616748318732 
 -6.236073363472025  12.181604144958458   5.002978606422314 
  7.468291009208170   5.749027537232847  11.673616748318732 
 -1.232083709627765  12.181604144958458   5.002978606422314 
 -0.131774394058902   5.770666083341439   5.002978606422314 
 -1.282066318138450   7.926438828070594   5.002978606422314 
  5.344305113777667   5.960030993740749   5.002978606422314 
  3.734078536549937  12.224228174415828   5.002978606422314 
  9.994157870589161   5.755569960908894   5.002978606422314 
 -3.734078536549926   7.904928287931929  11.673616748318732 
  2.489351235212454   1.437112735815956  11.673616748318732 
  6.223563707870738   7.904958464717391  11.673616748318732 
  7.468036227314389   1.437226003665347  11.673616748318732 
 12.446871951334836   1.437214876332605  11.673616748318732 
  1.202804712021860   0.658004529345845   5.002978606422314 
  5.082106013751172   7.313328162132624   5.002978606422314 
  6.265352361077985   0.658004529345845   5.002978606422314 
  9.975444110879597   7.192024714178442   5.002978606422314 
 11.202235609649751   0.718623749417456   5.002978606422314 
 -3.734078536549858   9.342108742426666  11.673616748318732 
  1.244561012293091   9.342181736160240  11.673616748318732 
  2.488385252034075   2.874646769106766  11.673616748318732 
  6.223596060806748   9.342181736160240  11.673616748318732 
  7.467525473616212   2.874859651801650  11.673616748318732 
 12.446154100849165   2.874909613268501  11.673616748318732 
 -1.258655398430673   9.354718153469088   5.002978606422314 
 -0.015752415059538   2.865400336594690   5.002978606422314 
  5.037167813260051   2.721459247561094   5.002978606422314 
  3.734078536549963   9.360298064576760   5.002978606422314 
  8.726812471530511   9.354718153469088   5.002978606422314 
  9.966216640995345   2.865476017190114   5.002978606422314 
 -4.977973748481999  11.498261947080165  11.673616748318732 
  0.000712193339198  11.498391175695035  11.673616748318732 
  1.244324063937090   5.029423954615261  11.673616748318732 
  6.223833009162850   5.029423954615261  11.673616748318732 
  4.979517626866510  11.498443293389801  11.673616748318732 
 11.202235609649769   5.029543875889822  11.673616748318732 
 -1.318134696803584   5.024399668234194   5.002978606422314 
 -2.485446897200764  11.479583359632473   5.002978606422314 
  2.492859418813871  11.510001278630707   5.002978606422314 
  7.461154019173483  11.502023205748472   5.002978606422314 
  8.786291769903523   5.024399668234194   5.002978606422314 
 -0.001016577971846   7.186824415740067  11.673616748318732 
  1.244695547700865   0.718473081630047  11.673616748318732 
  4.978139724646987   7.187028014044103  11.673616748318732 
  6.223461525398968   0.718473081630047  11.673616748318732 
  9.956899765934605   7.186787286920898  11.673616748318732 
 -2.507287037779775   7.192024714178442   5.002978606422314 
 11.202235609649751   0.718623749417457  11.673616748318732 
  3.734078536549908   0.654793367344924   5.002978606422314 
  2.386051059348723   7.313328162132624   5.002978606422314 
  7.523435805507926   7.218152685210642   5.002978606422314 
  8.724997523259212   0.715621441945307   5.002978606422314 
  2.490017348452881   7.187028014044103  11.673616748318732 
 13.679473696040306   0.715621441945307   5.002978606422314 
 -1.244847480902700   9.341276993279010  11.673616748318732 
  0.000631599483725   2.874859651801650  11.673616748318732 
  4.979771821065729   2.874646769106766  11.673616748318732 
  3.734078536549963   9.341379434162844  11.673616748318732 
  8.713004554002481   9.341276993279010  11.673616748318732 
  9.958317118450312   2.874909613268501  11.673616748318732 
 -3.734078536549858   9.342108742426664   5.002978606422314 
  1.213139127724405   9.408694540186142   5.002978606422314 