Species order: X N B                    
   2.51242800000000     
     5.9449720136058266    0.0000000000000000    0.0000000000000000
    -2.9724860068029120    5.1484967885702053   -0.0000000000000001
     0.0000000000000000    0.0000000000000009    5.3101128803662583
   In   N    B 
     1   144   143
Direct
  0.4444444444444429  0.3888888888888857  0.3750000000000000
  0.1110779316426195  0.0555249647083895  0.1247250579365627
  0.6111474126466515  0.5556154358636916  0.1251093720103120
  0.4444470330657704  0.0555249647083895  0.1247250579365627
  0.9444505195401005  0.5555655257519824  0.1249725997630811
  0.7777777777777786  0.0555555555555571  0.1249889700536771
  0.1111111111111143  0.7222222222222214  0.6249913407886901
  0.4444470330657704  0.7222554016907144  0.6252749420634387
  0.2777178974696436  0.2221859206866837  0.6248906279896876
  0.7778083686249446  0.7222554016907144  0.6252749420634387
  0.6111288117677651  0.2222045215655697  0.6252711815991950
  0.9444249180321778  0.2222161588691994  0.6250894350641503
  0.2777678075813549  0.7222183271214562  0.1249725997630811
  0.1110757097978107  0.2222045215655697  0.1247288184008064
  0.4444680232170392  0.2221859206866837  0.1251093720103120
  0.6111288117677651  0.7222576235355245  0.1247288184008064
  0.9444505195401005  0.7222183271214562  0.1249725997630811
  0.7777912408370213  0.2222161588691994  0.1249105649358495
  0.1111150062118778  0.8888828137932281  0.6250274002369184
  0.4444551633730509  0.8888942483531899  0.6250632050638433
  0.2777178974696436  0.3888653101162894  0.6248906279896876
  0.6111474126466515  0.3888653101162894  0.6248906279896876
  0.7777912408370213  0.8889084153011508  0.6250894350641503
  0.9444390849801387  0.3888781699602777  0.6250632050638433
  0.1110779316426195  0.3888863002675582  0.1247250579365627
  0.2777678075813549  0.8888828137932281  0.1249725997630811
  0.6111171744641383  0.8889084153011508  0.1249105649358495
  0.4444444444444429  0.3888888888888857  0.1298852062054976
  0.9444390849801387  0.8888942483531899  0.1249367949361554
  0.7778083686249446  0.3888863002675582  0.1247250579365627
  0.2777688099013132  0.5555645234320246  0.6251838686322441
  0.1110779316426195  0.0555249647083895  0.6252749420634387
  0.6111474126466515  0.5556154358636916  0.6248906279896876
  0.4444470330657704  0.0555249647083895  0.6252749420634387
  0.9444505195401005  0.5555655257519824  0.6250274002369184
  0.1111150062118778  0.5555655257519824  0.1249725997630811
  0.7777777777777786  0.0555555555555571  0.6250110299463217
  0.2777688099013132  0.0555376198026253  0.1248161313677566
  0.4444680232170392  0.5556154358636916  0.1251093720103120
  0.7777957135307093  0.5555645234320246  0.1248161313677566
  0.6111171744641383  0.0555420924963127  0.1249105649358495
  0.4444680232170392  0.5556154358636916  0.6248906279896876
  0.9444249180321778  0.0555420924963127  0.1249105649358495
  0.2777678075813549  0.7222183271214562  0.6250274002369184
  0.1110757097978107  0.2222045215655697  0.6252711815991950
  0.4444680232170392  0.2221859206866837  0.6248906279896876
  0.6111288117677651  0.7222576235355245  0.6252711815991950
  0.9444505195401005  0.7222183271214562  0.6250274002369184
  0.7777912408370213  0.2222161588691994  0.6250894350641503
  0.1111111111111143  0.7222222222222214  0.1250086592113101
  0.4444470330657704  0.7222554016907144  0.1247250579365627
  0.2777178974696436  0.2221859206866837  0.1251093720103120
  0.7778083686249446  0.7222554016907144  0.1247250579365627
  0.6111288117677651  0.2222045215655697  0.1247288184008064
  0.9444249180321778  0.2222161588691994  0.1249105649358495
  0.1110779316426195  0.3888863002675582  0.6252749420634387
  0.2777678075813549  0.8888828137932281  0.6250274002369184
  0.6111171744641383  0.8889084153011508  0.6250894350641503
  0.4444444444444429  0.3888888888888857  0.6201147937945034
  0.9444390849801387  0.8888942483531899  0.6250632050638433
  0.1111150062118778  0.8888828137932281  0.1249725997630811
  0.7778083686249446  0.3888863002675582  0.6252749420634387
  0.4444551633730509  0.8888942483531899  0.1249367949361554
  0.2777178974696436  0.3888653101162894  0.1251093720103120
  0.2777688099013132  0.5555645234320246  0.1248161313677566
  0.6111474126466515  0.3888653101162894  0.1251093720103120
  0.7777912408370213  0.8889084153011508  0.1249105649358495
  0.9444390849801387  0.3888781699602777  0.1249367949361554
  0.1111150062118778  0.5555655257519824  0.6250274002369184
  0.2777688099013132  0.0555376198026253  0.6251838686322441
  0.7777957135307093  0.5555645234320246  0.6251838686322441
  0.6111171744641383  0.0555420924963127  0.6250894350641503
  0.9444249180321778  0.0555420924963127  0.6250894350641503
  0.0539438897978427  0.1100815607563135  0.3750000000000000
  0.5562700215795587  0.6125400431591120  0.3750000000000000
  0.3872131481244086  0.1014508235803696  0.3750000000000000
  0.8922251401448040  0.6127792367390742  0.3750000000000000
  0.7225169381182359  0.1108163952151008  0.3750000000000000
  0.0555581470963752  0.7777751862369621  0.8750000000000000
  0.3888944509681016  0.7777804788160603  0.8750000000000000
  0.2222297416741781  0.2777815375037582  0.8750000000000000
  0.7222238839764956  0.7777705179181865  0.8750000000000000
  0.5555517958295795  0.2777815375037582  0.8750000000000000
  0.8888867469825147  0.2777734939650355  0.8750000000000000
  0.2215829157042334  0.7774581245187839  0.3750000000000000
  0.0539438897978427  0.2771956623748654  0.3750000000000000
  0.3725736753704254  0.2451473507408553  0.3750000000000000
  0.5561376709584702  0.7793894435354964  0.3750000000000000
  0.8915946468793285  0.7799748500435397  0.3750000000000000
  0.7232517725770232  0.2771956623748654  0.3750000000000000
  0.0555528545172785  0.9444473054853773  0.8750000000000000
  0.3888944509681016  0.9444473054853773  0.8750000000000000
  0.2222147062256399  0.4444473467431002  0.8750000000000000
  0.5555342302173760  0.4444337817753523  0.8750000000000000
  0.7222247442112893  0.9444494884225775  0.8750000000000000
  0.8888860278479513  0.4444388823652270  0.8750000000000000
  0.0533584832897967  0.4449531301691236  0.3750000000000000
  0.2205540965942631  0.9411081931885246  0.3750000000000000
  0.5560250480526868  0.9446791906930088  0.3750000000000000
  0.3725736753704254  0.4607596579629031  0.3750000000000000
  0.8886541426403198  0.9446791906930088  0.3750000000000000
  0.7318825097529664  0.4461201852089200  0.3750000000000000
  0.2222147491697473  0.6111185841635889  0.8750000000000000
  0.0555628154151477  0.1111094493568403  0.8750000000000000
  0.5555517958295795  0.6111035916591551  0.8750000000000000
  0.3888859865902284  0.1111006928158758  0.8750000000000000
  0.8889038349938362  0.6111185841635889  0.8750000000000000
  0.0558752088145511  0.6117504176291015  0.3750000000000000
  0.7222247442112893  0.1111085891220470  0.8750000000000000
  0.2142376754559541  0.1014508235803696  0.3750000000000000
  0.3872131481244086  0.6190956578773809  0.3750000000000000
  0.7318825097529663  0.6190956578773809  0.3750000000000000
  0.5561376709584702  0.1100815607563135  0.3750000000000000
  0.3888859865902284  0.6111186271076925  0.8750000000000000
  0.8882994570968588  0.1108163952151007  0.3750000000000000
  0.2222170391405857  0.7777751862369621  0.8750000000000000
  0.0555628154151477  0.2777866993916425  0.8750000000000000
  0.3888995515579763  0.2777991031159576  0.8750000000000000
  0.5555466339416923  0.7777705179181865  0.8750000000000000
  0.8888860278479513  0.7777804788160603  0.8750000000000000
  0.7222238839764956  0.2777866993916425  0.8750000000000000
  0.0558752088145511  0.7774581245187839  0.3750000000000000
  0.3883802031642050  0.7799748500435397  0.3750000000000000
  0.2207932901742228  0.2770633117537797  0.3750000000000000
  0.7232517725770232  0.7793894435354964  0.3750000000000000
  0.5562700215795587  0.2770633117537797  0.3750000000000000
  0.8886541426403198  0.2773082852806498  0.3750000000000000
  0.0555528545172785  0.4444388823652270  0.8750000000000000
  0.2222147491697473  0.9444294983394924  0.8750000000000000
  0.5555598393682997  0.9444465863508139  0.8750000000000000
  0.3888995515579763  0.4444337817753523  0.8750000000000000
  0.8888867469825147  0.9444465863508139  0.8750000000000000
  0.0533584832897967  0.9417386864540001  0.3750000000000000
  0.7222326405174621  0.4444473467431002  0.8750000000000000
  0.3883802031642050  0.9417386864540001  0.3750000000000000
  0.2142376754559544  0.4461201852089200  0.3750000000000000
  0.2205540965942631  0.6127792367390742  0.3750000000000000
  0.5881859825924778  0.4607596579629031  0.3750000000000000
  0.7225169381182359  0.9450338762364698  0.3750000000000000
  0.8915946468793285  0.4449531301691236  0.3750000000000000
  0.0555581470963752  0.6111162941927525  0.8750000000000000
  0.2222147062256399  0.1111006928158758  0.8750000000000000
  0.7222326405174621  0.6111186271076925  0.8750000000000000
  0.5555466339416923  0.1111094493568403  0.8750000000000000
  0.8888838449107511  0.1111085891220470  0.8750000000000000
  0.1059634785848666  0.0508691888008357  0.3750000000000000
  0.6229420394989396  0.5653807146462078  0.3750000000000000
  0.4449057102159696  0.0508691888008357  0.3750000000000000
  0.9458666560801782  0.5560029554956618  0.3750000000000000
  0.7777777777777786  0.0555555555555571  0.3750000000000000
  0.1111111111111143  0.7222222222222214  0.8750000000000000
  0.4444384395980715  0.7222278652411502  0.8750000000000000
  0.2777166640578700  0.2222339554087578  0.8750000000000000
  0.7777894256430792  0.7222278652411502  0.8750000000000000
  0.6110829203326984  0.2222504130006375  0.8750000000000000
  0.9444086273155036  0.2222542754349768  0.8750000000000000
  0.2773303778376743  0.7231970339178524  0.3750000000000000
  0.1097049261665640  0.2215191297499462  0.3750000000000000
  0.4424386751472716  0.2103912938343980  0.3750000000000000
  0.6118142035833892  0.7236284071667721  0.3750000000000000
  0.9458666560801782  0.7231970339178524  0.3750000000000000
  0.7780098809607026  0.2215249804855036  0.3750000000000000
  0.1111754121949841  0.8889106864491867  0.8750000000000000
  0.4445080204451632  0.8889206768892446  0.8750000000000000
  0.2777166640578700  0.3888160419824422  0.8750000000000000
  0.6110993779245790  0.3888160419824422  0.8750000000000000
  0.7778456481194723  0.8889247060178250  0.8750000000000000
  0.9444126564440840  0.3888253128881654  0.8750000000000000
  0.1059634785848666  0.3884276231173590  0.3750000000000000
  0.2773303778376743  0.8874666772531504  0.3750000000000000
  0.6118083528478330  0.8898182338085254  0.3750000000000000
  0.9441318705007061  0.8892014628326225  0.3750000000000000
  0.7824641445324986  0.3884276231173590  0.3750000000000000
  0.2777324038895967  0.5556009294437364  0.8750000000000000
  0.1111054680921866  0.0555439076902581  0.8750000000000000
  0.6110993779245790  0.5556166692754627  0.8750000000000000
  0.4444384395980715  0.0555439076902581  0.8750000000000000
  0.9444226468841419  0.5555980590791294  0.8750000000000000
  0.1101362994154828  0.5560029554956618  0.3750000000000000
  0.7777777777777786  0.0555555555555571  0.8750000000000000
  0.2753104697182842  0.0506209394365689  0.3750000000000000
  0.4424386751472716  0.5653807146462078  0.3750000000000000
  0.7827123938967674  0.5580228636150500  0.3750000000000000
  0.6118083528478330  0.0553234523726343  0.3750000000000000
  0.4445172913508864  0.5556166692754627  0.8750000000000000
  0.9435150995248032  0.0553234523726343  0.3750000000000000
  0.2777352742542066  0.7221579211383529  0.8750000000000000
  0.1111674926679465  0.2222504130006375  0.8750000000000000
  0.4445172913508864  0.2222339554087578  0.8750000000000000
  0.6110829203326984  0.7221658406653897  0.8750000000000000
  0.9444226468841419  0.7221579211383529  0.8750000000000000
  0.7778456481194723  0.2222542754349768  0.8750000000000000
  0.1111111111111143  0.7222222222222214  0.3750000000000000
  0.4449057102159696  0.7273698547484718  0.3750000000000000
  0.2679526186871274  0.2103912938343980  0.3750000000000000
  0.7824641445324985  0.7273698547484718  0.3750000000000000
  0.6118142035833892  0.2215191297499462  0.3750000000000000
  0.9435150995248032  0.2215249804855036  0.3750000000000000
  0.1111054680921866  0.3888948937352571  0.8750000000000000
  0.2777352742542066  0.8889106864491867  0.8750000000000000
  0.6110790578983569  0.8889247060178250  0.8750000000000000
  0.4444444444444429  0.3888888888888857  0.8750000000000000
  0.9444126564440840  0.8889206768892446  0.8750000000000000
  0.1101362994154828  0.8874666772531504  0.3750000000000000
  0.7777894256430792  0.3888948937352571  0.8750000000000000
  0.4450695923319121  0.8892014628326225  0.3750000000000000
  0.2679526186871274  0.3908946581860570  0.3750000000000000
  0.2753104697182842  0.5580228636150500  0.3750000000000000
  0.6229420394989396  0.3908946581860570  0.3750000000000000
  0.7780098809607033  0.8898182338085254  0.3750000000000000
  0.9441318705007061  0.3882637410014166  0.3750000000000000
  0.1111754121949841  0.5555980590791294  0.8750000000000000
  0.2777324038895967  0.0554648077791939  0.8750000000000000
  0.7778685255541423  0.5556009294437364  0.8750000000000000
  0.6110790578983569  0.0554876852138624  0.8750000000000000
  0.9444086273155036  0.0554876852138624  0.8750000000000000
  0.0555416190353515  0.1110423412188764  0.1248086625473369
  0.5556173915864757  0.6112347831729528  0.1249797314501751
  0.3889000468491994  0.1109823119950713  0.1248163353945392
  0.8889138009388395  0.6111235671360906  0.1249142095414518
  0.7222588312656780  0.1110745020676582  0.1249619377257778
  0.0555923467703879  0.7777409865629492  0.6250244374870335
  0.3889102640143104  0.7777600475686027  0.6251148531603439
  0.2220985501603841  0.2777159417468593  0.6250202685498253
  0.7222909921144604  0.7777917142979843  0.6251913374526652
  0.5556173915864757  0.2777159417468593  0.6250202685498253
  0.8888905088963854  0.2777810177927775  0.6250633215798741
  0.2221486397925602  0.7777409865629492  0.1249755625129648
  0.0555416190353515  0.2778326111498104  0.1248086625473369
  0.3887370498584393  0.2774740997168859  0.1264171695867526
  0.5555007221835236  0.7777917142979843  0.1248086625473369
  0.8888497835542839  0.7777600475686027  0.1248851468396567
  0.7222909921144604  0.2778326111498104  0.1248086625473369
  0.0555732857647334  0.9444835497790447  0.6251148531603439
  0.3889102640143104  0.9444835497790447  0.6251148531603439
  0.2220822651458637  0.4444332864841292  0.6251836646054642
  0.5558592336164502  0.4445962834748894  0.6235828304132476
  0.7222588312656780  0.9445176625313544  0.6250380622742229
  0.8888497835542839  0.4444230693190182  0.6251148531603439
  0.0555732857647334  0.4444230693190182  0.1248851468396567
  0.2222097661972449  0.9444195323944891  0.1249142095414518
  0.5555523155405583  0.9444428244369432  0.1249366784201251
  0.3887370498584393  0.4445962834748894  0.1264171695867526
  0.8888905088963854  0.9444428244369432  0.1249366784201251
  0.7223510213382646  0.4444332864841292  0.1248163353945392
  0.2222097661972449  0.6111235671360906  0.6250857904585498
  0.0555416190353515  0.1110423412188764  0.6251913374526653
  0.5556173915864757  0.6112347831729528  0.6250202685498253
  0.3889000468491994  0.1109823119950713  0.6251836646054642
  0.8889138009388395  0.6111235671360906  0.6250857904585498
  0.0555923467703879  0.6111846935407744  0.1249755625129648
  0.7222588312656780  0.1110745020676582  0.6250380622742229
  0.2220822651458637  0.1109823119950713  0.1248163353945392
  0.3889000468491994  0.6112510681874735  0.1248163353945392
  0.7223510213382646  0.6112510681874735  0.1248163353945392
  0.5555007221835236  0.1110423412188764  0.1248086625473369
  0.3889000468491994  0.6112510681874735  0.6251836646054642
  0.8888156708019742  0.1110745020676582  0.1249619377257778
  0.2221486397925602  0.7777409865629492  0.6250244374870335
  0.0555416190353515  0.2778326111498104  0.6251913374526652
  0.3887370498584392  0.2774740997168859  0.6235828304132476
  0.5555007221835236  0.7777917142979843  0.6251913374526653
  0.8888497835542839  0.7777600475686027  0.6251148531603439
  0.7222909921144604  0.2778326111498104  0.6251913374526653
  0.0555923467703879  0.7777409865629492  0.1249755625129648
  0.3889102640143104  0.7777600475686027  0.1248851468396567
  0.2220985501603841  0.2777159417468593  0.1249797314501751
  0.7222909921144604  0.7777917142979843  0.1248086625473369
  0.5556173915864757  0.2777159417468593  0.1249797314501751
  0.8888905088963854  0.2777810177927775  0.1249366784201251
  0.0555732857647334  0.4444230693190182  0.6251148531603439
  0.2222097661972449  0.9444195323944891  0.6250857904585498
  0.5555523155405583  0.9444428244369432  0.6250633215798741
  0.3887370498584392  0.4445962834748893  0.6235828304132476
  0.8888905088963854  0.9444428244369432  0.6250633215798741
  0.0555732857647334  0.9444835497790447  0.1248851468396567
  0.7223510213382646  0.4444332864841292  0.6251836646054642
  0.3889102640143104  0.9444835497790447  0.1248851468396567
  0.2220822651458637  0.4444332864841292  0.1248163353945392
  0.2222097661972449  0.6111235671360906  0.1249142095414518
  0.5558592336164502  0.4445962834748894  0.1264171695867526
  0.7222588312656780  0.9445176625313544  0.1249619377257778
  0.8888497835542839  0.4444230693190182  0.1248851468396567
  0.0555923467703879  0.6111846935407744  0.6250244374870335
  0.2220822651458637  0.1109823119950713  0.6251836646054642
  0.7223510213382646  0.6112510681874735  0.6251836646054642
  0.5555007221835236  0.1110423412188764  0.6251913374526652
  0.8888156708019744  0.1110745020676582  0.6250380622742229
 
  0.00000000E+00  0.00000000E+00  0.00000000E+00
  0.00000000E+00  0.00000000E+00  0.00000000E+00
  0.00000000E+00  0.00000000E+00  0.00000000E+00
  0.00000000E+00  0.00000000E+00  0.00000000E+00
  0.00000000E+00  0.00000000E+00  0.00000000E+00
  0.00000000E+00  0.00000000E+00  0.00000000E+00
  0.00000000E+00  0.00000000E+00  0.00000000E+00
  0.00000000E+00  0.00000000E+00  0.00000000E+00
  0.00000000E+00  0.00000000E+00  0.00000000E+00
  0.00000000E+00  0.00000000E+00  0.00000000E+00
  0.00000000E+00  0.00000000E+00  0.00000000E+00
  0.00000000E+00  0.00000000E+00  0.00000000E+00
  0.00000000E+00  0.00000000E+00  0.00000000E+00
  0.00000000E+00  0.00000000E+00  0.00000000E+00
  0.00000000E+00  0.00000000E+00  0.00000000E+00
  0.00000000E+00  0.00000000E+00  0.00000000E+00
  0.00000000E+00  0.00000000E+00  0.00000000E+00
  0.00000000E+00  0.00000000E+00  0.00000000E+00
  0.00000000E+00  0.00000000E+00  0.00000000E+00
  0.00000000E+00  0.00000000E+00  0.00000000E+00
  0.00000000E+00  0.00000000E+00  0.00000000E+00
  0.00000000E+00  0.00000000E+00  0.00000000E+00
  0.00000000E+00  0.00000000E+00  0.00000000E+00
  0.00000000E+00  0.00000000E+00  0.00000000E+00
  0.00000000E+00  0.00000000E+00  0.00000000E+00
  0.00000000E+00  0.00000000E+00  0.00000000E+00
  0.00000000E+00  0.00000000E+00  0.00000000E+00
  0.00000000E+00  0.00000000E+00  0.00000000E+00
  0.00000000E+00  0.00000000E+00  0.00000000E+00
  0.00000000E+00  0.00000000E+00  0.00000000E+00
  0.00000000E+00  0.00000000E+00  0.00000000E+00
  0.00000000E+00  0.00000000E+00  0.00000000E+00
  0.00000000E+00  0.00000000E+00  0.00000000E+00
  0.00000000E+00  0.00000000E+00  0.00000000E+00
  0.00000000E+00  0.00000000E+00  0.00000000E+00
  0.00000000E+00  0.00000000E+00  0.00000000E+00
  0.00000000E+00  0.00000000E+00  0.00000000E+00
  0.00000000E+00  0.00000000E+00  0.00000000E+00
  0.00000000E+00  0.00000000E+00  0.00000000E+00
  0.00000000E+00  0.00000000E+00  0.00000000E+00
  0.00000000E+00  0.00000000E+00  0.00000000E+00
  0.00000000E+00  0.00000000E+00  0.00000000E+00
  0.00000000E+00  0.00000000E+00  0.00000000E+00
  0.00000000E+00  0.00000000E+00  0.00000000E+00
  0.00000000E+00  0.00000000E+00  0.00000000E+00
  0.00000000E+00  0.00000000E+00  0.00000000E+00
  0.00000000E+00  0.00000000E+00  0.00000000E+00
  0.00000000E+00  0.00000000E+00  0.00000000E+00
  0.00000000E+00  0.00000000E+00  0.00000000E+00
  0.00000000E+00  0.00000000E+00  0.00000000E+00
  0.00000000E+00  0.00000000E+00  0.00000000E+00
  0.00000000E+00  0.00000000E+00  0.00000000E+00
  0.00000000E+00  0.00000000E+00  0.00000000E+00
  0.00000000E+00  0.00000000E+00  0.00000000E+00
  0.00000000E+00  0.00000000E+00  0.00000000E+00
  0.00000000E+00  0.00000000E+00  0.00000000E+00
  0.00000000E+00  0.00000000E+00  0.00000000E+00
  0.00000000E+00  0.00000000E+00  0.00000000E+00
  0.00000000E+00  0.00000000E+00  0.00000000E+00
  0.00000000E+00  0.00000000E+00  0.00000000E+00
  0.00000000E+00  0.00000000E+00  0.00000000E+00
  0.00000000E+00  0.00000000E+00  0.00000000E+00
  0.00000000E+00  0.00000000E+00  0.00000000E+00
  0.00000000E+00  0.00000000E+00  0.00000000E+00
  0.00000000E+00  0.00000000E+00  0.00000000E+00
  0.00000000E+00  0.00000000E+00  0.00000000E+00
  0.00000000E+00  0.00000000E+00  0.00000000E+00
  0.00000000E+00  0.00000000E+00  0.00000000E+00
  0.00000000E+00  0.00000000E+00  0.00000000E+00
  0.00000000E+00  0.00000000E+00  0.00000000E+00
  0.00000000E+00  0.00000000E+00  0.00000000E+00
  0.00000000E+00  0.00000000E+00  0.00000000E+00
  0.00000000E+00  0.00000000E+00  0.00000000E+00
  0.00000000E+00  0.00000000E+00  0.00000000E+00
  0.00000000E+00  0.00000000E+00  0.00000000E+00
  0.00000000E+00  0.00000000E+00  0.00000000E+00
  0.00000000E+00  0.00000000E+00  0.00000000E+00
  0.00000000E+00  0.00000000E+00  0.00000000E+00
  0.00000000E+00  0.00000000E+00  0.00000000E+00
  0.00000000E+00  0.00000000E+00  0.00000000E+00
  0.00000000E+00  0.00000000E+00  0.00000000E+00
  0.00000000E+00  0.00000000E+00  0.00000000E+00
  0.00000000E+00  0.00000000E+00  0.00000000E+00
  0.00000000E+00  0.00000000E+00  0.00000000E+00
  0.00000000E+00  0.00000000E+00  0.00000000E+00
  0.00000000E+00  0.00000000E+00  0.00000000E+00
  0.00000000E+00  0.00000000E+00  0.00000000E+00
  0.00000000E+00  0.00000000E+00  0.00000000E+00
  0.00000000E+00  0.00000000E+00  0.00000000E+00
  0.00000000E+00  0.00000000E+00  0.00000000E+00
  0.00000000E+00  0.00000000E+00  0.00000000E+00
  0.00000000E+00  0.00000000E+00  0.00000000E+00
  0.00000000E+00  0.00000000E+00  0.00000000E+00
  0.00000000E+00  0.00000000E+00  0.00000000E+00
  0.00000000E+00  0.00000000E+00  0.00000000E+00
  0.00000000E+00  0.00000000E+00  0.00000000E+00
  0.00000000E+00  0.00000000E+00  0.00000000E+00
  0.00000000E+00  0.00000000E+00  0.00000000E+00
  0.00000000E+00  0.00000000E+00  0.00000000E+00
  0.00000000E+00  0.00000000E+00  0.00000000E+00
  0.00000000E+00  0.00000000E+00  0.00000000E+00
  0.00000000E+00  0.00000000E+00  0.00000000E+00
  0.00000000E+00  0.00000000E+00  0.00000000E+00
  0.00000000E+00  0.00000000E+00  0.00000000E+00
  0.00000000E+00  0.00000000E+00  0.00000000E+00
  0.00000000E+00  0.00000000E+00  0.00000000E+00
  0.00000000E+00  0.00000000E+00  0.00000000E+00
  0.00000000E+00  0.00000000E+00  0.00000000E+00
  0.00000000E+00  0.00000000E+00  0.00000000E+00
  0.00000000E+00  0.00000000E+00  0.00000000E+00
  0.00000000E+00  0.00000000E+00  0.00000000E+00
  0.00000000E+00  0.00000000E+00  0.00000000E+00
  0.00000000E+00  0.00000000E+00  0.00000000E+00
  0.00000000E+00  0.00000000E+00  0.00000000E+00
  0.00000000E+00  0.00000000E+00  0.00000000E+00
  0.00000000E+00  0.00000000E+00  0.00000000E+00
  0.00000000E+00  0.00000000E+00  0.00000000E+00
  0.00000000E+00  0.00000000E+00  0.00000000E+00
  0.00000000E+00  0.00000000E+00  0.00000000E+00
  0.00000000E+00  0.00000000E+00  0.00000000E+00
  0.00000000E+00  0.00000000E+00  0.00000000E+00
  0.00000000E+00  0.00000000E+00  0.00000000E+00
  0.00000000E+00  0.00000000E+00  0.00000000E+00
  0.00000000E+00  0.00000000E+00  0.00000000E+00
  0.00000000E+00  0.00000000E+00  0.00000000E+00
  0.00000000E+00  0.00000000E+00  0.00000000E+00
  0.00000000E+00  0.00000000E+00  0.00000000E+00
  0.00000000E+00  0.00000000E+00  0.00000000E+00
  0.00000000E+00  0.00000000E+00  0.00000000E+00
  0.00000000E+00  0.00000000E+00  0.00000000E+00
  0.00000000E+00  0.00000000E+00  0.00000000E+00
  0.00000000E+00  0.00000000E+00  0.00000000E+00
  0.00000000E+00  0.00000000E+00  0.00000000E+00
  0.00000000E+00  0.00000000E+00  0.00000000E+00
  0.00000000E+00  0.00000000E+00  0.00000000E+00
  0.00000000E+00  0.00000000E+00  0.00000000E+00
  0.00000000E+00  0.00000000E+00  0.00000000E+00
  0.00000000E+00  0.00000000E+00  0.00000000E+00
  0.00000000E+00  0.00000000E+00  0.00000000E+00
  0.00000000E+00  0.00000000E+00  0.00000000E+00
  0.00000000E+00  0.00000000E+00  0.00000000E+00
  0.00000000E+00  0.00000000E+00  0.00000000E+00
  0.00000000E+00  0.00000000E+00  0.00000000E+00
  0.00000000E+00  0.00000000E+00  0.00000000E+00
  0.00000000E+00  0.00000000E+00  0.00000000E+00
  0.00000000E+00  0.00000000E+00  0.00000000E+00
  0.00000000E+00  0.00000000E+00  0.00000000E+00
  0.00000000E+00  0.00000000E+00  0.00000000E+00
  0.00000000E+00  0.00000000E+00  0.00000000E+00
  0.00000000E+00  0.00000000E+00  0.00000000E+00
  0.00000000E+00  0.00000000E+00  0.00000000E+00
  0.00000000E+00  0.00000000E+00  0.00000000E+00
  0.00000000E+00  0.00000000E+00  0.00000000E+00
  0.00000000E+00  0.00000000E+00  0.00000000E+00
  0.00000000E+00  0.00000000E+00  0.00000000E+00
  0.00000000E+00  0.00000000E+00  0.00000000E+00
  0.00000000E+00  0.00000000E+00  0.00000000E+00
  0.00000000E+00  0.00000000E+00  0.00000000E+00
  0.00000000E+00  0.00000000E+00  0.00000000E+00
  0.00000000E+00  0.00000000E+00  0.00000000E+00
  0.00000000E+00  0.00000000E+00  0.00000000E+00
  0.00000000E+00  0.00000000E+00  0.00000000E+00
  0.00000000E+00  0.00000000E+00  0.00000000E+00
  0.00000000E+00  0.00000000E+00  0.00000000E+00
  0.00000000E+00  0.00000000E+00  0.00000000E+00
  0.00000000E+00  0.00000000E+00  0.00000000E+00
  0.00000000E+00  0.00000000E+00  0.00000000E+00
  0.00000000E+00  0.00000000E+00  0.00000000E+00
  0.00000000E+00  0.00000000E+00  0.00000000E+00
  0.00000000E+00  0.00000000E+00  0.00000000E+00
  0.00000000E+00  0.00000000E+00  0.00000000E+00
  0.00000000E+00  0.00000000E+00  0.00000000E+00
  0.00000000E+00  0.00000000E+00  0.00000000E+00
  0.00000000E+00  0.00000000E+00  0.00000000E+00
  0.00000000E+00  0.00000000E+00  0.00000000E+00
  0.00000000E+00  0.00000000E+00  0.00000000E+00
  0.00000000E+00  0.00000000E+00  0.00000000E+00
  0.00000000E+00  0.00000000E+00  0.00000000E+00
  0.00000000E+00  0.00000000E+00  0.00000000E+00
  0.00000000E+00  0.00000000E+00  0.00000000E+00
  0.00000000E+00  0.00000000E+00  0.00000000E+00
  0.00000000E+00  0.00000000E+00  0.00000000E+00
  0.00000000E+00  0.00000000E+00  0.00000000E+00
  0.00000000E+00  0.00000000E+00  0.00000000E+00
  0.00000000E+00  0.00000000E+00  0.00000000E+00
  0.00000000E+00  0.00000000E+00  0.00000000E+00
  0.00000000E+00  0.00000000E+00  0.00000000E+00
  0.00000000E+00  0.00000000E+00  0.00000000E+00
  0.00000000E+00  0.00000000E+00  0.00000000E+00
  0.00000000E+00  0.00000000E+00  0.00000000E+00
  0.00000000E+00  0.00000000E+00  0.00000000E+00
  0.00000000E+00  0.00000000E+00  0.00000000E+00
  0.00000000E+00  0.00000000E+00  0.00000000E+00
  0.00000000E+00  0.00000000E+00  0.00000000E+00
  0.00000000E+00  0.00000000E+00  0.00000000E+00
  0.00000000E+00  0.00000000E+00  0.00000000E+00
  0.00000000E+00  0.00000000E+00  0.00000000E+00
  0.00000000E+00  0.00000000E+00  0.00000000E+00
  0.00000000E+00  0.00000000E+00  0.00000000E+00
  0.00000000E+00  0.00000000E+00  0.00000000E+00
  0.00000000E+00  0.00000000E+00  0.00000000E+00
  0.00000000E+00  0.00000000E+00  0.00000000E+00
  0.00000000E+00  0.00000000E+00  0.00000000E+00
  0.00000000E+00  0.00000000E+00  0.00000000E+00
  0.00000000E+00  0.00000000E+00  0.00000000E+00
  0.00000000E+00  0.00000000E+00  0.00000000E+00
  0.00000000E+00  0.00000000E+00  0.00000000E+00
  0.00000000E+00  0.00000000E+00  0.00000000E+00
  0.00000000E+00  0.00000000E+00  0.00000000E+00
  0.00000000E+00  0.00000000E+00  0.00000000E+00
  0.00000000E+00  0.00000000E+00  0.00000000E+00
  0.00000000E+00  0.00000000E+00  0.00000000E+00
  0.00000000E+00  0.00000000E+00  0.00000000E+00
  0.00000000E+00  0.00000000E+00  0.00000000E+00
  0.00000000E+00  0.00000000E+00  0.00000000E+00
  0.00000000E+00  0.00000000E+00  0.00000000E+00
  0.00000000E+00  0.00000000E+00  0.00000000E+00
  0.00000000E+00  0.00000000E+00  0.00000000E+00
  0.00000000E+00  0.00000000E+00  0.00000000E+00
  0.00000000E+00  0.00000000E+00  0.00000000E+00
  0.00000000E+00  0.00000000E+00  0.00000000E+00
  0.00000000E+00  0.00000000E+00  0.00000000E+00
  0.00000000E+00  0.00000000E+00  0.00000000E+00
  0.00000000E+00  0.00000000E+00  0.00000000E+00
  0.00000000E+00  0.00000000E+00  0.00000000E+00
  0.00000000E+00  0.00000000E+00  0.00000000E+00
  0.00000000E+00  0.00000000E+00  0.00000000E+00
  0.00000000E+00  0.00000000E+00  0.00000000E+00
  0.00000000E+00  0.00000000E+00  0.00000000E+00
  0.00000000E+00  0.00000000E+00  0.00000000E+00
  0.00000000E+00  0.00000000E+00  0.00000000E+00
  0.00000000E+00  0.00000000E+00  0.00000000E+00
  0.00000000E+00  0.00000000E+00  0.00000000E+00
  0.00000000E+00  0.00000000E+00  0.00000000E+00
  0.00000000E+00  0.00000000E+00  0.00000000E+00
  0.00000000E+00  0.00000000E+00  0.00000000E+00
  0.00000000E+00  0.00000000E+00  0.00000000E+00
  0.00000000E+00  0.00000000E+00  0.00000000E+00
  0.00000000E+00  0.00000000E+00  0.00000000E+00
  0.00000000E+00  0.00000000E+00  0.00000000E+00
  0.00000000E+00  0.00000000E+00  0.00000000E+00
  0.00000000E+00  0.00000000E+00  0.00000000E+00
  0.00000000E+00  0.00000000E+00  0.00000000E+00
  0.00000000E+00  0.00000000E+00  0.00000000E+00
  0.00000000E+00  0.00000000E+00  0.00000000E+00
  0.00000000E+00  0.00000000E+00  0.00000000E+00
  0.00000000E+00  0.00000000E+00  0.00000000E+00