 N Al B P 
 1.0
 17.527899999999772   0.000000000000000   0.000000000000000
 -8.763949999999658  15.179606674993195   0.000000000000000
  0.000000000000001   0.000000000000002  15.000000000000000
 N Al B P 
  48   1  48   1
Cartesian
  8.774254323165394  13.768959850195701   1.665419681451270 
 16.260288026275614   0.731870301299625   1.665774366017985 
 15.001633855166990   2.889001953584770   1.665608839866765 
 13.757622953397222   5.054263954063342   1.665402609724800 
 12.540511203245060   7.227300642124683   1.665271070139315 
 11.302007231053629   9.411182302869870   1.666295314842090 
 10.045173971137849  11.595730879102003   1.666277676958815 
 -6.255214123615894  13.731201528480666   1.665471958919355 
  1.226820433963606   0.696420887332924   1.665419681451270 
 -0.042579411947207   2.863668748132209   1.665681597547755 
 -1.296233969869129   5.041334209512277   1.665665915948415 
 -2.537224298040391   7.222524696665925   1.665684590802945 
 -3.752341257739524   9.400785856067772   1.665571993851630 
 -4.995287718420964  11.570146318687424   1.665398443242465 
 -3.753722210357290  13.720600859578616   1.665398443242465 
  3.744351755157291   0.682386671567241   1.666277676958815 
  2.434687103711622   2.792376488891325   1.667123268593925 
  1.171111138825312   5.000420736259264   1.665931782309870 
 -0.103470623508532   7.211674073774814   1.667081112416610 
 -1.275025064931417   9.402479730005805   1.666265206123740 
 -2.506891954713929  11.567106715255120   1.665656524850085 
 -1.253527709422801  13.728857880394884   1.665571993851630 
  6.264642947934162   0.686211428274718   1.666295314842090 
  4.996501940337604   2.807218735145665   1.666683139859250 
  3.624729351851876   4.856295030130368   1.662506467596045 
  2.257797161108479   7.151378422482990   1.661757645364170 
  1.212252649723640   9.419857576727786   1.664957556188190 
 -0.016336550878942  11.582592187246902   1.666265206123740 
  1.240460270527840  13.765666304426778   1.665684590802945 
  8.775191931077629   0.705576356040982   1.665271070139315 
  7.551742734288187   2.814660972820996   1.665974161946100 
  6.320772257161059   4.886658782512588   1.662858486903390 
  3.699585480929574   9.648629046203050   1.661757645364170 
  2.466734022865527  11.663399107173229   1.667081112416595 
  3.749921806982538  13.781532397956070   1.665665915948415 
 11.265652781370221   0.738045005194759   1.665402609724800 
 10.025061528712767   2.885022373782803   1.665493939465305 
  8.789593746974681   5.045077654477552   1.664639626782045 
  7.692377769628568   7.262349218046243   1.662858486903390 
  6.370652097882980   9.612372739943867   1.662506467596045 
  5.019026468523270  11.665205590549517   1.665931782309870 
  6.262662696459943  13.784668433914730   1.665681597547755 
 13.762830130534876   0.743330961917512   1.665608839866765 
 12.513970893555140   2.894807506346435   1.666117360776450 
 11.277990384522623   5.055158810282425   1.665493939465305 
 10.102265747988397   7.232296418392503   1.665974161946100 
  8.831090517892477   9.448920977593527   1.666683139859250 
  7.563036861885862  11.674938829030667   1.667123268593925 
  5.300454211519147   7.059533304513704   1.660726796557080 
  7.516691126006508  14.481631798498070   1.665988467566970 
 15.011711255830845   1.452742702751391   1.665881514553770 
 13.758945411151076   3.613932616590817   1.666116974386125 
 12.521537748497916   5.783625435920769   1.665510914580015 
 11.321286015790168   7.966015860737997   1.666129045846275 
 10.067095355528444  10.155445058360762   1.666862232151785 
  8.809185661091378  12.347333291679318   1.666581905305410 
 -7.506279987024121  14.453511008422502   1.665490948475325 
 -0.019147749088178   1.429175989181878   1.665988467566970 
 -1.282764825548062   3.600105395686598   1.665675805469115 
 -2.531785016413578   5.777712164711296   1.665721110717450 
 -3.760448165511603   7.957635114399838   1.665616674639525 
 -4.989087865912452  10.131177754752207   1.665965267846475 
 -6.238490336555594  12.297883414111265   1.666034342472870 
 -5.005556904016897  14.433386761619090   1.666034342472870 
  2.475456244619946   1.376992140955312   1.666581905305410 
  1.202565807906326   3.557965879470261   1.666354866549615 
 -0.061369053695137   5.758800586833740   1.666393616258070 
 -1.314717146914355   7.955900632541390   1.666801783197705 
 -2.512861583126996  10.127430920434458   1.666187974658940 
 -3.751698254019666  12.285802234178883   1.665424170176265 
 -2.504433525149097  14.434725312170366   1.665965267846475 
  5.002641984165078   1.383554506565589   1.666862232151785 
  3.683701839761095   3.453295815296768   1.666360233974940 
  2.415677004200742   5.688130583009121   1.663618783769235 
  1.101295024656318   7.952080449236009   1.665240557665875 
 -0.032109193155511  10.138296488624997   1.666143762221745 
 -1.263075530053854  12.292123862918082   1.666187974658940 
 -0.007770532194151  14.457463439700973   1.665616674639525 
  7.525838619223076   1.392108132401468   1.666129045846275 
  6.297822951168695   3.475505891710946   1.666062338932320 
  4.942160131426723   5.330044779847753   1.658192118005130 
  2.427911544022447  10.249847662936400   1.665240557665875 
  1.216597082454781  12.340265487700506   1.666801783197705 
  2.494429695060203  14.483371414733366   1.665721110717450 
 10.015970034428358   1.443854853348282   1.665510914580015 
  8.776595254792817   3.589783854244386   1.665424201941480 
  7.550111271213252   5.760699462455961   1.662921872082330 
  6.619093596708490   8.234578742659265   1.658192118005130 
  5.045740630822252  10.243534411488357   1.663618783769235 
  3.746015583285506  12.353384222043138   1.666393616258070 
  5.004802571918885  14.490491584115967   1.665675805469115 
 12.513682965703833   1.457074792317059   1.666116974386125 
 11.270148949000291   3.612934707789714   1.666020114541725 
 10.043421329186302   5.783990979445888   1.665424201941480 
  8.903002796012412   7.987809745863280   1.666062338932320 
  7.615176730703466  10.262810075120450   1.666360233974940 
  6.283961780194588  12.359201876849172   1.666354866549615 
  3.628001177954578   8.025130780600133   1.652589106077825 
