 B N Sb 
 1.0
 17.527899999999772   0.000000000000000   0.000000000000000
 -8.763949999999658  15.179606674993195   0.000000000000000
  0.000000000000001   0.000000000000002  15.000000000000000
 B N Sb 
  48  48   1
Cartesian
  7.526629314658983  14.479886815705205   1.664718404267220 
 15.010617002204492   1.453374470377450   1.663697497231140 
 13.749687888319025   3.618024533108930   1.663719521149410 
 12.503538952451002   5.785343485470811   1.662681656195010 
 11.285539735417499   7.957150397968622   1.665106458757920 
 10.064899135700340  10.138962385547403   1.666329442308090 
  8.816067828888265  12.332451139431857   1.666064583472215 
 -7.492384131402120  14.445488232439482   1.665316778580975 
 -0.012667455333312   1.421441756737694   1.664718404267220 
 -1.278705928989609   3.597228619004166   1.664154225211380 
 -2.522845675669001   5.772346479269186   1.664512232327505 
 -3.744189042838982   7.943020969394185   1.664977752529755 
 -4.970528880865040  10.113331686701713   1.666474381947480 
 -6.221455820299028  12.283651905463223   1.666135233903690 
 -4.984714797864996  14.425750192123640   1.666135233903690 
  2.491785650426370   1.378473084933695   1.666064583472215 
  1.210247558493587   3.540385760620781   1.665753460680015 
 -0.032080247975140   5.746880169740040   1.667171679124725 
 -1.243133411333931   7.928932691275034   1.667662957099575 
 -2.464670848494570  10.100360490931951   1.666702554327180 
 -3.719544177155593  12.267238069245623   1.666216480118190 
 -2.479698884336797  14.427575793676692   1.666474381947480 
  5.015818287629520   1.393697825134824   1.666329442308090 
  3.705149118552625   3.473376190096706   1.665855637962645 
  2.417583857391792   5.660875179668769   1.666092121028430 
  1.267490437547723   7.896941766697309   1.668627919178820 
  0.053576649402883  10.088825744357470   1.668154336206645 
 -1.215536483096484  12.263924677251074   1.666702554327180 
  0.013015249971153  14.450689698926245   1.664977752529770 
  7.515643195012619   1.427498050678415   1.665106458757920 
  6.247261156895656   3.569025997199013   1.664946867149925 
  4.888706572429432   5.545644523906710   1.664333413101975 
  2.558760750277155  10.133487554649271   1.668627919178820 
  1.275743872469798  12.291756124824751   1.667662957099575 
  2.503546185333315  14.478312561276089   1.664512232327505 
 10.005482761849606   1.458583243187061   1.662681656195010 
  8.739861620807964   3.627085305368254   1.663671039156195 
  7.461085945911185   5.812098257983512   1.663730563031895 
  6.405651961805410   8.173071010643268   1.664333413101975 
  5.070297929102201  10.255510729854054   1.666092121028430 
  3.770983370173132  12.333979580789947   1.667171679124725 
  5.009323381887514  14.488414864926776   1.664154225211380 
 12.505510500632745   1.463046084007767   1.663719521149410 
 11.246119648391499   3.626808030964761   1.663775376792690 
  9.992750507923219   5.797152514088385   1.663671039156195 
  8.796731111759030   7.984837491421624   1.664946867149925 
  7.608510255404263  10.234195999444315   1.665855637962645 
  6.303027485013084  12.361339345119626   1.665753460680015 
  8.786150293886143  13.759534821412677   1.664972129951325 
 16.264589308395976   0.729386954910343   1.664200185168960 
 14.997776612268996   2.890589072013366   1.663021286153250 
 13.749228614745668   5.059868891664398   1.662151506549840 
 12.526346084426130   7.228564929373485   1.663207387845000 
 11.304037014806223   9.401807423694713   1.666105253062695 
 10.056650471321525  11.582305915439486   1.665975581843655 
 -6.237094174860265  13.720739971187736   1.665523214454030 
  1.240930733682002   0.690831188877078   1.664972129951325 
 -0.039119461977816   2.850314065490246   1.664404105687725 
 -1.285595804231031   5.037030513572318   1.665215977495830 
 -2.504470770486219   7.215586020509495   1.665473386492035 
 -3.725392628089295   9.387032668002636   1.665912087539085 
 -4.972786870648587  11.555685748452042   1.666122986317275 
 -3.729948565294016  13.708344838918256   1.666122986317275 
  3.761716364826330   0.679160212692050   1.665975581843655 
  2.455535821145405   2.794344058576443   1.665868768221990 
  1.178908381916860   4.965318675452100   1.666449988060140 
 -0.013281970653754   7.194019623943246   1.668376702478235 
 -1.217610366746318   9.376935761177839   1.667539219039860 
 -2.469796934679172  11.545689895452256   1.666273546926900 
 -1.228142784350264  13.712396276552735   1.665912087539085 
  6.273776723333447   0.689141023567967   1.666105253062695 
  4.999609441450541   2.824496688491158   1.665605069266905 
  3.658318366929219   4.872547519393542   1.664796444399675 
  2.417564449524972   7.071007239228913   1.666148750233680 
  1.305928216066499   9.365773963283054   1.668476626021710 
  0.034492524131410  11.545641584482413   1.667539219039860 
  1.262846104125345  13.740770255578951   1.665473386492035 
  8.767014466791766   0.717211565161931   1.663207387845000 
  7.505699191199279   2.871604904898344   1.664426102696835 
  6.224824304274606   5.014652963606308   1.663948171396395 
  3.849072611568841   9.550452107367601   1.666148750233680 
  2.527117551335838  11.594120667584072   1.668376702478235 
  3.758967999814896  13.774471324233579   1.665215977495830 
 11.256577021033495   0.742512246915114   1.662151506549840 
  9.994540988958597   2.906369005365911   1.662337527369645 
  8.724803531530313   5.082484302805283   1.663308050493780 
  7.533557580821262   7.281445492141835   1.663948171396395 
  6.373371536844421   9.575157554968735   1.664796444399675 
  5.053324366452777  11.676004010357154   1.666449988060140 
  6.275958165871765  13.788349370666957   1.664404105687620 
 13.759527024208356   0.745877873041262   1.663021286153250 
 12.497333010724393   2.904413392477169   1.664323818669390 
 11.244243389408698   5.070917057255270   1.662337527369645 
 10.029929084673622   7.243699330349491   1.664426102696835 
  8.817681121926572   9.437590826014507   1.665605069266905 
  7.571757255270157  11.655899525254842   1.665868768221990 
  4.406075221845119   7.575903254959012   1.663541275173525 
