 N In B 
 1.0
 17.527899999999772   0.000000000000000   0.000000000000000
 -8.763949999999658  15.179606674993195   0.000000000000000
  0.000000000000001   0.000000000000002  15.000000000000000
 N In B 
  48   1  49
Cartesian
  8.763989340076119  13.733843675309055   1.753076072849580 
 16.276256161817464   0.722632723759020   1.756546941435570 
 15.024278912485439   2.891380183514919   1.750936384751295 
 13.771760522452421   5.059868891664398   1.752069490369845 
 12.519635243465874   7.228240327020927   1.748164389091455 
 11.268081080353230   9.396798851917053   1.734340280383560 
 10.016181684708231  11.565477320663190   1.736190755480325 
 -6.260018088981457  13.733997083755508   1.754974349353095 
  1.252128388529101   0.722921301169252   1.752441496339380 
  0.000959660074091   2.891919351321104   1.735111698562215 
 -1.250875030818701   5.059868891664398   1.731795349423335 
 -2.504013159214165   7.228086664141390   1.745194452064950 
 -3.756047842845914   9.396592963242499   1.749387108835935 
 -5.007904831456026  11.565400208873612   1.749308028832785 
 -3.755930628939568  13.733904313672467   1.748596647070455 
  3.756065010834169   0.722669109447248   1.734546170720325 
  2.504108194378557   2.891435456385248   1.705126001049360 
  1.255269731215943   5.059868891664398   1.662903238488780 
  0.000190767212924   7.228157441175098   1.700657535625935 
 -1.252185256616911   9.396748990825284   1.727611724104320 
 -2.503977427631226  11.565426947769744   1.745498429053050 
 -1.251762778066437  13.734133136337247   1.747752166505775 
  6.260148451272189   0.722765119318098   1.732236305124015 
  5.007981045634794   2.890295524366242   1.662325127802825 
  3.753035224012829   5.059868891664398   1.518208262081280 
  2.501171319061268   7.228457140160872   1.517194619437815 
  1.251264138507894   9.397368213010784   1.657570967192910 
  0.000069726927061  11.565664422764895   1.726810271054640 
  1.252234262558872  13.734142856877352   1.743612975058785 
  8.763920407002825   0.723183621018388   1.746347541195150 
  7.511735830817613   2.891649321099535   1.703406159719370 
  6.259667080654046   5.059868891664398   1.517505690686370 
  3.754581506766518   9.399448974751264   1.517051638687035 
  2.504306519108887  11.565465963158962   1.699840456471920 
  3.756515030804901  13.733000673907640   1.731215057538135 
 11.267849338704284   0.722988019990247   1.751388040743555 
 10.015360705932387   2.892361967853728   1.734685455403320 
  8.763949999999962   5.059868891664398   1.664582454560370 
  7.511784722957757   7.228682770975130   1.518241440733665 
  6.258496167880105   9.399442224914285   1.519002412070550 
  5.009584059460243  11.562621450885530   1.663276061192415 
  6.259996592061905  13.732835007073199   1.735450331170605 
 13.772058410111555   0.722493691762214   1.750894721342415 
 12.519508578994753   2.891574944302647   1.751451089847390 
 11.266795542282765   5.059868891664398   1.734968710021395 
 10.015555841790796   7.228426704894413   1.704632560759065 
  8.764932195733106   9.397421139169463   1.663528079749680 
  7.512019970224094  11.565296317712997   1.706665804541565 
  5.006690969024572   7.228937834790926  14.221795573618319 
  7.512225011019058  14.456519779458416   1.750465497247425 
 15.024253405504037   1.445456436086758   1.753106545170525 
 13.771904809473765   3.614228000509891   1.751403410887530 
 12.519396708640079   5.782876821684391   1.746766393060980 
 11.268130604970397   7.951309076102284   1.732373274876585 
 10.016897890659550  10.119737783328796   1.714646952679905 
  8.764442897508681  12.288480848851099   1.735217663214255 
 -7.511874602664228  14.456781678247031   1.755764709899730 
  0.000405238731370   1.445632329872778   1.750114045916310 
 -1.251382731360514   3.614158122426258   1.739151074953740 
 -2.503879641805637   5.782625785907180   1.744553252472270 
 -3.756160852226239   7.951066924378319   1.749384589100025 
 -5.007827758123845  10.119737783328796   1.746109743787455 
 -6.259692126018406  12.288497510315070   1.748766945832260 
 -5.008040389882266  14.456452236506291   1.747965946835385 
  2.504056903293582   1.445225300170843   1.733847370237950 
  1.252491146304220   3.614148536013719   1.701464739799980 
  0.000327735858127   5.782870977743143   1.698875773157070 
 -1.252442204717519   7.951088789616366   1.727253483385980 
 -2.504417301317995  10.119737783328796   1.742333507741895 
 -3.755993632516260  12.288280271913054   1.749588941415645 
 -2.503902597516870  14.456624299432113   1.744618617381930 
  5.008421544199533   1.444897203052596   1.712886326691330 
  3.757668974346238   3.611264201735918   1.642660282022775 
  2.501182075684721   5.781049177464311   1.553882790727875 
  1.251556236598088   7.951978793011402   1.639103333696925 
  0.000000000000152  10.119737783328796   1.706946231174630 
 -1.252208473543955  12.288626481175532   1.741426389507330 
  0.000053777029919  14.457010068622537   1.747649875590345 
  7.511978851548101   1.445428294892170   1.730539168942995 
  6.260352843903542   3.611432222553451   1.641576017893500 
  5.007754946690774   5.714343660284317   1.239497724724125 
  3.696921284808351   7.985417194483964   1.239013065404970 
  2.503207061213756  10.119737783328796   1.638732213835080 
  1.251905763908558  12.288756271282194   1.726069722313830 
  2.504113225593992  14.456733649148154   1.743527606088000 
 10.015513437807167   1.446100760449190   1.745814249510645 
  8.763047375789430   3.614523669785882   1.701389877287340 
  7.514557837943091   5.781209310094239   1.554453037897500 
  6.319009309205448   7.985597851297109   1.240282284615780 
  5.008106439978199  10.123070210818268   1.554244952054520 
  3.756040687037803  12.287925566282677   1.698473297258625 
  5.008313521177977  14.456256149421954   1.739042828391015 
 12.519874915300514   1.445651479426881   1.751170927530060 
 11.267270010353442   3.614595263936602   1.740524845747260 
 10.015212282424182   5.783318872540668   1.701903109373100 
  8.766540950565243   7.952244393745493   1.642614151122480 
  7.515390125747342  10.119737783328796   1.643804329240440 
  6.260330888213389  12.287860989573849   1.702282364122005 
