 N B P 
 1.0
 14.936314146199660   0.000000000000000   0.000000000000000
 -7.468157073099825  12.935227489513863   0.000000000000000
  0.000000000000001   0.000000000000001  13.341276283792837
 N B P 
 143 143   2
Cartesian
  1.265512120707735   0.731468346943729   1.681609596263613 
  4.999830112108007   7.202447866042983   1.605918393624067 
  6.243812995100607   0.730629297813906   1.670148776188074 
  9.977505852900462   7.197515040061911   1.668611406666538 
 11.222974340336632   0.730597261162435   1.663191322284143 
 -3.714234262742076   9.353565839251994   8.331533577007422 
  1.265264339172715   9.353728517834821   8.335808436657381 
  2.511345457099660   2.887290720208816   8.343065557931071 
  6.243629941807428   9.355605928133015   8.351724434552935 
  7.490137056039638   2.885056524830024   8.358297697023088 
 12.468053820116349   2.886066346373802   8.331980738927658 
 -1.224718731119507   9.353459130027328   1.677736553152418 
  0.021740413964932   2.887046831524208   1.683263072721796 
  5.000037534683115   2.887685390058243   1.651708653803754 
  3.754215078844631   9.355863202444713   1.647659515819899 
  8.732598104228380   9.353758511498157   1.668611406666538 
  9.979116696428216   2.885381455873583   1.660142390445991 
 -4.958812273718619  11.510054409143748   8.328506954244027 
  0.019959393603539  11.509503551948727   8.334148901656103 
  1.266754149328533   5.042986099927067   8.343065557931071 
  6.248032186447519   5.040498455174071   8.400038819218466 
  4.998986297572872  11.511220335009357   8.345814822399918 
 11.223269498757592   5.041478595346153   8.335035912369559 
 -1.223159460162610   5.041973968363980   1.681609596263613 
 -2.469568909828527  11.509602887362560   1.677736553152471 
  2.509275343248034  11.510241084989312   1.660970610391094 
  3.759682941709401   5.045148956131977   1.570871969733576 
  7.488297594551240  11.510639698273874   1.670921300476803 
  8.734621681429557   5.041081673873071   1.654232778290571 
  0.020942402946929   7.198003265881351   8.327689756730926 
  1.265512120707750   0.731468346943730   8.324347616580642 
  4.999830112108008   7.202447866042984   8.400038819218466 
  6.243812995100608   0.730629297813907   8.335808436657381 
  9.977505852900462   7.197515040061912   8.337345806178222 
 -2.468949383731566   7.197485379805888   1.677450258600240 
 11.222974340336632   0.730597261162436   8.342765890559017 
  3.754739195217098   0.730877516531676   1.678267456113115 
  2.511441982236190   7.198059326386285   1.651708653803754 
  7.488213320807097   7.197816974182873   1.649532852341943 
  8.733413163874941   0.729718146352413   1.660970610391094 
  2.511441982236190   7.198059326386286   8.354248559042007 
 13.712205065091055   0.731133177777523   1.673976473915088 
 -1.224718731119492   9.353459130027328   8.328220659692157 
  0.021740413964947   2.887046831524209   8.322694140122351 
  5.000037534683115   2.887685390058244   8.354248559042007 
  3.754215078844802   9.355863202444700   8.358297697023088 
  8.732598104228380   9.353758511498157   8.337345806178222 
  9.979116696428298   2.885381455873571   8.345814822399664 
 -3.714234262742076   9.353565839251994   1.674423635840355 
  1.265264339172715   9.353728517834821   1.670148776188074 
  2.511345457099689   2.887290720208815   1.662891654916571 
  6.243629941807427   9.355605928133015   1.654232778290571 
  7.490137056039473   2.885056524830024   1.647659515819899 
 12.468053820116349   2.886066346373801   1.673976473915088 
 -1.223159460162594   5.041973968363981   8.324347616580642 
 -2.469568909828527  11.509602887362560   8.328220659692157 
  2.509275343247989  11.510241084989390   8.344986602450264 
  3.759682941709416   5.045148956131978   8.435085243113468 
  7.488297594551241  11.510639698273874   8.335035912369545 
 -4.958812273718605  11.510054409143748   1.677450258600240 
  8.734621681429543   5.041081673873072   8.351724434552935 
  0.019959393603530  11.509503551948740   1.671808311189272 
  1.266754149328465   5.042986099927054   1.662891654916571 
  0.020942402946929   7.198003265881350   1.678267456113115 
  6.248032186447518   5.040498455174070   1.605918393624053 
  4.998986297572872  11.511220335009357   1.660142390445991 
 11.223269498757592   5.041478595346153   1.670921300476790 
 -2.468949383731581   7.197485379805889   8.328506954244027 
  3.754739195217098   0.730877516531676   8.327689756730926 
  7.488213320807098   7.197816974182873   8.356424360505807 
  8.733413163874948   0.729718146352401   8.344986602450264 
 13.712205065091055   0.731133177777523   8.331980738927658 
 -0.011436658180250   1.424782656663351   5.002978606422314 
  3.639705678726631   8.047478343942512   5.002978606422314 
  5.010267281743152   1.280972061839002   5.002978606422314 
  8.692255997089179   7.892971337451867   5.002978606422314 
  9.966719289869962   1.421171497550506   5.002978606422314 
 -4.993829820148027  10.052083116965333  11.673616748318732 
 -0.015412351941872  10.051822739367347  11.673616748318732 
  1.229066747100854   3.584097014959039  11.673616748318732 
  4.963489241255809  10.051788798394377  11.673616748318732 
  6.207784389395967   3.584107139775147  11.673616748318732 
 11.186599122746111   3.584161129415239  11.673616748318732 
 -2.531560304882408  10.036382967185897   5.002978606422314 
 -1.261206044581418   3.589446731654368   5.002978606422314 
  3.780701990375294   3.210158594994931   5.002978606422314 
  2.436321815505575  10.122630536713888   5.002978606422314 
  7.461684657207649  10.075004413781832   5.002978606422314 
  8.742837446919367   3.554838822892982   5.002978606422314 
 -6.238732363442860  12.207833651015285  11.673616748318732 
 -1.260115093473263  12.207711128020005  11.673616748318732 
 -0.015541180262544   5.739929439963441  11.673616748318732 
  4.963790083807665   5.740340538756878  11.673616748318732 
  3.718595776693784  12.207625192097680  11.673616748318732 
  9.942231210654620   5.740175847050989  11.673616748318732 
 -2.538348147912942   5.748275036243173   5.002978606422314 
 -3.757221641695963  12.148788573412091   5.002978606422314 
  1.231024715517427  12.208712441561453   5.002978606422314 
  2.181044197597735   5.980847166809196   5.002978606422314 
  6.214250492987207  12.225448698962810   5.002978606422314 
  7.546483632294527   5.722868666907305   5.002978606422314 
 -1.260187292715641   7.895796730560240  11.673616748318732 
 -0.015385356289879   1.428343410144846  11.673616748318732 
  3.718434336594339   7.895787909051863  11.673616748318732 
  4.963314429337031   1.428349392229873  11.673616748318732 
  8.697778779974998   7.896159917644044  11.673616748318732 
 -3.774036873337794   7.894061879545656   5.002978606422314 
  9.942025733549102   1.428328309478007  11.673616748318732 
  2.451298776448460   1.309984805352236   5.002978606422314 
  1.125102296930394   8.010275211322313   5.002978606422314 
  6.240005773179098   7.985754697859059   5.002978606422314 
  7.495230414638912   1.360343812167794   5.002978606422314 
  1.229258382786033   7.895924183166074  11.673616748318732 
 12.445382273622995   1.436354810504227   5.002978606422314 
 -2.504847250205280  10.051805756495972  11.673616748318732 
 -1.260096690665040   3.584246682039492  11.673616748318732 
  3.718620894653659   3.584124622735290  11.673616748318732 
  2.473683405712510  10.051611627224386  11.673616748318732 
  7.452868020029956  10.051879371704709  11.673616748318732 
  8.697463382478393   3.584355871648474  11.673616748318732 
 -5.008103074067879  10.031527239113668   5.002978606422314 
 -0.058257680717779  10.080171466126529   5.002978606422314 
  1.229321517580892   3.584244106765581   5.002978606422314 
  4.960613759410056  10.105842415249636   5.002978606422314 
  6.299787830588732   3.440080904610170   5.002978606422314 
 11.205288701424701   3.580716939431466   5.002978606422314 
 -2.504614878899560   5.740152446355265  11.673616748318732 
 -3.749675858706090  12.207717411717489  11.673616748318732 
  1.228947486887214  12.207513153053107  11.673616748318732 
  2.473867729912729   5.740100346948749  11.673616748318732 
  6.207888459672366  12.207540954043964  11.673616748318732 
 -6.248564628764332  12.174558488157224   5.002978606422314 
  7.453260878247786   5.740490435783896  11.673616748318732 
 -1.256987040324799  12.156431621490405   5.002978606422314 
 -0.129256182803042   5.779637106499651   5.002978606422314 
 -1.314994055198654   7.918726309952434   5.002978606422314 
  3.724744573916400  12.232588845142462   5.002978606422314 
  9.966666403146672   5.736248757782798   5.002978606422314 
 -3.749098333963105   7.896144941112315  11.673616748318732 
  2.473768429774142   1.428318719610403  11.673616748318732 
  6.208655295660249   7.896210540209210  11.673616748318732 
  7.452407029975290   1.428209353157731  11.673616748318732 
 12.431234967823851   1.428186859693836  11.673616748318732 
  1.205445663456462   0.657426170689829   5.002978606422314 
  4.925987448869280   7.439827638344247   5.002978606422314 
  6.250703347896862   0.629834038264651   5.002978606422314 
  9.931177665082132   7.170401529627073   5.002978606422314 
 11.205753021200687   0.720654527924455   5.002978606422314 
 -3.749340782379905   9.333297080684524  11.673616748318732 
  1.229517060618205   9.332523782172265  11.673616748318732 
  2.473430491183689   2.865746277968274  11.673616748318732 
  6.208153970873599   9.332674243420881  11.673616748318732 
  7.450532198494023   2.865298714975844  11.673616748318732 
 12.430377161719852   2.865019382756006  11.673616748318732 
 -1.291797329417479   9.344410249673157   5.002978606422314 
 -0.012025463258107   2.867552093220348   5.002978606422314 
  5.048896314662429   2.690077246288513   5.002978606422314 
  3.680677281392319   9.439616361942358   5.002978606422314 
  8.685953021499405   9.327193879149220   5.002978606422314 
  9.974244714977875   2.851818082662756   5.002978606422314 
 -4.994042544103277  11.489383884197236  11.673616748318732 
 -0.015541272967448  11.489007232546825  11.673616748318732 
  1.229138632079260   5.020922997381495  11.673616748318732 
  6.206155841192003   5.021185608368539  11.673616748318732 
  4.963414419554790  11.488674355930659  11.673616748318732 
 11.185461158751275   5.020848578268443  11.673616748318732 
 -1.317315094374600   5.026975978594249   5.002978606422314 
 -2.510944769239329  11.456035557362137   5.002978606422314 
  2.472602939810403  11.528744860962343   5.002978606422314 
  7.446959967368399  11.492664792781666   5.002978606422314 
  8.757977757741042   5.000012054114696   5.002978606422314 
 -0.016140398313209   7.176229969958704  11.673616748318732 
  1.229720657282269   0.710256850937305  11.673616748318732 
  4.962166523527163   7.175838310636996  11.673616748318732 
  6.207575516060001   0.710273614299192  11.673616748318732 
  9.940687675245137   7.176661736615936  11.673616748318732 
 -2.538883521254010   7.181845885792945   5.002978606422314 
 11.186774811692818   0.709697453554280  11.673616748318732 
  3.726789407515353   0.631035162382287   5.002978606422314 
  2.364737699727315   7.339176342929871   5.002978606422314 
  7.452591927173529   7.177250952982529   5.002978606422314 
  8.731101702214502   0.688707025371529   5.002978606422314 
  2.474523298819695   7.176413706474188  11.673616748318732 
 13.683720708539942   0.719804123734817   5.002978606422314 
 -1.261244007332094   9.332244958590382  11.673616748318732 
 -0.014632404361004   2.866046975073459  11.673616748318732 
  4.962832536251441   2.866535682299404  11.673616748318732 
  3.717301884812675   9.331443294628281  11.673616748318732 
  8.696129524866793   9.332299686045189  11.673616748318732 
  9.941805366785891   2.865848295386081  11.673616748318732 
 -3.769994677184858   9.321372548966588   5.002978606422314 
  1.181418260218842   9.410093368174266   5.002978606422314 
  2.461543058398441   2.716016854159163   5.002978606422314 
  6.219740645928685   9.396367693430639   5.002978606422314 
  7.525900521084157   2.779494344351447   5.002978606422314 
 12.444000393240817   2.867062697008228   5.002978606422314 
 -1.259424886268035   5.021583399800112  11.673616748318732 
 -2.506203559322367  11.488578156005739  11.673616748318732 
  2.472285569666289  11.487770314552339  11.673616748318732 
  3.719259684997811   5.021810577988538  11.673616748318732 
  7.451527305677660  11.488211723893468  11.673616748318732 
 -5.007323541597558  11.457309416464325   5.002978606422314 
  8.697024274448371   5.021824424179966  11.673616748318732 
 -0.015596204812912  11.488975517631353   5.002978606422314 
  1.093525430975067   5.085492890506293   5.002978606422314 
 -0.079498505970702   7.223719216775486   5.002978606422314 
  6.416687767985403   4.857858946775965   5.002978606422314 
  4.967483573014258  11.523782761905373   5.002978606422314 
 11.187033960378397   5.014666612821299   5.002978606422314 
 -2.504465718638352   7.177310333145920  11.673616748318732 
  3.717341567194178   0.709649516557673  11.673616748318732 
  7.452703152130022   7.177315168743549  11.673616748318732 
  8.695458019041709   0.708919447971178  11.673616748318732 
 13.675139530727627   0.709027716284906  11.673616748318732 
  0.022353731469324   1.451175022388401   1.682100666568877 
  3.756352157234724   7.915563767979236   1.637200190479688 
  4.999614609478680   1.453683295859289   1.672484592049570 
  8.731002720172745   7.915341768455819   1.664322561800928 
  9.978700818595923   1.449153735141581   1.662009621711984 
 -4.958489995518915  10.073096940061838   8.331582436445686 
  0.021927035804849  10.072078012361025   8.330542284160718 
  1.269378922449360   3.607371260249153   8.328298596685160 
  4.999178392901795  10.073355051381736   8.351439466468094 
  6.243869695929476   3.607057006241218   8.368757022366674 
 11.223145736550768   3.604120021288837   8.336596298422956 
 -2.469282285728949  10.072339198307906   1.677634643397006 
 -1.221454390572498   3.605513884631683   1.682100666568877 
  3.756438187687529   3.613097583722639   1.647936666517917 
  2.510244056114608  10.071856370191727   1.661657600245476 
  7.487162812379396  10.072786059045711   1.666095375010549 
  8.733984881254024   3.604480457117727   1.654517746374414 
 -6.202379784204863  12.230568733546788   8.327492484628891 
 -1.223903818627847  12.229920349875417   8.330542284160718 
  0.024910032700245   5.759668998222150   8.327807050890019 
  4.999836562958675   5.761151983198043   8.391239759684098 
  3.754968666885766  12.228974034603620   8.343947591136340 
  9.977484329172054   5.759422664778810   8.339861837836054 
 -2.466749430252048   5.760267162204112   1.678464728215498 
 -3.714055362632935  12.230353797330368   1.679899768601204 
  1.264816911679539  12.228222375113528   1.665953406444071 
  2.517867696666668   5.758364602926317   1.647936666517917 
  6.243446673966838  12.229211804087370   1.669360914419670 
  7.487811454668127   5.759380967063480   1.639483928801261 
 -1.222773359689405   7.915326792250188   8.326057444245412 
  0.022353731469325   1.451175022388402   8.323856546274030 
  3.756352157234725   7.915563767979237   8.368757022366674 
  4.999614609478681   1.453683295859290   8.333472620794630 
  8.731002720172745   7.915341768455820   8.341634651042927 
 -3.713229917016852   7.916243215459039   1.674374776397822 
  9.978700818595930   1.449153735141568   8.343947591136340 
  2.511088995166500   1.453480718521764   1.678150161954849 
  1.269348276975623   7.914694109518249   1.672484592049570 
  6.242290263849395   7.916686951465228   1.639483928801261 
  7.488219816878075   1.449749433703035   1.661657600245476 
  1.269348276975623   7.914694109518249   8.333472620794630 
 12.467661554770055   1.449217759472204   1.671558602177958 
 -2.469282285728934  10.072339198307906   8.328322569447367 
 -1.221454390572483   3.605513884631684   8.323856546274030 
  3.756438187687529   3.613097583722640   8.358020546324710 
  2.510244056114609  10.071856370191727   8.344299612600352 
  7.487162812379397  10.072786059045711   8.339861837836054 
  8.733984881254024   3.604480457117728   8.351439466468094 
 -4.958489995518902  10.073096940061838   1.674374776397822 
  0.021927035804849  10.072078012361025   1.675414928685538 
  1.269378922448627   3.607371260249152   1.677658616159281 
  4.999178392901794  10.073355051381736   1.654517746374414 
  6.243869695929475   3.607057006241218   1.637200190479688 
 11.223145736550768   3.604120021288836   1.669360914419670 
 -2.466749430252040   5.760267162204100   8.327492484628891 
 -3.714055362632934  12.230353797330368   8.326057444245412 
  1.264816911679539  12.228222375113528   8.340003806398249 
  2.517867696666668   5.758364602926318   8.358020546324710 
  6.243446673966839  12.229211804087370   8.336596298422956 
 -6.202379784204864  12.230568733546788   1.678464728215498 
  7.487811454668128   5.759380967063481   8.366473284043566 
 -1.223903818627847  12.229920349875417   1.675414928685538 
  0.024910032700259   5.759668998222149   1.678150161954849 
 -1.222773359689390   7.915326792250187   1.679899768601204 
  4.999836562958674   5.761151983198042   1.614717453159210 
  3.754968666886496  12.228974034602354   1.662009621711970 
  9.977484329172054   5.759422664778810   1.666095375010562 
 -3.713229917016837   7.916243215459040   8.331582436445686 
  2.511088995166471   1.453480718521765   8.327807050890019 
  6.242290263849396   7.916686951465229   8.366473284043566 
  7.488219816878052   1.449749433703049   8.344299612600352 
 12.467661554770055   1.449217759472204   8.334398610665936 
  3.318821107273048   4.790617257346562   5.002978606422314 
  4.962951719230295   5.739856508742445   5.002978606422314 
Generated by cif2cell 2.0.0.  :  Failed to get author information, No journal information. Species order: N B P 
 1.0
 14.936314146199660   0.000000000000000   0.000000000000000
 -7.468157073099825  12.935227489513863   0.000000000000000
  0.000000000000001   0.000000000000001  13.341276283792837
 N B P 
 143 143   2
Cartesian
  1.265512120707735   0.731468346943729   1.681609596263613 
  4.999830112108007   7.202447866042983   1.605918393624067 
  6.243812995100607   0.730629297813906   1.670148776188074 
  9.977505852900462   7.197515040061911   1.668611406666538 
 11.222974340336632   0.730597261162435   1.663191322284143 
 -3.714234262742076   9.353565839251994   8.331533577007422 
  1.265264339172715   9.353728517834821   8.335808436657381 
  2.511345457099660   2.887290720208816   8.343065557931071 
  6.243629941807428   9.355605928133015   8.351724434552935 
  7.490137056039638   2.885056524830024   8.358297697023088 
 12.468053820116349   2.886066346373802   8.331980738927658 
 -1.224718731119507   9.353459130027328   1.677736553152418 
  0.021740413964932   2.887046831524208   1.683263072721796 
  5.000037534683115   2.887685390058243   1.651708653803754 
  3.754215078844631   9.355863202444713   1.647659515819899 
  8.732598104228380   9.353758511498157   1.668611406666538 
  9.979116696428216   2.885381455873583   1.660142390445991 
 -4.958812273718619  11.510054409143748   8.328506954244027 
  0.019959393603539  11.509503551948727   8.334148901656103 
  1.266754149328533   5.042986099927067   8.343065557931071 
  6.248032186447519   5.040498455174071   8.400038819218466 
  4.998986297572872  11.511220335009357   8.345814822399918 
 11.223269498757592   5.041478595346153   8.335035912369559 
 -1.223159460162610   5.041973968363980   1.681609596263613 
 -2.469568909828527  11.509602887362560   1.677736553152471 
  2.509275343248034  11.510241084989312   1.660970610391094 
  3.759682941709401   5.045148956131977   1.570871969733576 
  7.488297594551240  11.510639698273874   1.670921300476803 
  8.734621681429557   5.041081673873071   1.654232778290571 
  0.020942402946929   7.198003265881351   8.327689756730926 
  1.265512120707750   0.731468346943730   8.324347616580642 
  4.999830112108008   7.202447866042984   8.400038819218466 
  6.243812995100608   0.730629297813907   8.335808436657381 
  9.977505852900462   7.197515040061912   8.337345806178222 
 -2.468949383731566   7.197485379805888   1.677450258600240 
 11.222974340336632   0.730597261162436   8.342765890559017 
  3.754739195217098   0.730877516531676   1.678267456113115 
  2.511441982236190   7.198059326386285   1.651708653803754 
  7.488213320807097   7.197816974182873   1.649532852341943 
  8.733413163874941   0.729718146352413   1.660970610391094 
  2.511441982236190   7.198059326386286   8.354248559042007 
 13.712205065091055   0.731133177777523   1.673976473915088 
 -1.224718731119492   9.353459130027328   8.328220659692157 
  0.021740413964947   2.887046831524209   8.322694140122351 
  5.000037534683115   2.887685390058244   8.354248559042007 
  3.754215078844802   9.355863202444700   8.358297697023088 
  8.732598104228380   9.353758511498157   8.337345806178222 
  9.979116696428298   2.885381455873571   8.345814822399664 
 -3.714234262742076   9.353565839251994   1.674423635840355 
  1.265264339172715   9.353728517834821   1.670148776188074 
  2.511345457099689   2.887290720208815   1.662891654916571 
  6.243629941807427   9.355605928133015   1.654232778290571 
  7.490137056039473   2.885056524830024   1.647659515819899 
 12.468053820116349   2.886066346373801   1.673976473915088 
 -1.223159460162594   5.041973968363981   8.324347616580642 
 -2.469568909828527  11.509602887362560   8.328220659692157 
  2.509275343247989  11.510241084989390   8.344986602450264 
  3.759682941709416   5.045148956131978   8.435085243113468 
  7.488297594551241  11.510639698273874   8.335035912369545 
 -4.958812273718605  11.510054409143748   1.677450258600240 
  8.734621681429543   5.041081673873072   8.351724434552935 
  0.019959393603530  11.509503551948740   1.671808311189272 
  1.266754149328465   5.042986099927054   1.662891654916571 
  0.020942402946929   7.198003265881350   1.678267456113115 
  6.248032186447518   5.040498455174070   1.605918393624053 
  4.998986297572872  11.511220335009357   1.660142390445991 
 11.223269498757592   5.041478595346153   1.670921300476790 
 -2.468949383731581   7.197485379805889   8.328506954244027 
  3.754739195217098   0.730877516531676   8.327689756730926 
  7.488213320807098   7.197816974182873   8.356424360505807 
  8.733413163874948   0.729718146352401   8.344986602450264 
 13.712205065091055   0.731133177777523   8.331980738927658 
 -0.011436658180250   1.424782656663351   5.002978606422314 
  3.639705678726631   8.047478343942512   5.002978606422314 
  5.010267281743152   1.280972061839002   5.002978606422314 
  8.692255997089179   7.892971337451867   5.002978606422314 
  9.966719289869962   1.421171497550506   5.002978606422314 
 -4.993829820148027  10.052083116965333  11.673616748318732 
 -0.015412351941872  10.051822739367347  11.673616748318732 
  1.229066747100854   3.584097014959039  11.673616748318732 
  4.963489241255809  10.051788798394377  11.673616748318732 
  6.207784389395967   3.584107139775147  11.673616748318732 
 11.186599122746111   3.584161129415239  11.673616748318732 
 -2.531560304882408  10.036382967185897   5.002978606422314 
 -1.261206044581418   3.589446731654368   5.002978606422314 
  3.780701990375294   3.210158594994931   5.002978606422314 
  2.436321815505575  10.122630536713888   5.002978606422314 
  7.461684657207649  10.075004413781832   5.002978606422314 
  8.742837446919367   3.554838822892982   5.002978606422314 
 -6.238732363442860  12.207833651015285  11.673616748318732 
 -1.260115093473263  12.207711128020005  11.673616748318732 
 -0.015541180262544   5.739929439963441  11.673616748318732 
  4.963790083807665   5.740340538756878  11.673616748318732 
  3.718595776693784  12.207625192097680  11.673616748318732 
  9.942231210654620   5.740175847050989  11.673616748318732 
 -2.538348147912942   5.748275036243173   5.002978606422314 
 -3.757221641695963  12.148788573412091   5.002978606422314 
  1.231024715517427  12.208712441561453   5.002978606422314 
  2.181044197597735   5.980847166809196   5.002978606422314 
  6.214250492987207  12.225448698962810   5.002978606422314 
  7.546483632294527   5.722868666907305   5.002978606422314 
 -1.260187292715641   7.895796730560240  11.673616748318732 
 -0.015385356289879   1.428343410144846  11.673616748318732 
  3.718434336594339   7.895787909051863  11.673616748318732 
  4.963314429337031   1.428349392229873  11.673616748318732 
  8.697778779974998   7.896159917644044  11.673616748318732 
 -3.774036873337794   7.894061879545656   5.002978606422314 
  9.942025733549102   1.428328309478007  11.673616748318732 
  2.451298776448460   1.309984805352236   5.002978606422314 
  1.125102296930394   8.010275211322313   5.002978606422314 
  6.240005773179098   7.985754697859059   5.002978606422314 
  7.495230414638912   1.360343812167794   5.002978606422314 
  1.229258382786033   7.895924183166074  11.673616748318732 
 12.445382273622995   1.436354810504227   5.002978606422314 
 -2.504847250205280  10.051805756495972  11.673616748318732 
 -1.260096690665040   3.584246682039492  11.673616748318732 
  3.718620894653659   3.584124622735290  11.673616748318732 
  2.473683405712510  10.051611627224386  11.673616748318732 
  7.452868020029956  10.051879371704709  11.673616748318732 
  8.697463382478393   3.584355871648474  11.673616748318732 
 -5.008103074067879  10.031527239113668   5.002978606422314 
 -0.058257680717779  10.080171466126529   5.002978606422314 
  1.229321517580892   3.584244106765581   5.002978606422314 
  4.960613759410056  10.105842415249636   5.002978606422314 
  6.299787830588732   3.440080904610170   5.002978606422314 
 11.205288701424701   3.580716939431466   5.002978606422314 
 -2.504614878899560   5.740152446355265  11.673616748318732 
 -3.749675858706090  12.207717411717489  11.673616748318732 
  1.228947486887214  12.207513153053107  11.673616748318732 
  2.473867729912729   5.740100346948749  11.673616748318732 
  6.207888459672366  12.207540954043964  11.673616748318732 
 -6.248564628764332  12.174558488157224   5.002978606422314 
  7.453260878247786   5.740490435783896  11.673616748318732 
 -1.256987040324799  12.156431621490405   5.002978606422314 
 -0.129256182803042   5.779637106499651   5.002978606422314 
 -1.314994055198654   7.918726309952434   5.002978606422314 
  3.724744573916400  12.232588845142462   5.002978606422314 
  9.966666403146672   5.736248757782798   5.002978606422314 
 -3.749098333963105   7.896144941112315  11.673616748318732 
  2.473768429774142   1.428318719610403  11.673616748318732 
  6.208655295660249   7.896210540209210  11.673616748318732 
  7.452407029975290   1.428209353157731  11.673616748318732 
 12.431234967823851   1.428186859693836  11.673616748318732 
  1.205445663456462   0.657426170689829   5.002978606422314 
  4.925987448869280   7.439827638344247   5.002978606422314 
  6.250703347896862   0.629834038264651   5.002978606422314 
  9.931177665082132   7.170401529627073   5.002978606422314 
 11.205753021200687   0.720654527924455   5.002978606422314 
 -3.749340782379905   9.333297080684524  11.673616748318732 
  1.229517060618205   9.332523782172265  11.673616748318732 
  2.473430491183689   2.865746277968274  11.673616748318732 
  6.208153970873599   9.332674243420881  11.673616748318732 
  7.450532198494023   2.865298714975844  11.673616748318732 
 12.430377161719852   2.865019382756006  11.673616748318732 
 -1.291797329417479   9.344410249673157   5.002978606422314 
 -0.012025463258107   2.867552093220348   5.002978606422314 
  5.048896314662429   2.690077246288513   5.002978606422314 
  3.680677281392319   9.439616361942358   5.002978606422314 
  8.685953021499405   9.327193879149220   5.002978606422314 
  9.974244714977875   2.851818082662756   5.002978606422314 
 -4.994042544103277  11.489383884197236  11.673616748318732 
 -0.015541272967448  11.489007232546825  11.673616748318732 
  1.229138632079260   5.020922997381495  11.673616748318732 
  6.206155841192003   5.021185608368539  11.673616748318732 
  4.963414419554790  11.488674355930659  11.673616748318732 
 11.185461158751275   5.020848578268443  11.673616748318732 
 -1.317315094374600   5.026975978594249   5.002978606422314 
 -2.510944769239329  11.456035557362137   5.002978606422314 
  2.472602939810403  11.528744860962343   5.002978606422314 
  7.446959967368399  11.492664792781666   5.002978606422314 
  8.757977757741042   5.000012054114696   5.002978606422314 
 -0.016140398313209   7.176229969958704  11.673616748318732 
  1.229720657282269   0.710256850937305  11.673616748318732 
  4.962166523527163   7.175838310636996  11.673616748318732 
  6.207575516060001   0.710273614299192  11.673616748318732 
  9.940687675245137   7.176661736615936  11.673616748318732 
 -2.538883521254010   7.181845885792945   5.002978606422314 
 11.186774811692818   0.709697453554280  11.673616748318732 
  3.726789407515353   0.631035162382287   5.002978606422314 
  2.364737699727315   7.339176342929871   5.002978606422314 
  7.452591927173529   7.177250952982529   5.002978606422314 
  8.731101702214502   0.688707025371529   5.002978606422314 
  2.474523298819695   7.176413706474188  11.673616748318732 
 13.683720708539942   0.719804123734817   5.002978606422314 
 -1.261244007332094   9.332244958590382  11.673616748318732 
 -0.014632404361004   2.866046975073459  11.673616748318732 
  4.962832536251441   2.866535682299404  11.673616748318732 
  3.717301884812675   9.331443294628281  11.673616748318732 
  8.696129524866793   9.332299686045189  11.673616748318732 
  9.941805366785891   2.865848295386081  11.673616748318732 
 -3.769994677184858   9.321372548966588   5.002978606422314 
  1.181418260218842   9.410093368174266   5.002978606422314 
  2.461543058398441   2.716016854159163   5.002978606422314 
  6.219740645928685   9.396367693430639   5.002978606422314 