 O Se N B 
 1.0
 17.527899999999772   0.000000000000000   0.000000000000000
 -8.763949999999658  15.179606674993195   0.000000000000000
  0.000000000000001   0.000000000000002  15.000000000000000
 O Se N B 
   1   1  48  48
Cartesian
  3.435526238711144   8.136256238584698   1.666352949633945 
  4.960352616986111   7.255891051668944   1.670318708663820 
  8.781407646175943  13.757814080730840   1.664395523953965 
 16.265965956852234   0.728592146553339   1.664546167938615 
 15.001171058949195   2.887245922783994   1.664662359524085 
 13.754923218763127   5.054885495784062   1.664255962698225 
 12.529184772558189   7.226439544635765   1.664137269833520 
 11.299619967147287   9.403068017705943   1.665136147814940 
 10.048552304959987  11.582507034937279   1.665093852720465 
 -6.244588580630838  13.725066868377269   1.664486289683385 
  1.240049614971154   0.695798812616624   1.664395523953965 
 -0.039142454425910   2.852834092435548   1.663864308064755 
 -1.292248834992112   5.033874870932290   1.663918726790085 
 -2.526177783548465   7.217181935278393   1.664311773735390 
 -3.739479038709708   9.393181676127208   1.664814458741670 
 -4.984501429807169  11.561498120269633   1.664470704041565 
 -3.740839506523731  13.715583758835125   1.664470704041565 
  3.757493107051453   0.686072870736769   1.665093852720465 
  2.457189523670215   2.806538766813104   1.663965547626480 
  1.173465830414419   4.972184385546075   1.663873899785775 
 -0.072634846009000   7.195405602189938   1.665052757551770 
 -1.243821555643640   9.388379334404988   1.665446302589370 
 -2.487649995931717  11.555997365172464   1.664691389471775 
 -1.240511186904117  13.721520961935211   1.664814458741670 
  6.270476493066597   0.692336002044948   1.665136147814940 
  5.005455978458840   2.828606343726177   1.664592570701490 
  3.663480133192348   4.890787874971894   1.667637980936850 
  2.254851587509164   7.036620737919824   1.671634015741470 
  1.270549598518182   9.386199817648071   1.666144105976385 
  0.011476504557788  11.562619353316689   1.665446302589370 
  1.250610494862114  13.758771122946779   1.664311773735390 
  8.770274448033554   0.715815881494722   1.664137269833520 
  7.531347052537729   2.851682324782087   1.663448910961830 
  6.298399897256148   4.969853074158930   1.667524376958720 
  3.797495764241547   9.708558830050370   1.671634015741470 
  2.496240821288269  11.644828776305884   1.665052757551770 
  3.758374351126271  13.781810839205001   1.663918726790085 
 11.263764643132475   0.740072273111959   1.664255962698225 
 10.015302628350398   2.892462561176515   1.664113347741690 
  8.772108196577179   5.055172941706762   1.663308296038035 
  7.609143219660818   7.240127104245291   1.667524376958720 
  6.360155808671595   9.561567156466776   1.667637980936850 
  5.044657211345797  11.677284543172185   1.663873899785775 
  6.273764262294623  13.787109269238602   1.663864308064755 
 13.764119499710146   0.744609770598905   1.664662359524085 
 12.508678774760558   2.897862912556647   1.665189607804410 
 11.266679829379429   5.059868891664398   1.664113347741690 
 10.060006475832306   7.231448920936191   1.663448910961830 
  8.817045324595963   9.430472748824039   1.664592570701490 
  7.562023179408794  11.648370022739041   1.663965547626480 
  7.526281367812665  14.479409679671512   1.664515401821940 
 15.014764630312541   1.450979836172456   1.664954361403155 
 13.756558331118789   3.614161187943546   1.665150503400330 
 12.514904705889567   5.783451382250479   1.664173497198360 
 11.297563493169402   7.958556900891793   1.664707472011395 
 10.060310783011962  10.139851516194673   1.665212742573435 
  8.809865046158624  12.330415909160026   1.664912719016190 
 -7.496828204563004  14.448054019275316   1.664465845916970 
 -0.012428216830513   1.421981655562437   1.664515401821940 
 -1.279705622605764   3.593400300273791   1.664192985712035 
 -2.528049461322260   5.772544552704970   1.664396323550190 
 -3.757469128404515   7.949884463183434   1.664559794895855 
 -4.981543880224496  10.119737783328796   1.665279145973130 
 -6.231370345129968  12.288375563731190   1.665092507031390 
 -4.993762868339444  14.431974593359763   1.665092507031390 
  2.490446820179376   1.384862467487834   1.664912719016190 
  1.207394041372377   3.541517754800279   1.664015891158620 
 -0.050395759763487   5.742837102311150   1.664377014166620 
 -1.288824157455761   7.941395833561603   1.665287214135015 
 -2.489395417100179  10.114100105871866   1.665294210324885 
 -3.736165178500710  12.276834208846763   1.664481473225490 
 -2.490789653772950  14.433912014630851   1.665279145973130 
  5.012754101557329   1.397226889801075   1.665212742573435 
  3.707721160723683   3.481449822628533   1.665124173856140 
  2.432049424307340   5.639303082494801   1.667482423003080 
  1.160393394352363   7.918516523913461   1.667655906063225 
  0.013761565994528  10.111812993481029   1.666084156962600 
 -1.239797622975717  12.278466974291005   1.665294210324885 
  0.000431247207725  14.458758843496138   1.664559794895855 
  7.520437006626540   1.416381919555277   1.664707472011395 
  6.279834776845926   3.538408328056811   1.664622836279550 
  4.950007127673354   5.458484252137930   1.675331708776995 
  2.486527940849861  10.215448936119367   1.667655906063225 
  1.242105101577876  12.325093900541020   1.665287214135015 
  2.500772755879614  14.482720135129846   1.664396323550175 
 10.012804248024375   1.449686263586265   1.664173497198360 
  8.766705727147302   3.603687368476167   1.663663027493925 
  7.529057623206024   5.772854791800127   1.666605740873730 
  6.511785248979978   8.163563308420390   1.675331708777025 
  5.096212696725704  10.253769230011619   1.667482423003080 
  3.765327013381697  12.351862812996414   1.664377014166620 
  5.012138956353839  14.491194784359113   1.664192985712035 
 12.512291477088965   1.459027778590371   1.665150503400330 
 11.262403440851358   3.617406579004500   1.664974312494435 
 10.026435768837047   5.785603804502928   1.663663027493925 
  8.839533601015443   7.971936743622768   1.664622836279535 
  7.602804305616655  10.227931729318477   1.665124173856140 
  6.300620390736160  12.363244566347083   1.664015891158620 
