 N Sb B 
 1.0
 17.527899999999772   0.000000000000000   0.000000000000000
 -8.763949999999658  15.179606674993195   0.000000000000000
  0.000000000000001   0.000000000000002  15.000000000000000
 N Sb B 
  47   1  49
Cartesian
  8.797445707925394  13.771070388131713   1.664777245165500 
 16.271546380519911   0.719562152247031   1.665310603952790 
 14.999872427840545   2.859240101967092   1.665426882923895 
 13.750839118881592   5.024055055998893   1.665100472085510 
 12.537608129102328   7.203753191231255   1.665862796169105 
 11.324739855242161   9.398996077014131   1.666071818037495 
 10.075161382084334  11.596581294425192   1.665313728755280 
 -6.237640663335056  13.749063264442281   1.664572654953825 
  1.245759037110772   0.719556156878794   1.664842946047440 
 -0.028373444444150   2.875585261608459   1.664782548409770 
 -1.301205116196439   5.023040532273205   1.664343225451290 
 -2.549403655039197   7.198224400454917   1.665315564564855 
 -3.764984249302104   9.387150126066580   1.666484879073480 
 -4.983925843362341  11.574972663890835   1.665068178026670 
 -3.746018386184478  13.737554279911812   1.662648645433035 
  3.756933632797853   0.716706455497610   1.664097025331550 
  2.456691546373037   2.843748296994951   1.665199805363790 
  1.191067816249451   5.041986735991367   1.666094043178125 
 -0.115256307933292   7.191161458213511   1.664608391120415 
 -1.330087538300369   9.382782708621226   1.665683662914600 
 -2.512573387222188  11.566648119533152   1.664342180963295 
 -1.252427276998227  13.728011667659011   1.660527614473125 
  6.266284561349686   0.710393710072335   1.662283781247135 
  4.999235065451618   2.862756543878599   1.664984397999360 
  3.652840057497079   4.946906035186169   1.669291498480740 
  2.329726159044160   7.253682287414408   1.672070653683990 
  1.082230193084263   9.386556799656377   1.666861854076575 
 -0.032797585709423  11.561893746090483   1.663130840033070 
  1.253730448822067  13.696087681197398   1.660481998591755 
  8.773479988302073   0.691513573893279   1.660484088025935 
  7.529711945421817   2.853219605738076   1.663187054463855 
  6.283626798119963   4.996640917569947   1.667254857896070 
  2.487647988689845  11.496127632600329   1.666207093565880 
  3.757417326148306  13.680245494341674   1.663552611336105 
 11.267995501341073   0.682063876564366   1.663117088493990 
 10.019524398578577   2.860864720199725   1.663773833969640 
  8.780460121302170   5.041939570766304   1.664969822251485 
  7.693925436136140   7.244027725779827   1.666355451455325 
  6.506464201636012   9.558456659604435   1.664548716930345 
  5.065475350109138  11.571700076692162   1.662890786304045 
  6.280721338841084  13.743860233242451   1.664525796735570 
 13.762781799026982   0.689158616129867   1.665516234950640 
 12.509911281056151   2.854603660704952   1.665880640116590 
 11.273468120001919   5.028548441469757   1.665431662047690 
 10.105928321798082   7.214015218583554   1.665910115426505 
  8.895166513804291   9.430623843415299   1.664749993214220 
  7.607547164690274  11.654605650421248   1.663464962900235 
  4.798296774152314   7.482081561128620   1.670314328679945 
  7.530645290810252  14.466657198993250   1.665528439807950 
 15.010357064476011   1.419882373861622   1.666172982624645 
 13.754086891822089   3.581229107987470   1.666188502812195 
 12.517867748771014   5.757236163153927   1.665911698530030 
 11.327536206130812   7.950533471445845   1.666665538384140 
 10.112107750766528  10.152694313829379   1.665849912839355 
  8.842106348089480  12.348242367910270   1.665003591029190 
 -7.487536526884065  14.472209972413550   1.665224445242055 
 -0.008729462571013   1.438445936214908   1.665434769691995 
 -1.284712545882694   3.585426115176826   1.665073179806265 
 -2.539092204364302   5.753049047542473   1.665188358546975 
 -3.766521181475857   7.939361474346832   1.666379599325250 
 -4.980933166818220  10.130295900086390   1.666499092489635 
 -6.217872013443487  12.311223342518417   1.665695881544295 
 -4.992499989053091  14.460309072839323   1.664216793690315 
  2.490844798527000   1.418878659681408   1.665249996651630 
  1.215563714344005   3.598908278313775   1.665851312965395 
 -0.065667682926644   5.753141128600731   1.665197349974805 
 -1.327886851854389   7.933697382987231   1.665537400119735 
 -2.540129460293532  10.119737783328796   1.666451073676845 
 -3.746001652409944  12.297301079903974   1.664172672884475 
 -2.500945593306716  14.451502617901930   1.662274607151960 
  5.010761319105110   1.425648429500782   1.664424996613695 
  3.699261587154931   3.527552925421700   1.666761347367450 
  2.421695019719241   5.805438233754120   1.669673524655670 
  1.101687349862402   7.924134977637288   1.668243356665740 
 -0.112629521719147  10.124700753894489   1.665289501266750 
 -1.267474163243223  12.290246291378002   1.662934102164405 
  0.006665875462403  14.428473870141936   1.660452332620380 
  7.525379086446404   1.412762217059743   1.662398060919990 
  6.278470327015657   3.555121754113089   1.665599300294370 
  4.940289132673957   5.497861440298104   1.668967840937355 
  3.384876573677035   8.804244273639750   1.674252786071520 
  2.336210851664066  10.049310636447885   1.669684429720830 
  1.241051564812011  12.249805599805155   1.663279791557085 
  2.505580497853073  14.413755377864449   1.662755489077920 
 10.021041654349688   1.412791315005524   1.662881740640850 
  8.775047683713918   3.588073814836580   1.664237133717660 
  7.543664209807954   5.778249843558865   1.666813529898135 
  6.641043723213375   8.158298323076648   1.666830434125635 
  5.207959517264203  10.168199787941393   1.669806698891985 
  3.758333000816534  12.228074120586545   1.664849904925635 
  5.006826432990334  14.426173802735590   1.665157229294910 
 12.513287378295699   1.410342264205560   1.665832096824495 
 11.267926945262323   3.582772864077464   1.665770714766480 
 10.042948440990275   5.764772862514658   1.665938308572075 
  8.916799256624998   7.974623076540747   1.666189874720055 
  7.710617377284014  10.243291673123052   1.664237166137310 
  6.319548333163554  12.316718816962355   1.663418337663375 
