B In N                                  
   1.0000000000000000     
     8.7639499999999995  -15.1796066749929999    0.0000000000000000
     8.7639499999999995   15.1796066749929999    0.0000000000000000
     0.0000000000000000    0.0000000000000000   15.0000000000000000
   B    In   N 
    49     1    47
Selective dynamics
Direct
  0.9049248615868386  0.9514516471364450  0.1201773555979775   T   T   T
  0.9043908732593346  0.0938242233182607  0.1178746061178944   T   T   T
  0.9044648870811937  0.2366030521393586  0.1170140857807256   T   T   T
  0.9048586567219316  0.3795160830495424  0.1185545288135750   T   T   T
  0.9056579832610445  0.5226302443416597  0.1217934815846752   T   T   T
  0.9061081745094628  0.6658508265403823  0.1238801471753328   T   T   T
  0.9056079742914083  0.8089091799565924  0.1226172100911345   T   T   T
  0.0476863952262065  0.9513973890625983  0.1233544691455058   T   T   T
  0.0472373603382377  0.0939183426847469  0.1204022537854599   T   T   T
  0.0470435539333196  0.2367843247427881  0.1167888482795224   T   T   T
  0.0470291873293713  0.3796915002357800  0.1156193267791348   T   T   T
  0.0474974568763578  0.5226996280085080  0.1195237599957299   T   T   T
  0.0478606626047012  0.6657566599776878  0.1235875754307673   T   T   T
  0.0478975304848482  0.8086693369336072  0.1247879756073114   T   T   T
  0.1901996597458555  0.9511770634333894  0.1229811670329855   T   T   T
  0.1900200568890621  0.0937390938004544  0.1201791994686799   T   T   T
  0.1892115253248216  0.2363131914087188  0.1151426569541981   T   T   T
  0.1890606103601956  0.3798000046446956  0.1080436209860054   T   T   T
  0.1893214933372638  0.5227467906656794  0.1095793861534645   T   T   T
  0.1896164164425809  0.6657507162379601  0.1174652250651544   T   T   T
  0.1901370337783617  0.8085586912388274  0.1222486020691943   T   T   T
  0.3327327835136245  0.9510120191996406  0.1202175039691310   T   T   T
  0.3326956066335828  0.0932613491251445  0.1184811797638842   T   T   T
  0.3318264640371019  0.2350259573687547  0.1108164597962740   T   T   T
  0.3290437328939279  0.3793310448676840  0.0952499451695224   T   T   T
  0.3303312812014408  0.5220549086115812  0.0843931263259887   T   T   T
  0.3307547714634616  0.6658328857651499  0.1017426071983632   T   T   T
  0.3323413310753628  0.8085836012869877  0.1153448843255919   T   T   T
  0.4754164956992049  0.9511701956178055  0.1160785361160900   T   T   T
  0.4756510111431200  0.0929785493109715  0.1170811909364933   T   T   T
  0.4754852932326278  0.2339041260971244  0.1114202464712288   T   T   T
  0.4718965706706914  0.3679469996586390  0.0978504779719119   T   T   T
  0.5349332658174841  0.6386803408794194  0.0306524583973909   T   T   T
  0.4698424133503142  0.6698652904549411  0.0696329483687302   T   T   T
  0.4746818488664638  0.8094807089750519  0.1057891951290508   T   T   T
  0.6182844402390891  0.9509383629507490  0.1122071371379950   T   T   T
  0.6186651432075102  0.0933683500597738  0.1157628549615806   T   T   T
  0.6190953460294106  0.2356245208820468  0.1141207382274867   T   T   T
  0.6204475901409437  0.3779863121512647  0.1069984555502856   T   T   T
  0.6304153960048566  0.5259795246466300  0.0918754127207997   T   T   T
  0.6285417547814431  0.6699826328910325  0.0779568680933366   T   T   T
  0.6180351971076538  0.8084826355605392  0.1013024605311657   T   T   T
  0.7614609547480082  0.9509899323014916  0.1142534132298140   T   T   T
  0.7615298341840518  0.0936311208236489  0.1155267909459842   T   T   T
  0.7618910829992062  0.2363244295808764  0.1163397960731426   T   T   T
  0.7626975213711614  0.3791540587109459  0.1161545044035322   T   T   T
  0.7645040710824051  0.5226631114738858  0.1154530872438279   T   T   T
  0.7653850473325511  0.6665967250114020  0.1147612417329122   T   T   T
  0.7629538565121148  0.8093260722362905  0.1138966923299953   T   T   T
  0.4914251855871411  0.4940770416552617  0.0177593202971287   T   T   T
  0.9524292170415684  0.9037525433914383  0.1226541956769330   T   T   T
  0.9521463549192639  0.0463666622287900  0.1198888968666353   T   T   T
  0.9519368682693753  0.1889824840423301  0.1175200589815393   T   T   T
  0.9519536506854601  0.3318040489776932  0.1173767343592234   T   T   T
  0.9523085074731334  0.4747050040917364  0.1207170933955171   T   T   T
  0.9525903082670971  0.6177255826816559  0.1240750163342998   T   T   T
  0.9525239587562732  0.7607910747133895  0.1247062176638272   T   T   T
  0.0951347686077604  0.9037860457882473  0.1242865286758914   T   T   T
  0.0951149652499028  0.0465685403311904  0.1220865945609244   T   T   T
  0.0946298843447894  0.1890137992662104  0.1183189079243722   T   T   T
  0.0943875060921114  0.3319480270838292  0.1139521881808877   T   T   T
  0.0945213114529794  0.4748524417964769  0.1157031157065022   T   T   T
  0.0947118938072202  0.6178488478453016  0.1211685657352712   T   T   T
  0.0950308636519298  0.7608773208887291  0.1242642667482357   T   T   T
  0.2377473949222694  0.9037761676970055  0.1223644692419218   T   T   T
  0.2379176662764842  0.0465681574576486  0.1211893446146723   T   T   T
  0.2377567278579667  0.1892260140097010  0.1158508776676228   T   T   T
  0.2360116577745060  0.3310206837676668  0.1088587170087398   T   T   T
  0.2364506241741770  0.4749434201893585  0.1018314342804905   T   T   T
  0.2364720022213170  0.6179518052412961  0.1106058244391193   T   T   T
  0.2373857886491842  0.7609302906168178  0.1189896247005245   T   T   T
  0.3803616313515553  0.9037389123672793  0.1179161305447851   T   T   T
  0.3806532042328946  0.0463930902347070  0.1192297440904746   T   T   T
  0.3807872316636843  0.1890739311691389  0.1136909095330883   T   T   T
  0.3803448194903811  0.3320362875822925  0.1009488094015804   T   T   T
  0.3726074182987625  0.4702176457722904  0.0743289585181132   T   T   T
  0.3767466728936621  0.6184264557104722  0.0835294376642001   T   T   T
  0.3796001523102349  0.7610889113404820  0.1075814761574853   T   T   T
  0.5231464046051688  0.9040232005908528  0.1124700975573679   T   T   T
  0.5235017944016576  0.0462237430278260  0.1168954540640460   T   T   T
  0.5237913519282420  0.1883615721797726  0.1143708785254157   T   T   T
  0.5247151467927830  0.3303791307945310  0.1051077143010863   T   T   T
  0.5222156249955020  0.7624359973385810  0.0943546176310657   T   T   T
  0.6659222576505136  0.9029538641437741  0.1099560880418837   T   T   T
  0.6662775388772146  0.0459825173136947  0.1146865902152482   T   T   T
  0.6665642554594435  0.1887047704387198  0.1156540130293957   T   T   T
  0.6670472506097357  0.3312966087225778  0.1124621802424685   T   T   T
  0.6680430694024383  0.4735227679310498  0.1047385273377702   T   T   T
  0.6699967940582010  0.6180935903460947  0.0972742780653510   T   T   T
  0.6680628249805711  0.7616928118478818  0.1020467444893749   T   T   T
  0.8095854730326231  0.9037403689156528  0.1169918799894590   T   T   T
  0.8090514016808031  0.0459812395545929  0.1159726698355488   T   T   T
  0.8092159032084064  0.1888217939675692  0.1164424217137892   T   T   T
  0.8095214713354769  0.3316389010843945  0.1173389169070309   T   T   T
  0.8100988004859139  0.4744261237644698  0.1189361813894202   T   T   T
  0.8104223403578210  0.6174326000590232  0.1203651035232977   T   T   T
  0.8100329682106394  0.7608689801669719  0.1185106428107036   T   T   T

  0.00000000E+00  0.00000000E+00  0.00000000E+00
  0.00000000E+00  0.00000000E+00  0.00000000E+00
  0.00000000E+00  0.00000000E+00  0.00000000E+00
  0.00000000E+00  0.00000000E+00  0.00000000E+00
  0.00000000E+00  0.00000000E+00  0.00000000E+00
  0.00000000E+00  0.00000000E+00  0.00000000E+00
  0.00000000E+00  0.00000000E+00  0.00000000E+00
  0.00000000E+00  0.00000000E+00  0.00000000E+00
  0.00000000E+00  0.00000000E+00  0.00000000E+00
  0.00000000E+00  0.00000000E+00  0.00000000E+00
  0.00000000E+00  0.00000000E+00  0.00000000E+00
  0.00000000E+00  0.00000000E+00  0.00000000E+00
  0.00000000E+00  0.00000000E+00  0.00000000E+00
  0.00000000E+00  0.00000000E+00  0.00000000E+00
  0.00000000E+00  0.00000000E+00  0.00000000E+00
  0.00000000E+00  0.00000000E+00  0.00000000E+00
  0.00000000E+00  0.00000000E+00  0.00000000E+00
  0.00000000E+00  0.00000000E+00  0.00000000E+00
  0.00000000E+00  0.00000000E+00  0.00000000E+00
  0.00000000E+00  0.00000000E+00  0.00000000E+00
  0.00000000E+00  0.00000000E+00  0.00000000E+00
  0.00000000E+00  0.00000000E+00  0.00000000E+00
  0.00000000E+00  0.00000000E+00  0.00000000E+00
  0.00000000E+00  0.00000000E+00  0.00000000E+00
  0.00000000E+00  0.00000000E+00  0.00000000E+00
  0.00000000E+00  0.00000000E+00  0.00000000E+00
  0.00000000E+00  0.00000000E+00  0.00000000E+00
  0.00000000E+00  0.00000000E+00  0.00000000E+00
  0.00000000E+00  0.00000000E+00  0.00000000E+00
  0.00000000E+00  0.00000000E+00  0.00000000E+00
  0.00000000E+00  0.00000000E+00  0.00000000E+00
  0.00000000E+00  0.00000000E+00  0.00000000E+00
  0.00000000E+00  0.00000000E+00  0.00000000E+00
  0.00000000E+00  0.00000000E+00  0.00000000E+00
  0.00000000E+00  0.00000000E+00  0.00000000E+00
  0.00000000E+00  0.00000000E+00  0.00000000E+00
  0.00000000E+00  0.00000000E+00  0.00000000E+00
  0.00000000E+00  0.00000000E+00  0.00000000E+00
  0.00000000E+00  0.00000000E+00  0.00000000E+00
  0.00000000E+00  0.00000000E+00  0.00000000E+00
  0.00000000E+00  0.00000000E+00  0.00000000E+00
  0.00000000E+00  0.00000000E+00  0.00000000E+00
  0.00000000E+00  0.00000000E+00  0.00000000E+00
  0.00000000E+00  0.00000000E+00  0.00000000E+00
  0.00000000E+00  0.00000000E+00  0.00000000E+00
  0.00000000E+00  0.00000000E+00  0.00000000E+00
  0.00000000E+00  0.00000000E+00  0.00000000E+00
  0.00000000E+00  0.00000000E+00  0.00000000E+00
  0.00000000E+00  0.00000000E+00  0.00000000E+00
  0.00000000E+00  0.00000000E+00  0.00000000E+00
  0.00000000E+00  0.00000000E+00  0.00000000E+00
  0.00000000E+00  0.00000000E+00  0.00000000E+00
  0.00000000E+00  0.00000000E+00  0.00000000E+00
  0.00000000E+00  0.00000000E+00  0.00000000E+00
  0.00000000E+00  0.00000000E+00  0.00000000E+00
  0.00000000E+00  0.00000000E+00  0.00000000E+00
  0.00000000E+00  0.00000000E+00  0.00000000E+00
  0.00000000E+00  0.00000000E+00  0.00000000E+00
  0.00000000E+00  0.00000000E+00  0.00000000E+00
  0.00000000E+00  0.00000000E+00  0.00000000E+00
  0.00000000E+00  0.00000000E+00  0.00000000E+00
  0.00000000E+00  0.00000000E+00  0.00000000E+00
  0.00000000E+00  0.00000000E+00  0.00000000E+00
  0.00000000E+00  0.00000000E+00  0.00000000E+00
  0.00000000E+00  0.00000000E+00  0.00000000E+00
  0.00000000E+00  0.00000000E+00  0.00000000E+00
  0.00000000E+00  0.00000000E+00  0.00000000E+00
  0.00000000E+00  0.00000000E+00  0.00000000E+00
  0.00000000E+00  0.00000000E+00  0.00000000E+00
  0.00000000E+00  0.00000000E+00  0.00000000E+00
  0.00000000E+00  0.00000000E+00  0.00000000E+00
  0.00000000E+00  0.00000000E+00  0.00000000E+00
  0.00000000E+00  0.00000000E+00  0.00000000E+00
  0.00000000E+00  0.00000000E+00  0.00000000E+00
  0.00000000E+00  0.00000000E+00  0.00000000E+00
  0.00000000E+00  0.00000000E+00  0.00000000E+00
  0.00000000E+00  0.00000000E+00  0.00000000E+00
  0.00000000E+00  0.00000000E+00  0.00000000E+00
  0.00000000E+00  0.00000000E+00  0.00000000E+00
  0.00000000E+00  0.00000000E+00  0.00000000E+00
  0.00000000E+00  0.00000000E+00  0.00000000E+00
  0.00000000E+00  0.00000000E+00  0.00000000E+00
  0.00000000E+00  0.00000000E+00  0.00000000E+00
  0.00000000E+00  0.00000000E+00  0.00000000E+00
  0.00000000E+00  0.00000000E+00  0.00000000E+00
  0.00000000E+00  0.00000000E+00  0.00000000E+00
  0.00000000E+00  0.00000000E+00  0.00000000E+00
  0.00000000E+00  0.00000000E+00  0.00000000E+00
  0.00000000E+00  0.00000000E+00  0.00000000E+00
  0.00000000E+00  0.00000000E+00  0.00000000E+00
  0.00000000E+00  0.00000000E+00  0.00000000E+00
  0.00000000E+00  0.00000000E+00  0.00000000E+00
  0.00000000E+00  0.00000000E+00  0.00000000E+00
  0.00000000E+00  0.00000000E+00  0.00000000E+00
  0.00000000E+00  0.00000000E+00  0.00000000E+00
  0.00000000E+00  0.00000000E+00  0.00000000E+00
  0.00000000E+00  0.00000000E+00  0.00000000E+00
