B N O                                   
   1.0000000000000000     
     8.7639499999999995  -15.1796066749929999    0.0000000000000000
     8.7639499999999995   15.1796066749929999    0.0000000000000000
     0.0000000000000000    0.0000000000000000   15.0000000000000000
   B    N    O 
    47    49     1
Selective dynamics
Direct
  0.9050487780279397  0.9524913923140090  0.1030172949325987   T   T   T
  0.9038904081673635  0.0949396714236457  0.0989597584358535   T   T   T
  0.9037466049141756  0.2381687106681696  0.1001166730611232   T   T   T
  0.9043143936300666  0.3814739510875000  0.1056038413528171   T   T   T
  0.9050299142965699  0.5245632150747781  0.1116142463178278   T   T   T
  0.9066814896723443  0.6676710729032536  0.1140778992432914   T   T   T
  0.9066809868749601  0.8106326086608178  0.1097596618210233   T   T   T
  0.0477982048834704  0.9520635076476438  0.0989498683418830   T   T   T
  0.0461288598410334  0.0941391457769498  0.0932671253905539   T   T   T
  0.0455726320744887  0.2373193776179647  0.0927436135936901   T   T   T
  0.0462770201472580  0.3809177000753650  0.0986712211732481   T   T   T
  0.0475720138755236  0.5242184753153580  0.1053471982300138   T   T   T
  0.0489607562288441  0.6672584176042946  0.1076050832189566   T   T   T
  0.0490197490177380  0.8100050211346144  0.1051869645647585   T   T   T
  0.1910996812321457  0.9523270856011905  0.1011976402562453   T   T   T
  0.1887909045666092  0.0936958029696484  0.0947286278375259   T   T   T
  0.1869089357741345  0.2356347861952486  0.0901169033084770   T   T   T
  0.1874969730914273  0.3795937820549042  0.0928938031937108   T   T   T
  0.1896189341023415  0.5235077347011057  0.1037667897162251   T   T   T
  0.1916292693552251  0.6667768213315242  0.1080785842259857   T   T   T
  0.1918265264210390  0.8098054930445997  0.1061333880276081   T   T   T
  0.3341416586808208  0.9524663768733177  0.1061875367902232   T   T   T
  0.3328147397627461  0.0953072356595186  0.1045080482976459   T   T   T
  0.3292336334509756  0.2380958222684129  0.1058646324595856   T   T   T
  0.3282944771992362  0.3742383223763639  0.0974052017936486   T   T   T
  0.3312633065543693  0.5218277926590105  0.1045269335284900   T   T   T
  0.3340184817112402  0.6653081292734058  0.1165284094404058   T   T   T
  0.3344459846689745  0.8091840376188557  0.1113034185167550   T   T   T
  0.4768139233323652  0.9519460102250292  0.1100902631225935   T   T   T
  0.4760993542041447  0.0949740197143072  0.1087023057588112   T   T   T
  0.4728639519160467  0.2363005480358638  0.1155772418033649   T   T   T
  0.4753326734074861  0.6640935232374261  0.1327926263987678   T   T   T
  0.4768624149614737  0.8083055589466781  0.1182961074402726   T   T   T
  0.6192989424151278  0.9522490568562532  0.1117209291640222   T   T   T
  0.6190349481858561  0.0955034278752223  0.1084120355826386   T   T   T
  0.6185345973575735  0.2386428419076623  0.1137699286811511   T   T   T
  0.6195867216295809  0.3826225300619583  0.1282287150437753   T   T   T
  0.6247736062679294  0.5299244598252102  0.1496762369345603   T   T   T
  0.6248463216179729  0.6702259130149741  0.1383413449953608   T   T   T
  0.6199315340371427  0.8095924826704106  0.1219559430380599   T   T   T
  0.7620587267836285  0.9524743988063662  0.1089407349904690   T   T   T
  0.7615361339029292  0.0953526991874938  0.1050676805401878   T   T   T
  0.7614088518572970  0.2385480661293897  0.1073203187694034   T   T   T
  0.7620231799891499  0.3817394658139435  0.1156929780228992   T   T   T
  0.7625470494003466  0.5250197970893282  0.1255083359731728   T   T   T
  0.7664745198838219  0.6697372398577031  0.1270382492463540   T   T   T
  0.7639550634608483  0.8109612159541157  0.1172049423340908   T   T   T
  0.9527821812796589  0.9049106771223663  0.1031784431490905   T   T   T
  0.9512068804917675  0.0469829568844133  0.0974767987889749   T   T   T
  0.9506394083564942  0.1899890146789573  0.0963626462613050   T   T   T
  0.9512434060636252  0.3334993701890312  0.1008401567066457   T   T   T
  0.9522315748624806  0.4768151579163273  0.1070376676948683   T   T   T
  0.9535427302520176  0.6197847860650540  0.1106789275739217   T   T   T
  0.9537043047949183  0.7625267038765600  0.1092949613096224   T   T   T
  0.0957611280888671  0.9046673972488861  0.1010853259840800   T   T   T
  0.0936992925433131  0.0463226273387605  0.0937430775352510   T   T   T
  0.0920138407952891  0.1887514702631066  0.0900824042984070   T   T   T
  0.0925940883679388  0.3326157195240924  0.0935210836484828   T   T   T
  0.0944758512331703  0.4762729074072709  0.1022452057467760   T   T   T
  0.0962323758758004  0.6194626331721764  0.1066675062673283   T   T   T
  0.0965109344281103  0.7622827791541695  0.1060605063148614   T   T   T
  0.2389467230263165  0.9047090447298345  0.1044204327811045   T   T   T
  0.2375124123967183  0.0468928576164416  0.0992633381841230   T   T   T
  0.2337620136004688  0.1873718733713332  0.0932095633305821   T   T   T
  0.2321291409214936  0.3303217975797139  0.0892364251601023   T   T   T
  0.2357883244775110  0.4752665778211451  0.0995273407235899   T   T   T
  0.2389681847962990  0.6187904915588263  0.1092586676570306   T   T   T
  0.2393459644538893  0.7619152311386657  0.1086353421573136   T   T   T
  0.3817682827527094  0.9043557035270879  0.1090917481006883   T   T   T
  0.3809998420463430  0.0474673409499076  0.1061490349440106   T   T   T
  0.3783982373221235  0.1897050728825178  0.1093977254169687   T   T   T
  0.3678003811124384  0.3266005186872221  0.1132153897298025   T   T   T
  0.3676333373846532  0.4682714314595202  0.0834873177687072   T   T   T
  0.3813411952003563  0.6164119893468012  0.1226168051597156   T   T   T
  0.3818447415696369  0.7607650011427296  0.1167275497717455   T   T   T
  0.5242221905400939  0.9036314716968619  0.1132750607013051   T   T   T
  0.5239939709401114  0.0472180479897730  0.1085889114348575   T   T   T
  0.5233329588424809  0.1899921771447026  0.1122362411342550   T   T   T
  0.5283091353011855  0.3279764392062177  0.1244899441436473   T   T   T
  0.5301991480195625  0.4894277711797841  0.1827277977174049   T   T   T
  0.5302643603666084  0.6223476200504479  0.1485353462942882   T   T   T
  0.5243756950701339  0.7596536270701648  0.1254354260998127   T   T   T
  0.6667911592023614  0.9042904667683302  0.1140968188694700   T   T   T
  0.6664701439256646  0.0474236131115759  0.1079671314029653   T   T   T
  0.6663484310144554  0.1908900827809745  0.1092381340669846   T   T   T
  0.6672182604627466  0.3343119473392093  0.1198565235623121   T   T   T
  0.6666835468283026  0.4785306390269355  0.1364302124045977   T   T   T
  0.6718381886489766  0.6230574924477565  0.1409859765422254   T   T   T
  0.6688744687452228  0.7633231155143676  0.1249967255663904   T   T   T
  0.8100230743416859  0.9051169362425000  0.1091240435971343   T   T   T
  0.8088575065799262  0.0473448421243461  0.1039059026918210   T   T   T
  0.8087190950700318  0.1905957887957186  0.1037113608203910   T   T   T
  0.8092214552456483  0.3339934987722160  0.1089820553784406   T   T   T
  0.8095957190670617  0.4773046290583238  0.1173421940372847   T   T   T
  0.8114458954740087  0.6203721625429708  0.1229950647679416   T   T   T
  0.8117910505681820  0.7635779182077940  0.1177657470183533   T   T   T
  0.4901525883255928  0.5331762799795996  0.1812405509949784   T   T   T

  0.00000000E+00  0.00000000E+00  0.00000000E+00
  0.00000000E+00  0.00000000E+00  0.00000000E+00
  0.00000000E+00  0.00000000E+00  0.00000000E+00
  0.00000000E+00  0.00000000E+00  0.00000000E+00
  0.00000000E+00  0.00000000E+00  0.00000000E+00
  0.00000000E+00  0.00000000E+00  0.00000000E+00
  0.00000000E+00  0.00000000E+00  0.00000000E+00
  0.00000000E+00  0.00000000E+00  0.00000000E+00
  0.00000000E+00  0.00000000E+00  0.00000000E+00
  0.00000000E+00  0.00000000E+00  0.00000000E+00
  0.00000000E+00  0.00000000E+00  0.00000000E+00
  0.00000000E+00  0.00000000E+00  0.00000000E+00
  0.00000000E+00  0.00000000E+00  0.00000000E+00
  0.00000000E+00  0.00000000E+00  0.00000000E+00
  0.00000000E+00  0.00000000E+00  0.00000000E+00
  0.00000000E+00  0.00000000E+00  0.00000000E+00
  0.00000000E+00  0.00000000E+00  0.00000000E+00
  0.00000000E+00  0.00000000E+00  0.00000000E+00
  0.00000000E+00  0.00000000E+00  0.00000000E+00
  0.00000000E+00  0.00000000E+00  0.00000000E+00
  0.00000000E+00  0.00000000E+00  0.00000000E+00
  0.00000000E+00  0.00000000E+00  0.00000000E+00
  0.00000000E+00  0.00000000E+00  0.00000000E+00
  0.00000000E+00  0.00000000E+00  0.00000000E+00
  0.00000000E+00  0.00000000E+00  0.00000000E+00
  0.00000000E+00  0.00000000E+00  0.00000000E+00
  0.00000000E+00  0.00000000E+00  0.00000000E+00
  0.00000000E+00  0.00000000E+00  0.00000000E+00
  0.00000000E+00  0.00000000E+00  0.00000000E+00
  0.00000000E+00  0.00000000E+00  0.00000000E+00
  0.00000000E+00  0.00000000E+00  0.00000000E+00
  0.00000000E+00  0.00000000E+00  0.00000000E+00
  0.00000000E+00  0.00000000E+00  0.00000000E+00
  0.00000000E+00  0.00000000E+00  0.00000000E+00
  0.00000000E+00  0.00000000E+00  0.00000000E+00
  0.00000000E+00  0.00000000E+00  0.00000000E+00
  0.00000000E+00  0.00000000E+00  0.00000000E+00
  0.00000000E+00  0.00000000E+00  0.00000000E+00
  0.00000000E+00  0.00000000E+00  0.00000000E+00
  0.00000000E+00  0.00000000E+00  0.00000000E+00
  0.00000000E+00  0.00000000E+00  0.00000000E+00
  0.00000000E+00  0.00000000E+00  0.00000000E+00
  0.00000000E+00  0.00000000E+00  0.00000000E+00
  0.00000000E+00  0.00000000E+00  0.00000000E+00
  0.00000000E+00  0.00000000E+00  0.00000000E+00
  0.00000000E+00  0.00000000E+00  0.00000000E+00
  0.00000000E+00  0.00000000E+00  0.00000000E+00
  0.00000000E+00  0.00000000E+00  0.00000000E+00
  0.00000000E+00  0.00000000E+00  0.00000000E+00
  0.00000000E+00  0.00000000E+00  0.00000000E+00
  0.00000000E+00  0.00000000E+00  0.00000000E+00
  0.00000000E+00  0.00000000E+00  0.00000000E+00
  0.00000000E+00  0.00000000E+00  0.00000000E+00
  0.00000000E+00  0.00000000E+00  0.00000000E+00
  0.00000000E+00  0.00000000E+00  0.00000000E+00
  0.00000000E+00  0.00000000E+00  0.00000000E+00
  0.00000000E+00  0.00000000E+00  0.00000000E+00
  0.00000000E+00  0.00000000E+00  0.00000000E+00
  0.00000000E+00  0.00000000E+00  0.00000000E+00
  0.00000000E+00  0.00000000E+00  0.00000000E+00
  0.00000000E+00  0.00000000E+00  0.00000000E+00
  0.00000000E+00  0.00000000E+00  0.00000000E+00
  0.00000000E+00  0.00000000E+00  0.00000000E+00
  0.00000000E+00  0.00000000E+00  0.00000000E+00
  0.00000000E+00  0.00000000E+00  0.00000000E+00
  0.00000000E+00  0.00000000E+00  0.00000000E+00
  0.00000000E+00  0.00000000E+00  0.00000000E+00
  0.00000000E+00  0.00000000E+00  0.00000000E+00
  0.00000000E+00  0.00000000E+00  0.00000000E+00
  0.00000000E+00  0.00000000E+00  0.00000000E+00
  0.00000000E+00  0.00000000E+00  0.00000000E+00
  0.00000000E+00  0.00000000E+00  0.00000000E+00
  0.00000000E+00  0.00000000E+00  0.00000000E+00
  0.00000000E+00  0.00000000E+00  0.00000000E+00
  0.00000000E+00  0.00000000E+00  0.00000000E+00
  0.00000000E+00  0.00000000E+00  0.00000000E+00
  0.00000000E+00  0.00000000E+00  0.00000000E+00
  0.00000000E+00  0.00000000E+00  0.00000000E+00
  0.00000000E+00  0.00000000E+00  0.00000000E+00
  0.00000000E+00  0.00000000E+00  0.00000000E+00
  0.00000000E+00  0.00000000E+00  0.00000000E+00
  0.00000000E+00  0.00000000E+00  0.00000000E+00
  0.00000000E+00  0.00000000E+00  0.00000000E+00
  0.00000000E+00  0.00000000E+00  0.00000000E+00
  0.00000000E+00  0.00000000E+00  0.00000000E+00
  0.00000000E+00  0.00000000E+00  0.00000000E+00
  0.00000000E+00  0.00000000E+00  0.00000000E+00
  0.00000000E+00  0.00000000E+00  0.00000000E+00
  0.00000000E+00  0.00000000E+00  0.00000000E+00
  0.00000000E+00  0.00000000E+00  0.00000000E+00
  0.00000000E+00  0.00000000E+00  0.00000000E+00
  0.00000000E+00  0.00000000E+00  0.00000000E+00
  0.00000000E+00  0.00000000E+00  0.00000000E+00
  0.00000000E+00  0.00000000E+00  0.00000000E+00
  0.00000000E+00  0.00000000E+00  0.00000000E+00
  0.00000000E+00  0.00000000E+00  0.00000000E+00
  0.00000000E+00  0.00000000E+00  0.00000000E+00
