 N B Ge 
 1.0
 17.527899999999772   0.000000000000000   0.000000000000000
 -8.763949999999658  15.179606674993195   0.000000000000000
  0.000000000000001   0.000000000000002  15.000000000000000
 N B Ge 
  48  48   1
Cartesian
  8.773965922770163  13.748367748292207   1.789564651682985 
 16.266738942093390   0.729618394330638   1.794491387983485 
 15.004845638610300   2.895867003692094   1.773766953853770 
 13.754385385123900   5.065384185060047   1.748538998187015 
 12.517772582833096   7.233397441832410   1.735643880915390 
 11.284102336541018   9.401645622996451   1.737427204922400 
 10.036036983874073  11.574733736166964   1.762755025104015 
 -6.247246057650548  13.728015789880967   1.777787691602145 
  1.245805006782024   0.709165682804050   1.789384323133575 
 -0.023396943004864   2.871987749863216   1.763576895270420 
 -1.271483213810576   5.051029763396745   1.699873746554790 
 -2.498147482074315   7.224342720909989   1.681190089275900 
 -3.735201023566912   9.392384909782672   1.709433691928070 
 -4.986772381934998  11.560298834903731   1.748150881232400 
 -3.739726759284328  13.720372988742527   1.748026616258115 
  3.759171251518744   0.702921312207560   1.762380970750425 
  2.478980205526605   2.846153452935615   1.727035641651795 
  1.209262520243731   5.006407422836926   1.629859590867600 
  0.010954965633062   7.208060171445471   1.550576452443525 
 -1.222388685306085   9.383854688303648   1.591588953293415 
 -2.479660227363950  11.552959669264409   1.682807369274345 
 -1.236386934548459  13.720574788736487   1.709083545336390 
  6.265185958110306   0.708711172792606   1.737052001357580 
  4.999191953544773   2.864280222388045   1.672954455833940 
  3.699644493271227   4.969835255125055   1.555821091945635 
  2.480736830630146   7.113798741880824   1.326099112056765 
  1.298917903049199   9.371434795983378   1.415658652395405 
  0.027460739989609  11.548687812858688   1.591537134510810 
  1.259764578689080  13.733308267897831   1.681132113912195 
  8.759823975430152   0.724572620734229   1.735380733161405 
  7.494734880154650   2.895462428043790   1.674359250056160 
  6.217285617228818   5.064625125799675   1.506671003065965 
  3.844915972468565   9.476482142150294   1.326223525672950 
  2.528453828623768  11.568446756856734   1.550875115379105 
  3.755214566166035  13.757567807971480   1.700127257897400 
 11.255751638788759   0.737707406665323   1.748611495773135 
  9.992634369234432   2.908144417089691   1.725668467966845 
  8.725178251097550   5.083673057742899   1.625380018045785 
  7.490720714877281   7.265166703181556   1.506472091514015 
  6.311102763125753   9.493012279967459   1.555631101017615 
  5.034214932160370  11.631429024832267   1.630003346878710 
  6.266244087397236  13.766179721456744   1.763782308200340 
 13.759778113785634   0.739500134454923   1.773867821516385 
 12.499142535951396   2.904994276767001   1.763823988724895 
 11.243067780751483   5.073986612519535   1.725711201713910 
 10.005065737224006   7.243437066097472   1.674390176328030 
  8.784251195238927   9.420226266490484   1.673116118128500 
  7.539859698639797  11.611964231906505   1.727431247844300 
  7.517825796258300  14.472181082421701   1.787134904952780 
 15.012489243188174   1.453838772948765   1.783771035014895 
 13.753994451794503   3.621723297046968   1.763110756744380 
 12.504268996038178   5.789724807071278   1.739050765337715 
 11.269229399211863   7.958395169213045   1.720057373335020 
 10.039805420264901  10.132143677399919   1.729130264134650 
  8.789952643919436  12.312523111223705   1.764564664577325 
 -7.501907960829480  14.452473610813767   1.788925592270730 
 -0.009100590830955   1.435039484246283   1.787002558874895 
 -1.269566015320769   3.608695194536538   1.748672827803645 
 -2.515773102552110   5.780895038800754   1.711016017839150 
 -3.747333743087914   7.948549217156344   1.711862714106030 
 -4.986836496341963  10.119737783328796   1.736062934446320 
 -6.237921733130101  12.286410677440198   1.766483647571760 
 -4.994180615674775  14.440704132247877   1.766325695176245 
  2.497220102699310   1.413235549821701   1.764169435239690 
  1.225687688086169   3.575302176365712   1.713652382265570 
 -0.018218072667513   5.764068764758957   1.623221253371325 
 -1.234350826799491   7.937663146097290   1.607054065959015 
 -2.474627473772423  10.107304260410420   1.662538919133690 
 -3.731883295563553  12.275797959293172   1.729511031602595 
 -2.488767156643738  14.440763148625702   1.735726033731420 
  5.010321433052551   1.420910636244593   1.728836714078355 
  3.726728357854726   3.543706759748587   1.660606726474140 
  2.444638945569503   5.710488524691569   1.502340308622390 
  1.287788146640602   7.911467133121100   1.419086507598555 
  0.043287688100625  10.096361894263433   1.529327039020995 
 -1.225158470903438  12.271442224950604   1.662364731896820 
  0.007938939011927  14.452994601171198   1.711658225775825 
  7.507681644051056   1.443264356510378   1.719805056678525 
  6.239058150443565   3.604491939707438   1.619574213998490 
  4.919139734819955   5.664447405527818   1.430475409364970 
  2.557655020847276  10.110930244394476   1.419336668316330 
  1.273930785354467  12.282111509092331   1.607121284341050 
  2.501013368000727  14.470318429185182   1.711147856743695 
 10.003366652065186   1.458077412396884   1.738978843270455 
  8.739725398701349   3.630124687455087   1.673943329989620 
  7.471086611663869   5.807723690139125   1.534060966273785 
  6.319241766515672   8.089559406749157   1.430247589860315 
  5.042156539421631  10.209443654432466   1.502362494827445 
  3.764393292970635  12.315690742216173   1.623512996100690 
  5.005190151847327  14.477152171927830   1.748895101493570 
 12.505786945637356   1.459954806731966   1.763156382210315 
 11.246827087166441   3.627938465903714   1.738725066146040 
  9.991232580128191   5.797886817851333   1.673901574499355 
  8.763127985706447   7.976363453989357   1.619553646594005 
  7.559684000976047  10.182546361990630   1.660682484248250 
  6.281707720343169  12.332792755613779   1.713888030939315 
  4.251651430300551   7.666435172013326   0.915323260638525 
