Species order: X N B                    
   2.51242800000000     
     5.9449720136058266    0.0000000000000000    0.0000000000000000
    -2.9724860068029120    5.1484967885702053   -0.0000000000000001
     0.0000000000000000    0.0000000000000009    5.3101128803662583
   S    N    B 
     1   143   143
Direct
  0.5292097220455790  0.4312715276894538  0.3750000000000000
  0.1110963080232874  0.0555442008054429  0.1250303334709505
  0.6110847458077415  0.5555576714838391  0.1245697315222253
  0.4444546796036988  0.0555541469847359  0.1250558489234644
  0.9444274665933089  0.5555492419163235  0.1250733540314098
  0.7777824726428763  0.0555579029881060  0.1250090039956851
  0.1111055034999367  0.7222194184166330  0.6249655764844582
  0.4444546796036988  0.7222338659522987  0.6249441510765367
  0.2777425818341239  0.2222068681227974  0.6250925313773669
  0.7777554693669718  0.7222101450522526  0.6249057282321341
  0.6111098302554202  0.2222043182793470  0.6249808911354640
  0.9444332595167491  0.2222195069391776  0.6249885022102974
  0.2777833942282120  0.7222262628876644  0.1250258006769944
  0.1110825410829374  0.2222079372081329  0.1250259653954717
  0.4444516350234508  0.2222194131615481  0.1248867791029562
  0.6111098302554202  0.7222388453094027  0.1250191088645354
  0.9444274665933089  0.7222115580103206  0.1250733540314098
  0.7777779016078321  0.2222176553394558  0.1250309952853733
  0.1111054157448689  0.8888833071978669  0.6249819649715559
  0.4444555842279210  0.8888944587806255  0.6249713793977312
  0.2777425818341239  0.3888690470446546  0.6250925313773669
  0.6110847458077415  0.3888604076572301  0.6254302684777739
  0.7777779016078321  0.8888935796017048  0.6249690047146270
  0.9444334046928026  0.3888881684095052  0.6249600586836243
  0.1110963080232874  0.3888854405511730  0.1250303334709505
  0.2777833942282120  0.8888904646738761  0.1250258006769944
  0.6111212537096004  0.8889036903532320  0.1250229202733614
  0.4443612489228380  0.3888472911280836  0.1233197066605848
  0.9444334046928026  0.8888785696166261  0.1250399413163761
  0.7777554693669718  0.3888786576480476  0.1250942717678651
  0.2777799417591018  0.5555571909437914  0.6249697190498875
  0.1110963080232874  0.0555442008054429  0.6249696665290484
  0.6110847458077415  0.5555576714838391  0.6254302684777739
  0.4444546796036988  0.0555541469847359  0.6249441510765367
  0.9444274665933089  0.5555492419163235  0.6249266459685906
  0.1111054157448689  0.5555554418803309  0.1250180350284441
  0.7777824726428763  0.0555579029881060  0.6249909960043148
  0.2777799417591018  0.0555560841486455  0.1250302809501123
  0.4444516350234508  0.5555655551952379  0.1248867791029562
  0.7777433043970867  0.5555383188652117  0.1250998143391814
  0.6111212537096004  0.0555508966896970  0.1250229202733614
  0.4444516350234508  0.5555655551952379  0.6251132208970438
  0.9444332595167491  0.0555470859109058  0.1250114977897028
  0.2777833942282120  0.7222262628876644  0.6249741993230059
  0.1110825410829374  0.2222079372081329  0.6249740346045288
  0.4444516350234508  0.2222194131615481  0.6251132208970438
  0.6111098302554202  0.7222388453094027  0.6249808911354640
  0.9444274665933089  0.7222115580103206  0.6249266459685906
  0.7777779016078321  0.2222176553394558  0.6249690047146270
  0.1111055034999367  0.7222194184166330  0.1250344235155413
  0.4444546796036988  0.7222338659522987  0.1250558489234644
  0.2777425818341239  0.2222068681227974  0.1249074686226333
  0.7777554693669718  0.7222101450522526  0.1250942717678651
  0.6111098302554202  0.2222043182793470  0.1250191088645354
  0.9444332595167491  0.2222195069391776  0.1250114977897028
  0.1110963080232874  0.3888854405511730  0.6249696665290484
  0.2777833942282120  0.8888904646738761  0.6249741993230059
  0.6111212537096004  0.8889036903532320  0.6249770797266387
  0.4443612489228380  0.3888472911280836  0.6266802933394150
  0.9444334046928026  0.8888785696166261  0.6249600586836243
  0.1111054157448689  0.8888833071978669  0.1250180350284441
  0.7777554693669718  0.3888786576480476  0.6249057282321341
  0.4444555842279210  0.8888944587806255  0.1250286206022692
  0.2777425818341239  0.3888690470446546  0.1249074686226333
  0.2777799417591018  0.5555571909437914  0.1250302809501123
  0.6110847458077415  0.3888604076572301  0.1245697315222253
  0.7777779016078321  0.8888935796017048  0.1250309952853733
  0.9444334046928026  0.3888881684095052  0.1250399413163761
  0.1111054157448689  0.5555554418803309  0.6249819649715559
  0.2777799417591018  0.0555560841486455  0.6249697190498875
  0.7777433043970867  0.5555383188652117  0.6249001856608193
  0.6111212537096004  0.0555508966896970  0.6249770797266387
  0.9444332595167491  0.0555470859109058  0.6249885022102974
  0.0567656634130047  0.1117012390236351  0.3750000000000000
  0.5570036650199143  0.6184677112427470  0.3750000000000000
  0.3885017780711073  0.1071099241609650  0.3750000000000000
  0.8877641547896170  0.6105487440614801  0.3750000000000000
  0.7236020075896065  0.1111593079715996  0.3750000000000000
  0.0555482973341726  0.7777743398152014  0.8750000000000000
  0.3888820614704417  0.7777758342223688  0.8750000000000000
  0.2222151369294272  0.2777742351313812  0.8750000000000000
  0.7222167665242399  0.7777731715564288  0.8750000000000000
  0.5555484269517929  0.2777745534252126  0.8750000000000000
  0.8888855627597096  0.2777778787830060  0.8750000000000000
  0.2214199834263875  0.7773766583798623  0.3750000000000000
  0.0567656634130047  0.2783977577227053  0.3750000000000000
  0.3847756823177628  0.2642611194809147  0.3750000000000000
  0.5561820370522186  0.7809863587210496  0.3750000000000000
  0.8893546621713048  0.7784422533065976  0.3750000000000000
  0.7237699503913448  0.2768169653086343  0.3750000000000000
  0.0555484042156496  0.9444396714554854  0.8750000000000000
  0.3888820614704417  0.9444395605814083  0.8750000000000000
  0.2222142353993649  0.4444430626044490  0.8750000000000000
  0.5555531556581497  0.4444432444957391  0.8750000000000000
  0.7222155660932985  0.9444405773849955  0.8750000000000000
  0.8888852956379341  0.4444432304721271  0.8750000000000000
  0.0557739879685026  0.4448466905395004  0.3750000000000000
  0.2215671765451126  0.9431629872795524  0.3750000000000000
  0.5560846878558178  0.9447090105945727  0.3750000000000000
  0.3847756823177630  0.4538478961701838  0.3750000000000000
  0.8902820382651722  0.9456041832480901  0.3750000000000000
  0.7227628660936808  0.4432565478935857  0.3750000000000000
  0.2222127169020114  0.6111079769345310  0.8750000000000000
  0.0555497744889375  0.1111063598003509  0.8750000000000000
  0.5555484269517929  0.6111072068599157  0.8750000000000000
  0.3888815974516787  0.1111046719744833  0.8750000000000000
  0.8888856012015437  0.6111094672674431  0.8750000000000000
  0.0547867994677612  0.6109464800271788  0.3750000000000000
  0.7222155660932985  0.1111083220416375  0.8750000000000000
  0.2219737630494943  0.1096518746972502  0.3750000000000000
  0.3885017780711074  0.6147251872434856  0.3750000000000000
  0.7227628660936808  0.6128396515334308  0.3750000000000000
  0.5561820370522186  0.1085290116645035  0.3750000000000000
  0.3888815974516787  0.6111102588105389  0.8750000000000000
  0.8904244979945027  0.1118789156639226  0.3750000000000000
  0.2222137245572058  0.7777735289452697  0.8750000000000000
  0.0555497744889375  0.2777767480219222  0.8750000000000000
  0.3888813042137360  0.2777694406230504  0.8750000000000000
  0.5555478970277937  0.7777745455835187  0.8750000000000000
  0.8888852956379341  0.7777753984991426  0.8750000000000000
  0.7222167665242399  0.2777769283011477  0.8750000000000000
  0.0547867994677612  0.7771736527739181  0.3750000000000000
  0.3884931503657751  0.7787446418803059  0.3750000000000000
  0.2232426629327332  0.2782879981330350  0.3750000000000000
  0.7237699503913448  0.7802863184160472  0.3750000000000000
  0.5570036650199143  0.2718692871105026  0.3750000000000000
  0.8902820382651722  0.2780111883504183  0.3750000000000000
  0.0555484042156496  0.4444420660934922  0.8750000000000000
  0.2222127169020114  0.9444380733008161  0.8750000000000000
  0.5555470461649563  0.9444401897491425  0.8750000000000000
  0.3888813042137360  0.4444451969240206  0.8750000000000000
  0.8888855627597096  0.9444410173100394  0.8750000000000000
  0.0557739879685026  0.9442606307623309  0.3750000000000000
  0.7222180756128164  0.4444438519974117  0.8750000000000000
  0.3884931503657751  0.9430818418188041  0.3750000000000000
  0.2219737630494943  0.4456552216855796  0.3750000000000000
  0.2215671765451129  0.6117375225988951  0.3750000000000000
  0.7236020075896065  0.9457760329513426  0.3750000000000000
  0.8893546621713048  0.4442457421980426  0.3750000000000000
  0.0555482973341726  0.6111072908523071  0.8750000000000000
  0.2222142353993649  0.1111045061282521  0.8750000000000000
  0.7222180756128164  0.6111075569487404  0.8750000000000000
  0.5555478970277937  0.1111066847776103  0.8750000000000000
  0.8888855343937114  0.1111094338635265  0.8750000000000000
  0.1113870426066918  0.0552431464131444  0.3750000000000000
  0.6133238506419367  0.5658228185629016  0.3750000000000000
  0.4448653269376828  0.0532300412112612  0.3750000000000000
  0.9439013886268608  0.5553103140652185  0.3750000000000000
  0.7795091395586153  0.0564212364459755  0.3750000000000000
  0.1111069230727786  0.7222201282030537  0.8750000000000000
  0.4444303768100037  0.7222050547118959  0.8750000000000000
  0.2777902078208348  0.2222353278377127  0.8750000000000000
  0.7777656255591996  0.7222105325057975  0.8750000000000000
  0.6110910855442259  0.2222252217606832  0.8750000000000000
  0.9444525108463726  0.2222257185740333  0.8750000000000000
  0.2773348118028835  0.7225635818276254  0.3750000000000000
  0.1123486466642342  0.2228409899987815  0.3750000000000000
  0.4458548955430675  0.2175768015463564  0.3750000000000000
  0.6129681821675820  0.7278975156883081  0.3750000000000000
  0.9439013886268608  0.7219244078949768  0.3750000000000000
  0.7795490432798972  0.2219533794889641  0.3750000000000000
  0.1111101300039805  0.8888935487712262  0.8750000000000000
  0.4444325661361546  0.8888829497347415  0.8750000000000000
  0.2777902078208348  0.3888882133164504  0.8750000000000000
  0.6110801018308354  0.3888873724832412  0.8750000000000000
  0.7777726877866464  0.8888829674750379  0.8750000000000000
  0.9444460412483860  0.3888879839746845  0.8750000000000000
  0.1113870426066918  0.3894772295268760  0.3750000000000000
  0.2773348118028835  0.8881045633085862  0.3750000000000000
  0.6124808888344999  0.8909728285067549  0.3750000000000000
  0.9451124397586237  0.8895053914660772  0.3750000000000000
  0.7788937928820527  0.3879001579602929  0.3750000000000000
  0.2777750122681394  0.5555436080479752  0.8750000000000000
  0.1111210408711210  0.0555652721865903  0.8750000000000000
  0.6110801018308354  0.5555260626809236  0.8750000000000000
  0.4444303768100037  0.0555586554314425  0.8750000000000000
  0.9444406790338012  0.5555529546857302  0.8750000000000000
  0.1106947859236231  0.5558141207469098  0.3750000000000000
  0.7777761184967605  0.0555547259150483  0.8750000000000000
  0.2774411029834663  0.0539410869201812  0.3750000000000000
  0.4458548955430675  0.5616114273300461  0.3750000000000000
  0.7767641815225111  0.5550487574279235  0.3750000000000000
  0.6124808888344999  0.0548413936610733  0.3750000000000000
  0.4444246108376140  0.5555262515297171  0.8750000000000000
  0.9459727246370012  0.0565330153744044  0.3750000000000000
  0.2777700788791040  0.7222135975210233  0.8750000000000000
  0.1111267116959099  0.2222300225146195  0.8750000000000000
  0.4444246108376140  0.2222316926412319  0.8750000000000000
  0.6110910855442259  0.7221991971168710  0.8750000000000000
  0.9444406790338012  0.7222210576814065  0.8750000000000000
  0.7777726877866464  0.2222230536449374  0.8750000000000000
  0.1104435943178435  0.7218884638255866  0.3750000000000000
  0.4448653269376828  0.7249686190597582  0.3750000000000000
  0.2773387352971057  0.2215260967331069  0.3750000000000000
  0.7788937928820527  0.7243269682550888  0.3750000000000000
  0.6129681821675818  0.2184039998126016  0.3750000000000000
  0.9459727246370012  0.2227730425959321  0.3750000000000000
  0.1111210408711210  0.3888891020178593  0.8750000000000000
  0.2777700788791040  0.8888898146914095  0.8750000000000000
  0.6110989036659327  0.8888786253348194  0.8750000000000000
  0.4444291829455120  0.3888812581394201  0.8750000000000000
  0.9444460412483860  0.8888913906070304  0.8750000000000000
  0.1106947859236231  0.8882139985100420  0.3750000000000000
  0.7777656255591996  0.3888884263867290  0.8750000000000000
  0.4448098803118845  0.8890716068226072  0.3750000000000000
  0.2773387352971057  0.3891459718973272  0.3750000000000000
  0.2774411029834663  0.5568333493966208  0.3750000000000000
  0.6133238506419367  0.3808343654123645  0.3750000000000000
  0.7795490432798972  0.8909289971242612  0.3750000000000000
  0.9451124397586237  0.3889403816258755  0.3750000000000000
  0.1111101300039805  0.5555499145660837  0.8750000000000000
  0.2777750122681394  0.0555647375534998  0.8750000000000000
  0.7777615232385121  0.5555474282859244  0.8750000000000000
  0.6110989036659327  0.0555536116644420  0.8750000000000000
  0.9444525108463726  0.0555601256056742  0.8750000000000000
  0.0555717711547662  0.1111275102551219  0.1250031266317596
  0.5554837791863722  0.6110562781421957  0.1247463946514456
  0.3889038548300970  0.1111713137677619  0.1250257799286977
  0.8888577293342997  0.6110955313338210  0.1250134312172849
  0.7222236895994169  0.1111036004626110  0.1249905879603459
  0.0555640946266426  0.7777896561653741  0.6250003574324247
  0.3888992632576414  0.7777732632407347  0.6249981074901002
  0.2222646701314807  0.2777990017324081  0.6250159628180292
  0.7221946304455450  0.7777805530362778  0.6250230040011304
  0.5554837791863722  0.2777608343775123  0.6252536053485548
  0.8888922247489054  0.2777692231245174  0.6250056590099404
  0.2222380979270263  0.7777857156301820  0.1249984606784752
  0.0555717711547662  0.2777775942329796  0.1250031266317596
  0.3888997984303628  0.2778819641982006  0.1247869222988007
  0.5555467882457943  0.7777797463139904  0.1249940786287081
  0.8888744842631485  0.7777794574247597  0.1250040172760335
  0.7221946304455450  0.2777474107426028  0.1249769959988704
  0.0555707640287784  0.9444686464487191  0.6250015148346764
  0.3888992632576414  0.9444593333502421  0.6249981074901002
  0.2222594242479020  0.4444129027297060  0.6249644084071960
  0.5553285488558183  0.4443309410945734  0.6254792541614090
  0.7222236895994169  0.9444534224701420  0.6250094120396540
  0.8888744842631485  0.4444283601717257  0.6249959827239665
  0.0555707640287784  0.4444354509133883  0.1249984851653237
  0.2222453420958336  0.9444842314545495  0.1250035006640526
  0.5555597781810995  0.9444465557572141  0.1249931809884362
  0.3888997984303628  0.4443511675654979  0.1247869222988007
  0.8888922247489054  0.9444563349577245  0.1249943409900594
  0.7221150325741899  0.4443888771106363  0.1248163519751174
  0.2222453420958336  0.6110944439746206  0.6249964993359471
  0.0555717711547662  0.1111275102551219  0.6249968733682409
  0.5554837791863722  0.6110562781421957  0.6252536053485548
  0.3889038548300970  0.1111713137677619  0.6249742200713021
  0.8888577293342997  0.6110955313338210  0.6249865687827149
  0.0555640946266426  0.6111077717946054  0.1249996425675756
  0.7222236895994169  0.1111036004626110  0.6250094120396540
  0.2222594242479020  0.1111798548515313  0.1250355915928046
  0.3889038548300970  0.6110658743956771  0.1250257799286977
  0.7221150325741899  0.6110594887968895  0.1248163519751174
  0.5555467882457943  0.1111003752651396  0.1249940786287081
  0.3889038548300970  0.6110658743956771  0.6249742200713021
  0.8888973368196463  0.1111153350764945  0.1249937649906626
  0.2222380979270263  0.7777857156301820  0.6250015393215242
  0.0555717711547662  0.2777775942329796  0.6249968733682409
  0.3888997984303628  0.2778819641982007  0.6252130777011998
  0.5555467882457943  0.7777797463139904  0.6250059213712923
  0.8888744842631485  0.7777794574247597  0.6249959827239665
  0.7221946304455450  0.2777474107426028  0.6250230040011304
  0.0555640946266426  0.7777896561653741  0.1249996425675756
  0.3888992632576414  0.7777732632407347  0.1250018925099005
  0.2222646701314807  0.2777990017324081  0.1249840371819712
  0.7221946304455450  0.7777805530362778  0.1249769959988704
  0.5554837791863722  0.2777608343775123  0.1247463946514456
  0.8888922247489054  0.2777692231245174  0.1249943409900594
  0.0555707640287784  0.4444354509133883  0.6250015148346764
  0.2222453420958336  0.9444842314545495  0.6249964993359471
  0.5555597781810995  0.9444465557572141  0.6250068190115643
  0.3888997984303628  0.4443511675654979  0.6252130777011998
  0.8888922247489054  0.9444563349577245  0.6250056590099404
  0.0555707640287784  0.9444686464487191  0.1249984851653237
  0.7221150325741899  0.4443888771106363  0.6251836480248828
  0.3888992632576414  0.9444593333502421  0.1250018925099005
  0.2222594242479020  0.4444129027297060  0.1250355915928046
  0.2222453420958336  0.6110944439746206  0.1250035006640526
  0.5553285488558183  0.4443309410945734  0.1245207458385912
  0.7222236895994169  0.9444534224701420  0.1249905879603459
  0.8888744842631485  0.4444283601717257  0.1250040172760335
  0.0555640946266426  0.6111077717946054  0.6250003574324247
  0.2222594242479020  0.1111798548515313  0.6249644084071960
  0.7221150325741899  0.6110594887968895  0.6251836480248828
  0.5555467882457943  0.1111003752651396  0.6250059213712923
  0.8888973368196463  0.1111153350764945  0.6250062350093373
 
  0.00000000E+00  0.00000000E+00  0.00000000E+00
  0.00000000E+00  0.00000000E+00  0.00000000E+00
  0.00000000E+00  0.00000000E+00  0.00000000E+00
  0.00000000E+00  0.00000000E+00  0.00000000E+00
  0.00000000E+00  0.00000000E+00  0.00000000E+00
  0.00000000E+00  0.00000000E+00  0.00000000E+00
  0.00000000E+00  0.00000000E+00  0.00000000E+00
  0.00000000E+00  0.00000000E+00  0.00000000E+00
  0.00000000E+00  0.00000000E+00  0.00000000E+00
  0.00000000E+00  0.00000000E+00  0.00000000E+00
  0.00000000E+00  0.00000000E+00  0.00000000E+00
  0.00000000E+00  0.00000000E+00  0.00000000E+00
  0.00000000E+00  0.00000000E+00  0.00000000E+00
  0.00000000E+00  0.00000000E+00  0.00000000E+00
  0.00000000E+00  0.00000000E+00  0.00000000E+00
  0.00000000E+00  0.00000000E+00  0.00000000E+00
  0.00000000E+00  0.00000000E+00  0.00000000E+00
  0.00000000E+00  0.00000000E+00  0.00000000E+00
  0.00000000E+00  0.00000000E+00  0.00000000E+00
  0.00000000E+00  0.00000000E+00  0.00000000E+00
  0.00000000E+00  0.00000000E+00  0.00000000E+00
  0.00000000E+00  0.00000000E+00  0.00000000E+00
  0.00000000E+00  0.00000000E+00  0.00000000E+00
  0.00000000E+00  0.00000000E+00  0.00000000E+00
  0.00000000E+00  0.00000000E+00  0.00000000E+00
  0.00000000E+00  0.00000000E+00  0.00000000E+00
  0.00000000E+00  0.00000000E+00  0.00000000E+00
  0.00000000E+00  0.00000000E+00  0.00000000E+00
  0.00000000E+00  0.00000000E+00  0.00000000E+00
  0.00000000E+00  0.00000000E+00  0.00000000E+00
  0.00000000E+00  0.00000000E+00  0.00000000E+00
  0.00000000E+00  0.00000000E+00  0.00000000E+00
  0.00000000E+00  0.00000000E+00  0.00000000E+00
  0.00000000E+00  0.00000000E+00  0.00000000E+00
  0.00000000E+00  0.00000000E+00  0.00000000E+00
  0.00000000E+00  0.00000000E+00  0.00000000E+00
  0.00000000E+00  0.00000000E+00  0.00000000E+00
  0.00000000E+00  0.00000000E+00  0.00000000E+00
  0.00000000E+00  0.00000000E+00  0.00000000E+00
  0.00000000E+00  0.00000000E+00  0.00000000E+00
  0.00000000E+00  0.00000000E+00  0.00000000E+00
  0.00000000E+00  0.00000000E+00  0.00000000E+00
  0.00000000E+00  0.00000000E+00  0.00000000E+00
  0.00000000E+00  0.00000000E+00  0.00000000E+00
  0.00000000E+00  0.00000000E+00  0.00000000E+00
  0.00000000E+00  0.00000000E+00  0.00000000E+00
  0.00000000E+00  0.00000000E+00  0.00000000E+00
  0.00000000E+00  0.00000000E+00  0.00000000E+00
  0.00000000E+00  0.00000000E+00  0.00000000E+00
  0.00000000E+00  0.00000000E+00  0.00000000E+00
  0.00000000E+00  0.00000000E+00  0.00000000E+00
  0.00000000E+00  0.00000000E+00  0.00000000E+00
  0.00000000E+00  0.00000000E+00  0.00000000E+00
  0.00000000E+00  0.00000000E+00  0.00000000E+00
  0.00000000E+00  0.00000000E+00  0.00000000E+00
  0.00000000E+00  0.00000000E+00  0.00000000E+00
  0.00000000E+00  0.00000000E+00  0.00000000E+00
  0.00000000E+00  0.00000000E+00  0.00000000E+00
  0.00000000E+00  0.00000000E+00  0.00000000E+00
  0.00000000E+00  0.00000000E+00  0.00000000E+00
  0.00000000E+00  0.00000000E+00  0.00000000E+00
  0.00000000E+00  0.00000000E+00  0.00000000E+00
  0.00000000E+00  0.00000000E+00  0.00000000E+00
  0.00000000E+00  0.00000000E+00  0.00000000E+00
  0.00000000E+00  0.00000000E+00  0.00000000E+00
  0.00000000E+00  0.00000000E+00  0.00000000E+00
  0.00000000E+00  0.00000000E+00  0.00000000E+00
  0.00000000E+00  0.00000000E+00  0.00000000E+00
  0.00000000E+00  0.00000000E+00  0.00000000E+00
  0.00000000E+00  0.00000000E+00  0.00000000E+00
  0.00000000E+00  0.00000000E+00  0.00000000E+00
  0.00000000E+00  0.00000000E+00  0.00000000E+00
  0.00000000E+00  0.00000000E+00  0.00000000E+00
  0.00000000E+00  0.00000000E+00  0.00000000E+00
  0.00000000E+00  0.00000000E+00  0.00000000E+00
  0.00000000E+00  0.00000000E+00  0.00000000E+00
  0.00000000E+00  0.00000000E+00  0.00000000E+00
  0.00000000E+00  0.00000000E+00  0.00000000E+00
  0.00000000E+00  0.00000000E+00  0.00000000E+00
  0.00000000E+00  0.00000000E+00  0.00000000E+00
  0.00000000E+00  0.00000000E+00  0.00000000E+00
  0.00000000E+00  0.00000000E+00  0.00000000E+00
  0.00000000E+00  0.00000000E+00  0.00000000E+00
  0.00000000E+00  0.00000000E+00  0.00000000E+00
  0.00000000E+00  0.00000000E+00  0.00000000E+00
  0.00000000E+00  0.00000000E+00  0.00000000E+00
  0.00000000E+00  0.00000000E+00  0.00000000E+00
  0.00000000E+00  0.00000000E+00  0.00000000E+00
  0.00000000E+00  0.00000000E+00  0.00000000E+00
  0.00000000E+00  0.00000000E+00  0.00000000E+00
  0.00000000E+00  0.00000000E+00  0.00000000E+00
  0.00000000E+00  0.00000000E+00  0.00000000E+00
  0.00000000E+00  0.00000000E+00  0.00000000E+00
  0.00000000E+00  0.00000000E+00  0.00000000E+00
  0.00000000E+00  0.00000000E+00  0.00000000E+00
  0.00000000E+00  0.00000000E+00  0.00000000E+00
  0.00000000E+00  0.00000000E+00  0.00000000E+00
  0.00000000E+00  0.00000000E+00  0.00000000E+00
  0.00000000E+00  0.00000000E+00  0.00000000E+00
  0.00000000E+00  0.00000000E+00  0.00000000E+00
  0.00000000E+00  0.00000000E+00  0.00000000E+00
  0.00000000E+00  0.00000000E+00  0.00000000E+00
  0.00000000E+00  0.00000000E+00  0.00000000E+00
  0.00000000E+00  0.00000000E+00  0.00000000E+00
  0.00000000E+00  0.00000000E+00  0.00000000E+00
  0.00000000E+00  0.00000000E+00  0.00000000E+00
  0.00000000E+00  0.00000000E+00  0.00000000E+00
  0.00000000E+00  0.00000000E+00  0.00000000E+00
  0.00000000E+00  0.00000000E+00  0.00000000E+00
  0.00000000E+00  0.00000000E+00  0.00000000E+00
  0.00000000E+00  0.00000000E+00  0.00000000E+00
  0.00000000E+00  0.00000000E+00  0.00000000E+00
  0.00000000E+00  0.00000000E+00  0.00000000E+00
  0.00000000E+00  0.00000000E+00  0.00000000E+00
  0.00000000E+00  0.00000000E+00  0.00000000E+00
  0.00000000E+00  0.00000000E+00  0.00000000E+00
  0.00000000E+00  0.00000000E+00  0.00000000E+00
  0.00000000E+00  0.00000000E+00  0.00000000E+00
  0.00000000E+00  0.00000000E+00  0.00000000E+00
  0.00000000E+00  0.00000000E+00  0.00000000E+00
  0.00000000E+00  0.00000000E+00  0.00000000E+00
  0.00000000E+00  0.00000000E+00  0.00000000E+00
  0.00000000E+00  0.00000000E+00  0.00000000E+00
  0.00000000E+00  0.00000000E+00  0.00000000E+00
  0.00000000E+00  0.00000000E+00  0.00000000E+00
  0.00000000E+00  0.00000000E+00  0.00000000E+00
  0.00000000E+00  0.00000000E+00  0.00000000E+00
  0.00000000E+00  0.00000000E+00  0.00000000E+00
  0.00000000E+00  0.00000000E+00  0.00000000E+00
  0.00000000E+00  0.00000000E+00  0.00000000E+00
  0.00000000E+00  0.00000000E+00  0.00000000E+00
  0.00000000E+00  0.00000000E+00  0.00000000E+00
  0.00000000E+00  0.00000000E+00  0.00000000E+00
  0.00000000E+00  0.00000000E+00  0.00000000E+00
  0.00000000E+00  0.00000000E+00  0.00000000E+00
  0.00000000E+00  0.00000000E+00  0.00000000E+00
  0.00000000E+00  0.00000000E+00  0.00000000E+00
  0.00000000E+00  0.00000000E+00  0.00000000E+00
  0.00000000E+00  0.00000000E+00  0.00000000E+00
  0.00000000E+00  0.00000000E+00  0.00000000E+00
  0.00000000E+00  0.00000000E+00  0.00000000E+00
  0.00000000E+00  0.00000000E+00  0.00000000E+00
  0.00000000E+00  0.00000000E+00  0.00000000E+00
  0.00000000E+00  0.00000000E+00  0.00000000E+00
  0.00000000E+00  0.00000000E+00  0.00000000E+00
  0.00000000E+00  0.00000000E+00  0.00000000E+00
  0.00000000E+00  0.00000000E+00  0.00000000E+00
  0.00000000E+00  0.00000000E+00  0.00000000E+00
  0.00000000E+00  0.00000000E+00  0.00000000E+00
  0.00000000E+00  0.00000000E+00  0.00000000E+00
  0.00000000E+00  0.00000000E+00  0.00000000E+00
  0.00000000E+00  0.00000000E+00  0.00000000E+00
  0.00000000E+00  0.00000000E+00  0.00000000E+00
  0.00000000E+00  0.00000000E+00  0.00000000E+00
  0.00000000E+00  0.00000000E+00  0.00000000E+00
  0.00000000E+00  0.00000000E+00  0.00000000E+00
  0.00000000E+00  0.00000000E+00  0.00000000E+00
  0.00000000E+00  0.00000000E+00  0.00000000E+00
  0.00000000E+00  0.00000000E+00  0.00000000E+00
  0.00000000E+00  0.00000000E+00  0.00000000E+00
  0.00000000E+00  0.00000000E+00  0.00000000E+00
  0.00000000E+00  0.00000000E+00  0.00000000E+00
  0.00000000E+00  0.00000000E+00  0.00000000E+00
  0.00000000E+00  0.00000000E+00  0.00000000E+00
  0.00000000E+00  0.00000000E+00  0.00000000E+00
  0.00000000E+00  0.00000000E+00  0.00000000E+00
  0.00000000E+00  0.00000000E+00  0.00000000E+00
  0.00000000E+00  0.00000000E+00  0.00000000E+00
  0.00000000E+00  0.00000000E+00  0.00000000E+00
  0.00000000E+00  0.00000000E+00  0.00000000E+00
  0.00000000E+00  0.00000000E+00  0.00000000E+00
  0.00000000E+00  0.00000000E+00  0.00000000E+00
  0.00000000E+00  0.00000000E+00  0.00000000E+00
  0.00000000E+00  0.00000000E+00  0.00000000E+00
  0.00000000E+00  0.00000000E+00  0.00000000E+00
  0.00000000E+00  0.00000000E+00  0.00000000E+00
  0.00000000E+00  0.00000000E+00  0.00000000E+00
  0.00000000E+00  0.00000000E+00  0.00000000E+00
  0.00000000E+00  0.00000000E+00  0.00000000E+00
  0.00000000E+00  0.00000000E+00  0.00000000E+00
  0.00000000E+00  0.00000000E+00  0.00000000E+00
  0.00000000E+00  0.00000000E+00  0.00000000E+00
  0.00000000E+00  0.00000000E+00  0.00000000E+00
  0.00000000E+00  0.00000000E+00  0.00000000E+00
  0.00000000E+00  0.00000000E+00  0.00000000E+00
  0.00000000E+00  0.00000000E+00  0.00000000E+00
  0.00000000E+00  0.00000000E+00  0.00000000E+00
  0.00000000E+00  0.00000000E+00  0.00000000E+00
  0.00000000E+00  0.00000000E+00  0.00000000E+00
  0.00000000E+00  0.00000000E+00  0.00000000E+00
  0.00000000E+00  0.00000000E+00  0.00000000E+00
  0.00000000E+00  0.00000000E+00  0.00000000E+00
  0.00000000E+00  0.00000000E+00  0.00000000E+00
  0.00000000E+00  0.00000000E+00  0.00000000E+00
  0.00000000E+00  0.00000000E+00  0.00000000E+00
  0.00000000E+00  0.00000000E+00  0.00000000E+00
  0.00000000E+00  0.00000000E+00  0.00000000E+00
  0.00000000E+00  0.00000000E+00  0.00000000E+00
  0.00000000E+00  0.00000000E+00  0.00000000E+00
  0.00000000E+00  0.00000000E+00  0.00000000E+00
  0.00000000E+00  0.00000000E+00  0.00000000E+00
  0.00000000E+00  0.00000000E+00  0.00000000E+00
  0.00000000E+00  0.00000000E+00  0.00000000E+00
  0.00000000E+00  0.00000000E+00  0.00000000E+00
  0.00000000E+00  0.00000000E+00  0.00000000E+00
  0.00000000E+00  0.00000000E+00  0.00000000E+00
  0.00000000E+00  0.00000000E+00  0.00000000E+00
  0.00000000E+00  0.00000000E+00  0.00000000E+00
  0.00000000E+00  0.00000000E+00  0.00000000E+00
  0.00000000E+00  0.00000000E+00  0.00000000E+00
  0.00000000E+00  0.00000000E+00  0.00000000E+00
  0.00000000E+00  0.00000000E+00  0.00000000E+00
  0.00000000E+00  0.00000000E+00  0.00000000E+00
  0.00000000E+00  0.00000000E+00  0.00000000E+00
  0.00000000E+00  0.00000000E+00  0.00000000E+00
  0.00000000E+00  0.00000000E+00  0.00000000E+00
  0.00000000E+00  0.00000000E+00  0.00000000E+00
  0.00000000E+00  0.00000000E+00  0.00000000E+00
  0.00000000E+00  0.00000000E+00  0.00000000E+00
  0.00000000E+00  0.00000000E+00  0.00000000E+00
  0.00000000E+00  0.00000000E+00  0.00000000E+00
  0.00000000E+00  0.00000000E+00  0.00000000E+00
  0.00000000E+00  0.00000000E+00  0.00000000E+00
  0.00000000E+00  0.00000000E+00  0.00000000E+00
  0.00000000E+00  0.00000000E+00  0.00000000E+00
  0.00000000E+00  0.00000000E+00  0.00000000E+00
  0.00000000E+00  0.00000000E+00  0.00000000E+00
  0.00000000E+00  0.00000000E+00  0.00000000E+00
  0.00000000E+00  0.00000000E+00  0.00000000E+00
  0.00000000E+00  0.00000000E+00  0.00000000E+00
  0.00000000E+00  0.00000000E+00  0.00000000E+00
  0.00000000E+00  0.00000000E+00  0.00000000E+00
  0.00000000E+00  0.00000000E+00  0.00000000E+00
  0.00000000E+00  0.00000000E+00  0.00000000E+00
  0.00000000E+00  0.00000000E+00  0.00000000E+00
  0.00000000E+00  0.00000000E+00  0.00000000E+00
  0.00000000E+00  0.00000000E+00  0.00000000E+00
  0.00000000E+00  0.00000000E+00  0.00000000E+00
  0.00000000E+00  0.00000000E+00  0.00000000E+00
  0.00000000E+00  0.00000000E+00  0.00000000E+00
  0.00000000E+00  0.00000000E+00  0.00000000E+00
  0.00000000E+00  0.00000000E+00  0.00000000E+00
  0.00000000E+00  0.00000000E+00  0.00000000E+00
  0.00000000E+00  0.00000000E+00  0.00000000E+00
  0.00000000E+00  0.00000000E+00  0.00000000E+00
  0.00000000E+00  0.00000000E+00  0.00000000E+00
  0.00000000E+00  0.00000000E+00  0.00000000E+00
  0.00000000E+00  0.00000000E+00  0.00000000E+00