B C N                                   
   1.0000000000000000     
     8.7639499999999995  -15.1796066749929999    0.0000000000000000
     8.7639499999999995   15.1796066749929999    0.0000000000000000
     0.0000000000000000    0.0000000000000000   15.0000000000000000
   B    C    N 
    48     1    49
Selective dynamics
Direct
  0.9047165991386054  0.9522639992961419  0.1110182986664008   T   T   T
  0.9048077371259582  0.0951940095660418  0.1110407753660905   T   T   T
  0.9048411242008365  0.2381419863298649  0.1110387417919742   T   T   T
  0.9047972723587883  0.3810351336148113  0.1110081129593691   T   T   T
  0.9047031993227015  0.5238625899508834  0.1110063264163698   T   T   T
  0.9050613001303531  0.6667864867233219  0.1110437866928113   T   T   T
  0.9050583089049682  0.8097069517511332  0.1110407330841075   T   T   T
  0.0476439673176359  0.9523577560473669  0.1110183836236902   T   T   T
  0.0477377160458599  0.0952851213334014  0.1110182981933996   T   T   T
  0.0478428860918740  0.2381928917701764  0.1110066825573899   T   T   T
  0.0478293404429676  0.3810645687673241  0.1110211896414118   T   T   T
  0.0477296702690931  0.5238660875976116  0.1110123962836729   T   T   T
  0.0476523270967833  0.6667284291958205  0.1110199799604788   T   T   T
  0.0477214851478188  0.8095857641217808  0.1110073784108275   T   T   T
  0.1904159855712177  0.9522802779451843  0.1110073768848304   T   T   T
  0.1902947492848651  0.0949434038030374  0.1110407289601103   T   T   T
  0.1908611372728529  0.2382928386796575  0.1110104533224296   T   T   T
  0.1908589051793367  0.3811379982251413  0.1110098222733272   T   T   T
  0.1908567898635183  0.5239915388320283  0.1110482533060335   T   T   T
  0.1902903306677995  0.6667898607127010  0.1110431711752009   T   T   T
  0.1904246714592788  0.8095770230817194  0.1110034526135901   T   T   T
  0.3332733065091779  0.9523493967372202  0.1110199823744767   T   T   T
  0.3332152272536775  0.0949404397896488  0.1110437823158112   T   T   T
  0.3328665102154010  0.2371503936867896  0.1110391836591317   T   T   T
  0.3341829072426929  0.3805179528480945  0.1110209053010010   T   T   T
  0.3341916298342871  0.5250748782356899  0.1110436216789646   T   T   T
  0.3328597062697377  0.6671419965042623  0.1110572427343407   T   T   T
  0.3332117926072972  0.8097112981751952  0.1110431747082041   T   T   T
  0.4761355998213895  0.9522719106609107  0.1110124015946744   T   T   T
  0.4761391515551137  0.0952986233532962  0.1110063351093699   T   T   T
  0.4760044490778674  0.2383019825328475  0.1110367564248412   T   T   T
  0.4749115905727060  0.3805344495467155  0.1110308424876571   T   T   T
  0.4749269061973060  0.6658102275057227  0.1110436221929712   T   T   T
  0.4760101769579707  0.8091448972044816  0.1110482590430337   T   T   T
  0.6189371702046788  0.9521723439740329  0.1110211917484126   T   T   T
  0.6189665367331872  0.0952044149232130  0.1110081140453698   T   T   T
  0.6189415284081660  0.2382024527660081  0.1110129981628202   T   T   T
  0.6188537107333859  0.3811480234756144  0.1110141647343990   T   T   T
  0.6194671194232838  0.5250900766302955  0.1110308372296550   T   T   T
  0.6194836966068994  0.6658188164733037  0.1110209050139986   T   T   T
  0.6188637449348573  0.8091428642236626  0.1110098179253244   T   T   T
  0.7618088487578227  0.9521588334351250  0.1110066847833853   T   T   T
  0.7618597094311351  0.0951605523331614  0.1110387441949729   T   T   T
  0.7618590754577281  0.2381426297222691  0.1110531279517149   T   T   T
  0.7617993696179921  0.3810602270228345  0.1110129897558206   T   T   T
  0.7616997696431497  0.5239972337291356  0.1110367484608437   T   T   T
  0.7628512650842083  0.6671351703295963  0.1110391922871314   T   T   T
  0.7617088327443443  0.8091405794091472  0.1110104557964257   T   T   T
  0.4762016396807778  0.5238000158662177  0.1110540687089650   T   T   T
  0.9523120634617703  0.9047052962107757  0.1110145000739894   T   T   T
  0.9524329401171189  0.0475687771928802  0.1110138194006492   T   T   T
  0.9526690582271441  0.1905953698538186  0.1110165337676824   T   T   T
  0.9526618596234978  0.3335041763355215  0.1110111897204857   T   T   T
  0.9524250324845157  0.4762830117387307  0.1109848801845672   T   T   T
  0.9523109414056296  0.6190321218009421  0.1110139241881561   T   T   T
  0.9522997309010351  0.7618677277419600  0.1110214116098428   T   T   T
  0.0952235649692077  0.9047781874987941  0.1109957863092230   T   T   T
  0.0952964092272267  0.0476896553532292  0.1110145065709790   T   T   T
  0.0958826309355738  0.1909584186927895  0.1110028290447874   T   T   T
  0.0960657188950569  0.3337448366748123  0.1109973718812710   T   T   T
  0.0958773487012418  0.4763419818804859  0.1110151474171219   T   T   T
  0.0952903910327988  0.6190328769904103  0.1110162431349077   T   T   T
  0.0952268817642106  0.7618891752404398  0.1109962944130361   T   T   T
  0.2381125369205616  0.9047748289937887  0.1109962953050373   T   T   T
  0.2381340016350443  0.0477020380629624  0.1110214041868455   T   T   T
  0.2382720145455815  0.1906745267298927  0.1110185431632978   T   T   T
  0.2398022023717512  0.3346558241609930  0.1109952425812777   T   T   T
  0.2398038857606331  0.4765678653331888  0.1110247603000255   T   T   T
  0.2382650316799531  0.6190263655926902  0.1110345260546476   T   T   T
  0.2381329952066836  0.7618686389883109  0.1110169514306563   T   T   T
  0.3809687941125897  0.9047112347502009  0.1110162472849107   T   T   T
  0.3809696053860558  0.0476908095143697  0.1110139319361557   T   T   T
  0.3809756979095942  0.1906725331824831  0.1110285789474231   T   T   T
  0.3810080196432872  0.3334404939802225  0.1110166697534790   T   T   T
  0.3860830529246561  0.4787430398250800  0.1110317747132475   T   T   T
  0.3810129225242176  0.6189888754347836  0.1110287611375002   T   T   T
  0.3809753728963070  0.7617366752000461  0.1110345306756481   T   T   T
  0.5236597503475142  0.9041242468147549  0.1110151611951211   T   T   T
  0.5237186466102688  0.0475766292754868  0.1109848806295731   T   T   T
  0.5236590048624922  0.1909726794171811  0.1110079500262516   T   T   T
  0.5234258536410403  0.3346659532210939  0.1110158933509963   T   T   T
  0.5212541589778170  0.4787474376471876  0.1110287927303322   T   T   T
  0.5212586194579207  0.6139186292143445  0.1110317762912492   T   T   T
  0.5234339172798159  0.7601979705673649  0.1110247574840238   T   T   T
  0.6662569539371842  0.9039360285779433  0.1109973696682714   T   T   T
  0.6664974933954773  0.0473397946255067  0.1110111882524902   T   T   T
  0.6664989294387467  0.1905979597570824  0.1110188611593879   T   T   T
  0.6662511449132159  0.3337506656357856  0.1109974060251953   T   T   T
  0.6653357109109064  0.4765758623689568  0.1110158729519965   T   T   T
  0.6665611366637777  0.6189936749017043  0.1110166723884770   T   T   T
  0.6653458422930041  0.7601995550962475  0.1109952354502779   T   T   T
  0.8090432938232134  0.9041190840984290  0.1110028294207924   T   T   T
  0.8094063554231835  0.0473326508458528  0.1110165434546820   T   T   T
  0.8095205605468238  0.1904810941451757  0.1110317282323856   T   T   T
  0.8094037783509148  0.3335027557222561  0.1110188552193928   T   T   T
  0.8090292121378204  0.4763427495875118  0.1110079295152489   T   T   T
  0.8093291881845091  0.6190260061374070  0.1110285943004255   T   T   T
  0.8093271353641074  0.7617296772384184  0.1110185544592931   T   T   T

  0.00000000E+00  0.00000000E+00  0.00000000E+00
  0.00000000E+00  0.00000000E+00  0.00000000E+00
  0.00000000E+00  0.00000000E+00  0.00000000E+00
  0.00000000E+00  0.00000000E+00  0.00000000E+00
  0.00000000E+00  0.00000000E+00  0.00000000E+00
  0.00000000E+00  0.00000000E+00  0.00000000E+00
  0.00000000E+00  0.00000000E+00  0.00000000E+00
  0.00000000E+00  0.00000000E+00  0.00000000E+00
  0.00000000E+00  0.00000000E+00  0.00000000E+00
  0.00000000E+00  0.00000000E+00  0.00000000E+00
  0.00000000E+00  0.00000000E+00  0.00000000E+00
  0.00000000E+00  0.00000000E+00  0.00000000E+00
  0.00000000E+00  0.00000000E+00  0.00000000E+00
  0.00000000E+00  0.00000000E+00  0.00000000E+00
  0.00000000E+00  0.00000000E+00  0.00000000E+00
  0.00000000E+00  0.00000000E+00  0.00000000E+00
  0.00000000E+00  0.00000000E+00  0.00000000E+00
  0.00000000E+00  0.00000000E+00  0.00000000E+00
  0.00000000E+00  0.00000000E+00  0.00000000E+00
  0.00000000E+00  0.00000000E+00  0.00000000E+00
  0.00000000E+00  0.00000000E+00  0.00000000E+00
  0.00000000E+00  0.00000000E+00  0.00000000E+00
  0.00000000E+00  0.00000000E+00  0.00000000E+00
  0.00000000E+00  0.00000000E+00  0.00000000E+00
  0.00000000E+00  0.00000000E+00  0.00000000E+00
  0.00000000E+00  0.00000000E+00  0.00000000E+00
  0.00000000E+00  0.00000000E+00  0.00000000E+00
  0.00000000E+00  0.00000000E+00  0.00000000E+00
  0.00000000E+00  0.00000000E+00  0.00000000E+00
  0.00000000E+00  0.00000000E+00  0.00000000E+00
  0.00000000E+00  0.00000000E+00  0.00000000E+00
  0.00000000E+00  0.00000000E+00  0.00000000E+00
  0.00000000E+00  0.00000000E+00  0.00000000E+00
  0.00000000E+00  0.00000000E+00  0.00000000E+00
  0.00000000E+00  0.00000000E+00  0.00000000E+00
  0.00000000E+00  0.00000000E+00  0.00000000E+00
  0.00000000E+00  0.00000000E+00  0.00000000E+00
  0.00000000E+00  0.00000000E+00  0.00000000E+00
  0.00000000E+00  0.00000000E+00  0.00000000E+00
  0.00000000E+00  0.00000000E+00  0.00000000E+00
  0.00000000E+00  0.00000000E+00  0.00000000E+00
  0.00000000E+00  0.00000000E+00  0.00000000E+00
  0.00000000E+00  0.00000000E+00  0.00000000E+00
  0.00000000E+00  0.00000000E+00  0.00000000E+00
  0.00000000E+00  0.00000000E+00  0.00000000E+00
  0.00000000E+00  0.00000000E+00  0.00000000E+00
  0.00000000E+00  0.00000000E+00  0.00000000E+00
  0.00000000E+00  0.00000000E+00  0.00000000E+00
  0.00000000E+00  0.00000000E+00  0.00000000E+00
  0.00000000E+00  0.00000000E+00  0.00000000E+00
  0.00000000E+00  0.00000000E+00  0.00000000E+00
  0.00000000E+00  0.00000000E+00  0.00000000E+00
  0.00000000E+00  0.00000000E+00  0.00000000E+00
  0.00000000E+00  0.00000000E+00  0.00000000E+00
  0.00000000E+00  0.00000000E+00  0.00000000E+00
  0.00000000E+00  0.00000000E+00  0.00000000E+00
  0.00000000E+00  0.00000000E+00  0.00000000E+00
  0.00000000E+00  0.00000000E+00  0.00000000E+00
  0.00000000E+00  0.00000000E+00  0.00000000E+00
  0.00000000E+00  0.00000000E+00  0.00000000E+00
  0.00000000E+00  0.00000000E+00  0.00000000E+00
  0.00000000E+00  0.00000000E+00  0.00000000E+00
  0.00000000E+00  0.00000000E+00  0.00000000E+00
  0.00000000E+00  0.00000000E+00  0.00000000E+00
  0.00000000E+00  0.00000000E+00  0.00000000E+00
  0.00000000E+00  0.00000000E+00  0.00000000E+00
  0.00000000E+00  0.00000000E+00  0.00000000E+00
  0.00000000E+00  0.00000000E+00  0.00000000E+00
  0.00000000E+00  0.00000000E+00  0.00000000E+00
  0.00000000E+00  0.00000000E+00  0.00000000E+00
  0.00000000E+00  0.00000000E+00  0.00000000E+00
  0.00000000E+00  0.00000000E+00  0.00000000E+00
  0.00000000E+00  0.00000000E+00  0.00000000E+00
  0.00000000E+00  0.00000000E+00  0.00000000E+00
  0.00000000E+00  0.00000000E+00  0.00000000E+00
  0.00000000E+00  0.00000000E+00  0.00000000E+00
  0.00000000E+00  0.00000000E+00  0.00000000E+00
  0.00000000E+00  0.00000000E+00  0.00000000E+00
  0.00000000E+00  0.00000000E+00  0.00000000E+00
  0.00000000E+00  0.00000000E+00  0.00000000E+00
  0.00000000E+00  0.00000000E+00  0.00000000E+00
  0.00000000E+00  0.00000000E+00  0.00000000E+00
  0.00000000E+00  0.00000000E+00  0.00000000E+00
  0.00000000E+00  0.00000000E+00  0.00000000E+00
  0.00000000E+00  0.00000000E+00  0.00000000E+00
  0.00000000E+00  0.00000000E+00  0.00000000E+00
  0.00000000E+00  0.00000000E+00  0.00000000E+00
  0.00000000E+00  0.00000000E+00  0.00000000E+00
  0.00000000E+00  0.00000000E+00  0.00000000E+00
  0.00000000E+00  0.00000000E+00  0.00000000E+00
  0.00000000E+00  0.00000000E+00  0.00000000E+00
  0.00000000E+00  0.00000000E+00  0.00000000E+00
  0.00000000E+00  0.00000000E+00  0.00000000E+00
  0.00000000E+00  0.00000000E+00  0.00000000E+00
  0.00000000E+00  0.00000000E+00  0.00000000E+00
  0.00000000E+00  0.00000000E+00  0.00000000E+00
  0.00000000E+00  0.00000000E+00  0.00000000E+00
  0.00000000E+00  0.00000000E+00  0.00000000E+00
