Ga B N                                  
   1.0000000000000000     
     8.7639499999999995  -15.1796066749929999    0.0000000000000000
     8.7639499999999995   15.1796066749929999    0.0000000000000000
     0.0000000000000000    0.0000000000000000   15.0000000000000000
   Ga   B    N 
     1    48    48
Selective dynamics
Direct
  0.4106487415502814  0.4788592160944077  0.1109007540206606   T   T   T
  0.9090259790074420  0.9556014231333443  0.1105254803604184   T   T   T
  0.9078261837978066  0.0981924232488642  0.1105620913214115   T   T   T
  0.9068999049939482  0.2405256369803943  0.1106651150038579   T   T   T
  0.9053057173452992  0.3823487235088915  0.1106533651759182   T   T   T
  0.9028436903943193  0.5239810602825026  0.1106376282229015   T   T   T
  0.9057706182918246  0.6666251124973193  0.1107225961170994   T   T   T
  0.9091011495494268  0.8120615069864713  0.1107235238807797   T   T   T
  0.0489773865480877  0.9506604731515607  0.1105402007860854   T   T   T
  0.0486643355215455  0.0941671359409582  0.1107386801726976   T   T   T
  0.0499687187230639  0.2391170874913063  0.1104364077538232   T   T   T
  0.0500099599486518  0.3818025892074879  0.1103833494807661   T   T   T
  0.0482696467418028  0.5235846537545495  0.1107163778803097   T   T   T
  0.0485446554919425  0.6653483897310609  0.1107477990132396   T   T   T
  0.0489051917487910  0.8077217344294333  0.1104583789075830   T   T   T
  0.1907521502749451  0.9480211478285463  0.1106262704588707   T   T   T
  0.1884065921251050  0.0883505170587348  0.1110637944149700   T   T   T
  0.1885941462560270  0.2322204312483843  0.1105752954690253   T   T   T
  0.1947751255368030  0.3809245096529463  0.1099997626031894   T   T   T
  0.1930858075771228  0.5237358434493763  0.1105136617443410   T   T   T
  0.1926898655107545  0.6656245231208151  0.1109878686673939   T   T   T
  0.1918336781734473  0.8069758250778646  0.1106355306663641   T   T   T
  0.3346007867446086  0.9487705542714284  0.1105959829331157   T   T   T
  0.3326158862526012  0.0870209816376156  0.1112426880866967   T   T   T
  0.3273450704498588  0.2206013338778487  0.1117892310498862   T   T   T
  0.3288277354984937  0.3594096667914048  0.1107113455404256   T   T   T
  0.3383411324124030  0.5320809412389234  0.1102424257208614   T   T   T
  0.3378238119609136  0.6700392064017093  0.1108209438608348   T   T   T
  0.3360620907219579  0.8092271085862809  0.1109965659119071   T   T   T
  0.4789682985853370  0.9519848798045957  0.1107454572973153   T   T   T
  0.4774623855356414  0.0927589173161843  0.1106967505419519   T   T   T
  0.4747590482046188  0.2321134981861356  0.1113812547558801   T   T   T
  0.4649637478410046  0.3642389413022797  0.1121433378457793   T   T   T
  0.4836541800379610  0.6673950274784707  0.1103289188097969   T   T   T
  0.4807626049740935  0.8104557248818209  0.1110645729545611   T   T   T
  0.6227820238355385  0.9561107433778251  0.1107272492244570   T   T   T
  0.6213585166021345  0.0975150196571681  0.1105120354107710   T   T   T
  0.6195316805620167  0.2398566673569995  0.1106344833716889   T   T   T
  0.6155029991424833  0.3835786607158040  0.1107492759102146   T   T   T
  0.6140853003782311  0.5399182481111756  0.1104343635098858   T   T   T
  0.6341651975089954  0.6822378825095573  0.1111645773632329   T   T   T
  0.6251292219160464  0.8160429406097895  0.1111536567127525   T   T   T
  0.7664351697279731  0.9573586626826018  0.1106161771314813   T   T   T
  0.7648081576832898  0.0988395525526968  0.1105315527226004   T   T   T
  0.7632276599107882  0.2407718750757603  0.1106136306659635   T   T   T
  0.7605238862609572  0.3829300346766847  0.1105440711988445   T   T   T
  0.7560593387714175  0.5254255203880016  0.1105495794945625   T   T   T
  0.7692198663010497  0.6735920836978125  0.1112474495998344   T   T   T
  0.7700753471628029  0.8175007200114291  0.1112263073588188   T   T   T
  0.9552598684170812  0.9063001137761254  0.1104428987893944   T   T   T
  0.9546826791472975  0.0496181823230734  0.1105818343019042   T   T   T
  0.9546699203106347  0.1929026653834866  0.1106055418966835   T   T   T
  0.9540224836700957  0.3352765688615334  0.1106021305395296   T   T   T
  0.9521034283066191  0.4771090698203708  0.1106630159115590   T   T   T
  0.9530363993423706  0.6188571183464876  0.1106876031465159   T   T   T
  0.9543133507656919  0.7619117841126652  0.1105932478894879   T   T   T
  0.0960333660573357  0.9022561900889148  0.1104010618976727   T   T   T
  0.0945445964855492  0.0443525319447123  0.1108127735670168   T   T   T
  0.0945288636504251  0.1880987634415923  0.1106004937519231   T   T   T
  0.0980142959701930  0.3341899446856240  0.1101151925100123   T   T   T
  0.0968245012863907  0.4767843851144944  0.1104830469638321   T   T   T
  0.0967449117213779  0.6185276188144740  0.1108989543973481   T   T   T
  0.0965500969668812  0.7602115374799661  0.1105416070781283   T   T   T
  0.2392984205992262  0.9015331786968418  0.1104618915188990   T   T   T
  0.2374870201663852  0.0417890931799956  0.1110737099023665   T   T   T
  0.2337129500615810  0.1809679493727201  0.1111347332624143   T   T   T
  0.2356362491153314  0.3257649742083370  0.1100022599020252   T   T   T
  0.2413512067869037  0.4772577014264974  0.1101677986243710   T   T   T
  0.2412855049456925  0.6196502058956317  0.1109022052356859   T   T   T
  0.2403835484012040  0.7607837057695790  0.1109387774043300   T   T   T
  0.3836440660398050  0.9036634007667480  0.1107112164639647   T   T   T
  0.3822041396583989  0.0426844121781059  0.1106929448534223   T   T   T
  0.3797309288962797  0.1796926601708182  0.1118544422540388   T   T   T
  0.3731090267294555  0.3106811166303500  0.1120624458318898   T   T   T
  0.3873697363471063  0.6265120445825274  0.1102320381621004   T   T   T
  0.3852818104771252  0.7645036877537496  0.1111932572648679   T   T   T
  0.5277369675786943  0.9060728939941589  0.1109229107827314   T   T   T
  0.5262820508974566  0.0471500224122292  0.1105341631735031   T   T   T
  0.5245450611306661  0.1876880364949652  0.1108175498296540   T   T   T
  0.5206152873058193  0.3272096224822843  0.1113700585705932   T   T   T
  0.5309421928270662  0.5401167299543512  0.1093347269409332   T   T   T
  0.5427611911386824  0.6294015096088202  0.1098575527838489   T   T   T
  0.5302376901280352  0.7644494721158711  0.1109317385137741   T   T   T
  0.6716122824315474  0.9106282032358370  0.1107838614225275   T   T   T
  0.6697665225049199  0.0511035142568054  0.1104904618464125   T   T   T
  0.6680959381557910  0.1928720206816312  0.1105181156113925   T   T   T
  0.6651913210208902  0.3358549215667401  0.1105522330578521   T   T   T
  0.6580534782171701  0.4802716749880875  0.1103898012176868   T   T   T
  0.6778296900435838  0.6324517542183393  0.1114467664952379   T   T   T
  0.6771232735678849  0.7744363629204976  0.1116404622599514   T   T   T
  0.8153996143905307  0.9112146410082450  0.1106230181812458   T   T   T
  0.8130031336656365  0.0519363055593531  0.1104598923221849   T   T   T
  0.8116029258027478  0.1936790762346351  0.1106429755141425   T   T   T
  0.8096556451247677  0.3357425619418128  0.1106156420277885   T   T   T
  0.8063409624743771  0.4779100954879158  0.1105022123871752   T   T   T
  0.8110589792975736  0.6209406162774228  0.1107865817881343   T   T   T
  0.8159830137924550  0.7681660017715989  0.1111924650541612   T   T   T

  0.00000000E+00  0.00000000E+00  0.00000000E+00
  0.00000000E+00  0.00000000E+00  0.00000000E+00
  0.00000000E+00  0.00000000E+00  0.00000000E+00
  0.00000000E+00  0.00000000E+00  0.00000000E+00
  0.00000000E+00  0.00000000E+00  0.00000000E+00
  0.00000000E+00  0.00000000E+00  0.00000000E+00
  0.00000000E+00  0.00000000E+00  0.00000000E+00
  0.00000000E+00  0.00000000E+00  0.00000000E+00
  0.00000000E+00  0.00000000E+00  0.00000000E+00
  0.00000000E+00  0.00000000E+00  0.00000000E+00
  0.00000000E+00  0.00000000E+00  0.00000000E+00
  0.00000000E+00  0.00000000E+00  0.00000000E+00
  0.00000000E+00  0.00000000E+00  0.00000000E+00
  0.00000000E+00  0.00000000E+00  0.00000000E+00
  0.00000000E+00  0.00000000E+00  0.00000000E+00
  0.00000000E+00  0.00000000E+00  0.00000000E+00
  0.00000000E+00  0.00000000E+00  0.00000000E+00
  0.00000000E+00  0.00000000E+00  0.00000000E+00
  0.00000000E+00  0.00000000E+00  0.00000000E+00
  0.00000000E+00  0.00000000E+00  0.00000000E+00
  0.00000000E+00  0.00000000E+00  0.00000000E+00
  0.00000000E+00  0.00000000E+00  0.00000000E+00
  0.00000000E+00  0.00000000E+00  0.00000000E+00
  0.00000000E+00  0.00000000E+00  0.00000000E+00
  0.00000000E+00  0.00000000E+00  0.00000000E+00
  0.00000000E+00  0.00000000E+00  0.00000000E+00
  0.00000000E+00  0.00000000E+00  0.00000000E+00
  0.00000000E+00  0.00000000E+00  0.00000000E+00
  0.00000000E+00  0.00000000E+00  0.00000000E+00
  0.00000000E+00  0.00000000E+00  0.00000000E+00
  0.00000000E+00  0.00000000E+00  0.00000000E+00
  0.00000000E+00  0.00000000E+00  0.00000000E+00
  0.00000000E+00  0.00000000E+00  0.00000000E+00
  0.00000000E+00  0.00000000E+00  0.00000000E+00
  0.00000000E+00  0.00000000E+00  0.00000000E+00
  0.00000000E+00  0.00000000E+00  0.00000000E+00
  0.00000000E+00  0.00000000E+00  0.00000000E+00
  0.00000000E+00  0.00000000E+00  0.00000000E+00
  0.00000000E+00  0.00000000E+00  0.00000000E+00
  0.00000000E+00  0.00000000E+00  0.00000000E+00
  0.00000000E+00  0.00000000E+00  0.00000000E+00
  0.00000000E+00  0.00000000E+00  0.00000000E+00
  0.00000000E+00  0.00000000E+00  0.00000000E+00
  0.00000000E+00  0.00000000E+00  0.00000000E+00
  0.00000000E+00  0.00000000E+00  0.00000000E+00
  0.00000000E+00  0.00000000E+00  0.00000000E+00
  0.00000000E+00  0.00000000E+00  0.00000000E+00
  0.00000000E+00  0.00000000E+00  0.00000000E+00
  0.00000000E+00  0.00000000E+00  0.00000000E+00
  0.00000000E+00  0.00000000E+00  0.00000000E+00
  0.00000000E+00  0.00000000E+00  0.00000000E+00
  0.00000000E+00  0.00000000E+00  0.00000000E+00
  0.00000000E+00  0.00000000E+00  0.00000000E+00
  0.00000000E+00  0.00000000E+00  0.00000000E+00
  0.00000000E+00  0.00000000E+00  0.00000000E+00
  0.00000000E+00  0.00000000E+00  0.00000000E+00
  0.00000000E+00  0.00000000E+00  0.00000000E+00
  0.00000000E+00  0.00000000E+00  0.00000000E+00
  0.00000000E+00  0.00000000E+00  0.00000000E+00
  0.00000000E+00  0.00000000E+00  0.00000000E+00
  0.00000000E+00  0.00000000E+00  0.00000000E+00
  0.00000000E+00  0.00000000E+00  0.00000000E+00
  0.00000000E+00  0.00000000E+00  0.00000000E+00
  0.00000000E+00  0.00000000E+00  0.00000000E+00
  0.00000000E+00  0.00000000E+00  0.00000000E+00
  0.00000000E+00  0.00000000E+00  0.00000000E+00
  0.00000000E+00  0.00000000E+00  0.00000000E+00
  0.00000000E+00  0.00000000E+00  0.00000000E+00
  0.00000000E+00  0.00000000E+00  0.00000000E+00
  0.00000000E+00  0.00000000E+00  0.00000000E+00
  0.00000000E+00  0.00000000E+00  0.00000000E+00
  0.00000000E+00  0.00000000E+00  0.00000000E+00
  0.00000000E+00  0.00000000E+00  0.00000000E+00
  0.00000000E+00  0.00000000E+00  0.00000000E+00
  0.00000000E+00  0.00000000E+00  0.00000000E+00
  0.00000000E+00  0.00000000E+00  0.00000000E+00
  0.00000000E+00  0.00000000E+00  0.00000000E+00
  0.00000000E+00  0.00000000E+00  0.00000000E+00
  0.00000000E+00  0.00000000E+00  0.00000000E+00
  0.00000000E+00  0.00000000E+00  0.00000000E+00
  0.00000000E+00  0.00000000E+00  0.00000000E+00
  0.00000000E+00  0.00000000E+00  0.00000000E+00
  0.00000000E+00  0.00000000E+00  0.00000000E+00
  0.00000000E+00  0.00000000E+00  0.00000000E+00
  0.00000000E+00  0.00000000E+00  0.00000000E+00
  0.00000000E+00  0.00000000E+00  0.00000000E+00
  0.00000000E+00  0.00000000E+00  0.00000000E+00
  0.00000000E+00  0.00000000E+00  0.00000000E+00
  0.00000000E+00  0.00000000E+00  0.00000000E+00
  0.00000000E+00  0.00000000E+00  0.00000000E+00
  0.00000000E+00  0.00000000E+00  0.00000000E+00
  0.00000000E+00  0.00000000E+00  0.00000000E+00
  0.00000000E+00  0.00000000E+00  0.00000000E+00
  0.00000000E+00  0.00000000E+00  0.00000000E+00
  0.00000000E+00  0.00000000E+00  0.00000000E+00
  0.00000000E+00  0.00000000E+00  0.00000000E+00
  0.00000000E+00  0.00000000E+00  0.00000000E+00
