B N Al                                  
   1.0000000000000000     
     8.7639499999999995  -15.1796066749929999    0.0000000000000000
     8.7639499999999995   15.1796066749929999    0.0000000000000000
     0.0000000000000000    0.0000000000000000   15.0000000000000000
   B    N    Al
    49    47     1
Selective dynamics
Direct
  0.9030892089169735  0.9502802257436052  0.1052149586145131   T   T   T
  0.9039148376980403  0.0932821702889245  0.1080856514711615   T   T   T
  0.9044834825302374  0.2362178264461948  0.1080932364324084   T   T   T
  0.9045867317935035  0.3791688264433732  0.1062597183294679   T   T   T
  0.9051862316750305  0.5224739878776398  0.1029783579926935   T   T   T
  0.9055656586600892  0.6659321895688964  0.1007101241101685   T   T   T
  0.9045846182207795  0.8089962330591345  0.1000956050686484   T   T   T
  0.0474936477634645  0.9527029455762821  0.1037277478931314   T   T   T
  0.0480834819355444  0.0957431332047910  0.1053083445368653   T   T   T
  0.0480874599026585  0.2377674067136594  0.1065863687527085   T   T   T
  0.0476647488036646  0.3799210074171502  0.1067782015814150   T   T   T
  0.0470829962732938  0.5228803709933519  0.1060734799255626   T   T   T
  0.0470715281885654  0.6663873267780842  0.1045788485031756   T   T   T
  0.0474115907770274  0.8097460877115594  0.1031286429553897   T   T   T
  0.1904885198300030  0.9533527706357178  0.1059030050245848   T   T   T
  0.1910372937313030  0.0965733652952212  0.1041767567886697   T   T   T
  0.1937143144328665  0.2417390423027380  0.1051228624891954   T   T   T
  0.1919832365022321  0.3818984755061839  0.1067453221872041   T   T   T
  0.1894974131012774  0.5236817614923241  0.1078219742961378   T   T   T
  0.1882478870542674  0.6667644411528205  0.1082126038328927   T   T   T
  0.1897134379002609  0.8100955972075552  0.1075886860626752   T   T   T
  0.3330588933363370  0.9531051850918912  0.1086397015273910   T   T   T
  0.3339993291419351  0.0966096955130744  0.1082459972597755   T   T   T
  0.3342043461631500  0.2398834136631436  0.1104028810663883   T   T   T
  0.3420128373035163  0.3898434816785160  0.1154678815137070   T   T   T
  0.3329776827038253  0.5259394388068616  0.1100990069544263   T   T   T
  0.3288134575181653  0.6676035521797344  0.1084912908178153   T   T   T
  0.3319399166066934  0.8101377462707160  0.1094729556237106   T   T   T
  0.4755129480562108  0.9513211998134213  0.1097443211798261   T   T   T
  0.4764029995439766  0.0949884296343173  0.1092971435423353   T   T   T
  0.4774484026234819  0.2385975115709962  0.1177513300822860   T   T   T
  0.4690717193243055  0.3699402337990428  0.1605136131434176   T   T   T
  0.4932721285414101  0.5820465975382861  0.1206084259253899   T   T   T
  0.4674728421254942  0.6615342186428774  0.1077795164912399   T   T   T
  0.4739465362145946  0.8072246981988275  0.1092115530740566   T   T   T
  0.6175729505889124  0.9488448455313695  0.1099706837117628   T   T   T
  0.6187249727725809  0.0932301819984524  0.1095400168774924   T   T   T
  0.6194290473400548  0.2369557542883971  0.1124096478432807   T   T   T
  0.6198045722212160  0.3800301318507603  0.1291348619021793   T   T   T
  0.6372768694170511  0.5313586937284097  0.1585311546418618   T   T   T
  0.6148723441063829  0.6539259014081741  0.1211134956915558   T   T   T
  0.6149314194272962  0.8026783681182643  0.1099496337391894   T   T   T
  0.7595959518536622  0.9484045282157151  0.1089785068655158   T   T   T
  0.7610303066327719  0.0924862654243557  0.1095859678191713   T   T   T
  0.7617264980644295  0.2359392692955763  0.1088265813769985   T   T   T
  0.7619178437957850  0.3790526436168200  0.1093845923381149   T   T   T
  0.7639456930359668  0.5222661216639524  0.1108470652031849   T   T   T
  0.7645751324449351  0.6658903558511433  0.1041831808460057   T   T   T
  0.7578665897529820  0.8039647671941431  0.1058350681228334   T   T   T
  0.9521457650040972  0.9043016578697570  0.1027940927088197   T   T   T
  0.9519128287039426  0.0463077414677412  0.1064927550625969   T   T   T
  0.9522341194797771  0.1888760804229219  0.1079035610201409   T   T   T
  0.9522064035868257  0.3315791996618815  0.1070863644350712   T   T   T
  0.9522490349972931  0.4745469459584186  0.1047335645738200   T   T   T
  0.9526629827031250  0.6180346611431509  0.1018981248711066   T   T   T
  0.9525952286730474  0.7616296560048551  0.0999137388469195   T   T   T
  0.0951654065032221  0.9052044346431036  0.1042788813784894   T   T   T
  0.0954633370650316  0.0480754686460421  0.1042383101773841   T   T   T
  0.0968508763484451  0.1916180964696078  0.1054669026610728   T   T   T
  0.0958283888027514  0.3329593833436781  0.1063811475982305   T   T   T
  0.0943545283445273  0.4751858317688293  0.1069481907555394   T   T   T
  0.0936765703461138  0.6183680565060706  0.1066183296516562   T   T   T
  0.0946828556430921  0.7619571289697086  0.1054136448478254   T   T   T
  0.2377100197501968  0.9054240794352150  0.1077438657605874   T   T   T
  0.2383731017449368  0.0485840660314095  0.1055812683196403   T   T   T
  0.2388893624542586  0.1917686209817548  0.1037599655507907   T   T   T
  0.2430952542585494  0.3380971133475644  0.1066298363166105   T   T   T
  0.2374583931942389  0.4766226134694463  0.1081319788127070   T   T   T
  0.2343840091142836  0.6189265730480451  0.1085246646748655   T   T   T
  0.2366243005136044  0.7622537381501638  0.1089574778466897   T   T   T
  0.3802061919493922  0.9051538924712783  0.1096273473802337   T   T   T
  0.3810310886092872  0.0480829141600347  0.1084951117273309   T   T   T
  0.3816462159848210  0.1913024634313388  0.1118049802506155   T   T   T
  0.3813120863716985  0.3338763910802397  0.1218928150732066   T   T   T
  0.3908660964796747  0.4891902755890979  0.1157036820440645   T   T   T
  0.3739630188659532  0.6203579723631822  0.1076259763274185   T   T   T
  0.3786375425598302  0.7625103540339571  0.1092027858974195   T   T   T
  0.5224000449780322  0.9028185879454795  0.1100667556504201   T   T   T
  0.5235188948291047  0.0465047464141383  0.1093244449367766   T   T   T
  0.5243029622967832  0.1898199219514445  0.1112498670816619   T   T   T
  0.5244479485859733  0.3317774410325681  0.1348282019679969   T   T   T
  0.5196259897627852  0.7576468579408421  0.1083019022973875   T   T   T
  0.6640627914059546  0.8996799035111156  0.1098419812290962   T   T   T
  0.6657617778732201  0.0446933381754948  0.1098313550531840   T   T   T
  0.6666452063951809  0.1885107638978425  0.1096075598938700   T   T   T
  0.6670955876683307  0.3318910095016263  0.1158905074268096   T   T   T
  0.6717554071593648  0.4754848737446768  0.1317383393752477   T   T   T
  0.6730142829723661  0.6183364342604550  0.1195661038033973   T   T   T
  0.6609559416392725  0.7526920558894959  0.1113175750776233   T   T   T
  0.8069931388508852  0.9007713492993122  0.1066846253727683   T   T   T
  0.8082540185622615  0.0444955740461033  0.1093657175057426   T   T   T
  0.8091326560996459  0.1880273002384772  0.1089627834822268   T   T   T
  0.8094859831645904  0.3311755883145508  0.1074329672182495   T   T   T
  0.8106536425844640  0.4742305199082839  0.1045294222242980   T   T   T
  0.8117150875288109  0.6177648453856538  0.1028860607955243   T   T   T
  0.8097818459296073  0.7609103817159291  0.0993745228255870   T   T   T
  0.5180525944305346  0.4936002505413777  0.2170875238604265   T   T   T

  0.00000000E+00  0.00000000E+00  0.00000000E+00
  0.00000000E+00  0.00000000E+00  0.00000000E+00
  0.00000000E+00  0.00000000E+00  0.00000000E+00
  0.00000000E+00  0.00000000E+00  0.00000000E+00
  0.00000000E+00  0.00000000E+00  0.00000000E+00
  0.00000000E+00  0.00000000E+00  0.00000000E+00
  0.00000000E+00  0.00000000E+00  0.00000000E+00
  0.00000000E+00  0.00000000E+00  0.00000000E+00
  0.00000000E+00  0.00000000E+00  0.00000000E+00
  0.00000000E+00  0.00000000E+00  0.00000000E+00
  0.00000000E+00  0.00000000E+00  0.00000000E+00
  0.00000000E+00  0.00000000E+00  0.00000000E+00
  0.00000000E+00  0.00000000E+00  0.00000000E+00
  0.00000000E+00  0.00000000E+00  0.00000000E+00
  0.00000000E+00  0.00000000E+00  0.00000000E+00
  0.00000000E+00  0.00000000E+00  0.00000000E+00
  0.00000000E+00  0.00000000E+00  0.00000000E+00
  0.00000000E+00  0.00000000E+00  0.00000000E+00
  0.00000000E+00  0.00000000E+00  0.00000000E+00
  0.00000000E+00  0.00000000E+00  0.00000000E+00
  0.00000000E+00  0.00000000E+00  0.00000000E+00
  0.00000000E+00  0.00000000E+00  0.00000000E+00
  0.00000000E+00  0.00000000E+00  0.00000000E+00
  0.00000000E+00  0.00000000E+00  0.00000000E+00
  0.00000000E+00  0.00000000E+00  0.00000000E+00
  0.00000000E+00  0.00000000E+00  0.00000000E+00
  0.00000000E+00  0.00000000E+00  0.00000000E+00
  0.00000000E+00  0.00000000E+00  0.00000000E+00
  0.00000000E+00  0.00000000E+00  0.00000000E+00
  0.00000000E+00  0.00000000E+00  0.00000000E+00
  0.00000000E+00  0.00000000E+00  0.00000000E+00
  0.00000000E+00  0.00000000E+00  0.00000000E+00
  0.00000000E+00  0.00000000E+00  0.00000000E+00
  0.00000000E+00  0.00000000E+00  0.00000000E+00
  0.00000000E+00  0.00000000E+00  0.00000000E+00
  0.00000000E+00  0.00000000E+00  0.00000000E+00
  0.00000000E+00  0.00000000E+00  0.00000000E+00
  0.00000000E+00  0.00000000E+00  0.00000000E+00
  0.00000000E+00  0.00000000E+00  0.00000000E+00
  0.00000000E+00  0.00000000E+00  0.00000000E+00
  0.00000000E+00  0.00000000E+00  0.00000000E+00
  0.00000000E+00  0.00000000E+00  0.00000000E+00
  0.00000000E+00  0.00000000E+00  0.00000000E+00
  0.00000000E+00  0.00000000E+00  0.00000000E+00
  0.00000000E+00  0.00000000E+00  0.00000000E+00
  0.00000000E+00  0.00000000E+00  0.00000000E+00
  0.00000000E+00  0.00000000E+00  0.00000000E+00
  0.00000000E+00  0.00000000E+00  0.00000000E+00
  0.00000000E+00  0.00000000E+00  0.00000000E+00
  0.00000000E+00  0.00000000E+00  0.00000000E+00
  0.00000000E+00  0.00000000E+00  0.00000000E+00
  0.00000000E+00  0.00000000E+00  0.00000000E+00
  0.00000000E+00  0.00000000E+00  0.00000000E+00
  0.00000000E+00  0.00000000E+00  0.00000000E+00
  0.00000000E+00  0.00000000E+00  0.00000000E+00
  0.00000000E+00  0.00000000E+00  0.00000000E+00
  0.00000000E+00  0.00000000E+00  0.00000000E+00
  0.00000000E+00  0.00000000E+00  0.00000000E+00
  0.00000000E+00  0.00000000E+00  0.00000000E+00
  0.00000000E+00  0.00000000E+00  0.00000000E+00
  0.00000000E+00  0.00000000E+00  0.00000000E+00
  0.00000000E+00  0.00000000E+00  0.00000000E+00
  0.00000000E+00  0.00000000E+00  0.00000000E+00
  0.00000000E+00  0.00000000E+00  0.00000000E+00
  0.00000000E+00  0.00000000E+00  0.00000000E+00
  0.00000000E+00  0.00000000E+00  0.00000000E+00
  0.00000000E+00  0.00000000E+00  0.00000000E+00
  0.00000000E+00  0.00000000E+00  0.00000000E+00
  0.00000000E+00  0.00000000E+00  0.00000000E+00
  0.00000000E+00  0.00000000E+00  0.00000000E+00
  0.00000000E+00  0.00000000E+00  0.00000000E+00
  0.00000000E+00  0.00000000E+00  0.00000000E+00
  0.00000000E+00  0.00000000E+00  0.00000000E+00
  0.00000000E+00  0.00000000E+00  0.00000000E+00
  0.00000000E+00  0.00000000E+00  0.00000000E+00
  0.00000000E+00  0.00000000E+00  0.00000000E+00
  0.00000000E+00  0.00000000E+00  0.00000000E+00
  0.00000000E+00  0.00000000E+00  0.00000000E+00
  0.00000000E+00  0.00000000E+00  0.00000000E+00
  0.00000000E+00  0.00000000E+00  0.00000000E+00
  0.00000000E+00  0.00000000E+00  0.00000000E+00
  0.00000000E+00  0.00000000E+00  0.00000000E+00
  0.00000000E+00  0.00000000E+00  0.00000000E+00
  0.00000000E+00  0.00000000E+00  0.00000000E+00
  0.00000000E+00  0.00000000E+00  0.00000000E+00
  0.00000000E+00  0.00000000E+00  0.00000000E+00
  0.00000000E+00  0.00000000E+00  0.00000000E+00
  0.00000000E+00  0.00000000E+00  0.00000000E+00
  0.00000000E+00  0.00000000E+00  0.00000000E+00
  0.00000000E+00  0.00000000E+00  0.00000000E+00
  0.00000000E+00  0.00000000E+00  0.00000000E+00
  0.00000000E+00  0.00000000E+00  0.00000000E+00
  0.00000000E+00  0.00000000E+00  0.00000000E+00
  0.00000000E+00  0.00000000E+00  0.00000000E+00
  0.00000000E+00  0.00000000E+00  0.00000000E+00
  0.00000000E+00  0.00000000E+00  0.00000000E+00
  0.00000000E+00  0.00000000E+00  0.00000000E+00
