 B N S Al 
 1.0
 17.527899999999772   0.000000000000000   0.000000000000000
 -8.763949999999658  15.179606674993195   0.000000000000000
  0.000000000000001   0.000000000000002  15.000000000000000
 B N S Al 
  49  47   1   1
Cartesian
  7.543472601034095  14.495082889719615   1.664993192677185 
 15.020123993284223   1.447134373885675   1.665379841156535 
 13.762759199097282   3.604866526422605   1.665539336584440 
 12.521185805029717   5.771458676571083   1.664910594628440 
 11.304291929771885   7.950012150336925   1.665592295825610 
 10.108246827937023  10.142827296769052   1.665496321705065 
  8.833441454848908  12.340595750668683   1.665821104661775 
 -7.488169192173402  14.471566433815564   1.665285688028460 
 -0.003823607665190   1.435044363046370   1.664764257636675 
 -1.277635504817374   3.593901240338858   1.664908270422360 
 -2.536676425825669   5.766475027383221   1.665087082653360 
 -3.776571222167042   7.946913994623534   1.665281760185415 
 -4.990748663188510  10.130693865162304   1.665806050322850 
 -6.228116925610669  12.307108399079224   1.665702276025155 
 -4.999334073394069  14.458367962797869   1.665176699810220 
  2.501787275225106   1.421156641203193   1.665893355435780 
  1.211282538114117   3.550646851131884   1.665495826322970 
 -0.064328959903299   5.748678210206846   1.665588879967980 
 -1.333741738331232   7.942528794051105   1.665188620095585 
 -2.555599867366920  10.130567780767725   1.666407506480760 
 -3.759789425068209  12.300890017624942   1.665228231816495 
 -2.510586534839351  14.460596889486451   1.665411036396225 
  5.011717732044214   1.421820586601014   1.666341959021325 
  3.735235692486239   3.540233189798003   1.665701990601345 
  2.398021511767405   5.664291223028965   1.666207739511450 
  1.103007312711283   7.929539249648296   1.665618722141835 
 -0.133888560150099  10.137190310232574   1.665304188303825 
 -1.288331332586242  12.310519150966577   1.665736597544265 
 -0.024431754626494  14.488485228104809   1.665499952491650 
  7.522066649262211   1.425093134353079   1.665694644025815 
  6.303190349718344   3.525509007537626   1.665492018650190 
  5.062323728625369   5.504877305252733   1.666293267882285 
  3.439448675780800   7.707420574921494   1.661872878486990 
  2.180021980202685  10.298662021044958   1.665207001941855 
  1.175377402164121  12.383452942914515   1.664878971753870 
  2.499118945564414  14.477133334846766   1.665229950917115 
 10.022226605443535   1.445712856222283   1.665087672821820 
  8.789440210481843   3.595275293725639   1.664944490428035 
  7.566936631719997   5.753858982595508   1.665511565990235 
  6.517385782523454   8.093232741845672   1.666098269662860 
  5.361894892400074  10.288035947040804   1.665423122988540 
  3.756150724846343  12.318871958964023   1.664954664298305 
  5.016896139146164  14.479651861863134   1.665185942358705 
 12.520995196008457   1.449382340931099   1.665732036788760 
 11.278144187638167   3.605589497335905   1.665295825815270 
 10.049323118718402   5.768451277733632   1.665073300086420 
  8.865364702451544   7.954074909302022   1.665419720486325 
  7.725452159304118  10.209805743361901   1.665419473647480 
  6.337488833917424  12.387311358216145   1.665268266952140 
  8.800242013786544  13.773925348136178   1.665101817745695 
 16.279564189101382   0.741572383989817   1.664622949491105 
 15.006341255317029   2.882621713630345   1.664980465646760 
 13.754727853662125   5.042633552822764   1.664860110395430 
 12.524423130883847   7.213076098282579   1.664912852900715 
 11.319719846385389   9.395669346850370   1.665417983447160 
 10.070572900014962  11.589412434704762   1.665639803844585 
 -6.241892253335571  13.746048261415751   1.665004667050185 
  1.253828765593274   0.721264682281404   1.665161698457475 
 -0.033769416492651   2.858438856802223   1.664471019040455 
 -1.302276037612762   5.029230097621493   1.665020557351530 
 -2.558963424855385   7.207024697290402   1.664833412042655 
 -3.777984737633658   9.392285234348099   1.665814391457075 
 -4.995440117991639  11.574753721562898   1.665325180458780 
 -3.757145845197748  13.741142322835099   1.664434518585120 
  3.758949051530458   0.712464513022029   1.665888714968655 
  2.480038522934253   2.843881307761280   1.665534575503485 
  1.163790119766212   4.963295377237983   1.666025344106310 
 -0.125301726209606   7.192410796608763   1.665155247570720 
 -1.354557503099478   9.392287975489609   1.665539036375145 
 -2.532540944899470  11.577456256594692   1.665841529551890 
 -1.270988899408517  13.755090003394169   1.665315713677830 
  6.263648170435707   0.716551779299726   1.665762804005805 
  5.017359269134217   2.850265942845450   1.665623391409290 
  3.720033732644966   4.956099815307661   1.665547950940215 
  2.229125795756826   7.048242859661661   1.665343122386460 
  1.049793034266332   9.403180883707982   1.664754099196110 
 -0.065005725508768  11.601762206195264   1.665069511334985 
  1.215119842279765  13.808604146345550   1.665151823681475 
  8.765587157004232   0.736148911445258   1.665006796461840 
  7.550136550656945   2.848756131134304   1.664907237105465 
  6.349374875274979   4.941191898706824   1.665565866002490 
  2.402637815913841  11.719814733265181   1.664123306314065 
  3.759512484538170  13.770441068767674   1.664962331701860 
 11.271127818014250   0.738085094841796   1.665169728559785 
 10.033075264245257   2.884469447833090   1.664816600290020 
  8.807101898804170   5.037369827685205   1.664837161071960 
  7.633730024409155   7.209923135828286   1.665445219227195 
  6.544390085964301   9.497080707037002   1.664840040094605 
  5.110816142017442  11.709309276563715   1.664966650367700 
  6.301678125993777  13.810973486406008   1.664912284968855 
 13.771397557307083   0.738958235946531   1.665458032895595 
 12.519776513972758   2.887360664099933   1.665516671196975 
 11.283589602969645   5.044305690831718   1.664802400448940 
 10.078815435043008   7.211828861381083   1.665158326387845 
  8.905121555879308   9.409160417264424   1.665100018334235 
  7.609535801965873  11.644324976276929   1.665528081522345 
  5.006033195710636   7.198245496870431   1.667551901701455 
  3.767389231508375   9.452963290297063   1.665124588286535 
