 Al B N Se 
 1.0
 17.527899999999772   0.000000000000000   0.000000000000000
 -8.763949999999658  15.179606674993195   0.000000000000000
  0.000000000000001   0.000000000000002  15.000000000000000
 Al B N Se 
   1  48  48   1
Cartesian
  3.755980213596396   7.332904846230281   1.663246694791635 
  7.535809724485494  14.484202589346681   1.666350169202505 
 15.018871577452790   1.439976672181284   1.666411699221345 
 13.759324730428585   3.599969179681913   1.666351688080245 
 12.519945213587299   5.774599519597412   1.665855551707695 
 11.306049484509245   7.959342220490142   1.666463696311725 
 10.078670232124567  10.146495905300572   1.667068022458260 
  8.804775307122970  12.320374629339208   1.667343021175890 
 -7.496755919528058  14.482951589185104   1.665969072604200 
 -0.008319274548223   1.436599991540107   1.665152145167370 
 -1.286976082420355   3.592035587228714   1.664469316287375 
 -2.555173134998264   5.770288654298541   1.665017696304000 
 -3.794089057333893   7.959342220490142   1.666463696311725 
 -5.007984786403409  10.145455449333873   1.667167881739725 
 -6.244657481710826  12.320070172948199   1.667009417744850 
 -5.007984786403387  14.485951343689106   1.665322167126030 
  2.507664951273849   1.467255013094611   1.664662689068220 
  1.200895479144700   3.559475540435829   1.663348625881380 
 -0.102879964283787   5.755988097327141   1.663346484029115 
 -1.375301180666441   7.954690948727523   1.665056972398320 
 -2.566709804949448  10.146495905300572   1.667068022458260 
 -3.771312091096103  12.320070172948199   1.667009417744850 
 -2.519102665342793  14.482951589185104   1.665969072604200 
  5.004295475918680   1.467255013094611   1.664662689068220 
  3.755980213605034   3.645251444073629   1.663996707130545 
  2.322666531399571   5.692396063778999   1.663122704649585 
  1.024670935309364   7.946285652991774   1.661993373399630 
 -0.136631717236910  10.144419376702698   1.665100321727730 
 -1.292814879930519  12.320374629339208   1.667343021175890 
 -0.023849297292910  14.484202589346681   1.666350169202505 
  7.520279701740724   1.436599991540122   1.665152145167370 
  6.311064948047822   3.559475540435829   1.663348625881380 
  5.189293895810401   5.692396063778999   1.663122704649585 
  2.194252247496122  10.268046170953472   1.673057825536740 
  1.188929818884158  12.364530539116164   1.665227472479520 
  2.494631248423502  14.470978542847654   1.665784058738175 
 10.021018849721765   1.439976672181284   1.666411699221345 
  8.798936509612965   3.592035587228714   1.664469316287375 
  7.614840391476445   5.755988097327141   1.663346484029115 
  6.487289491883534   7.946285652991774   1.661993373399630 
  5.317708179696547  10.268046170953472   1.673057825536740 
  3.755980213596487  12.323262170656152   1.665773212329255 
  5.017329178769590  14.470978542847654   1.665784058738175 
 12.519945213587336   1.440590531328623   1.667115454502280 
 11.280565696745860   3.599969179681913   1.666351688080245 
 10.067133562190765   5.770288654298541   1.665017696304000 
  8.887261607841477   7.954690948727523   1.665056972398320 
  7.648592144429803  10.144419376702698   1.665100321727730 
  6.323030608308362  12.364530539116164   1.665227472479520 
  8.788893780857777  13.763838065586063   1.666531443897735 
 16.275987741494784   0.732604166742642   1.665968836204920 
 15.002076584781308   2.875809459278375   1.665645865967355 
 13.747577123270673   5.039468773149854   1.665466618037355 
 12.519954786406348   7.218866880538187   1.666065884274150 
 11.301222622931220   9.407479990382383   1.666912175720220 
 10.051157223056567  11.592728692056758   1.667269119496440 
 -6.249865201588026  13.762981110461194   1.665760291343970 
  1.258504424862942   0.743340244001965   1.664791537321335 
 -0.039224021144480   2.860789697193745   1.663532980272285 
 -1.323892665994749   5.029674772735869   1.663685406287565 
 -2.584498010362510   7.214135718201558   1.665266015737605 
 -3.789243050118348   9.407479990382383   1.666912175720220 
 -5.007975213584798  11.591180803222228   1.666817008779915 
 -3.766085225581207  13.762981110461194   1.665760291343970 
  3.755989786406245   0.748367499920490   1.664372008734150 
  2.500168128850158   2.911587797378821   1.663379252710545 
  1.126578712210886   4.968851001315477   1.662555239846655 
 -0.178602232418288   7.201741217604753   1.662993634122885 
 -1.358169585987697   9.405250017327095   1.665347820745995 
 -2.539177650243788  11.592728692056758   1.667269119496440 
 -1.276914208045000  13.763838065586063   1.666531443897735 
  6.253475147949480   0.743340244001965   1.664791537321335 
  5.011811443962337   2.911587797378837   1.663379252710545 
  3.755989786406242   5.118798555878858   1.663143292280145 
  2.126884564107116   7.076749995693021   1.660445704304865 
  1.058603350661556   9.396517791628547   1.664160642993930 
 -0.060972861340080  11.600803567758328   1.666236052417245 
  1.220272063843088  13.789396472807203   1.665210014353815 
  8.763921831299646   0.732604166742642   1.665968836204920 
  7.551203593956896   2.860789697193745   1.663532980272285 
  6.385400860601608   4.968851001315477   1.662555239846655 
  5.385095008705372   7.076749995693021   1.660445704304865 
  2.426359018972035  11.685968597040489   1.666174587442470 
  3.755989786397493  13.759315508028347   1.664860314727245 
 11.269792186353570   0.726861124268195   1.666570490307255 
 10.037832988013044   2.875809459278375   1.665645865967355 
  8.835872238807386   5.029674772735869   1.663685406287565 
  7.690581805230850   7.201741217604753   1.662993634122885 
  6.453376222133421   9.396517791628547   1.664160642993930 
  5.085620553823150  11.685968597040489   1.666174587442470 
  6.291707508969533  13.789396472807203   1.665210014353815 
 13.770117386440914   0.726861124268195   1.666570490307255 
 12.519954786406071   2.877713422135794   1.666942969929405 
 11.292332449541487   5.039468773149854   1.665466618037355 
 10.096477583192460   7.214135718201558   1.665266015737605 
  8.870149158800483   9.405250017327095   1.665347820745995 
  7.572952434152687  11.600803567758328   1.666236052417245 
  3.755989786397743   9.413839337116237   1.664300447950590 
