B Ge N                                  
   1.0000000000000000     
     8.7639499999999995  -15.1796066749929999    0.0000000000000000
     8.7639499999999995   15.1796066749929999    0.0000000000000000
     0.0000000000000000    0.0000000000000000   15.0000000000000000
   B    Ge   N 
    48     1    49
Selective dynamics
Direct
  0.9053336735549183  0.9528097194827444  0.1091734723281115   T   T   T
  0.9047237264877517  0.0952780202042103  0.1104223053507480   T   T   T
  0.9045596089623412  0.2381053676118059  0.1109494526605717   T   T   T
  0.9048553855066784  0.3811006400367191  0.1103865771423515   T   T   T
  0.9055718150964486  0.5241194868498753  0.1096229617687494   T   T   T
  0.9058708678393677  0.6672859434988354  0.1093840497032934   T   T   T
  0.9056134729678325  0.8100036141061606  0.1092575289318483   T   T   T
  0.0477649635825127  0.9522367597824920  0.1105810959498998   T   T   T
  0.0471919958592607  0.0946680469170822  0.1091734718551103   T   T   T
  0.0468944956156865  0.2375987470103182  0.1079536736155884   T   T   T
  0.0469730776352189  0.3809229245726553  0.1078710256956300   T   T   T
  0.0474804959953385  0.5240490570673876  0.1090987253647360   T   T   T
  0.0480479887726498  0.6669508110232791  0.1107068501183033   T   T   T
  0.0480445283823662  0.8096718970120382  0.1113452942790074   T   T   T
  0.1903298526809933  0.9519572347106454  0.1113452927530103   T   T   T
  0.1899980869298533  0.0943882397401984  0.1092575248078512   T   T   T
  0.1887641447345638  0.2362057768222843  0.1062033098732294   T   T   T
  0.1888150675739407  0.3803432758613995  0.1060030871543388   T   T   T
  0.1892274967443796  0.5239746218237623  0.1063266199121902   T   T   T
  0.1903966449331182  0.6668968512158874  0.1093364778401000   T   T   T
  0.1904975217562119  0.8095041727847887  0.1113397470514672   T   T   T
  0.3330509246817404  0.9519537350613581  0.1107068525323012   T   T   T
  0.3327157704781781  0.0941308720806315  0.1093840453262933   T   T   T
  0.3323598534619091  0.2368005961030266  0.1093296290514644   T   T   T
  0.3290619064509728  0.3775850043972656  0.1171917339980911   T   T   T
  0.3296698826540021  0.5230847193040258  0.1181217226384893   T   T   T
  0.3330284693564100  0.6669732334175610  0.1107392670019244   T   T   T
  0.3331048021040671  0.8096049839098772  0.1093364813731032   T   T   T
  0.4759526303516073  0.9525210849346460  0.1090987306757374   T   T   T
  0.4758822546560999  0.0944300075795615  0.1096229704617495   T   T   T
  0.4756222265244960  0.2359340335571689  0.1068072034562577   T   T   T
  0.4750386042446749  0.3763853516188673  0.1132440855768599   T   T   T
  0.4769170651289388  0.6703319746860152  0.1181217231524967   T   T   T
  0.4760270939662414  0.8107741903236372  0.1063266256491904   T   T   T
  0.6190788143993637  0.9530286067817886  0.1078710278026308   T   T   T
  0.6189010303113083  0.0951463017753378  0.1103865782283521   T   T   T
  0.6188487268215385  0.2372848739901685  0.1082463684540006   T   T   T
  0.6197466089738684  0.3802551252351412  0.1053845134482209   T   T   T
  0.6236162173511292  0.5249630629583306  0.1132440803188578   T   T   T
  0.6224166450577654  0.6709398172650215  0.1171917337110883   T   T   T
  0.6196584672986126  0.8111867018290655  0.1060030828063360   T   T   T
  0.7624029935176981  0.9531072239113118  0.1079536758415838   T   T   T
  0.7618963281491881  0.0954420675716725  0.1109494550635704   T   T   T
  0.7619291487009342  0.2380725564790577  0.1110093769074293   T   T   T
  0.7627169483938284  0.3811530286094563  0.1082463600470011   T   T   T
  0.7640677186188422  0.5243794562825493  0.1068071954922603   T   T   T
  0.7632010626679937  0.6676418270831040  0.1093296376794640   T   T   T
  0.7637958946017429  0.8112375719474424  0.1062033123472255   T   T   T
  0.4757321768607038  0.5242694786862501  0.1902521869334174   T   T   T
  0.9526279988904413  0.9048748107876833  0.1098156316345580   T   T   T
  0.9523512978139785  0.0476504194960295  0.1101092122958676   T   T   T
  0.9520683658911127  0.1904036983521129  0.1103262053340349   T   T   T
  0.9520518821033003  0.3333148141949301  0.1101882384068748   T   T   T
  0.9523951902815363  0.4762621251014498  0.1100541212402115   T   T   T
  0.9526819277238837  0.6192428820391296  0.1101227459407685   T   T   T
  0.9527785237226915  0.7620875712283064  0.1102445720920072   T   T   T
  0.0953130003097237  0.9046887521583007  0.1115458864449517   T   T   T
  0.0951268946503393  0.0473737199245705  0.1098156381315476   T   T   T
  0.0943416329487625  0.1896919125315607  0.1072117940794300   T   T   T
  0.0943523118258414  0.3329351695932288  0.1064905443593918   T   T   T
  0.0945279734839514  0.4761315401520764  0.1072016726615211   T   T   T
  0.0952791207475936  0.6191624913556704  0.1097856210476281   T   T   T
  0.0953715255577994  0.7619612000715049  0.1115572867186724   T   T   T
  0.2380405120894969  0.9046301852002147  0.1115572876106735   T   T   T
  0.2379141581487024  0.0472232452413167  0.1102445646690098   T   T   T
  0.2375999715580040  0.1897984050805359  0.1079066764841480   T   T   T
  0.2358125047506044  0.3313526197912490  0.1059742111449244   T   T   T
  0.2361147360884565  0.4758086893393436  0.1058952649213048   T   T   T
  0.2379923044361784  0.6191348244319260  0.1082818396664907   T   T   T
  0.2380598432139245  0.7619417909810724  0.1103542663936173   T   T   T
  0.3808391797473280  0.9047225050353914  0.1097856251976318   T   T   T
  0.3807588451478442  0.0473198231961314  0.1101227536887681   T   T   T
  0.3806912069139593  0.1899497078525893  0.1081010133004151   T   T   T
  0.3803816417491431  0.3326380979829131  0.1140864805452458   T   T   T
  0.3703623213039435  0.4703399686687368  0.1333527988379827   T   T   T
  0.3810027123244784  0.6189990856345496  0.1178717213702644   T   T   T
  0.3808669140570648  0.7620094024438355  0.1082818442874911   T   T   T
  0.5238701920759137  0.9054736220320554  0.1072016864395202   T   T   T
  0.5237395332475445  0.0476064714784851  0.1100541216852173   T   T   T
  0.5237212801363345  0.1897128591061225  0.1080848762796264   T   T   T
  0.5237496731834468  0.3315074762454395  0.1050393540948835   T   T   T
  0.5291173343577756  0.4708842622672618  0.1286724866656213   T   T   T
  0.5296616906142881  0.6296393608350651  0.1333528004159863   T   T   T
  0.5241930932736438  0.7638871202395415  0.1058952621053032   T   T   T
  0.6670666210188281  0.9056494356471313  0.1064905421463923   T   T   T
  0.6666868555360417  0.0479497721456800  0.1101882369388793   T   T   T
  0.6665687654000819  0.1904936589158996  0.1103864976165245   T   T   T
  0.6667551348943861  0.3332466756546297  0.1065853725572883   T   T   T
  0.6684941878865543  0.4762520428265710  0.1050393336958908   T   T   T
  0.6673635326611305  0.6196200527958631  0.1140864831802441   T   T   T
  0.6686490466627533  0.7641892527173978  0.1059742040139246   T   T   T
  0.8103097999844440  0.9056600820852624  0.1072117944554350   T   T   T
  0.8095980269248687  0.0479333431818866  0.1103262150210346   T   T   T
  0.8093870413899994  0.1906146133019818  0.1117579501724834   T   T   T
  0.8095080791920983  0.3334329197609006  0.1103864916765293   T   T   T
  0.8102890324489045  0.4762804743136735  0.1080848557686237   T   T   T
  0.8100520135144326  0.6193104971330134  0.1081010286534175   T   T   T
  0.8102032570134474  0.7624017202260039  0.1079066877801432   T   T   T

  0.00000000E+00  0.00000000E+00  0.00000000E+00
  0.00000000E+00  0.00000000E+00  0.00000000E+00
  0.00000000E+00  0.00000000E+00  0.00000000E+00
  0.00000000E+00  0.00000000E+00  0.00000000E+00
  0.00000000E+00  0.00000000E+00  0.00000000E+00
  0.00000000E+00  0.00000000E+00  0.00000000E+00
  0.00000000E+00  0.00000000E+00  0.00000000E+00
  0.00000000E+00  0.00000000E+00  0.00000000E+00
  0.00000000E+00  0.00000000E+00  0.00000000E+00
  0.00000000E+00  0.00000000E+00  0.00000000E+00
  0.00000000E+00  0.00000000E+00  0.00000000E+00
  0.00000000E+00  0.00000000E+00  0.00000000E+00
  0.00000000E+00  0.00000000E+00  0.00000000E+00
  0.00000000E+00  0.00000000E+00  0.00000000E+00
  0.00000000E+00  0.00000000E+00  0.00000000E+00
  0.00000000E+00  0.00000000E+00  0.00000000E+00
  0.00000000E+00  0.00000000E+00  0.00000000E+00
  0.00000000E+00  0.00000000E+00  0.00000000E+00
  0.00000000E+00  0.00000000E+00  0.00000000E+00
  0.00000000E+00  0.00000000E+00  0.00000000E+00
  0.00000000E+00  0.00000000E+00  0.00000000E+00
  0.00000000E+00  0.00000000E+00  0.00000000E+00
  0.00000000E+00  0.00000000E+00  0.00000000E+00
  0.00000000E+00  0.00000000E+00  0.00000000E+00
  0.00000000E+00  0.00000000E+00  0.00000000E+00
  0.00000000E+00  0.00000000E+00  0.00000000E+00
  0.00000000E+00  0.00000000E+00  0.00000000E+00
  0.00000000E+00  0.00000000E+00  0.00000000E+00
  0.00000000E+00  0.00000000E+00  0.00000000E+00
  0.00000000E+00  0.00000000E+00  0.00000000E+00
  0.00000000E+00  0.00000000E+00  0.00000000E+00
  0.00000000E+00  0.00000000E+00  0.00000000E+00
  0.00000000E+00  0.00000000E+00  0.00000000E+00
  0.00000000E+00  0.00000000E+00  0.00000000E+00
  0.00000000E+00  0.00000000E+00  0.00000000E+00
  0.00000000E+00  0.00000000E+00  0.00000000E+00
  0.00000000E+00  0.00000000E+00  0.00000000E+00
  0.00000000E+00  0.00000000E+00  0.00000000E+00
  0.00000000E+00  0.00000000E+00  0.00000000E+00
  0.00000000E+00  0.00000000E+00  0.00000000E+00
  0.00000000E+00  0.00000000E+00  0.00000000E+00
  0.00000000E+00  0.00000000E+00  0.00000000E+00
  0.00000000E+00  0.00000000E+00  0.00000000E+00
  0.00000000E+00  0.00000000E+00  0.00000000E+00
  0.00000000E+00  0.00000000E+00  0.00000000E+00
  0.00000000E+00  0.00000000E+00  0.00000000E+00
  0.00000000E+00  0.00000000E+00  0.00000000E+00
  0.00000000E+00  0.00000000E+00  0.00000000E+00
  0.00000000E+00  0.00000000E+00  0.00000000E+00
  0.00000000E+00  0.00000000E+00  0.00000000E+00
  0.00000000E+00  0.00000000E+00  0.00000000E+00
  0.00000000E+00  0.00000000E+00  0.00000000E+00
  0.00000000E+00  0.00000000E+00  0.00000000E+00
  0.00000000E+00  0.00000000E+00  0.00000000E+00
  0.00000000E+00  0.00000000E+00  0.00000000E+00
  0.00000000E+00  0.00000000E+00  0.00000000E+00
  0.00000000E+00  0.00000000E+00  0.00000000E+00
  0.00000000E+00  0.00000000E+00  0.00000000E+00
  0.00000000E+00  0.00000000E+00  0.00000000E+00
  0.00000000E+00  0.00000000E+00  0.00000000E+00
  0.00000000E+00  0.00000000E+00  0.00000000E+00
  0.00000000E+00  0.00000000E+00  0.00000000E+00
  0.00000000E+00  0.00000000E+00  0.00000000E+00
  0.00000000E+00  0.00000000E+00  0.00000000E+00
  0.00000000E+00  0.00000000E+00  0.00000000E+00
  0.00000000E+00  0.00000000E+00  0.00000000E+00
  0.00000000E+00  0.00000000E+00  0.00000000E+00
  0.00000000E+00  0.00000000E+00  0.00000000E+00
  0.00000000E+00  0.00000000E+00  0.00000000E+00
  0.00000000E+00  0.00000000E+00  0.00000000E+00
  0.00000000E+00  0.00000000E+00  0.00000000E+00
  0.00000000E+00  0.00000000E+00  0.00000000E+00
  0.00000000E+00  0.00000000E+00  0.00000000E+00
  0.00000000E+00  0.00000000E+00  0.00000000E+00
  0.00000000E+00  0.00000000E+00  0.00000000E+00
  0.00000000E+00  0.00000000E+00  0.00000000E+00
  0.00000000E+00  0.00000000E+00  0.00000000E+00
  0.00000000E+00  0.00000000E+00  0.00000000E+00
  0.00000000E+00  0.00000000E+00  0.00000000E+00
  0.00000000E+00  0.00000000E+00  0.00000000E+00
  0.00000000E+00  0.00000000E+00  0.00000000E+00
  0.00000000E+00  0.00000000E+00  0.00000000E+00
  0.00000000E+00  0.00000000E+00  0.00000000E+00
  0.00000000E+00  0.00000000E+00  0.00000000E+00
  0.00000000E+00  0.00000000E+00  0.00000000E+00
  0.00000000E+00  0.00000000E+00  0.00000000E+00
  0.00000000E+00  0.00000000E+00  0.00000000E+00
  0.00000000E+00  0.00000000E+00  0.00000000E+00
  0.00000000E+00  0.00000000E+00  0.00000000E+00
  0.00000000E+00  0.00000000E+00  0.00000000E+00
  0.00000000E+00  0.00000000E+00  0.00000000E+00
  0.00000000E+00  0.00000000E+00  0.00000000E+00
  0.00000000E+00  0.00000000E+00  0.00000000E+00
  0.00000000E+00  0.00000000E+00  0.00000000E+00
  0.00000000E+00  0.00000000E+00  0.00000000E+00
  0.00000000E+00  0.00000000E+00  0.00000000E+00
  0.00000000E+00  0.00000000E+00  0.00000000E+00
  0.00000000E+00  0.00000000E+00  0.00000000E+00
