 N C B 
 1.0
 17.527899999999772   0.000000000000000   0.000000000000000
 -8.763949999999658  15.179606674993195   0.000000000000000
  0.000000000000001   0.000000000000002  15.000000000000000
 N C B 
  47   4  46
Cartesian
  8.772823567300909  13.749694776404874   1.664532489544710 
 16.278782582066590   0.729810810855340   1.664696655694605 
 15.025899325153986   2.891993887337478   1.665339062045235 
 13.774209267210958   5.055949332348222   1.665430688867310 
 12.526017243152104   7.221980622498906   1.664608747469595 
 11.284798660202753   9.394244203696505   1.665431707427640 
 10.030766488692045  11.574124267800167   1.665478645404225 
 -6.255723004925906  13.739893998441595   1.664537095825440 
  1.255591897607016   0.731269384247747   1.664488978489695 
  0.003674184861965   2.895499557121029   1.664476079817795 
 -1.247590680971315   5.059868891664398   1.664124437210025 
 -2.501744465260266   7.222085528260438   1.665435468827520 
 -3.753980742123381   9.392435149247877   1.666095551545110 
 -5.002364928434154  11.566570311546593   1.664333316294930 
 -3.754706345728132  13.735795892109222   1.664655295501995 
  3.755793585784194   0.723549305327497   1.665316346751015 
  2.506244597811553   2.894984465818640   1.665839772264735 
  1.265807194794818   5.059868891664398   1.666445044653675 
  0.001703836499586   7.220706186213489   1.666251142112820 
 -1.264022783078984   9.391367431197011   1.665733487278200 
 -2.505303167004525  11.564972638257725   1.665553704424080 
 -1.253413662114253  13.736212375845032   1.665458190946605 
  6.259557534031818   0.723674172587057   1.665115418781195 
  5.004640272379438   2.881880201269643   1.666395653143875 
  3.779298643210907   5.044783853379723   1.665817630736445 
  2.507256761734336   7.221568616575383   1.665558148785645 
  1.217269440222807   9.391326679601709   1.665295628581020 
 -0.007469948143410  11.565855426940542   1.666010159609985 
  1.248352383523315  13.737325037987146   1.665191232834720 
  8.758654130025668   0.729912069415235   1.664522748863550 
  7.498110468156071   2.905048141707256   1.664799141327765 
  6.204228731230954   5.072654066481494   1.665980183490615 
  2.493509620341912  11.561774677212886   1.663725358441290 
  3.757711388809177  13.730928521060189   1.664152950765300 
 11.267322091028412   0.723901239753032   1.664813878102965 
 10.010572363779355   2.894062141167869   1.665381621544950 
  8.747103920321123   5.059868891664398   1.665409261871880 
  7.515022257460391   7.242754023871060   1.664352212430330 
  6.320672456501313   9.533799031556967   1.666611127807410 
  5.017415621606817  11.569296985266444   1.664819045037690 
  6.264862714080919  13.742174978617447   1.663980966428010 
 13.772055418525023   0.724058970598770   1.664737490987490 
 12.519766800603694   2.890404356157610   1.665185776521195 
 11.265784540183315   5.055755120435944   1.665354627894120 
 10.026432050984297   7.223476075710030   1.665169045923225 
  8.806302066512416   9.399718289128781   1.665733169824140 
  7.537315851642392  11.592320624714509   1.665895203732870 
  4.996438756636925   5.773107804850527   1.668789071714115 
  3.738575639217148   7.920620217009818   1.666123920533310 
  4.894037461264256   7.116311840287866   1.671247805189745 
  3.750071858103582   9.303631074590202   1.658890545862335 
  7.514282825206235  14.460059721970039   1.664512650204975 
 15.023519393718450   1.445632866728288   1.665377073901830 
 13.770303865147053   3.612824493103283   1.665549772401495 
 12.514395685673469   5.778687669327581   1.665183375504810 
 11.263103981287955   7.942985259638314   1.665211291925130 
 10.028920415095026  10.115749447149852   1.666182876377910 
  8.777568566198134  12.299044410073540   1.665650569790535 
 -7.507814755233448  14.463413114239048   1.664740501176825 
  0.001499224656331   1.449290073742568   1.664723048462505 
 -1.250720869948600   3.613981002572630   1.664695313226555 
 -2.503312023830135   5.778521740039257   1.665283455755475 
 -3.757679031372308   7.945144573218297   1.665591113713140 
 -5.006575333185481  10.115581424007608   1.665549313939185 
 -6.256250036898074  12.289490697649565   1.664777542475625 
 -5.007267013349056  14.457021728759427   1.664886071120835 
  2.506350926808435   1.448362855626860   1.665530929016070 
  1.255765874998211   3.616587581790885   1.665700648073475 
  0.007009989311593   5.780101900564142   1.665727369458210 
 -1.252833524573931   7.945923859581076   1.666302829993515 
 -2.512290976949622  10.119737783328796   1.666172870739420 
 -3.756313810591200  12.287729979386143   1.664867448720270 
 -2.504847792814374  14.458261425710466   1.665226296173265 
  5.010093248984188   1.442001725430316   1.666059682998060 
  3.763060718272099   3.601925427314925   1.666534003446120 
  2.523016752995416   5.780533376460374   1.666239475166310 
  1.248238618612957   7.957725075921752   1.665963928563435 
 -0.018716703260780  10.119737783328796   1.666542606683415 
 -1.252373402833511  12.288912147084700   1.666175802081705 
 -0.000522263503054  14.462179743792673   1.665140299247625 
  7.507181167475820   1.460571615423046   1.664935231381650 
  6.242801651615743   3.632266355906981   1.666135262561085 
  2.480592177539863  10.100423271957792   1.662163508297760 
  1.254515077818581  12.285868324786877   1.665636332283300 
  2.506002061264406  14.453944045500434   1.664899589047230 
 10.013328209162058   1.452177713212368   1.664971292118810 
  8.755257008498491   3.634356637437572   1.665523152036495 
  7.489626358848664   5.865542754210263   1.665295399800810 
  5.046843239253517  10.084688681619518   1.663344770352180 
  3.761265427957980  12.270725214699800   1.664192263501350 
  5.008945116834445  14.452548806127650   1.664256630358110 
 12.518791520949073   1.445517687344839   1.665234441115920 
 11.262891839626580   3.617007171076311   1.665698955066900 
  9.999287106231758   5.786597758616435   1.665530402909490 
  8.725967659706761   7.930148276520767   1.665430084857210 
  7.572281859435165  10.124267161772433   1.666383578082600 
  6.268137195125380  12.285126211146865   1.665038007337665 
