 N B O 
 1.0
 14.936314146199660   0.000000000000000   0.000000000000000
 -7.468157073099825  12.935227489513863   0.000000000000000
  0.000000000000001   0.000000000000001  13.341276283792837
 N B O 
 143 143   1
Cartesian
  1.242213460589637   0.717340723745610   1.660952541577779 
  4.976370318662486   7.184646135036163   1.681364750368208 
  6.221527238023956   0.717416827341302   1.660733301014988 
  9.955310916678535   7.184919479454225   1.657360905447465 
 11.199882071045311   0.717264933271004   1.654244152119196 
 -3.736132330942135   9.340922983687019   8.349915860771718 
  1.242679125561058   9.341034721295506   8.345223911832202 
  2.486840368317298   2.873095777297664   8.329065689914858 
  6.221045539203209   9.340736011148367   8.344489346448643 
  7.465987861254097   2.873076219021212   8.341486950853538 
 12.444462813887737   2.873009976076706   8.350093300770382 
 -1.246583743180400   9.340933612970234   1.657163769144492 
 -0.002547280675793   2.873024324486089   1.663727239536969 
  4.976801504400916   2.873089967395130   1.677262084952026 
  3.731765232279092   9.340939539179386   1.664470261987488 
  8.710592560660899   9.340834913190569   1.657360905447465 
  9.955241388149656   2.873101854758830   1.656109298361075 
 -4.980977607313391  11.496847105105132   8.348476305914433 
 -0.001870087687113  11.496900295038987   8.350211959234230 
  1.242208423768576   5.028861541979316   8.329065689914858 
  6.220885538442627   5.029082543584198   8.324592462475939 
  4.976414196923857  11.496683512067420   8.349847914482245 
 11.199925531612472   5.028937471577856   8.349734977670813 
 -1.247043670806989   5.028860548427751   1.660952541577779 
 -2.491348831831083  11.496929990001208   1.657163769144492 
  2.487244683367365  11.496829247250936   1.655866931679351 
  3.731965979013844   5.029146560262935   1.676273911488953 
  7.465764679199163  11.496693791592458   1.656222235173068 
  8.710451754269453   5.028957965975866   1.661467866393662 
 -0.002074552542119   7.184924663367315   8.340549378552200 
  1.242213460589637   0.717340723745611   8.345004671267969 
  4.976370318662487   7.184646135036164   8.324592462475939 
  6.221527238023957   0.717416827341303   8.345223911832202 
  9.955310916678535   7.184919479454226   8.348596307392333 
 -2.491469911337208   7.184893289840617   1.657480906919882 
 11.199882071045311   0.717264933271005   8.351713060723952 
  3.731904315453834   0.717483549609757   1.665407834292241 
  2.487183960289954   7.185234045212576   1.677262084952493 
  7.465729124909062   7.184835717627621   1.665291774788581 
  8.710782841738421   0.717344954108550   1.655866931679258 
  2.487183960289955   7.185234045212577   8.328695127899431 
 13.689102413619480   0.717230952229122   1.655863912074659 
 -1.246583743180400   9.340933612970234   8.348793443695559 
 -0.002547280675792   2.873024324486090   8.342229973303763 
  4.976801504400917   2.873089967395131   8.328695127899431 
  3.731765232279093   9.340939539179386   8.341486950853538 
  8.710592560660796   9.340834913190569   8.348596307392333 
  9.955241388149656   2.873101854758831   8.349847914482245 
 -3.736132330942135   9.340922983687019   1.656041352071562 
  1.242679125564030   9.341034721290358   1.660733301014988 
  2.486840368317297   2.873095777297663   1.676891522928357 
  6.221045539203208   9.340736011148367   1.661467866393662 
  7.465987861254096   2.873076219021212   1.664470261987488 
 12.444462813887737   2.873009976076705   1.655863912074659 
 -1.247043670806988   5.028860548427752   8.345004671267969 
 -2.491348831831135  11.496929990001298   8.348793443695559 
  2.487244683367365  11.496829247250936   8.350090281163835 
  3.731965979013845   5.029146560262935   8.329683301354153 
  7.465764679199164  11.496693791592458   8.349734977670813 
 -4.980977607313392  11.496847105105132   1.657480906919882 
  8.710451754269453   5.028957965975867   8.344489346448738 
 -0.001870087687114  11.496900295038987   1.655745253610185 
  1.242208423768575   5.028861541979315   1.676891522928357 
 -0.002074552542119   7.184924663367314   1.665407834292241 
  6.220885538442626   5.029082543584197   1.681364750368315 
  4.976414196923856  11.496683512067420   1.656109298361075 
 11.199925531612472   5.028937471577855   1.656222235173068 
 -2.491469911337208   7.184893289840618   8.348476305914433 
  3.731904315453834   0.717483549609758   8.340549378552200 
  7.465729124909063   7.184835717627622   8.340665438050538 
  8.710782841738421   0.717344954108551   8.350090281163835 
 13.689102413619480   0.717230952229122   8.350093300770382 
 -0.005943767475277   1.432075852001344   5.002978606422314 
  3.745562157378969   7.888610979830572   5.002978606422314 
  4.991659165168663   1.412824820225913   5.002978606422314 
  8.721039419832776   7.909589454322368   5.002978606422314 
  9.956367106523620   1.437363783376783   5.002978606422314 
 -4.974536886743069  10.063169053492942  11.673616748318732 
  0.004240593371605  10.063171866196612  11.673616748318732 
  1.248886535954858   3.595539975389586  11.673616748318732 
  4.983048173308373  10.063120827456968  11.673616748318732 
  6.227638494431559   3.595662124143874  11.673616748318732 
 11.206452338399947   3.595641197149532  11.673616748318732 
 -2.490748960049805  10.059945408110716   5.002978606422314 
 -1.252143506789884   3.590557116873167   5.002978606422314 
  3.735735847611009   3.530018687221794   5.002978606422314 
  2.493792972508631  10.057641742403998   5.002978606422314 
  7.471887515591659  10.062255293183712   5.002978606422314 
  8.712511837144088   3.595503710527207   5.002978606422314 
 -6.219213463604271  12.218985600273580  11.673616748318732 
 -1.240459988667644  12.219056514499160  11.673616748318732 
  0.004165765014222   5.751445997115325  11.673616748318732 
  4.983056167055109   5.751463817106079  11.673616748318732 
  3.738319982440603  12.219012449212640  11.673616748318732 
  9.961795405865679   5.751496220584303  11.673616748318732 
 -2.500375889058191   5.750458103610740   5.002978606422314 
 -3.734371265055613  12.208514448579781   5.002978606422314 
  1.245897771077744  12.217299404195625   5.002978606422314 
  2.435568091740431   5.781975298752276   5.002978606422314 
  6.221008326321916  12.213830045900115   5.002978606422314 
  7.487279048714903   5.756043607184555   5.002978606422314 
 -1.240500251921244   7.907327045702401  11.673616748318732 
  0.004202669441867   1.439625334020896  11.673616748318732 
  3.738368299113680   7.907204576201374  11.673616748318732 
  4.982959314125451   1.439718753113524  11.673616748318732 
  8.717125834523266   7.907329944795840  11.673616748318732 
 -3.734360428430931   7.906860725322606   5.002978606422314 
  9.961749490358345   1.439716344175657  11.673616748318732 
  2.475901547724761   1.411781371372690   5.002978606422314 
  1.229986076966819   7.928233730456077   5.002978606422314 
  6.239133822438923   7.917894554319120   5.002978606422314 
  7.467684046307941   1.442609691270213   5.002978606422314 
  1.248926980531390   7.907252472003460  11.673616748318732 
 12.443136094065876   1.435057978132448   5.002978606422314 
 -2.485160377485716  10.063171977752239  11.673616748318732 
 -1.240532245118938   3.595569447995130  11.673616748318732 
  3.738286577541637   3.595566389824911  11.673616748318732 
  2.493630178047193  10.063113145995164  11.673616748318732 
  7.472453848692102  10.063162275001597  11.673616748318732 
  8.717056673552813   3.595628389139487  11.673616748318732 
 -4.977180726030503  10.059488625442949   5.002978606422314 
 -0.004452251958452  10.067102117185927   5.002978606422314 
  1.238689543741771   3.589652739185916   5.002978606422314 
  4.980667780255982  10.059247222981412   5.002978606422314 
  6.215132896758814   3.611188986339211   5.002978606422314 
 11.198605569385043   3.592378721299948   5.002978606422314 
 -2.485197557624132   5.751480334845600  11.673616748318732 
 -3.729846792481938  12.219001731599374  11.673616748318732 
  1.248909039501476  12.219037960832404  11.673616748318732 
  2.493609432317892   5.751410444372237  11.673616748318732 
  6.227757097785319  12.218994309295486  11.673616748318732 
 -6.227687907541189  12.206351895285442   5.002978606422314 
  7.472389296599299   5.751479441914662  11.673616748318732 
 -1.241402714133341  12.209563164118654   5.002978606422314 
 -0.028796384967767   5.750045448408912   5.002978606422314 
 -1.251844741718627   7.908652379022767   5.002978606422314 
  3.733591413114428  12.215527448466229   5.002978606422314 
  9.960726770022008   5.751459252638475   5.002978606422314 
 -3.729851164600997   7.907310143287661  11.673616748318732 
  2.493595533472148   1.439627156271741  11.673616748318732 
  6.227736263313616   7.907281733360195  11.673616748318732 
  7.472341023576360   1.439733005344383  11.673616748318732 
 12.451149195598203   1.439684344454067  11.673616748318732 
  1.241251862135452   0.710131028224851   5.002978606422314 
  5.003042087193878   7.173041599918933   5.002978606422314 
  6.225257810664153   0.711695577404285   5.002978606422314 
  9.961176229681891   7.187807514875420   5.002978606422314 
 11.200279687024793   0.717494496964318   5.002978606422314 
 -3.729774153250871   9.344593879288507  11.673616748318732 
  1.249004229433011   9.343898200533094  11.673616748318732 
  2.493875175087751   2.877466689576714  11.673616748318732 
  6.227579902676093   9.344202822368077  11.673616748318732 
  7.471664607518512   2.877250317407042  11.673616748318732 
 12.451533133705263   2.877169647976286  11.673616748318732 
 -1.245805016620858   9.342863914384997   5.002978606422314 
  0.005086056279524   2.877431433633014   5.002978606422314 
  4.951386140997117   2.868150814575662   5.002978606422314 
  3.739462227635310   9.322168218904769   5.002978606422314 
  8.716026329198240   9.344470405552451   5.002978606422314 
  9.953795030186871   2.875273277503224   5.002978606422314 
 -4.974455109708438  11.500717853814143  11.673616748318732 
  0.004084739733031  11.500338316265973  11.673616748318732 
  1.249511148228413   5.032768407208104  11.673616748318732 
  6.226910781777016   5.032810402289542  11.673616748318732 
  4.983100012656668  11.500194967127907  11.673616748318732 
 11.206649002863221   5.032948094130218  11.673616748318732 
 -1.253768249509349   5.031632627499850   5.002978606422314 
 -2.489287778482967  11.496639236266255   5.002978606422314 
  2.490519310553110  11.492957302046266   5.002978606422314 
  7.467154400076203  11.496242431737139   5.002978606422314 
  8.719300247189278   5.031845005895707   5.002978606422314 
  0.004639803753068   7.188275356071165  11.673616748318732 
  1.249272176374320   0.721542011440793  11.673616748318732 
  4.982611360667934   7.188000219479210  11.673616748318732 
  6.227169635716799   0.721462788367750  11.673616748318732 
  9.961745702683164   7.188675094420446  11.673616748318732 
 -2.490825871496968   7.186790249126695   5.002978606422314 
 11.206524850227547   0.721100143618182  11.673616748318732 
  3.732272956530609   0.716013343785766   5.002978606422314 
  2.470198846771646   7.165693271268559   5.002978606422314 
  7.478200985638780   7.192036349789862   5.002978606422314 
  8.709066952424857   0.722116837036695   5.002978606422314 
  2.493686895750233   7.187772309813254  11.673616748318732 
 13.690607093768808   0.717880992778349   5.002978606422314 
 -1.240316255319329   9.344370610327514  11.673616748318732 
  0.004896348926558   2.877321906040522  11.673616748318732 
  4.982251173759420   2.877452542400353  11.673616748318732 
  3.738218480645469   9.343768696472438  11.673616748318732 
  8.717062411630586   9.344529793855568  11.673616748318732 
  9.961625305300343   2.877136213500450  11.673616748318732 
 -3.733322215245223   9.342545404739077   5.002978606422314 
  1.239589664095531   9.347126116938952   5.002978606422314 
  2.509618903589725   2.872526040886467   5.002978606422314 
  6.227970035577138   9.346955510839285   5.002978606422314 
  7.453579918709281   2.889127672674200   5.002978606422314 
 12.445778105592366   2.873988047034516   5.002978606422314 
 -1.239875891040706   5.032872931765527  11.673616748318732 
 -2.485238560873007  11.500639295022284  11.673616748318732 
  2.493528009389069  11.500064869383420  11.673616748318732 
  3.737952999850275   5.032603168351923  11.673616748318732 
  7.472599715846873  11.500511177208924  11.673616748318732 
 -4.979012772463198  11.496456380324272   5.002978606422314 
  8.716721282590772   5.032883485133716  11.673616748318732 
 -0.000102094223351  11.497921046557178   5.002978606422314 
  1.253104285203271   5.048873200384837   5.002978606422314 
 -0.003163467602067   7.185979018827011   5.002978606422314 
  6.224171600492904   5.057983240262968   5.002978606422314 
  4.977571525203974  11.494345217952141   5.002978606422314 
 11.200229502947952   5.030366685092812   5.002978606422314 
 -2.484856495825529   7.188606564115863  11.673616748318732 
  3.738163278593940   0.721623006395629  11.673616748318732 
  7.472061737363037   7.188491853125284  11.673616748318732 
  8.716726635717711   0.721168662989292  11.673616748318732 
 13.696239955065696   0.721274192852443  11.673616748318732 
 -0.001554830542524   1.437151425535014   1.663741295183338 
  3.730411866931728   7.901542212737573   1.681398351571856 
  4.975977515976089   1.438373487423511   1.673773821884329 
  8.709824644736161   7.903114600903366   1.661618714478469 
  9.955033404276461   1.435936961549883   1.657427264255070 
 -4.980887307694130  10.060096299993866   8.347394724788142 
 -0.001161695070655  10.059139434284086   8.345583048148333 
  1.244423099815876   3.592963009333198   8.324228866048834 
  4.975605980582036  10.058639052399291   8.342586238557093 
  6.218756527740348   3.591602833474271   8.324558861269649 
 11.200199632611159   3.591573401438541   8.347822956702405 
 -2.490773324597817  10.059931341231319   1.658630252164519 
 -1.245553462707156   3.591820260990359   1.663741295183338 
  3.731158194544113   3.594808333927947   1.699675731938039 
  2.487266829710770  10.058521542854161   1.663474388444751 
  7.465244308555065  10.059392653242462   1.660072766507757 
  8.709454246132074   3.591424148713652   1.663370974288962 
 -6.225592086769402  12.216775834280996   8.345213480280817 
 -1.246653321368720  12.216394211437429   8.345583048148333 
  0.000437275254549   5.746649039863283   8.331652689458890 
  4.972014281721669   5.745088781636456   8.315740519459803 
  3.731688898037734  12.215085839360080   8.348529948591919 
  9.954926047591684   5.747137386554571   8.345884446338392 
 -2.490300582692365   5.747061168139151   1.660743732571335 
 -3.736101612615284  12.217302733680624   1.662825157486248 
  1.242584595110272  12.215386541160882   1.658015404220222 
  2.489388745155872   5.745616111555225   1.699675731938039 
  6.221107930474186  12.215613205084439   1.658134256145904 
  7.463693754841040   5.746577040883653   1.671944337263669 
 -1.245099037350002   7.902759711536212   8.343132055359741 
 -0.001554830542523   1.437151425535015   8.342215917662877 
  3.730411866931729   7.901542212737573   8.324558861269463 
  4.975977515976090   1.438373487423512   8.332183390967304 
  8.709824644736161   7.903114600903367   8.344338498366360 
 -3.735687457661707   7.903346894160546   1.658562488063623 
  9.955033404276401   1.435936961549987   8.348529948592013 
  2.487577001747367   1.438796668054731   1.674304523387258 
  1.244271047189786   7.901878690294875   1.673773821884329 
  6.219142888599317   7.902202373818191   1.671944337263669 
  7.465182904450293   1.436517985591235   1.663474388444751 
  1.244271047189786   7.901878690294875   8.332183390967304 
 12.444938843533640   1.436098796021622   1.657627466486581 
 -2.490773324597817  10.059931341231319   8.347326960688394 
 -1.245553462707275   3.591820260990360   8.342215917662877 
  3.731158194544114   3.594808333927948   8.306281480902520 
  2.487266829710771  10.058521542854161   8.342482824397141 
  7.465244308555066  10.059392653242462   8.345884446338392 
  8.709454246132074   3.591424148713652   8.342586238557093 
 -4.980887307694131  10.060096299993866   1.658562488063623 
 -0.001161695070656  10.059139434284086   1.660374164697923 
  1.244423099815876   3.592963009333197   1.681728346798329 
  4.975605980582035  10.058639052399291   1.663370974288962 
  6.218756527740347   3.591602833474270   1.681398351571856 
 11.200199632611159   3.591573401438540   1.658134256145904 
 -2.490300582692365   5.747061168139152   8.345213480280817 
 -3.736101612615284  12.217302733680624   8.343132055359741 
  1.242584595110257  12.215386541160882   8.347941808626301 
  2.489388745155872   5.745616111555226   8.306281480902520 
  6.221107930474187  12.215613205084439   8.347822956702405 
 -6.225592086769403  12.216775834280996   1.660743732571335 
  7.463693754842901   5.746577040880434   8.334012875570739 
 -1.246653321371012  12.216394211437519   1.660374164697923 
  0.000437275254549   5.746649039863282   1.674304523387258 
 -1.245099037350002   7.902759711536211   1.662825157486248 
  4.972014281721668   5.745088781636455   1.690216693384837 
  3.731688898037733  12.215085839360080   1.657427264255070 
  9.954926047591684   5.747137386554570   1.660072766507757 
 -3.735687457661706   7.903346894160547   8.347394724788142 
  2.487577001747368   1.438796668054731   8.331652689458890 
  6.219142888599317   7.902202373818192   8.334012875570739 
  7.465182904450294   1.436517985591236   8.342482824397141 
 12.444938843533640   1.436098796021623   8.348329746358061 
  5.097864737269704   5.817748576024623   5.002978606422314 
Generated by cif2cell 2.0.0.  :  Failed to get author information, No journal information. Species order: N B O 
 1.0
 14.936314146199660   0.000000000000000   0.000000000000000
 -7.468157073099825  12.935227489513863   0.000000000000000
  0.000000000000001   0.000000000000001  13.341276283792837
 N B O 
 143 143   1
Cartesian
  1.242213460589637   0.717340723745610   1.660952541577779 
  4.976370318662486   7.184646135036163   1.681364750368208 
  6.221527238023956   0.717416827341302   1.660733301014988 
  9.955310916678535   7.184919479454225   1.657360905447465 
 11.199882071045311   0.717264933271004   1.654244152119196 
 -3.736132330942135   9.340922983687019   8.349915860771718 
  1.242679125561058   9.341034721295506   8.345223911832202 
  2.486840368317298   2.873095777297664   8.329065689914858 
  6.221045539203209   9.340736011148367   8.344489346448643 
  7.465987861254097   2.873076219021212   8.341486950853538 
 12.444462813887737   2.873009976076706   8.350093300770382 
 -1.246583743180400   9.340933612970234   1.657163769144492 
 -0.002547280675793   2.873024324486089   1.663727239536969 
  4.976801504400916   2.873089967395130   1.677262084952026 
  3.731765232279092   9.340939539179386   1.664470261987488 
  8.710592560660899   9.340834913190569   1.657360905447465 
  9.955241388149656   2.873101854758830   1.656109298361075 
 -4.980977607313391  11.496847105105132   8.348476305914433 
 -0.001870087687113  11.496900295038987   8.350211959234230 
  1.242208423768576   5.028861541979316   8.329065689914858 
  6.220885538442627   5.029082543584198   8.324592462475939 
  4.976414196923857  11.496683512067420   8.349847914482245 
 11.199925531612472   5.028937471577856   8.349734977670813 
 -1.247043670806989   5.028860548427751   1.660952541577779 
 -2.491348831831083  11.496929990001208   1.657163769144492 
  2.487244683367365  11.496829247250936   1.655866931679351 
  3.731965979013844   5.029146560262935   1.676273911488953 
  7.465764679199163  11.496693791592458   1.656222235173068 
  8.710451754269453   5.028957965975866   1.661467866393662 
 -0.002074552542119   7.184924663367315   8.340549378552200 
  1.242213460589637   0.717340723745611   8.345004671267969 
  4.976370318662487   7.184646135036164   8.324592462475939 
  6.221527238023957   0.717416827341303   8.345223911832202 
  9.955310916678535   7.184919479454226   8.348596307392333 
 -2.491469911337208   7.184893289840617   1.657480906919882 
 11.199882071045311   0.717264933271005   8.351713060723952 
  3.731904315453834   0.717483549609757   1.665407834292241 
  2.487183960289954   7.185234045212576   1.677262084952493 
  7.465729124909062   7.184835717627621   1.665291774788581 
  8.710782841738421   0.717344954108550   1.655866931679258 
  2.487183960289955   7.185234045212577   8.328695127899431 
 13.689102413619480   0.717230952229122   1.655863912074659 
 -1.246583743180400   9.340933612970234   8.348793443695559 
 -0.002547280675792   2.873024324486090   8.342229973303763 
  4.976801504400917   2.873089967395131   8.328695127899431 
  3.731765232279093   9.340939539179386   8.341486950853538 
  8.710592560660796   9.340834913190569   8.348596307392333 
  9.955241388149656   2.873101854758831   8.349847914482245 
 -3.736132330942135   9.340922983687019   1.656041352071562 
  1.242679125564030   9.341034721290358   1.660733301014988 
  2.486840368317297   2.873095777297663   1.676891522928357 
  6.221045539203208   9.340736011148367   1.661467866393662 
  7.465987861254096   2.873076219021212   1.664470261987488 
 12.444462813887737   2.873009976076705   1.655863912074659 
 -1.247043670806988   5.028860548427752   8.345004671267969 
 -2.491348831831135  11.496929990001298   8.348793443695559 
  2.487244683367365  11.496829247250936   8.350090281163835 
  3.731965979013845   5.029146560262935   8.329683301354153 
  7.465764679199164  11.496693791592458   8.349734977670813 
 -4.980977607313392  11.496847105105132   1.657480906919882 
  8.710451754269453   5.028957965975867   8.344489346448738 
 -0.001870087687114  11.496900295038987   1.655745253610185 
  1.242208423768575   5.028861541979315   1.676891522928357 
 -0.002074552542119   7.184924663367314   1.665407834292241 
  6.220885538442626   5.029082543584197   1.681364750368315 
  4.976414196923856  11.496683512067420   1.656109298361075 
 11.199925531612472   5.028937471577855   1.656222235173068 
 -2.491469911337208   7.184893289840618   8.348476305914433 
  3.731904315453834   0.717483549609758   8.340549378552200 
  7.465729124909063   7.184835717627622   8.340665438050538 
  8.710782841738421   0.717344954108551   8.350090281163835 
 13.689102413619480   0.717230952229122   8.350093300770382 
 -0.005943767475277   1.432075852001344   5.002978606422314 
  3.745562157378969   7.888610979830572   5.002978606422314 
  4.991659165168663   1.412824820225913   5.002978606422314 
  8.721039419832776   7.909589454322368   5.002978606422314 
  9.956367106523620   1.437363783376783   5.002978606422314 
 -4.974536886743069  10.063169053492942  11.673616748318732 
  0.004240593371605  10.063171866196612  11.673616748318732 
  1.248886535954858   3.595539975389586  11.673616748318732 
  4.983048173308373  10.063120827456968  11.673616748318732 
  6.227638494431559   3.595662124143874  11.673616748318732 
 11.206452338399947   3.595641197149532  11.673616748318732 
 -2.490748960049805  10.059945408110716   5.002978606422314 
 -1.252143506789884   3.590557116873167   5.002978606422314 
  3.735735847611009   3.530018687221794   5.002978606422314 
  2.493792972508631  10.057641742403998   5.002978606422314 
  7.471887515591659  10.062255293183712   5.002978606422314 
  8.712511837144088   3.595503710527207   5.002978606422314 
 -6.219213463604271  12.218985600273580  11.673616748318732 
 -1.240459988667644  12.219056514499160  11.673616748318732 
  0.004165765014222   5.751445997115325  11.673616748318732 
  4.983056167055109   5.751463817106079  11.673616748318732 
  3.738319982440603  12.219012449212640  11.673616748318732 
  9.961795405865679   5.751496220584303  11.673616748318732 
 -2.500375889058191   5.750458103610740   5.002978606422314 
 -3.734371265055613  12.208514448579781   5.002978606422314 
  1.245897771077744  12.217299404195625   5.002978606422314 
  2.435568091740431   5.781975298752276   5.002978606422314 
  6.221008326321916  12.213830045900115   5.002978606422314 
  7.487279048714903   5.756043607184555   5.002978606422314 
 -1.240500251921244   7.907327045702401  11.673616748318732 
  0.004202669441867   1.439625334020896  11.673616748318732 
  3.738368299113680   7.907204576201374  11.673616748318732 
  4.982959314125451   1.439718753113524  11.673616748318732 
  8.717125834523266   7.907329944795840  11.673616748318732 
 -3.734360428430931   7.906860725322606   5.002978606422314 
  9.961749490358345   1.439716344175657  11.673616748318732 
  2.475901547724761   1.411781371372690   5.002978606422314 
  1.229986076966819   7.928233730456077   5.002978606422314 
  6.239133822438923   7.917894554319120   5.002978606422314 
  7.467684046307941   1.442609691270213   5.002978606422314 
  1.248926980531390   7.907252472003460  11.673616748318732 
 12.443136094065876   1.435057978132448   5.002978606422314 
 -2.485160377485716  10.063171977752239  11.673616748318732 
 -1.240532245118938   3.595569447995130  11.673616748318732 
  3.738286577541637   3.595566389824911  11.673616748318732 
  2.493630178047193  10.063113145995164  11.673616748318732 
  7.472453848692102  10.063162275001597  11.673616748318732 
  8.717056673552813   3.595628389139487  11.673616748318732 
 -4.977180726030503  10.059488625442949   5.002978606422314 
 -0.004452251958452  10.067102117185927   5.002978606422314 
  1.238689543741771   3.589652739185916   5.002978606422314 
  4.980667780255982  10.059247222981412   5.002978606422314 
  6.215132896758814   3.611188986339211   5.002978606422314 
 11.198605569385043   3.592378721299948   5.002978606422314 
 -2.485197557624132   5.751480334845600  11.673616748318732 
 -3.729846792481938  12.219001731599374  11.673616748318732 
  1.248909039501476  12.219037960832404  11.673616748318732 
  2.493609432317892   5.751410444372237  11.673616748318732 
  6.227757097785319  12.218994309295486  11.673616748318732 
 -6.227687907541189  12.206351895285442   5.002978606422314 
  7.472389296599299   5.751479441914662  11.673616748318732 
 -1.241402714133341  12.209563164118654   5.002978606422314 
 -0.028796384967767   5.750045448408912   5.002978606422314 
 -1.251844741718627   7.908652379022767   5.002978606422314 
  3.733591413114428  12.215527448466229   5.002978606422314 
  9.960726770022008   5.751459252638475   5.002978606422314 
 -3.729851164600997   7.907310143287661  11.673616748318732 
  2.493595533472148   1.439627156271741  11.673616748318732 
  6.227736263313616   7.907281733360195  11.673616748318732 
  7.472341023576360   1.439733005344383  11.673616748318732 
 12.451149195598203   1.439684344454067  11.673616748318732 
  1.241251862135452   0.710131028224851   5.002978606422314 
  5.003042087193878   7.173041599918933   5.002978606422314 
  6.225257810664153   0.711695577404285   5.002978606422314 
  9.961176229681891   7.187807514875420   5.002978606422314 
 11.200279687024793   0.717494496964318   5.002978606422314 
 -3.729774153250871   9.344593879288507  11.673616748318732 
  1.249004229433011   9.343898200533094  11.673616748318732 
  2.493875175087751   2.877466689576714  11.673616748318732 
  6.227579902676093   9.344202822368077  11.673616748318732 
  7.471664607518512   2.877250317407042  11.673616748318732 
 12.451533133705263   2.877169647976286  11.673616748318732 
 -1.245805016620858   9.342863914384997   5.002978606422314 
  0.005086056279524   2.877431433633014   5.002978606422314 
  4.951386140997117   2.868150814575662   5.002978606422314 
  3.739462227635310   9.322168218904769   5.002978606422314 
  8.716026329198240   9.344470405552451   5.002978606422314 
  9.953795030186871   2.875273277503224   5.002978606422314 
 -4.974455109708438  11.500717853814143  11.673616748318732 
  0.004084739733031  11.500338316265973  11.673616748318732 
  1.249511148228413   5.032768407208104  11.673616748318732 
  6.226910781777016   5.032810402289542  11.673616748318732 
  4.983100012656668  11.500194967127907  11.673616748318732 
 11.206649002863221   5.032948094130218  11.673616748318732 
 -1.253768249509349   5.031632627499850   5.002978606422314 
 -2.489287778482967  11.496639236266255   5.002978606422314 
  2.490519310553110  11.492957302046266   5.002978606422314 
  7.467154400076203  11.496242431737139   5.002978606422314 
  8.719300247189278   5.031845005895707   5.002978606422314 
  0.004639803753068   7.188275356071165  11.673616748318732 
  1.249272176374320   0.721542011440793  11.673616748318732 
  4.982611360667934   7.188000219479210  11.673616748318732 
  6.227169635716799   0.721462788367750  11.673616748318732 
  9.961745702683164   7.188675094420446  11.673616748318732 
 -2.490825871496968   7.186790249126695   5.002978606422314 
 11.206524850227547   0.721100143618182  11.673616748318732 
  3.732272956530609   0.716013343785766   5.002978606422314 
  2.470198846771646   7.165693271268559   5.002978606422314 
  7.478200985638780   7.192036349789862   5.002978606422314 
  8.709066952424857   0.722116837036695   5.002978606422314 
  2.493686895750233   7.187772309813254  11.673616748318732 
 13.690607093768808   0.717880992778349   5.002978606422314 
 -1.240316255319329   9.344370610327514  11.673616748318732 
  0.004896348926558   2.877321906040522  11.673616748318732 
  4.982251173759420   2.877452542400353  11.673616748318732 
  3.738218480645469   9.343768696472438  11.673616748318732 
  8.717062411630586   9.344529793855568  11.673616748318732 
  9.961625305300343   2.877136213500450  11.673616748318732 
 -3.733322215245223   9.342545404739077   5.002978606422314 
  1.239589664095531   9.347126116938952   5.002978606422314 
  2.509618903589725   2.872526040886467   5.002978606422314 
  6.227970035577138   9.346955510839285   5.002978606422314 
  7.453579918709281   2.889127672674200   5.002978606422314 