Species order: X N B                    
   2.51242800000000     
     5.9449720136058266    0.0000000000000000    0.0000000000000000
    -2.9724860068029120    5.1484967885702053   -0.0000000000000001
     0.0000000000000000    0.0000000000000009    5.3101128803662583
   P    N    B 
     1   143   143
Direct
  0.4777145442234617  0.4055239387783965  0.3750000000000000
  0.1110101662086313  0.0554916707764291  0.1250700659055660
  0.6109611082871202  0.5554693907041048  0.1245567285237950
  0.4443748354002175  0.0555203291592394  0.1250833014478121
  0.9443442613397051  0.5555125390219302  0.1250631240589585
  0.7777134240646627  0.0555233786989977  0.1249814996178427
  0.1110313563099897  0.7221823448216603  0.6250027103683153
  0.4443748354002175  0.7221878395743139  0.6249166985521896
  0.2776463056704077  0.2221477150942308  0.6258211865691130
  0.7776615383821643  0.7221459019986497  0.6248354075668178
  0.6110158290250824  0.2221808539582380  0.6249743497336671
  0.9443622527311640  0.2221892374029017  0.6249718152279773
  0.2777123401844641  0.7221925577446748  0.1250315078927898
  0.1110087866282935  0.2221710599808108  0.1249379413192023
  0.4443386034422715  0.2221719225253783  0.1242901314789169
  0.6110158290250824  0.7221683084001713  0.1250256502663342
  0.9443442613397051  0.7221650556511097  0.1250631240589585
  0.7776998011389963  0.2221934323799787  0.1250384754402048
  0.1110269654912804  0.8888377363297415  0.6249722371468915
  0.4443891622723158  0.8888612478028226  0.6249684615991623
  0.2776463056704077  0.3888319239095063  0.6258211865691130
  0.6109611082871202  0.3888250509163402  0.6254432714762050
  0.7776998011389963  0.8888397020923460  0.6249615245597968
  0.9443509393162792  0.3888579797153630  0.6249587235747495
  0.1110101662086313  0.3888518287655308  0.1250700659055660
  0.2777123401844641  0.8888531157731185  0.1250315078927898
  0.6110492103306723  0.8888583434565074  0.1250204247413262
  0.4441798839784375  0.3887566086558829  0.1214961849671324
  0.9443509393162792  0.8888262929342405  0.1250412764252537
  0.7776615383821643  0.3888489697168421  0.1251645924331802
  0.2776916967301464  0.5555173470116381  0.6250107504879724
  0.1110101662086313  0.0554916707764291  0.6249299340944302
  0.6109611082871202  0.5554693907041048  0.6254432714762050
  0.4443748354002175  0.0555203291592394  0.6249166985521896
  0.9443442613397051  0.5555125390219302  0.6249368759410413
  0.1110269654912804  0.5555225624948684  0.1250277628531078
  0.7777134240646627  0.0555233786989977  0.6250185003821579
  0.2776916967301464  0.0555076830518429  0.1249892495120288
  0.4443386034422715  0.5555000142502278  0.1242901314789169
  0.7776518381762273  0.5554925857547802  0.1252026904300280
  0.6110492103306723  0.0555242002074953  0.1250204247413262
  0.4443386034422715  0.5555000142502278  0.6257098685210843
  0.9443622527311640  0.0555063486615990  0.1250281847720223
  0.2777123401844641  0.7221925577446748  0.6249684921072109
  0.1110087866282935  0.2221710599808108  0.6250620586807986
  0.4443386034422715  0.2221719225253783  0.6257098685210843
  0.6110158290250824  0.7221683084001713  0.6249743497336671
  0.9443442613397051  0.7221650556511097  0.6249368759410413
  0.7776998011389963  0.2221934323799787  0.6249615245597968
  0.1110313563099897  0.7221823448216603  0.1249972896316833
  0.4443748354002175  0.7221878395743139  0.1250833014478121
  0.2776463056704077  0.2221477150942308  0.1241788134308881
  0.7776615383821643  0.7221459019986497  0.1251645924331802
  0.6110158290250824  0.2221808539582380  0.1250256502663342
  0.9443622527311640  0.2221892374029017  0.1250281847720223
  0.1110101662086313  0.3888518287655308  0.6249299340944302
  0.2777123401844641  0.8888531157731185  0.6249684921072109
  0.6110492103306723  0.8888583434565074  0.6249795752586751
  0.4441798839784375  0.3887566086558829  0.6285038150328688
  0.9443509393162792  0.8888262929342405  0.6249587235747495
  0.1110269654912804  0.8888377363297415  0.1250277628531078
  0.7776615383821643  0.3888489697168421  0.6248354075668178
  0.4443891622723158  0.8888612478028226  0.1250315384008362
  0.2776463056704077  0.3888319239095063  0.1241788134308881
  0.2776916967301464  0.5555173470116381  0.1249892495120288
  0.6109611082871202  0.3888250509163402  0.1245567285237950
  0.7776998011389963  0.8888397020923460  0.1250384754402048
  0.9443509393162792  0.3888579797153630  0.1250412764252537
  0.1110269654912804  0.5555225624948684  0.6249722371468915
  0.2776916967301464  0.0555076830518429  0.6250107504879724
  0.7776518381762273  0.5554925857547802  0.6247973095699729
  0.6110492103306723  0.0555242002074953  0.6249795752586751
  0.9443622527311640  0.0555063486615990  0.6249718152279773
  0.0562308665108051  0.1115295503228882  0.3750000000000000
  0.5553718998590224  0.6144438222482823  0.3750000000000000
  0.3879360041608785  0.1080221834139645  0.3750000000000000
  0.8870881824065048  0.6102107578699245  0.3750000000000000
  0.7225259394391849  0.1108699278324878  0.3750000000000000
  0.0555759201348807  0.7777880812051894  0.8750000000000000
  0.3889106910765892  0.7777887791797065  0.8750000000000000
  0.2222390621127350  0.2777861977230354  0.8750000000000000
  0.7222433536469327  0.7777835977153174  0.8750000000000000
  0.5555775518216342  0.2777911423531601  0.8750000000000000
  0.8889109412206677  0.2777915935603498  0.8750000000000000
  0.2209331968109620  0.7771332650721462  0.3750000000000000
  0.0562308665108051  0.2780346495212521  0.3750000000000000
  0.3891154430631774  0.2737525910788122  0.3750000000000000
  0.5553106061692684  0.7792903518374973  0.3750000000000000
  0.8882998337444797  0.7777813164520235  0.3750000000000000
  0.7223990054912406  0.2768502923142862  0.3750000000000000
  0.0555750371950884  0.9444523829768774  0.8750000000000000
  0.3889106910765892  0.9444552452302207  0.8750000000000000
  0.2222378768682028  0.4444563788572236  0.8750000000000000
  0.5555866982408697  0.4444600157870991  0.8750000000000000
  0.7222394218430137  0.9444511625939112  0.8750000000000000
  0.8889131872116246  0.4444575047702277  0.8750000000000000
  0.0552148382242403  0.4443274475155597  0.3750000000000000
  0.2210799121358737  0.9432740074848457  0.3750000000000000
  0.5552881788565238  0.9443107560949286  0.3750000000000000
  0.3891154430631774  0.4486961853176995  0.3750000000000000
  0.8892508069077483  0.9449730175980323  0.3750000000000000
  0.7209919521831152  0.4430831634377654  0.3750000000000000
  0.2222398279867221  0.6111212911989558  0.8750000000000000
  0.0555735539122559  0.1111179490342503  0.8750000000000000
  0.5555775518216342  0.6111197428018076  0.8750000000000000
  0.3889081255830474  0.1111186693156851  0.8750000000000000
  0.8889131396841059  0.6111232365087258  0.8750000000000000
  0.0541986119549100  0.6105595820889032  0.3750000000000000
  0.7222394218430137  0.1111215925824393  0.8750000000000000
  0.2221894053326876  0.1105820112932831  0.3750000000000000
  0.3879360041608785  0.6132471540802563  0.3750000000000000
  0.7209919521831152  0.6112421220786882  0.3750000000000000
  0.5553106061692684  0.1093535876651098  0.3750000000000000
  0.3889081255830474  0.6111227896007041  0.8750000000000000
  0.8894752634499477  0.1114042983916465  0.3750000000000000
  0.2222422622649823  0.7777877977991589  0.8750000000000000
  0.0555735539122559  0.2777889382113410  0.8750000000000000
  0.3889040349234181  0.2777771937703544  0.8750000000000000
  0.5555745812212014  0.7777839913278545  0.8750000000000000
  0.8889131872116246  0.7777890157747335  0.8750000000000000
  0.7222433536469327  0.2777930892649531  0.8750000000000000
  0.0541986119549100  0.7769723631993448  0.3750000000000000
  0.3879820850858406  0.7781223918733431  0.3750000000000000
  0.2235384310296507  0.2784358821814947  0.3750000000000000
  0.7223990054912406  0.7788820465102874  0.3750000000000000
  0.5553718998590224  0.2742614109440736  0.3750000000000000
  0.8892508069077483  0.2776111226430483  0.3750000000000000
  0.0555750371950884  0.4444559875515401  0.8750000000000000
  0.2222398279867221  0.9444518701211023  0.8750000000000000
  0.5555717646491126  0.9444525489912226  0.8750000000000000
  0.3889040349234181  0.4444601744864005  0.8750000000000000
  0.8889109412206677  0.9444526809936543  0.8750000000000000
  0.0552148382242403  0.9442207240420107  0.3750000000000000
  0.7222490443657847  0.4444593103448919  0.8750000000000000
  0.3879820850858406  0.9431930265458331  0.3750000000000000
  0.2221894053326877  0.4449407273727399  0.3750000000000000
  0.2210799121358737  0.6111392379843690  0.3750000000000000
  0.7225259394391849  0.9449893449400321  0.3750000000000000
  0.8882998337444797  0.4438518506257919  0.3750000000000000
  0.0555759201348807  0.6111211722630300  0.8750000000000000
  0.2222378768682028  0.1111148313443154  0.8750000000000000
  0.7222490443657847  0.6111230673542299  0.8750000000000000
  0.5555745812212014  0.1111239232266825  0.8750000000000000
  0.8889091054095918  0.1111212193714690  0.8750000000000000
  0.1112038752702019  0.0554199096472817  0.3750000000000000
  0.6108790198429427  0.5596483019437491  0.3750000000000000
  0.4440567277637098  0.0536265545936204  0.3750000000000000
  0.9431447741251112  0.5549207175244731  0.3750000000000000
  0.7783921037121575  0.0558627185227463  0.3750000000000000
  0.1111305796361094  0.7222319564847189  0.8750000000000000
  0.4444608347188759  0.7222219105834619  0.8750000000000000
  0.2778084875018690  0.2222400293381497  0.8750000000000000
  0.7777950644863109  0.7222229542308173  0.8750000000000000
  0.6111249281046057  0.2222427973575511  0.8750000000000000
  0.9444687101363620  0.2222350911841093  0.8750000000000000
  0.2767840360563289  0.7220981702026084  0.3750000000000000
  0.1122458595006056  0.2227895964169671  0.3750000000000000
  0.4436317725469521  0.2179949536724974  0.3750000000000000
  0.6115325876097665  0.7250210466020222  0.3750000000000000
  0.9431447741251112  0.7215573899339753  0.3750000000000000
  0.7782823918773296  0.2217889976198818  0.3750000000000000
  0.1111316376505855  0.8889010387196445  0.8750000000000000
  0.4444596889811758  0.8888965111572534  0.8750000000000000
  0.2778084875018690  0.3889017914970458  0.8750000000000000
  0.6111214806497832  0.3889090578258101  0.8750000000000000
  0.7777960266542764  0.8888929895762961  0.8750000000000000
  0.9444653827688053  0.3889002337243623  0.8750000000000000
  0.1112038752702019  0.3891172989562485  0.3750000000000000
  0.2767840360563289  0.8880191991870512  0.3750000000000000
  0.6113671727073968  0.8898080724628156  0.3750000000000000
  0.9442570720028653  0.8889829387114362  0.3750000000000000
  0.7774097378401774  0.3878765335727044  0.3750000000000000
  0.2777994392922651  0.5555610523410115  0.8750000000000000
  0.1111369788083161  0.0555698927988678  0.8750000000000000
  0.6111214806497832  0.5555457561573021  0.8750000000000000
  0.4444608347188759  0.0555722574687520  0.8750000000000000
  0.9444620552085378  0.5555649718189241  0.8750000000000000
  0.1100834619035904  0.5553350412025400  0.3750000000000000
  0.7777946294693899  0.0555639814013614  0.8750000000000000
  0.2768880911811419  0.0541495400730410  0.3750000000000000
  0.4436317725469521  0.5589701522077929  0.3750000000000000
  0.7759589764801830  0.5546461549067598  0.3750000000000000
  0.6113671727073968  0.0548924335779083  0.3750000000000000
  0.4444596778456806  0.5555492448069175  0.8750000000000000
  0.9451502263642954  0.0560732081832829  0.3750000000000000
  0.2777971803776234  0.7222290103087203  0.8750000000000000
  0.1111412389516385  0.2222372861424838  0.8750000000000000
  0.4444596778456806  0.2222437663720955  0.8750000000000000
  0.6111249281046057  0.7222154640803800  0.8750000000000000
  0.9444620552085378  0.7222304167229504  0.8750000000000000
  0.7777960266542764  0.2222363704113096  0.8750000000000000
  0.1098320511670655  0.7215826922501972  0.3750000000000000
  0.4440567277637098  0.7237635065034244  0.3750000000000000
  0.2785298100218205  0.2220670350781462  0.3750000000000000
  0.7774097378401774  0.7228665376007997  0.3750000000000000
  0.6115325876097665  0.2198448743410745  0.3750000000000000
  0.9451502263642954  0.2224103515143493  0.3750000000000000
  0.1111369788083161  0.3889004193427767  0.8750000000000000
  0.2777971803776234  0.8889015034022311  0.8750000000000000
  0.6111260423949290  0.8888919889212759  0.8750000000000000
  0.4444640933944032  0.3888987133638653  0.8750000000000000
  0.9444653827688053  0.8888984823777727  0.8750000000000000
  0.1100834619035904  0.8880817540343791  0.3750000000000000
  0.7777950644863109  0.3889054435888267  0.8750000000000000
  0.4440365935205184  0.8886849634269277  0.3750000000000000
  0.2785298100218205  0.3897961082770038  0.3750000000000000
  0.2768880911811419  0.5560718844414355  0.3750000000000000
  0.6108790198429427  0.3845640512325205  0.3750000000000000
  0.7782823918773296  0.8898267275907806  0.3750000000000000
  0.9442570720028653  0.3886074666247591  0.3750000000000000
  0.1111316376505855  0.5555639322642670  0.8750000000000000
  0.2777994392922651  0.0555717202845908  0.8750000000000000
  0.7777902664419477  0.5555617998876415  0.8750000000000000
  0.6111260423949290  0.0555673868069827  0.8750000000000000
  0.9444687101363620  0.0555669522855850  0.8750000000000000
  0.0554827114051749  0.1110753826014387  0.1250172251733567
  0.5554213951788783  0.6110128911287801  0.1245820022152125
  0.3888094906854707  0.1110975991204642  0.1248324383439492
  0.8887630438868539  0.6110481886100979  0.1250697502743748
  0.7221599138150007  0.1110815932543761  0.1249823726053793
  0.0554702040907139  0.7777338033702323  0.6250064535294013
  0.3888279473193879  0.7777435601226940  0.6249727951830460
  0.2221507096911562  0.2777420215122463  0.6255728889669168
  0.7221194974702575  0.7777165864464858  0.6249582245728917
  0.5554213951788783  0.2777418373834399  0.6254179977847868
  0.8888147305061086  0.2777459133010249  0.6249845368552766
  0.2221552729313397  0.7777443031323381  0.1249900122101302
  0.0554827114051749  0.2777406621370715  0.1250172251733567
  0.3887713950050996  0.2777663982119120  0.1233093555115221
  0.5554813351923448  0.7777346721479907  0.1250135957783125
  0.8887741139434014  0.7777114358612545  0.1250527268288695
  0.7221194974702575  0.2777362443571060  0.1250417754271071
  0.0554724267858567  0.9443997237071220  0.6249628897929427
  0.3888279473193879  0.9444177205300283  0.6249727951830460
  0.2221368374654625  0.4443861204329307  0.6251705931127315
  0.5552529496060521  0.4442931414696903  0.6259660517705500
  0.7221599138150007  0.9444116538939582  0.6250176273946215
  0.8887741139434014  0.4443960114154860  0.6249472731711314
  0.0554724267858567  0.4444060364120659  0.1250371102070576
  0.2221516141870018  0.9444153328448706  0.1250233970778800
  0.5554993768743199  0.9444163551038283  0.1250003629125437
  0.3887713950050996  0.4443383301265247  0.1233093555115221
  0.8888147305061086  0.9444021505384194  0.1250154631447244
  0.7220319248137567  0.4443694363370208  0.1250373524187988
  0.2221516141870018  0.6110696146754666  0.6249766029221195
  0.0554827114051749  0.1110753826014387  0.6249827748266433
  0.5554213951788783  0.6110128911287801  0.6254179977847868
  0.3888094906854707  0.1110975991204642  0.6251675616560498
  0.8887630438868539  0.6110481886100979  0.6249302497256238
  0.0554702040907139  0.6110697340538190  0.1249935464705958
  0.7221599138150007  0.1110815932543761  0.6250176273946215
  0.2221368374654625  0.1110840503658654  0.1248294068872711
  0.3888094906854707  0.6110452248983489  0.1248324383439492
  0.7220319248137567  0.6109958218100698  0.1250373524187988
  0.5554813351923448  0.1110799963776912  0.1250135957783125
  0.3888094906854707  0.6110452248983489  0.6251675616560498
  0.8888256365347221  0.1110794849340329  0.1249924196534236
  0.2221552729313397  0.7777443031323381  0.6250099877898727
  0.0554827114051749  0.2777406621370715  0.6249827748266433
  0.3887713950050996  0.2777663982119120  0.6266906444884778
  0.5554813351923448  0.7777346721479907  0.6249864042216872
  0.8887741139434014  0.7777114358612545  0.6249472731711314
  0.7221194974702575  0.2777362443571060  0.6249582245728917
  0.0554702040907139  0.7777338033702323  0.1249935464705958
  0.3888279473193879  0.7777435601226940  0.1250272048169518
  0.2221507096911562  0.2777420215122463  0.1244271110330821
  0.7221194974702575  0.7777165864464858  0.1250417754271071
  0.5554213951788783  0.2777418373834399  0.1245820022152125
  0.8888147305061086  0.2777459133010249  0.1250154631447244
  0.0554724267858567  0.4444060364120659  0.6249628897929427
  0.2221516141870018  0.9444153328448706  0.6249766029221195
  0.5554993768743199  0.9444163551038283  0.6249996370874581
  0.3887713950050996  0.4443383301265247  0.6266906444884778
  0.8888147305061086  0.9444021505384194  0.6249845368552766
  0.0554724267858567  0.9443997237071220  0.1250371102070576
  0.7220319248137567  0.4443694363370208  0.6249626475812022
  0.3888279473193879  0.9444177205300283  0.1250272048169518
  0.2221368374654625  0.4443861204329307  0.1248294068872711
  0.2221516141870018  0.6110696146754666  0.1250233970778800
  0.5552529496060521  0.4442931414696903  0.1240339482294492
  0.7221599138150007  0.9444116538939582  0.1249823726053793
  0.8887741139434014  0.4443960114154860  0.1250527268288695
  0.0554702040907139  0.6110697340538190  0.6250064535294013
  0.2221368374654625  0.1110840503658654  0.6251705931127315
  0.7220319248137567  0.6109958218100698  0.6249626475812022
  0.5554813351923448  0.1110799963776912  0.6249864042216872
  0.8888256365347221  0.1110794849340329  0.6250075803465772
 
  0.00000000E+00  0.00000000E+00  0.00000000E+00
  0.00000000E+00  0.00000000E+00  0.00000000E+00
  0.00000000E+00  0.00000000E+00  0.00000000E+00
  0.00000000E+00  0.00000000E+00  0.00000000E+00
  0.00000000E+00  0.00000000E+00  0.00000000E+00
  0.00000000E+00  0.00000000E+00  0.00000000E+00
  0.00000000E+00  0.00000000E+00  0.00000000E+00
  0.00000000E+00  0.00000000E+00  0.00000000E+00
  0.00000000E+00  0.00000000E+00  0.00000000E+00
  0.00000000E+00  0.00000000E+00  0.00000000E+00
  0.00000000E+00  0.00000000E+00  0.00000000E+00
  0.00000000E+00  0.00000000E+00  0.00000000E+00
  0.00000000E+00  0.00000000E+00  0.00000000E+00
  0.00000000E+00  0.00000000E+00  0.00000000E+00
  0.00000000E+00  0.00000000E+00  0.00000000E+00
  0.00000000E+00  0.00000000E+00  0.00000000E+00
  0.00000000E+00  0.00000000E+00  0.00000000E+00
  0.00000000E+00  0.00000000E+00  0.00000000E+00
  0.00000000E+00  0.00000000E+00  0.00000000E+00
  0.00000000E+00  0.00000000E+00  0.00000000E+00
  0.00000000E+00  0.00000000E+00  0.00000000E+00
  0.00000000E+00  0.00000000E+00  0.00000000E+00
  0.00000000E+00  0.00000000E+00  0.00000000E+00
  0.00000000E+00  0.00000000E+00  0.00000000E+00
  0.00000000E+00  0.00000000E+00  0.00000000E+00
  0.00000000E+00  0.00000000E+00  0.00000000E+00
  0.00000000E+00  0.00000000E+00  0.00000000E+00
  0.00000000E+00  0.00000000E+00  0.00000000E+00
  0.00000000E+00  0.00000000E+00  0.00000000E+00
  0.00000000E+00  0.00000000E+00  0.00000000E+00
  0.00000000E+00  0.00000000E+00  0.00000000E+00
  0.00000000E+00  0.00000000E+00  0.00000000E+00
  0.00000000E+00  0.00000000E+00  0.00000000E+00
  0.00000000E+00  0.00000000E+00  0.00000000E+00
  0.00000000E+00  0.00000000E+00  0.00000000E+00
  0.00000000E+00  0.00000000E+00  0.00000000E+00
  0.00000000E+00  0.00000000E+00  0.00000000E+00
  0.00000000E+00  0.00000000E+00  0.00000000E+00
  0.00000000E+00  0.00000000E+00  0.00000000E+00
  0.00000000E+00  0.00000000E+00  0.00000000E+00
  0.00000000E+00  0.00000000E+00  0.00000000E+00
  0.00000000E+00  0.00000000E+00  0.00000000E+00
  0.00000000E+00  0.00000000E+00  0.00000000E+00
  0.00000000E+00  0.00000000E+00  0.00000000E+00
  0.00000000E+00  0.00000000E+00  0.00000000E+00
  0.00000000E+00  0.00000000E+00  0.00000000E+00
  0.00000000E+00  0.00000000E+00  0.00000000E+00
  0.00000000E+00  0.00000000E+00  0.00000000E+00
  0.00000000E+00  0.00000000E+00  0.00000000E+00
  0.00000000E+00  0.00000000E+00  0.00000000E+00
  0.00000000E+00  0.00000000E+00  0.00000000E+00
  0.00000000E+00  0.00000000E+00  0.00000000E+00
  0.00000000E+00  0.00000000E+00  0.00000000E+00
  0.00000000E+00  0.00000000E+00  0.00000000E+00
  0.00000000E+00  0.00000000E+00  0.00000000E+00
  0.00000000E+00  0.00000000E+00  0.00000000E+00
  0.00000000E+00  0.00000000E+00  0.00000000E+00
  0.00000000E+00  0.00000000E+00  0.00000000E+00
  0.00000000E+00  0.00000000E+00  0.00000000E+00
  0.00000000E+00  0.00000000E+00  0.00000000E+00
  0.00000000E+00  0.00000000E+00  0.00000000E+00
  0.00000000E+00  0.00000000E+00  0.00000000E+00
  0.00000000E+00  0.00000000E+00  0.00000000E+00
  0.00000000E+00  0.00000000E+00  0.00000000E+00
  0.00000000E+00  0.00000000E+00  0.00000000E+00
  0.00000000E+00  0.00000000E+00  0.00000000E+00
  0.00000000E+00  0.00000000E+00  0.00000000E+00
  0.00000000E+00  0.00000000E+00  0.00000000E+00
  0.00000000E+00  0.00000000E+00  0.00000000E+00
  0.00000000E+00  0.00000000E+00  0.00000000E+00
  0.00000000E+00  0.00000000E+00  0.00000000E+00
  0.00000000E+00  0.00000000E+00  0.00000000E+00
  0.00000000E+00  0.00000000E+00  0.00000000E+00
  0.00000000E+00  0.00000000E+00  0.00000000E+00
  0.00000000E+00  0.00000000E+00  0.00000000E+00
  0.00000000E+00  0.00000000E+00  0.00000000E+00
  0.00000000E+00  0.00000000E+00  0.00000000E+00
  0.00000000E+00  0.00000000E+00  0.00000000E+00
  0.00000000E+00  0.00000000E+00  0.00000000E+00
  0.00000000E+00  0.00000000E+00  0.00000000E+00
  0.00000000E+00  0.00000000E+00  0.00000000E+00
  0.00000000E+00  0.00000000E+00  0.00000000E+00
  0.00000000E+00  0.00000000E+00  0.00000000E+00
  0.00000000E+00  0.00000000E+00  0.00000000E+00
  0.00000000E+00  0.00000000E+00  0.00000000E+00
  0.00000000E+00  0.00000000E+00  0.00000000E+00
  0.00000000E+00  0.00000000E+00  0.00000000E+00
  0.00000000E+00  0.00000000E+00  0.00000000E+00
  0.00000000E+00  0.00000000E+00  0.00000000E+00
  0.00000000E+00  0.00000000E+00  0.00000000E+00
  0.00000000E+00  0.00000000E+00  0.00000000E+00
  0.00000000E+00  0.00000000E+00  0.00000000E+00
  0.00000000E+00  0.00000000E+00  0.00000000E+00
  0.00000000E+00  0.00000000E+00  0.00000000E+00
  0.00000000E+00  0.00000000E+00  0.00000000E+00
  0.00000000E+00  0.00000000E+00  0.00000000E+00
  0.00000000E+00  0.00000000E+00  0.00000000E+00
  0.00000000E+00  0.00000000E+00  0.00000000E+00
  0.00000000E+00  0.00000000E+00  0.00000000E+00
  0.00000000E+00  0.00000000E+00  0.00000000E+00
  0.00000000E+00  0.00000000E+00  0.00000000E+00
  0.00000000E+00  0.00000000E+00  0.00000000E+00
  0.00000000E+00  0.00000000E+00  0.00000000E+00
  0.00000000E+00  0.00000000E+00  0.00000000E+00
  0.00000000E+00  0.00000000E+00  0.00000000E+00
  0.00000000E+00  0.00000000E+00  0.00000000E+00
  0.00000000E+00  0.00000000E+00  0.00000000E+00
  0.00000000E+00  0.00000000E+00  0.00000000E+00
  0.00000000E+00  0.00000000E+00  0.00000000E+00
  0.00000000E+00  0.00000000E+00  0.00000000E+00
  0.00000000E+00  0.00000000E+00  0.00000000E+00
  0.00000000E+00  0.00000000E+00  0.00000000E+00
  0.00000000E+00  0.00000000E+00  0.00000000E+00
  0.00000000E+00  0.00000000E+00  0.00000000E+00
  0.00000000E+00  0.00000000E+00  0.00000000E+00
  0.00000000E+00  0.00000000E+00  0.00000000E+00
  0.00000000E+00  0.00000000E+00  0.00000000E+00
  0.00000000E+00  0.00000000E+00  0.00000000E+00
  0.00000000E+00  0.00000000E+00  0.00000000E+00
  0.00000000E+00  0.00000000E+00  0.00000000E+00
  0.00000000E+00  0.00000000E+00  0.00000000E+00
  0.00000000E+00  0.00000000E+00  0.00000000E+00
  0.00000000E+00  0.00000000E+00  0.00000000E+00
  0.00000000E+00  0.00000000E+00  0.00000000E+00
  0.00000000E+00  0.00000000E+00  0.00000000E+00
  0.00000000E+00  0.00000000E+00  0.00000000E+00
  0.00000000E+00  0.00000000E+00  0.00000000E+00
  0.00000000E+00  0.00000000E+00  0.00000000E+00
  0.00000000E+00  0.00000000E+00  0.00000000E+00
  0.00000000E+00  0.00000000E+00  0.00000000E+00
  0.00000000E+00  0.00000000E+00  0.00000000E+00
  0.00000000E+00  0.00000000E+00  0.00000000E+00
  0.00000000E+00  0.00000000E+00  0.00000000E+00
  0.00000000E+00  0.00000000E+00  0.00000000E+00
  0.00000000E+00  0.00000000E+00  0.00000000E+00
  0.00000000E+00  0.00000000E+00  0.00000000E+00
  0.00000000E+00  0.00000000E+00  0.00000000E+00
  0.00000000E+00  0.00000000E+00  0.00000000E+00
  0.00000000E+00  0.00000000E+00  0.00000000E+00
  0.00000000E+00  0.00000000E+00  0.00000000E+00
  0.00000000E+00  0.00000000E+00  0.00000000E+00
  0.00000000E+00  0.00000000E+00  0.00000000E+00
  0.00000000E+00  0.00000000E+00  0.00000000E+00
  0.00000000E+00  0.00000000E+00  0.00000000E+00
  0.00000000E+00  0.00000000E+00  0.00000000E+00
  0.00000000E+00  0.00000000E+00  0.00000000E+00
  0.00000000E+00  0.00000000E+00  0.00000000E+00
  0.00000000E+00  0.00000000E+00  0.00000000E+00
  0.00000000E+00  0.00000000E+00  0.00000000E+00
  0.00000000E+00  0.00000000E+00  0.00000000E+00
  0.00000000E+00  0.00000000E+00  0.00000000E+00
  0.00000000E+00  0.00000000E+00  0.00000000E+00
  0.00000000E+00  0.00000000E+00  0.00000000E+00
  0.00000000E+00  0.00000000E+00  0.00000000E+00
  0.00000000E+00  0.00000000E+00  0.00000000E+00
  0.00000000E+00  0.00000000E+00  0.00000000E+00
  0.00000000E+00  0.00000000E+00  0.00000000E+00
  0.00000000E+00  0.00000000E+00  0.00000000E+00
  0.00000000E+00  0.00000000E+00  0.00000000E+00
  0.00000000E+00  0.00000000E+00  0.00000000E+00
  0.00000000E+00  0.00000000E+00  0.00000000E+00
  0.00000000E+00  0.00000000E+00  0.00000000E+00
  0.00000000E+00  0.00000000E+00  0.00000000E+00
  0.00000000E+00  0.00000000E+00  0.00000000E+00
  0.00000000E+00  0.00000000E+00  0.00000000E+00
  0.00000000E+00  0.00000000E+00  0.00000000E+00
  0.00000000E+00  0.00000000E+00  0.00000000E+00
  0.00000000E+00  0.00000000E+00  0.00000000E+00
  0.00000000E+00  0.00000000E+00  0.00000000E+00
  0.00000000E+00  0.00000000E+00  0.00000000E+00
  0.00000000E+00  0.00000000E+00  0.00000000E+00
  0.00000000E+00  0.00000000E+00  0.00000000E+00
  0.00000000E+00  0.00000000E+00  0.00000000E+00
  0.00000000E+00  0.00000000E+00  0.00000000E+00
  0.00000000E+00  0.00000000E+00  0.00000000E+00
  0.00000000E+00  0.00000000E+00  0.00000000E+00
  0.00000000E+00  0.00000000E+00  0.00000000E+00
  0.00000000E+00  0.00000000E+00  0.00000000E+00
  0.00000000E+00  0.00000000E+00  0.00000000E+00
  0.00000000E+00  0.00000000E+00  0.00000000E+00
  0.00000000E+00  0.00000000E+00  0.00000000E+00
  0.00000000E+00  0.00000000E+00  0.00000000E+00
  0.00000000E+00  0.00000000E+00  0.00000000E+00
  0.00000000E+00  0.00000000E+00  0.00000000E+00
  0.00000000E+00  0.00000000E+00  0.00000000E+00
  0.00000000E+00  0.00000000E+00  0.00000000E+00
  0.00000000E+00  0.00000000E+00  0.00000000E+00
  0.00000000E+00  0.00000000E+00  0.00000000E+00
  0.00000000E+00  0.00000000E+00  0.00000000E+00
  0.00000000E+00  0.00000000E+00  0.00000000E+00
  0.00000000E+00  0.00000000E+00  0.00000000E+00
  0.00000000E+00  0.00000000E+00  0.00000000E+00
  0.00000000E+00  0.00000000E+00  0.00000000E+00
  0.00000000E+00  0.00000000E+00  0.00000000E+00
  0.00000000E+00  0.00000000E+00  0.00000000E+00
  0.00000000E+00  0.00000000E+00  0.00000000E+00
  0.00000000E+00  0.00000000E+00  0.00000000E+00
  0.00000000E+00  0.00000000E+00  0.00000000E+00
  0.00000000E+00  0.00000000E+00  0.00000000E+00
  0.00000000E+00  0.00000000E+00  0.00000000E+00
  0.00000000E+00  0.00000000E+00  0.00000000E+00
  0.00000000E+00  0.00000000E+00  0.00000000E+00
  0.00000000E+00  0.00000000E+00  0.00000000E+00
  0.00000000E+00  0.00000000E+00  0.00000000E+00
  0.00000000E+00  0.00000000E+00  0.00000000E+00
  0.00000000E+00  0.00000000E+00  0.00000000E+00
  0.00000000E+00  0.00000000E+00  0.00000000E+00
  0.00000000E+00  0.00000000E+00  0.00000000E+00
  0.00000000E+00  0.00000000E+00  0.00000000E+00
  0.00000000E+00  0.00000000E+00  0.00000000E+00
  0.00000000E+00  0.00000000E+00  0.00000000E+00
  0.00000000E+00  0.00000000E+00  0.00000000E+00
  0.00000000E+00  0.00000000E+00  0.00000000E+00
  0.00000000E+00  0.00000000E+00  0.00000000E+00
  0.00000000E+00  0.00000000E+00  0.00000000E+00
  0.00000000E+00  0.00000000E+00  0.00000000E+00
  0.00000000E+00  0.00000000E+00  0.00000000E+00
  0.00000000E+00  0.00000000E+00  0.00000000E+00
  0.00000000E+00  0.00000000E+00  0.00000000E+00
  0.00000000E+00  0.00000000E+00  0.00000000E+00
  0.00000000E+00  0.00000000E+00  0.00000000E+00
  0.00000000E+00  0.00000000E+00  0.00000000E+00
  0.00000000E+00  0.00000000E+00  0.00000000E+00
  0.00000000E+00  0.00000000E+00  0.00000000E+00
  0.00000000E+00  0.00000000E+00  0.00000000E+00
  0.00000000E+00  0.00000000E+00  0.00000000E+00
  0.00000000E+00  0.00000000E+00  0.00000000E+00
  0.00000000E+00  0.00000000E+00  0.00000000E+00
  0.00000000E+00  0.00000000E+00  0.00000000E+00
  0.00000000E+00  0.00000000E+00  0.00000000E+00
  0.00000000E+00  0.00000000E+00  0.00000000E+00
  0.00000000E+00  0.00000000E+00  0.00000000E+00
  0.00000000E+00  0.00000000E+00  0.00000000E+00
  0.00000000E+00  0.00000000E+00  0.00000000E+00
  0.00000000E+00  0.00000000E+00  0.00000000E+00
  0.00000000E+00  0.00000000E+00  0.00000000E+00
  0.00000000E+00  0.00000000E+00  0.00000000E+00
  0.00000000E+00  0.00000000E+00  0.00000000E+00
  0.00000000E+00  0.00000000E+00  0.00000000E+00
  0.00000000E+00  0.00000000E+00  0.00000000E+00
  0.00000000E+00  0.00000000E+00  0.00000000E+00
  0.00000000E+00  0.00000000E+00  0.00000000E+00
  0.00000000E+00  0.00000000E+00  0.00000000E+00
  0.00000000E+00  0.00000000E+00  0.00000000E+00
  0.00000000E+00  0.00000000E+00  0.00000000E+00
  0.00000000E+00  0.00000000E+00  0.00000000E+00
  0.00000000E+00  0.00000000E+00  0.00000000E+00
  0.00000000E+00  0.00000000E+00  0.00000000E+00