 B P N 
 1.0
 14.936314146199660   0.000000000000000   0.000000000000000
 -7.468157073099825  12.935227489513863   0.000000000000000
  0.000000000000001   0.000000000000001  13.341276283792837
 B P N 
 143   1 143
Cartesian
  1.247091425087639   0.716869138735897   5.002978606422314 
  4.944739521087216   7.239178099762539   5.002978606422314 
  6.232079251617916   0.693671683147310   5.002978606422314 
  9.942871550089155   7.178025719823322   5.002978606422314 
 11.209117433507787   0.722596972274400   5.002978606422314 
 -3.733860445545895   9.342234657326520  11.673616748318732 
  1.244939983171706   9.342104711308423  11.673616748318732 
  2.489711394780880   2.874725336765207  11.673616748318732 
  6.223716960537238   9.342118211124378  11.673616748318732 
  7.468209789712790   2.874761141725854  11.673616748318732 
 12.447194787735103   2.874661460619308  11.673616748318732 
 -1.258609244080665   9.340504101332435   5.002978606422314 
  0.012711718816814   2.881834111950451   5.002978606422314 
  4.998202964827342   2.819814317319785   5.002978606422314 
  3.719471781850702   9.378312172482588   5.002978606422314 
  8.698402706396315   9.333508985535827   5.002978606422314 
  9.968315228224828   2.868891138884423   5.002978606422314 
 -4.978555528069130  11.498137151503780  11.673616748318732 
  0.000170772892245  11.498078586454268  11.673616748318732 
  1.245055176898640   5.030533144093780  11.673616748318732 
  6.223468485481425   5.030627135709355  11.673616748318732 
  4.979013328441088  11.498033034003466  11.673616748318732 
 11.202463626026809   5.030512993949735  11.673616748318732 
 -1.245013093155069   5.033320782104258   5.002978606422314 
 -2.497733550266833  11.486730356540429   5.002978606422314 
  2.486345700167086  11.509869839312362   5.002978606422314 
  7.464656040602585  11.499196546528985   5.002978606422314 
  8.714913187005173   5.017271199606989   5.002978606422314 
  0.000282492328090   7.186308596344698  11.673616748318732 
  1.244972140783278   0.718809204921257  11.673616748318732 
  4.978999448199092   7.186110736728699  11.673616748318732 
  6.223584305359872   0.718839792464144  11.673616748318732 
  9.957735481904088   7.186359295683141  11.673616748318732 
 -2.503088146603708   7.183385090853410   5.002978606422314 
 11.202424386269611   0.718732739649723  11.673616748318732 
  3.731290242521530   0.700436619297333   5.002978606422314 
  2.451746624134355   7.230406078655993   5.002978606422314 
  7.447782432437027   7.174474189903087   5.002978606422314 
  8.721626834147070   0.710046115783270   5.002978606422314 
  2.489660351561747   7.186155863205101  11.673616748318732 
 13.698297170023446   0.725319703917637   5.002978606422314 
 -1.244453736686284   9.342196547869749  11.673616748318732 
  0.000337499168007   2.874689852905219  11.673616748318732 
  4.978838017837677   2.874773676149434  11.673616748318732 
  3.734335382370114   9.342021324324545  11.673616748318732 
  8.713051760702758   9.342214740157758  11.673616748318732 
  9.957709674186892   2.874678007714164  11.673616748318732 
 -3.748406867401949   9.333836276752171   5.002978606422314 
  1.227391234267157   9.362045605230037   5.002978606422314 
  2.501777242846051   2.872487616657674   5.002978606422314 
  6.213155219005009   9.350443108423574   5.002978606422314 
  7.492206785882797   2.843743462005382   5.002978606422314 
 12.456065256536325   2.876928492860849   5.002978606422314 
 -1.244392588705705   5.030515394966160  11.673616748318732 
 -2.489190094873769  11.498143162278740  11.673616748318732 
  2.489585557850194  11.498020090303143  11.673616748318732 
  3.734298648716860   5.030493327740840  11.673616748318732 
  7.468398168808314  11.498104084640126  11.673616748318732 
 -4.988092863589523  11.487539517721189   5.002978606422314 
  8.712984485226240   5.030580384731779  11.673616748318732 
 -0.004568842143451  11.495342168437622   5.002978606422314 
  1.249150178471522   5.042101335090226   5.002978606422314 
 -0.017144663720145   7.192916325772639   5.002978606422314 
  6.252296206424657   4.974423486981724   5.002978606422314 
  4.979304530045108  11.510111147636435   5.002978606422314 
 11.201538661672366   5.026725984914925   5.002978606422314 
 -2.489141658767769   7.186345848807166  11.673616748318732 
  3.734281358999700   0.718832843864818  11.673616748318732 
  7.468296974058308   7.186318266030428  11.673616748318732 
  8.712984579318148   0.718776789346138  11.673616748318732 
 13.691898628110499   0.718771168713006  11.673616748318732 
 -0.000821196991577   1.436785342434404   1.667889341270897 
  3.732808197273656   7.903590745776336   1.662082911541235 
  4.977686375226184   1.437072718162018   1.665424049126158 
  8.711440173253347   7.904047326726992   1.668590093155412 
  9.956832550179460   1.436865678643002   1.667424363532303 
 -4.979717810575512  10.060163672878796   8.338383775689268 
 -0.000654699603784  10.060289878691449   8.337934730391291 
  1.243891745294584   3.592656231658356   8.345940747358100 
  4.977694039374216  10.059940968053471   8.337740339855602 
  6.221728774561349   3.592653849910363   8.343874301303380 
 11.201365925665414   3.592706572831553   8.338091379284558 
 -2.490135672763644  10.060299489690221   1.667526285609984 
 -1.245503683195766   3.592638647831223   1.667889341270897 
  3.732408595376698   3.592971549813979   1.645104180255648 
  2.488599031986306  10.060174910716745   1.667840920508872 
  7.466938210311044  10.059874344061791   1.668362978665628 
  8.711625767559887   3.592581502842377   1.668216872989013 
 -6.224371883511242  12.216025267185662   8.337802579845228 
 -1.245403509552790  12.216258060184041   8.337934730391291 
 -0.000839760671134   5.748235560982469   8.340573607219580 
  4.975381518923355   5.747032856941207   8.351186040945878 
  3.733392763587261  12.216179586866378   8.338532849312339 
  9.956190154958977   5.748363503091912   8.337594234179013 
 -2.490340491233408   5.748493178703255   1.668154632999414 
 -3.734915750346941  12.216227174933360   1.667971682354335 
  1.244063518693194  12.216240398085523   1.667664377190621 
  2.488423243868678   5.747617382497313   1.645104180255648 
  6.222672432214855  12.216056658800568   1.667865833560084 
  7.465874903553782   5.748019748406414   1.668157864413170 
 -1.245437567412566   7.904324477756746   8.337985530490293 
 -0.000821196991577   1.436785342434405   8.338067871573731 
  3.732808197273656   7.903590745776337   8.343874301303380 
  4.977686375226185   1.437072718162018   8.340533163718456 
  8.711440173253347   7.904047326726993   8.337367119689203 
 -3.735044362478544   7.904326021942886   1.667573437155320 
  9.956832550179460   1.436865678643003   8.338532849312339 
  2.488312451379038   1.436897461939080   1.665383605625075 
  1.243998977593607   7.904008990441305   1.665424049126158 
  6.221482884318173   7.903369950255731   1.668157864413170 
  7.467280864155342   1.436845022679809   1.667840920508872 
  1.243998977593608   7.904008990441306   8.340533163718456 
 12.446219887392102   1.436838407039745   1.667558403976107 
 -2.490135672763644  10.060299489690221   8.338430927234684 
 -1.245503683195766   3.592638647831224   8.338067871573731 
  3.732408595376699   3.592971549813980   8.360853032588979 
  2.488599031986306  10.060174910716745   8.338116292335757 
  7.466938210311045  10.059874344061791   8.337594234179013 
  8.711625767559887   3.592581502842378   8.337740339855602 
 -4.979717810575513  10.060163672878796   1.667573437155320 
 -0.000654699603785  10.060289878691449   1.668022482453311 
  1.243891745294584   3.592656231658355   1.660016465486515 
  4.977694039374215  10.059940968053471   1.668216872989013 
  6.221728774561348   3.592653849910362   1.662082911541235 
 11.201365925665414   3.592706572831553   1.667865833560084 
 -2.490340491233408   5.748493178703256   8.337802579845228 
 -3.734915750346941  12.216227174933360   8.337985530490293 
  1.244063518693194  12.216240398085523   8.338292835654034 
  2.488423243868679   5.747617382497314   8.360853032588979 
  6.222672432214856  12.216056658800568   8.338091379284558 
 -6.224371883511242  12.216025267185662   1.668154632999414 
  7.465874903553783   5.748019748406415   8.337799348431471 
 -1.245403509552791  12.216258060184041   1.668022482453311 
 -0.000839760671135   5.748235560982468   1.665383605625075 
 -1.245437567412567   7.904324477756745   1.667971682354335 
  4.975381518923355   5.747032856941206   1.654771171898737 
  3.733392763587260  12.216179586866378   1.667424363532303 
  9.956190154958977   5.748363503091912   1.668362978665628 
 -3.735044362478543   7.904326021942887   8.338383775689268 
  2.488312451379038   1.436897461939080   8.340573607219580 
  6.221482884318174   7.903369950255732   8.337799348431471 
  7.467280864155343   1.436845022679810   8.338116292335757 
 12.446219887392102   1.436838407039746   8.338398808868535 
  4.106778033031040   5.245544400542245   5.002978606422314 
  1.243662202306836   0.717797385266318   1.668594304078335 
  4.977174385409421   7.185122932219254   1.661745728241329 
  6.222687601292005   0.718168087967447   1.668770883104204 
  9.956367652038434   7.185681065526111   1.668501690984831 
 11.201514704193080   0.718207534457968   1.667412716764392 
 -3.734971968623058   9.341592919178716   8.338333837143045 
  1.243909917979812   9.341663995054294   8.337186329740449 
  2.487978413271044   2.873531231019592   8.349253354269599 
  6.222298010871636   9.341121522972722   8.336101804245221 
  7.467042854623672   2.873959889764266   8.337955470080621 
 12.445947149728324   2.874068331528141   8.337921656539969 
 -1.245448702989526   9.341725025661248   1.668079890976936 
 -0.001146262965147   2.873833202438220   1.666831593467771 
  4.977566153645306   2.873844359648414   1.658188983409169 
  3.733058010271973   9.341411354873618   1.668001742764019 
  8.711780481224338   9.341369279824548   1.668501690984831 
  9.956593087624180   2.874122594510944   1.668172846952020 
 -4.979646192131972  11.497318320689754   8.337927285476782 
 -0.000619283917179  11.497622446942671   8.337876914851394 
  1.243154560233200   5.029629390954805   8.349253354269599 
  6.221700490287470   5.029540487224669   8.344211484603299 
  4.977974033216154  11.497343748276228   8.337784365892634 
 11.201069822244079   5.029966428730988   8.337746997177243 
 -1.245923819469152   5.029886864795634   1.668594304078335 
 -2.490095928236414  11.497517257288496   1.668079890976936 
  2.488689239617642  11.497584878562366   1.667932027591160 
  3.731114867876719   5.028655171015761   1.620914171073306 
  7.467227927552726  11.497170297765695   1.668210215667426 
  8.711411853134493   5.029849882350439   1.669855408599381 
 -0.001000386161948   7.185743257966753   8.338441102600743 
  1.243662202306836   0.717797385266318   8.337362908766240 
  4.977174385409422   7.185122932219255   8.344211484603299 
  6.222687601292006   0.718168087967447   8.337186329740449 
  9.956367652038434   7.185681065526112   8.337455521859797 
 -2.490396119085561   7.185810721428799   1.668029927367845 
 11.201514704193080   0.718207534457968   8.338544496080250 
  3.733150322357661   0.718004507691423   1.667516110243898 
  2.488219607767499   7.185519054754892   1.658188983409169 
  7.466746268010676   7.185422965476367   1.670363684501189 
  8.712159515778334   0.718218160857261   1.667932027591160 
  2.488219607767500   7.185519054754893   8.347768229435472 
 13.690761144246398   0.717987247050057   1.668035556304646 
 -1.245448702989525   9.341725025661248   8.337877321867705 
 -0.001146262965146   2.873833202438221   8.339125619376871 
  4.977566153645307   2.873844359648415   8.347768229435472 
  3.733058010271974   9.341411354873618   8.337955470080621 
  8.711780481224338   9.341369279824548   8.337455521859797 
  9.956593087624180   2.874122594510945   8.337784365892634 
 -3.734971968623058   9.341592919178716   1.667623375701557 
  1.243909917979812   9.341663995054294   1.668770883104204 
  2.487978413271043   2.873531231019591   1.656703858575042 
  6.222298010871635   9.341121522972722   1.669855408599381 
  7.467042854623672   2.873959889764265   1.668001742764019 
 12.445947149728324   2.874068331528140   1.668035556304646 
 -1.245923819469151   5.029886864795635   8.337362908766240 
 -2.490095928236414  11.497517257288496   8.337877321867705 
  2.488689239617643  11.497584878562366   8.338025185253480 
  3.731114867876719   5.028655171015762   8.385043041771334 
  7.467227927552727  11.497170297765695   8.337746997177243 
 -4.979646192131973  11.497318320689754   1.668029927367845 
  8.711411853134493   5.029849882350439   8.336101804245221 
 -0.000619283917179  11.497622446942671   1.668080297993207 
  1.243154560233199   5.029629390954804   1.656703858575042 
 -0.001000386161949   7.185743257966752   1.667516110243898 
  6.221700490287470   5.029540487224669   1.661745728241329 
  4.977974033216153  11.497343748276228   1.668172846952020 
 11.201069822244079   5.029966428730988   1.668210215667426 
 -2.490396119085561   7.185810721428800   8.337927285476782 
  3.733150322357661   0.718004507691423   8.338441102600743 
  7.466746268010676   7.185422965476368   8.335593528343452 
  8.712159515778334   0.718218160857262   8.338025185253480 
 13.690761144246398   0.717987247050057   8.337921656539969 
  0.006961686814883   1.442660105229741   5.002978606422314 
  3.706446187120094   7.947970620307948   5.002978606422314 
  4.987607393653610   1.397291516373616   5.002978606422314 
  8.692677980336939   7.893214969596142   5.002978606422314 
  9.963880374505434   1.434127738259217   5.002978606422314 
 -4.978544157926587  10.060865769021603  11.673616748318732 
  0.000243484126944  10.060874797480762  11.673616748318732 
  1.244881489937799   3.593227660994537  11.673616748318732 
  4.979043543456697  10.060807774060162  11.673616748318732 
  6.223692961975217   3.593291620910055  11.673616748318732 
 11.202461811770519   3.593297457377703  11.673616748318732 
 -2.503825657397023  10.052395573376886   5.002978606422314 
 -1.236524547470567   3.596441441524652   5.002978606422314 
  3.767523147384646   3.541052041448297   5.002978606422314 
  2.474430909387092  10.080297981401321   5.002978606422314 
  7.459332333038406  10.060778265400502   5.002978606422314 
  8.722417016182700   3.581121511623701   5.002978606422314 
 -6.223232529902181  12.216706426819377  11.673616748318732 
 -1.244447863156761  12.216743450717512  11.673616748318732 
  0.000144694641007   5.749144369683753  11.673616748318732 
  4.979120249764986   5.749191414199049  11.673616748318732 
  3.734285263293807  12.216690640888087  11.673616748318732 
  9.957808154950344   5.749158933624593  11.673616748318732 
 -2.493601000686879   5.747476613448801   5.002978606422314 
 -3.742399431793537  12.201463871761886   5.002978606422314 
  1.241697628737559  12.214874450882746   5.002978606422314 
  2.461016906675989   5.803987230761520   5.002978606422314 
  6.224922481472432  12.223440954082932   5.002978606422314 
  7.459947633689579   5.731381515840942   5.002978606422314 
 -1.244505906782325   7.904992925343943  11.673616748318732 
  0.000217762425739   1.437335948926232  11.673616748318732 
  3.734342616868179   7.904972896474590  11.673616748318732 
  4.979002261514687   1.437345265930450  11.673616748318732 
  8.713121581738168   7.905018088368356  11.673616748318732 
 -3.750227367079606   7.897727090222475   5.002978606422314 
  9.957721385798216   1.437383079050926  11.673616748318732 
  2.492846928208782   1.430403472326607   5.002978606422314 
  1.214507955465490   7.932491445325072   5.002978606422314 
  6.204110117310269   7.906555900261035   5.002978606422314 
  7.477623893270713   1.414513533242695   5.002978606422314 
  1.244892954029066   7.905012307511424  11.673616748318732 
 12.453497161154825   1.441039943005638   5.002978606422314 
 -2.489161197752659  10.060862103100133  11.673616748318732 
 -1.244507364277697   3.593263109834207  11.673616748318732 
  3.734309123938886   3.593111192818303  11.673616748318732 
  2.489623460584251  10.060812865527872  11.673616748318732 
  7.468436073354999  10.060877857891260  11.673616748318732 
  8.713051195623059   3.593316804657000  11.673616748318732 
 -4.993024155383766  10.050314271048718   5.002978606422314 
 -0.016117938666573  10.065190153566345   5.002978606422314 
  1.259437326688932   3.601631477261118   5.002978606422314 
  4.973165020163123  10.075016459108680   5.002978606422314 
  6.246981868245769   3.547633742156645   5.002978606422314 
 11.208885937597799   3.590963025007159   5.002978606422314 
 -2.489180912882035   5.749139308055712  11.673616748318732 
 -3.733871027440209  12.216699792913257  11.673616748318732 
  1.244874423601694  12.216708574252708  11.673616748318732 
  2.489494442538978   5.749193467010624  11.673616748318732 
  6.223732096295069  12.216710281734182  11.673616748318732 
 -6.226882509572940  12.213709865796904   5.002978606422314 
  7.468446676182587   5.749182289143621  11.673616748318732 
 -1.248891366557007  12.200416364893439   5.002978606422314 
 -0.004196482232591   5.755409527916161   5.002978606422314 
 -1.261964803726169   7.905225071095965   5.002978606422314 
  3.734545549823828  12.223652151966000   5.002978606422314 
  9.953170035165027   5.741324659486347   5.002978606422314 
 -3.733849503058517   7.904991386880684  11.673616748318732 
  2.489591730457580   1.437295620897681  11.673616748318732 
  6.223775560443907   7.905015900316470  11.673616748318732 
  7.468345563527222   1.437413226464419  11.673616748318732 
 12.447154925394459   1.437378251482128  11.673616748318732 
Generated by cif2cell 2.0.0.  :  Failed to get author information, No journal information. Species order: B P N 
 1.0
 14.936314146199660   0.000000000000000   0.000000000000000
 -7.468157073099825  12.935227489513863   0.000000000000000
  0.000000000000001   0.000000000000001  13.341276283792837
 B P N 
 143   1 143
Cartesian
  1.247091425087639   0.716869138735897   5.002978606422314 
  4.944739521087216   7.239178099762539   5.002978606422314 
  6.232079251617916   0.693671683147310   5.002978606422314 
  9.942871550089155   7.178025719823322   5.002978606422314 
 11.209117433507787   0.722596972274400   5.002978606422314 
 -3.733860445545895   9.342234657326520  11.673616748318732 
  1.244939983171706   9.342104711308423  11.673616748318732 
  2.489711394780880   2.874725336765207  11.673616748318732 
  6.223716960537238   9.342118211124378  11.673616748318732 
  7.468209789712790   2.874761141725854  11.673616748318732 
 12.447194787735103   2.874661460619308  11.673616748318732 
 -1.258609244080665   9.340504101332435   5.002978606422314 
  0.012711718816814   2.881834111950451   5.002978606422314 
  4.998202964827342   2.819814317319785   5.002978606422314 
  3.719471781850702   9.378312172482588   5.002978606422314 
  8.698402706396315   9.333508985535827   5.002978606422314 
  9.968315228224828   2.868891138884423   5.002978606422314 
 -4.978555528069130  11.498137151503780  11.673616748318732 
  0.000170772892245  11.498078586454268  11.673616748318732 
  1.245055176898640   5.030533144093780  11.673616748318732 
  6.223468485481425   5.030627135709355  11.673616748318732 
  4.979013328441088  11.498033034003466  11.673616748318732 
 11.202463626026809   5.030512993949735  11.673616748318732 
 -1.245013093155069   5.033320782104258   5.002978606422314 
 -2.497733550266833  11.486730356540429   5.002978606422314 
  2.486345700167086  11.509869839312362   5.002978606422314 
  7.464656040602585  11.499196546528985   5.002978606422314 
  8.714913187005173   5.017271199606989   5.002978606422314 
  0.000282492328090   7.186308596344698  11.673616748318732 
  1.244972140783278   0.718809204921257  11.673616748318732 
  4.978999448199092   7.186110736728699  11.673616748318732 
  6.223584305359872   0.718839792464144  11.673616748318732 
  9.957735481904088   7.186359295683141  11.673616748318732 
 -2.503088146603708   7.183385090853410   5.002978606422314 
 11.202424386269611   0.718732739649723  11.673616748318732 
  3.731290242521530   0.700436619297333   5.002978606422314 
  2.451746624134355   7.230406078655993   5.002978606422314 
  7.447782432437027   7.174474189903087   5.002978606422314 
  8.721626834147070   0.710046115783270   5.002978606422314 
  2.489660351561747   7.186155863205101  11.673616748318732 
 13.698297170023446   0.725319703917637   5.002978606422314 
 -1.244453736686284   9.342196547869749  11.673616748318732 
  0.000337499168007   2.874689852905219  11.673616748318732 
  4.978838017837677   2.874773676149434  11.673616748318732 
  3.734335382370114   9.342021324324545  11.673616748318732 
  8.713051760702758   9.342214740157758  11.673616748318732 
  9.957709674186892   2.874678007714164  11.673616748318732 
 -3.748406867401949   9.333836276752171   5.002978606422314 
  1.227391234267157   9.362045605230037   5.002978606422314 
  2.501777242846051   2.872487616657674   5.002978606422314 
  6.213155219005009   9.350443108423574   5.002978606422314 
  7.492206785882797   2.843743462005382   5.002978606422314 
 12.456065256536325   2.876928492860849   5.002978606422314 
 -1.244392588705705   5.030515394966160  11.673616748318732 
 -2.489190094873769  11.498143162278740  11.673616748318732 
  2.489585557850194  11.498020090303143  11.673616748318732 
  3.734298648716860   5.030493327740840  11.673616748318732 
  7.468398168808314  11.498104084640126  11.673616748318732 
 -4.988092863589523  11.487539517721189   5.002978606422314 
  8.712984485226240   5.030580384731779  11.673616748318732 
 -0.004568842143451  11.495342168437622   5.002978606422314 
  1.249150178471522   5.042101335090226   5.002978606422314 
 -0.017144663720145   7.192916325772639   5.002978606422314 
  6.252296206424657   4.974423486981724   5.002978606422314 
  4.979304530045108  11.510111147636435   5.002978606422314 
 11.201538661672366   5.026725984914925   5.002978606422314 
 -2.489141658767769   7.186345848807166  11.673616748318732 
  3.734281358999700   0.718832843864818  11.673616748318732 
  7.468296974058308   7.186318266030428  11.673616748318732 
  8.712984579318148   0.718776789346138  11.673616748318732 
 13.691898628110499   0.718771168713006  11.673616748318732 
 -0.000821196991577   1.436785342434404   1.667889341270897 
  3.732808197273656   7.903590745776336   1.662082911541235 
  4.977686375226184   1.437072718162018   1.665424049126158 
  8.711440173253347   7.904047326726992   1.668590093155412 
  9.956832550179460   1.436865678643002   1.667424363532303 
 -4.979717810575512  10.060163672878796   8.338383775689268 
 -0.000654699603784  10.060289878691449   8.337934730391291 
  1.243891745294584   3.592656231658356   8.345940747358100 
  4.977694039374216  10.059940968053471   8.337740339855602 
  6.221728774561349   3.592653849910363   8.343874301303380 
 11.201365925665414   3.592706572831553   8.338091379284558 
 -2.490135672763644  10.060299489690221   1.667526285609984 
 -1.245503683195766   3.592638647831223   1.667889341270897 
  3.732408595376698   3.592971549813979   1.645104180255648 
  2.488599031986306  10.060174910716745   1.667840920508872 
  7.466938210311044  10.059874344061791   1.668362978665628 
  8.711625767559887   3.592581502842377   1.668216872989013 
 -6.224371883511242  12.216025267185662   8.337802579845228 
 -1.245403509552790  12.216258060184041   8.337934730391291 
 -0.000839760671134   5.748235560982469   8.340573607219580 
  4.975381518923355   5.747032856941207   8.351186040945878 
  3.733392763587261  12.216179586866378   8.338532849312339 
  9.956190154958977   5.748363503091912   8.337594234179013 
 -2.490340491233408   5.748493178703255   1.668154632999414 
 -3.734915750346941  12.216227174933360   1.667971682354335 
  1.244063518693194  12.216240398085523   1.667664377190621 
  2.488423243868678   5.747617382497313   1.645104180255648 
  6.222672432214855  12.216056658800568   1.667865833560084 
  7.465874903553782   5.748019748406414   1.668157864413170 
 -1.245437567412566   7.904324477756746   8.337985530490293 
 -0.000821196991577   1.436785342434405   8.338067871573731 
  3.732808197273656   7.903590745776337   8.343874301303380 
  4.977686375226185   1.437072718162018   8.340533163718456 
  8.711440173253347   7.904047326726993   8.337367119689203 
 -3.735044362478544   7.904326021942886   1.667573437155320 
  9.956832550179460   1.436865678643003   8.338532849312339 
  2.488312451379038   1.436897461939080   1.665383605625075 
  1.243998977593607   7.904008990441305   1.665424049126158 
  6.221482884318173   7.903369950255731   1.668157864413170 
  7.467280864155342   1.436845022679809   1.667840920508872 
  1.243998977593608   7.904008990441306   8.340533163718456 
 12.446219887392102   1.436838407039745   1.667558403976107 
 -2.490135672763644  10.060299489690221   8.338430927234684 
 -1.245503683195766   3.592638647831224   8.338067871573731 
  3.732408595376699   3.592971549813980   8.360853032588979 
  2.488599031986306  10.060174910716745   8.338116292335757 
  7.466938210311045  10.059874344061791   8.337594234179013 
  8.711625767559887   3.592581502842378   8.337740339855602 
 -4.979717810575513  10.060163672878796   1.667573437155320 
 -0.000654699603785  10.060289878691449   1.668022482453311 
  1.243891745294584   3.592656231658355   1.660016465486515 
  4.977694039374215  10.059940968053471   1.668216872989013 
  6.221728774561348   3.592653849910362   1.662082911541235 
 11.201365925665414   3.592706572831553   1.667865833560084 
 -2.490340491233408   5.748493178703256   8.337802579845228 
 -3.734915750346941  12.216227174933360   8.337985530490293 
  1.244063518693194  12.216240398085523   8.338292835654034 
  2.488423243868679   5.747617382497314   8.360853032588979 
  6.222672432214856  12.216056658800568   8.338091379284558 
 -6.224371883511242  12.216025267185662   1.668154632999414 
  7.465874903553783   5.748019748406415   8.337799348431471 
 -1.245403509552791  12.216258060184041   1.668022482453311 
 -0.000839760671135   5.748235560982468   1.665383605625075 
 -1.245437567412567   7.904324477756745   1.667971682354335 
  4.975381518923355   5.747032856941206   1.654771171898737 
  3.733392763587260  12.216179586866378   1.667424363532303 
  9.956190154958977   5.748363503091912   1.668362978665628 
 -3.735044362478543   7.904326021942887   8.338383775689268 
  2.488312451379038   1.436897461939080   8.340573607219580 
  6.221482884318174   7.903369950255732   8.337799348431471 
  7.467280864155343   1.436845022679810   8.338116292335757 
 12.446219887392102   1.436838407039746   8.338398808868535 
  4.106778033031040   5.245544400542245   5.002978606422314 
  1.243662202306836   0.717797385266318   1.668594304078335 
  4.977174385409421   7.185122932219254   1.661745728241329 
  6.222687601292005   0.718168087967447   1.668770883104204 
  9.956367652038434   7.185681065526111   1.668501690984831 
 11.201514704193080   0.718207534457968   1.667412716764392 
 -3.734971968623058   9.341592919178716   8.338333837143045 
  1.243909917979812   9.341663995054294   8.337186329740449 
  2.487978413271044   2.873531231019592   8.349253354269599 
  6.222298010871636   9.341121522972722   8.336101804245221 
  7.467042854623672   2.873959889764266   8.337955470080621 
 12.445947149728324   2.874068331528141   8.337921656539969 
 -1.245448702989526   9.341725025661248   1.668079890976936 
 -0.001146262965147   2.873833202438220   1.666831593467771 
  4.977566153645306   2.873844359648414   1.658188983409169 
  3.733058010271973   9.341411354873618   1.668001742764019 
  8.711780481224338   9.341369279824548   1.668501690984831 
  9.956593087624180   2.874122594510944   1.668172846952020 
 -4.979646192131972  11.497318320689754   8.337927285476782 
 -0.000619283917179  11.497622446942671   8.337876914851394 
  1.243154560233200   5.029629390954805   8.349253354269599 
  6.221700490287470   5.029540487224669   8.344211484603299 
  4.977974033216154  11.497343748276228   8.337784365892634 
 11.201069822244079   5.029966428730988   8.337746997177243 
 -1.245923819469152   5.029886864795634   1.668594304078335 
 -2.490095928236414  11.497517257288496   1.668079890976936 
  2.488689239617642  11.497584878562366   1.667932027591160 
  3.731114867876719   5.028655171015761   1.620914171073306 
  7.467227927552726  11.497170297765695   1.668210215667426 
  8.711411853134493   5.029849882350439   1.669855408599381 
 -0.001000386161948   7.185743257966753   8.338441102600743 
  1.243662202306836   0.717797385266318   8.337362908766240 
  4.977174385409422   7.185122932219255   8.344211484603299 
  6.222687601292006   0.718168087967447   8.337186329740449 
  9.956367652038434   7.185681065526112   8.337455521859797 
 -2.490396119085561   7.185810721428799   1.668029927367845 
 11.201514704193080   0.718207534457968   8.338544496080250 
  3.733150322357661   0.718004507691423   1.667516110243898 
  2.488219607767499   7.185519054754892   1.658188983409169 
  7.466746268010676   7.185422965476367   1.670363684501189 
  8.712159515778334   0.718218160857261   1.667932027591160 
  2.488219607767500   7.185519054754893   8.347768229435472 
 13.690761144246398   0.717987247050057   1.668035556304646 
 -1.245448702989525   9.341725025661248   8.337877321867705 
 -0.001146262965146   2.873833202438221   8.339125619376871 
  4.977566153645307   2.873844359648415   8.347768229435472 
  3.733058010271974   9.341411354873618   8.337955470080621 
  8.711780481224338   9.341369279824548   8.337455521859797 
  9.956593087624180   2.874122594510945   8.337784365892634 
 -3.734971968623058   9.341592919178716   1.667623375701557 
  1.243909917979812   9.341663995054294   1.668770883104204 
  2.487978413271043   2.873531231019591   1.656703858575042 