B N P                                   
   1.0000000000000000     
     8.7639499999999995  -15.1796066749929999    0.0000000000000000
     8.7639499999999995   15.1796066749929999    0.0000000000000000
     0.0000000000000000    0.0000000000000000   15.0000000000000000
   B    N    P 
    49    47     1
Selective dynamics
Direct
  0.9054879124593950  0.9525347294633282  0.1022772121883887   T   T   T
  0.9038414996197318  0.0939746062742869  0.1063979510938081   T   T   T
  0.9033505617601509  0.2365571016644414  0.1067130972881048   T   T   T
  0.9035031147743209  0.3797399030350225  0.1059670911933340   T   T   T
  0.9049207135802052  0.5233660101326736  0.1041444109519169   T   T   T
  0.9067789102045501  0.6671204575674955  0.0995913082009215   T   T   T
  0.9070770169723095  0.8107486248724350  0.0977828171245240   T   T   T
  0.0490482962505323  0.9533734392240454  0.1032716945135523   T   T   T
  0.0481624859804973  0.0957547009136040  0.1045004414417103   T   T   T
  0.0464592171297987  0.2371732638215902  0.1041207949475376   T   T   T
  0.0457085881388143  0.3796360533913666  0.1026123353741770   T   T   T
  0.0462128345426348  0.5230447996956685  0.1030055743751556   T   T   T
  0.0480668200773447  0.6667247264951771  0.1034316192719582   T   T   T
  0.0491189836843745  0.8102516697438348  0.1025785131912131   T   T   T
  0.1917425712404216  0.9532335536056455  0.1066458096086710   T   T   T
  0.1914641434061235  0.0963987531675383  0.1066223065633494   T   T   T
  0.1911829531674289  0.2396526185563262  0.1061344929383845   T   T   T
  0.1884057860506700  0.3801146120573735  0.1029677007544183   T   T   T
  0.1873477465884141  0.5228652287784086  0.1017434400180941   T   T   T
  0.1894735244224339  0.6662120393051826  0.1049286440073338   T   T   T
  0.1913014243654322  0.8097206677604888  0.1065698683590080   T   T   T
  0.3341307947380622  0.9522789353949697  0.1116835199901702   T   T   T
  0.3342996011727580  0.0962133383185454  0.1128318832559450   T   T   T
  0.3336164007706072  0.2396643563083837  0.1146560510314530   T   T   T
  0.3347986506145986  0.3856338258958318  0.1148995915560486   T   T   T
  0.3272370071806068  0.5226452947322193  0.1062727861137330   T   T   T
  0.3308319757687994  0.6653031567901433  0.1076904017863668   T   T   T
  0.3336476924329845  0.8085499090730544  0.1115376889097067   T   T   T
  0.4763079425752505  0.9497353155974083  0.1158564874230499   T   T   T
  0.4765412291298042  0.0945631545670263  0.1164016479811444   T   T   T
  0.4767206201908669  0.2389471646426296  0.1221775169788878   T   T   T
  0.4728100699710093  0.3790512050299966  0.1429521714568874   T   T   T
  0.4715827293583610  0.5542681812239899  0.1370087025399510   T   T   T
  0.4700687310866583  0.6526943629506226  0.1237535585817385   T   T   T
  0.4758603167282105  0.8035645254726300  0.1172294719293418   T   T   T
  0.6181692286889996  0.9492479898420940  0.1149097690287476   T   T   T
  0.6185488636901794  0.0934945168517683  0.1156688085836889   T   T   T
  0.6188527437396284  0.2376300485655500  0.1179716814697809   T   T   T
  0.6194956841443080  0.3819553948265949  0.1249953311888186   T   T   T
  0.6308046628982154  0.5314881567209484  0.1365735581063980   T   T   T
  0.6283949739231423  0.6691798926455835  0.1312497709335087   T   T   T
  0.6173558040379721  0.8047541042900354  0.1156038250880906   T   T   T
  0.7607653818951328  0.9501663786120075  0.1079014564040164   T   T   T
  0.7607728118849361  0.0932495161193920  0.1113791256394957   T   T   T
  0.7609383718148306  0.2367036793340458  0.1117313295988335   T   T   T
  0.7614300977785872  0.3803011726879077  0.1116677447757724   T   T   T
  0.7638785918982506  0.5241048195143512  0.1073678079883784   T   T   T
  0.7667369439573969  0.6686597047853831  0.0985610097110626   T   T   T
  0.7632847593419749  0.8094799944569289  0.1010220484196025   T   T   T
  0.9541679736884429  0.9058597765407060  0.1009255731368956   T   T   T
  0.9527705122120578  0.0476865705214274  0.1046047363214554   T   T   T
  0.9511158971289666  0.1891537836584490  0.1057401547643538   T   T   T
  0.9505677028296422  0.3317425439873257  0.1047095177053936   T   T   T
  0.9513446675115553  0.4750502651198681  0.1042680619050478   T   T   T
  0.9533121804992181  0.6188324292999713  0.1025426231048315   T   T   T
  0.9543821634152163  0.7626648306750196  0.0992914004113622   T   T   T
  0.0966385421875516  0.9056150896562579  0.1040496970214286   T   T   T
  0.0962216444312482  0.0484727307879570  0.1045778219464824   T   T   T
  0.0953480742266099  0.1908413252065194  0.1044765553670086   T   T   T
  0.0930182459448482  0.3318903367506429  0.1024648215553377   T   T   T
  0.0924027645650323  0.4747723982551064  0.1017618918590829   T   T   T
  0.0943642690612378  0.6184626927555773  0.1035477866999576   T   T   T
  0.0961452839538199  0.7621954498140209  0.1041400475375255   T   T   T
  0.2389473048688910  0.9051235272799096  0.1080613204320322   T   T   T
  0.2390773853206653  0.0485006405986595  0.1081393794139599   T   T   T
  0.2384385641954968  0.1913796174836734  0.1077338552102784   T   T   T
  0.2381491250509898  0.3346865406104471  0.1065650907042221   T   T   T
  0.2328819531100851  0.4743537672646174  0.1010924174212790   T   T   T
  0.2353224023163055  0.6180341701248826  0.1038989088178578   T   T   T
  0.2381090372131322  0.7616585991286610  0.1075578339503052   T   T   T
  0.3811214554058657  0.9039615728920156  0.1136165840837895   T   T   T
  0.3814213927601129  0.0476692173871273  0.1136699674825420   T   T   T
  0.3813427994814574  0.1913510189671925  0.1173124328453624   T   T   T
  0.3799659945334247  0.3342275251677231  0.1217024858502618   T   T   T
  0.3782365994637996  0.4804289561756353  0.1150119518748528   T   T   T
  0.3752662212372710  0.6169867119915298  0.1079731481941311   T   T   T
  0.3802271310836018  0.7604319164067684  0.1131973552965002   T   T   T
  0.5230986088277868  0.9007742051059976  0.1168090869807722   T   T   T
  0.5235093920530487  0.0457898744660863  0.1164932189190370   T   T   T
  0.5237850873627398  0.1900822000276075  0.1190165149858955   T   T   T
  0.5237968021113923  0.3339232077869373  0.1310652841739700   T   T   T
  0.5220538105627091  0.7534715891938393  0.1210600177111204   T   T   T
  0.6654812387581420  0.9015710723181379  0.1122375810781897   T   T   T
  0.6657120530697233  0.0453396440204917  0.1144440308857423   T   T   T
  0.6659328460395562  0.1891568146250216  0.1152333575087067   T   T   T
  0.6663868850070216  0.3330793991287870  0.1182916547873099   T   T   T
  0.6701703163859765  0.4773543884767572  0.1208184778257064   T   T   T
  0.6745545134456882  0.6224889556488145  0.1119723515283193   T   T   T
  0.6690202235579363  0.7615543959123807  0.1110131415147560   T   T   T
  0.8104458073844045  0.9047828162623234  0.1021761265606023   T   T   T
  0.8085566792416710  0.0458980614501570  0.1088631022504835   T   T   T
  0.8082448165899374  0.1887573005784133  0.1099388578951220   T   T   T
  0.8084549384056238  0.3320256374280394  0.1095315130052842   T   T   T
  0.8102082264793314  0.4754922142355908  0.1066122776974448   T   T   T
  0.8125717744667672  0.6193505357414565  0.0985736361231333   T   T   T
  0.8128919990172478  0.7636598011071786  0.0948911219574272   T   T   T
  0.5245522748260673  0.4927238033833362  0.1937075094992962   T   T   T

  0.00000000E+00  0.00000000E+00  0.00000000E+00
  0.00000000E+00  0.00000000E+00  0.00000000E+00
  0.00000000E+00  0.00000000E+00  0.00000000E+00
  0.00000000E+00  0.00000000E+00  0.00000000E+00
  0.00000000E+00  0.00000000E+00  0.00000000E+00
  0.00000000E+00  0.00000000E+00  0.00000000E+00
  0.00000000E+00  0.00000000E+00  0.00000000E+00
  0.00000000E+00  0.00000000E+00  0.00000000E+00
  0.00000000E+00  0.00000000E+00  0.00000000E+00
  0.00000000E+00  0.00000000E+00  0.00000000E+00
  0.00000000E+00  0.00000000E+00  0.00000000E+00
  0.00000000E+00  0.00000000E+00  0.00000000E+00
  0.00000000E+00  0.00000000E+00  0.00000000E+00
  0.00000000E+00  0.00000000E+00  0.00000000E+00
  0.00000000E+00  0.00000000E+00  0.00000000E+00
  0.00000000E+00  0.00000000E+00  0.00000000E+00
  0.00000000E+00  0.00000000E+00  0.00000000E+00
  0.00000000E+00  0.00000000E+00  0.00000000E+00
  0.00000000E+00  0.00000000E+00  0.00000000E+00
  0.00000000E+00  0.00000000E+00  0.00000000E+00
  0.00000000E+00  0.00000000E+00  0.00000000E+00
  0.00000000E+00  0.00000000E+00  0.00000000E+00
  0.00000000E+00  0.00000000E+00  0.00000000E+00
  0.00000000E+00  0.00000000E+00  0.00000000E+00
  0.00000000E+00  0.00000000E+00  0.00000000E+00
  0.00000000E+00  0.00000000E+00  0.00000000E+00
  0.00000000E+00  0.00000000E+00  0.00000000E+00
  0.00000000E+00  0.00000000E+00  0.00000000E+00
  0.00000000E+00  0.00000000E+00  0.00000000E+00
  0.00000000E+00  0.00000000E+00  0.00000000E+00
  0.00000000E+00  0.00000000E+00  0.00000000E+00
  0.00000000E+00  0.00000000E+00  0.00000000E+00
  0.00000000E+00  0.00000000E+00  0.00000000E+00
  0.00000000E+00  0.00000000E+00  0.00000000E+00
  0.00000000E+00  0.00000000E+00  0.00000000E+00
  0.00000000E+00  0.00000000E+00  0.00000000E+00
  0.00000000E+00  0.00000000E+00  0.00000000E+00
  0.00000000E+00  0.00000000E+00  0.00000000E+00
  0.00000000E+00  0.00000000E+00  0.00000000E+00
  0.00000000E+00  0.00000000E+00  0.00000000E+00
  0.00000000E+00  0.00000000E+00  0.00000000E+00
  0.00000000E+00  0.00000000E+00  0.00000000E+00
  0.00000000E+00  0.00000000E+00  0.00000000E+00
  0.00000000E+00  0.00000000E+00  0.00000000E+00
  0.00000000E+00  0.00000000E+00  0.00000000E+00
  0.00000000E+00  0.00000000E+00  0.00000000E+00
  0.00000000E+00  0.00000000E+00  0.00000000E+00
  0.00000000E+00  0.00000000E+00  0.00000000E+00
  0.00000000E+00  0.00000000E+00  0.00000000E+00
  0.00000000E+00  0.00000000E+00  0.00000000E+00
  0.00000000E+00  0.00000000E+00  0.00000000E+00
  0.00000000E+00  0.00000000E+00  0.00000000E+00
  0.00000000E+00  0.00000000E+00  0.00000000E+00
  0.00000000E+00  0.00000000E+00  0.00000000E+00
  0.00000000E+00  0.00000000E+00  0.00000000E+00
  0.00000000E+00  0.00000000E+00  0.00000000E+00
  0.00000000E+00  0.00000000E+00  0.00000000E+00
  0.00000000E+00  0.00000000E+00  0.00000000E+00
  0.00000000E+00  0.00000000E+00  0.00000000E+00
  0.00000000E+00  0.00000000E+00  0.00000000E+00
  0.00000000E+00  0.00000000E+00  0.00000000E+00
  0.00000000E+00  0.00000000E+00  0.00000000E+00
  0.00000000E+00  0.00000000E+00  0.00000000E+00
  0.00000000E+00  0.00000000E+00  0.00000000E+00
  0.00000000E+00  0.00000000E+00  0.00000000E+00
  0.00000000E+00  0.00000000E+00  0.00000000E+00
  0.00000000E+00  0.00000000E+00  0.00000000E+00
  0.00000000E+00  0.00000000E+00  0.00000000E+00
  0.00000000E+00  0.00000000E+00  0.00000000E+00
  0.00000000E+00  0.00000000E+00  0.00000000E+00
  0.00000000E+00  0.00000000E+00  0.00000000E+00
  0.00000000E+00  0.00000000E+00  0.00000000E+00
  0.00000000E+00  0.00000000E+00  0.00000000E+00
  0.00000000E+00  0.00000000E+00  0.00000000E+00
  0.00000000E+00  0.00000000E+00  0.00000000E+00
  0.00000000E+00  0.00000000E+00  0.00000000E+00
  0.00000000E+00  0.00000000E+00  0.00000000E+00
  0.00000000E+00  0.00000000E+00  0.00000000E+00
  0.00000000E+00  0.00000000E+00  0.00000000E+00
  0.00000000E+00  0.00000000E+00  0.00000000E+00
  0.00000000E+00  0.00000000E+00  0.00000000E+00
  0.00000000E+00  0.00000000E+00  0.00000000E+00
  0.00000000E+00  0.00000000E+00  0.00000000E+00
  0.00000000E+00  0.00000000E+00  0.00000000E+00
  0.00000000E+00  0.00000000E+00  0.00000000E+00
  0.00000000E+00  0.00000000E+00  0.00000000E+00
  0.00000000E+00  0.00000000E+00  0.00000000E+00
  0.00000000E+00  0.00000000E+00  0.00000000E+00
  0.00000000E+00  0.00000000E+00  0.00000000E+00
  0.00000000E+00  0.00000000E+00  0.00000000E+00
  0.00000000E+00  0.00000000E+00  0.00000000E+00
  0.00000000E+00  0.00000000E+00  0.00000000E+00
  0.00000000E+00  0.00000000E+00  0.00000000E+00
  0.00000000E+00  0.00000000E+00  0.00000000E+00
  0.00000000E+00  0.00000000E+00  0.00000000E+00
  0.00000000E+00  0.00000000E+00  0.00000000E+00
  0.00000000E+00  0.00000000E+00  0.00000000E+00
