Species order: X N B                    
   2.51242800000000     
     5.9449720136058266    0.0000000000000000    0.0000000000000000
    -2.9724860068029120    5.1484967885702053   -0.0000000000000001
     0.0000000000000000    0.0000000000000009    5.3101128803662583
   As   N    B 
     1   143   143
Direct
  0.4881757355543946  0.4107545344438611  0.3750000000000000
  0.1111153489302446  0.0555386286655558  0.1251340160780578
  0.6110985931669776  0.5555653508193520  0.1251965216950496
  0.4444423300791549  0.0555352948037655  0.1251573916596660
  0.9444448431830375  0.5555629518942790  0.1251764851620681
  0.7777921670376420  0.0555627501854890  0.1250899867983616
  0.1111148412377330  0.7222240872855299  0.6248889364901856
  0.4444423300791549  0.7222403686087260  0.6248426083403332
  0.2777710313314715  0.2222019189206515  0.6248885874678942
  0.7777729382136757  0.7222116940180519  0.6247399983825489
  0.6111022831178947  0.2222041706272182  0.6248299754870857
  0.9444628910624396  0.2222399690485816  0.6248815751039132
  0.2777796512070218  0.7222321255196729  0.1251229962474308
  0.1111305243472157  0.2222319288402722  0.1251518526238507
  0.4444401506304314  0.2221972733165690  0.1252121067454144
  0.6111022831178947  0.7222314458240044  0.1251700245129149
  0.9444448431830375  0.7222152246220938  0.1251764851620681
  0.7777850133963068  0.2222317094012514  0.1251245341624657
  0.1111128122058205  0.8888749950867446  0.6248829416143489
  0.4444466927736714  0.8888900130535001  0.6248870428099876
  0.2777710313314715  0.3889024457441483  0.6248885874678942
  0.6110985931669776  0.3888665756809532  0.6248034783049503
  0.7777850133963068  0.8888866373283848  0.6248754658375343
  0.9444519359729912  0.3889078576893075  0.6248646510420734
  0.1111153489302446  0.3889100535980171  0.1251340160780578
  0.2777796512070218  0.8888808590206798  0.1251229962474308
  0.6111153044940792  0.8888984869768684  0.1250980165105416
  0.4444044967748682  0.3888689150540986  0.1253219148237543
  0.9444519359729912  0.8888774116170132  0.1251353489579259
  0.7777729382136757  0.3888945775289508  0.1252600016174520
  0.2777754183705949  0.5555752691934164  0.6248409758108229
  0.1111153489302446  0.0555386286655558  0.6248659839219416
  0.6110985931669776  0.5555653508193520  0.6248034783049503
  0.4444423300791549  0.0555352948037655  0.6248426083403332
  0.9444448431830375  0.5555629518942790  0.6248235148379315
  0.1111128122058205  0.5555711504524039  0.1251170583856501
  0.7777921670376420  0.0555627501854890  0.6249100132016392
  0.2777754183705949  0.0555334825105140  0.1251590241891771
  0.4444401506304314  0.5555762106471986  0.1252121067454144
  0.7777610318629310  0.5555471825981325  0.1253485076542416
  0.6111153044940792  0.0555501508505395  0.1250980165105416
  0.4444401506304314  0.5555762106471986  0.6247878932545858
  0.9444628910624396  0.0555562553471937  0.1251184248960864
  0.2777796512070218  0.7222321255196729  0.6248770037525694
  0.1111305243472157  0.2222319288402722  0.6248481473761496
  0.4444401506304314  0.2221972733165690  0.6247878932545858
  0.6111022831178947  0.7222314458240044  0.6248299754870857
  0.9444448431830375  0.7222152246220938  0.6248235148379315
  0.7777850133963068  0.2222317094012514  0.6248754658375343
  0.1111148412377330  0.7222240872855299  0.1251110635098134
  0.4444423300791549  0.7222403686087260  0.1251573916596660
  0.2777710313314715  0.2222019189206515  0.1251114125321069
  0.7777729382136757  0.7222116940180519  0.1252600016174520
  0.6111022831178947  0.2222041706272182  0.1251700245129149
  0.9444628910624396  0.2222399690485816  0.1251184248960864
  0.1111153489302446  0.3889100535980171  0.6248659839219416
  0.2777796512070218  0.8888808590206798  0.6248770037525694
  0.6111153044940792  0.8888984869768684  0.6249019834894585
  0.4444044967748682  0.3888689150540986  0.6246780851762458
  0.9444519359729912  0.8888774116170132  0.6248646510420734
  0.1111128122058205  0.8888749950867446  0.1251170583856501
  0.7777729382136757  0.3888945775289508  0.6247399983825489
  0.4444466927736714  0.8888900130535001  0.1251129571900128
  0.2777710313314715  0.3889024457441483  0.1251114125321069
  0.2777754183705949  0.5555752691934164  0.1251590241891771
  0.6110985931669776  0.3888665756809532  0.1251965216950496
  0.7777850133963068  0.8888866373283848  0.1251245341624657
  0.9444519359729912  0.3889078576893075  0.1251353489579259
  0.1111128122058205  0.5555711504524039  0.6248829416143489
  0.2777754183705949  0.0555334825105140  0.6248409758108229
  0.7777610318629310  0.5555471825981325  0.6246514923457586
  0.6111153044940792  0.0555501508505395  0.6249019834894585
  0.9444628910624396  0.0555562553471937  0.6248815751039132
  0.0573485228390756  0.1122758198114188  0.3750000000000000
  0.5541189261294220  0.6181494292549528  0.3750000000000000
  0.3869798100484671  0.1058688462494758  0.3750000000000000
  0.8843384379661705  0.6088358856497564  0.3750000000000000
  0.7228012058656765  0.1106512917312471  0.3750000000000000
  0.0555589212085075  0.7777828060969203  0.8750000000000000
  0.3889017526354224  0.7777816030291064  0.8750000000000000
  0.2222290261702332  0.2777811797517844  0.8750000000000000
  0.7222278743566778  0.7777815879786253  0.8750000000000000
  0.5555617082120977  0.2777834690473753  0.8750000000000000
  0.8888961877218938  0.2777793995683524  0.8750000000000000
  0.2194314423363485  0.7763823878348423  0.3750000000000000
  0.0573485228390756  0.2784060363609926  0.3750000000000000
  0.3922152718908089  0.2734237952990033  0.3750000000000000
  0.5547952444625872  0.7807935613512770  0.3750000000000000
  0.8868800731573871  0.7771538506770498  0.3750000000000000
  0.7221509509101065  0.2758243802431802  0.3750000000000000
  0.0555601219177211  0.9444507386618671  0.8750000000000000
  0.3889017526354224  0.9444534829396525  0.8750000000000000
  0.2222282656537889  0.4444431823505511  0.8750000000000000
  0.5555596520797433  0.4444464927065360  0.8750000000000000
  0.7222281309406490  0.9444480495200424  0.8750000000000000
  0.8888935264629358  0.4444428540040725  0.8750000000000000
  0.0550448925829209  0.4440481675729386  0.3750000000000000
  0.2199328267739235  0.9423947141646912  0.3750000000000000
  0.5548903698322776  0.9441118515828028  0.3750000000000000
  0.3922152718908089  0.4521248099251409  0.3750000000000000
  0.8896226046069815  0.9454697568257578  0.3750000000000000
  0.7177796494196326  0.4415019471479733  0.3750000000000000
  0.2222300673969411  0.6111092838966122  0.8750000000000000
  0.0555613568170861  0.1111149651511958  0.8750000000000000
  0.5555617082120977  0.6111115724980594  0.8750000000000000
  0.3889002030722756  0.1111227279505085  0.8750000000000000
  0.8888902997559949  0.6111118165446680  0.8750000000000000
  0.0524348301287217  0.6097330287978688  0.3750000000000000
  0.7222281309406490  0.1111134147539416  0.8750000000000000
  0.2234127456557568  0.1114118732404653  0.3750000000000000
  0.3869798100484671  0.6144442971323345  0.3750000000000000
  0.7177796494196326  0.6096110356049952  0.3750000000000000
  0.5547952444625872  0.1073350164446450  0.3750000000000000
  0.3889002030722756  0.6111108084551103  0.8750000000000000
  0.8902531626664456  0.1117932479998942  0.3750000000000000
  0.2222307904394897  0.7777820618864125  0.8750000000000000
  0.0555613568170861  0.2777797249992263  0.8750000000000000
  0.3888982034378143  0.2777851357531997  0.8750000000000000
  0.5555644073927635  0.7777809492338975  0.8750000000000000
  0.8888935264629358  0.7777840057921980  0.8750000000000000
  0.7222278743566778  0.2777796197113881  0.8750000000000000
  0.0524348301287217  0.7760351346641885  0.3750000000000000
  0.3869244903579808  0.7781536654013671  0.3750000000000000
  0.2258159524150427  0.2795746428741896  0.3750000000000000
  0.7221509509101065  0.7796599040002624  0.3750000000000000
  0.5541189261294220  0.2693028302078044  0.3750000000000000
  0.8896226046069815  0.2774861811145590  0.3750000000000000
  0.0555601219177211  0.4444427165891828  0.8750000000000000
  0.2222300673969411  0.9444541168336655  0.8750000000000000
  0.5555638911724448  0.9444486122528865  0.8750000000000000
  0.3888982034378143  0.4444464010179505  0.8750000000000000
  0.8888961877218938  0.9444501214868777  0.8750000000000000
  0.0550448925829209  0.9443300583433101  0.3750000000000000
  0.7222244252086159  0.4444449179398824  0.8750000000000000
  0.3869244903579808  0.9421041582899488  0.3750000000000000
  0.2234127456557568  0.4453342057486269  0.3750000000000000
  0.2199328267739235  0.6108714459425675  0.3750000000000000
  0.7228012058656765  0.9454832474677650  0.3750000000000000
  0.8868800731573871  0.4430595558136734  0.3750000000000000
  0.0555589212085075  0.6111094484449238  0.8750000000000000
  0.2222282656537889  0.1111184166365732  0.8750000000000000
  0.7222244252086159  0.6111128406020693  0.8750000000000000
  0.5555644073927635  0.1111167914922018  0.8750000000000000
  0.8888961634688467  0.1111147484010948  0.8750000000000000
  0.1117640464704903  0.0558107006060949  0.3750000000000000
  0.6101421608912979  0.5674448138868269  0.3750000000000000
  0.4434547545238282  0.0518001177804830  0.3750000000000000
  0.9414934501160839  0.5541206696155355  0.3750000000000000
  0.7791344089025147  0.0562338711179251  0.3750000000000000
  0.1111209126679842  0.7222271230006558  0.8750000000000000
  0.4444511402266881  0.7222467288902880  0.8750000000000000
  0.2777400875773158  0.2221966871598191  0.8750000000000000
  0.7778141733431498  0.7222682106174170  0.8750000000000000
  0.6111341464926840  0.2221983972759694  0.8750000000000000
  0.9444451234843754  0.2222145654832310  0.8750000000000000
  0.2755868980655903  0.7218283875321202  0.3750000000000000
  0.1134709719472421  0.2234021526402852  0.3750000000000000
  0.4429308164223811  0.2143071970190922  0.3750000000000000
  0.6118600675039166  0.7286896609482421  0.3750000000000000
  0.9414934501160839  0.7207061138338843  0.3750000000000000
  0.7788629930037460  0.2212691490665444  0.3750000000000000
  0.1111134051966304  0.8888928807345771  0.8750000000000000
  0.4444556315584055  0.8888944824458679  0.8750000000000000
  0.2777400875773158  0.3888767337508249  0.8750000000000000
  0.6111361417928215  0.3888783433534491  0.8750000000000000
  0.7778013982278410  0.8889261966021847  0.8750000000000000
  0.9444586521883275  0.3888788776727041  0.8750000000000000
  0.1117640464704903  0.3892866791977241  0.3750000000000000
  0.2755868980655903  0.8870918438667994  0.3750000000000000
  0.6116466625885962  0.8909533083642377  0.3750000000000000
  0.9439920914673124  0.8890695097695915  0.3750000000000000
  0.7764299537606476  0.3865025698953599  0.3750000000000000
  0.2777628714062887  0.5555586923701981  0.8750000000000000
  0.1110925382190451  0.0555475820559640  0.8750000000000000
  0.6111361417928215  0.5555911317727018  0.8750000000000000
  0.4444511402266881  0.0555377446697359  0.8750000000000000
  0.9444720653667426  0.5555597438239087  0.8750000000000000
  0.1089262260132924  0.5549581783149281  0.3750000000000000
  0.7777941575554599  0.0555637454443975  0.8750000000000000
  0.2759856950278770  0.0528761526689540  0.3750000000000000
  0.4429308164223811  0.5619569527366249  0.3750000000000000
  0.7736491595697762  0.5534912464515563  0.3750000000000000
  0.6116466625885962  0.0540266875576876  0.3750000000000000
  0.4444364807651980  0.5555759216557876  0.8750000000000000
  0.9459939783187160  0.0566832237344647  0.3750000000000000
  0.2777806212464762  0.7222287770594029  0.8750000000000000
  0.1110824399737866  0.2222078866535576  0.8750000000000000
  0.4444364807651980  0.2221938924427461  0.8750000000000000
  0.6111341464926840  0.7222690825500421  0.8750000000000000
  0.9444720653667426  0.7222456548761700  0.8750000000000000
  0.7778013982278410  0.2222085349589856  0.8750000000000000
  0.1082721526968588  0.7208027430150927  0.3750000000000000
  0.4434547545238282  0.7249879700766819  0.3750000000000000
  0.2800307585644017  0.2228613367477104  0.3750000000000000
  0.7764299537606476  0.7232607171986160  0.3750000000000000
  0.6118600675039166  0.2165037398890036  0.3750000000000000
  0.9459939783187160  0.2226440879175873  0.3750000000000000
  0.1110925382190451  0.3888782894964098  0.8750000000000000
  0.2777806212464762  0.8888851775204016  0.8750000000000000
  0.6111298285186384  0.8889149591821532  0.8750000000000000
  0.4444221148628357  0.3888777240980825  0.8750000000000000
  0.9444586521883275  0.8889131078489523  0.8750000000000000
  0.1089262260132924  0.8873013810316945  0.3750000000000000
  0.7778141733431498  0.3888792960590612  0.8750000000000000
  0.4434860721183523  0.8884097027258406  0.3750000000000000
  0.2800307585644017  0.3905027551500204  0.3750000000000000
  0.2759856950278770  0.5564428756922587  0.3750000000000000
  0.6101421608912979  0.3760306803377985  0.3750000000000000
  0.7788629930037460  0.8909271772705296  0.3750000000000000
  0.9439920914673124  0.3882559150310492  0.3750000000000000
  0.1111134051966304  0.5555538577953809  0.8750000000000000
  0.2777628714062887  0.0555375123694275  0.8750000000000000
  0.7778189585138601  0.5555761459235982  0.8750000000000000
  0.6111298285186384  0.0555482026698133  0.8750000000000000
  0.9444451234843754  0.0555638913344791  0.8750000000000000
  0.0555384070481163  0.1110836309531922  0.1249266600527359
  0.5555258832584316  0.6112413199826611  0.1246001984576514
  0.3888033452343241  0.1109301673854687  0.1248501406935845
  0.8890286549830060  0.6111809941581738  0.1249064108911204
  0.7222395341056318  0.1110868586413404  0.1248849328789824
  0.0556161134779740  0.7777937550192032  0.6250826204786821
  0.3888473573035652  0.7778116950047184  0.6250908913766290
  0.2221328067095055  0.2777330700214207  0.6251934335577752
  0.7222744389690736  0.7778808353300040  0.6251721545461001
  0.5555258832584316  0.2776178966091055  0.6253998015423485
  0.8889305286250929  0.2777871229139843  0.6250903512880586
  0.2222179425960165  0.7777756379646764  0.1249241915699180
  0.0555384070481163  0.2777881094282597  0.1249266600527359
  0.3887202969122716  0.2775554523532348  0.1246678323956337
  0.5555316276814738  0.7778688836408030  0.1248446560999323
  0.8889910427303700  0.7778446879522438  0.1249051630625589
  0.7222744389690736  0.2777269369724045  0.1248278454538996
  0.0555709378666280  0.9444202191744830  0.6250764043737180
  0.3888473573035652  0.9443689956321822  0.6250908913766290
  0.2221429347383759  0.4444852248576475  0.6251225933561292
  0.5556056214365123  0.4444694773849204  0.6255603086558847
  0.7222395341056318  0.9444860087976277  0.6251150671210175
  0.8889910427303700  0.4444796881114607  0.6250948369374412
  0.0555709378666280  0.4444840520254730  0.1249235956262820
  0.2221927929071174  0.9443651452606793  0.1249224647106527
  0.5555381585708080  0.9444357459520680  0.1248869023824306
  0.3887202969122716  0.4444981778923721  0.1246678323956337
  0.8889305286250929  0.9444767390444454  0.1249096487119409
  0.7223565317120042  0.4444677128993471  0.1247209088094225
  0.2221927929071174  0.6111609809797738  0.6250775352893480
  0.0555384070481163  0.1110836309531922  0.6250733399472644
  0.5555258832584316  0.6112413199826611  0.6253998015423485
  0.3888033452343241  0.1109301673854687  0.6251498593064151
  0.8890286549830060  0.6111809941581738  0.6250935891088791
  0.0556161134779741  0.6111556917921060  0.1249173795213182
  0.7222395341056318  0.1110868586413404  0.6251150671210175
  0.2221429347383759  0.1109910432140641  0.1248774066438710
  0.3888033452343241  0.6112065111821983  0.1248501406935845
  0.7223565317120042  0.6112221521459925  0.1247209088094225
  0.5555316276814738  0.1109960773740058  0.1248446560999323
  0.3888033452343241  0.6112065111821983  0.6251498593064151
  0.8889072718598385  0.1111203025965911  0.1249192493506904
  0.2222179425960165  0.7777756379646764  0.6250758084300814
  0.0555384070481163  0.2777881094282597  0.6250733399472644
  0.3887202969122716  0.2775554523532348  0.6253321676043659
  0.5555316276814738  0.7778688836408030  0.6251553439000682
  0.8889910427303700  0.7778446879522438  0.6250948369374412
  0.7222744389690736  0.2777269369724045  0.6251721545461001
  0.0556161134779740  0.7777937550192032  0.1249173795213182
  0.3888473573035652  0.7778116950047184  0.1249091086233714
  0.2221328067095055  0.2777330700214207  0.1248065664422251
  0.7222744389690736  0.7778808353300040  0.1248278454538996
  0.5555258832584316  0.2776178966091055  0.1246001984576514
  0.8889305286250929  0.2777871229139843  0.1249096487119409
  0.0555709378666280  0.4444840520254730  0.6250764043737180
  0.2221927929071174  0.9443651452606793  0.6250775352893480
  0.5555381585708080  0.9444357459520680  0.6251130976175699
  0.3887202969122716  0.4444981778923721  0.6253321676043659
  0.8889305286250929  0.9444767390444454  0.6250903512880586
  0.0555709378666280  0.9444202191744830  0.1249235956262820
  0.7223565317120042  0.4444677128993471  0.6252790911905772
  0.3888473573035652  0.9443689956321822  0.1249091086233714
  0.2221429347383759  0.4444852248576475  0.1248774066438710
  0.2221927929071174  0.6111609809797738  0.1249224647106527
  0.5556056214365123  0.4444694773849204  0.1244396913441155
  0.7222395341056318  0.9444860087976277  0.1248849328789824
  0.8889910427303700  0.4444796881114607  0.1249051630625589
  0.0556161134779741  0.6111556917921060  0.6250826204786821
  0.2221429347383759  0.1109910432140641  0.6251225933561292
  0.7223565317120042  0.6112221521459925  0.6252790911905772
  0.5555316276814738  0.1109960773740058  0.6251553439000682
  0.8889072718598385  0.1111203025965911  0.6250807506493101
 
  0.00000000E+00  0.00000000E+00  0.00000000E+00
  0.00000000E+00  0.00000000E+00  0.00000000E+00
  0.00000000E+00  0.00000000E+00  0.00000000E+00
  0.00000000E+00  0.00000000E+00  0.00000000E+00
  0.00000000E+00  0.00000000E+00  0.00000000E+00
  0.00000000E+00  0.00000000E+00  0.00000000E+00
  0.00000000E+00  0.00000000E+00  0.00000000E+00
  0.00000000E+00  0.00000000E+00  0.00000000E+00
  0.00000000E+00  0.00000000E+00  0.00000000E+00
  0.00000000E+00  0.00000000E+00  0.00000000E+00
  0.00000000E+00  0.00000000E+00  0.00000000E+00
  0.00000000E+00  0.00000000E+00  0.00000000E+00
  0.00000000E+00  0.00000000E+00  0.00000000E+00
  0.00000000E+00  0.00000000E+00  0.00000000E+00
  0.00000000E+00  0.00000000E+00  0.00000000E+00
  0.00000000E+00  0.00000000E+00  0.00000000E+00
  0.00000000E+00  0.00000000E+00  0.00000000E+00
  0.00000000E+00  0.00000000E+00  0.00000000E+00
  0.00000000E+00  0.00000000E+00  0.00000000E+00
  0.00000000E+00  0.00000000E+00  0.00000000E+00
  0.00000000E+00  0.00000000E+00  0.00000000E+00
  0.00000000E+00  0.00000000E+00  0.00000000E+00
  0.00000000E+00  0.00000000E+00  0.00000000E+00
  0.00000000E+00  0.00000000E+00  0.00000000E+00
  0.00000000E+00  0.00000000E+00  0.00000000E+00
  0.00000000E+00  0.00000000E+00  0.00000000E+00
  0.00000000E+00  0.00000000E+00  0.00000000E+00
  0.00000000E+00  0.00000000E+00  0.00000000E+00
  0.00000000E+00  0.00000000E+00  0.00000000E+00
  0.00000000E+00  0.00000000E+00  0.00000000E+00
  0.00000000E+00  0.00000000E+00  0.00000000E+00
  0.00000000E+00  0.00000000E+00  0.00000000E+00
  0.00000000E+00  0.00000000E+00  0.00000000E+00
  0.00000000E+00  0.00000000E+00  0.00000000E+00
  0.00000000E+00  0.00000000E+00  0.00000000E+00
  0.00000000E+00  0.00000000E+00  0.00000000E+00
  0.00000000E+00  0.00000000E+00  0.00000000E+00
  0.00000000E+00  0.00000000E+00  0.00000000E+00
  0.00000000E+00  0.00000000E+00  0.00000000E+00
  0.00000000E+00  0.00000000E+00  0.00000000E+00
  0.00000000E+00  0.00000000E+00  0.00000000E+00
  0.00000000E+00  0.00000000E+00  0.00000000E+00
  0.00000000E+00  0.00000000E+00  0.00000000E+00
  0.00000000E+00  0.00000000E+00  0.00000000E+00
  0.00000000E+00  0.00000000E+00  0.00000000E+00
  0.00000000E+00  0.00000000E+00  0.00000000E+00
  0.00000000E+00  0.00000000E+00  0.00000000E+00
  0.00000000E+00  0.00000000E+00  0.00000000E+00
  0.00000000E+00  0.00000000E+00  0.00000000E+00
  0.00000000E+00  0.00000000E+00  0.00000000E+00
  0.00000000E+00  0.00000000E+00  0.00000000E+00
  0.00000000E+00  0.00000000E+00  0.00000000E+00
  0.00000000E+00  0.00000000E+00  0.00000000E+00
  0.00000000E+00  0.00000000E+00  0.00000000E+00
  0.00000000E+00  0.00000000E+00  0.00000000E+00
  0.00000000E+00  0.00000000E+00  0.00000000E+00
  0.00000000E+00  0.00000000E+00  0.00000000E+00
  0.00000000E+00  0.00000000E+00  0.00000000E+00
  0.00000000E+00  0.00000000E+00  0.00000000E+00
  0.00000000E+00  0.00000000E+00  0.00000000E+00
  0.00000000E+00  0.00000000E+00  0.00000000E+00
  0.00000000E+00  0.00000000E+00  0.00000000E+00
  0.00000000E+00  0.00000000E+00  0.00000000E+00
  0.00000000E+00  0.00000000E+00  0.00000000E+00
  0.00000000E+00  0.00000000E+00  0.00000000E+00
  0.00000000E+00  0.00000000E+00  0.00000000E+00
  0.00000000E+00  0.00000000E+00  0.00000000E+00
  0.00000000E+00  0.00000000E+00  0.00000000E+00
  0.00000000E+00  0.00000000E+00  0.00000000E+00
  0.00000000E+00  0.00000000E+00  0.00000000E+00
  0.00000000E+00  0.00000000E+00  0.00000000E+00
  0.00000000E+00  0.00000000E+00  0.00000000E+00
  0.00000000E+00  0.00000000E+00  0.00000000E+00
  0.00000000E+00  0.00000000E+00  0.00000000E+00
  0.00000000E+00  0.00000000E+00  0.00000000E+00
  0.00000000E+00  0.00000000E+00  0.00000000E+00
  0.00000000E+00  0.00000000E+00  0.00000000E+00
  0.00000000E+00  0.00000000E+00  0.00000000E+00
  0.00000000E+00  0.00000000E+00  0.00000000E+00
  0.00000000E+00  0.00000000E+00  0.00000000E+00
  0.00000000E+00  0.00000000E+00  0.00000000E+00
  0.00000000E+00  0.00000000E+00  0.00000000E+00
  0.00000000E+00  0.00000000E+00  0.00000000E+00
  0.00000000E+00  0.00000000E+00  0.00000000E+00
  0.00000000E+00  0.00000000E+00  0.00000000E+00
  0.00000000E+00  0.00000000E+00  0.00000000E+00
  0.00000000E+00  0.00000000E+00  0.00000000E+00
  0.00000000E+00  0.00000000E+00  0.00000000E+00
  0.00000000E+00  0.00000000E+00  0.00000000E+00
  0.00000000E+00  0.00000000E+00  0.00000000E+00
  0.00000000E+00  0.00000000E+00  0.00000000E+00
  0.00000000E+00  0.00000000E+00  0.00000000E+00
  0.00000000E+00  0.00000000E+00  0.00000000E+00
  0.00000000E+00  0.00000000E+00  0.00000000E+00
  0.00000000E+00  0.00000000E+00  0.00000000E+00
  0.00000000E+00  0.00000000E+00  0.00000000E+00
  0.00000000E+00  0.00000000E+00  0.00000000E+00
  0.00000000E+00  0.00000000E+00  0.00000000E+00
  0.00000000E+00  0.00000000E+00  0.00000000E+00
  0.00000000E+00  0.00000000E+00  0.00000000E+00
  0.00000000E+00  0.00000000E+00  0.00000000E+00
  0.00000000E+00  0.00000000E+00  0.00000000E+00
  0.00000000E+00  0.00000000E+00  0.00000000E+00
  0.00000000E+00  0.00000000E+00  0.00000000E+00
  0.00000000E+00  0.00000000E+00  0.00000000E+00
  0.00000000E+00  0.00000000E+00  0.00000000E+00
  0.00000000E+00  0.00000000E+00  0.00000000E+00
  0.00000000E+00  0.00000000E+00  0.00000000E+00
  0.00000000E+00  0.00000000E+00  0.00000000E+00
  0.00000000E+00  0.00000000E+00  0.00000000E+00
  0.00000000E+00  0.00000000E+00  0.00000000E+00
  0.00000000E+00  0.00000000E+00  0.00000000E+00
  0.00000000E+00  0.00000000E+00  0.00000000E+00
  0.00000000E+00  0.00000000E+00  0.00000000E+00
  0.00000000E+00  0.00000000E+00  0.00000000E+00
  0.00000000E+00  0.00000000E+00  0.00000000E+00
  0.00000000E+00  0.00000000E+00  0.00000000E+00
  0.00000000E+00  0.00000000E+00  0.00000000E+00
  0.00000000E+00  0.00000000E+00  0.00000000E+00
  0.00000000E+00  0.00000000E+00  0.00000000E+00
  0.00000000E+00  0.00000000E+00  0.00000000E+00
  0.00000000E+00  0.00000000E+00  0.00000000E+00
  0.00000000E+00  0.00000000E+00  0.00000000E+00
  0.00000000E+00  0.00000000E+00  0.00000000E+00
  0.00000000E+00  0.00000000E+00  0.00000000E+00
  0.00000000E+00  0.00000000E+00  0.00000000E+00
  0.00000000E+00  0.00000000E+00  0.00000000E+00
  0.00000000E+00  0.00000000E+00  0.00000000E+00
  0.00000000E+00  0.00000000E+00  0.00000000E+00
  0.00000000E+00  0.00000000E+00  0.00000000E+00
  0.00000000E+00  0.00000000E+00  0.00000000E+00
  0.00000000E+00  0.00000000E+00  0.00000000E+00
  0.00000000E+00  0.00000000E+00  0.00000000E+00
  0.00000000E+00  0.00000000E+00  0.00000000E+00
  0.00000000E+00  0.00000000E+00  0.00000000E+00
  0.00000000E+00  0.00000000E+00  0.00000000E+00
  0.00000000E+00  0.00000000E+00  0.00000000E+00
  0.00000000E+00  0.00000000E+00  0.00000000E+00
  0.00000000E+00  0.00000000E+00  0.00000000E+00
  0.00000000E+00  0.00000000E+00  0.00000000E+00
  0.00000000E+00  0.00000000E+00  0.00000000E+00
  0.00000000E+00  0.00000000E+00  0.00000000E+00
  0.00000000E+00  0.00000000E+00  0.00000000E+00
  0.00000000E+00  0.00000000E+00  0.00000000E+00
  0.00000000E+00  0.00000000E+00  0.00000000E+00
  0.00000000E+00  0.00000000E+00  0.00000000E+00
  0.00000000E+00  0.00000000E+00  0.00000000E+00
  0.00000000E+00  0.00000000E+00  0.00000000E+00
  0.00000000E+00  0.00000000E+00  0.00000000E+00
  0.00000000E+00  0.00000000E+00  0.00000000E+00
  0.00000000E+00  0.00000000E+00  0.00000000E+00
  0.00000000E+00  0.00000000E+00  0.00000000E+00
  0.00000000E+00  0.00000000E+00  0.00000000E+00
  0.00000000E+00  0.00000000E+00  0.00000000E+00
  0.00000000E+00  0.00000000E+00  0.00000000E+00
  0.00000000E+00  0.00000000E+00  0.00000000E+00
  0.00000000E+00  0.00000000E+00  0.00000000E+00
  0.00000000E+00  0.00000000E+00  0.00000000E+00
  0.00000000E+00  0.00000000E+00  0.00000000E+00
  0.00000000E+00  0.00000000E+00  0.00000000E+00
  0.00000000E+00  0.00000000E+00  0.00000000E+00
  0.00000000E+00  0.00000000E+00  0.00000000E+00
  0.00000000E+00  0.00000000E+00  0.00000000E+00
  0.00000000E+00  0.00000000E+00  0.00000000E+00
  0.00000000E+00  0.00000000E+00  0.00000000E+00
  0.00000000E+00  0.00000000E+00  0.00000000E+00
  0.00000000E+00  0.00000000E+00  0.00000000E+00
  0.00000000E+00  0.00000000E+00  0.00000000E+00
  0.00000000E+00  0.00000000E+00  0.00000000E+00
  0.00000000E+00  0.00000000E+00  0.00000000E+00
  0.00000000E+00  0.00000000E+00  0.00000000E+00
  0.00000000E+00  0.00000000E+00  0.00000000E+00
  0.00000000E+00  0.00000000E+00  0.00000000E+00
  0.00000000E+00  0.00000000E+00  0.00000000E+00
  0.00000000E+00  0.00000000E+00  0.00000000E+00
  0.00000000E+00  0.00000000E+00  0.00000000E+00
  0.00000000E+00  0.00000000E+00  0.00000000E+00
  0.00000000E+00  0.00000000E+00  0.00000000E+00
  0.00000000E+00  0.00000000E+00  0.00000000E+00
  0.00000000E+00  0.00000000E+00  0.00000000E+00
  0.00000000E+00  0.00000000E+00  0.00000000E+00
  0.00000000E+00  0.00000000E+00  0.00000000E+00
  0.00000000E+00  0.00000000E+00  0.00000000E+00
  0.00000000E+00  0.00000000E+00  0.00000000E+00
  0.00000000E+00  0.00000000E+00  0.00000000E+00
  0.00000000E+00  0.00000000E+00  0.00000000E+00
  0.00000000E+00  0.00000000E+00  0.00000000E+00
  0.00000000E+00  0.00000000E+00  0.00000000E+00
  0.00000000E+00  0.00000000E+00  0.00000000E+00
  0.00000000E+00  0.00000000E+00  0.00000000E+00
  0.00000000E+00  0.00000000E+00  0.00000000E+00
  0.00000000E+00  0.00000000E+00  0.00000000E+00
  0.00000000E+00  0.00000000E+00  0.00000000E+00
  0.00000000E+00  0.00000000E+00  0.00000000E+00
  0.00000000E+00  0.00000000E+00  0.00000000E+00
  0.00000000E+00  0.00000000E+00  0.00000000E+00
  0.00000000E+00  0.00000000E+00  0.00000000E+00
  0.00000000E+00  0.00000000E+00  0.00000000E+00
  0.00000000E+00  0.00000000E+00  0.00000000E+00
  0.00000000E+00  0.00000000E+00  0.00000000E+00
  0.00000000E+00  0.00000000E+00  0.00000000E+00
  0.00000000E+00  0.00000000E+00  0.00000000E+00
  0.00000000E+00  0.00000000E+00  0.00000000E+00
  0.00000000E+00  0.00000000E+00  0.00000000E+00
  0.00000000E+00  0.00000000E+00  0.00000000E+00
  0.00000000E+00  0.00000000E+00  0.00000000E+00
  0.00000000E+00  0.00000000E+00  0.00000000E+00
  0.00000000E+00  0.00000000E+00  0.00000000E+00
  0.00000000E+00  0.00000000E+00  0.00000000E+00
  0.00000000E+00  0.00000000E+00  0.00000000E+00
  0.00000000E+00  0.00000000E+00  0.00000000E+00
  0.00000000E+00  0.00000000E+00  0.00000000E+00
  0.00000000E+00  0.00000000E+00  0.00000000E+00
  0.00000000E+00  0.00000000E+00  0.00000000E+00
  0.00000000E+00  0.00000000E+00  0.00000000E+00
  0.00000000E+00  0.00000000E+00  0.00000000E+00
  0.00000000E+00  0.00000000E+00  0.00000000E+00
  0.00000000E+00  0.00000000E+00  0.00000000E+00
  0.00000000E+00  0.00000000E+00  0.00000000E+00
  0.00000000E+00  0.00000000E+00  0.00000000E+00
  0.00000000E+00  0.00000000E+00  0.00000000E+00
  0.00000000E+00  0.00000000E+00  0.00000000E+00
  0.00000000E+00  0.00000000E+00  0.00000000E+00
  0.00000000E+00  0.00000000E+00  0.00000000E+00
  0.00000000E+00  0.00000000E+00  0.00000000E+00
  0.00000000E+00  0.00000000E+00  0.00000000E+00
  0.00000000E+00  0.00000000E+00  0.00000000E+00
  0.00000000E+00  0.00000000E+00  0.00000000E+00
  0.00000000E+00  0.00000000E+00  0.00000000E+00
  0.00000000E+00  0.00000000E+00  0.00000000E+00
  0.00000000E+00  0.00000000E+00  0.00000000E+00
  0.00000000E+00  0.00000000E+00  0.00000000E+00
  0.00000000E+00  0.00000000E+00  0.00000000E+00
  0.00000000E+00  0.00000000E+00  0.00000000E+00
  0.00000000E+00  0.00000000E+00  0.00000000E+00
  0.00000000E+00  0.00000000E+00  0.00000000E+00
  0.00000000E+00  0.00000000E+00  0.00000000E+00
  0.00000000E+00  0.00000000E+00  0.00000000E+00
  0.00000000E+00  0.00000000E+00  0.00000000E+00
  0.00000000E+00  0.00000000E+00  0.00000000E+00
  0.00000000E+00  0.00000000E+00  0.00000000E+00
  0.00000000E+00  0.00000000E+00  0.00000000E+00
  0.00000000E+00  0.00000000E+00  0.00000000E+00
  0.00000000E+00  0.00000000E+00  0.00000000E+00
  0.00000000E+00  0.00000000E+00  0.00000000E+00
  0.00000000E+00  0.00000000E+00  0.00000000E+00
  0.00000000E+00  0.00000000E+00  0.00000000E+00
  0.00000000E+00  0.00000000E+00  0.00000000E+00