 N S B 
 1.0
 17.527899999999772   0.000000000000000   0.000000000000000
 -8.763949999999658  15.179606674993195   0.000000000000000
  0.000000000000001   0.000000000000002  15.000000000000000
 N S B 
  47   2  49
Cartesian
  8.770740266109417  13.766711554069778   1.662613851576855 
 16.272073019454421   0.733060639309692   1.662159372666255 
 15.023944786401390   2.888521543893694   1.663326450400185 
 13.785945457449618   5.050246570818709   1.662439295911065 
 12.577333852880225   7.222719252054313   1.662654729976050 
 11.308200259966481   9.417582706286062   1.664352260350320 
 10.044868218865567  11.615520927073158   1.663110177452280 
 -6.254851385093841  13.743965256249869   1.662651897642555 
  1.238854199771331   0.715730819979867   1.662930824207895 
 -0.018979802291662   2.880933096273798   1.662783356619270 
 -1.265985884629517   5.050246570818709   1.662439295911065 
 -2.503985213581026   7.224471734865996   1.661123884377435 
 -3.742158987119107   9.403266465658612   1.662446544400875 
 -4.993782185283994  11.577224705859578   1.662424600338675 
 -3.754664031532213  13.727236287961125   1.663950082190325 
  3.742078976118706   0.695439390184061   1.662736538978100 
  2.460584249551915   2.842909556126299   1.660923723753240 
  1.209986878350408   5.037102667057436   1.663214902664265 
 -0.057374280059935   7.222719252054313   1.662654729976050 
 -1.265811440060459   9.403266465658612   1.662446544400875 
 -2.503985213589750  11.569160334149929   1.663974702584580 
 -1.253306395647470  13.727236287961125   1.663950082190325 
  6.259979786400950   0.691240468344101   1.662337391024490 
  4.979425040286804   2.817363386010185   1.661396481698415 
  3.666648197567695   4.957797776204345   1.669382412991560 
  2.364190659434438   7.221047668727148   1.671880377590370 
  1.211759312835807   9.417582706286062   1.664352260350320 
 -0.014188241895507  11.577224705859578   1.662424600338675 
  1.246880957914282  13.743965256249869   1.662651897642555 
  8.777880596683705   0.695439390184061   1.662736538978100 
  7.540534532515405   2.817363386010185   1.661396481698415 
  6.259979786401267   4.878568149389047   1.677420802363455 
  3.690265292020695   9.496399537958848   1.671788008360560 
  2.475091353937166  11.615520927073158   1.663110177452280 
  3.749219306693261  13.766711554069778   1.662613851576855 
 11.281105373030448   0.715730819979867   1.662930824207895 
 10.059375323250418   2.842909556126299   1.660923723753240 
  8.853311375234842   4.957797776204345   1.669382412991560 
  6.259979786392312   9.619134813147660   1.676628203710275 
  4.985387846317376  11.651210666928339   1.669700268779565 
  6.259979786410174  13.772529816043003   1.664257423649595 
 13.775816553347543   0.733060639309692   1.662159372666255 
 12.538939375111472   2.880933096273798   1.662783356619270 
 11.309972694469451   5.037102667057436   1.663214902664265 
 10.155768913385590   7.221047668727148   1.671880377590370 
  8.829694280781855   9.496399537958848   1.671788008360560 
  7.534571726485502  11.651210666928339   1.669700268779565 
  4.922200870321223   7.208986575833515   1.672502724354765 
  7.597758702481645   7.208986575833515   1.672502724354765 
  7.514734967419136  14.479011109181881   1.663112239661625 
 15.023935213582341   1.450446186110748   1.662872104444620 
 13.781006168115585   3.608249181182634   1.663195028281905 
 12.550039816848527   5.775145107289511   1.662985889515530 
 11.363697588653865   7.962808285576336   1.666538606947020 
 10.074741417421842  10.186726760308922   1.666310853057795 
  8.789706561189195  12.339467012608459   1.665243162290640 
 -7.506791704219507  14.465035925128070   1.662770853155595 
 -0.007588361404138   1.442795534720133   1.662839714665305 
 -1.261065740933335   3.608249181182634   1.663195028281905 
 -2.503994786399768   5.779967804147820   1.662215279788845 
 -3.728923705228484   7.958082001074128   1.662010729902330 
 -4.981551559438165  10.136091443543060   1.663001416698765 
 -6.235936475601846  12.312508850778977   1.662651835686615 
 -5.005806935824534  14.445218142092582   1.663456228451730 
  2.486698835022300   1.413719010384916   1.662443694906705 
  1.225041989127095   3.591165469311627   1.662452576532390 
 -0.030099389665949   5.775145107289511   1.662985889515530 
 -1.279065867588795   7.958082001074128   1.662010729902330 
 -2.503994786408608  10.128870119791182   1.663233915312105 
 -3.748734179151600  12.290940872576423   1.663765340553405 
 -2.503994786390971  14.438555776296017   1.663934234195820 
  4.995578232265499   1.391827887223201   1.662019335134385 
  3.704660721894695   3.532662024460923   1.663051296010530 
  2.449237646636889   5.748262106678803   1.668358242577125 
  1.156242838528531   7.962808285576336   1.666538606947020 
 -0.026438013361346  10.136091443543060   1.663001416698765 
 -1.259255393648112  12.290940872576423   1.663765340553405 
 -0.002182636974865  14.445218142092582   1.663456228451730 
  7.524362194934509   1.391827887223201   1.662019335134385 
  6.259970213599843   3.466345238532139   1.665997227057840 
  4.989351128621195   5.489599368827563   1.681867201446330 
  3.485720490887770   8.080588981649699   1.674160579929555 
  2.445199009760620  10.186726760308922   1.666310853057795 
  1.227946902802507  12.312508850778977   1.662651835686615 
  2.498802131419984  14.465035925128070   1.662770853155595 
 10.033241592160163   1.413719010384916   1.662443694906705 
  8.815279705305500   3.532662024460923   1.663051296010530 
  7.530589298578567   5.489599368827563   1.681867201446330 
  6.259970213591316   8.222637392982847   1.675829744847540 
  4.973394824299851  10.231754836123356   1.673567360271345 
  3.730233865993476  12.339467012608459   1.665243162290640 
  5.005205459763580  14.479011109181881   1.663112239661625 
 12.527528788586707   1.442795534720133   1.662839714665305 
 11.294898438055171   3.591165469311627   1.662452576532390 
 10.070702780562987   5.748262106678803   1.668358242577125 
  9.034219936294857   8.080588981649699   1.674160579929555 
  7.546545602882859  10.231754836123356   1.673567360271345 
  6.259970213591334  12.343319919622584   1.668559399882995 
