B N S                                   
   1.0000000000000000     
     8.7639499999999995  -15.1796066749929999    0.0000000000000000
     8.7639499999999995   15.1796066749929999    0.0000000000000000
     0.0000000000000000    0.0000000000000000   15.0000000000000000
   B    N    S 
    49    47     2
Selective dynamics
Direct
  0.9056530405185332  0.9538462635553351  0.1108741493107753   T   T   T
  0.9049201963485999  0.0955522904621897  0.1108581402963079   T   T   T
  0.9050844541659164  0.2377037335971852  0.1108796685521273   T   T   T
  0.9062307178356429  0.3804541995678620  0.1108657259677021   T   T   T
  0.9106069235810790  0.5245727676655962  0.1111025737964681   T   T   T
  0.9103230195657990  0.6710797570987455  0.1110873902038530   T   T   T
  0.9079182995438786  0.8128976775752984  0.1110162108193760   T   T   T
  0.0481860736876928  0.9529256083398849  0.1108513902103734   T   T   T
  0.0470912105244838  0.0950482819226786  0.1108559809776867   T   T   T
  0.0469056701102615  0.2377037335971852  0.1108796685521273   T   T   T
  0.0475282938191253  0.3807719085152393  0.1108143519859227   T   T   T
  0.0493885223172558  0.5242614101578953  0.1108007153268224   T   T   T
  0.0496650234210536  0.6677440108010975  0.1108667611132505   T   T   T
  0.0497888408648394  0.8111217315704586  0.1108434557124405   T   T   T
  0.1902192303136854  0.9516200552079890  0.1108970818967815   T   T   T
  0.1884372849129977  0.0931327827297314  0.1108295796604466   T   T   T
  0.1881801208096021  0.2365782952220821  0.1108301717688257   T   T   T
  0.1885098724112260  0.3804541995678620  0.1108657259677021   T   T   T
  0.1891575669626345  0.5242614101578953  0.1108007153268224   T   T   T
  0.1907764822847821  0.6672682854475689  0.1108822610208065   T   T   T
  0.1909780317222245  0.8097008793267654  0.1109176893702268   T   T   T
  0.3327329159661306  0.9511811528082623  0.1109289489463884   T   T   T
  0.3308525515104197  0.0916906423877303  0.1108012890089590   T   T   T
  0.3277200402029440  0.2327242134857563  0.1108700864007018   T   T   T
  0.3290752640818575  0.3786832050232544  0.1112238828384749   T   T   T
  0.3282522347635101  0.5245727676655962  0.1111025737964681   T   T   T
  0.3323636665030482  0.6677440108010975  0.1108667611132505   T   T   T
  0.3330075267275308  0.8097008793267654  0.1109176893702268   T   T   T
  0.4756855040173078  0.9516200552079890  0.1108970818967815   T   T   T
  0.4751244815573193  0.0916906423877303  0.1108012890089590   T   T   T
  0.4713208981207441  0.2283554055615008  0.1110664818038560   T   T   T
  0.4654734909462616  0.3616430574496436  0.1121244800964217   T   T   T
  0.4650329311927782  0.5323319078459140  0.1116107053286372   T   T   T
  0.4750431282119391  0.6710797570987455  0.1110873902038530   T   T   T
  0.4756175698286305  0.8111217315704586  0.1108434557124405   T   T   T
  0.6190242137751892  0.9529256083398849  0.1108513902103734   T   T   T
  0.6189818884957405  0.0931327827297314  0.1108295796604466   T   T   T
  0.6192905639628281  0.2327242134857563  0.1108700864007018   T   T   T
  0.6104559571833695  0.3616430574496436  0.1121244800964217   T   T   T
  0.6279880719241114  0.5416897531692156  0.1117219829898356   T   T   T
  0.6207646799227439  0.6740461103632607  0.1115711573514232   T   T   T
  0.6192657687104196  0.8128976775752984  0.1110162108193760   T   T   T
  0.7624796137158016  0.9538462635553351  0.1108741493107753   T   T   T
  0.7622434620772087  0.0950482819226786  0.1108559809776867   T   T   T
  0.7626845650914726  0.2365782952220821  0.1108301717688257   T   T   T
  0.7638943316213914  0.3786832050232544  0.1112238828384749   T   T   T
  0.7815853673321425  0.5323319078459140  0.1116107053286372   T   T   T
  0.7675678211195238  0.6740461103632607  0.1115711573514232   T   T   T
  0.7637189447611535  0.8131514988433071  0.1112372933255326   T   T   T
  0.9538481442561557  0.9069214933446846  0.1108409234384567   T   T   T
  0.9524989175481596  0.0482924660042303  0.1108106248444166   T   T   T
  0.9522894058802596  0.1902896172304799  0.1108884300266794   T   T   T
  0.9528641009240068  0.3326994354299349  0.1108292863940711   T   T   T
  0.9554694377155819  0.4758172860929911  0.1108436486650699   T   T   T
  0.9553594081753283  0.6204101929597781  0.1109568173566877   T   T   T
  0.9556816477095933  0.7652056588665436  0.1108740118301520   T   T   T
  0.0958603515158485  0.9054230159264671  0.1108434598428367   T   T   T
  0.0942543933588185  0.0471508145964651  0.1108620549471932   T   T   T
  0.0938120194866056  0.1897897065422544  0.1108522237746180   T   T   T
  0.0941228174799361  0.3326994354299349  0.1108292863940711   T   T   T
  0.0951092536639628  0.4759327359099204  0.1107415922918289   T   T   T
  0.0962362540915058  0.6194670696671937  0.1108297696267245   T   T   T
  0.0964366304641524  0.7626827857754602  0.1108283066892448   T   T   T
  0.2379497563628003  0.9043209472993334  0.1109300054793553   T   T   T
  0.2363997452773342  0.0458140586297093  0.1108491025985398   T   T   T
  0.2340234053744711  0.1872847970962047  0.1107282482502160   T   T   T
  0.2349488221128457  0.3318335431810324  0.1108809935109506   T   T   T
  0.2346353313514244  0.4758172860929911  0.1108436486650699   T   T   T
  0.2375165869926915  0.6194670696671937  0.1108297696267245   T   T   T
  0.2382186468218942  0.7621515222267852  0.1109316468389717   T   T   T
  0.3806569623535225  0.9043209472993334  0.1109300054793553   T   T   T
  0.3799124628092502  0.0455374426455228  0.1108224927349658   T   T   T
  0.3768865950630034  0.1856018700834648  0.1107597654465614   T   T   T
  0.3724938000700017  0.3266091067018087  0.1112921608661041   T   T   T
  0.3727351522318773  0.4757071657609588  0.1114586918393585   T   T   T
  0.3793382677574343  0.6204101929597781  0.1109568173566877   T   T   T
  0.3805319267283114  0.7626827857754602  0.1108283066892448   T   T   T
  0.5238484358276149  0.9054230159264671  0.1108434598428367   T   T   T
  0.5237017963253813  0.0458140586297093  0.1108491025985398   T   T   T
  0.5230027579934534  0.1856018700834648  0.1107597654465614   T   T   T
  0.5178385557146602  0.3213896284563140  0.1118280534908967   T   T   T
  0.5233378854051773  0.6256024771447585  0.1114525338907037   T   T   T
  0.5238114941299566  0.7652056588665436  0.1108740118301520   T   T   T
  0.6673608320615281  0.9069214933446846  0.1108409234384567   T   T   T
  0.6671839042106174  0.0471508145964651  0.1108620549471932   T   T   T
  0.6675488746947325  0.1872847970962047  0.1107282482502160   T   T   T
  0.6684027896048133  0.3266091067018087  0.1112921608661041   T   T   T
  0.6739877486826357  0.6336880143932957  0.1117752135806846   T   T   T
  0.6682042607074098  0.7675568225441892  0.1113133512519706   T   T   T
  0.8107961354825545  0.9073047879911006  0.1109504949099726   T   T   T
  0.8100827429860671  0.0482924660042303  0.1108106248444166   T   T   T
  0.8102651700296427  0.1897897065422544  0.1108522237746180   T   T   T
  0.8111722040421805  0.3318335431810324  0.1108809935109506   T   T   T
  0.8172594965030824  0.4757071657609588  0.1114586918393585   T   T   T
  0.8165520747125802  0.6256024771447585  0.1114525338907037   T   T   T
  0.8136400448097928  0.7675568225441892  0.1113133512519706   T   T   T
  0.5182772157795895  0.4749126067745588  0.1115001816236510   T   T   T
  0.6709228739679896  0.4749126067745588  0.1115001816236510   T   T   T

  0.00000000E+00  0.00000000E+00  0.00000000E+00
  0.00000000E+00  0.00000000E+00  0.00000000E+00
  0.00000000E+00  0.00000000E+00  0.00000000E+00
  0.00000000E+00  0.00000000E+00  0.00000000E+00
  0.00000000E+00  0.00000000E+00  0.00000000E+00
  0.00000000E+00  0.00000000E+00  0.00000000E+00
  0.00000000E+00  0.00000000E+00  0.00000000E+00
  0.00000000E+00  0.00000000E+00  0.00000000E+00
  0.00000000E+00  0.00000000E+00  0.00000000E+00
  0.00000000E+00  0.00000000E+00  0.00000000E+00
  0.00000000E+00  0.00000000E+00  0.00000000E+00
  0.00000000E+00  0.00000000E+00  0.00000000E+00
  0.00000000E+00  0.00000000E+00  0.00000000E+00
  0.00000000E+00  0.00000000E+00  0.00000000E+00
  0.00000000E+00  0.00000000E+00  0.00000000E+00
  0.00000000E+00  0.00000000E+00  0.00000000E+00
  0.00000000E+00  0.00000000E+00  0.00000000E+00
  0.00000000E+00  0.00000000E+00  0.00000000E+00
  0.00000000E+00  0.00000000E+00  0.00000000E+00
  0.00000000E+00  0.00000000E+00  0.00000000E+00
  0.00000000E+00  0.00000000E+00  0.00000000E+00
  0.00000000E+00  0.00000000E+00  0.00000000E+00
  0.00000000E+00  0.00000000E+00  0.00000000E+00
  0.00000000E+00  0.00000000E+00  0.00000000E+00
  0.00000000E+00  0.00000000E+00  0.00000000E+00
  0.00000000E+00  0.00000000E+00  0.00000000E+00
  0.00000000E+00  0.00000000E+00  0.00000000E+00
  0.00000000E+00  0.00000000E+00  0.00000000E+00
  0.00000000E+00  0.00000000E+00  0.00000000E+00
  0.00000000E+00  0.00000000E+00  0.00000000E+00
  0.00000000E+00  0.00000000E+00  0.00000000E+00
  0.00000000E+00  0.00000000E+00  0.00000000E+00
  0.00000000E+00  0.00000000E+00  0.00000000E+00
  0.00000000E+00  0.00000000E+00  0.00000000E+00
  0.00000000E+00  0.00000000E+00  0.00000000E+00
  0.00000000E+00  0.00000000E+00  0.00000000E+00
  0.00000000E+00  0.00000000E+00  0.00000000E+00
  0.00000000E+00  0.00000000E+00  0.00000000E+00
  0.00000000E+00  0.00000000E+00  0.00000000E+00
  0.00000000E+00  0.00000000E+00  0.00000000E+00
  0.00000000E+00  0.00000000E+00  0.00000000E+00
  0.00000000E+00  0.00000000E+00  0.00000000E+00
  0.00000000E+00  0.00000000E+00  0.00000000E+00
  0.00000000E+00  0.00000000E+00  0.00000000E+00
  0.00000000E+00  0.00000000E+00  0.00000000E+00
  0.00000000E+00  0.00000000E+00  0.00000000E+00
  0.00000000E+00  0.00000000E+00  0.00000000E+00
  0.00000000E+00  0.00000000E+00  0.00000000E+00
  0.00000000E+00  0.00000000E+00  0.00000000E+00
  0.00000000E+00  0.00000000E+00  0.00000000E+00
  0.00000000E+00  0.00000000E+00  0.00000000E+00
  0.00000000E+00  0.00000000E+00  0.00000000E+00
  0.00000000E+00  0.00000000E+00  0.00000000E+00
  0.00000000E+00  0.00000000E+00  0.00000000E+00
  0.00000000E+00  0.00000000E+00  0.00000000E+00
  0.00000000E+00  0.00000000E+00  0.00000000E+00
  0.00000000E+00  0.00000000E+00  0.00000000E+00
  0.00000000E+00  0.00000000E+00  0.00000000E+00
  0.00000000E+00  0.00000000E+00  0.00000000E+00
  0.00000000E+00  0.00000000E+00  0.00000000E+00
  0.00000000E+00  0.00000000E+00  0.00000000E+00
  0.00000000E+00  0.00000000E+00  0.00000000E+00
  0.00000000E+00  0.00000000E+00  0.00000000E+00
  0.00000000E+00  0.00000000E+00  0.00000000E+00
  0.00000000E+00  0.00000000E+00  0.00000000E+00
  0.00000000E+00  0.00000000E+00  0.00000000E+00
  0.00000000E+00  0.00000000E+00  0.00000000E+00
  0.00000000E+00  0.00000000E+00  0.00000000E+00
  0.00000000E+00  0.00000000E+00  0.00000000E+00
  0.00000000E+00  0.00000000E+00  0.00000000E+00
  0.00000000E+00  0.00000000E+00  0.00000000E+00
  0.00000000E+00  0.00000000E+00  0.00000000E+00
  0.00000000E+00  0.00000000E+00  0.00000000E+00
  0.00000000E+00  0.00000000E+00  0.00000000E+00
  0.00000000E+00  0.00000000E+00  0.00000000E+00
  0.00000000E+00  0.00000000E+00  0.00000000E+00
  0.00000000E+00  0.00000000E+00  0.00000000E+00
  0.00000000E+00  0.00000000E+00  0.00000000E+00
  0.00000000E+00  0.00000000E+00  0.00000000E+00
  0.00000000E+00  0.00000000E+00  0.00000000E+00
  0.00000000E+00  0.00000000E+00  0.00000000E+00
  0.00000000E+00  0.00000000E+00  0.00000000E+00
  0.00000000E+00  0.00000000E+00  0.00000000E+00
  0.00000000E+00  0.00000000E+00  0.00000000E+00
  0.00000000E+00  0.00000000E+00  0.00000000E+00
  0.00000000E+00  0.00000000E+00  0.00000000E+00
  0.00000000E+00  0.00000000E+00  0.00000000E+00
  0.00000000E+00  0.00000000E+00  0.00000000E+00
  0.00000000E+00  0.00000000E+00  0.00000000E+00
  0.00000000E+00  0.00000000E+00  0.00000000E+00
  0.00000000E+00  0.00000000E+00  0.00000000E+00
  0.00000000E+00  0.00000000E+00  0.00000000E+00
  0.00000000E+00  0.00000000E+00  0.00000000E+00
  0.00000000E+00  0.00000000E+00  0.00000000E+00
  0.00000000E+00  0.00000000E+00  0.00000000E+00
  0.00000000E+00  0.00000000E+00  0.00000000E+00
  0.00000000E+00  0.00000000E+00  0.00000000E+00
  0.00000000E+00  0.00000000E+00  0.00000000E+00
