Species order: X N B                    
   2.51242800000000     
     5.9449720136058266    0.0000000000000000    0.0000000000000000
    -2.9724860068029120    5.1484967885702053   -0.0000000000000001
     0.0000000000000000    0.0000000000000009    5.3101128803662583
   Ge   N    B 
     1   143   143
Direct
  0.4964397482322903  0.4148865407828103  0.3750000000000000
  0.1111029601271098  0.0555494719638835  0.1249304083119054
  0.6112525305648410  0.5557593623182697  0.1232047721466634
  0.4445046365767177  0.0555863775049134  0.1248605767516058
  0.9444581854140083  0.5555541835505330  0.1248537779075704
  0.7778377710250008  0.0555855521791723  0.1248400672740464
  0.1111367400673017  0.7222350367003185  0.6251022552445321
  0.4445046365767177  0.7222515924051381  0.6251394232483957
  0.2776893718229637  0.2221734835942911  0.6256675025610013
  0.7778207156777689  0.7222929442419839  0.6255294485346281
  0.6111821782235365  0.2222075326944926  0.6255785646953962
  0.9444635681960872  0.2222234506833435  0.6251091159949919
  0.2778242125352718  0.7222426398970556  0.1249109866035091
  0.1110677049126009  0.2222005191229655  0.1248752687860215
  0.4444952032026962  0.2222558163215106  0.1243156783217586
  0.6111821782235365  0.7223079788623697  0.1244214353046023
  0.9444581854140083  0.7222373351968093  0.1248537779075704
  0.7778350641063755  0.2222128062466816  0.1248272400606855
  0.1111379747898093  0.8889083036884912  0.6250963252194681
  0.4445053653586020  0.8889193493459642  0.6251170234895058
  0.2776893718229637  0.3888492215620009  0.6256675025610013
  0.6112525305648410  0.3888265015799025  0.6267952278533351
  0.7778350641063755  0.8889555911930245  0.6251727599393141
  0.9444691797397897  0.3888876637027242  0.6250661138222166
  0.1111029601271098  0.3888868214965533  0.1249304083119054
  0.2778242125352718  0.8889149059715441  0.1249109866035091
  0.6111768528101331  0.8889388728200532  0.1248546733232713
  0.4441374954209861  0.3887354143771565  0.1227490977653369
  0.9444691797397897  0.8889148493703971  0.1249338861777806
  0.7778207156777689  0.3888611047691111  0.1244705514653698
  0.2778175535646232  0.5555669943578705  0.6251420889768566
  0.1111029601271098  0.0555494719638835  0.6250695916880885
  0.6112525305648410  0.5557593623182697  0.6267952278533351
  0.4445046365767177  0.0555863775049134  0.6251394232483957
  0.9444581854140083  0.5555541835505330  0.6251462220924285
  0.1111379747898093  0.5555630044346385  0.1249036747805340
  0.7778377710250008  0.0555855521791723  0.6251599327259539
  0.2778175535646232  0.0555838925400855  0.1248579110231456
  0.4444952032026962  0.5555727202145201  0.1243156783217586
  0.7778021504978737  0.5555677419156059  0.1243087764665758
  0.6111768528101331  0.0555713133234150  0.1248546733232713
  0.4444952032026962  0.5555727202145201  0.6256843216782423
  0.9444635681960872  0.0555734508460747  0.1248908840050109
  0.2778242125352718  0.7222426398970556  0.6250890133964926
  0.1110677049126009  0.2222005191229655  0.6251247312139785
  0.4444952032026962  0.2222558163215106  0.6256843216782423
  0.6111821782235365  0.7223079788623697  0.6255785646953962
  0.9444581854140083  0.7222373351968093  0.6251462220924285
  0.7778350641063755  0.2222128062466816  0.6251727599393141
  0.1111367400673017  0.7222350367003185  0.1248977447554704
  0.4445046365767177  0.7222515924051381  0.1248605767516058
  0.2776893718229637  0.2221734835942911  0.1243324974389988
  0.7778207156777689  0.7222929442419839  0.1244705514653698
  0.6111821782235365  0.2222075326944926  0.1244214353046023
  0.9444635681960872  0.2222234506833435  0.1248908840050109
  0.1111029601271098  0.3888868214965533  0.6250695916880885
  0.2778242125352718  0.8889149059715441  0.6250890133964926
  0.6111768528101331  0.8889388728200532  0.6251453266767305
  0.4441374954209861  0.3887354143771565  0.6272509022346648
  0.9444691797397897  0.8889148493703971  0.6250661138222166
  0.1111379747898093  0.8889083036884912  0.1249036747805340
  0.7778207156777689  0.3888611047691111  0.6255294485346281
  0.4445053653586020  0.8889193493459642  0.1248829765104932
  0.2776893718229637  0.3888492215620009  0.1243324974389988
  0.2778175535646232  0.5555669943578705  0.1248579110231456
  0.6112525305648410  0.3888265015799025  0.1232047721466634
  0.7778350641063755  0.8889555911930245  0.1248272400606855
  0.9444691797397897  0.3888876637027242  0.1249338861777806
  0.1111379747898093  0.5555630044346385  0.6250963252194681
  0.2778175535646232  0.0555838925400855  0.6251420889768566
  0.7778021504978737  0.5555677419156059  0.6256912235334228
  0.6111768528101331  0.0555713133234150  0.6251453266767305
  0.9444635681960872  0.0555734508460747  0.6251091159949919
  0.0588238742483265  0.1129261101425586  0.3750000000000000
  0.5556370651693973  0.6191570287619362  0.3750000000000000
  0.3882581048886537  0.1058012360610684  0.3750000000000000
  0.8868691122386583  0.6101012227860009  0.3750000000000000
  0.7243056752185828  0.1114328454154782  0.3750000000000000
  0.0555482811231764  0.7777733594894605  0.8750000000000000
  0.3888616105386700  0.7777723773255123  0.8750000000000000
  0.2222064495690375  0.2777698914511876  0.8750000000000000
  0.7221992020061323  0.7777605224532786  0.8750000000000000
  0.5555208460756932  0.2777534866105921  0.8750000000000000
  0.8888705764117777  0.2777736410503897  0.8750000000000000
  0.2209442542828635  0.7771387938080959  0.3750000000000000
  0.0588238742483265  0.2792310974390962  0.3750000000000000
  0.3927518151392432  0.2727726169711966  0.3750000000000000
  0.5562191344384682  0.7816378935275142  0.3750000000000000
  0.8886506791455172  0.7779127334870517  0.3750000000000000
  0.7238030904337575  0.2767841933873192  0.3750000000000000
  0.0555359727820739  0.9444292798656587  0.8750000000000000
  0.3888616105386700  0.9444225665464990  0.8750000000000000
  0.2221973032481279  0.4444432151918343  0.8750000000000000
  0.5555328399023610  0.4444330866178448  0.8750000000000000
  0.7221966898830652  0.9444296171256527  0.8750000000000000
  0.8888806933643176  0.4444448898629731  0.8750000000000000
  0.0563582869709078  0.4449620620936914  0.3750000000000000
  0.2213074864267630  0.9427589542076082  0.3750000000000000
  0.5563260174257646  0.9448296753795460  0.3750000000000000
  0.3927518151392503  0.4533125315013797  0.3750000000000000
  0.8911402496955391  0.9461530211314132  0.3750000000000000
  0.7204341296925811  0.4428488644534696  0.3750000000000000
  0.2221961503818902  0.6111079185913600  0.8750000000000000
  0.0555375161152073  0.1110989206676572  0.8750000000000000
  0.5555208460756932  0.6111006927984269  0.8750000000000000
  0.3888555266460608  0.1110764659296539  0.8750000000000000
  0.8889010619053411  0.6111171976193435  0.8750000000000000
  0.0542617577929097  0.6107061234986569  0.3750000000000000
  0.7221966898830652  0.1111004060907490  0.8750000000000000
  0.2242748540190764  0.1112037254814352  0.3750000000000000
  0.3882581048886537  0.6157902021609266  0.3750000000000000
  0.7204341296925811  0.6109185985724473  0.3750000000000000
  0.5562191344384682  0.1079145742442880  0.3750000000000000
  0.3888555266460608  0.6111123940497472  0.8750000000000000
  0.8917660241448007  0.1125496787390754  0.3750000000000000
  0.2222021743889696  0.7777677538611472  0.8750000000000000
  0.0555375161152073  0.2777719287808866  0.8750000000000000
  0.3888654376854886  0.2777459700989514  0.8750000000000000
  0.5555240104702396  0.7777660565117148  0.8750000000000000
  0.8888806933643176  0.7777691368346844  0.8750000000000000
  0.7221992020061323  0.2777720128861846  0.8750000000000000
  0.0542617577929097  0.7768889676275980  0.3750000000000000
  0.3882924654976603  0.7790621581956607  0.3750000000000000
  0.2272598432795896  0.2802965883064584  0.3750000000000000
  0.7238030904337575  0.7803522303797774  0.3750000000000000
  0.5556370651693973  0.2698133697408014  0.3750000000000000
  0.8911402496955391  0.2783205618974569  0.3750000000000000
  0.0555359727820739  0.4444400262497410  0.8750000000000000
  0.2221961503818902  0.9444215651238669  0.8750000000000000
  0.5555275609036427  0.9444304471184901  0.8750000000000000
  0.3888654376854886  0.4444528009198739  0.8750000000000000
  0.8888705764117777  0.9444302686947237  0.8750000000000000
  0.0563582869709078  0.9447295582105379  0.3750000000000000
  0.7222219309686944  0.4444519744663092  0.8750000000000000
  0.3882924654976603  0.9425636406353303  0.3750000000000000
  0.2242748540190764  0.4464044618709765  0.3750000000000000
  0.2213074864267630  0.6118818655524890  0.3750000000000000
  0.7243056752185828  0.9462061631364402  0.3750000000000000
  0.8886506791455172  0.4440712789918022  0.3750000000000000
  0.0555482811231764  0.6111082549670465  0.8750000000000000
  0.2221973032481279  0.1110874213896205  0.8750000000000000
  0.7222219309686944  0.6111032898357213  0.8750000000000000
  0.5555240104702396  0.1110912872918561  0.8750000000000000
  0.8888704509541490  0.1111018921437445  0.8750000000000000
  0.1135587450851103  0.0564629672676068  0.3750000000000000
  0.6089496658685025  0.5620219301307464  0.3750000000000000
  0.4448734453201712  0.0527461467746941  0.3750000000000000
  0.9429908001921835  0.5550807302558310  0.3750000000000000
  0.7804940761041302  0.0569137047187280  0.3750000000000000
  0.1110884774651035  0.7222109053992146  0.8750000000000000
  0.4444145565379438  0.7221771142136565  0.8750000000000000
  0.2778276462706541  0.2222559251438170  0.8750000000000000
  0.7777140939602322  0.7221407688153394  0.8750000000000000
  0.6110526081530196  0.2222540030184408  0.8750000000000000
  0.9444396464837786  0.2222291289693252  0.8750000000000000
  0.2771323598268008  0.7225979598685943  0.3750000000000000
  0.1161756340086328  0.2247544836709845  0.3750000000000000
  0.4444733267089748  0.2159202907636788  0.3750000000000000
  0.6124780200902278  0.7275210677502796  0.3750000000000000
  0.9429908001921835  0.7212434032696808  0.3750000000000000
  0.7799793521521936  0.2225082976520666  0.3750000000000000
  0.1110995537804164  0.8888825563005963  0.8750000000000000
  0.4444148725785667  0.8888741029559495  0.8750000000000000
  0.2778276462706541  0.3889050544601648  0.8750000000000000
  0.6110430531998454  0.3889119238259436  0.8750000000000000
  0.7777326842915058  0.8888299649887980  0.8750000000000000
  0.9444184955092009  0.3888960211649107  0.8750000000000000
  0.1135587450851103  0.3904291111508264  0.3750000000000000
  0.2771323598268008  0.8878677332915359  0.3750000000000000
  0.6128691277831602  0.8912387852860508  0.3750000000000000
  0.9452652728282998  0.8893043045636545  0.3750000000000000
  0.7771677666148191  0.3882147731107604  0.3750000000000000
  0.2777854937967916  0.5555438921468455  0.8750000000000000
  0.1111258893483358  0.0555636779634102  0.8750000000000000
  0.6110430531998454  0.5554644627072295  0.8750000000000000
  0.4444145565379438  0.0555707756576206  0.8750000000000000
  0.9444081955546039  0.5555504344776452  0.8750000000000000
  0.1105362944723243  0.5558642441934741  0.3750000000000000
  0.7777458110356370  0.0555395721844828  0.8750000000000000
  0.2778476344045418  0.0538007541093830  0.3750000000000000
  0.4444733267089748  0.5618863692786306  0.3750000000000000
  0.7747229408655655  0.5540281370994499  0.3750000000000000
  0.6128691277831602  0.0549636758304480  0.3750000000000000
  0.4444385908397406  0.5555140096752356  0.8750000000000000
  0.9477223641504922  0.0574098035120400  0.3750000000000000
  0.2777627710854219  0.7222075881733668  0.8750000000000000
  0.1111497996176206  0.2222415664754712  0.8750000000000000
  0.4444385908397406  0.2222579144978421  0.8750000000000000
  0.6110526081530196  0.7221319384679037  0.8750000000000000
  0.9444081955546039  0.7221910944102945  0.8750000000000000
  0.7777326842915058  0.2222360526360318  0.8750000000000000
  0.1098568850739491  0.7215951092036391  0.3750000000000000
  0.4448734453201712  0.7254606318788150  0.3750000000000000
  0.2835182076078732  0.2241317460804917  0.3750000000000000
  0.7771677666148191  0.7222863268373887  0.3750000000000000
  0.6124780200902278  0.2182902856732754  0.3750000000000000
  0.9477223641504922  0.2236458939717867  0.3750000000000000
  0.1111258893483358  0.3888955447182544  0.8750000000000000
  0.2777627710854219  0.8888885162453838  0.8750000000000000
  0.6110671622145342  0.8888448797717176  0.8750000000000000
  0.4444826314928987  0.3889079824131123  0.8750000000000000
  0.9444184955092009  0.8888558076776192  0.8750000000000000
  0.1105362944723243  0.8880053836121813  0.3750000000000000
  0.7777140939602322  0.3889066584782195  0.8750000000000000
  0.4448630978688617  0.8890982156010963  0.3750000000000000
  0.2835182076078732  0.3927197948607107  0.3750000000000000
  0.2778476344045418  0.5573802136284930  0.3750000000000000
  0.6089496658685027  0.3802610690710774  0.3750000000000000
  0.7799793521521936  0.8908043878334653  0.3750000000000000
  0.9452652728282998  0.3892943015979699  0.3750000000000000
  0.1110995537804164  0.5555503308131547  0.8750000000000000
  0.2777854937967916  0.0555749349832884  0.8750000000000000
  0.7777162063876718  0.5555247698605016  0.8750000000000000
  0.6110671622145342  0.0555556157761506  0.8750000000000000
  0.9444396464837786  0.0555438508477908  0.8750000000000000
  0.0556138172375968  0.1111608885230416  0.1251075705128647
  0.5556565124617604  0.6109833009877577  0.1245312850162102
  0.3890375006831050  0.1113632592287459  0.1250539348892045
  0.8887001672122085  0.6110167502727762  0.1249241762096711
  0.7222671770594511  0.1111415523445674  0.1250067876669561
  0.0555243756718770  0.7777817817565595  0.6249562447765508
  0.3889883861066539  0.7777687149424226  0.6249367745192976
  0.2223086572551146  0.2778209952942240  0.6250679009115044
  0.7222002574291685  0.7777379729224402  0.6251744448580219
  0.5556565124617604  0.2780065448073390  0.6254687149837826
  0.8889042645130824  0.2777758780811240  0.6249535859912190
  0.2222743032860051  0.7778038183096728  0.1250382955418081
  0.0556138172375967  0.2777862620478916  0.1251075705128647
  0.3889470366625912  0.2779502838458163  0.1244741361404281
  0.5556342668131699  0.7777378812822741  0.1249649439985977
  0.8888075348106768  0.7777425536410953  0.1249626909306893
  0.7222002574291685  0.2777956178400683  0.1248255551419795
  0.0555820134994630  0.9444962030914663  0.6248878918286077
  0.3889883861066539  0.9445530044975653  0.6249367745192976
  0.2223144287501413  0.4444010936608970  0.6249418811510336
  0.5554659914786447  0.4443996624059867  0.6226689268811550
  0.7222671770594511  0.9444589580482218  0.6249932123330525
  0.8888075348106768  0.4443983145029244  0.6250373090693125
  0.0555820134994630  0.4444191437413244  0.1251121081713926
  0.2223078738380715  0.9445700970083445  0.1250795625816899
  0.5556339187674546  0.9444836260503956  0.1250432207413217
  0.3889470366625912  0.4443300861501122  0.1244741361404281
  0.8889042645130824  0.9444617197652968  0.1250464140087781
  0.7219710743360119  0.4443243695557987  0.1243597869331130
  0.2223078738380715  0.6110711101630630  0.6249204374183120
  0.0556138172375968  0.1111608885230416  0.6248924294871369
  0.5556565124617604  0.6109833009877577  0.6254687149837826
  0.3890375006831050  0.1113632592287459  0.6249460651107942
  0.8887001672122085  0.6110167502727762  0.6250758237903307
  0.0555243756718770  0.6110759272486553  0.1250437552234508
  0.7222671770594511  0.1111415523445674  0.6249932123330525
  0.2223144287501413  0.1112466684225791  0.1250581188489663
  0.3890375006831050  0.6110075747877048  0.1250539348892045
  0.7219710743360119  0.6109800381135561  0.1243597869331130
  0.5556342668131699  0.1112297188642348  0.1249649439985977
  0.3890375006831050  0.6110075747877048  0.6249460651107942
  0.8889328725740917  0.1111331029537147  0.1250222022237056
  0.2222743032860051  0.7778038183096728  0.6249617044581985
  0.0556138172375968  0.2777862620478916  0.6248924294871369
  0.3889470366625912  0.2779502838458163  0.6255258638595739
  0.5556342668131699  0.7777378812822741  0.6250350560014055
  0.8888075348106768  0.7777425536410953  0.6250373090693125
  0.7222002574291685  0.2777956178400683  0.6251744448580219
  0.0555243756718770  0.7777817817565595  0.1250437552234508
  0.3889883861066539  0.7777687149424226  0.1250632254807042
  0.2223086572551146  0.2778209952942240  0.1249320990884962
  0.7222002574291685  0.7777379729224402  0.1248255551419795
  0.5556565124617604  0.2780065448073390  0.1245312850162102
  0.8889042645130824  0.2777758780811240  0.1250464140087781
  0.0555820134994630  0.4444191437413244  0.6248878918286077
  0.2223078738380715  0.9445700970083445  0.6249204374183120
  0.5556339187674546  0.9444836260503956  0.6249567792586792
  0.3889470366625912  0.4443300861501122  0.6255258638595739
  0.8889042645130824  0.9444617197652968  0.6249535859912190
  0.0555820134994630  0.9444962030914663  0.1251121081713926
  0.7219710743360119  0.4443243695557987  0.6256402130668869
  0.3889883861066539  0.9445530044975653  0.1250632254807042
  0.2223144287501413  0.4444010936608970  0.1250581188489663
  0.2223078738380715  0.6110711101630630  0.1250795625816899
  0.5554659914786447  0.4443996624059867  0.1273310731188436
  0.7222671770594511  0.9444589580482218  0.1250067876669561
  0.8888075348106768  0.4443983145029244  0.1249626909306893
  0.0555243756718770  0.6110759272486553  0.6249562447765508
  0.2223144287501413  0.1112466684225791  0.6249418811510336
  0.7219710743360119  0.6109800381135561  0.6256402130668869
  0.5556342668131699  0.1112297188642348  0.6250350560014055
  0.8889328725740917  0.1111331029537147  0.6249777977762948
 
  0.00000000E+00  0.00000000E+00  0.00000000E+00
  0.00000000E+00  0.00000000E+00  0.00000000E+00
  0.00000000E+00  0.00000000E+00  0.00000000E+00
  0.00000000E+00  0.00000000E+00  0.00000000E+00
  0.00000000E+00  0.00000000E+00  0.00000000E+00
  0.00000000E+00  0.00000000E+00  0.00000000E+00
  0.00000000E+00  0.00000000E+00  0.00000000E+00
  0.00000000E+00  0.00000000E+00  0.00000000E+00
  0.00000000E+00  0.00000000E+00  0.00000000E+00
  0.00000000E+00  0.00000000E+00  0.00000000E+00
  0.00000000E+00  0.00000000E+00  0.00000000E+00
  0.00000000E+00  0.00000000E+00  0.00000000E+00
  0.00000000E+00  0.00000000E+00  0.00000000E+00
  0.00000000E+00  0.00000000E+00  0.00000000E+00
  0.00000000E+00  0.00000000E+00  0.00000000E+00
  0.00000000E+00  0.00000000E+00  0.00000000E+00
  0.00000000E+00  0.00000000E+00  0.00000000E+00
  0.00000000E+00  0.00000000E+00  0.00000000E+00
  0.00000000E+00  0.00000000E+00  0.00000000E+00
  0.00000000E+00  0.00000000E+00  0.00000000E+00
  0.00000000E+00  0.00000000E+00  0.00000000E+00
  0.00000000E+00  0.00000000E+00  0.00000000E+00
  0.00000000E+00  0.00000000E+00  0.00000000E+00
  0.00000000E+00  0.00000000E+00  0.00000000E+00
  0.00000000E+00  0.00000000E+00  0.00000000E+00
  0.00000000E+00  0.00000000E+00  0.00000000E+00
  0.00000000E+00  0.00000000E+00  0.00000000E+00
  0.00000000E+00  0.00000000E+00  0.00000000E+00
  0.00000000E+00  0.00000000E+00  0.00000000E+00
  0.00000000E+00  0.00000000E+00  0.00000000E+00
  0.00000000E+00  0.00000000E+00  0.00000000E+00
  0.00000000E+00  0.00000000E+00  0.00000000E+00
  0.00000000E+00  0.00000000E+00  0.00000000E+00
  0.00000000E+00  0.00000000E+00  0.00000000E+00
  0.00000000E+00  0.00000000E+00  0.00000000E+00
  0.00000000E+00  0.00000000E+00  0.00000000E+00
  0.00000000E+00  0.00000000E+00  0.00000000E+00
  0.00000000E+00  0.00000000E+00  0.00000000E+00
  0.00000000E+00  0.00000000E+00  0.00000000E+00
  0.00000000E+00  0.00000000E+00  0.00000000E+00
  0.00000000E+00  0.00000000E+00  0.00000000E+00
  0.00000000E+00  0.00000000E+00  0.00000000E+00
  0.00000000E+00  0.00000000E+00  0.00000000E+00
  0.00000000E+00  0.00000000E+00  0.00000000E+00
  0.00000000E+00  0.00000000E+00  0.00000000E+00
  0.00000000E+00  0.00000000E+00  0.00000000E+00
  0.00000000E+00  0.00000000E+00  0.00000000E+00
  0.00000000E+00  0.00000000E+00  0.00000000E+00
  0.00000000E+00  0.00000000E+00  0.00000000E+00
  0.00000000E+00  0.00000000E+00  0.00000000E+00
  0.00000000E+00  0.00000000E+00  0.00000000E+00
  0.00000000E+00  0.00000000E+00  0.00000000E+00
  0.00000000E+00  0.00000000E+00  0.00000000E+00
  0.00000000E+00  0.00000000E+00  0.00000000E+00
  0.00000000E+00  0.00000000E+00  0.00000000E+00
  0.00000000E+00  0.00000000E+00  0.00000000E+00
  0.00000000E+00  0.00000000E+00  0.00000000E+00
  0.00000000E+00  0.00000000E+00  0.00000000E+00
  0.00000000E+00  0.00000000E+00  0.00000000E+00
  0.00000000E+00  0.00000000E+00  0.00000000E+00
  0.00000000E+00  0.00000000E+00  0.00000000E+00
  0.00000000E+00  0.00000000E+00  0.00000000E+00
  0.00000000E+00  0.00000000E+00  0.00000000E+00
  0.00000000E+00  0.00000000E+00  0.00000000E+00
  0.00000000E+00  0.00000000E+00  0.00000000E+00
  0.00000000E+00  0.00000000E+00  0.00000000E+00
  0.00000000E+00  0.00000000E+00  0.00000000E+00
  0.00000000E+00  0.00000000E+00  0.00000000E+00
  0.00000000E+00  0.00000000E+00  0.00000000E+00
  0.00000000E+00  0.00000000E+00  0.00000000E+00
  0.00000000E+00  0.00000000E+00  0.00000000E+00
  0.00000000E+00  0.00000000E+00  0.00000000E+00
  0.00000000E+00  0.00000000E+00  0.00000000E+00
  0.00000000E+00  0.00000000E+00  0.00000000E+00
  0.00000000E+00  0.00000000E+00  0.00000000E+00
  0.00000000E+00  0.00000000E+00  0.00000000E+00
  0.00000000E+00  0.00000000E+00  0.00000000E+00
  0.00000000E+00  0.00000000E+00  0.00000000E+00
  0.00000000E+00  0.00000000E+00  0.00000000E+00
  0.00000000E+00  0.00000000E+00  0.00000000E+00
  0.00000000E+00  0.00000000E+00  0.00000000E+00
  0.00000000E+00  0.00000000E+00  0.00000000E+00
  0.00000000E+00  0.00000000E+00  0.00000000E+00
  0.00000000E+00  0.00000000E+00  0.00000000E+00
  0.00000000E+00  0.00000000E+00  0.00000000E+00
  0.00000000E+00  0.00000000E+00  0.00000000E+00
  0.00000000E+00  0.00000000E+00  0.00000000E+00
  0.00000000E+00  0.00000000E+00  0.00000000E+00
  0.00000000E+00  0.00000000E+00  0.00000000E+00
  0.00000000E+00  0.00000000E+00  0.00000000E+00
  0.00000000E+00  0.00000000E+00  0.00000000E+00
  0.00000000E+00  0.00000000E+00  0.00000000E+00
  0.00000000E+00  0.00000000E+00  0.00000000E+00
  0.00000000E+00  0.00000000E+00  0.00000000E+00
  0.00000000E+00  0.00000000E+00  0.00000000E+00
  0.00000000E+00  0.00000000E+00  0.00000000E+00
  0.00000000E+00  0.00000000E+00  0.00000000E+00
  0.00000000E+00  0.00000000E+00  0.00000000E+00
  0.00000000E+00  0.00000000E+00  0.00000000E+00
  0.00000000E+00  0.00000000E+00  0.00000000E+00
  0.00000000E+00  0.00000000E+00  0.00000000E+00
  0.00000000E+00  0.00000000E+00  0.00000000E+00
  0.00000000E+00  0.00000000E+00  0.00000000E+00
  0.00000000E+00  0.00000000E+00  0.00000000E+00
  0.00000000E+00  0.00000000E+00  0.00000000E+00
  0.00000000E+00  0.00000000E+00  0.00000000E+00
  0.00000000E+00  0.00000000E+00  0.00000000E+00
  0.00000000E+00  0.00000000E+00  0.00000000E+00
  0.00000000E+00  0.00000000E+00  0.00000000E+00
  0.00000000E+00  0.00000000E+00  0.00000000E+00
  0.00000000E+00  0.00000000E+00  0.00000000E+00
  0.00000000E+00  0.00000000E+00  0.00000000E+00
  0.00000000E+00  0.00000000E+00  0.00000000E+00
  0.00000000E+00  0.00000000E+00  0.00000000E+00
  0.00000000E+00  0.00000000E+00  0.00000000E+00
  0.00000000E+00  0.00000000E+00  0.00000000E+00
  0.00000000E+00  0.00000000E+00  0.00000000E+00
  0.00000000E+00  0.00000000E+00  0.00000000E+00
  0.00000000E+00  0.00000000E+00  0.00000000E+00
  0.00000000E+00  0.00000000E+00  0.00000000E+00
  0.00000000E+00  0.00000000E+00  0.00000000E+00
  0.00000000E+00  0.00000000E+00  0.00000000E+00
  0.00000000E+00  0.00000000E+00  0.00000000E+00
  0.00000000E+00  0.00000000E+00  0.00000000E+00
  0.00000000E+00  0.00000000E+00  0.00000000E+00
  0.00000000E+00  0.00000000E+00  0.00000000E+00
  0.00000000E+00  0.00000000E+00  0.00000000E+00
  0.00000000E+00  0.00000000E+00  0.00000000E+00
  0.00000000E+00  0.00000000E+00  0.00000000E+00
  0.00000000E+00  0.00000000E+00  0.00000000E+00
  0.00000000E+00  0.00000000E+00  0.00000000E+00
  0.00000000E+00  0.00000000E+00  0.00000000E+00
  0.00000000E+00  0.00000000E+00  0.00000000E+00
  0.00000000E+00  0.00000000E+00  0.00000000E+00
  0.00000000E+00  0.00000000E+00  0.00000000E+00
  0.00000000E+00  0.00000000E+00  0.00000000E+00
  0.00000000E+00  0.00000000E+00  0.00000000E+00
  0.00000000E+00  0.00000000E+00  0.00000000E+00
  0.00000000E+00  0.00000000E+00  0.00000000E+00
  0.00000000E+00  0.00000000E+00  0.00000000E+00
  0.00000000E+00  0.00000000E+00  0.00000000E+00
  0.00000000E+00  0.00000000E+00  0.00000000E+00
  0.00000000E+00  0.00000000E+00  0.00000000E+00
  0.00000000E+00  0.00000000E+00  0.00000000E+00
  0.00000000E+00  0.00000000E+00  0.00000000E+00
  0.00000000E+00  0.00000000E+00  0.00000000E+00
  0.00000000E+00  0.00000000E+00  0.00000000E+00
  0.00000000E+00  0.00000000E+00  0.00000000E+00
  0.00000000E+00  0.00000000E+00  0.00000000E+00
  0.00000000E+00  0.00000000E+00  0.00000000E+00
  0.00000000E+00  0.00000000E+00  0.00000000E+00
  0.00000000E+00  0.00000000E+00  0.00000000E+00
  0.00000000E+00  0.00000000E+00  0.00000000E+00
  0.00000000E+00  0.00000000E+00  0.00000000E+00
  0.00000000E+00  0.00000000E+00  0.00000000E+00
  0.00000000E+00  0.00000000E+00  0.00000000E+00
  0.00000000E+00  0.00000000E+00  0.00000000E+00
  0.00000000E+00  0.00000000E+00  0.00000000E+00
  0.00000000E+00  0.00000000E+00  0.00000000E+00
  0.00000000E+00  0.00000000E+00  0.00000000E+00
  0.00000000E+00  0.00000000E+00  0.00000000E+00
  0.00000000E+00  0.00000000E+00  0.00000000E+00
  0.00000000E+00  0.00000000E+00  0.00000000E+00
  0.00000000E+00  0.00000000E+00  0.00000000E+00
  0.00000000E+00  0.00000000E+00  0.00000000E+00
  0.00000000E+00  0.00000000E+00  0.00000000E+00
  0.00000000E+00  0.00000000E+00  0.00000000E+00
  0.00000000E+00  0.00000000E+00  0.00000000E+00
  0.00000000E+00  0.00000000E+00  0.00000000E+00
  0.00000000E+00  0.00000000E+00  0.00000000E+00
  0.00000000E+00  0.00000000E+00  0.00000000E+00
  0.00000000E+00  0.00000000E+00  0.00000000E+00
  0.00000000E+00  0.00000000E+00  0.00000000E+00
  0.00000000E+00  0.00000000E+00  0.00000000E+00
  0.00000000E+00  0.00000000E+00  0.00000000E+00
  0.00000000E+00  0.00000000E+00  0.00000000E+00
  0.00000000E+00  0.00000000E+00  0.00000000E+00
  0.00000000E+00  0.00000000E+00  0.00000000E+00
  0.00000000E+00  0.00000000E+00  0.00000000E+00
  0.00000000E+00  0.00000000E+00  0.00000000E+00
  0.00000000E+00  0.00000000E+00  0.00000000E+00
  0.00000000E+00  0.00000000E+00  0.00000000E+00
  0.00000000E+00  0.00000000E+00  0.00000000E+00
  0.00000000E+00  0.00000000E+00  0.00000000E+00
  0.00000000E+00  0.00000000E+00  0.00000000E+00
  0.00000000E+00  0.00000000E+00  0.00000000E+00
  0.00000000E+00  0.00000000E+00  0.00000000E+00
  0.00000000E+00  0.00000000E+00  0.00000000E+00
  0.00000000E+00  0.00000000E+00  0.00000000E+00
  0.00000000E+00  0.00000000E+00  0.00000000E+00
  0.00000000E+00  0.00000000E+00  0.00000000E+00
  0.00000000E+00  0.00000000E+00  0.00000000E+00
  0.00000000E+00  0.00000000E+00  0.00000000E+00
  0.00000000E+00  0.00000000E+00  0.00000000E+00
  0.00000000E+00  0.00000000E+00  0.00000000E+00
  0.00000000E+00  0.00000000E+00  0.00000000E+00
  0.00000000E+00  0.00000000E+00  0.00000000E+00
  0.00000000E+00  0.00000000E+00  0.00000000E+00
  0.00000000E+00  0.00000000E+00  0.00000000E+00
  0.00000000E+00  0.00000000E+00  0.00000000E+00
  0.00000000E+00  0.00000000E+00  0.00000000E+00
  0.00000000E+00  0.00000000E+00  0.00000000E+00
  0.00000000E+00  0.00000000E+00  0.00000000E+00
  0.00000000E+00  0.00000000E+00  0.00000000E+00
  0.00000000E+00  0.00000000E+00  0.00000000E+00
  0.00000000E+00  0.00000000E+00  0.00000000E+00
  0.00000000E+00  0.00000000E+00  0.00000000E+00
  0.00000000E+00  0.00000000E+00  0.00000000E+00
  0.00000000E+00  0.00000000E+00  0.00000000E+00
  0.00000000E+00  0.00000000E+00  0.00000000E+00
  0.00000000E+00  0.00000000E+00  0.00000000E+00
  0.00000000E+00  0.00000000E+00  0.00000000E+00
  0.00000000E+00  0.00000000E+00  0.00000000E+00
  0.00000000E+00  0.00000000E+00  0.00000000E+00
  0.00000000E+00  0.00000000E+00  0.00000000E+00
  0.00000000E+00  0.00000000E+00  0.00000000E+00
  0.00000000E+00  0.00000000E+00  0.00000000E+00
  0.00000000E+00  0.00000000E+00  0.00000000E+00
  0.00000000E+00  0.00000000E+00  0.00000000E+00
  0.00000000E+00  0.00000000E+00  0.00000000E+00
  0.00000000E+00  0.00000000E+00  0.00000000E+00
  0.00000000E+00  0.00000000E+00  0.00000000E+00
  0.00000000E+00  0.00000000E+00  0.00000000E+00
  0.00000000E+00  0.00000000E+00  0.00000000E+00
  0.00000000E+00  0.00000000E+00  0.00000000E+00
  0.00000000E+00  0.00000000E+00  0.00000000E+00
  0.00000000E+00  0.00000000E+00  0.00000000E+00
  0.00000000E+00  0.00000000E+00  0.00000000E+00
  0.00000000E+00  0.00000000E+00  0.00000000E+00
  0.00000000E+00  0.00000000E+00  0.00000000E+00
  0.00000000E+00  0.00000000E+00  0.00000000E+00
  0.00000000E+00  0.00000000E+00  0.00000000E+00
  0.00000000E+00  0.00000000E+00  0.00000000E+00
  0.00000000E+00  0.00000000E+00  0.00000000E+00
  0.00000000E+00  0.00000000E+00  0.00000000E+00
  0.00000000E+00  0.00000000E+00  0.00000000E+00
  0.00000000E+00  0.00000000E+00  0.00000000E+00
  0.00000000E+00  0.00000000E+00  0.00000000E+00
  0.00000000E+00  0.00000000E+00  0.00000000E+00
  0.00000000E+00  0.00000000E+00  0.00000000E+00
  0.00000000E+00  0.00000000E+00  0.00000000E+00
  0.00000000E+00  0.00000000E+00  0.00000000E+00
  0.00000000E+00  0.00000000E+00  0.00000000E+00
  0.00000000E+00  0.00000000E+00  0.00000000E+00
  0.00000000E+00  0.00000000E+00  0.00000000E+00
  0.00000000E+00  0.00000000E+00  0.00000000E+00
  0.00000000E+00  0.00000000E+00  0.00000000E+00
  0.00000000E+00  0.00000000E+00  0.00000000E+00