Species order:X N B                     
   2.51242800000000     
     5.9449720136058266    0.0000000000000000    0.0000000000000000
    -2.9724860068029120    5.1484967885702053   -0.0000000000000001
     0.0000000000000000    0.0000000000000009    5.3101128803662583
   C    N    B 
     3   143   141
Direct
  0.6118138994988626  0.3901703957201424  0.3750000000000000
  0.4450231628879507  0.3901703957201424  0.3750000000000000
  0.5530262018108041  0.4393857369549370  0.3750000000000000
  0.1111191654259021  0.0555514726504145  0.1251953270542356
  0.6111010488378347  0.5555354310089966  0.1245620499283024
  0.4444383321609289  0.0555526585173967  0.1252349695252101
  0.9444469108373984  0.5555470507869366  0.1251870932824586
  0.7777740345708433  0.0555583863234105  0.1251370617224651
  0.1111071056003432  0.7222113919970321  0.6248787391289969
  0.4444330027881454  0.7222010530278828  0.6248352388477070
  0.2777943518613989  0.2222379917177808  0.6245967848546317
  0.7777632630522965  0.7222034975124237  0.6247769488852065
  0.6111103065230541  0.2222379917177808  0.6245967848546317
  0.9444490877989664  0.2222315089312689  0.6248781751063488
  0.2777709530633597  0.7222113919970321  0.1251212608710041
  0.1111147426135225  0.2222266007531304  0.1251971578224536
  0.4444556582904316  0.2222446499141982  0.1254587987533829
  0.6111069011267983  0.7222034975124237  0.1252230511147938
  0.9444347169064025  0.7222010530278828  0.1251647611522928
  0.7777785248062791  0.2222266007531304  0.1251971578224536
  0.1111072279216344  0.8888756317518434  0.6248705015329099
  0.4444350704968807  0.8888756317518434  0.6248705015329099
  0.2777720277134231  0.3888883732469045  0.6246427967480227
  0.6111241956930688  0.3888878186785450  0.6250355553151556
  0.7777759038034241  0.8888851409401773  0.6248530397708403
  0.9444547825491669  0.3888975442225842  0.6248347846483586
  0.1111094283400895  0.3888975442225842  0.1251652153516415
  0.2777720587083081  0.8888774507499447  0.1251234718645516
  0.6111015572557669  0.8888736026080237  0.1251600937389906
  0.4444302896521481  0.3888878186785450  0.1249644446848441
  0.9444387120189284  0.8888736026080237  0.1251600937389906
  0.7777830122001534  0.3888883732469045  0.1253572032519776
  0.2777668066162027  0.5555470507869366  0.6248129067175414
  0.1111191654259021  0.0555514726504145  0.6248046729457640
  0.6111010488378347  0.5555354310089966  0.6254379500716977
  0.4444383321609289  0.0555526585173967  0.6247650304747894
  0.9444469108373984  0.5555470507869366  0.6248129067175414
  0.1111113204794164  0.5555559742921606  0.1251296650395436
  0.7777740345708433  0.0555583863234105  0.6248629382775345
  0.2777809930231324  0.0555526585173967  0.1252349695252101
  0.4444149501757139  0.5555170880608725  0.1252456821100618
  0.7777688045518231  0.5555170880608725  0.1252456821100618
  0.6110989738911843  0.0555514726504145  0.1251953270542356
  0.4444149501757139  0.5555170880608725  0.6247543178899387
  0.9444510184192316  0.0555583863234105  0.1251370617224651
  0.2777709530633597  0.7222113919970321  0.6248787391289969
  0.1111147426135225  0.2222266007531304  0.6248028421775468
  0.4444556582904316  0.2222446499141982  0.6245412012466172
  0.6111069011267983  0.7222034975124237  0.6247769488852065
  0.9444347169064025  0.7222010530278828  0.6248352388477070
  0.7777785248062791  0.2222266007531304  0.6248028421775468
  0.1111071056003432  0.7222113919970321  0.1251212608710041
  0.4444330027881454  0.7222010530278828  0.1251647611522928
  0.2777943518613989  0.2222379917177808  0.1254032151453680
  0.7777632630522965  0.7222034975124237  0.1252230511147938
  0.6111103065230541  0.2222379917177808  0.1254032151453680
  0.9444490877989664  0.2222315089312689  0.1251218248936513
  0.1111094283400895  0.3888975442225842  0.6248347846483586
  0.2777720587083081  0.8888774507499447  0.6248765281354494
  0.6111015572557669  0.8888736026080237  0.6248399062610098
  0.4444302896521481  0.3888878186785450  0.6250355553151556
  0.9444387120189284  0.8888736026080237  0.6248399062610098
  0.1111072279216344  0.8888756317518434  0.1251294984670905
  0.7777830122001534  0.3888883732469045  0.6246427967480227
  0.4444350704968807  0.8888756317518434  0.1251294984670905
  0.2777720277134231  0.3888883732469045  0.1253572032519776
  0.2777668066162027  0.5555470507869366  0.1251870932824586
  0.6111241956930688  0.3888878186785450  0.1249644446848441
  0.7777759038034241  0.8888851409401773  0.1251469602291603
  0.9444547825491669  0.3888975442225842  0.1251652153516415
  0.1111113204794164  0.5555559742921606  0.6248703349604564
  0.2777809930231324  0.0555526585173967  0.6247650304747894
  0.7777688045518231  0.5555170880608725  0.6247543178899387
  0.6110989738911843  0.0555514726504145  0.6248046729457640
  0.9444510184192316  0.0555583863234105  0.6248629382775345
  0.0555191515794862  0.1108562749783222  0.3750000000000000
  0.5502875535834859  0.6128401828154657  0.3750000000000000
  0.3908706881966784  0.1150747097267002  0.3750000000000000
  0.8879321278495782  0.6094891757705683  0.3750000000000000
  0.7220037900655003  0.1108562749783222  0.3750000000000000
  0.0555611634358207  0.7777900621986591  0.8750000000000000
  0.3888955654295024  0.7777900621986591  0.8750000000000000
  0.2222266115168602  0.2777823713831254  0.8750000000000000
  0.7222261751913135  0.7777856837159611  0.8750000000000000
  0.5555561791469078  0.2777811636493158  0.8750000000000000
  0.8888911103263739  0.2777829652596921  0.8750000000000000
  0.2224162156477977  0.7781657646289307  0.3750000000000000
  0.0553411809707723  0.2774146099374174  0.3750000000000000
  0.3915899419841005  0.2835132122357581  0.3750000000000000
  0.5551425395661730  0.7770683417591180  0.3750000000000000
  0.8885924688596090  0.7770683417591180  0.3750000000000000
  0.7222859171594106  0.2772577401220085  0.3750000000000000
  0.0555595771661487  0.9444556648340716  0.8750000000000000
  0.3888965164890210  0.9444563229861271  0.8750000000000000
  0.2222264922807650  0.4444490673076025  0.8750000000000000
  0.5555567849191700  0.4444469031716690  0.8750000000000000
  0.7222264548712145  0.9444533635320170  0.8750000000000000
  0.8888892416935025  0.4444490673076025  0.8750000000000000
  0.0553354667117012  0.4440042667567309  0.3750000000000000
  0.2231376356751196  0.9458531692049801  0.3750000000000000
  0.5554476179879563  0.9447652297579112  0.3750000000000000
  0.3900632465870966  0.4405011257501903  0.3750000000000000
  0.8888658650113473  0.9441652568081239  0.3750000000000000
  0.7171045458297579  0.4405011257501903  0.3750000000000000
  0.2222257507889742  0.6111171690917011  0.8750000000000000
  0.0555587277592880  0.1111165436291345  0.8750000000000000
  0.5555577701481674  0.6111169750653161  0.8750000000000000
  0.3888922002569994  0.1111177338473420  0.8750000000000000
  0.8888915654584567  0.6111180636320800  0.8750000000000000
  0.0552632791487693  0.6107461323386756  0.3750000000000000
  0.7222244825365115  0.1111165436291345  0.8750000000000000
  0.2237891476461326  0.1129772092116819  0.3750000000000000
  0.3882237145876485  0.6094891757705683  0.3750000000000000
  0.7292192958986433  0.6128401828154657  0.3750000000000000
  0.5558547282322135  0.1129772092116819  0.3750000000000000
  0.3888931648402809  0.6111180636320800  0.8750000000000000
  0.8887002469197247  0.1107338271727909  0.3750000000000000
  0.2222278029924301  0.7777889393181954  0.8750000000000000
  0.0555585215999835  0.2777829652596921  0.8750000000000000
  0.3888916511690727  0.2777811636493158  0.8750000000000000
  0.5555604666698586  0.7777877778755232  0.8750000000000000
  0.8888939778723282  0.7777877778755232  0.8750000000000000
  0.7222224265329297  0.2777823713831254  0.8750000000000000
  0.0554231611458660  0.7776725695662948  0.3750000000000000
  0.3889160750870931  0.7776725695662948  0.3750000000000000
  0.2216384896292627  0.2772577401220085  0.3750000000000000
  0.7223140646089883  0.7779614625513113  0.3750000000000000
  0.5585899369183218  0.2835132122357581  0.3750000000000000
  0.8887400956333098  0.2774146099374174  0.3750000000000000
  0.0555585513232442  0.4444504359798170  0.8750000000000000
  0.2222264731637696  0.9444563229861271  0.8750000000000000
  0.5555627543345942  0.9444556648340716  0.8750000000000000
  0.3888937567459778  0.4444499912632635  0.8750000000000000
  0.8888935753274670  0.9444533635320170  0.8750000000000000
  0.0559842784366269  0.9447652297579112  0.3750000000000000
  0.7222229011839503  0.4444499912632635  0.8750000000000000
  0.3893822001965244  0.9458531692049801  0.3750000000000000
  0.2228730552092021  0.4436410693462134  0.3750000000000000
  0.2221495198565702  0.6107461323386756  0.3750000000000000
  0.7219660584634410  0.9441652568081239  0.3750000000000000
  0.8874346808036763  0.4436410693462134  0.3750000000000000
  0.0555580849693921  0.6111171690917011  0.8750000000000000
  0.2222244565238940  0.1111176746988529  0.8750000000000000
  0.7222258715838115  0.6111169750653161  0.8750000000000000
  0.5555598848416236  0.1111176746988529  0.8750000000000000
  0.8888912153661932  0.1111157640657289  0.8750000000000000
  0.1114212333960690  0.0558653650534529  0.3750000000000000
  0.4448291577182912  0.0569869475336836  0.3750000000000000
  0.9443129074523164  0.5549919705847945  0.3750000000000000
  0.7775957696213424  0.0550830187985464  0.3750000000000000
  0.1111162482005021  0.7222366684027596  0.8750000000000000
  0.4444607651598398  0.7222452606778652  0.8750000000000000
  0.2777559397416401  0.2222109762926122  0.8750000000000000
  0.7777844891103739  0.7222430021800722  0.8750000000000000
  0.6111217032176439  0.2222109762926122  0.8750000000000000
  0.9444385099064484  0.2222103531462311  0.8750000000000000
  0.2777801978839022  0.7222436476716324  0.3750000000000000
  0.1098507707209994  0.2213441881871944  0.3750000000000000
  0.4462365210651129  0.2258063754635617  0.3750000000000000
  0.6124121864866889  0.7224145285336224  0.3750000000000000
  0.9439908630992190  0.7215005172782276  0.3750000000000000
  0.7781600841328664  0.2213441881871944  0.3750000000000000
  0.1110989105083448  0.8888859593486244  0.8750000000000000
  0.4444537155069512  0.8888859593486244  0.8750000000000000
  0.2777774029121194  0.3889076487048776  0.8750000000000000
  0.6111255804438904  0.3889213910909147  0.8750000000000000
  0.7777777571497780  0.8888888476328844  0.8750000000000000
  0.9444565222080934  0.3888970131175294  0.8750000000000000
  0.1109641483455436  0.3883771296908864  0.3750000000000000
  0.2780856722206803  0.8895046777746891  0.3750000000000000
  0.6109118222910747  0.8886915757277524  0.3750000000000000
  0.9444464201033499  0.8886915757277524  0.3750000000000000
  0.7769377714477627  0.3869132605143649  0.3750000000000000
  0.2777887918877440  0.5555822745172843  0.8750000000000000
  0.1110835187958742  0.0555385891344548  0.8750000000000000
  0.6111337438275671  0.5556008209884614  0.8750000000000000
  0.4444429264282062  0.0555333494677935  0.8750000000000000
  0.9444601492962035  0.5555822745172843  0.8750000000000000
  0.1109659577298881  0.5552652487931053  0.3750000000000000
  0.7777798840613575  0.0555414856372225  0.8750000000000000
  0.2788244564820569  0.0569869475336836  0.3750000000000000
  0.4435754197858169  0.5533367769773891  0.3750000000000000
  0.7764280238582365  0.5533367769773896  0.3750000000000000
  0.6111107983240549  0.0558653650534529  0.3750000000000000
  0.4444726320381011  0.5556012594721297  0.8750000000000000
  0.9441539158438684  0.0550830187985464  0.3750000000000000
  0.2777870868689291  0.7222366684027596  0.8750000000000000
  0.1110872559126327  0.2222111358449109  0.8750000000000000
  0.4444379201071651  0.2222091735476659  0.8750000000000000
  0.6111251797363704  0.7222430021800722  0.8750000000000000
  0.9444511621846911  0.7222452606778652  0.8750000000000000
  0.7777905465989496  0.2222111358449109  0.8750000000000000
  0.1111301164544024  0.7222436476716324  0.3750000000000000
  0.4441763208456727  0.7215005172782276  0.3750000000000000
  0.2772151429371981  0.2232693839897693  0.3750000000000000
  0.7766690087136057  0.7224145285336224  0.3750000000000000
  0.6127209077192419  0.2232693839897693  0.3750000000000000
  0.9441648194638961  0.2216629722611273  0.3750000000000000
  0.1111071575761075  0.3888970131175294  0.8750000000000000
  0.2777743232130900  0.8888819797595086  0.8750000000000000
  0.6111220469697113  0.8888895191699079  0.8750000000000000
  0.4444624773136950  0.3889213910909147  0.8750000000000000
  0.9444341388668689  0.8888895191699079  0.8750000000000000
  0.1114416009619726  0.8891459702881569  0.3750000000000000
  0.7777969124594298  0.3889076487048776  0.8750000000000000
  0.4443710359928552  0.8891459702881569  0.3750000000000000
  0.2766421557332744  0.3869132605143649  0.3750000000000000
  0.2773457297991428  0.5549919705847945  0.3750000000000000
  0.7778597093310350  0.8890527519953995  0.3750000000000000
  0.9440796480120143  0.3883771296908864  0.3750000000000000
  0.1111205338346138  0.5555744010025566  0.8750000000000000
  0.2777570897062522  0.0555333494677935  0.8750000000000000
  0.7777952941006947  0.5556012594721297  0.8750000000000000
  0.6111217370052523  0.0555385891344548  0.8750000000000000
  0.9444282682425300  0.0555414856372225  0.8750000000000000
  0.0554955834142572  0.1110590279928955  0.1248764017412559
  0.5556385530066855  0.6111332398386609  0.1250315126018926
  0.3888279169653678  0.1109891672640784  0.1248514616894176
  0.8889223729948553  0.6111496649750509  0.1249132606959552
  0.7222301112453025  0.1110590279928955  0.1248764017412559
  0.0555365954141731  0.7777408611723429  0.6250874535285499
  0.3888709324248338  0.7777408611723429  0.6250874535285499
  0.2221330988112723  0.2777734136965905  0.6252068744392492
  0.7222089299860619  0.7777511933054584  0.6250526534838948
  0.5556175510833702  0.2778250045609471  0.6255383595652725
  0.8889373617464352  0.2777948033815534  0.6251442960016864
  0.2222008792554136  0.7777350918441632  0.1249065841803835
  0.0555241083017818  0.2777948033815534  0.1248557039983129
  0.3888741201442417  0.2778250045609471  0.1244616404347284
  0.5555629204847138  0.7777457624893493  0.1249596289445933
  0.8888495086712990  0.7777457624893493  0.1249596289445933
  0.7223069815519824  0.2777734136965905  0.1247931255607506
  0.0555021961939678  0.9443663483741644  0.6250944928231514
  0.3888395684223658  0.9443332390660538  0.6251150556775082
  0.2221765338932233  0.4445098898418364  0.6251299811007451
  0.5556623179597211  0.4446579692527694  0.6254898957798531
  0.7222118552604908  0.9444068554379449  0.6250899929599619
  0.8890000226152776  0.4445098898418364  0.6251299811007451
  0.0555822609344184  0.4444978552021652  0.1248818645376654
  0.2221603373103521  0.9443332390660538  0.1248849443224923
  0.5555308188468686  0.9443663483741644  0.1249055071768498
  0.3889079759444611  0.4445394674423740  0.1244974499188190
  0.8888616668441168  0.9444068554379449  0.1249100070400376
  0.7222981581645768  0.4445394674423740  0.1244974499188190
  0.2222152490782066  0.6111430156705843  0.6251004674509202
  0.0554955834142572  0.1110590279928955  0.6251235982587443
  0.5556385530066855  0.6111332398386609  0.6249684873981078
  0.3888279169653678  0.1109891672640784  0.6251485383105826
  0.8889223729948553  0.6111496649750509  0.6250867393040447
  0.0555944332590418  0.6111430156705843  0.1248995325490799
  0.7222301112453025  0.1110590279928955  0.6251235982587443
  0.2221363291371733  0.1110048482646988  0.1248656826760513
  0.3888939586468521  0.6111496649750509  0.1249132606959552
  0.7221613534986400  0.6111332398386609  0.1250315126018926
  0.5555351857941904  0.1110048482646988  0.1248656826760513
  0.3888939586468521  0.6111496649750509  0.6250867393040447
  0.8888775736588005  0.1110884806509428  0.1248846421523492
  0.2222008792554136  0.7777350918441632  0.6250934158196173
  0.0555241083017818  0.2777948033815534  0.6251442960016864
  0.3888741201442417  0.2778250045609471  0.6255383595652725
  0.5555629204847138  0.7777457624893493  0.6250403710554061
  0.8888495086712990  0.7777457624893493  0.6250403710554061
  0.7223069815519824  0.2777734136965905  0.6252068744392492
  0.0555365954141731  0.7777408611723429  0.1249125464714499
  0.3888709324248338  0.7777408611723429  0.1249125464714499
  0.2221330988112723  0.2777734136965905  0.1247931255607506
  0.7222089299860619  0.7777511933054584  0.1249473465161049
  0.5556175510833702  0.2778250045609471  0.1244616404347284
  0.8889373617464352  0.2777948033815534  0.1248557039983129
  0.0555822609344184  0.4444978552021652  0.6251181354623359
  0.2221603373103521  0.9443332390660538  0.6251150556775082
  0.5555308188468686  0.9443663483741644  0.6250944928231514
  0.3889079759444611  0.4445394674423740  0.6255025500811811
  0.8888616668441168  0.9444068554379449  0.6250899929599619
  0.0555021961939678  0.9443663483741644  0.1249055071768498
  0.7222981581645768  0.4445394674423740  0.6255025500811811
  0.3888395684223658  0.9443332390660538  0.1248849443224923
  0.2221765338932233  0.4445098898418364  0.1248700188992556
  0.2222152490782066  0.6111430156705843  0.1248995325490799
  0.5556623179597211  0.4446579692527694  0.1245101042201461
  0.7222118552604908  0.9444068554379449  0.1249100070400376
  0.8890000226152776  0.4445098898418364  0.1248700188992556
  0.0555944332590418  0.6111430156705843  0.6251004674509202
  0.2221363291371733  0.1110048482646988  0.6251343173239485
  0.7221613534986400  0.6111332398386609  0.6249684873981078
  0.5555351857941904  0.1110048482646988  0.6251343173239485
  0.8888775736588005  0.1110884806509428  0.6251153578476513
 
  0.00000000E+00  0.00000000E+00  0.00000000E+00
  0.00000000E+00  0.00000000E+00  0.00000000E+00
  0.00000000E+00  0.00000000E+00  0.00000000E+00
  0.00000000E+00  0.00000000E+00  0.00000000E+00
  0.00000000E+00  0.00000000E+00  0.00000000E+00
  0.00000000E+00  0.00000000E+00  0.00000000E+00
  0.00000000E+00  0.00000000E+00  0.00000000E+00
  0.00000000E+00  0.00000000E+00  0.00000000E+00
  0.00000000E+00  0.00000000E+00  0.00000000E+00
  0.00000000E+00  0.00000000E+00  0.00000000E+00
  0.00000000E+00  0.00000000E+00  0.00000000E+00
  0.00000000E+00  0.00000000E+00  0.00000000E+00
  0.00000000E+00  0.00000000E+00  0.00000000E+00
  0.00000000E+00  0.00000000E+00  0.00000000E+00
  0.00000000E+00  0.00000000E+00  0.00000000E+00
  0.00000000E+00  0.00000000E+00  0.00000000E+00
  0.00000000E+00  0.00000000E+00  0.00000000E+00
  0.00000000E+00  0.00000000E+00  0.00000000E+00
  0.00000000E+00  0.00000000E+00  0.00000000E+00
  0.00000000E+00  0.00000000E+00  0.00000000E+00
  0.00000000E+00  0.00000000E+00  0.00000000E+00
  0.00000000E+00  0.00000000E+00  0.00000000E+00
  0.00000000E+00  0.00000000E+00  0.00000000E+00
  0.00000000E+00  0.00000000E+00  0.00000000E+00
  0.00000000E+00  0.00000000E+00  0.00000000E+00
  0.00000000E+00  0.00000000E+00  0.00000000E+00
  0.00000000E+00  0.00000000E+00  0.00000000E+00
  0.00000000E+00  0.00000000E+00  0.00000000E+00
  0.00000000E+00  0.00000000E+00  0.00000000E+00
  0.00000000E+00  0.00000000E+00  0.00000000E+00
  0.00000000E+00  0.00000000E+00  0.00000000E+00
  0.00000000E+00  0.00000000E+00  0.00000000E+00
  0.00000000E+00  0.00000000E+00  0.00000000E+00
  0.00000000E+00  0.00000000E+00  0.00000000E+00
  0.00000000E+00  0.00000000E+00  0.00000000E+00
  0.00000000E+00  0.00000000E+00  0.00000000E+00
  0.00000000E+00  0.00000000E+00  0.00000000E+00
  0.00000000E+00  0.00000000E+00  0.00000000E+00
  0.00000000E+00  0.00000000E+00  0.00000000E+00
  0.00000000E+00  0.00000000E+00  0.00000000E+00
  0.00000000E+00  0.00000000E+00  0.00000000E+00
  0.00000000E+00  0.00000000E+00  0.00000000E+00
  0.00000000E+00  0.00000000E+00  0.00000000E+00
  0.00000000E+00  0.00000000E+00  0.00000000E+00
  0.00000000E+00  0.00000000E+00  0.00000000E+00
  0.00000000E+00  0.00000000E+00  0.00000000E+00
  0.00000000E+00  0.00000000E+00  0.00000000E+00
  0.00000000E+00  0.00000000E+00  0.00000000E+00
  0.00000000E+00  0.00000000E+00  0.00000000E+00
  0.00000000E+00  0.00000000E+00  0.00000000E+00
  0.00000000E+00  0.00000000E+00  0.00000000E+00
  0.00000000E+00  0.00000000E+00  0.00000000E+00
  0.00000000E+00  0.00000000E+00  0.00000000E+00
  0.00000000E+00  0.00000000E+00  0.00000000E+00
  0.00000000E+00  0.00000000E+00  0.00000000E+00
  0.00000000E+00  0.00000000E+00  0.00000000E+00
  0.00000000E+00  0.00000000E+00  0.00000000E+00
  0.00000000E+00  0.00000000E+00  0.00000000E+00
  0.00000000E+00  0.00000000E+00  0.00000000E+00
  0.00000000E+00  0.00000000E+00  0.00000000E+00
  0.00000000E+00  0.00000000E+00  0.00000000E+00
  0.00000000E+00  0.00000000E+00  0.00000000E+00
  0.00000000E+00  0.00000000E+00  0.00000000E+00
  0.00000000E+00  0.00000000E+00  0.00000000E+00
  0.00000000E+00  0.00000000E+00  0.00000000E+00
  0.00000000E+00  0.00000000E+00  0.00000000E+00
  0.00000000E+00  0.00000000E+00  0.00000000E+00
  0.00000000E+00  0.00000000E+00  0.00000000E+00
  0.00000000E+00  0.00000000E+00  0.00000000E+00
  0.00000000E+00  0.00000000E+00  0.00000000E+00
  0.00000000E+00  0.00000000E+00  0.00000000E+00
  0.00000000E+00  0.00000000E+00  0.00000000E+00
  0.00000000E+00  0.00000000E+00  0.00000000E+00
  0.00000000E+00  0.00000000E+00  0.00000000E+00
  0.00000000E+00  0.00000000E+00  0.00000000E+00
  0.00000000E+00  0.00000000E+00  0.00000000E+00
  0.00000000E+00  0.00000000E+00  0.00000000E+00
  0.00000000E+00  0.00000000E+00  0.00000000E+00
  0.00000000E+00  0.00000000E+00  0.00000000E+00
  0.00000000E+00  0.00000000E+00  0.00000000E+00
  0.00000000E+00  0.00000000E+00  0.00000000E+00
  0.00000000E+00  0.00000000E+00  0.00000000E+00
  0.00000000E+00  0.00000000E+00  0.00000000E+00
  0.00000000E+00  0.00000000E+00  0.00000000E+00
  0.00000000E+00  0.00000000E+00  0.00000000E+00
  0.00000000E+00  0.00000000E+00  0.00000000E+00
  0.00000000E+00  0.00000000E+00  0.00000000E+00
  0.00000000E+00  0.00000000E+00  0.00000000E+00
  0.00000000E+00  0.00000000E+00  0.00000000E+00
  0.00000000E+00  0.00000000E+00  0.00000000E+00
  0.00000000E+00  0.00000000E+00  0.00000000E+00
  0.00000000E+00  0.00000000E+00  0.00000000E+00
  0.00000000E+00  0.00000000E+00  0.00000000E+00
  0.00000000E+00  0.00000000E+00  0.00000000E+00
  0.00000000E+00  0.00000000E+00  0.00000000E+00
  0.00000000E+00  0.00000000E+00  0.00000000E+00
  0.00000000E+00  0.00000000E+00  0.00000000E+00
  0.00000000E+00  0.00000000E+00  0.00000000E+00
  0.00000000E+00  0.00000000E+00  0.00000000E+00
  0.00000000E+00  0.00000000E+00  0.00000000E+00
  0.00000000E+00  0.00000000E+00  0.00000000E+00
  0.00000000E+00  0.00000000E+00  0.00000000E+00
  0.00000000E+00  0.00000000E+00  0.00000000E+00
  0.00000000E+00  0.00000000E+00  0.00000000E+00
  0.00000000E+00  0.00000000E+00  0.00000000E+00
  0.00000000E+00  0.00000000E+00  0.00000000E+00
  0.00000000E+00  0.00000000E+00  0.00000000E+00
  0.00000000E+00  0.00000000E+00  0.00000000E+00
  0.00000000E+00  0.00000000E+00  0.00000000E+00
  0.00000000E+00  0.00000000E+00  0.00000000E+00
  0.00000000E+00  0.00000000E+00  0.00000000E+00
  0.00000000E+00  0.00000000E+00  0.00000000E+00
  0.00000000E+00  0.00000000E+00  0.00000000E+00
  0.00000000E+00  0.00000000E+00  0.00000000E+00
  0.00000000E+00  0.00000000E+00  0.00000000E+00
  0.00000000E+00  0.00000000E+00  0.00000000E+00
  0.00000000E+00  0.00000000E+00  0.00000000E+00
  0.00000000E+00  0.00000000E+00  0.00000000E+00
  0.00000000E+00  0.00000000E+00  0.00000000E+00
  0.00000000E+00  0.00000000E+00  0.00000000E+00
  0.00000000E+00  0.00000000E+00  0.00000000E+00
  0.00000000E+00  0.00000000E+00  0.00000000E+00
  0.00000000E+00  0.00000000E+00  0.00000000E+00
  0.00000000E+00  0.00000000E+00  0.00000000E+00
  0.00000000E+00  0.00000000E+00  0.00000000E+00
  0.00000000E+00  0.00000000E+00  0.00000000E+00
  0.00000000E+00  0.00000000E+00  0.00000000E+00
  0.00000000E+00  0.00000000E+00  0.00000000E+00
  0.00000000E+00  0.00000000E+00  0.00000000E+00
  0.00000000E+00  0.00000000E+00  0.00000000E+00
  0.00000000E+00  0.00000000E+00  0.00000000E+00
  0.00000000E+00  0.00000000E+00  0.00000000E+00
  0.00000000E+00  0.00000000E+00  0.00000000E+00
  0.00000000E+00  0.00000000E+00  0.00000000E+00
  0.00000000E+00  0.00000000E+00  0.00000000E+00
  0.00000000E+00  0.00000000E+00  0.00000000E+00
  0.00000000E+00  0.00000000E+00  0.00000000E+00
  0.00000000E+00  0.00000000E+00  0.00000000E+00
  0.00000000E+00  0.00000000E+00  0.00000000E+00
  0.00000000E+00  0.00000000E+00  0.00000000E+00
  0.00000000E+00  0.00000000E+00  0.00000000E+00
  0.00000000E+00  0.00000000E+00  0.00000000E+00
  0.00000000E+00  0.00000000E+00  0.00000000E+00
  0.00000000E+00  0.00000000E+00  0.00000000E+00
  0.00000000E+00  0.00000000E+00  0.00000000E+00
  0.00000000E+00  0.00000000E+00  0.00000000E+00
  0.00000000E+00  0.00000000E+00  0.00000000E+00
  0.00000000E+00  0.00000000E+00  0.00000000E+00
  0.00000000E+00  0.00000000E+00  0.00000000E+00
  0.00000000E+00  0.00000000E+00  0.00000000E+00
  0.00000000E+00  0.00000000E+00  0.00000000E+00
  0.00000000E+00  0.00000000E+00  0.00000000E+00
  0.00000000E+00  0.00000000E+00  0.00000000E+00
  0.00000000E+00  0.00000000E+00  0.00000000E+00
  0.00000000E+00  0.00000000E+00  0.00000000E+00
  0.00000000E+00  0.00000000E+00  0.00000000E+00
  0.00000000E+00  0.00000000E+00  0.00000000E+00
  0.00000000E+00  0.00000000E+00  0.00000000E+00
  0.00000000E+00  0.00000000E+00  0.00000000E+00
  0.00000000E+00  0.00000000E+00  0.00000000E+00
  0.00000000E+00  0.00000000E+00  0.00000000E+00
  0.00000000E+00  0.00000000E+00  0.00000000E+00
  0.00000000E+00  0.00000000E+00  0.00000000E+00
  0.00000000E+00  0.00000000E+00  0.00000000E+00
  0.00000000E+00  0.00000000E+00  0.00000000E+00
  0.00000000E+00  0.00000000E+00  0.00000000E+00
  0.00000000E+00  0.00000000E+00  0.00000000E+00
  0.00000000E+00  0.00000000E+00  0.00000000E+00
  0.00000000E+00  0.00000000E+00  0.00000000E+00
  0.00000000E+00  0.00000000E+00  0.00000000E+00
  0.00000000E+00  0.00000000E+00  0.00000000E+00
  0.00000000E+00  0.00000000E+00  0.00000000E+00
  0.00000000E+00  0.00000000E+00  0.00000000E+00
  0.00000000E+00  0.00000000E+00  0.00000000E+00
  0.00000000E+00  0.00000000E+00  0.00000000E+00
  0.00000000E+00  0.00000000E+00  0.00000000E+00
  0.00000000E+00  0.00000000E+00  0.00000000E+00
  0.00000000E+00  0.00000000E+00  0.00000000E+00
  0.00000000E+00  0.00000000E+00  0.00000000E+00
  0.00000000E+00  0.00000000E+00  0.00000000E+00
  0.00000000E+00  0.00000000E+00  0.00000000E+00
  0.00000000E+00  0.00000000E+00  0.00000000E+00
  0.00000000E+00  0.00000000E+00  0.00000000E+00
  0.00000000E+00  0.00000000E+00  0.00000000E+00
  0.00000000E+00  0.00000000E+00  0.00000000E+00
  0.00000000E+00  0.00000000E+00  0.00000000E+00
  0.00000000E+00  0.00000000E+00  0.00000000E+00
  0.00000000E+00  0.00000000E+00  0.00000000E+00
  0.00000000E+00  0.00000000E+00  0.00000000E+00
  0.00000000E+00  0.00000000E+00  0.00000000E+00
  0.00000000E+00  0.00000000E+00  0.00000000E+00
  0.00000000E+00  0.00000000E+00  0.00000000E+00
  0.00000000E+00  0.00000000E+00  0.00000000E+00
  0.00000000E+00  0.00000000E+00  0.00000000E+00
  0.00000000E+00  0.00000000E+00  0.00000000E+00
  0.00000000E+00  0.00000000E+00  0.00000000E+00
  0.00000000E+00  0.00000000E+00  0.00000000E+00
  0.00000000E+00  0.00000000E+00  0.00000000E+00
  0.00000000E+00  0.00000000E+00  0.00000000E+00
  0.00000000E+00  0.00000000E+00  0.00000000E+00
  0.00000000E+00  0.00000000E+00  0.00000000E+00
  0.00000000E+00  0.00000000E+00  0.00000000E+00
  0.00000000E+00  0.00000000E+00  0.00000000E+00
  0.00000000E+00  0.00000000E+00  0.00000000E+00
  0.00000000E+00  0.00000000E+00  0.00000000E+00
  0.00000000E+00  0.00000000E+00  0.00000000E+00
  0.00000000E+00  0.00000000E+00  0.00000000E+00
  0.00000000E+00  0.00000000E+00  0.00000000E+00
  0.00000000E+00  0.00000000E+00  0.00000000E+00
  0.00000000E+00  0.00000000E+00  0.00000000E+00
  0.00000000E+00  0.00000000E+00  0.00000000E+00
  0.00000000E+00  0.00000000E+00  0.00000000E+00
  0.00000000E+00  0.00000000E+00  0.00000000E+00
  0.00000000E+00  0.00000000E+00  0.00000000E+00
  0.00000000E+00  0.00000000E+00  0.00000000E+00
  0.00000000E+00  0.00000000E+00  0.00000000E+00
  0.00000000E+00  0.00000000E+00  0.00000000E+00
  0.00000000E+00  0.00000000E+00  0.00000000E+00
  0.00000000E+00  0.00000000E+00  0.00000000E+00
  0.00000000E+00  0.00000000E+00  0.00000000E+00
  0.00000000E+00  0.00000000E+00  0.00000000E+00
  0.00000000E+00  0.00000000E+00  0.00000000E+00
  0.00000000E+00  0.00000000E+00  0.00000000E+00
  0.00000000E+00  0.00000000E+00  0.00000000E+00
  0.00000000E+00  0.00000000E+00  0.00000000E+00
  0.00000000E+00  0.00000000E+00  0.00000000E+00
  0.00000000E+00  0.00000000E+00  0.00000000E+00
  0.00000000E+00  0.00000000E+00  0.00000000E+00
  0.00000000E+00  0.00000000E+00  0.00000000E+00
  0.00000000E+00  0.00000000E+00  0.00000000E+00
  0.00000000E+00  0.00000000E+00  0.00000000E+00
  0.00000000E+00  0.00000000E+00  0.00000000E+00
  0.00000000E+00  0.00000000E+00  0.00000000E+00
  0.00000000E+00  0.00000000E+00  0.00000000E+00
  0.00000000E+00  0.00000000E+00  0.00000000E+00
  0.00000000E+00  0.00000000E+00  0.00000000E+00
  0.00000000E+00  0.00000000E+00  0.00000000E+00
  0.00000000E+00  0.00000000E+00  0.00000000E+00
  0.00000000E+00  0.00000000E+00  0.00000000E+00
  0.00000000E+00  0.00000000E+00  0.00000000E+00
  0.00000000E+00  0.00000000E+00  0.00000000E+00
  0.00000000E+00  0.00000000E+00  0.00000000E+00
  0.00000000E+00  0.00000000E+00  0.00000000E+00
  0.00000000E+00  0.00000000E+00  0.00000000E+00
  0.00000000E+00  0.00000000E+00  0.00000000E+00
  0.00000000E+00  0.00000000E+00  0.00000000E+00
  0.00000000E+00  0.00000000E+00  0.00000000E+00
  0.00000000E+00  0.00000000E+00  0.00000000E+00