C B N                                   
   1.0000000000000000     
     8.7639499999999995  -15.1796066749929999    0.0000000000000000
     8.7639499999999995   15.1796066749929999    0.0000000000000000
     0.0000000000000000    0.0000000000000000   15.0000000000000000
   C    B    N 
     1    48    48
Selective dynamics
Direct
  0.3909858685438837  0.4847109682835681  0.1112986171987698   T   T   T
  0.9066781493637714  0.9518883084805048  0.1107350827422771   T   T   T
  0.9080662714165885  0.0954209755701662  0.1107828474305292   T   T   T
  0.9085223694678990  0.2383032493514902  0.1107848628729244   T   T   T
  0.9082889482725531  0.3810034871711092  0.1106972353007480   T   T   T
  0.9065993509805904  0.5235995354272597  0.1107537036335652   T   T   T
  0.9049038016655758  0.6658211265042252  0.1108194191126738   T   T   T
  0.9046929174999582  0.8079587984583767  0.1107060872582506   T   T   T
  0.0496131385340614  0.9527059224069714  0.1106798370913617   T   T   T
  0.0511044474474672  0.0961191367976515  0.1107410125868993   T   T   T
  0.0519274204049494  0.2391562530719873  0.1109078430428761   T   T   T
  0.0514190073911494  0.3817513710708568  0.1108273168676839   T   T   T
  0.0496464706472574  0.5244164533965091  0.1106738465638915   T   T   T
  0.0486869911858811  0.6670545171248016  0.1107135768553610   T   T   T
  0.0487075720272314  0.8096801614439051  0.1107250546135290   T   T   T
  0.1926461040079920  0.9533715600273146  0.1106970284942552   T   T   T
  0.1944486431644811  0.0971620468452325  0.1106394908983856   T   T   T
  0.1956692016139050  0.2401456738281107  0.1107972593560296   T   T   T
  0.1956267162756953  0.3831173497439065  0.1109833321857015   T   T   T
  0.1923926660967543  0.5253448059499800  0.1107948407625563   T   T   T
  0.1915971027520502  0.6679770849909542  0.1106421301799060   T   T   T
  0.1919261146054781  0.8105304384872685  0.1106630219947061   T   T   T
  0.3355481115294545  0.9535535177963979  0.1107398445629807   T   T   T
  0.3365942470527836  0.0964593617283317  0.1106705330190022   T   T   T
  0.3401085269891264  0.2415555255729261  0.1105915856855228   T   T   T
  0.3407539186285885  0.3826054683002582  0.1110050942933513   T   T   T
  0.3352618993830990  0.5294712717513387  0.1110634363256303   T   T   T
  0.3341097278950723  0.6699778295331883  0.1107522980303212   T   T   T
  0.3349356965352391  0.8114310113148436  0.1107247044934525   T   T   T
  0.4786091116835764  0.9532210393791659  0.1107791191983661   T   T   T
  0.4792057619231583  0.0955697033340269  0.1107583812378569   T   T   T
  0.4803261821466400  0.2382607658248041  0.1106029178256654   T   T   T
  0.4877765786598000  0.3850751201320558  0.1106843289899709   T   T   T
  0.4759823181640424  0.6690322426039036  0.1107810719429322   T   T   T
  0.4780564114199185  0.8110791337697144  0.1107627115258528   T   T   T
  0.6216503861690197  0.9523707980995810  0.1107219479269137   T   T   T
  0.6221868991256264  0.0949007418202599  0.1107214360170259   T   T   T
  0.6228368788172063  0.2371030241468409  0.1106671817018689   T   T   T
  0.6240640593422574  0.3786577340768186  0.1105652182438017   T   T   T
  0.6144418230737565  0.5140890102788795  0.1106452832522440   T   T   T
  0.6182734961318426  0.6636679427623638  0.1106949341889052   T   T   T
  0.6206355601690547  0.8091346495533648  0.1107167466802105   T   T   T
  0.7643016850379223  0.9519030503192017  0.1107270695887699   T   T   T
  0.7651330641587145  0.0950260346937943  0.1106924283591160   T   T   T
  0.7655821847055357  0.2377110778648565  0.1106814843903581   T   T   T
  0.7657252688909950  0.3801688573720788  0.1106733313931290   T   T   T
  0.7629108658567487  0.5221209538297719  0.1107487512433040   T   T   T
  0.7587796389861596  0.6622691887146556  0.1107335593304776   T   T   T
  0.7622944651162524  0.8076190231314839  0.1106873044574791   T   T   T
  0.9536895486788018  0.9039178855792996  0.1106845361379579   T   T   T
  0.9553744266585400  0.0476297030903794  0.1107467596215450   T   T   T
  0.9563714926590199  0.1909311242511908  0.1108404397679823   T   T   T
  0.9562167779962897  0.3336315200323830  0.1107560205331614   T   T   T
  0.9546903886802144  0.4763137428451257  0.1106769467456060   T   T   T
  0.9533830556523640  0.6189099334582908  0.1107772609091275   T   T   T
  0.9530405506587333  0.7612650175254390  0.1107488791747942   T   T   T
  0.0970834552332204  0.9051507867564436  0.1106828447864156   T   T   T
  0.0985299829287839  0.0485422399028681  0.1106467867165757   T   T   T
  0.0998273950475473  0.1918486129124609  0.1108140495125802   T   T   T
  0.1000234553394029  0.3347244373290318  0.1109264976805744   T   T   T
  0.0975753408957921  0.4770516220927982  0.1107175704744670   T   T   T
  0.0965644295911132  0.6197369260021438  0.1106255507151081   T   T   T
  0.0965401209581023  0.7624038425751937  0.1106806415249508   T   T   T
  0.2401234554048876  0.9057647333498259  0.1106870368235996   T   T   T
  0.2411387809346159  0.0487818264277299  0.1106501276716615   T   T   T
  0.2436760114543864  0.1931346177800176  0.1106276608492038   T   T   T
  0.2448740258177384  0.3361440274565304  0.1109339630467818   T   T   T
  0.2407557533544759  0.4785865375377578  0.1109473719040682   T   T   T
  0.2393162396545336  0.6207512026757355  0.1106941133128248   T   T   T
  0.2396371667331023  0.7632085653190323  0.1106313119123864   T   T   T
  0.3832384407517998  0.9062279995851436  0.1107491903645205   T   T   T
  0.3838546799443923  0.0485677916852239  0.1107389081323157   T   T   T
  0.3853010574573299  0.1916565836306999  0.1105754768615472   T   T   T
  0.3905261277877674  0.3378104907446463  0.1106388096138155   T   T   T
  0.3818180816004312  0.6233107789310484  0.1108177078383117   T   T   T
  0.3827537332883779  0.7644487976039537  0.1107281500407362   T   T   T
  0.5263321155675460  0.9057439916172505  0.1107423441627896   T   T   T
  0.5268198700841250  0.0480332700327593  0.1107648196248729   T   T   T
  0.5275701130841606  0.1904871426536028  0.1106703968626576   T   T   T
  0.5298065973893061  0.3334965718225635  0.1105181502282971   T   T   T
  0.4765074810001734  0.5304086347339853  0.1109674225390729   T   T   T
  0.5219907522322770  0.6197251202776799  0.1107575409258414   T   T   T
  0.5255831568412875  0.7633692392118008  0.1107218034420846   T   T   T
  0.6689294348539730  0.9042897754233727  0.1107040718093450   T   T   T
  0.6697828900012378  0.0473683390087491  0.1106809210201510   T   T   T
  0.6703453265900374  0.1897450332020351  0.1106793942295961   T   T   T
  0.6711784865222380  0.3316813484310933  0.1105845196363017   T   T   T
  0.6676822524148280  0.4727999748688466  0.1106277795032280   T   T   T
  0.6612593129213247  0.6119194677786662  0.1106995817714332   T   T   T
  0.6663942979897356  0.7592891401411261  0.1106719792861113   T   T   T
  0.8109683285815672  0.9034163631088992  0.1107059662164265   T   T   T
  0.8125818788834389  0.0473048599485419  0.1107076869312349   T   T   T
  0.8132189554203147  0.1902400212380440  0.1106914527505673   T   T   T
  0.8133876120321344  0.3328733307215715  0.1106599588133944   T   T   T
  0.8115618836934303  0.4753693767717290  0.1107213470738577   T   T   T
  0.8092056329133706  0.6173180048855893  0.1107889092168184   T   T   T
  0.8083865867759336  0.7587983440146685  0.1106813205438992   T   T   T

  0.00000000E+00  0.00000000E+00  0.00000000E+00
  0.00000000E+00  0.00000000E+00  0.00000000E+00
  0.00000000E+00  0.00000000E+00  0.00000000E+00
  0.00000000E+00  0.00000000E+00  0.00000000E+00
  0.00000000E+00  0.00000000E+00  0.00000000E+00
  0.00000000E+00  0.00000000E+00  0.00000000E+00
  0.00000000E+00  0.00000000E+00  0.00000000E+00
  0.00000000E+00  0.00000000E+00  0.00000000E+00
  0.00000000E+00  0.00000000E+00  0.00000000E+00
  0.00000000E+00  0.00000000E+00  0.00000000E+00
  0.00000000E+00  0.00000000E+00  0.00000000E+00
  0.00000000E+00  0.00000000E+00  0.00000000E+00
  0.00000000E+00  0.00000000E+00  0.00000000E+00
  0.00000000E+00  0.00000000E+00  0.00000000E+00
  0.00000000E+00  0.00000000E+00  0.00000000E+00
  0.00000000E+00  0.00000000E+00  0.00000000E+00
  0.00000000E+00  0.00000000E+00  0.00000000E+00
  0.00000000E+00  0.00000000E+00  0.00000000E+00
  0.00000000E+00  0.00000000E+00  0.00000000E+00
  0.00000000E+00  0.00000000E+00  0.00000000E+00
  0.00000000E+00  0.00000000E+00  0.00000000E+00
  0.00000000E+00  0.00000000E+00  0.00000000E+00
  0.00000000E+00  0.00000000E+00  0.00000000E+00
  0.00000000E+00  0.00000000E+00  0.00000000E+00
  0.00000000E+00  0.00000000E+00  0.00000000E+00
  0.00000000E+00  0.00000000E+00  0.00000000E+00
  0.00000000E+00  0.00000000E+00  0.00000000E+00
  0.00000000E+00  0.00000000E+00  0.00000000E+00
  0.00000000E+00  0.00000000E+00  0.00000000E+00
  0.00000000E+00  0.00000000E+00  0.00000000E+00
  0.00000000E+00  0.00000000E+00  0.00000000E+00
  0.00000000E+00  0.00000000E+00  0.00000000E+00
  0.00000000E+00  0.00000000E+00  0.00000000E+00
  0.00000000E+00  0.00000000E+00  0.00000000E+00
  0.00000000E+00  0.00000000E+00  0.00000000E+00
  0.00000000E+00  0.00000000E+00  0.00000000E+00
  0.00000000E+00  0.00000000E+00  0.00000000E+00
  0.00000000E+00  0.00000000E+00  0.00000000E+00
  0.00000000E+00  0.00000000E+00  0.00000000E+00
  0.00000000E+00  0.00000000E+00  0.00000000E+00
  0.00000000E+00  0.00000000E+00  0.00000000E+00
  0.00000000E+00  0.00000000E+00  0.00000000E+00
  0.00000000E+00  0.00000000E+00  0.00000000E+00
  0.00000000E+00  0.00000000E+00  0.00000000E+00
  0.00000000E+00  0.00000000E+00  0.00000000E+00
  0.00000000E+00  0.00000000E+00  0.00000000E+00
  0.00000000E+00  0.00000000E+00  0.00000000E+00
  0.00000000E+00  0.00000000E+00  0.00000000E+00
  0.00000000E+00  0.00000000E+00  0.00000000E+00
  0.00000000E+00  0.00000000E+00  0.00000000E+00
  0.00000000E+00  0.00000000E+00  0.00000000E+00
  0.00000000E+00  0.00000000E+00  0.00000000E+00
  0.00000000E+00  0.00000000E+00  0.00000000E+00
  0.00000000E+00  0.00000000E+00  0.00000000E+00
  0.00000000E+00  0.00000000E+00  0.00000000E+00
  0.00000000E+00  0.00000000E+00  0.00000000E+00
  0.00000000E+00  0.00000000E+00  0.00000000E+00
  0.00000000E+00  0.00000000E+00  0.00000000E+00
  0.00000000E+00  0.00000000E+00  0.00000000E+00
  0.00000000E+00  0.00000000E+00  0.00000000E+00
  0.00000000E+00  0.00000000E+00  0.00000000E+00
  0.00000000E+00  0.00000000E+00  0.00000000E+00
  0.00000000E+00  0.00000000E+00  0.00000000E+00
  0.00000000E+00  0.00000000E+00  0.00000000E+00
  0.00000000E+00  0.00000000E+00  0.00000000E+00
  0.00000000E+00  0.00000000E+00  0.00000000E+00
  0.00000000E+00  0.00000000E+00  0.00000000E+00
  0.00000000E+00  0.00000000E+00  0.00000000E+00
  0.00000000E+00  0.00000000E+00  0.00000000E+00
  0.00000000E+00  0.00000000E+00  0.00000000E+00
  0.00000000E+00  0.00000000E+00  0.00000000E+00
  0.00000000E+00  0.00000000E+00  0.00000000E+00
  0.00000000E+00  0.00000000E+00  0.00000000E+00
  0.00000000E+00  0.00000000E+00  0.00000000E+00
  0.00000000E+00  0.00000000E+00  0.00000000E+00
  0.00000000E+00  0.00000000E+00  0.00000000E+00
  0.00000000E+00  0.00000000E+00  0.00000000E+00
  0.00000000E+00  0.00000000E+00  0.00000000E+00
  0.00000000E+00  0.00000000E+00  0.00000000E+00
  0.00000000E+00  0.00000000E+00  0.00000000E+00
  0.00000000E+00  0.00000000E+00  0.00000000E+00
  0.00000000E+00  0.00000000E+00  0.00000000E+00
  0.00000000E+00  0.00000000E+00  0.00000000E+00
  0.00000000E+00  0.00000000E+00  0.00000000E+00
  0.00000000E+00  0.00000000E+00  0.00000000E+00
  0.00000000E+00  0.00000000E+00  0.00000000E+00
  0.00000000E+00  0.00000000E+00  0.00000000E+00
  0.00000000E+00  0.00000000E+00  0.00000000E+00
  0.00000000E+00  0.00000000E+00  0.00000000E+00
  0.00000000E+00  0.00000000E+00  0.00000000E+00
  0.00000000E+00  0.00000000E+00  0.00000000E+00
  0.00000000E+00  0.00000000E+00  0.00000000E+00
  0.00000000E+00  0.00000000E+00  0.00000000E+00
  0.00000000E+00  0.00000000E+00  0.00000000E+00
  0.00000000E+00  0.00000000E+00  0.00000000E+00
  0.00000000E+00  0.00000000E+00  0.00000000E+00
  0.00000000E+00  0.00000000E+00  0.00000000E+00
