B Al N                                  
   1.0000000000000000     
     8.7639499999999995  -15.1796066749929999    0.0000000000000000
     8.7639499999999995   15.1796066749929999    0.0000000000000000
     0.0000000000000000    0.0000000000000000   15.0000000000000000
   B    Al   N 
    47     1    49
Selective dynamics
Direct
  0.9087852367698875  0.9538103154386105  0.1107332186028735   T   T   T
  0.9087482356689137  0.0958846166160712  0.1107781659738779   T   T   T
  0.9087513229206250  0.2379723995086477  0.1107383084846545   T   T   T
  0.9087938636173154  0.3803824722034322  0.1107009975466453   T   T   T
  0.9082105065369176  0.5230323387964678  0.1107413981643899   T   T   T
  0.9071468350339439  0.6656223109263961  0.1107722668218227   T   T   T
  0.9042501151373197  0.8073215596080784  0.1107131495808042   T   T   T
  0.0504908491350944  0.9538782763773730  0.1107011556795961   T   T   T
  0.0525116120204043  0.0975262118242667  0.1107755779337819   T   T   T
  0.0518988363755432  0.2390897633798866  0.1108108640251966   T   T   T
  0.0509280987080258  0.3812814102298727  0.1107469744973343   T   T   T
  0.0498023385993134  0.5243340423493795  0.1107273574106818   T   T   T
  0.0493505042501458  0.6675044251400382  0.1107487718755893   T   T   T
  0.0491221377098594  0.8104868160025925  0.1107316492295199   T   T   T
  0.1933468573087383  0.9550559534357232  0.1107005092800914   T   T   T
  0.1966145132984099  0.1002423763262457  0.1107130530754676   T   T   T
  0.1965184490521530  0.2419038804579961  0.1107448349072137   T   T   T
  0.1937851779837047  0.3822154220645071  0.1107514631904649   T   T   T
  0.1909321132085458  0.5249941537539727  0.1107443527464555   T   T   T
  0.1905932430989121  0.6683851693782528  0.1107415191007017   T   T   T
  0.1920070325732419  0.8115304291455017  0.1107300215186188   T   T   T
  0.3356416782188518  0.9548104029547398  0.1107157972231474   T   T   T
  0.3375909367627375  0.0990178023519310  0.1107279392267191   T   T   T
  0.3444205950678405  0.2482032224148880  0.1107515591290908   T   T   T
  0.3399861585930401  0.3862406902063391  0.1107495328590313   T   T   T
  0.3314697169890747  0.5261808657361244  0.1107161225972127   T   T   T
  0.3307666669070375  0.6691404119607637  0.1107287424549957   T   T   T
  0.3344573798652196  0.8119023957090264  0.1107522078435344   T   T   T
  0.4781531551959695  0.9534803872936578  0.1107493311533117   T   T   T
  0.4793142727417408  0.0959452010134461  0.1107590745703437   T   T   T
  0.4813789326637625  0.2394122734290910  0.1107780276254867   T   T   T
  0.4989430955179421  0.3966945665370181  0.1108032890186482   T   T   T
  0.4686941121842882  0.6665966452336549  0.1107750083062190   T   T   T
  0.4770935480018070  0.8109418551587734  0.1107538033463529   T   T   T
  0.6212253051809437  0.9539337071883660  0.1107605398422901   T   T   T
  0.6220464419191495  0.0948113387627929  0.1107377366154392   T   T   T
  0.6229648806139473  0.2354806414147176  0.1107516281550401   T   T   T
  0.6249648226377863  0.3750082686618593  0.1107909284821184   T   T   T
  0.6115587719299720  0.5006312287830262  0.1107972592846143   T   T   T
  0.6204895462537625  0.8131741650747576  0.1107245199963624   T   T   T
  0.7649434353294037  0.9532438644390346  0.1107444808792632   T   T   T
  0.7653768077645249  0.0952120738109596  0.1107311200197376   T   T   T
  0.7659216225034171  0.2369502704007966  0.1107101838812704   T   T   T
  0.7668240487588327  0.3787337357185089  0.1107059521302522   T   T   T
  0.7656492735581759  0.5199258326404298  0.1107606875298487   T   T   T
  0.7602499091069725  0.6571280126263799  0.1107672394748640   T   T   T
  0.7653304313287194  0.8115684829154091  0.1107104454385049   T   T   T
  0.6143731864658383  0.6583876900801694  0.1105596227637778   T   T   T
  0.9544313170229859  0.9043384935552924  0.1106890644577648   T   T   T
  0.9570081343441742  0.0490913274089562  0.1107555563089472   T   T   T
  0.9564871993767669  0.1908632954501191  0.1107706250580668   T   T   T
  0.9560554910486926  0.3329690265488893  0.1107106808960810   T   T   T
  0.9554223511891640  0.4755964408813981  0.1107035944035651   T   T   T
  0.9548950288523329  0.6185757722513677  0.1107517035508600   T   T   T
  0.9537093402110191  0.7613812286303814  0.1107271164258378   T   T   T
  0.0977676693831840  0.9062233384089197  0.1106872506911993   T   T   T
  0.1000506773675675  0.0501252325091435  0.1107119856820411   T   T   T
  0.1003846598502031  0.1925681502525641  0.1107744797190458   T   T   T
  0.0983996152513668  0.3338598846620244  0.1107668052176141   T   T   T
  0.0964599096731177  0.4764324815490558  0.1107244039040645   T   T   T
  0.0960650788732449  0.6197706185103927  0.1107209716058869   T   T   T
  0.0967319096380852  0.7630786140487659  0.1107227015415576   T   T   T
  0.2402537064144399  0.9069888827950247  0.1106952190057273   T   T   T
  0.2421403530769663  0.0506888770331584  0.1106886879876368   T   T   T
  0.2463594564713250  0.1965162101289630  0.1107122126972303   T   T   T
  0.2430200870694795  0.3362659506562054  0.1107212979105017   T   T   T
  0.2372025224643327  0.4768779501560577  0.1107187274605972   T   T   T
  0.2362746279737780  0.6203991441952249  0.1107170915607476   T   T   T
  0.2389768755995765  0.7639195293911076  0.1107321761803228   T   T   T
  0.3827872481224298  0.9070602197514605  0.1107263913481484   T   T   T
  0.3840018371818421  0.0498895126594103  0.1107197751339041   T   T   T
  0.3864083938609886  0.1943547623407863  0.1107330836541895   T   T   T
  0.3961589609993308  0.3460045321973678  0.1107559601532365   T   T   T
  0.3783411586166965  0.4794453610811241  0.1107083127279116   T   T   T
  0.3746677121865232  0.6212558504858675  0.1107253813741386   T   T   T
  0.3812749530042110  0.7646646785449999  0.1107288123030223   T   T   T
  0.5257575004960743  0.9063594334643371  0.1107391235169366   T   T   T
  0.5267188457876998  0.0482353713878223  0.1107381429894712   T   T   T
  0.5279336305567386  0.1901870820719848  0.1107530785952703   T   T   T
  0.5308599795286366  0.3328842843998864  0.1107801756780947   T   T   T
  0.4686310741646686  0.5218433798871566  0.1107364232700907   T   T   T
  0.5034853629681687  0.6116683884913837  0.1107466629766785   T   T   T
  0.5242132801169623  0.7636601638413373  0.1107377734645440   T   T   T
  0.6693855377210766  0.9079646851005370  0.1107413139257769   T   T   T
  0.6700571622879159  0.0483982834983767  0.1107193681280066   T   T   T
  0.6708089243263174  0.1889711295664611  0.1107175493879108   T   T   T
  0.6724786848385526  0.3290801001112776  0.1107245900773182   T   T   T
  0.6721548196126290  0.4680139360149436  0.1107764396357976   T   T   T
  0.6660519001565259  0.5981492596668763  0.1107204055615036   T   T   T
  0.6725761659458394  0.7720097042650085  0.1106412440938663   T   T   T
  0.8141712624756431  0.9069154233794368  0.1107280141260927   T   T   T
  0.8133922109075553  0.0483223129287882  0.1107323998489644   T   T   T
  0.8136347582505127  0.1900306279893273  0.1107058937846763   T   T   T
  0.8142221956065365  0.3317558187640979  0.1106740982130800   T   T   T
  0.8141112669175887  0.4737094185587618  0.1107092772492461   T   T   T
  0.8129779388030584  0.6155414550810523  0.1107575540208972   T   T   T
  0.8078755942507176  0.7572859990771494  0.1107101432106693   T   T   T

  0.00000000E+00  0.00000000E+00  0.00000000E+00
  0.00000000E+00  0.00000000E+00  0.00000000E+00
  0.00000000E+00  0.00000000E+00  0.00000000E+00
  0.00000000E+00  0.00000000E+00  0.00000000E+00
  0.00000000E+00  0.00000000E+00  0.00000000E+00
  0.00000000E+00  0.00000000E+00  0.00000000E+00
  0.00000000E+00  0.00000000E+00  0.00000000E+00
  0.00000000E+00  0.00000000E+00  0.00000000E+00
  0.00000000E+00  0.00000000E+00  0.00000000E+00
  0.00000000E+00  0.00000000E+00  0.00000000E+00
  0.00000000E+00  0.00000000E+00  0.00000000E+00
  0.00000000E+00  0.00000000E+00  0.00000000E+00
  0.00000000E+00  0.00000000E+00  0.00000000E+00
  0.00000000E+00  0.00000000E+00  0.00000000E+00
  0.00000000E+00  0.00000000E+00  0.00000000E+00
  0.00000000E+00  0.00000000E+00  0.00000000E+00
  0.00000000E+00  0.00000000E+00  0.00000000E+00
  0.00000000E+00  0.00000000E+00  0.00000000E+00
  0.00000000E+00  0.00000000E+00  0.00000000E+00
  0.00000000E+00  0.00000000E+00  0.00000000E+00
  0.00000000E+00  0.00000000E+00  0.00000000E+00
  0.00000000E+00  0.00000000E+00  0.00000000E+00
  0.00000000E+00  0.00000000E+00  0.00000000E+00
  0.00000000E+00  0.00000000E+00  0.00000000E+00
  0.00000000E+00  0.00000000E+00  0.00000000E+00
  0.00000000E+00  0.00000000E+00  0.00000000E+00
  0.00000000E+00  0.00000000E+00  0.00000000E+00
  0.00000000E+00  0.00000000E+00  0.00000000E+00
  0.00000000E+00  0.00000000E+00  0.00000000E+00
  0.00000000E+00  0.00000000E+00  0.00000000E+00
  0.00000000E+00  0.00000000E+00  0.00000000E+00
  0.00000000E+00  0.00000000E+00  0.00000000E+00
  0.00000000E+00  0.00000000E+00  0.00000000E+00
  0.00000000E+00  0.00000000E+00  0.00000000E+00
  0.00000000E+00  0.00000000E+00  0.00000000E+00
  0.00000000E+00  0.00000000E+00  0.00000000E+00
  0.00000000E+00  0.00000000E+00  0.00000000E+00
  0.00000000E+00  0.00000000E+00  0.00000000E+00
  0.00000000E+00  0.00000000E+00  0.00000000E+00
  0.00000000E+00  0.00000000E+00  0.00000000E+00
  0.00000000E+00  0.00000000E+00  0.00000000E+00
  0.00000000E+00  0.00000000E+00  0.00000000E+00
  0.00000000E+00  0.00000000E+00  0.00000000E+00
  0.00000000E+00  0.00000000E+00  0.00000000E+00
  0.00000000E+00  0.00000000E+00  0.00000000E+00
  0.00000000E+00  0.00000000E+00  0.00000000E+00
  0.00000000E+00  0.00000000E+00  0.00000000E+00
  0.00000000E+00  0.00000000E+00  0.00000000E+00
  0.00000000E+00  0.00000000E+00  0.00000000E+00
  0.00000000E+00  0.00000000E+00  0.00000000E+00
  0.00000000E+00  0.00000000E+00  0.00000000E+00
  0.00000000E+00  0.00000000E+00  0.00000000E+00
  0.00000000E+00  0.00000000E+00  0.00000000E+00
  0.00000000E+00  0.00000000E+00  0.00000000E+00
  0.00000000E+00  0.00000000E+00  0.00000000E+00
  0.00000000E+00  0.00000000E+00  0.00000000E+00
  0.00000000E+00  0.00000000E+00  0.00000000E+00
  0.00000000E+00  0.00000000E+00  0.00000000E+00
  0.00000000E+00  0.00000000E+00  0.00000000E+00
  0.00000000E+00  0.00000000E+00  0.00000000E+00
  0.00000000E+00  0.00000000E+00  0.00000000E+00
  0.00000000E+00  0.00000000E+00  0.00000000E+00
  0.00000000E+00  0.00000000E+00  0.00000000E+00
  0.00000000E+00  0.00000000E+00  0.00000000E+00
  0.00000000E+00  0.00000000E+00  0.00000000E+00
  0.00000000E+00  0.00000000E+00  0.00000000E+00
  0.00000000E+00  0.00000000E+00  0.00000000E+00
  0.00000000E+00  0.00000000E+00  0.00000000E+00
  0.00000000E+00  0.00000000E+00  0.00000000E+00
  0.00000000E+00  0.00000000E+00  0.00000000E+00
  0.00000000E+00  0.00000000E+00  0.00000000E+00
  0.00000000E+00  0.00000000E+00  0.00000000E+00
  0.00000000E+00  0.00000000E+00  0.00000000E+00
  0.00000000E+00  0.00000000E+00  0.00000000E+00
  0.00000000E+00  0.00000000E+00  0.00000000E+00
  0.00000000E+00  0.00000000E+00  0.00000000E+00
  0.00000000E+00  0.00000000E+00  0.00000000E+00
  0.00000000E+00  0.00000000E+00  0.00000000E+00
  0.00000000E+00  0.00000000E+00  0.00000000E+00
  0.00000000E+00  0.00000000E+00  0.00000000E+00
  0.00000000E+00  0.00000000E+00  0.00000000E+00
  0.00000000E+00  0.00000000E+00  0.00000000E+00
  0.00000000E+00  0.00000000E+00  0.00000000E+00
  0.00000000E+00  0.00000000E+00  0.00000000E+00
  0.00000000E+00  0.00000000E+00  0.00000000E+00
  0.00000000E+00  0.00000000E+00  0.00000000E+00
  0.00000000E+00  0.00000000E+00  0.00000000E+00
  0.00000000E+00  0.00000000E+00  0.00000000E+00
  0.00000000E+00  0.00000000E+00  0.00000000E+00
  0.00000000E+00  0.00000000E+00  0.00000000E+00
  0.00000000E+00  0.00000000E+00  0.00000000E+00
  0.00000000E+00  0.00000000E+00  0.00000000E+00
  0.00000000E+00  0.00000000E+00  0.00000000E+00
  0.00000000E+00  0.00000000E+00  0.00000000E+00
  0.00000000E+00  0.00000000E+00  0.00000000E+00
  0.00000000E+00  0.00000000E+00  0.00000000E+00
  0.00000000E+00  0.00000000E+00  0.00000000E+00
