B C N                                   
   1.0000000000000000     
     8.7639499999999995  -15.1796066749929999    0.0000000000000000
     8.7639499999999995   15.1796066749929999    0.0000000000000000
     0.0000000000000000    0.0000000000000000   15.0000000000000000
   B    C    N 
    47     2    48
Selective dynamics
Direct
  0.9046700274484974  0.9515514985316683  0.1110267843549420   T   T   T
  0.9055948210365128  0.0945668588011732  0.1110630248676805   T   T   T
  0.9058813862036534  0.2375603255905300  0.1110637814359410   T   T   T
  0.9058067722779517  0.3808653358964644  0.1110163864037190   T   T   T
  0.9045161754368152  0.5239777662770125  0.1110006070925476   T   T   T
  0.9038257237100550  0.6664964598069487  0.1110740226914922   T   T   T
  0.9033967801073792  0.8084222950380412  0.1110433381931370   T   T   T
  0.0492500989494200  0.9546894872811136  0.1109991052189229   T   T   T
  0.0497769916310151  0.0968923087955191  0.1110064546297030   T   T   T
  0.0492550936230033  0.2387740222166304  0.1110237025286449   T   T   T
  0.0479418452248144  0.3814879456212651  0.1110279257919410   T   T   T
  0.0468098677842970  0.5246918401800376  0.1110136517602583   T   T   T
  0.0470289915047584  0.6677934851413289  0.1110065796834963   T   T   T
  0.0475818672341293  0.8108594823841295  0.1109827970372605   T   T   T
  0.1915858020656980  0.9550931490431593  0.1109678354720676   T   T   T
  0.1961261810781991  0.1017152265941699  0.1110291071699714   T   T   T
  0.1946303171720555  0.2421316079074404  0.1110021242141320   T   T   T
  0.1908983495087127  0.3830286082833056  0.1109933525864954   T   T   T
  0.1883770930282286  0.5255154666956314  0.1110688001540359   T   T   T
  0.1892891749125332  0.6684319670492045  0.1110992475321542   T   T   T
  0.1902854099963703  0.8114366305572556  0.1110074566364443   T   T   T
  0.3337682778904144  0.9542867400263382  0.1110280935677203   T   T   T
  0.3354314554508650  0.0986032295779259  0.1110437395978728   T   T   T
  0.3467917298020072  0.2513824629124736  0.1110674296200652   T   T   T
  0.3358781850185408  0.3878493534088053  0.1110272159335529   T   T   T
  0.3291124007141402  0.5285085991222379  0.1110103528372234   T   T   T
  0.3312091927674341  0.6692977946088522  0.1110968825082243   T   T   T
  0.3327735950728443  0.8113300312007287  0.1111100716198203   T   T   T
  0.4763254673857617  0.9517069915483537  0.1110301659892769   T   T   T
  0.4772998143404453  0.0941406265980785  0.1110145126274713   T   T   T
  0.4785262400836895  0.2356667687863145  0.1109702388503751   T   T   T
  0.4724672098570545  0.6647241673268817  0.1110150941204565   T   T   T
  0.4753297519277019  0.8086474519838137  0.1110746780152448   T   T   T
  0.6189677853665695  0.9504153010591676  0.1110022322092242   T   T   T
  0.6199754675938716  0.0936426388858442  0.1110094858678675   T   T   T
  0.6212944529600877  0.2363202207426603  0.1110048951997606   T   T   T
  0.6234655488198620  0.3795262339261284  0.1109774395509485   T   T   T
  0.6086989877097937  0.5107161140240097  0.1110920545072100   T   T   T
  0.6146470077527800  0.6595912108669433  0.1110259468576747   T   T   T
  0.6175315027381709  0.8062389981811555  0.1109967080907437   T   T   T
  0.7615422434181688  0.9502140081214593  0.1110495677674848   T   T   T
  0.7625623459002562  0.0937365418214245  0.1110613313684162   T   T   T
  0.7633988135437942  0.2369817640005365  0.1110256344386211   T   T   T
  0.7641613769035392  0.3802319514289626  0.1110239778557620   T   T   T
  0.7609794050158564  0.5224764106901125  0.1111009114464687   T   T   T
  0.7571812857956316  0.6614365864414884  0.1110701288158887   T   T   T
  0.7594752560863950  0.8058217695343345  0.1110277740616406   T   T   T
  0.4653347272012853  0.5198338345233732  0.1109886876684429   T   T   T
  0.4912816348636007  0.4517028944578244  0.1110679991318231   T   T   T
  0.9526540242388958  0.9046519117818729  0.1110078253192926   T   T   T
  0.9537125270086069  0.0475252627519330  0.1110132920172856   T   T   T
  0.9539052113515781  0.1902355579337580  0.1110394638748105   T   T   T
  0.9532295602714245  0.3330969969748990  0.1110156891740957   T   T   T
  0.9520486587095788  0.4763357386225598  0.1109675911579696   T   T   T
  0.9516295859867615  0.6193449353118556  0.1110031138405259   T   T   T
  0.9516503638371094  0.7618609588553625  0.1110366816825075   T   T   T
  0.0961521272165991  0.9067208824243477  0.1109426084192950   T   T   T
  0.0993465610892383  0.0515684203416786  0.1109872984372312   T   T   T
  0.0988817491965238  0.1928575785861015  0.1109826607608133   T   T   T
  0.0964236062172890  0.3343251373729161  0.1109904063209901   T   T   T
  0.0942187021414141  0.4768842085866926  0.1110223655593691   T   T   T
  0.0944033364524763  0.6200724739884569  0.1110218443863616   T   T   T
  0.0949783016025855  0.7632477253070501  0.1109670399426883   T   T   T
  0.2385505636946158  0.9069621462808655  0.1109702480858576   T   T   T
  0.2406769372115485  0.0515513819686499  0.1110054054539514   T   T   T
  0.2484722368887357  0.2009285741196177  0.1110204937736476   T   T   T
  0.2417745549404989  0.3377430358635534  0.1109731204942427   T   T   T
  0.2361188272118626  0.4781064699113585  0.1110152377564281   T   T   T
  0.2366817249459540  0.6206175153792419  0.1110999863360726   T   T   T
  0.2376442988683614  0.7635768199720271  0.1110708910688892   T   T   T
  0.3810592231705570  0.9060916954238208  0.1110415055238925   T   T   T
  0.3820425858154297  0.0497394188226594  0.1110078019755097   T   T   T
  0.3847766631348057  0.1956130617412944  0.1110602904912650   T   T   T
  0.4038760806385932  0.3629470390225103  0.1110411936699171   T   T   T
  0.3777583951254675  0.4827290924218087  0.1109611855670446   T   T   T
  0.3786850965184285  0.6214209153473962  0.1110410826033672   T   T   T
  0.3802500442055798  0.7633099567377722  0.1111084624209127   T   T   T
  0.5236149174369444  0.9033485203337750  0.1110111137637562   T   T   T
  0.5245982465201620  0.0464974278258432  0.1109778250633365   T   T   T
  0.5262147161646794  0.1886078575403478  0.1109821216320392   T   T   T
  0.5328761972715603  0.3261893474117483  0.1106505922145985   T   T   T
  0.5163418218567154  0.6100659606264991  0.1109763088388195   T   T   T
  0.5221222440226192  0.7589507907677865  0.1110067135803410   T   T   T
  0.6657777250920475  0.9015301391317723  0.1109939597045577   T   T   T
  0.6671496882337018  0.0456203266643879  0.1110018185954737   T   T   T
  0.6683188180318540  0.1887645848191670  0.1109938282067020   T   T   T
  0.6697570827409659  0.3314164571729256  0.1109967512087248   T   T   T
  0.6645191908389904  0.4733295281962886  0.1110922213276101   T   T   T
  0.6577705758314347  0.6085059661594853  0.1110429057838422   T   T   T
  0.6625179702339504  0.7553675631061475  0.1109782684205038   T   T   T
  0.8083308083188702  0.9017910445864811  0.1110178586482129   T   T   T
  0.8099228899090050  0.0458216646074174  0.1110562247735001   T   T   T
  0.8106882077375704  0.1892180908730605  0.1110560534273483   T   T   T
  0.8110562235370291  0.3324967876085385  0.1110094958029302   T   T   T
  0.8092025622056587  0.4756185777463764  0.1110209038496309   T   T   T
  0.8074233794898714  0.6171953099813371  0.1110845066915511   T   T   T
  0.8061479088361925  0.7577171243342894  0.1110422530930543   T   T   T

  0.00000000E+00  0.00000000E+00  0.00000000E+00
  0.00000000E+00  0.00000000E+00  0.00000000E+00
  0.00000000E+00  0.00000000E+00  0.00000000E+00
  0.00000000E+00  0.00000000E+00  0.00000000E+00
  0.00000000E+00  0.00000000E+00  0.00000000E+00
  0.00000000E+00  0.00000000E+00  0.00000000E+00
  0.00000000E+00  0.00000000E+00  0.00000000E+00
  0.00000000E+00  0.00000000E+00  0.00000000E+00
  0.00000000E+00  0.00000000E+00  0.00000000E+00
  0.00000000E+00  0.00000000E+00  0.00000000E+00
  0.00000000E+00  0.00000000E+00  0.00000000E+00
  0.00000000E+00  0.00000000E+00  0.00000000E+00
  0.00000000E+00  0.00000000E+00  0.00000000E+00
  0.00000000E+00  0.00000000E+00  0.00000000E+00
  0.00000000E+00  0.00000000E+00  0.00000000E+00
  0.00000000E+00  0.00000000E+00  0.00000000E+00
  0.00000000E+00  0.00000000E+00  0.00000000E+00
  0.00000000E+00  0.00000000E+00  0.00000000E+00
  0.00000000E+00  0.00000000E+00  0.00000000E+00
  0.00000000E+00  0.00000000E+00  0.00000000E+00
  0.00000000E+00  0.00000000E+00  0.00000000E+00
  0.00000000E+00  0.00000000E+00  0.00000000E+00
  0.00000000E+00  0.00000000E+00  0.00000000E+00
  0.00000000E+00  0.00000000E+00  0.00000000E+00
  0.00000000E+00  0.00000000E+00  0.00000000E+00
  0.00000000E+00  0.00000000E+00  0.00000000E+00
  0.00000000E+00  0.00000000E+00  0.00000000E+00
  0.00000000E+00  0.00000000E+00  0.00000000E+00
  0.00000000E+00  0.00000000E+00  0.00000000E+00
  0.00000000E+00  0.00000000E+00  0.00000000E+00
  0.00000000E+00  0.00000000E+00  0.00000000E+00
  0.00000000E+00  0.00000000E+00  0.00000000E+00
  0.00000000E+00  0.00000000E+00  0.00000000E+00
  0.00000000E+00  0.00000000E+00  0.00000000E+00
  0.00000000E+00  0.00000000E+00  0.00000000E+00
  0.00000000E+00  0.00000000E+00  0.00000000E+00
  0.00000000E+00  0.00000000E+00  0.00000000E+00
  0.00000000E+00  0.00000000E+00  0.00000000E+00
  0.00000000E+00  0.00000000E+00  0.00000000E+00
  0.00000000E+00  0.00000000E+00  0.00000000E+00
  0.00000000E+00  0.00000000E+00  0.00000000E+00
  0.00000000E+00  0.00000000E+00  0.00000000E+00
  0.00000000E+00  0.00000000E+00  0.00000000E+00
  0.00000000E+00  0.00000000E+00  0.00000000E+00
  0.00000000E+00  0.00000000E+00  0.00000000E+00
  0.00000000E+00  0.00000000E+00  0.00000000E+00
  0.00000000E+00  0.00000000E+00  0.00000000E+00
  0.00000000E+00  0.00000000E+00  0.00000000E+00
  0.00000000E+00  0.00000000E+00  0.00000000E+00
  0.00000000E+00  0.00000000E+00  0.00000000E+00
  0.00000000E+00  0.00000000E+00  0.00000000E+00
  0.00000000E+00  0.00000000E+00  0.00000000E+00
  0.00000000E+00  0.00000000E+00  0.00000000E+00
  0.00000000E+00  0.00000000E+00  0.00000000E+00
  0.00000000E+00  0.00000000E+00  0.00000000E+00
  0.00000000E+00  0.00000000E+00  0.00000000E+00
  0.00000000E+00  0.00000000E+00  0.00000000E+00
  0.00000000E+00  0.00000000E+00  0.00000000E+00
  0.00000000E+00  0.00000000E+00  0.00000000E+00
  0.00000000E+00  0.00000000E+00  0.00000000E+00
  0.00000000E+00  0.00000000E+00  0.00000000E+00
  0.00000000E+00  0.00000000E+00  0.00000000E+00
  0.00000000E+00  0.00000000E+00  0.00000000E+00
  0.00000000E+00  0.00000000E+00  0.00000000E+00
  0.00000000E+00  0.00000000E+00  0.00000000E+00
  0.00000000E+00  0.00000000E+00  0.00000000E+00
  0.00000000E+00  0.00000000E+00  0.00000000E+00
  0.00000000E+00  0.00000000E+00  0.00000000E+00
  0.00000000E+00  0.00000000E+00  0.00000000E+00
  0.00000000E+00  0.00000000E+00  0.00000000E+00
  0.00000000E+00  0.00000000E+00  0.00000000E+00
  0.00000000E+00  0.00000000E+00  0.00000000E+00
  0.00000000E+00  0.00000000E+00  0.00000000E+00
  0.00000000E+00  0.00000000E+00  0.00000000E+00
  0.00000000E+00  0.00000000E+00  0.00000000E+00
  0.00000000E+00  0.00000000E+00  0.00000000E+00
  0.00000000E+00  0.00000000E+00  0.00000000E+00
  0.00000000E+00  0.00000000E+00  0.00000000E+00
  0.00000000E+00  0.00000000E+00  0.00000000E+00
  0.00000000E+00  0.00000000E+00  0.00000000E+00
  0.00000000E+00  0.00000000E+00  0.00000000E+00
  0.00000000E+00  0.00000000E+00  0.00000000E+00
  0.00000000E+00  0.00000000E+00  0.00000000E+00
  0.00000000E+00  0.00000000E+00  0.00000000E+00
  0.00000000E+00  0.00000000E+00  0.00000000E+00
  0.00000000E+00  0.00000000E+00  0.00000000E+00
  0.00000000E+00  0.00000000E+00  0.00000000E+00
  0.00000000E+00  0.00000000E+00  0.00000000E+00
  0.00000000E+00  0.00000000E+00  0.00000000E+00
  0.00000000E+00  0.00000000E+00  0.00000000E+00
  0.00000000E+00  0.00000000E+00  0.00000000E+00
  0.00000000E+00  0.00000000E+00  0.00000000E+00
  0.00000000E+00  0.00000000E+00  0.00000000E+00
  0.00000000E+00  0.00000000E+00  0.00000000E+00
  0.00000000E+00  0.00000000E+00  0.00000000E+00
  0.00000000E+00  0.00000000E+00  0.00000000E+00
  0.00000000E+00  0.00000000E+00  0.00000000E+00
