 C B N 
 1.0
 17.527899999999772   0.000000000000000   0.000000000000000
 -8.763949999999658  15.179606674993195   0.000000000000000
  0.000000000000001   0.000000000000002  15.000000000000000
 C B N 
   1  47  48
Cartesian
  3.903869774691674   8.052903235437915   1.661978571380730 
  7.516596500355419  14.478976106511944   1.665409548357810 
 15.033975239043819   1.469996032658486   1.666835773900005 
 13.777397215479262   3.630387579056616   1.667064854747070 
 12.502077103394212   5.784540820313818   1.664542755601005 
 11.216392893110072   7.938122221469587   1.664037289341525 
  9.984511588473808  10.103942613059630   1.665083071797240 
  8.754788330070028  12.292721623346084   1.665674866141800 
 -7.514911576811632  14.447120420308631   1.665108865592520 
  0.017636113562124   1.463586341563442   1.665512011052460 
 -1.220674506692122   3.634026101729978   1.666383870470580 
 -2.478260913111572   5.788072934019848   1.664751231913740 
 -3.760697500704545   7.938356246153680   1.664036110838550 
 -5.027100414371868  10.096165752155299   1.664570869606245 
 -6.275251791963387  12.262937978365631   1.664958420392700 
 -5.017201699793707  14.413693251731816   1.665881941710960 
  2.510462501084895   1.415751501627876   1.666045417143855 
  1.302478126966648   3.633359086778917   1.666122129719625 
  0.073396288012126   5.796876195495860   1.665343474496295 
 -1.210922028747112   7.946372741858511   1.664880906358755 
 -2.508426640513262  10.100102127149707   1.665552307211340 
 -3.765826037780190  12.256351209081503   1.665316379809440 
 -2.506918381776850  14.413736156744346   1.665658371179820 
  5.006089136461444   1.368005638584697   1.666049654647260 
  3.800986836178042   3.536235464167983   1.666269179233095 
  2.654640112058239   5.817070507418307   1.665180962966865 
  1.341536655476974   7.979700811573885   1.664786574272265 
  0.000000000000152  10.119737783328796   1.666597846024665 
 -1.256619913960952  12.268916576495933   1.666063616069145 
 -0.003930073813484  14.443427008660152   1.665348726462240 
  7.507016785485108   1.405724777897226   1.665309509112270 
  6.229824418165100   3.520548507534045   1.665168823944390 
  2.491078472396976  10.144363427928246   1.665205212738150 
  1.247032594075437  12.293756958786826   1.666421143024530 
  2.495550091956702  14.476908479040457   1.665120145376715 
 10.004133459168198   1.453148242643648   1.665336837126750 
  8.730755917980439   3.611028126021061   1.665069220217670 
  7.402658048445089   5.784005563533126   1.664516042704635 
  6.104534744282669   8.033528429403729   1.665290939245545 
  5.001854146764957  10.191087108801357   1.665148211005455 
  3.743860973178771  12.327126193894127   1.665589649134035 
  5.007076585713286  14.486148796353341   1.665419985643605 
 12.516479591023595   1.467020889928751   1.666629359925285 
 11.248875761828730   3.625846227459823   1.666432651444500 
  9.955971078141998   5.782936437389792   1.664680413217395 
  8.655437313988159   7.947203522803240   1.665306435275640 
  7.489052659235309  10.141935699928426   1.666790089760070 
  6.258017562571256  12.323343515827233   1.666019512372740 
  8.756145361906480  13.734656042984955   1.664886180862020 
 16.286857487603466   0.744793834350371   1.665487058739225 
 15.042615870683866   2.916925367938947   1.666953885675900 
 13.778141068655470   5.076036458408773   1.665122570389845 
 12.491562551590086   7.227437487983802   1.663519967712615 
 11.232659354494309   9.379954352425052   1.664153259461775 
  9.991062008346983  11.546803130014544   1.664859174706200 
 -6.273810516920564  13.705451129822007   1.665067015816635 
  1.253945825144624   0.714705699863625   1.665006436557840 
  0.037444985927282   2.918502993137480   1.665809442334995 
 -1.197354247340855   5.084140188694789   1.665276798650310 
 -2.477101504783855   7.231217802842576   1.663928044891665 
 -3.764385666494264   9.379918118625046   1.664436684758010 
 -5.023540422659190  11.537702372269628   1.664701458988995 
 -3.762356461099505  13.696081193516568   1.665328877182365 
  3.748421737661956   0.674203614484063   1.665948860792790 
  2.521523614058440   2.867542117630066   1.665970124160015 
  1.357699526954304   5.104063034557187   1.665597154706670 
  0.093714533956554   7.245355888251478   1.664662920304965 
 -1.235963800413370   9.386576687660655   1.665649332274980 
 -2.505716219002235  11.540154278250235   1.665487685780655 
 -1.249496870980131  13.706707040846645   1.665292202356320 
  6.262273143091414   0.671640231046478   1.665488349776700 
  5.008752296652365   2.797779377572450   1.665886760120340 
  3.757281725913368   4.953596213063626   1.665341643675375 
  2.735776278002004   7.316749789046318   1.663312017016110 
  1.280452118252271   9.403901705385204   1.665711902703300 
  0.006475633017808  11.554346888747249   1.666549023007860 
  1.253583696958302  13.731269996098030   1.665218450501475 
  8.763833461818113   0.706029876399298   1.664832593094825 
  7.505658066756934   2.850110170875856   1.664971826291250 
  6.287967854766150   4.925813939864270   1.662245842207365 
  3.766288625029456   9.390816763903690   1.663154087194110 
  2.509711439237610  11.571445786508059   1.665862151925720 
  3.751204831596184  13.757437961456656   1.664815341461025 
 11.258817814247175   0.738631079219764   1.665255166851750 
  9.994326778280843   2.901827664389303   1.665426617261910 
  8.688486939931902   5.068262211975445   1.664507464399860 
  7.308254606733660   7.240721838285086   1.665273403996980 
  6.204590012640884   9.432572222562165   1.666177717265490 
  4.993552416972885  11.600866985742764   1.665501287243580 
  6.258002048367942  13.757882989012202   1.665220469367390 
 13.774746895296285   0.747274325715877   1.666241152804230 
 12.514374202690476   2.912391782266711   1.667101054104030 
 11.229432145305866   5.073516699153209   1.665015895264575 
  9.924230759002572   7.230166493956028   1.664174836095435 
  8.705295931054334   9.386873383839603   1.665640537979085 
  7.491467264134105  11.576359722082339   1.666266108152070 
