 C B N 
 1.0
 14.936314146199660   0.000000000000000   0.000000000000000
 -7.468157073099825  12.935227489513863   0.000000000000000
  0.000000000000001   0.000000000000001  13.341276283792837
 C B N 
   3 143 142
Cartesian
  2.540417845596258   5.707701084621611   5.002978606422314 
  3.734078536549918   4.976500542083130   5.002978606422314 
  4.927739227503576   5.707701084621611   5.002978606422314 
  1.242922378301516   0.715238501059219   5.002978606422314 
  4.954552694813599   7.261779296839311   5.002978606422314 
  6.225234694798314   0.715238501059219   5.002978606422314 
  9.958144071730233   7.183672079127667   5.002978606422314 
 11.202235609649746   0.723740146088303   5.002978606422314 
 -3.734078536549850   9.344661458481310  11.673616748318732 
  1.246798481335134   9.341309852737496  11.673616748318732 
  2.487212878033805   2.873077922099924  11.673616748318732 
  6.221358591764688   9.341309852737496  11.673616748318732 
  7.468510369008224   2.876841868314577  11.673616748318732 
 12.448973094665853   2.873158404937734  11.673616748318732 
 -1.244088526119290   9.343021581451902   5.002978606422314 
 -0.024435167005498   2.850474140567271   5.002978606422314 
  4.993443857880568   2.864325759907696   5.002978606422314 
  3.734078536549986   9.405396972391586   5.002978606422314 
  8.712245599219131   9.343021581451902   5.002978606422314 
  9.964100388000137   2.870433376383344   5.002978606422314 
 -4.980973618066367  11.496732899387268  11.673616748318732 
  0.000024654238189  11.500652500921206  11.673616748318732 
  1.246393985316119   5.029146290519902  11.673616748318732 
  6.221763087783819   5.029146290519902  11.673616748318732 
  4.980978438574123  11.497037615739092  11.673616748318732 
 11.202235609649755   5.032838419817037  11.673616748318732 
 -1.261580515606237   5.023407091412476   5.002978606422314 
 -2.489667078791558  11.495784802484151   5.002978606422314 
  2.486009716337478  11.519340198420426   5.002978606422314 
  7.470335726721805  11.504138806746475   5.002978606422314 
  8.729737588706175   5.023407091412476   5.002978606422314 
 -0.000282305893748   7.188830857010242  11.673616748318732 
  1.246714825506397   0.717243253901821  11.673616748318732 
  4.980936980814513   7.185545720872052  11.673616748318732 
  6.221442247593435   0.717243253901821  11.673616748318732 
  9.955482613034611   7.185011916590001  11.673616748318732 
 -2.489986998630397   7.183672079127667   5.002978606422314 
 11.202235609649744   0.721240878410034  11.673616748318732 
  3.734078536549924   0.713171928890145   5.002978606422314 
  2.513604378286224   7.261779296839311   5.002978606422314 
  7.466380506090752   7.183798191091210   5.002978606422314 
  8.717461679742165   0.716772971757220   5.002978606422314 
  2.487220092285323   7.185545720872052  11.673616748318732 
 13.687009539557341   0.716772971757220   5.002978606422314 
 -1.246940659657659   9.341045547863061  11.673616748318732 
 -0.000353295908271   2.876841868314577  11.673616748318732 
  4.980944195066015   2.873077922099924  11.673616748318732 
  3.734078536549973   9.345016784032060  11.673616748318732 
  8.715097732757496   9.341045547863061  11.673616748318732 
  9.955498124633641   2.873158404937734  11.673616748318732 
 -3.734078536549859   9.340168031599470   5.002978606422314 
  1.242479199545475   9.364893787069104   5.002978606422314 
  2.474713215219250   2.864325759907696   5.002978606422314 
  6.225677873554349   9.364893787069104   5.002978606422314 
  7.492592240105436   2.850474140567271   5.002978606422314 
 12.440370831299370   2.870433376383344   5.002978606422314 
 -1.247121743630580   5.029119047971805  11.673616748318732 
 -2.487183455033347  11.496732899387268  11.673616748318732 
  2.487178634525822  11.497037615739092  11.673616748318732 
  3.734078536549926   5.032731378373495  11.673616748318732 
  7.468132418861653  11.500652500921206  11.673616748318732 
 -4.978489994308157  11.495784802484151   5.002978606422314 
  8.715278816730519   5.029119047971805  11.673616748318732 
 -0.002178653621965  11.504138806746475   5.002978606422314 
  1.187961099202985   4.980261873140297   5.002978606422314 
  0.001776567009085   7.183798191091210   5.002978606422314 
  6.280195973896954   4.980261873140297   5.002978606422314 
  4.982147356762482  11.519340198420426   5.002978606422314 
 11.202235609649748   5.027347276847364   5.002978606422314 
 -2.487325539934771   7.185011916590001  11.673616748318732 
  3.734078536549916   0.720967493651577  11.673616748318732 
  7.468439378993585   7.188830857010242  11.673616748318732 
  8.715156224160820   0.717378024004392  11.673616748318732 
 13.689314995138671   0.717378024004392  11.673616748318732 
 -0.000393104249941   1.436010978955914   1.668947843052396 
  3.734078536549924   7.906481975728384   1.672013989473429 
  4.979038463151231   1.435014304403180   1.668156574024156 
  8.713972441532324   7.905409569665438   1.668942610043691 
  9.957674203695852   1.436954848124412   1.668290496148971 
 -4.978485922533822  10.060538170530753   8.337582902961598 
 -0.000593716472196  10.060948804613918   8.336644240392658 
  1.243854801458227   3.591298506640874   8.338790167322463 
  4.979024645194365  10.061552399271564   8.337598845254801 
  6.224302271641608   3.591298506640874   8.338790167322463 
 11.202235609649694   3.593159190931789   8.336823568419245 
 -2.489671150566014  10.060538170530753   1.668374309883029 
 -1.245517380985718   3.592789674726367   1.668119108604869 
  3.734078536549871   3.591021343386774   1.661687895515148 
  2.489132427905474  10.061552399271564   1.668358367589827 
  7.468750789571946  10.060948804613918   1.669312972451983 
  8.713674454085535   3.592789674726367   1.668119108604869 
 -6.223419104078906  12.215596123966892   8.337609553599512 
 -1.244737969020912  12.215596123966892   8.337609553599512 
 -0.001508811261564   5.748938380102705   8.335776430324506 
  4.978793259951810   5.748061744636605   8.344046243499969 
  3.734078536549905  12.216744312339081   8.336873626115258 
  9.958110301819847   5.749197237824784   8.337514961215284 
 -2.489953228719997   5.749197237824784   1.668442251629330 
 -3.734078536549917  12.215198070365641   1.669055629081452 
  1.244611985949227  12.216411639620015   1.668241726965667 
  2.489363813148041   5.748061744636604   1.661910969344645 
  6.223545087150613  12.216411639620015   1.668241726965667 
  7.469665884361400   5.748938380102704   1.670180782520109 
 -1.245815368432591   7.905409569665439   8.337014602800936 
 -0.000393104249940   1.436010978955915   8.337009369792231 
  3.734078536549924   7.906481975728385   8.333943223371184 
  4.979038463151232   1.435014304403181   8.337800638820472 
  8.713972441532324   7.905409569665439   8.337014602800936 
 -3.734078536549919   7.905185235440135   1.669463983704174 
  9.957674203695852   1.436954848124413   8.337666716695656 
  2.489118609948495   1.435014304403180   1.668156574024156 
  1.243461992448150   7.905865050507268   1.670587258916491 
  6.224695080651582   7.905865050507268   1.670587258916491 
  7.468550177349772   1.436010978955914   1.668947843052396 
  1.243461992448151   7.905865050507269   8.335369953928137 
 12.446797015603520   1.436954848124412   1.668290496148971 
 -2.489671150566013  10.060538170530753   8.337582902961598 
 -1.245517380985717   3.592789674726367   8.337838104239745 
  3.734078536549872   3.591021343386775   8.344269317329479 
  2.489132427905475  10.061552399271564   8.337598845254801 
  7.468750789571946  10.060948804613918   8.336644240392658 
  8.713674454085535   3.592789674726367   8.337838104239745 
 -4.978485922533823  10.060538170530753   1.668374309883029 
 -0.000593716472196  10.060948804613918   1.669312972451983 
  1.243854801458226   3.591298506640873   1.667167045522164 
  4.979024645194364  10.061552399271564   1.668358367589827 
  6.224302271641607   3.591298506640873   1.667167045522164 
 11.202235609649694   3.593159190931789   1.669133644425397 
 -2.489953228719997   5.749197237824784   8.337514961215284 
 -3.734078536549917  12.215198070365641   8.336901583763176 
  1.244611985949228  12.216411639620015   8.337715485878961 
  2.489363813148041   5.748061744636605   8.344046243499969 
  6.223545087150614  12.216411639620015   8.337715485878961 
 -6.223419104078907  12.215596123966892   1.668347659245116 
  7.469665884361401   5.748938380102705   8.335776430324506 
 -1.244737969020912  12.215596123966892   1.668347659245116 
 -0.001508811261565   5.748938380102704   1.670180782520109 
 -1.245815368432592   7.905409569665438   1.668942610043691 
  4.978793259951809   5.748061744636604   1.661910969344645 
  3.734078536549904  12.216744312339081   1.669083586729369 
  9.958110301819847   5.749197237824784   1.668442251629330 
 -3.734078536549919   7.905185235440136   8.336493229140455 
  2.489118609948496   1.435014304403181   8.337800638820472 
  6.224695080651583   7.905865050507269   8.335369953928137 
  7.468550177349773   1.436010978955915   8.337009369792231 
 12.446797015603520   1.436954848124413   8.337666716695656 
  1.244682083050839   0.718166851758130   1.667753018903698 
  4.978353161728371   7.185333580302885   1.675442218117235 
  6.223474990048992   0.718166851758130   1.667753018903698 
  9.957473090701576   7.186234549132809   1.667660585937889 
 11.202235609649746   0.718531446381701   1.666722144229615 
 -3.734078536549851   9.341888239313770   8.339022035317033 
  1.244769061946722   9.341590516834414   8.337213298503045 
  2.489382723322141   2.873910311965356   8.336933833661661 
  6.223388011153117   9.341590516834414   8.337213298503045 
  7.467964489289358   2.874206947780984   8.337575983964205 
 12.447026881845442   2.874581512034941   8.338864089715081 
 -1.244594040163070   9.341783964293132   1.667415558340625 
  0.000192583810594   2.874206947780983   1.668381228880423 
  4.978774349777691   2.873910311965355   1.669023379182980 
  3.734078536549978   9.341761155264155   1.668290279112754 
  8.712751113262909   9.341783964293132   1.667415558340625 
  9.957444337454049   2.874581512034940   1.667093123129546 
 -4.978775998039509  11.497568354879856   8.339015230740657 
 -0.000025415533177  11.497601537847450   8.339075741076515 
  1.245083417831310   5.029971327240882   8.334378718627669 
  6.223073655268631   5.029971327240882   8.334378718627669 
  4.978788729498983  11.497726866499885   8.339160116409332 
 11.202235609649739   5.030476877420100   8.339158584473134 
 -1.244576247835351   5.030374585635601   1.667875194909892 
 -2.489381075060206  11.497568354879856   1.666941982103972 
  2.489368343600962  11.497726866499885   1.666797096435309 
  3.734078536549925   5.029207141267936   1.657799752680095 
  7.468182488633004  11.497601537847450   1.666881471768112 
  8.712733320935289   5.030374585635601   1.667875194909892 
  0.000391671985774   7.185824479102282   8.335213063050494 
  1.244682083050840   0.718166851758130   8.338204193940944 
  4.978353161728372   7.185333580302886   8.330514994727407 
  6.223474990048993   0.718166851758130   8.338204193940944 
  9.957473090701576   7.186234549132810   8.338296626906752 
 -2.489316017601729   7.186234549132809   1.667660585937889 
 11.202235609649746   0.718531446381702   8.339235068615013 
  3.734078536549923   0.718019675681723   1.667847995998889 
  2.489803911371466   7.185333580302885   1.675442218117235 
  7.467765401114048   7.185824479102281   1.670744149794135 
  8.712754088421606   0.718387858263031   1.666827053655878 
  2.489803911371466   7.185333580302886   8.330514994727407 
 13.691717130877885   0.718387858263031   1.666827053655878 
 -1.244594040163070   9.341783964293132   8.338541654504002 
  0.000192583810594   2.874206947780984   8.337575983964205 
  4.978774349777692   2.873910311965356   8.336933833661661 
  3.734078536549978   9.341761155264155   8.337666933731860 
  8.712751113262909   9.341783964293132   8.338541654504002 
  9.957444337454049   2.874581512034941   8.338864089715081 
 -3.734078536549851   9.341888239313770   1.666935177527595 
  1.244769061946721   9.341590516834414   1.668743914341584 
  2.489382723322140   2.873910311965355   1.669023379182980 
  6.223388011153117   9.341590516834414   1.668743914341584 
  7.467964489289357   2.874206947780983   1.668381228880423 
 12.447026881845442   2.874581512034940   1.667093123129546 
 -1.244576247835350   5.030374585635601   8.338082017934736 
 -2.489381075060205  11.497568354879856   8.339015230740657 
  2.489368343600962  11.497726866499885   8.339160116409332 
  3.734078536549925   5.029207141267937   8.348157460164547 
  7.468182488633005  11.497601537847450   8.339075741076515 
 -4.978775998039510  11.497568354879856   1.666941982103972 
  8.712733320935289   5.030374585635601   8.338082017934736 
 -0.000025415533177  11.497601537847450   1.666881471768112 
  1.245083417831310   5.029971327240881   1.671578494216960 
  0.000391671985773   7.185824479102281   1.670744149794135 
  6.223073655268630   5.029971327240881   1.671578494216960 
  4.978788729498982  11.497726866499885   1.666797096435309 
 11.202235609649739   5.030476877420099   1.666798628371493 
 -2.489316017601728   7.186234549132810   8.338296626906752 
  3.734078536549923   0.718019675681724   8.338109216845753 
  7.467765401114049   7.185824479102282   8.335213063050494 
  8.712754088421606   0.718387858263032   8.339130159188763 
 13.691717130877885   0.718387858263032   8.339130159188763 
 -0.004249637546167   1.427142959730360   5.002978606422314 
  3.734078536549919   7.981108975708449   5.002978606422314 
  4.976078742250887   1.439941137732387   5.002978606422314 
  8.705118992775205   7.900513403640020   5.002978606422314 
  9.958113666816539   1.438165857152101   5.002978606422314 
 -4.978795981682282  10.060770300970354  11.673616748318732 
 -0.000029979348991  10.060908718017988  11.673616748318732 
  1.244678332714597   3.593246364876757  11.673616748318732 
  4.978810758948844  10.060861114829907  11.673616748318732 
  6.223478740385238   3.593246364876757  11.673616748318732 
 11.202235609649694   3.593172311998839  11.673616748318732 
 -2.488716800926501  10.058171455925789   5.002978606422314 
 -1.250796873296691   3.587938951967604   5.002978606422314 
  3.734078536549864   3.601799413194176   5.002978606422314 
  2.481792709868051  10.088017020820088   5.002978606422314 
  7.471032842159210  10.067057695019095   5.002978606422314 
  8.718953946396510   3.587938951967604   5.002978606422314 
 -6.223452461568047  12.216737653861026  11.673616748318732 
 -1.244704611531772  12.216737653861026  11.673616748318732 
 -0.000097255406232   5.749083148294599  11.673616748318732 
  4.978789373146607   5.749188601974499  11.673616748318732 
  3.734078536549920  12.216765213798265  11.673616748318732 
  9.957596498288488   5.749055719806422  11.673616748318732 
 -2.493800065193726   5.747406120205413   5.002978606422314 
 -3.734078536549910  12.215968490132882   5.002978606422314 
  1.241017206975265  12.222635346398937   5.002978606422314 
  6.227139866124576  12.222635346398937   5.002978606422314 
  7.480542895710390   5.738117857467831   5.002978606422314 
 -1.244678881087833   7.904890587156569  11.673616748318732 
 -0.000037539735187   1.437256630282167  11.673616748318732 
  3.734078536549911   7.905054090952944  11.673616748318732 
  4.978792715510044   1.437324341282805  11.673616748318732 
  8.712835954187565   7.904890587156569  11.673616748318732 
 -3.734078536549911   7.902867270696827   5.002978606422314 
  9.957513199343076   1.437316897887666  11.673616748318732 
  2.492078330848840   1.439941137732387   5.002978606422314 
  1.254125969729925   7.916829829264185   5.002978606422314 
  6.214031103369807   7.916829829264185   5.002978606422314 
  7.472406710646014   1.427142959730360   5.002978606422314 
  1.244747203920750   7.904935561680963  11.673616748318732 
 12.446357552482830   1.438165857152101   5.002978606422314 
 -2.489361091417523  10.060770300970354  11.673616748318732 
 -1.244684936875817   3.593148968009601  11.673616748318732 
  3.734078536549873   3.593170791230260  11.673616748318732 
  2.489346314150995  10.060861114829907  11.673616748318732 
  7.468187052448727  10.060908718017988  11.673616748318732 
  8.712842009975651   3.593148968009601  11.673616748318732 
 -4.979440272173322  10.058171455925789   5.002978606422314 
 -0.002875769059491  10.067057695019095   5.002978606422314 
  1.224781655975234   3.566765811969880   5.002978606422314 
  4.986364363231786  10.088017020820088   5.002978606422314 
  6.243375417124615   3.566765811969880   5.002978606422314 
 11.202235609649694   3.591974846361347   5.002978606422314 
 -2.489439425188651   5.749055719806422  11.673616748318732 
 -3.734078536549909  12.216644311984034  11.673616748318732 
  1.244687086317381  12.216686103574190  11.673616748318732 
  2.489367699953228   5.749188601974499  11.673616748318732 
  6.223469986782459  12.216686103574190  11.673616748318732 
 -6.220051791220667  12.218443378676490   5.002978606422314 
  7.468254328506084   5.749083148294599  11.673616748318732 
 -1.248105281879153  12.218443378676490   5.002978606422314 
 -0.012385822610540   5.738117857467831   5.002978606422314 
 -1.236961919675456   7.900513403640020   5.002978606422314 
  3.734078536549922  12.227334884496203   5.002978606422314 
  9.961957138293545   5.747406120205413   5.002978606422314 
 -3.734078536549918   7.904898936233676  11.673616748318732 
  2.489364357589685   1.437324341282805  11.673616748318732 
  6.223409869178984   7.904935561680963  11.673616748318732 
  7.468194612835036   1.437256630282167  11.673616748318732 
 12.446958019956295   1.437316897887666  11.673616748318732 
Generated by cif2cell 2.0.0.  :  Failed to get author information, No journal information. Species order: C B N 
 1.0
 14.936314146199660   0.000000000000000   0.000000000000000
 -7.468157073099825  12.935227489513863   0.000000000000000
  0.000000000000001   0.000000000000001  13.341276283792837
 C B N 
   3 143 142
Cartesian
  2.540417845596258   5.707701084621611   5.002978606422314 
  3.734078536549918   4.976500542083130   5.002978606422314 
  4.927739227503576   5.707701084621611   5.002978606422314 
  1.242922378301516   0.715238501059219   5.002978606422314 
  4.954552694813599   7.261779296839311   5.002978606422314 
  6.225234694798314   0.715238501059219   5.002978606422314 
  9.958144071730233   7.183672079127667   5.002978606422314 
 11.202235609649746   0.723740146088303   5.002978606422314 
 -3.734078536549850   9.344661458481310  11.673616748318732 
  1.246798481335134   9.341309852737496  11.673616748318732 
  2.487212878033805   2.873077922099924  11.673616748318732 
  6.221358591764688   9.341309852737496  11.673616748318732 
  7.468510369008224   2.876841868314577  11.673616748318732 
 12.448973094665853   2.873158404937734  11.673616748318732 
 -1.244088526119290   9.343021581451902   5.002978606422314 
 -0.024435167005498   2.850474140567271   5.002978606422314 
  4.993443857880568   2.864325759907696   5.002978606422314 
  3.734078536549986   9.405396972391586   5.002978606422314 
  8.712245599219131   9.343021581451902   5.002978606422314 
  9.964100388000137   2.870433376383344   5.002978606422314 
 -4.980973618066367  11.496732899387268  11.673616748318732 
  0.000024654238189  11.500652500921206  11.673616748318732 
  1.246393985316119   5.029146290519902  11.673616748318732 
  6.221763087783819   5.029146290519902  11.673616748318732 
  4.980978438574123  11.497037615739092  11.673616748318732 
 11.202235609649755   5.032838419817037  11.673616748318732 
 -1.261580515606237   5.023407091412476   5.002978606422314 
 -2.489667078791558  11.495784802484151   5.002978606422314 
  2.486009716337478  11.519340198420426   5.002978606422314 
  7.470335726721805  11.504138806746475   5.002978606422314 
  8.729737588706175   5.023407091412476   5.002978606422314 
 -0.000282305893748   7.188830857010242  11.673616748318732 
  1.246714825506397   0.717243253901821  11.673616748318732 
  4.980936980814513   7.185545720872052  11.673616748318732 
  6.221442247593435   0.717243253901821  11.673616748318732 
  9.955482613034611   7.185011916590001  11.673616748318732 
 -2.489986998630397   7.183672079127667   5.002978606422314 
 11.202235609649744   0.721240878410034  11.673616748318732 
  3.734078536549924   0.713171928890145   5.002978606422314 
  2.513604378286224   7.261779296839311   5.002978606422314 
  7.466380506090752   7.183798191091210   5.002978606422314 
  8.717461679742165   0.716772971757220   5.002978606422314 
  2.487220092285323   7.185545720872052  11.673616748318732 
 13.687009539557341   0.716772971757220   5.002978606422314 
 -1.246940659657659   9.341045547863061  11.673616748318732 
 -0.000353295908271   2.876841868314577  11.673616748318732 
  4.980944195066015   2.873077922099924  11.673616748318732 
  3.734078536549973   9.345016784032060  11.673616748318732 
  8.715097732757496   9.341045547863061  11.673616748318732 
  9.955498124633641   2.873158404937734  11.673616748318732 
 -3.734078536549859   9.340168031599470   5.002978606422314 
  1.242479199545475   9.364893787069104   5.002978606422314 
  2.474713215219250   2.864325759907696   5.002978606422314 
  6.225677873554349   9.364893787069104   5.002978606422314 
  7.492592240105436   2.850474140567271   5.002978606422314 
 12.440370831299370   2.870433376383344   5.002978606422314 
 -1.247121743630580   5.029119047971805  11.673616748318732 
 -2.487183455033347  11.496732899387268  11.673616748318732 
  2.487178634525822  11.497037615739092  11.673616748318732 
  3.734078536549926   5.032731378373495  11.673616748318732 
  7.468132418861653  11.500652500921206  11.673616748318732 
 -4.978489994308157  11.495784802484151   5.002978606422314 
  8.715278816730519   5.029119047971805  11.673616748318732 
 -0.002178653621965  11.504138806746475   5.002978606422314 
  1.187961099202985   4.980261873140297   5.002978606422314 
  0.001776567009085   7.183798191091210   5.002978606422314 
  6.280195973896954   4.980261873140297   5.002978606422314 
  4.982147356762482  11.519340198420426   5.002978606422314 
 11.202235609649748   5.027347276847364   5.002978606422314 
 -2.487325539934771   7.185011916590001  11.673616748318732 
  3.734078536549916   0.720967493651577  11.673616748318732 
  7.468439378993585   7.188830857010242  11.673616748318732 
  8.715156224160820   0.717378024004392  11.673616748318732 
 13.689314995138671   0.717378024004392  11.673616748318732 
 -0.000393104249941   1.436010978955914   1.668947843052396 
  3.734078536549924   7.906481975728384   1.672013989473429 
  4.979038463151231   1.435014304403180   1.668156574024156 
  8.713972441532324   7.905409569665438   1.668942610043691 
  9.957674203695852   1.436954848124412   1.668290496148971 
 -4.978485922533822  10.060538170530753   8.337582902961598 
 -0.000593716472196  10.060948804613918   8.336644240392658 
  1.243854801458227   3.591298506640874   8.338790167322463 
  4.979024645194365  10.061552399271564   8.337598845254801 
  6.224302271641608   3.591298506640874   8.338790167322463 
 11.202235609649694   3.593159190931789   8.336823568419245 
 -2.489671150566014  10.060538170530753   1.668374309883029 
 -1.245517380985718   3.592789674726367   1.668119108604869 
  3.734078536549871   3.591021343386774   1.661687895515148 
  2.489132427905474  10.061552399271564   1.668358367589827 
  7.468750789571946  10.060948804613918   1.669312972451983 
  8.713674454085535   3.592789674726367   1.668119108604869 
 -6.223419104078906  12.215596123966892   8.337609553599512 
 -1.244737969020912  12.215596123966892   8.337609553599512 
 -0.001508811261564   5.748938380102705   8.335776430324506 
  4.978793259951810   5.748061744636605   8.344046243499969 
  3.734078536549905  12.216744312339081   8.336873626115258 
  9.958110301819847   5.749197237824784   8.337514961215284 
 -2.489953228719997   5.749197237824784   1.668442251629330 
 -3.734078536549917  12.215198070365641   1.669055629081452 
  1.244611985949227  12.216411639620015   1.668241726965667 
  2.489363813148041   5.748061744636604   1.661910969344645 
  6.223545087150613  12.216411639620015   1.668241726965667 
  7.469665884361400   5.748938380102704   1.670180782520109 
 -1.245815368432591   7.905409569665439   8.337014602800936 
 -0.000393104249940   1.436010978955915   8.337009369792231 
  3.734078536549924   7.906481975728385   8.333943223371184 
  4.979038463151232   1.435014304403181   8.337800638820472 
  8.713972441532324   7.905409569665439   8.337014602800936 
 -3.734078536549919   7.905185235440135   1.669463983704174 
  9.957674203695852   1.436954848124413   8.337666716695656 
  2.489118609948495   1.435014304403180   1.668156574024156 
  1.243461992448150   7.905865050507268   1.670587258916491 
  6.224695080651582   7.905865050507268   1.670587258916491 
  7.468550177349772   1.436010978955914   1.668947843052396 
  1.243461992448151   7.905865050507269   8.335369953928137 
 12.446797015603520   1.436954848124412   1.668290496148971 
 -2.489671150566013  10.060538170530753   8.337582902961598 
 -1.245517380985717   3.592789674726367   8.337838104239745 
  3.734078536549872   3.591021343386775   8.344269317329479 
  2.489132427905475  10.061552399271564   8.337598845254801 
  7.468750789571946  10.060948804613918   8.336644240392658 
  8.713674454085535   3.592789674726367   8.337838104239745 
 -4.978485922533823  10.060538170530753   1.668374309883029 
 -0.000593716472196  10.060948804613918   1.669312972451983 
  1.243854801458226   3.591298506640873   1.667167045522164 
  4.979024645194364  10.061552399271564   1.668358367589827 
  6.224302271641607   3.591298506640873   1.667167045522164 
 11.202235609649694   3.593159190931789   1.669133644425397 
 -2.489953228719997   5.749197237824784   8.337514961215284 
 -3.734078536549917  12.215198070365641   8.336901583763176 
  1.244611985949228  12.216411639620015   8.337715485878961 
  2.489363813148041   5.748061744636605   8.344046243499969 
  6.223545087150614  12.216411639620015   8.337715485878961 
 -6.223419104078907  12.215596123966892   1.668347659245116 
  7.469665884361401   5.748938380102705   8.335776430324506 
 -1.244737969020912  12.215596123966892   1.668347659245116 
 -0.001508811261565   5.748938380102704   1.670180782520109 
 -1.245815368432592   7.905409569665438   1.668942610043691 
  4.978793259951809   5.748061744636604   1.661910969344645 
  3.734078536549904  12.216744312339081   1.669083586729369 
  9.958110301819847   5.749197237824784   1.668442251629330 
 -3.734078536549919   7.905185235440136   8.336493229140455 
  2.489118609948496   1.435014304403181   8.337800638820472 
  6.224695080651583   7.905865050507269   8.335369953928137 
  7.468550177349773   1.436010978955915   8.337009369792231 
 12.446797015603520   1.436954848124413   8.337666716695656 
  1.244682083050839   0.718166851758130   1.667753018903698 
  4.978353161728371   7.185333580302885   1.675442218117235 
  6.223474990048992   0.718166851758130   1.667753018903698 
  9.957473090701576   7.186234549132809   1.667660585937889 
 11.202235609649746   0.718531446381701   1.666722144229615 
 -3.734078536549851   9.341888239313770   8.339022035317033 
  1.244769061946722   9.341590516834414   8.337213298503045 
  2.489382723322141   2.873910311965356   8.336933833661661 
  6.223388011153117   9.341590516834414   8.337213298503045 
  7.467964489289358   2.874206947780984   8.337575983964205 
 12.447026881845442   2.874581512034941   8.338864089715081 
 -1.244594040163070   9.341783964293132   1.667415558340625 
  0.000192583810594   2.874206947780983   1.668381228880423 
  4.978774349777691   2.873910311965355   1.669023379182980 
  3.734078536549978   9.341761155264155   1.668290279112754 
  8.712751113262909   9.341783964293132   1.667415558340625 
  9.957444337454049   2.874581512034940   1.667093123129546 
 -4.978775998039509  11.497568354879856   8.339015230740657 
 -0.000025415533177  11.497601537847450   8.339075741076515 
  1.245083417831310   5.029971327240882   8.334378718627669 
  6.223073655268631   5.029971327240882   8.334378718627669 
  4.978788729498983  11.497726866499885   8.339160116409332 
 11.202235609649739   5.030476877420100   8.339158584473134 
 -1.244576247835351   5.030374585635601   1.667875194909892 
 -2.489381075060206  11.497568354879856   1.666941982103972 
  2.489368343600962  11.497726866499885   1.666797096435309 
  3.734078536549925   5.029207141267936   1.657799752680095 
  7.468182488633004  11.497601537847450   1.666881471768112 
  8.712733320935289   5.030374585635601   1.667875194909892 
  0.000391671985774   7.185824479102282   8.335213063050494 
  1.244682083050840   0.718166851758130   8.338204193940944 
  4.978353161728372   7.185333580302886   8.330514994727407 
  6.223474990048993   0.718166851758130   8.338204193940944 
  9.957473090701576   7.186234549132810   8.338296626906752 
 -2.489316017601729   7.186234549132809   1.667660585937889 
 11.202235609649746   0.718531446381702   8.339235068615013 
  3.734078536549923   0.718019675681723   1.667847995998889 
  2.489803911371466   7.185333580302885   1.675442218117235 
  7.467765401114048   7.185824479102281   1.670744149794135 
  8.712754088421606   0.718387858263031   1.666827053655878 
  2.489803911371466   7.185333580302886   8.330514994727407 
 13.691717130877885   0.718387858263031   1.666827053655878 
 -1.244594040163070   9.341783964293132   8.338541654504002 
  0.000192583810594   2.874206947780984   8.337575983964205 
  4.978774349777692   2.873910311965356   8.336933833661661 
  3.734078536549978   9.341761155264155   8.337666933731860 
  8.712751113262909   9.341783964293132   8.338541654504002 
  9.957444337454049   2.874581512034941   8.338864089715081 