 O B N 
 1.0
 14.936314146199660   0.000000000000000   0.000000000000000
 -7.468157073099825  12.935227489513863   0.000000000000000
  0.000000000000001   0.000000000000001  13.341276283792837
 O B N 
   1 142 144
Cartesian
  3.730203814440114   5.054943912864948   5.002978606422314 
  1.220760580232009   0.717149814169199   5.002978606422314 
  4.919142270752877   7.162346616686419   5.002978606422314 
  6.195733481764137   0.677882906137385   5.002978606422314 
  9.926639859556730   7.162366650216607   5.002978606422314 
 11.182435351640519   0.691686712347803   5.002978606422314 
 -3.727159835433197   9.349947747141131  11.673616748318732 
  1.251673840479380   9.350261425312590  11.673616748318732 
  2.496990162640614   2.882590294848633  11.673616748318732 
  6.230559529619687   9.349547824181835  11.673616748318732 
  7.474999225622947   2.882824295898549  11.673616748318732 
 12.453467181395663   2.882531392572306  11.673616748318732 
 -1.278551256370637   9.320620085010987   5.002978606422314 
 -0.036869681644151   2.855471537112307   5.002978606422314 
  5.040227360031674   2.851247352244107   5.002978606422314 
  3.705715823140045   9.333790503716703   5.002978606422314 
  8.681598304736632   9.330564807941986   5.002978606422314 
  9.939804803800554   2.836088967754394   5.002978606422314 
 -4.971623730539689  11.505846734813785  11.673616748318732 
  0.006922431689493  11.506287792236929  11.673616748318732 
  1.251963692604026   5.038388536704653  11.673616748318732 
  6.230790594608426   5.038142939330305  11.673616748318732 
  4.985652908163499  11.505846012204685  11.673616748318732 
 11.208720575207808   5.038338189766159  11.673616748318732 
 -1.271071429062324   5.013413580827962   5.002978606422314 
 -2.525444414465069  11.472002819311109   5.002978606422314 
  2.468515065773234  11.466969750117682   5.002978606422314 
  7.438985538068208  11.485008742553664   5.002978606422314 
  8.703291690115931   4.960873761286822   5.002978606422314 
  0.006938370099124   7.194296836140699  11.673616748318732 
  1.251884735365232   0.726544249351612  11.673616748318732 
  4.986189107705178   7.193693832676334  11.673616748318732 
  6.230675530047320   0.726992454194312  11.673616748318732 
  9.964279718244388   7.193907962583356  11.673616748318732 
 -2.521046971363846   7.168541052952508   5.002978606422314 
 11.208830089534446   0.726772705184278  11.673616748318732 
  3.701774216786381   0.694806062785955   5.002978606422314 
  2.471497046497333   7.190343750507498   5.002978606422314 
  7.429712366353460   7.179845384610450   5.002978606422314 
  8.704854104688025   0.659724068567433   5.002978606422314 
  2.496743684907119   7.194198146538263  11.673616748318732 
 13.664737502380808   0.702356784016559   5.002978606422314 
 -1.237786432000222   9.350205325720864  11.673616748318732 
  0.006955200527511   2.882438230751327  11.673616748318732 
  4.986510232808650   2.882783612320228  11.673616748318732 
  3.741193599171524   9.349925196076642  11.673616748318732 
  8.719821755255499   9.349613318124231  11.673616748318732 
  9.963986144930082   2.882715995918375  11.673616748318732 
 -3.769214170933016   9.322558897249703   5.002978606422314 
  1.216495087309229   9.319507803199331   5.002978606422314 
  2.454653660140389   2.886445888648451   5.002978606422314 
  6.189810122939166   9.316484083841543   5.002978606422314 
  7.447131005400396   2.785807630066252   5.002978606422314 
 12.420668188012787   2.854351865590961   5.002978606422314 
 -1.237995159758860   5.038346106143790  11.673616748318732 
 -2.482235079808516  11.506139943810798  11.673616748318732 
  2.496185106781930  11.506169053581115  11.673616748318732 
  3.741875112749995   5.038361873519197  11.673616748318732 
  7.475165117482630  11.505683670825453  11.673616748318732 
 -5.013339754474512  11.483204370370418   5.002978606422314 
  8.719462219108516   5.038283613379504  11.673616748318732 
 -0.029156236307521  11.465045880885473   5.002978606422314 
  1.202215133516655   4.991705419256665   5.002978606422314 
 -0.032265901639169   7.170734145590852   5.002978606422314 
  4.954279960015211  11.480089069992015   5.002978606422314 
 11.182771463926336   5.005687615269422   5.002978606422314 
 -2.482681453611021   7.194158807138971  11.673616748318732 
  3.741580599711713   0.726793648130007  11.673616748318732 
  7.475149709552229   7.193542957739638  11.673616748318732 
  8.719545550904375   0.726984187685051  11.673616748318732 
 13.698427207950807   0.726524240671135  11.673616748318732 
  0.007944700633315   1.444916756501438   1.665592951315349 
  3.744229419416657   7.912896327288887   1.677702935537399 
  4.987367521191644   1.447212630657075   1.669344468718382 
  8.719528520101324   7.912531586513323   1.682174792009102 
  9.965358494558755   1.446186724793513   1.668684679837844 
 -4.971456864945567  10.068854037831681   8.335043934930644 
  0.007623877289760  10.069803390144674   8.340967004354551 
  1.252994542679370   3.600875672194051   8.335578009214334 
  4.987477856377694  10.068963399422195   8.337146910193034 
  6.232387682914674   3.604367166556226   8.320713789105584 
 11.209404603968380   3.601388698610045   8.333888467889105 
 -2.482119632209259  10.069524301082629   1.667434345502541 
 -1.237267307060705   3.601078131365556   1.666494677463404 
  3.744224306108481   3.602153467138757   1.683014377572421 
  2.497907248796674  10.069434303373594   1.665063999624667 
  7.475995464215865  10.068670407733679   1.671882985792478 
  8.719961316497338   3.602222306055401   1.677541428897431 
 -6.215527482660147  12.224552421713870   8.339125348743437 
 -1.236884385622586  12.226165445525321   8.339550235760795 
  0.007620930463415   5.757319894283893   8.338772236117755 
  4.990324257666298   5.756368920269606   8.304989790885438 
  3.742273893195239  12.225146487280105   8.340922699118588 
  9.963800594184487   5.756956287288392   8.325150672915958 
 -2.482597124827200   5.757216791174645   1.670125326393250 
 -3.726250371502466  12.225278820137499   1.666939422603251 
  1.252678293469426  12.225866425933496   1.665579426715894 
  2.499547431935024   5.757009498467839   1.680966431501681 
  6.231640856202039  12.224648341936888   1.665431253216180 
  7.474474857449543   5.756377112536558   1.692132711487990 
 -1.237634190773862   7.913511447337902   8.339740258285754 
  0.007944700633330   1.444916756501439   8.340364261529318 
  3.744229419416657   7.912896327288888   8.328254277307162 
  4.987367521191644   1.447212630657076   8.336612744126287 
  8.719528520101324   7.912531586513324   8.323782420835325 
 -3.727460498645302   7.913014049124267   1.673290344618440 
  9.965358494558755   1.446186724793514   8.337272533006809 
  2.497855102104996   1.445319779615391   1.668906980635410 
  1.253003465993521   7.913481599435849   1.667036525410807 
  6.231816896607330   7.912332227370563   1.685851562066301 
  7.476247892317753   1.447428387096440   1.668576215442338 
  1.253003465993416   7.913481599435849   8.338920687433861 
 12.454758109491571   1.445400536673466   1.666221546734434 
 -2.482119632209259  10.069524301082629   8.338522867342073 
 -1.237267307060705   3.601078131365556   8.339462535381356 
  3.744224306108482   3.602153467138758   8.322942835272235 
  2.497907248796674  10.069434303373594   8.340893213219694 
  7.475995464215880  10.068670407733679   8.334074227052485 
  8.719961316497338   3.602222306055402   8.328415783947356 
 -4.971456864945567  10.068854037831681   1.670913277913824 
  0.007623877289760  10.069803390144674   1.664990208490089 
  1.252994542679370   3.600875672194050   1.670379203630427 
  4.987477856377693  10.068963399422195   1.668810302651607 
  6.232387682914673   3.604367166556225   1.685243423739112 
 11.209404603968380   3.601388698610044   1.672068744955722 
 -2.482597124827185   5.757216791174646   8.335831886451297 
 -3.726250371502465  12.225278820137499   8.339017790241403 
  1.252678293469426  12.225866425933496   8.340377786128679 
  2.499547431935024   5.757009498467840   8.324990781342814 
  6.231640856202040  12.224648341936888   8.340525959628582 
 -6.215527482660134  12.224552421713870   1.666831864101244 
  7.474474857449544   5.756377112536559   8.313824501356597 
 -1.236884385622578  12.226165445525309   1.666406977083926 
  0.007620930463444   5.757319894283892   1.667184976726764 
 -1.237634190773982   7.913511447337901   1.666216954558859 
  4.990324257666297   5.756368920269605   1.700967421958951 
  3.742273893195239  12.225146487280105   1.665034513726160 
  9.963800594184459   5.756956287288391   1.680806539928790 
 -3.727460498645302   7.913014049124268   8.332666868226161 
  2.497855102105011   1.445319779615392   8.337050232209297 
  6.231816896607331   7.912332227370564   8.320105650778233 
  7.476247892317754   1.447428387096440   8.337380997402409 
 12.454758109491571   1.445400536673467   8.339735666110220 
  4.961121850483142   5.697027257811144   5.002978606422314 
  1.252590477907398   0.726963398780871   1.667699235012991 
  4.986421559263468   7.195031268043872   1.691627709519266 
  6.231328174897353   0.727106275516888   1.666265299501624 
  9.965221926167782   7.194810396595966   1.680004881416718 
 11.210669383797736   0.726700801537999   1.666541031731694 
 -3.726442580661003   9.350466313285104   8.335327955622146 
  1.252694981744490   9.350315678967426   8.339776409448323 
  2.497160515994155   2.883236061018888   8.328302725876689 
  6.231281656994401   9.350698625058946   8.331131952307992 
  7.476617170616819   2.882978500518010   8.336156924385046 
 12.455315400319742   2.882684617278667   8.337661106397592 
 -1.236921942495538   9.350454901419111   1.666711073704488 
  0.008081647037943   2.882721446770178   1.668227011074290 
  4.986265781567250   2.883447382228316   1.674216289458269 
  3.742174493327107   9.350407975563870   1.670030651576305 
  8.720471743302891   9.350633189872157   1.675379503708396 
  9.966153233042593   2.882733333032495   1.672017320332471 
 -4.971083318455306  11.506344980809457   8.337684471873111 
  0.007917158654761  11.506320335088347   8.339755400691864 
  1.252990101151739   5.038750983861700   8.329067978473976 
  6.231597899487846   5.039617475228398   8.327100065592099 
  4.986939775656195  11.506227532966294   8.340053649979238 
 11.210336659412505   5.038763166944077   8.330998881510961 
 -1.236543194967105   5.038702651214396   1.668347504095545 
 -2.481678001000653  11.506388457553966   1.667062287500402 
  2.497531493936944  11.506136896982003   1.665230980444552 
  3.741791867040446   5.039242155730111   1.699372704337523 
  7.476091123631872  11.506376527422628   1.667569702005097 
  8.721124751751024   5.039003583468047   1.681822308293573 
  0.008035329606611   7.194529986490479   8.338314793999006 
  1.252590477907414   0.726963398780872   8.338257977831702 
  4.986421559263469   7.195031268043873   8.314329503325402 
  6.231328174897354   0.727106275516889   8.339691913343138 
  9.965221926167782   7.194810396595967   8.325952331427750 
 -2.481613587337278   7.194582915671334   1.670220270640605 
 11.210669383797736   0.726700801538000   8.339416181112933 
  3.741691913907640   0.727147563765108   1.667916153339987 
  2.497676418549022   7.194656462813548   1.678740088155946 
  7.475667696857478   7.195245745735777   1.687756165560923 
  8.721226115928992   0.726791087461584   1.666552215032538 
  2.497676418549023   7.194656462813549   8.327217124688747 
 13.699844440139136   0.726788575975406   1.665807670874005 
 -1.236921942495538   9.350454901419111   8.339246139140046 
  0.008081647037943   2.882721446770179   8.337730201770350 
  4.986265781567251   2.883447382228317   8.331740923386384 
  3.742174493327108   9.350407975563870   8.335926561268389 
  8.720471743302891   9.350633189872157   8.330577709136218 
  9.966153233042593   2.882733333032496   8.333939892512022 
 -3.726442580661004   9.350466313285104   1.670629257222387 
  1.252694981744542   9.350315678967336   1.666180803396131 
  2.497160515994155   2.883236061018887   1.677654486967858 
  6.231281656994400   9.350698625058946   1.674825260536810 
  7.476617170616803   2.882978500518009   1.669800288459690 
 12.455315400319742   2.882684617278666   1.668296106447008 
 -1.236543194967104   5.038702651214397   8.337609708748802 
 -2.481678001000652  11.506388457553966   8.338894925344185 
  2.497531493936945  11.506136896982003   8.340726232400316 
  3.741791867040462   5.039242155730112   8.306584508507010 
  7.476091123631873  11.506376527422628   8.338387510839638 
 -4.971083318455321  11.506344980809457   1.668272740971491 
  8.721124751751024   5.039003583468048   8.324134904551002 
  0.007917158654760  11.506320335088347   1.666201812152857 
  1.252990101151709   5.038750983861751   1.676889234370639 
  0.008035329606611   7.194529986490478   1.667642418845355 
  6.231597899487845   5.039617475228397   1.678857147252504 
  4.986939775656194  11.506227532966294   1.665903562865429 
 11.210336659412505   5.038763166944076   1.674958331333800 
 -2.481613587337262   7.194582915671335   8.335736942203891 
  3.741691913907641   0.727147563765108   8.338041059504533 
  7.475667696857494   7.195245745735752   8.318201047283639 
  8.721226115928992   0.726791087461584   8.339404997811970 
 13.699844440139152   0.726788575975381   8.340149541970542 
 -0.026490126674264   1.426146943300179   5.002978606422314 
  3.697428479101688   7.894454181285968   5.002978606422314 
  4.932852886598698   1.395608872407168   5.002978606422314 
  8.688292524330137   7.898052333347141   5.002978606422314 
  9.942274779289640   1.396864760837974   5.002978606422314 
 -4.971736262958734  10.068605200929303  11.673616748318732 
  0.007016549685803  10.068686639537594  11.673616748318732 
  1.251762145485101   3.601152177463695  11.673616748318732 
  4.985764646899212  10.068593637160770  11.673616748318732 
  6.230520819398477   3.601117547882478  11.673616748318732 
 11.209241994356422   3.601140341524677  11.673616748318732 
 -2.523475175994549  10.036382272441374   5.002978606422314 
 -1.269595411506143   3.578798693591757   5.002978606422314 
  3.724327578288821   3.595244715208676   5.002978606422314 
  2.461251170651023  10.033224643122653   5.002978606422314 
  7.433756966059741  10.044927630441480   5.002978606422314 
  8.700380059609412   3.531728157372853   5.002978606422314 
 -6.216463661915217  12.224544407822620  11.673616748318732 
 -1.237624067483627  12.224550320203367  11.673616748318732 
  0.007075161910189   5.756958506128603  11.673616748318732 
  4.985739043109330   5.756971292434487  11.673616748318732 
  3.741025118357034  12.224530147524643  11.673616748318732 
  9.964633582633326   5.756973593647637  11.673616748318732 
 -2.509111108688792   5.731806772075089   5.002978606422314 
 -3.770750882980933  12.195464473162408   5.002978606422314 
  1.225384042820461  12.165767064290330   5.002978606422314 
  2.431711201684420   5.744752457339935   5.002978606422314 
  6.196503843924349  12.202088704560060   5.002978606422314 
  7.585728943108311   5.796998563371953   5.002978606422314 
 -1.237655916937168   7.912769380968363  11.673616748318732 
  0.007006437084739   1.445178692631988  11.673616748318732 
  3.741091974381018   7.912739354788970  11.673616748318732 
  4.985869798961629   1.445267759187741  11.673616748318732 
  8.719900638960020   7.912684763348026  11.673616748318732 
 -3.764178478628890   7.885687208906412   5.002978606422314 
  9.964502304984180   1.445203400628031  11.673616748318732 
  2.470815226390271   1.447783013873341   5.002978606422314 
  1.217499110756358   7.875914696348780   5.002978606422314 
  6.171798777750635   7.872266913583150   5.002978606422314 
  7.466609158006783   1.344270203945774   5.002978606422314 
  1.251761862772006   7.912774581548932  11.673616748318732 
 12.424972325579054   1.417974649567019   5.002978606422314 
 -2.482317937716638  10.068653635498061  11.673616748318732 
 -1.237689481788145   3.601102145064945  11.673616748318732 
  3.741141582066975   3.601246782603475  11.673616748318732 
  2.496351513749425  10.068644340469319  11.673616748318732 
  7.475161117234666  10.068593130625683  11.673616748318732 
  8.719895677508973   3.601146282661121  11.673616748318732 
 -5.011279093065863  10.047808932702784   5.002978606422314 
 -0.029257288847647  10.028557230581942   5.002978606422314 
  1.212550381709401   3.578331486881779   5.002978606422314 
  4.950082058055242  10.041611224864441   5.002978606422314 
  6.246627506372939   3.383269779428927   5.002978606422314 
 11.183072835861072   3.567947579835801   5.002978606422314 
 -2.482380984512220   5.756956979765033  11.673616748318732 
 -3.727003795573249  12.224565641307786  11.673616748318732 
  1.251635522897353  12.224540855326874  11.673616748318732 
  2.496473452503247   5.756995711949125  11.673616748318732 
  6.230462233006985  12.224506255995967  11.673616748318732 
 -6.252265127213201  12.212639095659435   5.002978606422314 
  7.475229716833098   5.756931008993122  11.673616748318732 
 -1.278227834359444  12.176908075714987   5.002978606422314 
 -0.017873691856024   5.734206745471066   5.002978606422314 
 -1.273359106158003   7.883983399869525   5.002978606422314 
  3.711156095262465  12.189568741659196   5.002978606422314 
  9.945340740093798   5.722650879024301   5.002978606422314 
 -3.727013687120752   7.912741823101653  11.673616748318732 
  2.496431133941209   1.445280924805551  11.673616748318732 
  6.230465544045662   7.912688786777932  11.673616748318732 
  7.475185161523999   1.445192560617633  11.673616748318732 
 12.453911826499324   1.445185770072946  11.673616748318732 
Generated by cif2cell 2.0.0.  :  Failed to get author information, No journal information. Species order: O B N 
 1.0
 14.936314146199660   0.000000000000000   0.000000000000000
 -7.468157073099825  12.935227489513863   0.000000000000000
  0.000000000000001   0.000000000000001  13.341276283792837
 O B N 
   1 142 144
Cartesian
  3.730203814440114   5.054943912864948   5.002978606422314 
  1.220760580232009   0.717149814169199   5.002978606422314 
  4.919142270752877   7.162346616686419   5.002978606422314 
  6.195733481764137   0.677882906137385   5.002978606422314 
  9.926639859556730   7.162366650216607   5.002978606422314 
 11.182435351640519   0.691686712347803   5.002978606422314 
 -3.727159835433197   9.349947747141131  11.673616748318732 
  1.251673840479380   9.350261425312590  11.673616748318732 
  2.496990162640614   2.882590294848633  11.673616748318732 
  6.230559529619687   9.349547824181835  11.673616748318732 
  7.474999225622947   2.882824295898549  11.673616748318732 
 12.453467181395663   2.882531392572306  11.673616748318732 
 -1.278551256370637   9.320620085010987   5.002978606422314 
 -0.036869681644151   2.855471537112307   5.002978606422314 
  5.040227360031674   2.851247352244107   5.002978606422314 
  3.705715823140045   9.333790503716703   5.002978606422314 
  8.681598304736632   9.330564807941986   5.002978606422314 
  9.939804803800554   2.836088967754394   5.002978606422314 
 -4.971623730539689  11.505846734813785  11.673616748318732 
  0.006922431689493  11.506287792236929  11.673616748318732 
  1.251963692604026   5.038388536704653  11.673616748318732 
  6.230790594608426   5.038142939330305  11.673616748318732 
  4.985652908163499  11.505846012204685  11.673616748318732 
 11.208720575207808   5.038338189766159  11.673616748318732 
 -1.271071429062324   5.013413580827962   5.002978606422314 
 -2.525444414465069  11.472002819311109   5.002978606422314 
  2.468515065773234  11.466969750117682   5.002978606422314 
  7.438985538068208  11.485008742553664   5.002978606422314 
  8.703291690115931   4.960873761286822   5.002978606422314 
  0.006938370099124   7.194296836140699  11.673616748318732 
  1.251884735365232   0.726544249351612  11.673616748318732 
  4.986189107705178   7.193693832676334  11.673616748318732 
  6.230675530047320   0.726992454194312  11.673616748318732 
  9.964279718244388   7.193907962583356  11.673616748318732 
 -2.521046971363846   7.168541052952508   5.002978606422314 
 11.208830089534446   0.726772705184278  11.673616748318732 
  3.701774216786381   0.694806062785955   5.002978606422314 
  2.471497046497333   7.190343750507498   5.002978606422314 
  7.429712366353460   7.179845384610450   5.002978606422314 
  8.704854104688025   0.659724068567433   5.002978606422314 
  2.496743684907119   7.194198146538263  11.673616748318732 
 13.664737502380808   0.702356784016559   5.002978606422314 
 -1.237786432000222   9.350205325720864  11.673616748318732 
  0.006955200527511   2.882438230751327  11.673616748318732 
  4.986510232808650   2.882783612320228  11.673616748318732 
  3.741193599171524   9.349925196076642  11.673616748318732 
  8.719821755255499   9.349613318124231  11.673616748318732 
  9.963986144930082   2.882715995918375  11.673616748318732 
 -3.769214170933016   9.322558897249703   5.002978606422314 
  1.216495087309229   9.319507803199331   5.002978606422314 
  2.454653660140389   2.886445888648451   5.002978606422314 
  6.189810122939166   9.316484083841543   5.002978606422314 
  7.447131005400396   2.785807630066252   5.002978606422314 
 12.420668188012787   2.854351865590961   5.002978606422314 
 -1.237995159758860   5.038346106143790  11.673616748318732 
 -2.482235079808516  11.506139943810798  11.673616748318732 
  2.496185106781930  11.506169053581115  11.673616748318732 
  3.741875112749995   5.038361873519197  11.673616748318732 
  7.475165117482630  11.505683670825453  11.673616748318732 
 -5.013339754474512  11.483204370370418   5.002978606422314 
  8.719462219108516   5.038283613379504  11.673616748318732 
 -0.029156236307521  11.465045880885473   5.002978606422314 
  1.202215133516655   4.991705419256665   5.002978606422314 
 -0.032265901639169   7.170734145590852   5.002978606422314 
  4.954279960015211  11.480089069992015   5.002978606422314 
 11.182771463926336   5.005687615269422   5.002978606422314 
 -2.482681453611021   7.194158807138971  11.673616748318732 
  3.741580599711713   0.726793648130007  11.673616748318732 
  7.475149709552229   7.193542957739638  11.673616748318732 
  8.719545550904375   0.726984187685051  11.673616748318732 
 13.698427207950807   0.726524240671135  11.673616748318732 
  0.007944700633315   1.444916756501438   1.665592951315349 
  3.744229419416657   7.912896327288887   1.677702935537399 
  4.987367521191644   1.447212630657075   1.669344468718382 
  8.719528520101324   7.912531586513323   1.682174792009102 
  9.965358494558755   1.446186724793513   1.668684679837844 
 -4.971456864945567  10.068854037831681   8.335043934930644 
  0.007623877289760  10.069803390144674   8.340967004354551 
  1.252994542679370   3.600875672194051   8.335578009214334 
  4.987477856377694  10.068963399422195   8.337146910193034 
  6.232387682914674   3.604367166556226   8.320713789105584 
 11.209404603968380   3.601388698610045   8.333888467889105 
 -2.482119632209259  10.069524301082629   1.667434345502541 
 -1.237267307060705   3.601078131365556   1.666494677463404 
  3.744224306108481   3.602153467138757   1.683014377572421 
  2.497907248796674  10.069434303373594   1.665063999624667 
  7.475995464215865  10.068670407733679   1.671882985792478 
  8.719961316497338   3.602222306055401   1.677541428897431 
 -6.215527482660147  12.224552421713870   8.339125348743437 
 -1.236884385622586  12.226165445525321   8.339550235760795 
  0.007620930463415   5.757319894283893   8.338772236117755 
  4.990324257666298   5.756368920269606   8.304989790885438 
  3.742273893195239  12.225146487280105   8.340922699118588 
  9.963800594184487   5.756956287288392   8.325150672915958 
 -2.482597124827200   5.757216791174645   1.670125326393250 
 -3.726250371502466  12.225278820137499   1.666939422603251 
  1.252678293469426  12.225866425933496   1.665579426715894 
  2.499547431935024   5.757009498467839   1.680966431501681 
  6.231640856202039  12.224648341936888   1.665431253216180 
  7.474474857449543   5.756377112536558   1.692132711487990 
 -1.237634190773862   7.913511447337902   8.339740258285754 
  0.007944700633330   1.444916756501439   8.340364261529318 
  3.744229419416657   7.912896327288888   8.328254277307162 
  4.987367521191644   1.447212630657076   8.336612744126287 
  8.719528520101324   7.912531586513324   8.323782420835325 
 -3.727460498645302   7.913014049124267   1.673290344618440 
  9.965358494558755   1.446186724793514   8.337272533006809 
  2.497855102104996   1.445319779615391   1.668906980635410 
  1.253003465993521   7.913481599435849   1.667036525410807 
  6.231816896607330   7.912332227370563   1.685851562066301 
  7.476247892317753   1.447428387096440   1.668576215442338 
  1.253003465993416   7.913481599435849   8.338920687433861 
 12.454758109491571   1.445400536673466   1.666221546734434 
 -2.482119632209259  10.069524301082629   8.338522867342073 
 -1.237267307060705   3.601078131365556   8.339462535381356 
  3.744224306108482   3.602153467138758   8.322942835272235 
  2.497907248796674  10.069434303373594   8.340893213219694 
  7.475995464215880  10.068670407733679   8.334074227052485 
  8.719961316497338   3.602222306055402   8.328415783947356 
 -4.971456864945567  10.068854037831681   1.670913277913824 
  0.007623877289760  10.069803390144674   1.664990208490089 
  1.252994542679370   3.600875672194050   1.670379203630427 
  4.987477856377693  10.068963399422195   1.668810302651607 
  6.232387682914673   3.604367166556225   1.685243423739112 
 11.209404603968380   3.601388698610044   1.672068744955722 
 -2.482597124827185   5.757216791174646   8.335831886451297 
 -3.726250371502465  12.225278820137499   8.339017790241403 
  1.252678293469426  12.225866425933496   8.340377786128679 
  2.499547431935024   5.757009498467840   8.324990781342814 
  6.231640856202040  12.224648341936888   8.340525959628582 
 -6.215527482660134  12.224552421713870   1.666831864101244 
  7.474474857449544   5.756377112536559   8.313824501356597 
 -1.236884385622578  12.226165445525309   1.666406977083926 
  0.007620930463444   5.757319894283892   1.667184976726764 
 -1.237634190773982   7.913511447337901   1.666216954558859 
  4.990324257666297   5.756368920269605   1.700967421958951 
  3.742273893195239  12.225146487280105   1.665034513726160 
  9.963800594184459   5.756956287288391   1.680806539928790 
 -3.727460498645302   7.913014049124268   8.332666868226161 
  2.497855102105011   1.445319779615392   8.337050232209297 
  6.231816896607331   7.912332227370564   8.320105650778233 
  7.476247892317754   1.447428387096440   8.337380997402409 
 12.454758109491571   1.445400536673467   8.339735666110220 
  4.961121850483142   5.697027257811144   5.002978606422314 
  1.252590477907398   0.726963398780871   1.667699235012991 
  4.986421559263468   7.195031268043872   1.691627709519266 
  6.231328174897353   0.727106275516888   1.666265299501624 
  9.965221926167782   7.194810396595966   1.680004881416718 
 11.210669383797736   0.726700801537999   1.666541031731694 
 -3.726442580661003   9.350466313285104   8.335327955622146 
  1.252694981744490   9.350315678967426   8.339776409448323 
  2.497160515994155   2.883236061018888   8.328302725876689 
  6.231281656994401   9.350698625058946   8.331131952307992 
  7.476617170616819   2.882978500518010   8.336156924385046 
 12.455315400319742   2.882684617278667   8.337661106397592 
 -1.236921942495538   9.350454901419111   1.666711073704488 
  0.008081647037943   2.882721446770178   1.668227011074290 
  4.986265781567250   2.883447382228316   1.674216289458269 
  3.742174493327107   9.350407975563870   1.670030651576305 
  8.720471743302891   9.350633189872157   1.675379503708396 
  9.966153233042593   2.882733333032495   1.672017320332471 
 -4.971083318455306  11.506344980809457   8.337684471873111 
  0.007917158654761  11.506320335088347   8.339755400691864 
  1.252990101151739   5.038750983861700   8.329067978473976 
  6.231597899487846   5.039617475228398   8.327100065592099 
  4.986939775656195  11.506227532966294   8.340053649979238 
 11.210336659412505   5.038763166944077   8.330998881510961 
 -1.236543194967105   5.038702651214396   1.668347504095545 
 -2.481678001000653  11.506388457553966   1.667062287500402 
  2.497531493936944  11.506136896982003   1.665230980444552 
  3.741791867040446   5.039242155730111   1.699372704337523 
  7.476091123631872  11.506376527422628   1.667569702005097 
  8.721124751751024   5.039003583468047   1.681822308293573 
  0.008035329606611   7.194529986490479   8.338314793999006 
  1.252590477907414   0.726963398780872   8.338257977831702 
  4.986421559263469   7.195031268043873   8.314329503325402 
  6.231328174897354   0.727106275516889   8.339691913343138 
  9.965221926167782   7.194810396595967   8.325952331427750 
 -2.481613587337278   7.194582915671334   1.670220270640605 
 11.210669383797736   0.726700801538000   8.339416181112933 
  3.741691913907640   0.727147563765108   1.667916153339987 
  2.497676418549022   7.194656462813548   1.678740088155946 
  7.475667696857478   7.195245745735777   1.687756165560923 
  8.721226115928992   0.726791087461584   1.666552215032538 
  2.497676418549023   7.194656462813549   8.327217124688747 
 13.699844440139136   0.726788575975406   1.665807670874005 
 -1.236921942495538   9.350454901419111   8.339246139140046 
  0.008081647037943   2.882721446770179   8.337730201770350 
  4.986265781567251   2.883447382228317   8.331740923386384 
  3.742174493327108   9.350407975563870   8.335926561268389 
  8.720471743302891   9.350633189872157   8.330577709136218 
  9.966153233042593   2.882733333032496   8.333939892512022 
 -3.726442580661004   9.350466313285104   1.670629257222387 
  1.252694981744542   9.350315678967336   1.666180803396131 
  2.497160515994155   2.883236061018887   1.677654486967858 