B C N                                   
   1.0000000000000000     
     8.7639499999999995  -15.1796066749929999    0.0000000000000000
     8.7639499999999995   15.1796066749929999    0.0000000000000000
     0.0000000000000000    0.0000000000000000   15.0000000000000000
   B    C    N 
    46     3    47
Selective dynamics
Direct
  0.9054072954989123  0.9540425318353183  0.1109645613700220   T   T   T
  0.9067204844176544  0.0980049848158239  0.1109972749161188   T   T   T
  0.9063415326922998  0.2406342403905546  0.1110992441102948   T   T   T
  0.9044739535380518  0.3824615570529745  0.1110721343894375   T   T   T
  0.9003422707710891  0.5235549931406509  0.1110145719715518   T   T   T
  0.8999647862897084  0.6653291661227348  0.1110287017373488   T   T   T
  0.9034212510242396  0.8098371532355204  0.1110308907556893   T   T   T
  0.0467702095840446  0.9514375201943290  0.1109609602723496   T   T   T
  0.0484055336838874  0.0957059962476079  0.1109701157766996   T   T   T
  0.0498614637138766  0.2398181775791597  0.1110516564108801   T   T   T
  0.0497043267667771  0.3824099659918634  0.1110497173604858   T   T   T
  0.0474413668126138  0.5238452774307720  0.1109868647382382   T   T   T
  0.0454272864099442  0.6651418495895450  0.1109769586510868   T   T   T
  0.0451756160389238  0.8074186047054035  0.1109838275402344   T   T   T
  0.1883976986857228  0.9492214114358919  0.1110513008368125   T   T   T
  0.1896390510725777  0.0929881883263006  0.1110334893589327   T   T   T
  0.1916775293257920  0.2373454510620479  0.1109878177678966   T   T   T
  0.1943868348702787  0.3816990902154708  0.1110072376396086   T   T   T
  0.1940139274654565  0.5241080175862859  0.1109797378914155   T   T   T
  0.1913405766051132  0.6655435163839410  0.1109757674119044   T   T   T
  0.1890278813426990  0.8071680035095578  0.1109784150080062   T   T   T
  0.3319769173958134  0.9496008731978777  0.1110314986269424   T   T   T
  0.3306702435321388  0.0902144888883725  0.1111075511117597   T   T   T
  0.3324990556880336  0.2330232888293270  0.1111892402587667   T   T   T
  0.3364676634674337  0.3779022617263184  0.1110667648650275   T   T   T
  0.3407875031097689  0.5246135684504462  0.1110271270763334   T   T   T
  0.3377267192793772  0.6667068493071654  0.1109777320077218   T   T   T
  0.3333319301205410  0.8082647573481021  0.1110067923168044   T   T   T
  0.4761168977878411  0.9525533483422098  0.1109409693226042   T   T   T
  0.4749316125831134  0.0931414488976961  0.1110365019417706   T   T   T
  0.4721195290032997  0.2316975824479950  0.1111858365766849   T   T   T
  0.4856459479683050  0.6734586247308626  0.1108857957065973   T   T   T
  0.4773017003078140  0.8118877968735955  0.1110242662511753   T   T   T
  0.6203814736557883  0.9561445267845381  0.1109053689980278   T   T   T
  0.6192895380492535  0.0969002389652733  0.1108924201525905   T   T   T
  0.6178570894198681  0.2380728251617289  0.1110642391684522   T   T   T
  0.6143187134468816  0.3793316114083078  0.1111369269259824   T   T   T
  0.6117802502139127  0.6723777883817198  0.1108306062842731   T   T   T
  0.6220430615400964  0.8167358469349510  0.1109625377315775   T   T   T
  0.7642110366106570  0.9566410841054694  0.1109317051191066   T   T   T
  0.7634389850468073  0.0984923299949822  0.1109176805973578   T   T   T
  0.7621865087944437  0.2403785492929163  0.1110255051076889   T   T   T
  0.7590935441750453  0.3820231229826914  0.1110628948365236   T   T   T
  0.7513349544486140  0.5236138423235347  0.1110638502735290   T   T   T
  0.7576730209896393  0.6682152558028502  0.1110095174464777   T   T   T
  0.7620274650707248  0.8126141383183523  0.1109914758885284   T   T   T
  0.4750574498878877  0.3730010714229625  0.1113619061441115   T   T   T
  0.4791715316053090  0.5101246309451857  0.1115561632302242   T   T   T
  0.5289779480557312  0.4668873462313172  0.1115469048168179   T   T   T
  0.9516837442661141  0.9050818737529542  0.1109536966501252   T   T   T
  0.9534731963132655  0.0493260836407172  0.1109484028198771   T   T   T
  0.9546620050271272  0.1932016648857763  0.1110559076408752   T   T   T
  0.9540440183901150  0.3357366287056363  0.1110836091544947   T   T   T
  0.9511602459293829  0.4773402989416909  0.1110082173909501   T   T   T
  0.9491475886855717  0.6185597973975230  0.1109907106867282   T   T   T
  0.9494999631462712  0.7607853565758249  0.1110016641139294   T   T   T
  0.0934046565924680  0.9027509870312769  0.1109772533416184   T   T   T
  0.0950166733173708  0.0469828636953889  0.1109495634133625   T   T   T
  0.0970560199614558  0.1913892854056271  0.1109766761162690   T   T   T
  0.0990048974109470  0.3354063400595176  0.1110270885659906   T   T   T
  0.0980639473613318  0.4774922037950510  0.1109714322913592   T   T   T
  0.0954423004406049  0.6186901090037649  0.1109518678459307   T   T   T
  0.0935465820238097  0.7601863087887395  0.1109488592932119   T   T   T
  0.2367534312616005  0.9022632064285884  0.1110114165600413   T   T   T
  0.2362356016849652  0.0445311447276922  0.1110596206596614   T   T   T
  0.2385617864899158  0.1890464965807199  0.1110306325926624   T   T   T
  0.2421261867982481  0.3333008616590237  0.1109541617511737   T   T   T
  0.2452096586527072  0.4775725939071101  0.1109886333911002   T   T   T
  0.2420940464489654  0.6189923008643234  0.1109616786844199   T   T   T
  0.2381900574589080  0.7604106704917377  0.1109710799288220   T   T   T
  0.3807653201156294  0.9032375945079923  0.1109809662770774   T   T   T
  0.3796001260865867  0.0446832153484928  0.1110411321586521   T   T   T
  0.3783280454641760  0.1853838346807912  0.1111755311148771   T   T   T
  0.3846250176084204  0.3302614741619857  0.1112858764362611   T   T   T
  0.3898862907449744  0.4739707506024050  0.1110407256980652   T   T   T
  0.3908022275335736  0.6199721982386042  0.1109260514567362   T   T   T
  0.3827120067316342  0.7614244115402330  0.1109965394938441   T   T   T
  0.5248531619003304  0.9063230389845111  0.1109327058001777   T   T   T
  0.5236995612208153  0.0474331911584454  0.1109028248094068   T   T   T
  0.5221384268355170  0.1882419963283247  0.1110899418066874   T   T   T
  0.5173533290321213  0.3268847160940708  0.1112260408717985   T   T   T
  0.5268975414827389  0.7657923069514714  0.1110136455281920   T   T   T
  0.6689084768880478  0.9099235496795699  0.1109169773810268   T   T   T
  0.6678341904237185  0.0505569200144250  0.1108432330030492   T   T   T
  0.6664938232970513  0.1918395028376959  0.1109524385401729   T   T   T
  0.6633909760417129  0.3328515322109576  0.1110999020797203   T   T   T
  0.6536021472573239  0.4717046759786873  0.1109329309632193   T   T   T
  0.6635505417372417  0.6334377584755208  0.1108683574729652   T   T   T
  0.6661025870194133  0.7671986962067950  0.1109048453110970   T   T   T
  0.8101554990174512  0.9075766042001366  0.1109498381188714   T   T   T
  0.8115236385128546  0.0512273792607353  0.1109149787215086   T   T   T
  0.8108221342110884  0.1934107821802134  0.1110043462041721   T   T   T
  0.8087453253104069  0.3353722961974579  0.1110473801926720   T   T   T
  0.8033739958924480  0.4768532533571551  0.1110275381199423   T   T   T
  0.8031698055161116  0.6190030049424814  0.1110366319330588   T   T   T
  0.8077159833506549  0.7637987173386571  0.1110342583177285   T   T   T

  0.00000000E+00  0.00000000E+00  0.00000000E+00
  0.00000000E+00  0.00000000E+00  0.00000000E+00
  0.00000000E+00  0.00000000E+00  0.00000000E+00
  0.00000000E+00  0.00000000E+00  0.00000000E+00
  0.00000000E+00  0.00000000E+00  0.00000000E+00
  0.00000000E+00  0.00000000E+00  0.00000000E+00
  0.00000000E+00  0.00000000E+00  0.00000000E+00
  0.00000000E+00  0.00000000E+00  0.00000000E+00
  0.00000000E+00  0.00000000E+00  0.00000000E+00
  0.00000000E+00  0.00000000E+00  0.00000000E+00
  0.00000000E+00  0.00000000E+00  0.00000000E+00
  0.00000000E+00  0.00000000E+00  0.00000000E+00
  0.00000000E+00  0.00000000E+00  0.00000000E+00
  0.00000000E+00  0.00000000E+00  0.00000000E+00
  0.00000000E+00  0.00000000E+00  0.00000000E+00
  0.00000000E+00  0.00000000E+00  0.00000000E+00
  0.00000000E+00  0.00000000E+00  0.00000000E+00
  0.00000000E+00  0.00000000E+00  0.00000000E+00
  0.00000000E+00  0.00000000E+00  0.00000000E+00
  0.00000000E+00  0.00000000E+00  0.00000000E+00
  0.00000000E+00  0.00000000E+00  0.00000000E+00
  0.00000000E+00  0.00000000E+00  0.00000000E+00
  0.00000000E+00  0.00000000E+00  0.00000000E+00
  0.00000000E+00  0.00000000E+00  0.00000000E+00
  0.00000000E+00  0.00000000E+00  0.00000000E+00
  0.00000000E+00  0.00000000E+00  0.00000000E+00
  0.00000000E+00  0.00000000E+00  0.00000000E+00
  0.00000000E+00  0.00000000E+00  0.00000000E+00
  0.00000000E+00  0.00000000E+00  0.00000000E+00
  0.00000000E+00  0.00000000E+00  0.00000000E+00
  0.00000000E+00  0.00000000E+00  0.00000000E+00
  0.00000000E+00  0.00000000E+00  0.00000000E+00
  0.00000000E+00  0.00000000E+00  0.00000000E+00
  0.00000000E+00  0.00000000E+00  0.00000000E+00
  0.00000000E+00  0.00000000E+00  0.00000000E+00
  0.00000000E+00  0.00000000E+00  0.00000000E+00
  0.00000000E+00  0.00000000E+00  0.00000000E+00
  0.00000000E+00  0.00000000E+00  0.00000000E+00
  0.00000000E+00  0.00000000E+00  0.00000000E+00
  0.00000000E+00  0.00000000E+00  0.00000000E+00
  0.00000000E+00  0.00000000E+00  0.00000000E+00
  0.00000000E+00  0.00000000E+00  0.00000000E+00
  0.00000000E+00  0.00000000E+00  0.00000000E+00
  0.00000000E+00  0.00000000E+00  0.00000000E+00
  0.00000000E+00  0.00000000E+00  0.00000000E+00
  0.00000000E+00  0.00000000E+00  0.00000000E+00
  0.00000000E+00  0.00000000E+00  0.00000000E+00
  0.00000000E+00  0.00000000E+00  0.00000000E+00
  0.00000000E+00  0.00000000E+00  0.00000000E+00
  0.00000000E+00  0.00000000E+00  0.00000000E+00
  0.00000000E+00  0.00000000E+00  0.00000000E+00
  0.00000000E+00  0.00000000E+00  0.00000000E+00
  0.00000000E+00  0.00000000E+00  0.00000000E+00
  0.00000000E+00  0.00000000E+00  0.00000000E+00
  0.00000000E+00  0.00000000E+00  0.00000000E+00
  0.00000000E+00  0.00000000E+00  0.00000000E+00
  0.00000000E+00  0.00000000E+00  0.00000000E+00
  0.00000000E+00  0.00000000E+00  0.00000000E+00
  0.00000000E+00  0.00000000E+00  0.00000000E+00
  0.00000000E+00  0.00000000E+00  0.00000000E+00
  0.00000000E+00  0.00000000E+00  0.00000000E+00
  0.00000000E+00  0.00000000E+00  0.00000000E+00
  0.00000000E+00  0.00000000E+00  0.00000000E+00
  0.00000000E+00  0.00000000E+00  0.00000000E+00
  0.00000000E+00  0.00000000E+00  0.00000000E+00
  0.00000000E+00  0.00000000E+00  0.00000000E+00
  0.00000000E+00  0.00000000E+00  0.00000000E+00
  0.00000000E+00  0.00000000E+00  0.00000000E+00
  0.00000000E+00  0.00000000E+00  0.00000000E+00
  0.00000000E+00  0.00000000E+00  0.00000000E+00
  0.00000000E+00  0.00000000E+00  0.00000000E+00
  0.00000000E+00  0.00000000E+00  0.00000000E+00
  0.00000000E+00  0.00000000E+00  0.00000000E+00
  0.00000000E+00  0.00000000E+00  0.00000000E+00
  0.00000000E+00  0.00000000E+00  0.00000000E+00
  0.00000000E+00  0.00000000E+00  0.00000000E+00
  0.00000000E+00  0.00000000E+00  0.00000000E+00
  0.00000000E+00  0.00000000E+00  0.00000000E+00
  0.00000000E+00  0.00000000E+00  0.00000000E+00
  0.00000000E+00  0.00000000E+00  0.00000000E+00
  0.00000000E+00  0.00000000E+00  0.00000000E+00
  0.00000000E+00  0.00000000E+00  0.00000000E+00
  0.00000000E+00  0.00000000E+00  0.00000000E+00
  0.00000000E+00  0.00000000E+00  0.00000000E+00
  0.00000000E+00  0.00000000E+00  0.00000000E+00
  0.00000000E+00  0.00000000E+00  0.00000000E+00
  0.00000000E+00  0.00000000E+00  0.00000000E+00
  0.00000000E+00  0.00000000E+00  0.00000000E+00
  0.00000000E+00  0.00000000E+00  0.00000000E+00
  0.00000000E+00  0.00000000E+00  0.00000000E+00
  0.00000000E+00  0.00000000E+00  0.00000000E+00
  0.00000000E+00  0.00000000E+00  0.00000000E+00
  0.00000000E+00  0.00000000E+00  0.00000000E+00
  0.00000000E+00  0.00000000E+00  0.00000000E+00
  0.00000000E+00  0.00000000E+00  0.00000000E+00
  0.00000000E+00  0.00000000E+00  0.00000000E+00
