 C N B 
 1.0
 17.527899999999772   0.000000000000000   0.000000000000000
 -8.763949999999658  15.179606674993195   0.000000000000000
  0.000000000000001   0.000000000000002  15.000000000000000
 C N B 
   3  47  46
Cartesian
  5.057796735992653   5.662009553551623   1.670428592161665 
  3.928163929452697   7.743491252973985   1.673342448453360 
  5.180095217722134   7.087166277322758   1.673203572252270 
  8.748925213644913  13.738786852235689   1.664305449751875 
 16.280091506936031   0.748750548483901   1.664226042298155 
 15.040010426939130   2.932725281919924   1.665838614613125 
 13.780009122795235   5.096349970139784   1.666254137317425 
 12.488455161715546   7.245837988058540   1.665123260864250 
 11.215536883319810   9.389494429457878   1.664860660300920 
  9.975255578268866  11.548422476915471   1.665024961708935 
 -6.274477032505352  13.703404908596667   1.664658800124270 
  1.253687279956337   0.713181391360823   1.664243451200430 
  0.023862084451803   2.905214074265433   1.664650141744035 
 -1.204136452635183   5.091336318402497   1.665406328489865 
 -2.465862736494805   7.248143843984566   1.664571484370385 
 -3.749266082910475   9.391472508385819   1.664278017688965 
 -5.022559665853692  11.539329167127981   1.664232889398180 
 -3.757599160169353  13.696000590904159   1.665171248400615 
  3.750445276937603   0.675965261753562   1.665894309894915 
  2.524693093708007   2.869651461380776   1.665459488889930 
  1.322646922914403   5.059868891664398   1.664312426267610 
  0.112588041526673   7.249364134266181   1.664829500866500 
 -1.181417338406914   9.396059661969474   1.664425180266300 
 -2.489229587521868  11.542734889532438   1.664566198932330 
 -1.241912661933361  13.710791418698312   1.664714494156155 
  6.261991584879592   0.678273633964143   1.665616982379780 
  5.006601490140789   2.814053694356370   1.667632966723155 
  3.847273799656713   5.013239277682375   1.669288146543915 
  2.680031955806955   7.194689569595802   1.665610885470975 
  1.416537017232641   9.410934118692918   1.663890771851040 
  0.035052311273556  11.558123079918886   1.664948092407660 
  1.256603938964679  13.757627252269401   1.663990587002670 
  8.763651423469167   0.720017185124960   1.663542372141105 
  7.502246688008579   2.857439463979487   1.666349127100305 
  6.203316108329473   4.961981418374815   1.668390613076985 
  2.524041928848098  11.624426014258988   1.665204682922880 
  3.750036398831907  13.812281588449503   1.663754660715405 
 11.262652587167333   0.767434160518063   1.662648495045735 
 10.003994855772154   2.912048197802466   1.664286578102595 
  8.710756503241278   5.052555340131170   1.666498531195800 
  7.322276881868248   7.160291448111579   1.663993964448285 
  6.079230697124728   9.615336026747746   1.663025362094475 
  4.951688521396139  11.645774449986742   1.663572679666455 
  6.246368590848314  13.776655879184057   1.664247571783065 
 13.775350993017186   0.777611468168661   1.663724680822635 
 12.516966861750131   2.935899600198416   1.665065193062580 
 11.236421152248500   5.090819545966728   1.665710702890080 
  9.902340992843779   7.238444827652492   1.665413071799130 
  8.652968648940231   9.396222145665730   1.665549478995885 
  7.463671215751900  11.594164108065119   1.665513874765920 
  7.508707487897365  14.481990384474800   1.664468420550330 
 15.033995192147383   1.487677121692889   1.664959123741785 
 13.777357299806436   3.652733121664386   1.666488661654425 
 12.501655047285126   5.805616004369631   1.666082015841555 
 11.192699505713534   7.947358868603843   1.665218579573280 
  9.943581232166050  10.099435051144324   1.665430526060235 
  8.737705026729412  12.293009456911387   1.665463361335335 
 -7.518567298538592  14.442447332380810   1.664414404085250 
  0.009684788043601   1.452779379477064   1.664551736650500 
 -1.227787767564344   3.640345609165320   1.665774846163200 
 -2.480209352318878   5.804832872354004   1.665745760407290 
 -3.759406285784429   7.951765269951809   1.664802971073570 
 -5.033024979245218  10.096591659846778   1.664654379766305 
 -6.284342600338996  12.256296841499829   1.664757413103510 
 -5.016712965959821  14.408807673078728   1.665769512552180 
  2.509030490212743   1.411524124213443   1.665502340383995 
  1.279620900434352   3.602810593220735   1.664817266518455 
  0.062001261228972   5.794042057673593   1.665108564594135 
 -1.192599741503413   7.955753562170238   1.664696068371240 
 -2.478991607736096  10.102688803800115   1.664636511178560 
 -3.760718222970664  12.252492813914618   1.664676225120090 
 -2.503396362240225  14.414567753373875   1.665472479404130 
  5.005319691713686   1.369420457711031   1.666613266676400 
  3.785805746058515   3.537201870542519   1.667838603881505 
  2.585655031834524   5.736407694595843   1.666001472975420 
  1.375602192536536   7.963427625442391   1.665406906144995 
  0.077006829523810  10.119737783328796   1.664665980115830 
 -1.240958586827365  12.269141105803005   1.665101884752060 
 -0.002800544467996  14.459385164782528   1.664114539839060 
  7.508266811128506   1.413850559406004   1.665547529126565 
  6.244677864721808   3.517078169107371   1.667787548650275 
  2.610195897183726  10.222837035296346   1.663286935598955 
  1.250752415415158  12.324137420767942   1.665363993767625 
  2.494381606578120  14.513897841036783   1.663580534970420 
 10.005616244693689   1.470907514205694   1.663386302288865 
  8.743278941566309   3.613851845959470   1.665963587526780 
  7.443273701623752   5.758104660569477   1.667053903889730 
  4.830537729236561  10.206430364636319   1.662459094264095 
  3.745276452623221  12.397728913840004   1.664438065973670 
  5.011059999561963  14.521435385860103   1.663975576786605 
 12.518300330542264   1.495074829827462   1.663765208960370 
 11.252863320422392   3.648851831371928   1.665382576615335 
  9.957284184281573   5.798960747629803   1.665943422547860 
  8.580398414648524   7.948252176053167   1.665957754102935 
  7.424211853510961  10.143244757317227   1.665142761697170 
  6.235031527498143  12.335162998211100   1.664872138327920 
