 C B O N 
 1.0
 14.936314146199660   0.000000000000000   0.000000000000000
 -7.468157073099825  12.935227489513863   0.000000000000000
  0.000000000000001   0.000000000000001  13.341276283792837
 C B O N 
   1 143   1 143
Cartesian
  3.691892233965333   5.006009972768861   5.002978606422314 
  1.244498679764618   0.721917713522219   5.002978606422314 
  4.961655095711517   7.202816764691621   5.002978606422314 
  6.205965459925967   0.715152040682029   5.002978606422314 
  9.946381525309256   7.178164127575793   5.002978606422314 
 11.195157145337493   0.714536996141358   5.002978606422314 
 -3.740692378080235   9.338290239238741  11.673616748318732 
  1.238153233030049   9.338025700463483  11.673616748318732 
  2.481904011726113   2.870363957926677  11.673616748318732 
  6.216627222667632   9.338462978465509  11.673616748318732 
  7.460592956202011   2.870130172536249  11.673616748318732 
 12.439768250961478   2.870334603508016  11.673616748318732 
 -1.258075322127088   9.335475846188697   5.002978606422314 
  0.006048210996708   2.877986933916714   5.002978606422314 
  4.943402795322795   2.870394145331042   5.002978606422314 
  3.722771604030687   9.329058568968462   5.002978606422314 
  8.700277558636163   9.336479509366722   5.002978606422314 
  9.949112297070696   2.869575802791120   5.002978606422314 
 -4.985362029847918  11.494207096138320  11.673616748318732 
 -0.006607523542316  11.494165135183117  11.673616748318732 
  1.237374420501554   5.025952441450552  11.673616748318732 
  6.215821282158569   5.025904450900279  11.673616748318732 
  4.971994704460779  11.494301572317271  11.673616748318732 
 11.194979092528248   5.026063863972587  11.673616748318732 
 -1.241937271798705   5.028551111395791   5.002978606422314 
 -2.501821185981203  11.489706874087682   5.002978606422314 
  2.479024362498661  11.488355575501078   5.002978606422314 
  7.458578686651901  11.494782084692256   5.002978606422314 
  8.702024977297427   5.021553487236875   5.002978606422314 
 -0.007195182948414   7.181795328052270  11.673616748318732 
  1.238176884302194   0.714893045876121  11.673616748318732 
  4.971085881518921   7.181849406787764  11.673616748318732 
  6.216658403275036   0.715001799854762  11.673616748318732 
  9.950124364498990   7.181877943111326  11.673616748318732 
 -2.499797365410323   7.180205742878994   5.002978606422314 
 11.195562207428996   0.714770858848952  11.673616748318732 
  3.724831541140746   0.708228299875626   5.002978606422314 
  2.468149955358937   7.157657825727631   5.002978606422314 
  7.461645925804311   7.182478281530564   5.002978606422314 
  8.699334266308490   0.714462783278503   5.002978606422314 
  2.482669914971409   7.181979971996755  11.673616748318732 
 13.687141561695368   0.717474142184729   5.002978606422314 
 -1.251888363620425   9.337819922133443  11.673616748318732 
 -0.006441574559012   2.870775952864034  11.673616748318732 
  4.971726371672594   2.870807726082909  11.673616748318732 
  3.726516428652145   9.337740437603028  11.673616748318732 
  8.705365236829792   9.337863995419509  11.673616748318732 
  9.950968821583299   2.870465431890613  11.673616748318732 
 -3.746085833018612   9.335176326578317   5.002978606422314 
  1.232936873728584   9.328690219468379   5.002978606422314 
  2.502435682763257   2.880992045781651   5.002978606422314 
  6.210419684024974   9.337140447592343   5.002978606422314 
  7.451201825101654   2.871227993598243   5.002978606422314 
 12.443692996604645   2.871190233520491   5.002978606422314 
 -1.251181710164625   5.026588609750929  11.673616748318732 
 -2.496697677411411  11.493892899354396  11.673616748318732 
  2.481850140278040  11.493631129810511  11.673616748318732 
  3.727013473208775   5.026287229700102  11.673616748318732 
  7.460802842474144  11.493846853483367  11.673616748318732 
 -4.989200869106243  11.491979091820333   5.002978606422314 
  8.706274091952286   5.026268107959664  11.673616748318732 
 -0.011417402693109  11.491388150160809   5.002978606422314 
  1.256844450096128   5.038419346223480   5.002978606422314 
 -0.013626221091690   7.183427086012473   5.002978606422314 
  6.229264153849822   5.007253471861530   5.002978606422314 
  4.970296000804343  11.493138589476404   5.002978606422314 
 11.194676948602311   5.023670072924324   5.002978606422314 
 -2.495948437441999   7.182416273038676  11.673616748318732 
  3.726633916366134   0.714613621260289  11.673616748318732 
  7.461390148798056   7.182330608607271  11.673616748318732 
  8.705315919249266   0.714272201466050  11.673616748318732 
 13.684438191546777   0.714503027760529  11.673616748318732 
  0.008481180711080   1.442725353713389   1.669242687445370 
  3.740294132685252   7.909564694048589   1.674891832982782 
  4.987184992424098   1.442953021236879   1.671866661234568 
  8.721281817372166   7.909729402608432   1.669099948139620 
  9.966262252305736   1.441871178372511   1.667684119761208 
 -4.969689802259682  10.066377278801854   8.337846974514544 
  0.008768823123707  10.065539211757422   8.336285568531087 
  1.252713845411634   3.597749673535787   8.334200932968422 
  4.986912820069585  10.066539638735687   8.335986341184809 
  6.230645333231819   3.596149886011757   8.331065379861887 
 11.210337809049641   3.597023144205613   8.337725611060876 
 -2.481206383831917  10.065454817058642   1.668944538326579 
 -1.235708293678063   3.597724737597817   1.669242687445370 
  3.742186953448504   3.598637216796382   1.674730764042926 
  2.496787328762948  10.065369426539837   1.669836174655786 
  7.475872546881027  10.065998278443152   1.668793577880423 
  8.721949774349385   3.597265865775713   1.669970871659805 
 -6.214718446695900  12.222450485004753   8.336876119154931 
 -1.236145692400928  12.221794403726097   8.336285568531087 
  0.008884331885774   5.752856211045022   8.334056228402689 
  4.983748562158437   5.751863571605303   8.333956915358057 
  3.742442504574879  12.221843198592943   8.338273093083487 
  9.965960805989248   5.753038898336952   8.337163634964257 
 -2.479949370969459   5.753640691309455   1.669081093689603 
 -3.726175769010482  12.222039888751722   1.669638366127179 
  1.252291774554463  12.220990983822245   1.668518864126146 
  2.498219034440726   5.753252855503595   1.674730764042926 
  6.230896634374152  12.221668252044072   1.668231601783672 
  7.477426492233011   5.753849149423809   1.674759698590630 
 -1.236033618912698   7.908987166713528   8.336318846717434 
  0.008481180711081   1.442725353713390   8.336714525399003 
  3.740294132685252   7.909564694048590   8.331065379861887 
  4.987184992424099   1.442953021236880   8.334090551610061 
  8.721281817372166   7.909729402608433   8.336857264705021 
 -3.724649217742042   7.909903728932005   1.668110238330057 
  9.966262252305736   1.441871178372512   8.338273093083487 
  2.497176097993653   1.443008448090849   1.671900984441926 
  1.253840778037332   7.909294882698117   1.671866661234568 
  6.232307088027549   7.910459218997573   1.674759698590630 
  7.475873595206731   1.441339037790717   1.669836174655786 
  1.253840778037332   7.909294882698118   8.334090551610061 
 12.454613894985346   1.441684689583233   1.667927842388377 
 -2.481206383831917  10.065454817058642   8.337012674518009 
 -1.235708293678063   3.597724737597818   8.336714525399003 
  3.742186953448505   3.598637216796383   8.331226448801701 
  2.496787328762948  10.065369426539837   8.336121038189042 
  7.475872546881028  10.065998278443152   8.337163634964257 
  8.721949774349385   3.597265865775714   8.335986341184809 
 -4.969689802259683  10.066377278801854   1.668110238330057 
  0.008768823123707  10.065539211757422   1.669671644313541 
  1.252713845411634   3.597749673535787   1.671756279876259 
  4.986912820069584  10.066539638735687   1.669970871659805 
  6.230645333231818   3.596149886011756   1.674891832982782 
 11.210337809049641   3.597023144205612   1.668231601783672 
 -2.479949370969459   5.753640691309456   8.336876119154931 
 -3.726175769010481  12.222039888751722   8.336318846717434 
  1.252291774554463  12.220990983822245   8.337438348718521 
  2.498219034440727   5.753252855503596   8.331226448801701 
  6.230896634374153  12.221668252044072   8.337725611060876 
 -6.214718446695901  12.222450485004753   1.669081093689603 
  7.477426492233012   5.753849149423810   8.331197514254050 
 -1.236145692400928  12.221794403726097   1.669671644313541 
  0.008884331885773   5.752856211045021   1.671900984441926 
 -1.236033618912699   7.908987166713527   1.669638366127179 
  4.983748562158437   5.751863571605302   1.672000297486437 
  3.742442504574878  12.221843198592943   1.667684119761208 
  9.965960805989248   5.753038898336951   1.668793577880423 
 -3.724649217742027   7.909903728932006   8.337846974514544 
  2.497176097993654   1.443008448090850   8.334056228402689 
  6.232307088027550   7.910459218997574   8.331197514254050 
  7.475873595206732   1.441339037790717   8.336121038189042 
 12.454613894985346   1.441684689583234   8.338029370456290 
  4.978083198845964   5.748592672571789   5.002978606422314 
  1.252542839283523   0.723279482851992   1.669094676756214 
  4.986844102712658   7.190416949387598   1.684721016408096 
  6.231428544180096   0.723357253298806   1.669331179250850 
  9.965488162116984   7.190709672054814   1.668561068708746 
 11.210040346118740   0.723129816118720   1.666416959360027 
 -3.726121525842102   9.346702724700696   8.338435528419195 
  1.252774338425193   9.346639290982834   8.336626033593832 
  2.496829308859440   2.879329663976675   8.335937594299327 
  6.231270610628287   9.346980799943283   8.334411138295723 
  7.476451885082413   2.878807486689851   8.334871039535244 
 12.454570313196610   2.878912612657741   8.338617276157583 
 -1.236729911971720   9.346583432559513   1.668445769982000 
  0.007267908156280   2.878691126400166   1.667461638276494 
  4.987473017237252   2.879605097772969   1.669745103843945 
  3.741960667586199   9.347136015813089   1.671086173309249 
  8.720695637262882   9.346753569984079   1.668561068708746 
  9.965715386471439   2.878722836848095   1.667754799770726 
 -4.970787207926039  11.502720923372589   8.337985474912523 
  0.007795502009152  11.502480725862471   8.337621001981777 
  1.252601598270508   5.034395274901826   8.335937594299327 
  6.231120102294891   5.035267699472606   8.321236196436386 
  4.986519109367306  11.502943769650319   8.338202413074010 
 11.210190750331584   5.034823059175554   8.337915277865186 
 -1.236735865205544   5.034836673226319   1.669094676756214 
 -2.481529028931775  11.502638748351217   1.668445769982000 
  2.496982593080377  11.502642767506611   1.667594067648574 
  3.742103825704494   5.034999648775800   1.661530453011538 
  7.475994356938212  11.502640937973375   1.668041934979296 
  8.720972435717268   5.034690743192176   1.671546074549026 
  0.008267351415928   7.190599163061310   8.336761861287760 
  1.252542839283524   0.723279482851992   8.336862536088374 
  4.986844102712659   7.190416949387599   8.321236196436386 
  6.231428544180097   0.723357253298807   8.336626033593832 
  9.965488162116984   7.190709672054815   8.337396144136083 
 -2.481287835812742   7.190781525461509   1.667971737932064 
 11.210040346118740   0.723129816118721   8.339540253484561 
  3.741989528316836   0.723602651322219   1.669195351556962 
  2.498161985123812   7.191218281235197   1.669745103843945 
  7.476269058323629   7.190920951026961   1.674471637043123 
  8.720686452824925   0.722871471166456   1.667594067648574 
  2.498161985123813   7.191218281235198   8.336212109000670 
 13.699267996501900   0.723032985109687   1.667339936687084 
 -1.236729911971719   9.346583432559513   8.337511442862828 
  0.007267908156280   2.878691126400167   8.338495574568039 
  4.987473017237253   2.879605097772970   8.336212109000670 
  3.741960667586200   9.347136015813089   8.334871039535244 
  8.720695637262882   9.346753569984079   8.337396144136083 
  9.965715386471439   2.878722836848095   8.338202413074010 
 -3.726121525842103   9.346702724700696   1.667521684425500 
  1.252774338425192   9.346639290982834   1.669331179250850 
  2.496829308859440   2.879329663976674   1.670019618545340 
  6.231270610628301   9.346980799943257   1.671546074549026 
  7.476451885082412   2.878807486689850   1.671086173309249 
 12.454570313196610   2.878912612657740   1.667339936687084 
 -1.236735865205544   5.034836673226319   8.336862536088374 
 -2.481529028931775  11.502638748351217   8.337511442862828 
  2.496982593080377  11.502642767506611   8.338363145196094 
  3.742103825704495   5.034999648775801   8.344426759833198 
  7.475994356938213  11.502640937973375   8.337915277865186 
 -4.970787207926040  11.502720923372589   1.667971737932064 
  8.720972435717268   5.034690743192177   8.334411138295723 
  0.007795502009151  11.502480725862471   1.668336210862851 
  1.252601598270507   5.034395274901825   1.670019618545340 
  0.008267351415928   7.190599163061309   1.669195351556962 
  6.231120102294883   5.035267699472619   1.684721016408096 
  4.986519109367305  11.502943769650319   1.667754799770726 
 11.210190750331584   5.034823059175553   1.668041934979296 
 -2.481287835812741   7.190781525461510   8.337985474912523 
  3.741989528316837   0.723602651322219   8.336761861287760 
  7.476269058323630   7.190920951026962   8.331485575801452 
  8.720686452824925   0.722871471166457   8.338363145196094 
 13.699267996501900   0.723032985109688   8.338617276157583 
 -0.003480801896705   1.436206993826370   5.002978606422314 
  3.728946456283462   7.885266538229761   5.002978606422314 
  4.962608442642355   1.430777203385296   5.002978606422314 
  8.698167931524752   7.896384594392257   5.002978606422314 
  9.947730674997056   1.433048694263054   5.002978606422314 
 -4.985596057036362  10.056758024321960  11.673616748318732 
 -0.006700066164978  10.056814552154998  11.673616748318732 
  1.237797227777462   3.589137560329300  11.673616748318732 
  4.971919692586179  10.056800698766434  11.673616748318732 
  6.216662331996406   3.589276928622234  11.673616748318732 
 11.195391515969572   3.589259602976150  11.673616748318732 
 -2.503124046497738  10.052800648618385   5.002978606422314 
 -1.247334350235139   3.590624536723384   5.002978606422314 
  3.740164589817466   3.614594435352093   5.002978606422314 
  2.481296476683587  10.049648857355745   5.002978606422314 
  7.454521358345102  10.051814582282814   5.002978606422314 
  8.699547083416912   3.589449905055939   5.002978606422314 
 -6.230218779129887  12.212593073425710  11.673616748318732 
 -1.251435913900351  12.212760282434996  11.673616748318732 
 -0.006856698772270   5.745076195127463  11.673616748318732 
  4.972002729505157   5.745082111961083  11.673616748318732 
  3.727211697616758  12.212661031796353  11.673616748318732 
  9.950646962216858   5.745065263094523  11.673616748318732 
 -2.495641552079724   5.743621608402561   5.002978606422314 
 -3.745299095340943  12.205546891628478   5.002978606422314 
  1.234513308070521  12.210726581411654   5.002978606422314 
  2.511027209268200   5.743522827945559   5.002978606422314 
  6.215086345480374  12.212070649315420   5.002978606422314 
  7.442909468718961   5.745807691358755   5.002978606422314 
 -1.251501862631565   7.900934566393021  11.673616748318732 
 -0.006725718136089   1.433252990496163  11.673616748318732 
  3.727350476369070   7.900891538452371  11.673616748318732 
  4.971988405340273   1.433429744355289  11.673616748318732 
  8.705914554491381   7.900857109247092  11.673616748318732 
 -3.748205555109307   7.897247357531882   5.002978606422314 
  9.950694859118780   1.433271996025391  11.673616748318732 
  2.491864432053753   1.438425958353626   5.002978606422314 
  1.231007935575145   7.894098875175561   5.002978606422314 
  6.208084469303003   7.884587328803420   5.002978606422314 
  7.454513756891751   1.435783850955641   5.002978606422314 
  1.237995084788815   7.900895890673254  11.673616748318732 
 12.440112766728980   1.433312459280866   5.002978606422314 
 -2.496181503425242  10.056808927730136  11.673616748318732 
 -1.251515050281655   3.589291358492029  11.673616748318732 
  3.727258994703122   3.589197284092032  11.673616748318732 
  2.482541547421201  10.056759093454820  11.673616748318732 
  7.461310254314559  10.056722918327583  11.673616748318732 
  8.706019041188519   3.589150906477288  11.673616748318732 
 -4.992428710095711  10.052305077921993   5.002978606422314 
 -0.011101548604241  10.053029462060795   5.002978606422314 
  1.246641268169195   3.594243669430095   5.002978606422314 
  4.968942654065340  10.051046319634404   5.002978606422314 
  6.203928674826720   3.598471587883267   5.002978606422314 
 11.194120896824280   3.588129833746806   5.002978606422314 
 -2.496236306029589   5.745145715444260  11.673616748318732 
 -3.740883647314243  12.212670296899912  11.673616748318732 
  1.237815186791422  12.212632921980212  11.673616748318732 
  2.482579833536065   5.745044830355599  11.673616748318732 
  6.216700063906002  12.212606153159186  11.673616748318732 
 -6.231241317571109  12.213870198976068   5.002978606422314 
  7.461262123593499   5.744997945330609  11.673616748318732 
 -1.256914639297202  12.210841031875432   5.002978606422314 
  0.002259946390761   5.750547418273340   5.002978606422314 
 -1.259878636571097   7.900672378867928   5.002978606422314 
  3.725536220557280  12.210205623926134   5.002978606422314 
  9.943001770526953   5.741640074743876   5.002978606422314 
 -3.740932863875378   7.900938135456204  11.673616748318732 
  2.482567891238179   1.433266323618015  11.673616748318732 
  6.216559536109091   7.900886067166065  11.673616748318732 
  7.461293937349321   1.433306995794282  11.673616748318732 
 12.440139506760236   1.433327897645129  11.673616748318732 
Generated by cif2cell 2.0.0.  :  Failed to get author information, No journal information. Species order: C B O N 
 1.0
 14.936314146199660   0.000000000000000   0.000000000000000
 -7.468157073099825  12.935227489513863   0.000000000000000
  0.000000000000001   0.000000000000001  13.341276283792837
 C B O N 
   1 143   1 143
Cartesian
  3.691892233965333   5.006009972768861   5.002978606422314 
  1.244498679764618   0.721917713522219   5.002978606422314 
  4.961655095711517   7.202816764691621   5.002978606422314 
  6.205965459925967   0.715152040682029   5.002978606422314 
  9.946381525309256   7.178164127575793   5.002978606422314 
 11.195157145337493   0.714536996141358   5.002978606422314 
 -3.740692378080235   9.338290239238741  11.673616748318732 
  1.238153233030049   9.338025700463483  11.673616748318732 
  2.481904011726113   2.870363957926677  11.673616748318732 
  6.216627222667632   9.338462978465509  11.673616748318732 
  7.460592956202011   2.870130172536249  11.673616748318732 
 12.439768250961478   2.870334603508016  11.673616748318732 
 -1.258075322127088   9.335475846188697   5.002978606422314 
  0.006048210996708   2.877986933916714   5.002978606422314 
  4.943402795322795   2.870394145331042   5.002978606422314 
  3.722771604030687   9.329058568968462   5.002978606422314 
  8.700277558636163   9.336479509366722   5.002978606422314 
  9.949112297070696   2.869575802791120   5.002978606422314 
 -4.985362029847918  11.494207096138320  11.673616748318732 
 -0.006607523542316  11.494165135183117  11.673616748318732 
  1.237374420501554   5.025952441450552  11.673616748318732 
  6.215821282158569   5.025904450900279  11.673616748318732 
  4.971994704460779  11.494301572317271  11.673616748318732 
 11.194979092528248   5.026063863972587  11.673616748318732 
 -1.241937271798705   5.028551111395791   5.002978606422314 
 -2.501821185981203  11.489706874087682   5.002978606422314 
  2.479024362498661  11.488355575501078   5.002978606422314 
  7.458578686651901  11.494782084692256   5.002978606422314 
  8.702024977297427   5.021553487236875   5.002978606422314 
 -0.007195182948414   7.181795328052270  11.673616748318732 
  1.238176884302194   0.714893045876121  11.673616748318732 
  4.971085881518921   7.181849406787764  11.673616748318732 
  6.216658403275036   0.715001799854762  11.673616748318732 
  9.950124364498990   7.181877943111326  11.673616748318732 
 -2.499797365410323   7.180205742878994   5.002978606422314 
 11.195562207428996   0.714770858848952  11.673616748318732 
  3.724831541140746   0.708228299875626   5.002978606422314 
  2.468149955358937   7.157657825727631   5.002978606422314 
  7.461645925804311   7.182478281530564   5.002978606422314 
  8.699334266308490   0.714462783278503   5.002978606422314 
  2.482669914971409   7.181979971996755  11.673616748318732 
 13.687141561695368   0.717474142184729   5.002978606422314 
 -1.251888363620425   9.337819922133443  11.673616748318732 
 -0.006441574559012   2.870775952864034  11.673616748318732 
  4.971726371672594   2.870807726082909  11.673616748318732 
  3.726516428652145   9.337740437603028  11.673616748318732 
  8.705365236829792   9.337863995419509  11.673616748318732 
  9.950968821583299   2.870465431890613  11.673616748318732 
 -3.746085833018612   9.335176326578317   5.002978606422314 
  1.232936873728584   9.328690219468379   5.002978606422314 
  2.502435682763257   2.880992045781651   5.002978606422314 
  6.210419684024974   9.337140447592343   5.002978606422314 
  7.451201825101654   2.871227993598243   5.002978606422314 
 12.443692996604645   2.871190233520491   5.002978606422314 
 -1.251181710164625   5.026588609750929  11.673616748318732 
 -2.496697677411411  11.493892899354396  11.673616748318732 
  2.481850140278040  11.493631129810511  11.673616748318732 
  3.727013473208775   5.026287229700102  11.673616748318732 
  7.460802842474144  11.493846853483367  11.673616748318732 
 -4.989200869106243  11.491979091820333   5.002978606422314 
  8.706274091952286   5.026268107959664  11.673616748318732 
 -0.011417402693109  11.491388150160809   5.002978606422314 
  1.256844450096128   5.038419346223480   5.002978606422314 
 -0.013626221091690   7.183427086012473   5.002978606422314 
  6.229264153849822   5.007253471861530   5.002978606422314 
  4.970296000804343  11.493138589476404   5.002978606422314 
 11.194676948602311   5.023670072924324   5.002978606422314 
 -2.495948437441999   7.182416273038676  11.673616748318732 
  3.726633916366134   0.714613621260289  11.673616748318732 
  7.461390148798056   7.182330608607271  11.673616748318732 
  8.705315919249266   0.714272201466050  11.673616748318732 
 13.684438191546777   0.714503027760529  11.673616748318732 
  0.008481180711080   1.442725353713389   1.669242687445370 
  3.740294132685252   7.909564694048589   1.674891832982782 
  4.987184992424098   1.442953021236879   1.671866661234568 
  8.721281817372166   7.909729402608432   1.669099948139620 
  9.966262252305736   1.441871178372511   1.667684119761208 
 -4.969689802259682  10.066377278801854   8.337846974514544 
  0.008768823123707  10.065539211757422   8.336285568531087 
  1.252713845411634   3.597749673535787   8.334200932968422 
  4.986912820069585  10.066539638735687   8.335986341184809 
  6.230645333231819   3.596149886011757   8.331065379861887 
 11.210337809049641   3.597023144205613   8.337725611060876 
 -2.481206383831917  10.065454817058642   1.668944538326579 
 -1.235708293678063   3.597724737597817   1.669242687445370 
  3.742186953448504   3.598637216796382   1.674730764042926 
  2.496787328762948  10.065369426539837   1.669836174655786 
  7.475872546881027  10.065998278443152   1.668793577880423 
  8.721949774349385   3.597265865775713   1.669970871659805 
 -6.214718446695900  12.222450485004753   8.336876119154931 
 -1.236145692400928  12.221794403726097   8.336285568531087 
  0.008884331885774   5.752856211045022   8.334056228402689 
  4.983748562158437   5.751863571605303   8.333956915358057 
  3.742442504574879  12.221843198592943   8.338273093083487 
  9.965960805989248   5.753038898336952   8.337163634964257 
 -2.479949370969459   5.753640691309455   1.669081093689603 
 -3.726175769010482  12.222039888751722   1.669638366127179 
  1.252291774554463  12.220990983822245   1.668518864126146 
  2.498219034440726   5.753252855503595   1.674730764042926 
  6.230896634374152  12.221668252044072   1.668231601783672 
  7.477426492233011   5.753849149423809   1.674759698590630 
 -1.236033618912698   7.908987166713528   8.336318846717434 
  0.008481180711081   1.442725353713390   8.336714525399003 
  3.740294132685252   7.909564694048590   8.331065379861887 
  4.987184992424099   1.442953021236880   8.334090551610061 
  8.721281817372166   7.909729402608433   8.336857264705021 
 -3.724649217742042   7.909903728932005   1.668110238330057 
  9.966262252305736   1.441871178372512   8.338273093083487 
  2.497176097993653   1.443008448090849   1.671900984441926 
  1.253840778037332   7.909294882698117   1.671866661234568 
  6.232307088027549   7.910459218997573   1.674759698590630 
  7.475873595206731   1.441339037790717   1.669836174655786 
  1.253840778037332   7.909294882698118   8.334090551610061 
 12.454613894985346   1.441684689583233   1.667927842388377 
 -2.481206383831917  10.065454817058642   8.337012674518009 
 -1.235708293678063   3.597724737597818   8.336714525399003 
  3.742186953448505   3.598637216796383   8.331226448801701 
  2.496787328762948  10.065369426539837   8.336121038189042 
  7.475872546881028  10.065998278443152   8.337163634964257 
  8.721949774349385   3.597265865775714   8.335986341184809 
 -4.969689802259683  10.066377278801854   1.668110238330057 
  0.008768823123707  10.065539211757422   1.669671644313541 
  1.252713845411634   3.597749673535787   1.671756279876259 
  4.986912820069584  10.066539638735687   1.669970871659805 
  6.230645333231818   3.596149886011756   1.674891832982782 
 11.210337809049641   3.597023144205612   1.668231601783672 
 -2.479949370969459   5.753640691309456   8.336876119154931 
 -3.726175769010481  12.222039888751722   8.336318846717434 
  1.252291774554463  12.220990983822245   8.337438348718521 
  2.498219034440727   5.753252855503596   8.331226448801701 
  6.230896634374153  12.221668252044072   8.337725611060876 
 -6.214718446695901  12.222450485004753   1.669081093689603 
  7.477426492233012   5.753849149423810   8.331197514254050 
 -1.236145692400928  12.221794403726097   1.669671644313541 
  0.008884331885773   5.752856211045021   1.671900984441926 
 -1.236033618912699   7.908987166713527   1.669638366127179 
  4.983748562158437   5.751863571605302   1.672000297486437 
  3.742442504574878  12.221843198592943   1.667684119761208 
  9.965960805989248   5.753038898336951   1.668793577880423 
 -3.724649217742027   7.909903728932006   8.337846974514544 
  2.497176097993654   1.443008448090850   8.334056228402689 
  6.232307088027550   7.910459218997574   8.331197514254050 
  7.475873595206732   1.441339037790717   8.336121038189042 
 12.454613894985346   1.441684689583234   8.338029370456290 
  4.978083198845964   5.748592672571789   5.002978606422314 
  1.252542839283523   0.723279482851992   1.669094676756214 
  4.986844102712658   7.190416949387598   1.684721016408096 
  6.231428544180096   0.723357253298806   1.669331179250850 
  9.965488162116984   7.190709672054814   1.668561068708746 
 11.210040346118740   0.723129816118720   1.666416959360027 
 -3.726121525842102   9.346702724700696   8.338435528419195 
  1.252774338425193   9.346639290982834   8.336626033593832 
  2.496829308859440   2.879329663976675   8.335937594299327 
  6.231270610628287   9.346980799943283   8.334411138295723 
  7.476451885082413   2.878807486689851   8.334871039535244 
 12.454570313196610   2.878912612657741   8.338617276157583 
 -1.236729911971720   9.346583432559513   1.668445769982000 
  0.007267908156280   2.878691126400166   1.667461638276494 
  4.987473017237252   2.879605097772969   1.669745103843945 
  3.741960667586199   9.347136015813089   1.671086173309249 
  8.720695637262882   9.346753569984079   1.668561068708746 
  9.965715386471439   2.878722836848095   1.667754799770726 
 -4.970787207926039  11.502720923372589   8.337985474912523 
  0.007795502009152  11.502480725862471   8.337621001981777 
  1.252601598270508   5.034395274901826   8.335937594299327 
  6.231120102294891   5.035267699472606   8.321236196436386 
  4.986519109367306  11.502943769650319   8.338202413074010 
 11.210190750331584   5.034823059175554   8.337915277865186 
 -1.236735865205544   5.034836673226319   1.669094676756214 
 -2.481529028931775  11.502638748351217   1.668445769982000 
  2.496982593080377  11.502642767506611   1.667594067648574 
  3.742103825704494   5.034999648775800   1.661530453011538 
  7.475994356938212  11.502640937973375   1.668041934979296 
  8.720972435717268   5.034690743192176   1.671546074549026 
  0.008267351415928   7.190599163061310   8.336761861287760 
  1.252542839283524   0.723279482851992   8.336862536088374 
  4.986844102712659   7.190416949387599   8.321236196436386 
  6.231428544180097   0.723357253298807   8.336626033593832 
  9.965488162116984   7.190709672054815   8.337396144136083 
 -2.481287835812742   7.190781525461509   1.667971737932064 
 11.210040346118740   0.723129816118721   8.339540253484561 
  3.741989528316836   0.723602651322219   1.669195351556962 
  2.498161985123812   7.191218281235197   1.669745103843945 
  7.476269058323629   7.190920951026961   1.674471637043123 
  8.720686452824925   0.722871471166456   1.667594067648574 
  2.498161985123813   7.191218281235198   8.336212109000670 
 13.699267996501900   0.723032985109687   1.667339936687084 
 -1.236729911971719   9.346583432559513   8.337511442862828 
  0.007267908156280   2.878691126400167   8.338495574568039 
  4.987473017237253   2.879605097772970   8.336212109000670 
  3.741960667586200   9.347136015813089   8.334871039535244 
  8.720695637262882   9.346753569984079   8.337396144136083 
  9.965715386471439   2.878722836848095   8.338202413074010 
 -3.726121525842103   9.346702724700696   1.667521684425500 