Species order:X N B                     
   2.51242800000000     
     5.9449720136058266    0.0000000000000000    0.0000000000000000
    -2.9724860068029120    5.1484967885702053   -0.0000000000000001
     0.0000000000000000    0.0000000000000009    5.3101128803662583
   C    O    N    B 
     1     1   143   143
Direct
  0.4406785619853941  0.3870059476593713  0.3750000000000000
  0.5554941228875965  0.4444137281104625  0.3750000000000000
  0.1118166387677642  0.0559154822316290  0.1251075715135181
  0.6118131404160579  0.5558786619884822  0.1262788492323423
  0.4451606322691192  0.0559214945299730  0.1251252986401888
  0.9451492643206181  0.5559012918701333  0.1250675747368889
  0.7784744901788495  0.0559039117560893  0.1249068622755691
  0.1118214167130500  0.7225773750231873  0.6250103326732571
  0.4451606322691192  0.7225724710724896  0.6248747013598146
  0.2784630146856068  0.2225959818882854  0.6248230991532596
  0.7784887474761826  0.7225988725378475  0.6247086831130600
  0.6118331519421786  0.2225556132680004  0.6247431551702863
  0.9451268329596401  0.2225637403742279  0.6250239556381459
  0.2784838687848640  0.7225681527546739  0.1250589324807590
  0.1117599019783548  0.2225466176558414  0.1249851665467834
  0.4452245534276134  0.2226172751973142  0.1251563245019051
  0.6118331519421786  0.7226108720075073  0.1252568448297036
  0.9451492643206181  0.7225813057838503  0.1250675747368889
  0.7784883658333148  0.2225490691355658  0.1250071405684576
  0.1118289155709279  0.8892554021718942  0.6249765987562693
  0.4451403325047205  0.8892368329190286  0.6249492795610888
  0.2784630146856068  0.3892003661306325  0.6248230991532596
  0.6118131404160579  0.3892678117609084  0.6237211507676469
  0.7784883658333148  0.8892726300310799  0.6249928594315499
  0.9451493226968983  0.3892334373908078  0.6249713371121919
  0.1118166387677642  0.3892344898694582  0.1251075715135181
  0.2784838687848640  0.8892490493635314  0.1250589324807590
  0.6117999663000808  0.8892493600774628  0.1249950928363866
  0.4451608451196519  0.3892470892264945  0.1245405924941365
  0.9451493226968983  0.8892492186394221  0.1250286628877974
  0.7784887474761826  0.3892232082716462  0.1252913168869490
  0.2784998811036952  0.5558927486115325  0.6248848823718136
  0.1118166387677642  0.0559154822316290  0.6248924284864792
  0.6118131404160579  0.5558786619884822  0.6237211507676469
  0.4451606322691192  0.0559214945299730  0.6248747013598146
  0.9451492643206181  0.5559012918701333  0.6249324252631262
  0.1118289155709279  0.5559068467323687  0.1250234012437283
  0.7784744901788495  0.0559039117560893  0.6250931377244282
  0.2784998811036952  0.0559404658254996  0.1251151176281931
  0.4452245534276134  0.5559406115636440  0.1251563245019051
  0.7785019176286481  0.5559176254809894  0.1255106034403390
  0.6117999663000808  0.0558839395559497  0.1249950928363866
  0.4452245534276134  0.5559406115636440  0.6248436754980944
  0.9451268329596401  0.0558964259187422  0.1249760443618566
  0.2784838687848640  0.7225681527546739  0.6249410675192562
  0.1117599019783548  0.2225466176558414  0.6250148334532099
  0.4452245534276134  0.2226172751973142  0.6248436754980944
  0.6118331519421786  0.7226108720075073  0.6247431551702863
  0.9451492643206181  0.7225813057838503  0.6249324252631262
  0.7784883658333148  0.2225490691355659  0.6249928594315499
  0.1118214167130500  0.7225773750231873  0.1249896673267475
  0.4451606322691192  0.7225724710724896  0.1251252986401888
  0.2784630146856068  0.2225959818882854  0.1251769008467429
  0.7784887474761826  0.7225988725378454  0.1252913168869490
  0.6118331519421786  0.2225556132680004  0.1252568448297036
  0.9451268329596401  0.2225637403742279  0.1249760443618566
  0.1118166387677642  0.3892344898694582  0.6248924284864792
  0.2784838687848640  0.8892490493635314  0.6249410675192562
  0.6117999663000808  0.8892493600774628  0.6250049071636158
  0.4451608451196519  0.3892470892264945  0.6254594075058706
  0.9451493226968983  0.8892492186394221  0.6249713371121919
  0.1118289155709279  0.8892554021718942  0.1250234012437283
  0.7784887474761826  0.3892232082716462  0.6247086831130600
  0.4451403325047205  0.8892368329190286  0.1250507204389106
  0.2784630146856068  0.3892003661306325  0.1251769008467429
  0.2784998811036952  0.5558927486115325  0.1251151176281931
  0.6118131404160579  0.3892678117609085  0.1262788492323423
  0.7784883658333148  0.8892726300310799  0.1250071405684576
  0.9451493226968983  0.3892334373908078  0.1250286628877974
  0.1118289155709279  0.5559068467323687  0.6249765987562693
  0.2784998811036952  0.0559404658254996  0.6248848823718136
  0.7785019176286481  0.5559176254809894  0.6244893965596565
  0.6117999663000808  0.0558839395559497  0.6250049071636158
  0.9451268329596401  0.0558964259187422  0.6250239556381459
  0.0552822928413738  0.1110306714737451  0.3750000000000000
  0.5544545417096395  0.6095962784281967  0.3750000000000000
  0.3875566615368814  0.1106109037931630  0.3750000000000000
  0.8875782587965316  0.6104557960649379  0.3750000000000000
  0.7214029926608935  0.1107865088128346  0.3750000000000000
  0.0549450076804675  0.7774705185876805  0.8750000000000000
  0.3882888687225054  0.7774748886563999  0.8750000000000000
  0.2216066649371023  0.2774699991352214  0.8750000000000000
  0.7216115152443902  0.7774738176749603  0.8750000000000000
  0.5549516602154192  0.2774807734562025  0.8750000000000000
  0.8882814986396796  0.2774794340405560  0.8750000000000000
  0.2209958281395380  0.7771645807364302  0.3750000000000000
  0.0552822928413738  0.2775849547009646  0.3750000000000000
  0.3901264798693266  0.2794380259861927  0.3750000000000000
  0.5545855469200015  0.7769209212209562  0.3750000000000000
  0.8876312511573381  0.7770883496584395  0.3750000000000000
  0.7211897692366355  0.2774941459642496  0.3750000000000000
  0.0549483032615901  0.9441343867609623  0.8750000000000000
  0.3882888687225054  0.9441473133994321  0.8750000000000000
  0.2216118753662968  0.4441418753388597  0.8750000000000000
  0.5549513321846794  0.4441423327590040  0.8750000000000000
  0.7216100790561069  0.9441396405047167  0.8750000000000000
  0.8882755014731782  0.4441410302023562  0.8750000000000000
  0.0549292095509105  0.4440294237622580  0.3750000000000000
  0.2210436025803157  0.9435896586683986  0.3750000000000000
  0.5546468496685478  0.9439900915009386  0.3750000000000000
  0.3901264798693267  0.4440217872164701  0.3750000000000000
  0.8881527592669566  0.9440939990591835  0.3750000000000000
  0.7204088626359364  0.4441984260436609  0.3750000000000000
  0.2216145699484526  0.6108075465080174  0.8750000000000000
  0.0549508582713184  0.1108023026002480  0.8750000000000000
  0.5549516602154192  0.6108042200925607  0.8750000000000000
  0.3882871903563857  0.1108159671345030  0.8750000000000000
  0.8882697835275283  0.6108015584304212  0.8750000000000000
  0.0543154304788890  0.6105224947867289  0.3750000000000000
  0.7216100790561069  0.1108037718847456  0.8750000000000000
  0.2224337285490126  0.1112022157723711  0.3750000000000000
  0.3875566615368815  0.6102790910770635  0.3750000000000000
  0.7204088626359364  0.6095437699255909  0.3750000000000000
  0.5545855469200015  0.1109979590323851  0.3750000000000000
  0.3882871903563853  0.6108045565552080  0.8750000000000000
  0.8882804667243419  0.1108069000288405  0.3750000000000000
  0.2216155743504197  0.7774744538418698  0.8750000000000000
  0.0549508582713184  0.2774818890044056  0.8750000000000000
  0.3882807335251391  0.2774746162757223  0.8750000000000000
  0.5549437455633253  0.7774706012404867  0.8750000000000000
  0.8882755014731782  0.7774678046041493  0.8750000000000000
  0.7216115152443902  0.2774710309027721  0.8750000000000000
  0.0543154304788890  0.7771262690255004  0.3750000000000000
  0.3878478760412060  0.7771822699067666  0.3750000000000000
  0.2223961538123473  0.2778647435728377  0.3750000000000000
  0.7211897692366355  0.7770289566057056  0.3750000000000000
  0.5544545417096395  0.2781915966147813  0.3750000000000000
  0.8881527592669566  0.2773920935411132  0.3750000000000000
  0.0549483032615901  0.4441472498339629  0.8750000000000000
  0.2216145699484525  0.9441403567738016  0.8750000000000000
  0.5549416014338251  0.9441374673835902  0.8750000000000000
  0.3882807335251391  0.4441394505827515  0.8750000000000000
  0.8882814986396796  0.9441353979324693  0.8750000000000000
  0.0549292095509105  0.9442331191219814  0.3750000000000000
  0.7216062897663605  0.4441358259827963  0.8750000000000000
  0.3878478760412060  0.9439989394677699  0.3750000000000000
  0.2224337285490128  0.4445648461099820  0.3750000000000000
  0.2210436025803157  0.6107872772452382  0.3750000000000000
  0.7214029926608935  0.9439498171813770  0.3750000000000000
  0.8876312511573381  0.4438762348322383  0.3750000000000000
  0.0549450076804675  0.6108078224261013  0.8750000000000000
  0.2216118753662968  0.1108033333607711  0.8750000000000000
  0.7216062897663605  0.6108037971169074  0.8750000000000000
  0.5549437455633253  0.1108064776561693  0.8750000000000000
  0.8882828537506638  0.1108080935420017  0.8750000000000000
  0.1112254368606806  0.0558102062068446  0.3750000000000000
  0.6106060172850776  0.5568372702011384  0.3750000000000000
  0.4431386899296924  0.0552871637751851  0.3750000000000000
  0.9433851202331345  0.5549314175877370  0.3750000000000000
  0.7771458981638434  0.0552396157485908  0.3750000000000000
  0.1105207073952104  0.7219270203642701  0.8750000000000000
  0.4438487849145178  0.7219065693304191  0.8750000000000000
  0.2771171906932884  0.2219028587053127  0.8750000000000000
  0.7771791101525244  0.7219403745342605  0.8750000000000000
  0.6104359679824310  0.2218847851622991  0.8750000000000000
  0.9438042457447838  0.2219005893661241  0.8750000000000000
  0.2766254197816557  0.7217094445193669  0.3750000000000000
  0.1116510221795284  0.2224921777564249  0.3750000000000000
  0.4419179700695723  0.2219051924411822  0.3750000000000000
  0.6098496584197789  0.7212133359487646  0.3750000000000000
  0.9433851202331345  0.7217870359787236  0.3750000000000000
  0.7770232030253009  0.2218419277989029  0.3750000000000000
  0.1105240232007862  0.8885972129563452  0.8750000000000000
  0.4438546047220365  0.8885939690276825  0.8750000000000000
  0.2771171906932883  0.3885476653213029  0.8750000000000000
  0.6104269420529692  0.3885439552551049  0.8750000000000000
  0.7771818868939904  0.8886045167458630  0.8750000000000000
  0.9437923090914488  0.3885562792032099  0.8750000000000000
  0.1112254368606806  0.3887485639871633  0.3750000000000000
  0.2766254197816557  0.8882493085956147  0.3750000000000000
  0.6100453871933784  0.8881448420458227  0.3750000000000000
  0.9436795503602420  0.8886416643240846  0.3750000000000000
  0.7767123884345651  0.3882075898013908  0.3750000000000000
  0.2771243455682468  0.5552121393979582  0.8750000000000000
  0.1105306543917743  0.0552671413359875  0.8750000000000000
  0.6104269420529692  0.5552163201311947  0.8750000000000000
  0.4438487849145183  0.0552755489174336  0.8750000000000000
  0.9437792610855074  0.5552185262248706  0.8750000000000000
  0.1101808877993139  0.5550892513254785  0.3750000000000000
  0.7771820572043802  0.0552576952688609  0.8750000000000000
  0.2767568558253317  0.0547519013832388  0.3750000000000000
  0.4419179700695723  0.5533461109617203  0.3750000000000000
  0.7771965413601185  0.5552649373467256  0.3750000000000000
  0.6100453871933784  0.0552338784808918  0.3750000000000000
  0.4438302462194066  0.5552264139010256  0.8750000000000000
  0.9441000847193759  0.0554666814144835  0.3750000000000000
  0.2771302505793053  0.7218906609646635  0.8750000000000000
  0.1105360853052356  0.2219347093192810  0.8750000000000000
  0.4438302462194066  0.2219371656517189  0.8750000000000000
  0.6104359679824310  0.7218845161534891  0.8750000000000000
  0.9437792610855074  0.7218940681939595  0.8750000000000000
  0.7771818868939904  0.2219107034814504  0.8750000000000000
  0.1100392450223174  0.7216862891778304  0.3750000000000000
  0.4431386899296924  0.7211848594878464  0.3750000000000000
  0.2789026245131820  0.2227244977420899  0.3750000000000000
  0.7767123884345651  0.7218381319664955  0.3750000000000000
  0.6098496584197789  0.2219696558043410  0.3750000000000000
  0.9441000847193759  0.2219667366382278  0.3750000000000000
  0.1105306543917743  0.3885968463891191  0.8750000000000000
  0.2771302505793053  0.8885729229479800  0.8750000000000000
  0.6104384975968267  0.8885526859986027  0.8750000000000000
  0.4438137611069951  0.3885735472201577  0.8750000000000000
  0.9437923090914488  0.8885693632215608  0.8750000000000000
  0.1101808877993139  0.8884249698071776  0.3750000000000000
  0.7771791101525244  0.3885720689515733  0.8750000000000000
  0.4434252369316854  0.8883792851325174  0.3750000000000000
  0.2789026245131820  0.3895114601044283  0.3750000000000000
  0.2767568558253306  0.5553382877754434  0.3750000000000000
  0.6106060172850776  0.3871020804172741  0.3750000000000000
  0.7770232030253009  0.8885146085597253  0.3750000000000000
  0.9436795503602420  0.3883712193694964  0.3750000000000000
  0.1105240232007862  0.5552601435777772  0.8750000000000000
  0.2771243455682468  0.0552455395036227  0.8750000000000000
  0.7771737086850067  0.5552535210091770  0.8750000000000000
  0.6104384975968267  0.0552191449315509  0.8750000000000000
  0.9438042457447838  0.0552369897119904  0.8750000000000000
  0.0563351201513317  0.1115345945699802  0.1251186657061577
  0.5561535032443400  0.6114747267074035  0.1255420993730161
  0.3896727298778782  0.1115521951513130  0.1253153465733688
  0.8896415867475682  0.6114874600404651  0.1251079666318933
  0.7229847243152315  0.1114685597560139  0.1250018427237834
  0.0563817700389708  0.7782141664661338  0.6249662174108094
  0.3896617692693207  0.7781493769566253  0.6248491816827242
  0.2229382400042541  0.2781357866687971  0.6246929270997054
  0.7229917692277011  0.7782267182309919  0.6248267529930009
  0.5561535032443400  0.2780121098702768  0.6244579006269869
  0.8895822596914764  0.2780796199465063  0.6249571205709649
  0.2229523717643665  0.7781428525488522  0.1250963178353509
  0.0563351201513317  0.2781338589146864  0.1251186657061577
  0.3896450665348696  0.2782044010987567  0.1255300263946567
  0.5562303387132878  0.7781362511559596  0.1251631507462542
  0.8896089913844822  0.7781848666058103  0.1250850025426497
  0.7229917692277011  0.2780983843300697  0.1251732470069981
  0.0563670945011982  0.9448964461516476  0.6248934466099526
  0.3896617692693207  0.9448457256460222  0.6248491816827242
  0.2229664816462871  0.4447433348743703  0.6246820807186955
  0.5559998579488717  0.4446665956411002  0.6246746366749233
  0.7229847243152315  0.9448494978925388  0.6249981572762218
  0.8896089913844822  0.4447574581120234  0.6249149974573543
  0.0563670945011982  0.4448039816828678  0.1251065533900401
  0.2229614494051026  0.9448647036675394  0.1251483239392528
  0.5562338959603396  0.9447836146468533  0.1250644112777340
  0.3896450665348696  0.4447739987694496  0.1255300263946567
  0.8895822596914764  0.9448359730783049  0.1250428794290285
  0.7230306447643295  0.4448200972181007  0.1255321951937352
  0.2229614494051026  0.6114300790708994  0.6248516760607455
  0.0563351201513317  0.1115345945699802  0.6248813342938231
  0.5561535032443400  0.6114747267074035  0.6244579006269869
  0.3896727298778782  0.1115521951513130  0.6246846534266312
  0.8896415867475682  0.6114874600404651  0.6248920333681082
  0.0563817700389704  0.6115009369061568  0.1250337825891892
  0.7229847243152315  0.1114685597560139  0.6249981572762218
  0.2229664816462871  0.1115564801052507  0.1253179192813039
  0.3896727298778782  0.6114538680599085  0.1253153465733688
  0.7230306447643295  0.6115438808795834  0.1255321951937352
  0.5562303387132878  0.1114274208906771  0.1251631507462542
  0.3896727298778782  0.6114538680599085  0.6246846534266312
  0.8895749519290522  0.1114541426311949  0.1250201110379973
  0.2229523717643665  0.7781428525488522  0.6249036821646463
  0.0563351201513317  0.2781338589146864  0.6248813342938231
  0.3896450665348696  0.2782044010987567  0.6244699736053427
  0.5562303387132878  0.7781362511559596  0.6248368492537614
  0.8896089913844822  0.7781848666058103  0.6249149974573543
  0.7229917692277011  0.2780983843300697  0.6248267529930009
  0.0563817700389708  0.7782141664661338  0.1250337825891892
  0.3896617692693207  0.7781493769566253  0.1251508183172755
  0.2229382400042541  0.2781357866687971  0.1253070729002989
  0.7229917692277011  0.7782267182309919  0.1251732470069981
  0.5561535032443400  0.2780121098702768  0.1255420993730161
  0.8895822596914764  0.2780796199465063  0.1250428794290285
  0.0563670945011982  0.4448039816828678  0.6248934466099526
  0.2229614494051026  0.9448647036675394  0.6248516760607455
  0.5562338959603396  0.9447836146468533  0.6249355887222686
  0.3896450665348696  0.4447739987694496  0.6244699736053427
  0.8895822596914764  0.9448359730783049  0.6249571205709649
  0.0563670945011982  0.9448964461516476  0.1251065533900401
  0.7230306447643295  0.4448200972181007  0.6244678048062694
  0.3896617692693207  0.9448457256460222  0.1251508183172755
  0.2229664816462871  0.4447433348743703  0.1253179192813039
  0.2229614494051026  0.6114300790708994  0.1251483239392528
  0.5559998579488717  0.4446665956411002  0.1253253633250667
  0.7229847243152315  0.9448494978925388  0.1250018427237834
  0.8896089913844822  0.4447574581120234  0.1250850025426497
  0.0563817700389708  0.6115009369061568  0.6249662174108094
  0.2229664816462871  0.1115564801052507  0.6246820807186955
  0.7230306447643295  0.6115438808795834  0.6244678048062694
  0.5562303387132878  0.1114274208906771  0.6248368492537614
  0.8895749519290522  0.1114541426311949  0.6249798889620063
 
  0.00000000E+00  0.00000000E+00  0.00000000E+00
  0.00000000E+00  0.00000000E+00  0.00000000E+00
  0.00000000E+00  0.00000000E+00  0.00000000E+00
  0.00000000E+00  0.00000000E+00  0.00000000E+00
  0.00000000E+00  0.00000000E+00  0.00000000E+00
  0.00000000E+00  0.00000000E+00  0.00000000E+00
  0.00000000E+00  0.00000000E+00  0.00000000E+00
  0.00000000E+00  0.00000000E+00  0.00000000E+00
  0.00000000E+00  0.00000000E+00  0.00000000E+00
  0.00000000E+00  0.00000000E+00  0.00000000E+00
  0.00000000E+00  0.00000000E+00  0.00000000E+00
  0.00000000E+00  0.00000000E+00  0.00000000E+00
  0.00000000E+00  0.00000000E+00  0.00000000E+00
  0.00000000E+00  0.00000000E+00  0.00000000E+00
  0.00000000E+00  0.00000000E+00  0.00000000E+00
  0.00000000E+00  0.00000000E+00  0.00000000E+00
  0.00000000E+00  0.00000000E+00  0.00000000E+00
  0.00000000E+00  0.00000000E+00  0.00000000E+00
  0.00000000E+00  0.00000000E+00  0.00000000E+00
  0.00000000E+00  0.00000000E+00  0.00000000E+00
  0.00000000E+00  0.00000000E+00  0.00000000E+00
  0.00000000E+00  0.00000000E+00  0.00000000E+00
  0.00000000E+00  0.00000000E+00  0.00000000E+00
  0.00000000E+00  0.00000000E+00  0.00000000E+00
  0.00000000E+00  0.00000000E+00  0.00000000E+00
  0.00000000E+00  0.00000000E+00  0.00000000E+00
  0.00000000E+00  0.00000000E+00  0.00000000E+00
  0.00000000E+00  0.00000000E+00  0.00000000E+00
  0.00000000E+00  0.00000000E+00  0.00000000E+00
  0.00000000E+00  0.00000000E+00  0.00000000E+00
  0.00000000E+00  0.00000000E+00  0.00000000E+00
  0.00000000E+00  0.00000000E+00  0.00000000E+00
  0.00000000E+00  0.00000000E+00  0.00000000E+00
  0.00000000E+00  0.00000000E+00  0.00000000E+00
  0.00000000E+00  0.00000000E+00  0.00000000E+00
  0.00000000E+00  0.00000000E+00  0.00000000E+00
  0.00000000E+00  0.00000000E+00  0.00000000E+00
  0.00000000E+00  0.00000000E+00  0.00000000E+00
  0.00000000E+00  0.00000000E+00  0.00000000E+00
  0.00000000E+00  0.00000000E+00  0.00000000E+00
  0.00000000E+00  0.00000000E+00  0.00000000E+00
  0.00000000E+00  0.00000000E+00  0.00000000E+00
  0.00000000E+00  0.00000000E+00  0.00000000E+00
  0.00000000E+00  0.00000000E+00  0.00000000E+00
  0.00000000E+00  0.00000000E+00  0.00000000E+00
  0.00000000E+00  0.00000000E+00  0.00000000E+00
  0.00000000E+00  0.00000000E+00  0.00000000E+00
  0.00000000E+00  0.00000000E+00  0.00000000E+00
  0.00000000E+00  0.00000000E+00  0.00000000E+00
  0.00000000E+00  0.00000000E+00  0.00000000E+00
  0.00000000E+00  0.00000000E+00  0.00000000E+00
  0.00000000E+00  0.00000000E+00  0.00000000E+00
  0.00000000E+00  0.00000000E+00  0.00000000E+00
  0.00000000E+00  0.00000000E+00  0.00000000E+00
  0.00000000E+00  0.00000000E+00  0.00000000E+00
  0.00000000E+00  0.00000000E+00  0.00000000E+00
  0.00000000E+00  0.00000000E+00  0.00000000E+00
  0.00000000E+00  0.00000000E+00  0.00000000E+00
  0.00000000E+00  0.00000000E+00  0.00000000E+00
  0.00000000E+00  0.00000000E+00  0.00000000E+00
  0.00000000E+00  0.00000000E+00  0.00000000E+00
  0.00000000E+00  0.00000000E+00  0.00000000E+00
  0.00000000E+00  0.00000000E+00  0.00000000E+00
  0.00000000E+00  0.00000000E+00  0.00000000E+00
  0.00000000E+00  0.00000000E+00  0.00000000E+00
  0.00000000E+00  0.00000000E+00  0.00000000E+00
  0.00000000E+00  0.00000000E+00  0.00000000E+00
  0.00000000E+00  0.00000000E+00  0.00000000E+00
  0.00000000E+00  0.00000000E+00  0.00000000E+00
  0.00000000E+00  0.00000000E+00  0.00000000E+00
  0.00000000E+00  0.00000000E+00  0.00000000E+00
  0.00000000E+00  0.00000000E+00  0.00000000E+00
  0.00000000E+00  0.00000000E+00  0.00000000E+00
  0.00000000E+00  0.00000000E+00  0.00000000E+00
  0.00000000E+00  0.00000000E+00  0.00000000E+00
  0.00000000E+00  0.00000000E+00  0.00000000E+00
  0.00000000E+00  0.00000000E+00  0.00000000E+00
  0.00000000E+00  0.00000000E+00  0.00000000E+00
  0.00000000E+00  0.00000000E+00  0.00000000E+00
  0.00000000E+00  0.00000000E+00  0.00000000E+00
  0.00000000E+00  0.00000000E+00  0.00000000E+00
  0.00000000E+00  0.00000000E+00  0.00000000E+00
  0.00000000E+00  0.00000000E+00  0.00000000E+00
  0.00000000E+00  0.00000000E+00  0.00000000E+00
  0.00000000E+00  0.00000000E+00  0.00000000E+00
  0.00000000E+00  0.00000000E+00  0.00000000E+00
  0.00000000E+00  0.00000000E+00  0.00000000E+00
  0.00000000E+00  0.00000000E+00  0.00000000E+00
  0.00000000E+00  0.00000000E+00  0.00000000E+00
  0.00000000E+00  0.00000000E+00  0.00000000E+00
  0.00000000E+00  0.00000000E+00  0.00000000E+00
  0.00000000E+00  0.00000000E+00  0.00000000E+00
  0.00000000E+00  0.00000000E+00  0.00000000E+00
  0.00000000E+00  0.00000000E+00  0.00000000E+00
  0.00000000E+00  0.00000000E+00  0.00000000E+00
  0.00000000E+00  0.00000000E+00  0.00000000E+00
  0.00000000E+00  0.00000000E+00  0.00000000E+00
  0.00000000E+00  0.00000000E+00  0.00000000E+00
  0.00000000E+00  0.00000000E+00  0.00000000E+00
  0.00000000E+00  0.00000000E+00  0.00000000E+00
  0.00000000E+00  0.00000000E+00  0.00000000E+00
  0.00000000E+00  0.00000000E+00  0.00000000E+00
  0.00000000E+00  0.00000000E+00  0.00000000E+00
  0.00000000E+00  0.00000000E+00  0.00000000E+00
  0.00000000E+00  0.00000000E+00  0.00000000E+00
  0.00000000E+00  0.00000000E+00  0.00000000E+00
  0.00000000E+00  0.00000000E+00  0.00000000E+00
  0.00000000E+00  0.00000000E+00  0.00000000E+00
  0.00000000E+00  0.00000000E+00  0.00000000E+00
  0.00000000E+00  0.00000000E+00  0.00000000E+00
  0.00000000E+00  0.00000000E+00  0.00000000E+00
  0.00000000E+00  0.00000000E+00  0.00000000E+00
  0.00000000E+00  0.00000000E+00  0.00000000E+00
  0.00000000E+00  0.00000000E+00  0.00000000E+00
  0.00000000E+00  0.00000000E+00  0.00000000E+00
  0.00000000E+00  0.00000000E+00  0.00000000E+00
  0.00000000E+00  0.00000000E+00  0.00000000E+00
  0.00000000E+00  0.00000000E+00  0.00000000E+00
  0.00000000E+00  0.00000000E+00  0.00000000E+00
  0.00000000E+00  0.00000000E+00  0.00000000E+00
  0.00000000E+00  0.00000000E+00  0.00000000E+00
  0.00000000E+00  0.00000000E+00  0.00000000E+00
  0.00000000E+00  0.00000000E+00  0.00000000E+00
  0.00000000E+00  0.00000000E+00  0.00000000E+00
  0.00000000E+00  0.00000000E+00  0.00000000E+00
  0.00000000E+00  0.00000000E+00  0.00000000E+00
  0.00000000E+00  0.00000000E+00  0.00000000E+00
  0.00000000E+00  0.00000000E+00  0.00000000E+00
  0.00000000E+00  0.00000000E+00  0.00000000E+00
  0.00000000E+00  0.00000000E+00  0.00000000E+00
  0.00000000E+00  0.00000000E+00  0.00000000E+00
  0.00000000E+00  0.00000000E+00  0.00000000E+00
  0.00000000E+00  0.00000000E+00  0.00000000E+00
  0.00000000E+00  0.00000000E+00  0.00000000E+00
  0.00000000E+00  0.00000000E+00  0.00000000E+00
  0.00000000E+00  0.00000000E+00  0.00000000E+00
  0.00000000E+00  0.00000000E+00  0.00000000E+00
  0.00000000E+00  0.00000000E+00  0.00000000E+00
  0.00000000E+00  0.00000000E+00  0.00000000E+00
  0.00000000E+00  0.00000000E+00  0.00000000E+00
  0.00000000E+00  0.00000000E+00  0.00000000E+00
  0.00000000E+00  0.00000000E+00  0.00000000E+00
  0.00000000E+00  0.00000000E+00  0.00000000E+00
  0.00000000E+00  0.00000000E+00  0.00000000E+00
  0.00000000E+00  0.00000000E+00  0.00000000E+00
  0.00000000E+00  0.00000000E+00  0.00000000E+00
  0.00000000E+00  0.00000000E+00  0.00000000E+00
  0.00000000E+00  0.00000000E+00  0.00000000E+00
  0.00000000E+00  0.00000000E+00  0.00000000E+00
  0.00000000E+00  0.00000000E+00  0.00000000E+00
  0.00000000E+00  0.00000000E+00  0.00000000E+00
  0.00000000E+00  0.00000000E+00  0.00000000E+00
  0.00000000E+00  0.00000000E+00  0.00000000E+00
  0.00000000E+00  0.00000000E+00  0.00000000E+00
  0.00000000E+00  0.00000000E+00  0.00000000E+00
  0.00000000E+00  0.00000000E+00  0.00000000E+00
  0.00000000E+00  0.00000000E+00  0.00000000E+00
  0.00000000E+00  0.00000000E+00  0.00000000E+00
  0.00000000E+00  0.00000000E+00  0.00000000E+00
  0.00000000E+00  0.00000000E+00  0.00000000E+00
  0.00000000E+00  0.00000000E+00  0.00000000E+00
  0.00000000E+00  0.00000000E+00  0.00000000E+00
  0.00000000E+00  0.00000000E+00  0.00000000E+00
  0.00000000E+00  0.00000000E+00  0.00000000E+00
  0.00000000E+00  0.00000000E+00  0.00000000E+00
  0.00000000E+00  0.00000000E+00  0.00000000E+00
  0.00000000E+00  0.00000000E+00  0.00000000E+00
  0.00000000E+00  0.00000000E+00  0.00000000E+00
  0.00000000E+00  0.00000000E+00  0.00000000E+00
  0.00000000E+00  0.00000000E+00  0.00000000E+00
  0.00000000E+00  0.00000000E+00  0.00000000E+00
  0.00000000E+00  0.00000000E+00  0.00000000E+00
  0.00000000E+00  0.00000000E+00  0.00000000E+00
  0.00000000E+00  0.00000000E+00  0.00000000E+00
  0.00000000E+00  0.00000000E+00  0.00000000E+00
  0.00000000E+00  0.00000000E+00  0.00000000E+00
  0.00000000E+00  0.00000000E+00  0.00000000E+00
  0.00000000E+00  0.00000000E+00  0.00000000E+00
  0.00000000E+00  0.00000000E+00  0.00000000E+00
  0.00000000E+00  0.00000000E+00  0.00000000E+00
  0.00000000E+00  0.00000000E+00  0.00000000E+00
  0.00000000E+00  0.00000000E+00  0.00000000E+00
  0.00000000E+00  0.00000000E+00  0.00000000E+00
  0.00000000E+00  0.00000000E+00  0.00000000E+00
  0.00000000E+00  0.00000000E+00  0.00000000E+00
  0.00000000E+00  0.00000000E+00  0.00000000E+00
  0.00000000E+00  0.00000000E+00  0.00000000E+00
  0.00000000E+00  0.00000000E+00  0.00000000E+00
  0.00000000E+00  0.00000000E+00  0.00000000E+00
  0.00000000E+00  0.00000000E+00  0.00000000E+00
  0.00000000E+00  0.00000000E+00  0.00000000E+00
  0.00000000E+00  0.00000000E+00  0.00000000E+00
  0.00000000E+00  0.00000000E+00  0.00000000E+00
  0.00000000E+00  0.00000000E+00  0.00000000E+00
  0.00000000E+00  0.00000000E+00  0.00000000E+00
  0.00000000E+00  0.00000000E+00  0.00000000E+00
  0.00000000E+00  0.00000000E+00  0.00000000E+00
  0.00000000E+00  0.00000000E+00  0.00000000E+00
  0.00000000E+00  0.00000000E+00  0.00000000E+00
  0.00000000E+00  0.00000000E+00  0.00000000E+00
  0.00000000E+00  0.00000000E+00  0.00000000E+00
  0.00000000E+00  0.00000000E+00  0.00000000E+00
  0.00000000E+00  0.00000000E+00  0.00000000E+00
  0.00000000E+00  0.00000000E+00  0.00000000E+00
  0.00000000E+00  0.00000000E+00  0.00000000E+00
  0.00000000E+00  0.00000000E+00  0.00000000E+00
  0.00000000E+00  0.00000000E+00  0.00000000E+00
  0.00000000E+00  0.00000000E+00  0.00000000E+00
  0.00000000E+00  0.00000000E+00  0.00000000E+00
  0.00000000E+00  0.00000000E+00  0.00000000E+00
  0.00000000E+00  0.00000000E+00  0.00000000E+00
  0.00000000E+00  0.00000000E+00  0.00000000E+00
  0.00000000E+00  0.00000000E+00  0.00000000E+00
  0.00000000E+00  0.00000000E+00  0.00000000E+00
  0.00000000E+00  0.00000000E+00  0.00000000E+00
  0.00000000E+00  0.00000000E+00  0.00000000E+00
  0.00000000E+00  0.00000000E+00  0.00000000E+00
  0.00000000E+00  0.00000000E+00  0.00000000E+00
  0.00000000E+00  0.00000000E+00  0.00000000E+00
  0.00000000E+00  0.00000000E+00  0.00000000E+00
  0.00000000E+00  0.00000000E+00  0.00000000E+00
  0.00000000E+00  0.00000000E+00  0.00000000E+00
  0.00000000E+00  0.00000000E+00  0.00000000E+00
  0.00000000E+00  0.00000000E+00  0.00000000E+00
  0.00000000E+00  0.00000000E+00  0.00000000E+00
  0.00000000E+00  0.00000000E+00  0.00000000E+00
  0.00000000E+00  0.00000000E+00  0.00000000E+00
  0.00000000E+00  0.00000000E+00  0.00000000E+00
  0.00000000E+00  0.00000000E+00  0.00000000E+00
  0.00000000E+00  0.00000000E+00  0.00000000E+00
  0.00000000E+00  0.00000000E+00  0.00000000E+00
  0.00000000E+00  0.00000000E+00  0.00000000E+00
  0.00000000E+00  0.00000000E+00  0.00000000E+00
  0.00000000E+00  0.00000000E+00  0.00000000E+00
  0.00000000E+00  0.00000000E+00  0.00000000E+00
  0.00000000E+00  0.00000000E+00  0.00000000E+00
  0.00000000E+00  0.00000000E+00  0.00000000E+00
  0.00000000E+00  0.00000000E+00  0.00000000E+00
  0.00000000E+00  0.00000000E+00  0.00000000E+00
  0.00000000E+00  0.00000000E+00  0.00000000E+00
  0.00000000E+00  0.00000000E+00  0.00000000E+00
  0.00000000E+00  0.00000000E+00  0.00000000E+00
  0.00000000E+00  0.00000000E+00  0.00000000E+00
  0.00000000E+00  0.00000000E+00  0.00000000E+00
  0.00000000E+00  0.00000000E+00  0.00000000E+00
  0.00000000E+00  0.00000000E+00  0.00000000E+00
  0.00000000E+00  0.00000000E+00  0.00000000E+00