 B N Al 
 1.0
 17.527899999999772   0.000000000000000   0.000000000000000
 -8.763949999999658  15.179606674993195   0.000000000000000
  0.000000000000001   0.000000000000002  15.000000000000000
 B N Al 
  48  48   1
Cartesian
  7.528560483609715  14.461562886293299   1.665193672750800 
 15.028155463503920   1.443248635024700   1.665528255819045 
 13.772792051643671   3.611057489654861   1.665548719526715 
 12.527432758253951   5.781198317999406   1.665235304695935 
 11.288037382402846   7.951836393076404   1.665919987704450 
 10.044017644330943  10.119737783328796   1.666187074465020 
  8.786586708013965  12.290145286324824   1.665740207625390 
 -7.496636850315805  14.447943540849217   1.665095108191875 
  0.004167117509340   1.428931280073254   1.665193672750800 
 -1.255782795281057   3.601536085216655   1.664978452875990 
 -2.507368431849727   5.776222078006843   1.665360382145175 
 -3.747562611212734   7.948266101462266   1.665464927430345 
 -4.988188633610866  10.116593340431777   1.665997707685890 
 -6.239740948123350  12.283096305062008   1.665751299200985 
 -4.993376197715335  14.441863377531556   1.665751299200985 
  2.513683033508808   1.425157411096334   1.665740207625390 
  1.239563402817390   3.573155690404808   1.664954191853250 
 -0.017731233159018   5.764194838543293   1.664821695367680 
 -1.256026131046328   7.942870946231314   1.665810793158480 
 -2.487541632368470  10.112471949016944   1.665918636994170 
 -3.738285137675721  12.278058167847135   1.665087750995865 
 -2.491353435697571  14.441238761313612   1.665997707685890 
  5.021991108504768   1.421394028239354   1.666187074465020 
  3.764112238320683   3.576703634013137   1.665220630481970 
  2.440092362440994   5.727047121369623   1.664766214079220 
  1.235432367228771   7.928955620838611   1.665695733655815 
  0.017754192428734  10.109507849534538   1.666390487394285 
 -1.237460705412214  12.277675628047701   1.665918636994170 
  0.006786048166879  14.450988728805507   1.665464927430345 
  7.521494081737764   1.427992027385996   1.665919987704450 
  6.275469979979469   3.577412849032833   1.665389296122810 
  5.036766552784771   5.667889429722194   1.664915448923985 
  2.515006904158158  10.145243730871780   1.665695733655815 
  1.257226629737388  12.295952420141207   1.665810793158480 
  2.507928440281455  14.462971075579237   1.665360382145175 
 10.021019485084338   1.439963184104424   1.665235304695935 
  8.776990176621638   3.599228827411099   1.664923986550065 
  7.547783582203156   5.762043354332339   1.664728271430255 
  6.373814758063675   7.983724853464206   1.664915448923985 
  5.024245599095909  10.202931821829596   1.664766214079220 
  3.763162934539656  12.312895635038096   1.664821695367680 
  5.017054573576296  14.466409115694105   1.664978452875990 
 12.523096218915342   1.446520813362123   1.665548719526715 
 11.274306088162449   3.610534582375514   1.665591512116485 
 10.035439203400239   5.778926480527145   1.664923986550065 
  8.803572296554449   7.956214508103378   1.665389296122810 
  7.548507623948908  10.131468717880471   1.665220630481970 
  6.289305815502005  12.319566114309824   1.664954191853250 
  8.778024565347346  13.730200045862535   1.665025065091500 
 16.282265714994686   0.719181476802139   1.665049171030080 
 15.022893075702966   2.885828994894814   1.665168392034975 
 13.770966828212750   5.055407539622153   1.665170197733430 
 12.527078284865782   7.225481286400282   1.665156827032020 
 11.282404683795809   9.393842559126027   1.666074553313025 
 10.032440226660526  11.561218747447711   1.665807527890380 
 -6.245730042336547  13.725725891600218   1.665100895446275 
  1.262272530253536   0.712535663991305   1.665025065091500 
 -0.004327243978382   2.868384131558146   1.664773456467390 
 -1.260484343755963   5.045503755142390   1.664712288830790 
 -2.504131361010066   7.220469880220675   1.665202148883525 
 -3.742359867996733   9.391579753257146   1.665521031434160 
 -4.992258856332495  11.558965043456819   1.665186230845140 
 -3.742524510916690  13.723568425680577   1.665186230845140 
  3.767873265670851   0.710670483596396   1.665807527890380 
  2.513295958179707   2.876117109985239   1.665172065606240 
  1.224509626137855   5.006442590049399   1.664344115396760 
 -0.013494899228075   7.210438867154246   1.665212065187055 
 -1.237232227713459   9.387609274585831   1.665896789770815 
 -2.488595569127485  11.556543292111376   1.665295328075730 
 -1.240564295647306  13.724816794717137   1.665521031434160 
  6.269858332882452   0.711857604050417   1.666074553313025 
  5.019637738965903   2.879780092863404   1.665448055941155 
  3.764445520076089   5.059868891664398   1.664471058100245 
  2.429001603008913   7.128762482155099   1.665046120162305 
  1.275847695865411   9.383140959718546   1.665863980593360 
  0.015438059888762  11.557297857845002   1.665896789770815 
  1.258786262285255  13.738034388494775   1.665202148883525 
  8.770051080162684   0.718119282466815   1.665156827032020 
  7.521773101978327   2.881599103578692   1.665176253388365 
  6.280729683142362   5.052497302116928   1.664674622977380 
  3.804773680734444   9.511669620440692   1.665046120162305 
  2.512791605317352  11.586095447533125   1.665212065187055 
  3.764185687600687  13.748487540751110   1.664712288830790 
 11.271334344631734   0.725917077840930   1.665170197733430 
 10.017727013120874   2.888263403576953   1.665065892989100 
  8.774789690881088   5.053624780248652   1.664367635846760 
  7.528736111716042   7.214107844579081   1.664674622977380 
  6.264185473698861   9.389588058176402   1.664471058100245 
  5.040510633819451  11.615950217118506   1.664344115396760 
  6.277705138608638  13.749183392991613   1.664773456467390 
 13.776207603633942   0.726506416213528   1.665168392034975 
 12.520812571825561   2.890857461554965   1.665457237874475 
 11.271528598920327   5.059868891664398   1.665065892989100 
 10.029310810115554   7.224781815936726   1.665176253388365 
  8.779818438089809   9.392604109385756   1.665448055941155 
  7.529819783922809  11.564991253552121   1.665172065606240 
  4.038986125955520   7.787842243287674   1.666283815275570 
