B N O                                   
   1.0000000000000000     
     8.7639499999999995  -15.1796066749929999    0.0000000000000000
     8.7639499999999995   15.1796066749929999    0.0000000000000000
     0.0000000000000000    0.0000000000000000   15.0000000000000000
   B    N    O 
    49    48     1
Selective dynamics
Direct
  0.9047515510704396  0.9521563771375572  0.1109977065361366   T   T   T
  0.9048119657501315  0.0951900554458652  0.1110551885415874   T   T   T
  0.9048119657501315  0.2381932166302650  0.1110551885415874   T   T   T
  0.9047515510704396  0.3811681918148840  0.1109977065361366   T   T   T
  0.9046110711107442  0.5239056334506392  0.1110207169012427   T   T   T
  0.9046238200981174  0.6665984189905575  0.1110704087361365   T   T   T
  0.9046110711107442  0.8092784555431094  0.1110207169012427   T   T   T
  0.0476923483340446  0.9523096728619588  0.1109978253349653   T   T   T
  0.0478456440584462  0.0952504701255566  0.1109977065361366   T   T   T
  0.0478183788910182  0.2381956983865101  0.1109825634177654   T   T   T
  0.0478456440584462  0.3811681918148840  0.1109977065361366   T   T   T
  0.0476923483340447  0.5239574049110849  0.1109978253349653   T   T   T
  0.0475889971103777  0.6667074387226539  0.1110136990379844   T   T   T
  0.0475889971103777  0.8094562878267234  0.1110136990379844   T   T   T
  0.1905457333692804  0.9524130240856257  0.1110136990379844   T   T   T
  0.1907235656528944  0.0953909500852519  0.1110207169012427   T   T   T
  0.1905336449554876  0.2381703844977828  0.1109893237028176   T   T   T
  0.1905336449554876  0.3809362783397064  0.1109893237028176   T   T   T
  0.1907235656528944  0.5239056334506392  0.1110207169012427   T   T   T
  0.1905457333692804  0.6667074387226539  0.1110136990379844   T   T   T
  0.1904764376510002  0.8095255835450033  0.1109772270927119   T   T   T
  0.3332945824743446  0.9524130240856257  0.1110136990379844   T   T   T
  0.3334036022064413  0.0953782010978783  0.1110704087361365   T   T   T
  0.3333997885778721  0.2381893964149445  0.1110582414525242   T   T   T
  0.3327163651715926  0.3806446915262961  0.1109471225273648   T   T   T
  0.3333997885778721  0.5237834100449295  0.1110582414525242   T   T   T
  0.3334036022064413  0.6665984189905575  0.1110704087361365   T   T   T
  0.3332945824743446  0.8094562878267234  0.1110136990379844   T   T   T
  0.4760446162859133  0.9523096728619588  0.1109978253349653   T   T   T
  0.4760963877463594  0.0953909500852519  0.1110207169012427   T   T   T
  0.4762186111520691  0.2381893964149445  0.1110582414525242   T   T   T
  0.4749131180191970  0.3783972327233980  0.1112892670417228   T   T   T
  0.4749131180191970  0.5250889031778008  0.1112892670417228   T   T   T
  0.4762186111520692  0.6666022326191265  0.1110582414525242   T   T   T
  0.4760963877463594  0.8092784555431094  0.1110207169012427   T   T   T
  0.6188338293811195  0.9521563771375572  0.1109977065361366   T   T   T
  0.6188338293811195  0.0952504701255566  0.1109977065361366   T   T   T
  0.6190657428562963  0.2381703844977828  0.1109893237028176   T   T   T
  0.6193573296697069  0.3806446915262961  0.1109471225273648   T   T   T
  0.6216047884726059  0.5250889031778008  0.1112892670417228   T   T   T
  0.6193573296697069  0.6672856560254059  0.1109471225273648   T   T   T
  0.6190657428562963  0.8094683762405157  0.1109893237028176   T   T   T
  0.7618063228094935  0.9521836423049854  0.1109825634177654   T   T   T
  0.7618088045657382  0.0951900554458652  0.1110551885415874   T   T   T
  0.7618063228094935  0.2381956983865101  0.1109825634177654   T   T   T
  0.7618316366982208  0.3809362783397064  0.1109893237028176   T   T   T
  0.7618126247810590  0.5237834100449295  0.1110582414525242   T   T   T
  0.7618126247810590  0.6666022326191265  0.1110582414525242   T   T   T
  0.7618316366982208  0.8094683762405157  0.1109893237028176   T   T   T
  0.9522725304609113  0.9047924070937207  0.1109852753919485   T   T   T
  0.9523229812126097  0.0476784207053962  0.1110040336818917   T   T   T
  0.9522832799607820  0.1904264373568910  0.1110270342001257   T   T   T
  0.9523229812126097  0.3332141552602135  0.1110040336818917   T   T   T
  0.9522725304609113  0.4760514296761866  0.1109852753919485   T   T   T
  0.9522592289352300  0.6189562544533069  0.1110292413743446   T   T   T
  0.9522592289352300  0.7618742807919202  0.1110292413743446   T   T   T
  0.0951862190664101  0.9048151828515885  0.1109863337883772   T   T   T
  0.0952089948242780  0.0477288714570942  0.1109852753919485   T   T   T
  0.0950837160302252  0.1904672487630263  0.1109725549221029   T   T   T
  0.0950837160302253  0.3331877735762018  0.1109725549221029   T   T   T
  0.0952089948242780  0.4760514296761866  0.1109852753919485   T   T   T
  0.0951862190664101  0.6189440540808218  0.1109863337883772   T   T   T
  0.0951979617713395  0.7618854898186735  0.1109798631182793   T   T   T
  0.2381159120993322  0.9048034401466589  0.1109798631182793   T   T   T
  0.2381271211260850  0.0477421729827754  0.1110292413743446   T   T   T
  0.2381593839512120  0.1906993129642017  0.1109953059095279   T   T   T
  0.2378811051918957  0.3332262057504456  0.1109281220512909   T   T   T
  0.2381593839512120  0.4760313772960059  0.1109953059095279   T   T   T
  0.2381271211260850  0.6189562544533069  0.1110292413743446   T   T   T
  0.2381159120993322  0.7618854898186735  0.1109798631182793   T   T   T
  0.3810573478371770  0.9048151828515885  0.1109863337883772   T   T   T
  0.3810451474646912  0.0477421729827754  0.1110292413743446   T   T   T
  0.3810742352073383  0.1907183748066752  0.1110734138306826   T   T   T
  0.3812694636367362  0.3339363894942761  0.1110721702478674   T   T   T
  0.3812694636367362  0.4759043804514564  0.1110721702478674   T   T   T
  0.3810742352073383  0.6189271667106604  0.1110734138306826   T   T   T
  0.3810451474646912  0.7618742807919202  0.1110292413743446   T   T   T
  0.5239499722408102  0.9047924070937207  0.1109852753919485   T   T   T
  0.5239499722408102  0.0477288714570942  0.1109852753919485   T   T   T
  0.5239700246209906  0.1906993129642017  0.1109953059095279   T   T   T
  0.5240970214655406  0.3339363894942761  0.1110721702478674   T   T   T
  0.5240970214655406  0.6187319382812622  0.1110721702478674   T   T   T
  0.5239700246209906  0.7618420179667937  0.1109953059095279   T   T   T
  0.6668136283407951  0.9049176858877733  0.1109725549221029   T   T   T
  0.6667872466567835  0.0476784207053962  0.1110040336818917   T   T   T
  0.6668136283407949  0.1904672487630263  0.1109725549221029   T   T   T
  0.6667751961665506  0.3332262057504456  0.1109281220512909   T   T   T
  0.6660650124227208  0.4759043804514564  0.1110721702478674   T   T   T
  0.6660650124227208  0.6187319382812622  0.1110721702478674   T   T   T
  0.6667751961665506  0.7621202967261101  0.1109281220512909   T   T   T
  0.8095341531549720  0.9049176858877733  0.1109725549221029   T   T   T
  0.8095749645611069  0.0477181219572237  0.1110270342001257   T   T   T
  0.8095749645611069  0.1904264373568910  0.1110270342001257   T   T   T
  0.8095341531549720  0.3331877735762018  0.1109725549221029   T   T   T
  0.8093020889537967  0.4760313772960059  0.1109953059095279   T   T   T
  0.8092830271113229  0.6189271667106604  0.1110734138306826   T   T   T
  0.8093020889537967  0.7618420179667937  0.1109953059095279   T   T   T
  0.5238104991749992  0.4761909027419975  0.1111538312377280   T   T   T

  0.00000000E+00  0.00000000E+00  0.00000000E+00
  0.00000000E+00  0.00000000E+00  0.00000000E+00
  0.00000000E+00  0.00000000E+00  0.00000000E+00
  0.00000000E+00  0.00000000E+00  0.00000000E+00
  0.00000000E+00  0.00000000E+00  0.00000000E+00
  0.00000000E+00  0.00000000E+00  0.00000000E+00
  0.00000000E+00  0.00000000E+00  0.00000000E+00
  0.00000000E+00  0.00000000E+00  0.00000000E+00
  0.00000000E+00  0.00000000E+00  0.00000000E+00
  0.00000000E+00  0.00000000E+00  0.00000000E+00
  0.00000000E+00  0.00000000E+00  0.00000000E+00
  0.00000000E+00  0.00000000E+00  0.00000000E+00
  0.00000000E+00  0.00000000E+00  0.00000000E+00
  0.00000000E+00  0.00000000E+00  0.00000000E+00
  0.00000000E+00  0.00000000E+00  0.00000000E+00
  0.00000000E+00  0.00000000E+00  0.00000000E+00
  0.00000000E+00  0.00000000E+00  0.00000000E+00
  0.00000000E+00  0.00000000E+00  0.00000000E+00
  0.00000000E+00  0.00000000E+00  0.00000000E+00
  0.00000000E+00  0.00000000E+00  0.00000000E+00
  0.00000000E+00  0.00000000E+00  0.00000000E+00
  0.00000000E+00  0.00000000E+00  0.00000000E+00
  0.00000000E+00  0.00000000E+00  0.00000000E+00
  0.00000000E+00  0.00000000E+00  0.00000000E+00
  0.00000000E+00  0.00000000E+00  0.00000000E+00
  0.00000000E+00  0.00000000E+00  0.00000000E+00
  0.00000000E+00  0.00000000E+00  0.00000000E+00
  0.00000000E+00  0.00000000E+00  0.00000000E+00
  0.00000000E+00  0.00000000E+00  0.00000000E+00
  0.00000000E+00  0.00000000E+00  0.00000000E+00
  0.00000000E+00  0.00000000E+00  0.00000000E+00
  0.00000000E+00  0.00000000E+00  0.00000000E+00
  0.00000000E+00  0.00000000E+00  0.00000000E+00
  0.00000000E+00  0.00000000E+00  0.00000000E+00
  0.00000000E+00  0.00000000E+00  0.00000000E+00
  0.00000000E+00  0.00000000E+00  0.00000000E+00
  0.00000000E+00  0.00000000E+00  0.00000000E+00
  0.00000000E+00  0.00000000E+00  0.00000000E+00
  0.00000000E+00  0.00000000E+00  0.00000000E+00
  0.00000000E+00  0.00000000E+00  0.00000000E+00
  0.00000000E+00  0.00000000E+00  0.00000000E+00
  0.00000000E+00  0.00000000E+00  0.00000000E+00
  0.00000000E+00  0.00000000E+00  0.00000000E+00
  0.00000000E+00  0.00000000E+00  0.00000000E+00
  0.00000000E+00  0.00000000E+00  0.00000000E+00
  0.00000000E+00  0.00000000E+00  0.00000000E+00
  0.00000000E+00  0.00000000E+00  0.00000000E+00
  0.00000000E+00  0.00000000E+00  0.00000000E+00
  0.00000000E+00  0.00000000E+00  0.00000000E+00
  0.00000000E+00  0.00000000E+00  0.00000000E+00
  0.00000000E+00  0.00000000E+00  0.00000000E+00
  0.00000000E+00  0.00000000E+00  0.00000000E+00
  0.00000000E+00  0.00000000E+00  0.00000000E+00
  0.00000000E+00  0.00000000E+00  0.00000000E+00
  0.00000000E+00  0.00000000E+00  0.00000000E+00
  0.00000000E+00  0.00000000E+00  0.00000000E+00
  0.00000000E+00  0.00000000E+00  0.00000000E+00
  0.00000000E+00  0.00000000E+00  0.00000000E+00
  0.00000000E+00  0.00000000E+00  0.00000000E+00
  0.00000000E+00  0.00000000E+00  0.00000000E+00
  0.00000000E+00  0.00000000E+00  0.00000000E+00
  0.00000000E+00  0.00000000E+00  0.00000000E+00
  0.00000000E+00  0.00000000E+00  0.00000000E+00
  0.00000000E+00  0.00000000E+00  0.00000000E+00
  0.00000000E+00  0.00000000E+00  0.00000000E+00
  0.00000000E+00  0.00000000E+00  0.00000000E+00
  0.00000000E+00  0.00000000E+00  0.00000000E+00
  0.00000000E+00  0.00000000E+00  0.00000000E+00
  0.00000000E+00  0.00000000E+00  0.00000000E+00
  0.00000000E+00  0.00000000E+00  0.00000000E+00
  0.00000000E+00  0.00000000E+00  0.00000000E+00
  0.00000000E+00  0.00000000E+00  0.00000000E+00
  0.00000000E+00  0.00000000E+00  0.00000000E+00
  0.00000000E+00  0.00000000E+00  0.00000000E+00
  0.00000000E+00  0.00000000E+00  0.00000000E+00
  0.00000000E+00  0.00000000E+00  0.00000000E+00
  0.00000000E+00  0.00000000E+00  0.00000000E+00
  0.00000000E+00  0.00000000E+00  0.00000000E+00
  0.00000000E+00  0.00000000E+00  0.00000000E+00
  0.00000000E+00  0.00000000E+00  0.00000000E+00
  0.00000000E+00  0.00000000E+00  0.00000000E+00
  0.00000000E+00  0.00000000E+00  0.00000000E+00
  0.00000000E+00  0.00000000E+00  0.00000000E+00
  0.00000000E+00  0.00000000E+00  0.00000000E+00
  0.00000000E+00  0.00000000E+00  0.00000000E+00
  0.00000000E+00  0.00000000E+00  0.00000000E+00
  0.00000000E+00  0.00000000E+00  0.00000000E+00
  0.00000000E+00  0.00000000E+00  0.00000000E+00
  0.00000000E+00  0.00000000E+00  0.00000000E+00
  0.00000000E+00  0.00000000E+00  0.00000000E+00
  0.00000000E+00  0.00000000E+00  0.00000000E+00
  0.00000000E+00  0.00000000E+00  0.00000000E+00
  0.00000000E+00  0.00000000E+00  0.00000000E+00
  0.00000000E+00  0.00000000E+00  0.00000000E+00
  0.00000000E+00  0.00000000E+00  0.00000000E+00
  0.00000000E+00  0.00000000E+00  0.00000000E+00
  0.00000000E+00  0.00000000E+00  0.00000000E+00
  0.00000000E+00  0.00000000E+00  0.00000000E+00
