Species order: X N B                    
   2.51242800000000     
     5.9449720136058266    0.0000000000000000    0.0000000000000000
    -2.9724860068029120    5.1484967885702053   -0.0000000000000001
     0.0000000000000000    0.0000000000000009    5.3101128803662583
   Ga   N    B 
     1   144   143
Direct
  0.4444444444444429  0.3888888888888857  0.3750000000000000
  0.1110917795298826  0.0555389357963009  0.1244950452034585
  0.6111332765654365  0.5555889670800717  0.1240007332173789
  0.4444471562664067  0.0555389357963009  0.1244950452034585
  0.9444439081168974  0.5555563892009658  0.1250277075734926
  0.7777777777777786  0.0555555555555571  0.1250861970120847
  0.1111111111111143  0.7222222222222214  0.6249166607263484
  0.4444471562664067  0.7222415538034623  0.6255049547965367
  0.2777443662532463  0.2222000567679043  0.6259992667826394
  0.7777943975370704  0.7222415538034623  0.6255049547965367
  0.6111203191642062  0.2222130141691055  0.6257029571600337
  0.9444358157319840  0.2222201857015520  0.6250677714236914
  0.2777769441323453  0.7222208522492456  0.1250277075734926
  0.1110926950048916  0.2222130141691055  0.1242970428399971
  0.4444556905146284  0.2222000567679043  0.1240007332173789
  0.6111203191642062  0.7222406383284476  0.1242970428399971
  0.9444439081168974  0.7222208522492456  0.1250277075734926
  0.7777843699695319  0.2222201857015520  0.1249322285762855
  0.1111124810840957  0.8888894252164312  0.6249722924264853
  0.4444522638152080  0.8888927985742766  0.6249473629183058
  0.2777443662532463  0.3888776428187002  0.6259992667826394
  0.6111332765654365  0.3888776428187002  0.6259992667826394
  0.7777843699695319  0.8888975176013446  0.6250677714236914
  0.9444405347590520  0.3888810695181206  0.6249473629183058
  0.1110917795298826  0.3888861770669219  0.1244950452034585
  0.2777769441323453  0.8888894252164312  0.1250277075734926
  0.6111131476317946  0.8888975176013446  0.1249322285762855
  0.4444444444444429  0.3888888888888857  0.1271375086329198
  0.9444405347590520  0.8888927985742766  0.1250526370817144
  0.7777943975370704  0.3888861770669219  0.1244950452034585
  0.2777731206955306  0.5555602126378322  0.6257075146729388
  0.1110917795298826  0.0555389357963009  0.6255049547965367
  0.6111332765654365  0.5555889670800717  0.6259992667826394
  0.4444471562664067  0.0555389357963009  0.6255049547965367
  0.9444439081168974  0.5555563892009658  0.6249722924264853
  0.1111124810840957  0.5555563892009658  0.1250277075734926
  0.7777777777777786  0.0555555555555571  0.6249138029878858
  0.2777731206955306  0.0555462413910464  0.1242924853270887
  0.4444556905146284  0.5555889670800717  0.1240007332173789
  0.7777870919422746  0.5555602126378322  0.1242924853270887
  0.6111131476317946  0.0555489633637888  0.1249322285762855
  0.4444556905146284  0.5555889670800717  0.6259992667826394
  0.9444358157319840  0.0555489633637888  0.1249322285762855
  0.2777769441323453  0.7222208522492456  0.6249722924264853
  0.1110926950048916  0.2222130141691055  0.6257029571600337
  0.4444556905146284  0.2222000567679043  0.6259992667826394
  0.6111203191642062  0.7222406383284476  0.6257029571600337
  0.9444439081168974  0.7222208522492456  0.6249722924264853
  0.7777843699695319  0.2222201857015520  0.6250677714236914
  0.1111111111111143  0.7222222222222214  0.1250833392736645
  0.4444471562664067  0.7222415538034623  0.1244950452034585
  0.2777443662532463  0.2222000567679043  0.1240007332173789
  0.7777943975370704  0.7222415538034623  0.1244950452034585
  0.6111203191642062  0.2222130141691055  0.1242970428399971
  0.9444358157319840  0.2222201857015520  0.1249322285762855
  0.1110917795298826  0.3888861770669219  0.6255049547965367
  0.2777769441323453  0.8888894252164312  0.6249722924264853
  0.6111131476317946  0.8888975176013446  0.6250677714236914
  0.4444444444444429  0.3888888888888857  0.6228624913670728
  0.9444405347590520  0.8888927985742766  0.6249473629183058
  0.1111124810840957  0.8888894252164312  0.1250277075734926
  0.7777943975370704  0.3888861770669219  0.6255049547965367
  0.4444522638152080  0.8888927985742766  0.1250526370817144
  0.2777443662532463  0.3888776428187002  0.1240007332173789
  0.2777731206955306  0.5555602126378322  0.1242924853270887
  0.6111332765654365  0.3888776428187002  0.1240007332173789
  0.7777843699695319  0.8888975176013446  0.1249322285762855
  0.9444405347590520  0.3888810695181206  0.1250526370817144
  0.1111124810840957  0.5555563892009658  0.6249722924264853
  0.2777731206955306  0.0555462413910464  0.6257075146729388
  0.7777870919422746  0.5555602126378322  0.6257075146729388
  0.6111131476317946  0.0555489633637888  0.6250677714236914
  0.9444358157319840  0.0555489633637888  0.6250677714236914
  0.0544470095148790  0.1103678559600049  0.3750000000000000
  0.5561169853937725  0.6122339707875121  0.3750000000000000
  0.3877189972677626  0.1046290094271911  0.3750000000000000
  0.8911363845952117  0.6122348589642885  0.3750000000000000
  0.7224189999383761  0.1109143333949313  0.3750000000000000
  0.0555562978319653  0.7777770355013720  0.8750000000000000
  0.3888917096951237  0.7777795573581501  0.8750000000000000
  0.2222218111794101  0.2777775722563580  0.8750000000000000
  0.7222259943072227  0.7777774552347635  0.8750000000000000
  0.5555557610769724  0.2777775722563580  0.8750000000000000
  0.8888888822147648  0.2777777644295842  0.8750000000000000
  0.2217923353528116  0.7775628343430933  0.3750000000000000
  0.0544470095148790  0.2774124868881995  0.3750000000000000
  0.3778595385246107  0.2557190770491808  0.3750000000000000
  0.5559208464451608  0.7788863238184600  0.3750000000000000
  0.8907040712723401  0.7792437621488028  0.3750000000000000
  0.7229654773733222  0.2774124868881995  0.3750000000000000
  0.0555537759751921  0.9444454856703027  0.8750000000000000
  0.3888917096951237  0.9444454856703027  0.8750000000000000
  0.2222174423325546  0.4444440071154248  0.8750000000000000
  0.5555421394149556  0.4444377363741421  0.8750000000000000
  0.7222236121972393  0.9444472243945227  0.8750000000000000
  0.8888878476630259  0.4444416236382049  0.8750000000000000
  0.0540895711845563  0.4447936424569088  0.3750000000000000
  0.2210984743690445  0.9421969487381169  0.3750000000000000
  0.5558504545012075  0.9445918939172364  0.3750000000000000
  0.3778595385246106  0.4554737948087179  0.3750000000000000
  0.8887414394160922  0.9445918939172364  0.3750000000000000
  0.7287043239061410  0.4456143360655660  0.3750000000000000
  0.2222199769518952  0.6111133563814106  0.8750000000000000
  0.0555558780985936  0.1111073390260895  0.8750000000000000
  0.5555557610769724  0.6111115221539555  0.8750000000000000
  0.3888893262179038  0.1111067685504598  0.8750000000000000
  0.8888933794295396  0.6111133563814106  0.8750000000000000
  0.0557704989902598  0.6115409979804992  0.3750000000000000
  0.7222236121972393  0.1111097211360709  0.8750000000000000
  0.2169100121594121  0.1046290094271911  0.3750000000000000
  0.3877189972677625  0.6164233211738832  0.3750000000000000
  0.7287043239061410  0.6164233211738831  0.3750000000000000
  0.5559208464451608  0.1103678559600049  0.3750000000000000
  0.3888893262179038  0.6111158910007699  0.8750000000000000
  0.8884953334565185  0.1109143333949313  0.3750000000000000
  0.2222207376694083  0.7777770355013720  0.8750000000000000
  0.0555558780985936  0.2777818724058310  0.8750000000000000
  0.3888955969591865  0.2777911939184012  0.8750000000000000
  0.5555514609274599  0.7777774552347635  0.8750000000000000
  0.8888878476630259  0.7777795573581501  0.8750000000000000
  0.7222259943072227  0.2777818724058310  0.8750000000000000
  0.0557704989902598  0.7775628343430933  0.3750000000000000
  0.3885396908764198  0.7792437621488028  0.3750000000000000
  0.2210993625457837  0.2772163479395797  0.3750000000000000
  0.7229654773733222  0.7788863238184600  0.3750000000000000
  0.5561169853937725  0.2772163479395797  0.3750000000000000
  0.8887414394160922  0.2774828788321601  0.3750000000000000
  0.0555537759751921  0.4444416236382049  0.8750000000000000
  0.2222199769518952  0.9444399539037890  0.8750000000000000
  0.5555555689037668  0.9444444511185638  0.8750000000000000
  0.3888955969591865  0.4444377363741421  0.8750000000000000
  0.8888888822147648  0.9444444511185638  0.8750000000000000
  0.0540895711845563  0.9426292620609885  0.3750000000000000
  0.7222265647829101  0.4444440071154248  0.8750000000000000
  0.3885396908764198  0.9426292620609885  0.3750000000000000
  0.2169100121594121  0.4456143360655660  0.3750000000000000
  0.2210984743690445  0.6122348589642885  0.3750000000000000
  0.5776142562841072  0.4554737948087180  0.3750000000000000
  0.7224189999383761  0.9448379998768101  0.3750000000000000
  0.8907040712723401  0.4447936424569088  0.3750000000000000
  0.0555562978319653  0.6111125956639045  0.8750000000000000
  0.2222174423325546  0.1111067685504598  0.8750000000000000
  0.7222265647829101  0.6111158910007699  0.8750000000000000
  0.5555514609274599  0.1111073390260895  0.8750000000000000
  0.8888861089388059  0.1111097211360709  0.8750000000000000
  0.1076642514092672  0.0523713286512690  0.3750000000000000
  0.6192413801639929  0.5624232158820509  0.3750000000000000
  0.4447070772420126  0.0523713286512690  0.3750000000000000
  0.9454158049127531  0.5558626367120694  0.3750000000000000
  0.7777777777777786  0.0555555555555571  0.3750000000000000
  0.1111111111111143  0.7222222222222214  0.8750000000000000
  0.4444441178925942  0.7222310697473229  0.8750000000000000
  0.2777424636308771  0.2222253692898443  0.8750000000000000
  0.7777869518547077  0.7222310697473229  0.8750000000000000
  0.6111016496230548  0.2222316837102737  0.8750000000000000
  0.9444236163571782  0.2222360750934437  0.8750000000000000
  0.2774706966212447  0.7228865015339756  0.3750000000000000
  0.1100693758046294  0.2217013545689899  0.3750000000000000
  0.4431818357180903  0.2140919531693518  0.3750000000000000
  0.6116319787643526  0.7232639575287352  0.3750000000000000
  0.9454158049127531  0.7228865015339756  0.3750000000000000
  0.7779464713704771  0.2217592481791447  0.3750000000000000
  0.1111407483072984  0.8888991239490160  0.8750000000000000
  0.4444765926575511  0.8889049629954006  0.8750000000000000
  0.2777424636308771  0.3888504276743607  0.8750000000000000
  0.6111079640434871  0.3888504276743607  0.8750000000000000
  0.7778124587362989  0.8889097169761504  0.8750000000000000
  0.9444283703379280  0.3888567406757775  0.8750000000000000
  0.1076642514092672  0.3886262560913160  0.3750000000000000
  0.2774706966212447  0.8879175284205755  0.3750000000000000
  0.6115740851542094  0.8895205565246179  0.3750000000000000
  0.9442450080265895  0.8890883253067391  0.3750000000000000
  0.7809620046820349  0.3886262560913160  0.3750000000000000
  0.2777553485571511  0.5555779847761472  0.8750000000000000
  0.1111022635860177  0.0555463814786026  0.8750000000000000
  0.6111079640434871  0.5555908697024464  0.8750000000000000
  0.4444441178925942  0.0555463814786026  0.8750000000000000
  0.9444342093843126  0.5555749576916380  0.8750000000000000
  0.1104468317993578  0.5558626367120694  0.3750000000000000
  0.7777777777777786  0.0555555555555571  0.8750000000000000
  0.2761070167115278  0.0522140334230801  0.3750000000000000
  0.4431818357180903  0.5624232158820509  0.3750000000000000
  0.7811192999102802  0.5572263166217506  0.3750000000000000
  0.6115740851542094  0.0553868619628704  0.3750000000000000
  0.4444829056589679  0.5555908697024464  0.8750000000000000
  0.9438127768087107  0.0553868619628704  0.3750000000000000
  0.2777583756417106  0.7221925850260301  0.8750000000000000
  0.1111300340872291  0.2222316837102737  0.8750000000000000
  0.4444829056589679  0.2222253692898443  0.8750000000000000
  0.6111016496230548  0.7222032992460709  0.8750000000000000
  0.9444342093843126  0.7221925850260301  0.8750000000000000
  0.7778124587362989  0.2222360750934437  0.8750000000000000
  0.1111111111111143  0.7222222222222214  0.3750000000000000
  0.4447070772420126  0.7256690819240668  0.3750000000000000
  0.2709101174512443  0.2140919531693518  0.3750000000000000
  0.7809620046820349  0.7256690819240668  0.3750000000000000
  0.6116319787643526  0.2217013545689899  0.3750000000000000
  0.9438127768087107  0.2217592481791447  0.3750000000000000
  0.1111022635860177  0.3888892154407344  0.8750000000000000
  0.2777583756417106  0.8888991239490160  0.8750000000000000
  0.6110972582398984  0.8889097169761504  0.8750000000000000
  0.4444444444444429  0.3888888888888857  0.8750000000000000
  0.9444283703379280  0.8889049629954006  0.8750000000000000
  0.1104468317993578  0.8879175284205755  0.3750000000000000
  0.7777869518547077  0.3888892154407344  0.8750000000000000
  0.4448433172801087  0.8890883253067391  0.3750000000000000
  0.2709101174512443  0.3901514976152383  0.3750000000000000
  0.2761070167115278  0.5572263166217506  0.3750000000000000
  0.6192413801639929  0.3901514976152383  0.3750000000000000
  0.7779464713704771  0.8895205565246179  0.3750000000000000
  0.9442450080265895  0.3884900160532144  0.3750000000000000
  0.1111407483072984  0.5555749576916380  0.8750000000000000
  0.2777553485571511  0.0555106971143460  0.8750000000000000
  0.7778226362190336  0.5555779847761472  0.8750000000000000
  0.6110972582398984  0.0555208745970657  0.8750000000000000
  0.9444236163571782  0.0555208745970657  0.8750000000000000
  0.0555416257152180  0.1110741031337823  0.1245967141515892
  0.5555932812714025  0.6111865625427791  0.1240763803474891
  0.3888875857849543  0.1110289959589544  0.1241924200555577
  0.8889077771024476  0.6111205552178814  0.1247969821965869
  0.7222417786008568  0.1110915547324521  0.1250118643141002
  0.0555744574489870  0.7777588758843706  0.6249260762996551
  0.3889011499215212  0.7777746661081490  0.6250990533024389
  0.2221467707905739  0.2777400520619461  0.6259236196525116
  0.7222592301996128  0.7777917076181169  0.6254032858484423
  0.5555932812714025  0.2777400520619461  0.6259236196525116
  0.8888873943230905  0.2777747886461936  0.6250010553869638
  0.2221844184353499  0.7777588758843706  0.1250739237003888
  0.0555416257152180  0.2778008559147610  0.1245967141515892
  0.3887822458038345  0.2775644916076755  0.1248316305042361
  0.5555324774185598  0.7777917076181169  0.1245967141515892
  0.8888735161866287  0.7777746661081490  0.1249009466976009
  0.7222592301996128  0.2778008559147610  0.1245967141515892
  0.0555586672251896  0.9444598171466999  0.6250990533024389
  0.3889011499215212  0.9444598171466999  0.6250990533024389
  0.2221414101740160  0.4444457475483743  0.6258075799444536
  0.5557688417256597  0.4445510875294941  0.6251683694957312
  0.7222417786008568  0.9444835572017939  0.6249881356859048
  0.8888735161866287  0.4444321834118074  0.6250990533024389
  0.0555586672251897  0.4444321834118074  0.1249009466976009
  0.2222127781154421  0.9444255562308810  0.1247969821965869
  0.5555585446871436  0.9444459390102381  0.1249989446130612
  0.3887822458038345  0.4445510875294941  0.1248316305042361
  0.8888873943230905  0.9444459390102381  0.1249989446130612
  0.7223043373743652  0.4444457475483743  0.1241924200555577
  0.2222127781154421  0.6111205552178814  0.6252030178034248
  0.0555416257152180  0.1110741031337823  0.6254032858484423
  0.5555932812714025  0.6111865625427791  0.6259236196525116
  0.3888875857849543  0.1110289959589544  0.6258075799444536
  0.8889077771024476  0.6111205552178814  0.6252030178034248
  0.0555744574489870  0.6111489148980055  0.1250739237003888
  0.7222417786008568  0.1110915547324521  0.6249881356859048
  0.2221414101740160  0.1110289959589544  0.1241924200555577
  0.3888875857849543  0.6111919231593235  0.1241924200555577
  0.7223043373743652  0.6111919231593235  0.1241924200555577
  0.5555324774185598  0.1110741031337823  0.1245967141515892
  0.3888875857849543  0.6111919231593235  0.6258075799444536
  0.8888497761315347  0.1110915547324521  0.1250118643141002
  0.2221844184353499  0.7777588758843706  0.6249260762996551
  0.0555416257152180  0.2778008559147610  0.6254032858484423
  0.3887822458038345  0.2775644916076755  0.6251683694957312
  0.5555324774185598  0.7777917076181169  0.6254032858484423
  0.8888735161866287  0.7777746661081490  0.6250990533024389
  0.7222592301996128  0.2778008559147610  0.6254032858484423
  0.0555744574489870  0.7777588758843706  0.1250739237003888
  0.3889011499215212  0.7777746661081490  0.1249009466976009
  0.2221467707905739  0.2777400520619461  0.1240763803474891
  0.7222592301996128  0.7777917076181169  0.1245967141515892
  0.5555932812714025  0.2777400520619461  0.1240763803474891
  0.8888873943230905  0.2777747886461936  0.1249989446130612
  0.0555586672251897  0.4444321834118074  0.6250990533024389
  0.2222127781154421  0.9444255562308810  0.6252030178034248
  0.5555585446871436  0.9444459390102381  0.6250010553869638
  0.3887822458038345  0.4445510875294941  0.6251683694957312
  0.8888873943230905  0.9444459390102381  0.6250010553869638
  0.0555586672251896  0.9444598171466999  0.1249009466976009
  0.7223043373743652  0.4444457475483743  0.6258075799444536
  0.3889011499215212  0.9444598171466999  0.1249009466976009
  0.2221414101740160  0.4444457475483743  0.1241924200555577
  0.2222127781154421  0.6111205552178814  0.1247969821965869
  0.5557688417256597  0.4445510875294941  0.1248316305042361
  0.7222417786008568  0.9444835572017939  0.1250118643141002
  0.8888735161866287  0.4444321834118074  0.1249009466976009
  0.0555744574489870  0.6111489148980055  0.6249260762996551
  0.2221414101740160  0.1110289959589544  0.6258075799444536
  0.7223043373743652  0.6111919231593235  0.6258075799444536
  0.5555324774185598  0.1110741031337823  0.6254032858484423
  0.8888497761315347  0.1110915547324521  0.6249881356859048
 
  0.00000000E+00  0.00000000E+00  0.00000000E+00
  0.00000000E+00  0.00000000E+00  0.00000000E+00
  0.00000000E+00  0.00000000E+00  0.00000000E+00
  0.00000000E+00  0.00000000E+00  0.00000000E+00
  0.00000000E+00  0.00000000E+00  0.00000000E+00
  0.00000000E+00  0.00000000E+00  0.00000000E+00
  0.00000000E+00  0.00000000E+00  0.00000000E+00
  0.00000000E+00  0.00000000E+00  0.00000000E+00
  0.00000000E+00  0.00000000E+00  0.00000000E+00
  0.00000000E+00  0.00000000E+00  0.00000000E+00
  0.00000000E+00  0.00000000E+00  0.00000000E+00
  0.00000000E+00  0.00000000E+00  0.00000000E+00
  0.00000000E+00  0.00000000E+00  0.00000000E+00
  0.00000000E+00  0.00000000E+00  0.00000000E+00
  0.00000000E+00  0.00000000E+00  0.00000000E+00
  0.00000000E+00  0.00000000E+00  0.00000000E+00
  0.00000000E+00  0.00000000E+00  0.00000000E+00
  0.00000000E+00  0.00000000E+00  0.00000000E+00
  0.00000000E+00  0.00000000E+00  0.00000000E+00
  0.00000000E+00  0.00000000E+00  0.00000000E+00
  0.00000000E+00  0.00000000E+00  0.00000000E+00
  0.00000000E+00  0.00000000E+00  0.00000000E+00
  0.00000000E+00  0.00000000E+00  0.00000000E+00
  0.00000000E+00  0.00000000E+00  0.00000000E+00
  0.00000000E+00  0.00000000E+00  0.00000000E+00
  0.00000000E+00  0.00000000E+00  0.00000000E+00
  0.00000000E+00  0.00000000E+00  0.00000000E+00
  0.00000000E+00  0.00000000E+00  0.00000000E+00
  0.00000000E+00  0.00000000E+00  0.00000000E+00
  0.00000000E+00  0.00000000E+00  0.00000000E+00
  0.00000000E+00  0.00000000E+00  0.00000000E+00
  0.00000000E+00  0.00000000E+00  0.00000000E+00
  0.00000000E+00  0.00000000E+00  0.00000000E+00
  0.00000000E+00  0.00000000E+00  0.00000000E+00
  0.00000000E+00  0.00000000E+00  0.00000000E+00
  0.00000000E+00  0.00000000E+00  0.00000000E+00
  0.00000000E+00  0.00000000E+00  0.00000000E+00
  0.00000000E+00  0.00000000E+00  0.00000000E+00
  0.00000000E+00  0.00000000E+00  0.00000000E+00
  0.00000000E+00  0.00000000E+00  0.00000000E+00
  0.00000000E+00  0.00000000E+00  0.00000000E+00
  0.00000000E+00  0.00000000E+00  0.00000000E+00
  0.00000000E+00  0.00000000E+00  0.00000000E+00
  0.00000000E+00  0.00000000E+00  0.00000000E+00
  0.00000000E+00  0.00000000E+00  0.00000000E+00
  0.00000000E+00  0.00000000E+00  0.00000000E+00
  0.00000000E+00  0.00000000E+00  0.00000000E+00
  0.00000000E+00  0.00000000E+00  0.00000000E+00
  0.00000000E+00  0.00000000E+00  0.00000000E+00
  0.00000000E+00  0.00000000E+00  0.00000000E+00
  0.00000000E+00  0.00000000E+00  0.00000000E+00
  0.00000000E+00  0.00000000E+00  0.00000000E+00
  0.00000000E+00  0.00000000E+00  0.00000000E+00
  0.00000000E+00  0.00000000E+00  0.00000000E+00
  0.00000000E+00  0.00000000E+00  0.00000000E+00
  0.00000000E+00  0.00000000E+00  0.00000000E+00
  0.00000000E+00  0.00000000E+00  0.00000000E+00
  0.00000000E+00  0.00000000E+00  0.00000000E+00
  0.00000000E+00  0.00000000E+00  0.00000000E+00
  0.00000000E+00  0.00000000E+00  0.00000000E+00
  0.00000000E+00  0.00000000E+00  0.00000000E+00
  0.00000000E+00  0.00000000E+00  0.00000000E+00
  0.00000000E+00  0.00000000E+00  0.00000000E+00
  0.00000000E+00  0.00000000E+00  0.00000000E+00
  0.00000000E+00  0.00000000E+00  0.00000000E+00
  0.00000000E+00  0.00000000E+00  0.00000000E+00
  0.00000000E+00  0.00000000E+00  0.00000000E+00
  0.00000000E+00  0.00000000E+00  0.00000000E+00
  0.00000000E+00  0.00000000E+00  0.00000000E+00
  0.00000000E+00  0.00000000E+00  0.00000000E+00
  0.00000000E+00  0.00000000E+00  0.00000000E+00
  0.00000000E+00  0.00000000E+00  0.00000000E+00
  0.00000000E+00  0.00000000E+00  0.00000000E+00
  0.00000000E+00  0.00000000E+00  0.00000000E+00
  0.00000000E+00  0.00000000E+00  0.00000000E+00
  0.00000000E+00  0.00000000E+00  0.00000000E+00
  0.00000000E+00  0.00000000E+00  0.00000000E+00
  0.00000000E+00  0.00000000E+00  0.00000000E+00
  0.00000000E+00  0.00000000E+00  0.00000000E+00
  0.00000000E+00  0.00000000E+00  0.00000000E+00
  0.00000000E+00  0.00000000E+00  0.00000000E+00
  0.00000000E+00  0.00000000E+00  0.00000000E+00
  0.00000000E+00  0.00000000E+00  0.00000000E+00
  0.00000000E+00  0.00000000E+00  0.00000000E+00
  0.00000000E+00  0.00000000E+00  0.00000000E+00
  0.00000000E+00  0.00000000E+00  0.00000000E+00
  0.00000000E+00  0.00000000E+00  0.00000000E+00
  0.00000000E+00  0.00000000E+00  0.00000000E+00
  0.00000000E+00  0.00000000E+00  0.00000000E+00
  0.00000000E+00  0.00000000E+00  0.00000000E+00
  0.00000000E+00  0.00000000E+00  0.00000000E+00
  0.00000000E+00  0.00000000E+00  0.00000000E+00
  0.00000000E+00  0.00000000E+00  0.00000000E+00
  0.00000000E+00  0.00000000E+00  0.00000000E+00
  0.00000000E+00  0.00000000E+00  0.00000000E+00
  0.00000000E+00  0.00000000E+00  0.00000000E+00
  0.00000000E+00  0.00000000E+00  0.00000000E+00
  0.00000000E+00  0.00000000E+00  0.00000000E+00
  0.00000000E+00  0.00000000E+00  0.00000000E+00
  0.00000000E+00  0.00000000E+00  0.00000000E+00
  0.00000000E+00  0.00000000E+00  0.00000000E+00
  0.00000000E+00  0.00000000E+00  0.00000000E+00
  0.00000000E+00  0.00000000E+00  0.00000000E+00
  0.00000000E+00  0.00000000E+00  0.00000000E+00
  0.00000000E+00  0.00000000E+00  0.00000000E+00
  0.00000000E+00  0.00000000E+00  0.00000000E+00
  0.00000000E+00  0.00000000E+00  0.00000000E+00
  0.00000000E+00  0.00000000E+00  0.00000000E+00
  0.00000000E+00  0.00000000E+00  0.00000000E+00
  0.00000000E+00  0.00000000E+00  0.00000000E+00
  0.00000000E+00  0.00000000E+00  0.00000000E+00
  0.00000000E+00  0.00000000E+00  0.00000000E+00
  0.00000000E+00  0.00000000E+00  0.00000000E+00
  0.00000000E+00  0.00000000E+00  0.00000000E+00
  0.00000000E+00  0.00000000E+00  0.00000000E+00
  0.00000000E+00  0.00000000E+00  0.00000000E+00
  0.00000000E+00  0.00000000E+00  0.00000000E+00
  0.00000000E+00  0.00000000E+00  0.00000000E+00
  0.00000000E+00  0.00000000E+00  0.00000000E+00
  0.00000000E+00  0.00000000E+00  0.00000000E+00
  0.00000000E+00  0.00000000E+00  0.00000000E+00
  0.00000000E+00  0.00000000E+00  0.00000000E+00
  0.00000000E+00  0.00000000E+00  0.00000000E+00
  0.00000000E+00  0.00000000E+00  0.00000000E+00
  0.00000000E+00  0.00000000E+00  0.00000000E+00
  0.00000000E+00  0.00000000E+00  0.00000000E+00
  0.00000000E+00  0.00000000E+00  0.00000000E+00
  0.00000000E+00  0.00000000E+00  0.00000000E+00
  0.00000000E+00  0.00000000E+00  0.00000000E+00
  0.00000000E+00  0.00000000E+00  0.00000000E+00
  0.00000000E+00  0.00000000E+00  0.00000000E+00
  0.00000000E+00  0.00000000E+00  0.00000000E+00
  0.00000000E+00  0.00000000E+00  0.00000000E+00
  0.00000000E+00  0.00000000E+00  0.00000000E+00
  0.00000000E+00  0.00000000E+00  0.00000000E+00
  0.00000000E+00  0.00000000E+00  0.00000000E+00
  0.00000000E+00  0.00000000E+00  0.00000000E+00
  0.00000000E+00  0.00000000E+00  0.00000000E+00
  0.00000000E+00  0.00000000E+00  0.00000000E+00
  0.00000000E+00  0.00000000E+00  0.00000000E+00
  0.00000000E+00  0.00000000E+00  0.00000000E+00
  0.00000000E+00  0.00000000E+00  0.00000000E+00
  0.00000000E+00  0.00000000E+00  0.00000000E+00
  0.00000000E+00  0.00000000E+00  0.00000000E+00
  0.00000000E+00  0.00000000E+00  0.00000000E+00
  0.00000000E+00  0.00000000E+00  0.00000000E+00
  0.00000000E+00  0.00000000E+00  0.00000000E+00
  0.00000000E+00  0.00000000E+00  0.00000000E+00
  0.00000000E+00  0.00000000E+00  0.00000000E+00
  0.00000000E+00  0.00000000E+00  0.00000000E+00
  0.00000000E+00  0.00000000E+00  0.00000000E+00
  0.00000000E+00  0.00000000E+00  0.00000000E+00
  0.00000000E+00  0.00000000E+00  0.00000000E+00
  0.00000000E+00  0.00000000E+00  0.00000000E+00
  0.00000000E+00  0.00000000E+00  0.00000000E+00
  0.00000000E+00  0.00000000E+00  0.00000000E+00
  0.00000000E+00  0.00000000E+00  0.00000000E+00
  0.00000000E+00  0.00000000E+00  0.00000000E+00
  0.00000000E+00  0.00000000E+00  0.00000000E+00
  0.00000000E+00  0.00000000E+00  0.00000000E+00
  0.00000000E+00  0.00000000E+00  0.00000000E+00
  0.00000000E+00  0.00000000E+00  0.00000000E+00
  0.00000000E+00  0.00000000E+00  0.00000000E+00
  0.00000000E+00  0.00000000E+00  0.00000000E+00
  0.00000000E+00  0.00000000E+00  0.00000000E+00
  0.00000000E+00  0.00000000E+00  0.00000000E+00
  0.00000000E+00  0.00000000E+00  0.00000000E+00
  0.00000000E+00  0.00000000E+00  0.00000000E+00
  0.00000000E+00  0.00000000E+00  0.00000000E+00
  0.00000000E+00  0.00000000E+00  0.00000000E+00
  0.00000000E+00  0.00000000E+00  0.00000000E+00
  0.00000000E+00  0.00000000E+00  0.00000000E+00
  0.00000000E+00  0.00000000E+00  0.00000000E+00
  0.00000000E+00  0.00000000E+00  0.00000000E+00
  0.00000000E+00  0.00000000E+00  0.00000000E+00
  0.00000000E+00  0.00000000E+00  0.00000000E+00
  0.00000000E+00  0.00000000E+00  0.00000000E+00
  0.00000000E+00  0.00000000E+00  0.00000000E+00
  0.00000000E+00  0.00000000E+00  0.00000000E+00
  0.00000000E+00  0.00000000E+00  0.00000000E+00
  0.00000000E+00  0.00000000E+00  0.00000000E+00
  0.00000000E+00  0.00000000E+00  0.00000000E+00
  0.00000000E+00  0.00000000E+00  0.00000000E+00
  0.00000000E+00  0.00000000E+00  0.00000000E+00
  0.00000000E+00  0.00000000E+00  0.00000000E+00
  0.00000000E+00  0.00000000E+00  0.00000000E+00
  0.00000000E+00  0.00000000E+00  0.00000000E+00
  0.00000000E+00  0.00000000E+00  0.00000000E+00
  0.00000000E+00  0.00000000E+00  0.00000000E+00
  0.00000000E+00  0.00000000E+00  0.00000000E+00
  0.00000000E+00  0.00000000E+00  0.00000000E+00
  0.00000000E+00  0.00000000E+00  0.00000000E+00
  0.00000000E+00  0.00000000E+00  0.00000000E+00
  0.00000000E+00  0.00000000E+00  0.00000000E+00
  0.00000000E+00  0.00000000E+00  0.00000000E+00
  0.00000000E+00  0.00000000E+00  0.00000000E+00
  0.00000000E+00  0.00000000E+00  0.00000000E+00
  0.00000000E+00  0.00000000E+00  0.00000000E+00
  0.00000000E+00  0.00000000E+00  0.00000000E+00
  0.00000000E+00  0.00000000E+00  0.00000000E+00
  0.00000000E+00  0.00000000E+00  0.00000000E+00
  0.00000000E+00  0.00000000E+00  0.00000000E+00
  0.00000000E+00  0.00000000E+00  0.00000000E+00
  0.00000000E+00  0.00000000E+00  0.00000000E+00
  0.00000000E+00  0.00000000E+00  0.00000000E+00
  0.00000000E+00  0.00000000E+00  0.00000000E+00
  0.00000000E+00  0.00000000E+00  0.00000000E+00
  0.00000000E+00  0.00000000E+00  0.00000000E+00
  0.00000000E+00  0.00000000E+00  0.00000000E+00
  0.00000000E+00  0.00000000E+00  0.00000000E+00
  0.00000000E+00  0.00000000E+00  0.00000000E+00
  0.00000000E+00  0.00000000E+00  0.00000000E+00
  0.00000000E+00  0.00000000E+00  0.00000000E+00
  0.00000000E+00  0.00000000E+00  0.00000000E+00
  0.00000000E+00  0.00000000E+00  0.00000000E+00
  0.00000000E+00  0.00000000E+00  0.00000000E+00
  0.00000000E+00  0.00000000E+00  0.00000000E+00
  0.00000000E+00  0.00000000E+00  0.00000000E+00
  0.00000000E+00  0.00000000E+00  0.00000000E+00
  0.00000000E+00  0.00000000E+00  0.00000000E+00
  0.00000000E+00  0.00000000E+00  0.00000000E+00
  0.00000000E+00  0.00000000E+00  0.00000000E+00
  0.00000000E+00  0.00000000E+00  0.00000000E+00
  0.00000000E+00  0.00000000E+00  0.00000000E+00
  0.00000000E+00  0.00000000E+00  0.00000000E+00
  0.00000000E+00  0.00000000E+00  0.00000000E+00
  0.00000000E+00  0.00000000E+00  0.00000000E+00
  0.00000000E+00  0.00000000E+00  0.00000000E+00
  0.00000000E+00  0.00000000E+00  0.00000000E+00
  0.00000000E+00  0.00000000E+00  0.00000000E+00
  0.00000000E+00  0.00000000E+00  0.00000000E+00
  0.00000000E+00  0.00000000E+00  0.00000000E+00
  0.00000000E+00  0.00000000E+00  0.00000000E+00
  0.00000000E+00  0.00000000E+00  0.00000000E+00
  0.00000000E+00  0.00000000E+00  0.00000000E+00
  0.00000000E+00  0.00000000E+00  0.00000000E+00
  0.00000000E+00  0.00000000E+00  0.00000000E+00
  0.00000000E+00  0.00000000E+00  0.00000000E+00
  0.00000000E+00  0.00000000E+00  0.00000000E+00
  0.00000000E+00  0.00000000E+00  0.00000000E+00
  0.00000000E+00  0.00000000E+00  0.00000000E+00
  0.00000000E+00  0.00000000E+00  0.00000000E+00
  0.00000000E+00  0.00000000E+00  0.00000000E+00
  0.00000000E+00  0.00000000E+00  0.00000000E+00
  0.00000000E+00  0.00000000E+00  0.00000000E+00
  0.00000000E+00  0.00000000E+00  0.00000000E+00
  0.00000000E+00  0.00000000E+00  0.00000000E+00