 Ga B N 
 1.0
 14.936314146199660   0.000000000000000   0.000000000000000
 -7.468157073099825  12.935227489513863   0.000000000000000
  0.000000000000001   0.000000000000001  13.341276283792837
 Ga B N 
   1 143 144
Cartesian
  3.734078536549917   5.030366245922021   5.002978606422314 
  1.216989772869622   0.677435050032260   5.002978606422314 
  5.048918868690561   7.275072242818298   5.002978606422314 
  6.251167300230374   0.677435050032260   5.002978606422314 
  9.969757978925934   7.190209658791614   5.002978606422314 
 11.202235609649751   0.718623749417456   5.002978606422314 
 -3.734078536549858   9.342108742426666  11.673616748318732 
  1.244621893328459   9.342223187176579  11.673616748318732 
  2.488834725046044   2.874535705705361  11.673616748318732 
  6.223535179771068   9.342223187176579  11.673616748318732 
  7.467945093463020   2.874617384170088  11.673616748318732 
 12.446513904893711   2.874674187710386  11.673616748318732 
 -1.254240448379573   9.350701346440793   5.002978606422314 
 -0.011669764346168   2.867757456083260   5.002978606422314 
  5.020630787819389   2.769328117919917   5.002978606422314 
  3.734078536549705   9.355583825600279   5.002978606422314 
  8.722397521479742   9.350701346440793   5.002978606422314 
  9.963519987502584   2.868506323100804   5.002978606422314 
 -4.978405148630570  11.498112383510104  11.673616748318732 
  0.000360131857961  11.498187912903417  11.673616748318732 
  1.244452616716042   5.029868741362618  11.673616748318732 
  6.223704456383837   5.029868741362618  11.673616748318732 
  4.979133840330726  11.498249406725884  11.673616748318732 
 11.202235609650330   5.029950401472089  11.673616748318732 
 -1.294214841856434   5.026969030939246   5.002978606422314 
 -2.486718079103655  11.485415222047029   5.002978606422314 
  2.491583423660909  11.506150755244910   5.002978606422314 
  7.463688805615965  11.500559746113574   5.002978606422314 
  8.762371914956059   5.026969030939246   5.002978606422314 
 -0.000502514827736   7.186527621245132  11.673616748318732 
  1.244629209550115   0.718505080645050  11.673616748318732 
  4.978460644880003   7.186694290697996  11.673616748318732 
  6.223527863549852   0.718505080645050  11.673616748318732 
  9.957244991859863   7.186488465218378  11.673616748318732 
 -2.501600905825471   7.190209658791614   5.002978606422314 
 11.202235609649751   0.718623749417457  11.673616748318732 
  3.734078536549736   0.675400400472621   5.002978606422314 
  2.419238204409754   7.275072242818298   5.002978606422314 
  7.505589591323397   7.207849168646231   5.002978606422314 
  8.721024874613116   0.716441659420026   5.002978606422314 
  2.489696428219968   7.186694290697996  11.673616748318732 
 13.683446344687122   0.716441659420026   5.002978606422314 
 -1.244761306679665   9.341725378551784  11.673616748318732 
  0.000211979636964   2.874617384170088  11.673616748318732 
  4.979322348053804   2.874535705705361  11.673616748318732 
  3.734078536550211   9.341863969425386  11.673616748318732 
  8.712918379779413   9.341725378551784  11.673616748318732 
  9.957957314406276   2.874674187710386  11.673616748318732 
 -3.734078536549858   9.342108742426664   5.002978606422314 
  1.222873921823908   9.386694656794479   5.002978606422314 
  2.447526285280175   2.769328117919917   5.002978606422314 
  6.245283151275648   9.386694656794479   5.002978606422314 
  7.479826837445883   2.867757456083260   5.002978606422314 
 12.440951231797552   2.868506323100804   5.002978606422314 
 -1.244827433671315   5.030370469944462  11.673616748318732 
 -2.489751924469354  11.498112383510104  11.673616748318732 
  2.489023232769818  11.498249406725884  11.673616748318732 
  3.734078536549918   5.030366245922021  11.673616748318732 
  7.467796941243044  11.498187912903417  11.673616748318732 
 -4.981438993995747  11.485415222047029   5.002978606422314 
  8.712984506771031   5.030370469944462  11.673616748318732 
  0.004468267483275  11.500559746113574   5.002978606422314 
  1.132685953139899   5.046698377027630   5.002978606422314 
 -0.037432518222711   7.207849168646231   5.002978606422314 
  6.335471119959921   5.046698377027630   5.002978606422314 
  4.976573649439946  11.506150755244910   5.002978606422314 
 11.202235609649492   5.025206735053216   5.002978606422314 
 -2.489087918760430   7.186488465218378  11.673616748318732 
  3.734078536549587   0.718043495275568  11.673616748318732 
  7.468659587928142   7.186527621245132  11.673616748318732 
  8.712902010625648   0.718175143329821  11.673616748318732 
 13.691569208673991   0.718175143329821  11.673616748318732 
  0.000068320916364   1.436768792229195   1.662279187549110 
  3.734078536550118   7.905837225024840   1.655337270508815 
  4.979365167351208   1.436185320661386   1.656885388314054 
  8.713061508835077   7.904983405261309   1.664951018868243 
  9.957980914455566   1.436994532628047   1.667817820566430 
 -4.978347895139357  10.060487991552916   8.337311440860301 
  0.000206373072703  10.060692241689596   8.339619174845184 
  1.243847620802288   3.592630756370697   8.350619942335825 
  4.979220114607125  10.060912677497797   8.343678025295931 
  6.224309452298007   3.592630756370697   8.350619942335825 
 11.202235609649643   3.593080081990152   8.338311757579596 
 -2.489809177960971  10.060487991552916   1.668645771984915 
 -1.245073257139870   3.593417268039096   1.662279187549110 
  3.734078536549879   3.590359841956538   1.665413271513354 
  2.488936958493551  10.060912677497797   1.662279187549110 
  7.467950700027152  10.060692241689596   1.666338037999977 
  8.713230330240748   3.593417268039096   1.662279187549110 
 -6.223532556463089  12.216802589497231   8.339619174845184 
 -1.244624516636565  12.216802589497231   8.339619174845184 
 -0.001216765923631   5.749006851285268   8.349071824530734 
  4.981160663996365   5.750369447904796   8.340543941330832 
  3.734078536549324  12.217109672510485   8.338139392278265 
  9.957404719940495   5.748831396093074   8.339619174845184 
 -2.489247646840480   5.748831396093073   1.666338037999977 
 -3.734078536549887  12.216359416757113   1.664951018868243 
  1.244726330472971  12.216623072644964   1.667645455265365 
  2.486996409103484   5.750369447904795   1.665413271513354 
  6.223430742626811  12.216623072644964   1.667645455265365 
  7.469373839023571   5.749006851285267   1.656885388314054 
 -1.244904435735107   7.904983405261310   8.341006193976545 
  0.000068320916364   1.436768792229196   8.343678025295931 
  3.734078536550119   7.905837225024841   8.350619942335825 
  4.979365167351209   1.436185320661386   8.349071824530734 
  8.713061508835077   7.904983405261310   8.341006193976545 
 -3.734078536550144   7.905350244175244   1.668645771984915 
  9.957980914455566   1.436994532628048   8.338139392278265 
  2.488791905748862   1.436185320661386   1.656885388314054 
  1.244069864877460   7.905906565819320   1.656885388314054 
  6.224087208222317   7.905906565819320   1.656885388314054 
  7.468088752183409   1.436768792229195   1.662279187549110 
  1.244069864877460   7.905906565819321   8.349071824530734 
 12.446490304843030   1.436994532628047   1.667817820566430 
 -2.489809177960971  10.060487991552916   8.337311440860301 
 -1.245073257139870   3.593417268039097   8.343678025295931 
  3.734078536549879   3.590359841956539   8.340543941330832 
  2.488936958493551  10.060912677497797   8.343678025295931 
  7.467950700027153  10.060692241689596   8.339619174845184 
  8.713230330240748   3.593417268039097   8.343678025295931 
 -4.978347895139358  10.060487991552916   1.668645771984915 
  0.000206373072702  10.060692241689596   1.666338037999977 
  1.243847620802288   3.592630756370696   1.655337270508815 
  4.979220114607124  10.060912677497797   1.662279187549110 
  6.224309452298006   3.592630756370696   1.655337270508815 
 11.202235609649643   3.593080081990152   1.667645455265365 
 -2.489247646840480   5.748831396093074   8.339619174845184 
 -3.734078536549887  12.216359416757113   8.341006193976545 
  1.244726330472971  12.216623072644964   8.338311757579596 
  2.486996409103484   5.750369447904796   8.340543941330832 
  6.223430742626812  12.216623072644964   8.338311757579596 
 -6.223532556463090  12.216802589497231   1.666338037999977 
  7.469373839023572   5.749006851285268   8.349071824530734 
 -1.244624516636565  12.216802589497231   1.666338037999977 
 -0.001216765923632   5.749006851285267   1.656885388314054 
 -1.244904435735108   7.904983405261309   1.664951018868243 
  4.981160663996365   5.750369447904795   1.665413271513354 
  3.734078536549323  12.217109672510485   1.667817820566430 
  9.957404719940495   5.748831396093073   1.666338037999977 
 -3.734078536550143   7.905350244175245   8.337311440860301 
  2.488791905748863   1.436185320661386   8.349071824530734 
  6.224087208222318   7.905906565819321   8.349071824530734 
  7.468088752183410   1.436768792229196   8.343678025295931 
 12.446490304843030   1.436994532628048   8.338139392278265 
  1.244528221919103   0.718408769050658   1.660922794022611 
  4.978852929742406   7.186669679844760   1.654328041245941 
  6.223628851180564   0.718408769050658   1.660922794022611 
  9.957528527581509   7.186248277567397   1.668029189867228 
 11.202235609649751   0.718623749417456   1.668809513627168 
 -3.734078536549858   9.342108742426664   8.337185825095441 
  1.244588978856215   9.342358800827748   8.345034418821950 
  2.489052181101213   2.874208282475734   8.351629171598926 
  6.223568094243850   9.342358800827748   8.345034418821950 
  7.468363374660547   2.874375889407942   8.347676023058208 
 12.446814783062646   2.874468654811592   8.339201834658130 
 -1.244695065933333   9.342091021514578   1.668029189867228 
 -0.000206301560820   2.874375889407941   1.658281189786834 
  4.979104891998173   2.874208282475733   1.654328041245941 
  3.734078536549648   9.342346958950181   1.658281189786834 
  8.712852139033110   9.342091021514578   1.668029189867228 
  9.957656436236309   2.874468654811591   1.666755378186177 
 -4.978754925098001  11.497986928197756   8.337928022977106 
  0.000087594433570  11.498030563348898   8.337595431520871 
  1.244277787908756   5.030220775445803   8.351629171598926 
  6.223879285190811   5.030220775445803   8.351629171598926 
  4.978805404533551  11.498091605037551   8.339201834658130 
 11.202235609649620   5.030265100582351   8.337595431520871 
 -1.244961335774399   5.030331167888005   1.660922794022611 
 -2.489402148001670  11.497986928197756   1.668029189867228 
  2.489351668566020  11.498091605037551   1.666755378186177 
  3.734078536549917   5.030366245922020   1.696176628704883 
  7.468069478666014  11.498030563348898   1.668361781324023 
  8.713118408874697   5.030331167888005   1.660922794022611 
 -0.000104339465382   7.186297734593052   8.347736826097039 
  1.244528221919103   0.718408769050659   8.345034418821950 
  4.978852929742407   7.186669679844761   8.351629171598926 
  6.223628851180565   0.718408769050659   8.345034418821950 
  9.957528527581509   7.186248277567398   8.337928022977106 
 -2.489371454481268   7.186248277567397   1.668029189867228 
 11.202235609649751   0.718623749417456   8.337147699217073 
  3.734078536550034   0.718503268580631   1.658220386747962 
  2.489304143357312   7.186669679844760   1.654328041245941 
  7.468261412564830   7.186297734593051   1.658220386747962 
  8.712929568252736   0.718538477917282   1.666755378186177 
  2.489304143357312   7.186669679844761   8.351629171598926 
 13.691541651046602   0.718538477917282   1.666755378186177 
 -1.244695065933332   9.342091021514578   8.337928022977106 
 -0.000206301560820   2.874375889407942   8.347676023058208 
  4.979104891998174   2.874208282475734   8.351629171598926 
  3.734078536549649   9.342346958950181   8.347676023058208 
  8.712852139033110   9.342091021514578   8.337928022977106 
  9.957656436236309   2.874468654811592   8.339201834658130 
 -3.734078536549859   9.342108742426664   1.668771387749347 
  1.244588978856214   9.342358800827748   1.660922794022611 
  2.489052181101213   2.874208282475733   1.654328041245941 
  6.223568094243849   9.342358800827748   1.660922794022611 
  7.468363374660546   2.874375889407941   1.658281189786834 
 12.446814783062646   2.874468654811591   1.666755378186177 
 -1.244961335774399   5.030331167888006   8.345034418821950 
 -2.489402148001669  11.497986928197756   8.337928022977106 
  2.489351668566021  11.498091605037551   8.339201834658130 
  3.734078536549917   5.030366245922021   8.309780584139650 
  7.468069478666015  11.498030563348898   8.337595431520871 
 -4.978754925098002  11.497986928197756   1.668029189867228 
  8.713118408874697   5.030331167888006   8.345034418821950 
  0.000087594433570  11.498030563348898   1.668361781324023 
  1.244277787908756   5.030220775445802   1.654328041245941 
 -0.000104339465382   7.186297734593051   1.658220386747962 
  6.223879285190810   5.030220775445802   1.654328041245941 
  4.978805404533550  11.498091605037551   1.666755378186177 
 11.202235609649620   5.030265100582350   1.668361781324023 
 -2.489371454481268   7.186248277567398   8.337928022977106 
  3.734078536550035   0.718503268580632   8.347736826097039 
  7.468261412564831   7.186297734593052   8.347736826097039 
  8.712929568252736   0.718538477917283   8.339201834658130 
 13.691541651046602   0.718538477917283   8.339201834658130 
 -0.011006845695219   1.427633324372564   5.002978606422314 
  3.734078536550173   7.919385688944853   5.002978606422314 
  5.009706866835732   1.353400038943207   5.002978606422314 
  8.738026895050258   7.919397177713515   5.002978606422314 
  9.961951464811470   1.434702134311217   5.002978606422314 
 -4.978754751756123  10.060722890329949  11.673616748318732 
  0.000028842262335  10.060755511121068  11.673616748318732 
  1.244688240918314   3.593116088620867  11.673616748318732 
  4.978830131915013  10.060728319676848  11.673616748318732 
  6.223468832181879   3.593116088620867  11.673616748318732 
 11.202235609649343   3.593118574425263  11.673616748318732 
 -2.494201385030052  10.057952149619091   5.002978606422314 
 -1.258522387684968   3.588393626330650   5.002978606422314 
  3.734078536550223   3.307784435039680   5.002978606422314 
  2.486562994560596  10.075071787062940   5.002978606422314 
  7.484321005862181  10.079695333179400   5.002978606422314 
  8.726679460784815   3.588393626330650   5.002978606422314 
 -6.223498583992805  12.216617208589776  11.673616748318732 
 -1.244658489106820  12.216617208589776  11.673616748318732 
 -0.000068127891841   5.748984338389141  11.673616748318732 
  4.978621091298608   5.748903224924118  11.673616748318732 
  3.734078536549584  12.216639699383103  11.673616748318732 
  9.957548278280592   5.748953507569085  11.673616748318732 
 -2.513889959738642   5.753506951069611   5.002978606422314 
 -3.734078536550111  12.187531871853375   5.002978606422314 
  1.247996372987139  12.218511032570193   5.002978606422314 
  2.242278928229277   5.891657151362927   5.002978606422314 
  6.220160700113658  12.218511032570193   5.002978606422314 
  7.556238845793414   5.764122809596779   5.002978606422314 
 -1.244743149610856   7.904890286673910  11.673616748318732 
  0.000032988127580   1.437198706057017  11.673616748318732 
  3.734078536549836   7.904866560524501  11.673616748318732 
  4.978810345075152   1.437191326824966  11.673616748318732 
  8.712900222711053   7.904890286673910  11.673616748318732 
 -3.734078536549755   7.910421928042093   5.002978606422314 
  9.957573905788539   1.437229519191527  11.673616748318732 
  2.458450206263861   1.353400038943207   5.002978606422314 
  1.187546557592402   7.973575889225845   5.002978606422314 
  6.280610515507734   7.973575889225845   5.002978606422314 
  7.479163918795575   1.427633324372564   5.002978606422314 
  1.244663680633432   7.904923072551919  11.673616748318732 
 12.442519754487481   1.434702134311217   5.002978606422314 
 -2.489402321343682  10.060722890329949  11.673616748318732 
 -1.244718607237946   3.593171712032539  11.673616748318732 
  3.734078536549716   3.593292287918179  11.673616748318732 
  2.489326941183631  10.060728319676848  11.673616748318732 
  7.468128230837506  10.060755511121068  11.673616748318732 
  8.712875680337570   3.593171712032539  11.673616748318732 
 -4.973955688070083  10.057952149619091   5.002978606422314 
 -0.016163932762985  10.079695333179400   5.002978606422314 
  1.232114306864445   3.585856524410695   5.002978606422314 
  4.981594078539586  10.075071787062940   5.002978606422314 
  6.236042766235045   3.585856524410695   5.002978606422314 
 11.202235609649925   3.589304162139201   5.002978606422314 
 -2.489391205180563   5.748953507569085  11.673616748318732 
 -3.734078536549902  12.216545653931499  11.673616748318732 
  1.244692995046351  12.216603826427683  11.673616748318732 
  2.489535981801244   5.748903224924118  11.673616748318732 
  6.223464078053014  12.216603826427683  11.673616748318732 
 -6.231804563525886  12.193123943031472   5.002978606422314 
  7.468225200992275   5.748984338389141  11.673616748318732 
 -1.236352509574128  12.193123943031472   5.002978606422314 
 -0.088081772693773   5.764122809596779   5.002978606422314 
 -1.269869821950898   7.919397177713515   5.002978606422314 
  5.225878144870558   5.891657151362927   5.002978606422314 
  3.734078536549487  12.221694469143809   5.002978606422314 
  9.982047032838283   5.753506951069611   5.002978606422314 
 -3.734078536549724   7.904880446619915  11.673616748318732 
  2.489346728024667   1.437191326824966  11.673616748318732 
  6.223493392467063   7.904923072551919  11.673616748318732 
  7.468124084971715   1.437198706057017  11.673616748318732 
 12.446897313510563   1.437229519191527  11.673616748318732 
Generated by cif2cell 2.0.0.  :  Failed to get author information, No journal information. Species order: Ga B N 
 1.0
 14.936314146199660   0.000000000000000   0.000000000000000
 -7.468157073099825  12.935227489513863   0.000000000000000
  0.000000000000001   0.000000000000001  13.341276283792837
 Ga B N 
   1 143 144
Cartesian
  3.734078536549917   5.030366245922021   5.002978606422314 
  1.216989772869622   0.677435050032260   5.002978606422314 
  5.048918868690561   7.275072242818298   5.002978606422314 
  6.251167300230374   0.677435050032260   5.002978606422314 
  9.969757978925934   7.190209658791614   5.002978606422314 
 11.202235609649751   0.718623749417456   5.002978606422314 
 -3.734078536549858   9.342108742426666  11.673616748318732 
  1.244621893328459   9.342223187176579  11.673616748318732 
  2.488834725046044   2.874535705705361  11.673616748318732 
  6.223535179771068   9.342223187176579  11.673616748318732 
  7.467945093463020   2.874617384170088  11.673616748318732 
 12.446513904893711   2.874674187710386  11.673616748318732 
 -1.254240448379573   9.350701346440793   5.002978606422314 
 -0.011669764346168   2.867757456083260   5.002978606422314 
  5.020630787819389   2.769328117919917   5.002978606422314 
  3.734078536549705   9.355583825600279   5.002978606422314 
  8.722397521479742   9.350701346440793   5.002978606422314 
  9.963519987502584   2.868506323100804   5.002978606422314 
 -4.978405148630570  11.498112383510104  11.673616748318732 
  0.000360131857961  11.498187912903417  11.673616748318732 
  1.244452616716042   5.029868741362618  11.673616748318732 
  6.223704456383837   5.029868741362618  11.673616748318732 
  4.979133840330726  11.498249406725884  11.673616748318732 
 11.202235609650330   5.029950401472089  11.673616748318732 
 -1.294214841856434   5.026969030939246   5.002978606422314 
 -2.486718079103655  11.485415222047029   5.002978606422314 
  2.491583423660909  11.506150755244910   5.002978606422314 
  7.463688805615965  11.500559746113574   5.002978606422314 
  8.762371914956059   5.026969030939246   5.002978606422314 
 -0.000502514827736   7.186527621245132  11.673616748318732 
  1.244629209550115   0.718505080645050  11.673616748318732 
  4.978460644880003   7.186694290697996  11.673616748318732 
  6.223527863549852   0.718505080645050  11.673616748318732 
  9.957244991859863   7.186488465218378  11.673616748318732 
 -2.501600905825471   7.190209658791614   5.002978606422314 
 11.202235609649751   0.718623749417457  11.673616748318732 
  3.734078536549736   0.675400400472621   5.002978606422314 
  2.419238204409754   7.275072242818298   5.002978606422314 
  7.505589591323397   7.207849168646231   5.002978606422314 
  8.721024874613116   0.716441659420026   5.002978606422314 
  2.489696428219968   7.186694290697996  11.673616748318732 
 13.683446344687122   0.716441659420026   5.002978606422314 
 -1.244761306679665   9.341725378551784  11.673616748318732 
  0.000211979636964   2.874617384170088  11.673616748318732 
  4.979322348053804   2.874535705705361  11.673616748318732 
  3.734078536550211   9.341863969425386  11.673616748318732 
  8.712918379779413   9.341725378551784  11.673616748318732 
  9.957957314406276   2.874674187710386  11.673616748318732 
 -3.734078536549858   9.342108742426664   5.002978606422314 
  1.222873921823908   9.386694656794479   5.002978606422314 
  2.447526285280175   2.769328117919917   5.002978606422314 
  6.245283151275648   9.386694656794479   5.002978606422314 
  7.479826837445883   2.867757456083260   5.002978606422314 
 12.440951231797552   2.868506323100804   5.002978606422314 
 -1.244827433671315   5.030370469944462  11.673616748318732 
 -2.489751924469354  11.498112383510104  11.673616748318732 
  2.489023232769818  11.498249406725884  11.673616748318732 
  3.734078536549918   5.030366245922021  11.673616748318732 
  7.467796941243044  11.498187912903417  11.673616748318732 
 -4.981438993995747  11.485415222047029   5.002978606422314 
  8.712984506771031   5.030370469944462  11.673616748318732 
  0.004468267483275  11.500559746113574   5.002978606422314 
  1.132685953139899   5.046698377027630   5.002978606422314 
 -0.037432518222711   7.207849168646231   5.002978606422314 
  6.335471119959921   5.046698377027630   5.002978606422314 
  4.976573649439946  11.506150755244910   5.002978606422314 
 11.202235609649492   5.025206735053216   5.002978606422314 
 -2.489087918760430   7.186488465218378  11.673616748318732 
  3.734078536549587   0.718043495275568  11.673616748318732 
  7.468659587928142   7.186527621245132  11.673616748318732 
  8.712902010625648   0.718175143329821  11.673616748318732 
 13.691569208673991   0.718175143329821  11.673616748318732 
  0.000068320916364   1.436768792229195   1.662279187549110 
  3.734078536550118   7.905837225024840   1.655337270508815 
  4.979365167351208   1.436185320661386   1.656885388314054 
  8.713061508835077   7.904983405261309   1.664951018868243 
  9.957980914455566   1.436994532628047   1.667817820566430 
 -4.978347895139357  10.060487991552916   8.337311440860301 
  0.000206373072703  10.060692241689596   8.339619174845184 
  1.243847620802288   3.592630756370697   8.350619942335825 
  4.979220114607125  10.060912677497797   8.343678025295931 
  6.224309452298007   3.592630756370697   8.350619942335825 
 11.202235609649643   3.593080081990152   8.338311757579596 
 -2.489809177960971  10.060487991552916   1.668645771984915 
 -1.245073257139870   3.593417268039096   1.662279187549110 
  3.734078536549879   3.590359841956538   1.665413271513354 
  2.488936958493551  10.060912677497797   1.662279187549110 
  7.467950700027152  10.060692241689596   1.666338037999977 
  8.713230330240748   3.593417268039096   1.662279187549110 
 -6.223532556463089  12.216802589497231   8.339619174845184 
 -1.244624516636565  12.216802589497231   8.339619174845184 
 -0.001216765923631   5.749006851285268   8.349071824530734 
  4.981160663996365   5.750369447904796   8.340543941330832 
  3.734078536549324  12.217109672510485   8.338139392278265 
  9.957404719940495   5.748831396093074   8.339619174845184 
 -2.489247646840480   5.748831396093073   1.666338037999977 
 -3.734078536549887  12.216359416757113   1.664951018868243 
  1.244726330472971  12.216623072644964   1.667645455265365 
  2.486996409103484   5.750369447904795   1.665413271513354 
  6.223430742626811  12.216623072644964   1.667645455265365 
  7.469373839023571   5.749006851285267   1.656885388314054 
 -1.244904435735107   7.904983405261310   8.341006193976545 
  0.000068320916364   1.436768792229196   8.343678025295931 
  3.734078536550119   7.905837225024841   8.350619942335825 
  4.979365167351209   1.436185320661386   8.349071824530734 
  8.713061508835077   7.904983405261310   8.341006193976545 
 -3.734078536550144   7.905350244175244   1.668645771984915 
  9.957980914455566   1.436994532628048   8.338139392278265 
  2.488791905748862   1.436185320661386   1.656885388314054 
  1.244069864877460   7.905906565819320   1.656885388314054 
  6.224087208222317   7.905906565819320   1.656885388314054 
  7.468088752183409   1.436768792229195   1.662279187549110 
  1.244069864877460   7.905906565819321   8.349071824530734 
 12.446490304843030   1.436994532628047   1.667817820566430 
 -2.489809177960971  10.060487991552916   8.337311440860301 
 -1.245073257139870   3.593417268039097   8.343678025295931 
  3.734078536549879   3.590359841956539   8.340543941330832 
  2.488936958493551  10.060912677497797   8.343678025295931 
  7.467950700027153  10.060692241689596   8.339619174845184 
  8.713230330240748   3.593417268039097   8.343678025295931 
 -4.978347895139358  10.060487991552916   1.668645771984915 
  0.000206373072702  10.060692241689596   1.666338037999977 
  1.243847620802288   3.592630756370696   1.655337270508815 
  4.979220114607124  10.060912677497797   1.662279187549110 
  6.224309452298006   3.592630756370696   1.655337270508815 
 11.202235609649643   3.593080081990152   1.667645455265365 
 -2.489247646840480   5.748831396093074   8.339619174845184 
 -3.734078536549887  12.216359416757113   8.341006193976545 
  1.244726330472971  12.216623072644964   8.338311757579596 
  2.486996409103484   5.750369447904796   8.340543941330832 
  6.223430742626812  12.216623072644964   8.338311757579596 
 -6.223532556463090  12.216802589497231   1.666338037999977 
  7.469373839023572   5.749006851285268   8.349071824530734 
 -1.244624516636565  12.216802589497231   1.666338037999977 
 -0.001216765923632   5.749006851285267   1.656885388314054 
 -1.244904435735108   7.904983405261309   1.664951018868243 
  4.981160663996365   5.750369447904795   1.665413271513354 
  3.734078536549323  12.217109672510485   1.667817820566430 
  9.957404719940495   5.748831396093073   1.666338037999977 
 -3.734078536550143   7.905350244175245   8.337311440860301 
  2.488791905748863   1.436185320661386   8.349071824530734 
  6.224087208222318   7.905906565819321   8.349071824530734 
  7.468088752183410   1.436768792229196   8.343678025295931 
 12.446490304843030   1.436994532628048   8.338139392278265 
  1.244528221919103   0.718408769050658   1.660922794022611 
  4.978852929742406   7.186669679844760   1.654328041245941 
  6.223628851180564   0.718408769050658   1.660922794022611 
  9.957528527581509   7.186248277567397   1.668029189867228 
 11.202235609649751   0.718623749417456   1.668809513627168 
 -3.734078536549858   9.342108742426664   8.337185825095441 
  1.244588978856215   9.342358800827748   8.345034418821950 
  2.489052181101213   2.874208282475734   8.351629171598926 
  6.223568094243850   9.342358800827748   8.345034418821950 
  7.468363374660547   2.874375889407942   8.347676023058208 
 12.446814783062646   2.874468654811592   8.339201834658130 
 -1.244695065933333   9.342091021514578   1.668029189867228 
 -0.000206301560820   2.874375889407941   1.658281189786834 
  4.979104891998173   2.874208282475733   1.654328041245941 
  3.734078536549648   9.342346958950181   1.658281189786834 
  8.712852139033110   9.342091021514578   1.668029189867228 
  9.957656436236309   2.874468654811591   1.666755378186177 
 -4.978754925098001  11.497986928197756   8.337928022977106 
  0.000087594433570  11.498030563348898   8.337595431520871 
  1.244277787908756   5.030220775445803   8.351629171598926 
  6.223879285190811   5.030220775445803   8.351629171598926 
  4.978805404533551  11.498091605037551   8.339201834658130 
 11.202235609649620   5.030265100582351   8.337595431520871 
 -1.244961335774399   5.030331167888005   1.660922794022611 
 -2.489402148001670  11.497986928197756   1.668029189867228 
  2.489351668566020  11.498091605037551   1.666755378186177 
  3.734078536549917   5.030366245922020   1.696176628704883 
  7.468069478666014  11.498030563348898   1.668361781324023 
  8.713118408874697   5.030331167888005   1.660922794022611 
 -0.000104339465382   7.186297734593052   8.347736826097039 
  1.244528221919103   0.718408769050659   8.345034418821950 
  4.978852929742407   7.186669679844761   8.351629171598926 
  6.223628851180565   0.718408769050659   8.345034418821950 
  9.957528527581509   7.186248277567398   8.337928022977106 
 -2.489371454481268   7.186248277567397   1.668029189867228 
 11.202235609649751   0.718623749417456   8.337147699217073 
  3.734078536550034   0.718503268580631   1.658220386747962 
  2.489304143357312   7.186669679844760   1.654328041245941 
  7.468261412564830   7.186297734593051   1.658220386747962 
  8.712929568252736   0.718538477917282   1.666755378186177 
  2.489304143357312   7.186669679844761   8.351629171598926 
 13.691541651046602   0.718538477917282   1.666755378186177 
 -1.244695065933332   9.342091021514578   8.337928022977106 
 -0.000206301560820   2.874375889407942   8.347676023058208 
  4.979104891998174   2.874208282475734   8.351629171598926 
  3.734078536549649   9.342346958950181   8.347676023058208 
  8.712852139033110   9.342091021514578   8.337928022977106 
  9.957656436236309   2.874468654811592   8.339201834658130 
 -3.734078536549859   9.342108742426664   1.668771387749347 
  1.244588978856214   9.342358800827748   1.660922794022611 