 N Se B 
 1.0
 17.527899999999772   0.000000000000000   0.000000000000000
 -8.763949999999658  15.179606674993195   0.000000000000000
  0.000000000000001   0.000000000000002  15.000000000000000
 N Se B 
  49   1  48
Cartesian
  8.770654787741941  13.738299326255218   1.664989392180300 
 16.273815264315402   0.724060346776599   1.664600288560680 
 15.011493344492507   2.884311643340849   1.664784615426735 
 13.759626327877625   5.052608920437573   1.664784615426735 
 12.519954786406226   7.225937419040305   1.664600288560680 
 11.275071115269654   9.400523003672010   1.664989392180300 
 10.024251652083116  11.570212931615833   1.665140249690280 
 -6.257403548869382  13.732465593739347   1.664495195225160 
  1.251573458878389   0.714868438421501   1.664989392180300 
 -0.026133896856336   2.858764999500769   1.664929713938715 
 -1.290868393675316   5.037425327274132   1.664843918008620 
 -2.545276335334824   7.222047694448617   1.664929713938715 
 -3.763091542456921   9.400523003672010   1.664989392180300 
 -5.007975213584771  11.568392236610125   1.664495195225160 
 -3.758546878299993  13.732465593739347   1.664495195225160 
  3.755989786406210   0.713264905117169   1.665140249690280 
  2.498619615973870   2.872257291317343   1.665651996377655 
  1.178992762772300   4.977832634563415   1.666011025832100 
 -0.107546601218805   7.206184178933435   1.666011025832100 
 -1.271214911459975   9.401802228960396   1.665651996377655 
 -2.512272079270353  11.570212931615833   1.665140249690280 
 -1.258675214929078  13.738299326255218   1.664989392180300 
  6.260406113933945   0.714868438421501   1.664989392180300 
  5.013359956838650   2.872257291317343   1.665651996377655 
  3.755989786406292   5.044685094940408   1.665938438103900 
  2.192169509768416   7.048358198424969   1.663097058729015 
  1.238847839581402   9.404502836704106   1.665938438103900 
 -0.013844741027622  11.579631248070974   1.665651996377655 
  1.236847347919053  13.772878074384119   1.664929713938715 
  8.766094308479150   0.724060346776599   1.664600288560680 
  7.538113469668751   2.858764999500769   1.664929713938715 
  6.332986810040283   4.977832634563415   1.666011025832100 
  5.319810063044212   7.048358198424969   1.663097058729015 
  3.755989786397572   9.756974371483459   1.663097058729015 
  2.469450422406402  11.669673954836654   1.666011025832100 
  3.755989786397588  13.778840113785240   1.664843918008620 
 11.268087769773508   0.737137548815079   1.664784615426735 
 10.028416228302106   2.884311643340849   1.664784615426735 
  8.802847966487777   5.037425327274132   1.664843918008620 
  7.619526174031473   7.206184178933435   1.666011025832100 
  6.273131733213735   9.404502836704106   1.665938438103900 
  5.042529150388697  11.669673954836654   1.666011025832100 
  6.275132224893671  13.772878074384119   1.664929713938715 
 13.771821803020920   0.737137548815079   1.664784615426735 
 12.519954786406029   2.891352704197829   1.665079667586960 
 11.280283244934635   5.052608920437573   1.664784615426735 
 10.057255908164880   7.222047694448617   1.664929713938715 
  8.783194484272689   9.401802228960396   1.665651996377655 
  7.525824313840261  11.579631248070974   1.665651996377655 
  3.755980213596274   7.951242049921758   1.663245427308990 
  7.524948692362255  14.471148647966961   1.665326920532310 
 15.022532327205356   1.446495154280366   1.665152295723435 
 13.765615356072896   3.610552490083855   1.665534898982415 
 12.519945213587379   5.781103185434000   1.665152295723435 
 11.286869197188114   7.955311199573186   1.665326920532310 
 10.027968380733745  10.127108600325320   1.665923492954160 
  8.776330005059350  12.295009859696430   1.665923492954160 
 -7.506926940662379  14.453884527280787   1.665248881131360 
 -0.005940291238449   1.427266302209904   1.665326920532310 
 -1.271112937369481   3.595533411268523   1.665148129391655 
 -2.529720694434825   5.775505993306082   1.665148129391655 
 -3.774908770012973   7.955311199573186   1.665326920532310 
 -5.007984786403471  10.125589750928585   1.665248881131360 
 -6.255614470721780  12.290800267739966   1.664947406985060 
 -5.007984786403467  14.451758270010364   1.664947406985060 
  2.504341837913097   1.431607689728300   1.665923492954160 
  1.220331295032784   3.556201092374200   1.665994321624710 
 -0.053716022889518   5.751712902245853   1.665998526522375 
 -1.318061365594675   7.952826150141054   1.665994321624710 
 -2.516007953558556  10.127108600325320   1.665923492954160 
 -3.760355102085220  12.290800267739966   1.664947406985060 
 -2.509042632126974  14.453884527280787   1.665248881131360 
  5.007618589279395   1.431607689728300   1.665923492954160 
  3.755980213604981   3.594541768611530   1.666408416684315 
  2.419965058204187   5.670509434496988   1.665716755419015 
  1.112800251711477   7.934585293208377   1.665716755419015 
 -0.017032906679970  10.129592190569277   1.666408416684315 
 -1.264369577866653  12.295009859696430   1.665923492954160 
 -0.012988265169460  14.471148647966961   1.665326920532310 
  7.517900718430924   1.427266302209904   1.665326920532310 
  6.291629132159631   3.556201092374200   1.665994321624710 
  5.091995369005872   5.670509434496988   1.665716755419015 
  2.448815407112364  10.248631422044671   1.665716755419015 
  1.217587552977525  12.344698907234932   1.665994321624710 
  2.497372456531064  14.482686745160342   1.665148129391655 
 10.017358099969357   1.446495154280366   1.665152295723435 
  8.783073364562020   3.595533411268523   1.665148129391655 
  7.565676450082105   5.751712902245853   1.665998526522375 
  6.399160175481226   7.934585293208377   1.665716755419015 
  5.063145020080428  10.248631422044671   1.665716755419015 
  3.755980213596392  12.350300345243273   1.665998526522375 
  5.014587970661820  14.482686745160342   1.665148129391655 
 12.519945213587363   1.452988513827143   1.665534898982415 
 11.274275071101755   3.610552490083855   1.665534898982415 
 10.041681121627430   5.775505993306082   1.665148129391655 
  8.830021792769802   7.952826150141054   1.665994321624710 
  7.528993333872705  10.129592190569277   1.666408416684315 
  6.294372874215155  12.344698907234932   1.665994321624710 
