B N Ge                                  
   1.0000000000000000     
     8.7639499999999995  -15.1796066749929999    0.0000000000000000
     8.7639499999999995   15.1796066749929999    0.0000000000000000
     0.0000000000000000    0.0000000000000000   15.0000000000000000
   B    N    Ge
    48    48     1
Selective dynamics
Direct
  0.9048971671643626  0.9519819780296451  0.1177582624539918   T   T   T
  0.9051761799711152  0.0949718058493173  0.1179601647070791   T   T   T
  0.9052702824417731  0.2379019586628233  0.1172261338384324   T   T   T
  0.9052943273519848  0.3807938465542746  0.1160768175153854   T   T   T
  0.9047796351246413  0.5235298975941791  0.1147339486839996   T   T   T
  0.9040513465248853  0.6660427952859095  0.1146683248782411   T   T   T
  0.9035769936307386  0.8081844805898677  0.1159688808252564   T   T   T
  0.0477991809875442  0.9523510646367537  0.1175934468945637   T   T   T
  0.0481606966877850  0.0952448193980287  0.1177616930001146   T   T   T
  0.0481913988412071  0.2380846208308747  0.1166771493557038   T   T   T
  0.0480561768726014  0.3809397269988844  0.1151190061136768   T   T   T
  0.0478101423223067  0.5237628947737543  0.1149056814508880   T   T   T
  0.0475527212001372  0.6665330697726306  0.1156001664757836   T   T   T
  0.0474304313746443  0.8093321560802124  0.1167920484792031   T   T   T
  0.1908171688074753  0.9527220770656361  0.1167895931519804   T   T   T
  0.1919649134734256  0.0965788399277023  0.1159658977527090   T   T   T
  0.1911848383791613  0.2384829147842336  0.1148511886958881   T   T   T
  0.1908337759419398  0.3810953770138910  0.1102707793004495   T   T   T
  0.1906332171868303  0.5238245217994127  0.1093288857306379   T   T   T
  0.1907024129953243  0.6666488035086049  0.1119076593619660   T   T   T
  0.1905741360099582  0.8095788110428457  0.1154193270591313   T   T   T
  0.3336144119144264  0.9525973341435940  0.1155916166303568   T   T   T
  0.3341057883892973  0.0960978401447126  0.1146561168493377   T   T   T
  0.3366870300215093  0.2415326087544129  0.1113404240895381   T   T   T
  0.3327532091043860  0.3816097132978051  0.0993325944636502   T   T   T
  0.3327144639792722  0.5230825728749475  0.0914453947091572   T   T   T
  0.3337141719420342  0.6664364658068548  0.1021526753930917   T   T   T
  0.3334984423648727  0.8094491489194586  0.1118901209970934   T   T   T
  0.4763820611343650  0.9523405400722939  0.1148834276124081   T   T   T
  0.4766176837538110  0.0953662689556800  0.1147159860680058   T   T   T
  0.4771022444932369  0.2386371487127900  0.1104464832886340   T   T   T
  0.4833619092852005  0.3864538798204067  0.1063871040413618   T   T   T
  0.4770740066384379  0.6674446469065821  0.0914533684409163   T   T   T
  0.4763294677092574  0.8095297945782615  0.1093234849079783   T   T   T
  0.6192162057368998  0.9521029140115943  0.1151191322971730   T   T   T
  0.6193561350369675  0.0948530794544537  0.1160789775633526   T   T   T
  0.6196076973679434  0.2374636213272369  0.1130404113034955   T   T   T
  0.6204136575945649  0.3797331429073234  0.1083833302512409   T   T   T
  0.6136948895112717  0.5167870033188583  0.1063873224491123   T   T   T
  0.6185400064972955  0.6673954773393045  0.0993396560624215   T   T   T
  0.6190590547927299  0.8093200351503158  0.1102818636754542   T   T   T
  0.7620561225330145  0.9519501047255320  0.1166766886618229   T   T   T
  0.7622579269661894  0.0948873488078589  0.1172284219261482   T   T   T
  0.7624132407214735  0.2377319982807424  0.1161208507744541   T   T   T
  0.7626845700570234  0.3805389446976882  0.1130469316878178   T   T   T
  0.7615075084331486  0.5230401018857537  0.1104627657967164   T   T   T
  0.7586196967482116  0.6634626609455113  0.1113500611305353   T   T   T
  0.7616709516718519  0.8089628374824210  0.1148632441193920   T   T   T
  0.9521024509042215  0.9039251966175171  0.1174591710381019   T   T   T
  0.9528227088983355  0.0473213660835744  0.1181659908032779   T   T   T
  0.9528475364623497  0.1902596852960482  0.1176632467914926   T   T   T
  0.9527661946968624  0.3331696569908845  0.1166406359303798   T   T   T
  0.9524531824840582  0.4760399888181051  0.1157768588640537   T   T   T
  0.9519914203551447  0.6187300875716233  0.1153382260377334   T   T   T
  0.9518031831025704  0.7612062921403783  0.1160737093930834   T   T   T
  0.0954013154335066  0.9047494761165207  0.1173960240014807   T   T   T
  0.0962243881122666  0.0480474224260606  0.1174595461077012   T   T   T
  0.0958684509462897  0.1904165829429560  0.1171937556271641   T   T   T
  0.0955458515787250  0.3332557563149749  0.1146069724666835   T   T   T
  0.0953448166459222  0.4761742847059912  0.1138638604137865   T   T   T
  0.0952686985019680  0.6190336791133215  0.1145586427559201   T   T   T
  0.0951432523842900  0.7618362227125919  0.1162545282842015   T   T   T
  0.2383136446190550  0.9050084945900976  0.1162493811190773   T   T   T
  0.2389428564133063  0.0483503536521852  0.1160640635144485   T   T   T
  0.2406907778661218  0.1925361500737477  0.1140339072361995   T   T   T
  0.2380956770010457  0.3329567343615541  0.1110613498817093   T   T   T
  0.2379218691550589  0.4762087793087541  0.1058077301758118   T   T   T
  0.2382789473930915  0.6191185489803539  0.1075286306179272   T   T   T
  0.2381572057981325  0.7619921396418750  0.1129952882508554   T   T   T
  0.3811129631440290  0.9048813286429161  0.1145423801956671   T   T   T
  0.3814180056841678  0.0481575131671641  0.1153221049907191   T   T   T
  0.3823485239023648  0.1920148629543844  0.1121723179081998   T   T   T
  0.3867731028701250  0.3391359325206613  0.1069755299386330   T   T   T
  0.3748972244977807  0.4719977595127157  0.0782339162497665   T   T   T
  0.3810750454493109  0.6190812933231956  0.0911839312462265   T   T   T
  0.3810342491989114  0.7618758857971488  0.1075196898382856   T   T   T
  0.5239790199921293  0.9048148264520698  0.1138444989645864   T   T   T
  0.5241090013221732  0.0476956033788247  0.1157576853543098   T   T   T
  0.5244355067113315  0.1907945807248788  0.1126679643683049   T   T   T
  0.5255694248683407  0.3344778253827645  0.1072269392750687   T   T   T
  0.5281537375859353  0.6252557607573653  0.0782375469609067   T   T   T
  0.5239454534245437  0.7622377130789946  0.1058168875190200   T   T   T
  0.6668910243017909  0.9046050506379399  0.1146099295977495   T   T   T
  0.6669866712993274  0.0473896524889451  0.1166494592736729   T   T   T
  0.6671205792226287  0.1901025898153459  0.1154790587044763   T   T   T
  0.6675148803832427  0.3326327634643591  0.1111373862780149   T   T   T
  0.6656698888703856  0.4745780279819252  0.1072256606895828   T   T   T
  0.6610146423320076  0.6133762054106222  0.1069838082997761   T   T   T
  0.6671948529491610  0.7620542419284869  0.1110799196625710   T   T   T
  0.8097282384840011  0.9042772019213091  0.1171979598623834   T   T   T
  0.8098877050060095  0.0472980157363926  0.1176595320594211   T   T   T
  0.8099587285644871  0.1901953556586780  0.1172369936802974   T   T   T
  0.8100444371040512  0.3330253242580931  0.1154757576823072   T   T   T
  0.8093525218728620  0.4757103527289553  0.1126815279521593   T   T   T
  0.8081336575496773  0.6177973500329731  0.1121864840602096   T   T   T
  0.8076184512150408  0.7594588003167037  0.1140371091577495   T   T   T
  0.4840904081833158  0.5160495106381410  0.0185385083971231   T   T   T

  0.00000000E+00  0.00000000E+00  0.00000000E+00
  0.00000000E+00  0.00000000E+00  0.00000000E+00
  0.00000000E+00  0.00000000E+00  0.00000000E+00
  0.00000000E+00  0.00000000E+00  0.00000000E+00
  0.00000000E+00  0.00000000E+00  0.00000000E+00
  0.00000000E+00  0.00000000E+00  0.00000000E+00
  0.00000000E+00  0.00000000E+00  0.00000000E+00
  0.00000000E+00  0.00000000E+00  0.00000000E+00
  0.00000000E+00  0.00000000E+00  0.00000000E+00
  0.00000000E+00  0.00000000E+00  0.00000000E+00
  0.00000000E+00  0.00000000E+00  0.00000000E+00
  0.00000000E+00  0.00000000E+00  0.00000000E+00
  0.00000000E+00  0.00000000E+00  0.00000000E+00
  0.00000000E+00  0.00000000E+00  0.00000000E+00
  0.00000000E+00  0.00000000E+00  0.00000000E+00
  0.00000000E+00  0.00000000E+00  0.00000000E+00
  0.00000000E+00  0.00000000E+00  0.00000000E+00
  0.00000000E+00  0.00000000E+00  0.00000000E+00
  0.00000000E+00  0.00000000E+00  0.00000000E+00
  0.00000000E+00  0.00000000E+00  0.00000000E+00
  0.00000000E+00  0.00000000E+00  0.00000000E+00
  0.00000000E+00  0.00000000E+00  0.00000000E+00
  0.00000000E+00  0.00000000E+00  0.00000000E+00
  0.00000000E+00  0.00000000E+00  0.00000000E+00
  0.00000000E+00  0.00000000E+00  0.00000000E+00
  0.00000000E+00  0.00000000E+00  0.00000000E+00
  0.00000000E+00  0.00000000E+00  0.00000000E+00
  0.00000000E+00  0.00000000E+00  0.00000000E+00
  0.00000000E+00  0.00000000E+00  0.00000000E+00
  0.00000000E+00  0.00000000E+00  0.00000000E+00
  0.00000000E+00  0.00000000E+00  0.00000000E+00
  0.00000000E+00  0.00000000E+00  0.00000000E+00
  0.00000000E+00  0.00000000E+00  0.00000000E+00
  0.00000000E+00  0.00000000E+00  0.00000000E+00
  0.00000000E+00  0.00000000E+00  0.00000000E+00
  0.00000000E+00  0.00000000E+00  0.00000000E+00
  0.00000000E+00  0.00000000E+00  0.00000000E+00
  0.00000000E+00  0.00000000E+00  0.00000000E+00
  0.00000000E+00  0.00000000E+00  0.00000000E+00
  0.00000000E+00  0.00000000E+00  0.00000000E+00
  0.00000000E+00  0.00000000E+00  0.00000000E+00
  0.00000000E+00  0.00000000E+00  0.00000000E+00
  0.00000000E+00  0.00000000E+00  0.00000000E+00
  0.00000000E+00  0.00000000E+00  0.00000000E+00
  0.00000000E+00  0.00000000E+00  0.00000000E+00
  0.00000000E+00  0.00000000E+00  0.00000000E+00
  0.00000000E+00  0.00000000E+00  0.00000000E+00
  0.00000000E+00  0.00000000E+00  0.00000000E+00
  0.00000000E+00  0.00000000E+00  0.00000000E+00
  0.00000000E+00  0.00000000E+00  0.00000000E+00
  0.00000000E+00  0.00000000E+00  0.00000000E+00
  0.00000000E+00  0.00000000E+00  0.00000000E+00
  0.00000000E+00  0.00000000E+00  0.00000000E+00
  0.00000000E+00  0.00000000E+00  0.00000000E+00
  0.00000000E+00  0.00000000E+00  0.00000000E+00
  0.00000000E+00  0.00000000E+00  0.00000000E+00
  0.00000000E+00  0.00000000E+00  0.00000000E+00
  0.00000000E+00  0.00000000E+00  0.00000000E+00
  0.00000000E+00  0.00000000E+00  0.00000000E+00
  0.00000000E+00  0.00000000E+00  0.00000000E+00
  0.00000000E+00  0.00000000E+00  0.00000000E+00
  0.00000000E+00  0.00000000E+00  0.00000000E+00
  0.00000000E+00  0.00000000E+00  0.00000000E+00
  0.00000000E+00  0.00000000E+00  0.00000000E+00
  0.00000000E+00  0.00000000E+00  0.00000000E+00
  0.00000000E+00  0.00000000E+00  0.00000000E+00
  0.00000000E+00  0.00000000E+00  0.00000000E+00
  0.00000000E+00  0.00000000E+00  0.00000000E+00
  0.00000000E+00  0.00000000E+00  0.00000000E+00
  0.00000000E+00  0.00000000E+00  0.00000000E+00
  0.00000000E+00  0.00000000E+00  0.00000000E+00
  0.00000000E+00  0.00000000E+00  0.00000000E+00
  0.00000000E+00  0.00000000E+00  0.00000000E+00
  0.00000000E+00  0.00000000E+00  0.00000000E+00
  0.00000000E+00  0.00000000E+00  0.00000000E+00
  0.00000000E+00  0.00000000E+00  0.00000000E+00
  0.00000000E+00  0.00000000E+00  0.00000000E+00
  0.00000000E+00  0.00000000E+00  0.00000000E+00
  0.00000000E+00  0.00000000E+00  0.00000000E+00
  0.00000000E+00  0.00000000E+00  0.00000000E+00
  0.00000000E+00  0.00000000E+00  0.00000000E+00
  0.00000000E+00  0.00000000E+00  0.00000000E+00
  0.00000000E+00  0.00000000E+00  0.00000000E+00
  0.00000000E+00  0.00000000E+00  0.00000000E+00
  0.00000000E+00  0.00000000E+00  0.00000000E+00
  0.00000000E+00  0.00000000E+00  0.00000000E+00
  0.00000000E+00  0.00000000E+00  0.00000000E+00
  0.00000000E+00  0.00000000E+00  0.00000000E+00
  0.00000000E+00  0.00000000E+00  0.00000000E+00
  0.00000000E+00  0.00000000E+00  0.00000000E+00
  0.00000000E+00  0.00000000E+00  0.00000000E+00
  0.00000000E+00  0.00000000E+00  0.00000000E+00
  0.00000000E+00  0.00000000E+00  0.00000000E+00
  0.00000000E+00  0.00000000E+00  0.00000000E+00
  0.00000000E+00  0.00000000E+00  0.00000000E+00
  0.00000000E+00  0.00000000E+00  0.00000000E+00
  0.00000000E+00  0.00000000E+00  0.00000000E+00
