 Ge N B 
 1.0
 17.527899999999772   0.000000000000000   0.000000000000000
 -8.763949999999658  15.179606674993195   0.000000000000000
  0.000000000000001   0.000000000000002  15.000000000000000
 Ge N B 
   1  48  48
Cartesian
  3.962456156839274   7.833428596309696   0.278077625956845 
  8.766401322308116  13.721228948269799   1.761887565571530 
 16.286259073010804   0.718319724472017   1.772489862049170 
 15.033989965407972   2.888067188901995   1.764948701872395 
 13.778673917360358   5.059868891664398   1.749609538955700 
 12.522513477259832   7.226099791826993   1.736652882960810 
 11.263890865869612   9.392079367321331   1.730073390565995 
 10.011937129099913  11.554812113220903   1.741105640896245 
 -6.256994454424129  13.733741186854939   1.760940360022215 
  1.265526244622122   0.729340974174854   1.761893191615515 
  0.011571209258601   2.890448833470290   1.757906334407460 
 -1.246598534779841   5.059868891664398   1.719104587000245 
 -2.501973210760872   7.228138350583171   1.707957906206805 
 -3.755319991592364   9.396687767514178   1.718379641338800 
 -5.009033150575185  11.564374211539663   1.743817924263030 
 -3.754311464644300  13.737672985405394   1.743740716786155 
  3.764426411036682   0.733939351036989   1.740960952716735 
  2.531426692920787   2.922623028836957   1.710508608542985 
  1.255301044798752   5.054152267398581   1.665920248225635 
 -0.003199201059887   7.228661965085523   1.587115952637180 
 -1.249394445324857   9.397976058714283   1.612929459268905 
 -2.503665324705126  11.566740969200152   1.694929323762825 
 -1.250224813467637  13.735742656344719   1.718135702935005 
  6.263406624310091   0.731012108323356   1.729831574860785 
  5.018958033919168   2.914710095400271   1.682584768623000 
  3.807149913982845   5.147950065020668   1.604632949079495 
  2.434596296793265   7.164740340881057   1.173508743746490 
  1.253847788511280   9.397410532492206   1.367758968693390 
  0.001688047201840  11.564976281562757   1.612795347574290 
  1.254499966235609  13.734733179244651   1.707667484468790 
  8.768528281042959   0.724000499417040   1.736365280314650 
  7.520138952341697   2.896186691123901   1.690019465524575 
  6.280781384386513   5.077241830817413   1.608404089126035 
  3.777715672543094   9.491136519570446   1.173563204413605 
  2.503450307541548  11.570468677385461   1.587253312785300 
  3.761285751321147  13.731548864896231   1.719148943966250 
 11.275555130936848   0.719356285246798   1.749741889105095 
 10.027173208544031   2.885682541294520   1.732185880567140 
  8.784957164505938   5.049234516605017   1.667060794170225 
  7.508617136799058   7.203907801359536   1.608384910343745 
  6.210600153922842   9.310809541933075   1.604757124496640 
  5.015919389458544  11.567683657484540   1.666198794938565 
  6.267795407545590  13.726572250328871   1.757969397935745 
 13.781113259561696   0.717965275386085   1.764892980891315 
 12.530013011180481   2.887090690309174   1.758554905204455 
 11.279760598584312   5.055193435049921   1.732136365234605 
 10.017148322336391   7.221096045647813   1.690222919282385 
  8.750540850343537   9.377920778353625   1.682797260903150 
  7.499996498016616  11.528285874669765   1.710556637366250 
  7.517824599987449  14.450711988172024   1.766373936809880 
 15.033509407042411   1.441634658006450   1.769402470606185 
 13.782526112987979   3.611258159712143   1.758392007576480 
 12.530650208883443   5.780300814951607   1.741152262730775 
 11.270697120480662   7.946977928079104   1.721009230260000 
 10.008955841007609  10.110267661153111   1.720024873173615 
  8.754918807994724  12.267922536187870   1.739533212378840 
 -7.508537848491394  14.456314577696947   1.763901703418460 
  0.009435040510492   1.445778896292842   1.766425395001725 
 -1.241867692981884   3.614030899577574   1.750157240335560 
 -2.496212857826487   5.782515222722346   1.726785091705155 
 -3.752220428041109   7.950514733621436   1.723585221763320 
 -5.009133991409235  10.119737783328796   1.734002497136760 
 -6.261590691187286  12.285343798721820   1.751880727188045 
 -5.004984394158558  14.461946400438910   1.751843897279700 
  2.518329682686469   1.466028803229645   1.739488466290635 
  1.261016387602846   3.620076845130592   1.722767830438320 
  0.005014511951927   5.784877928729109   1.654061689506735 
 -1.249371950294792   7.951450207631487   1.639933285959570 
 -2.500020508592409  10.119737783328796   1.678614890429490 
 -3.754743822469774  12.289087924039039   1.731289905886965 
 -2.500955355972635  14.460052851946823   1.733874249455355 
  5.013976182172458   1.458727415713115   1.719841752740070 
  3.784636887020775   3.666370000077007   1.670106361343070 
  2.488056527004523   5.792685351217600   1.489988916954750 
  1.247516338634984   7.940187714785175   1.371680920637355 
  0.008692769874942  10.116243424820611   1.532290130896380 
 -1.251338535339158  12.287119704005381   1.678351814956395 
  0.003712253190672  14.456154818948018   1.723251414186120 
  7.518321886254216   1.447622452808837   1.720739791020090 
  6.271196391791526   3.622418055502011   1.656697249329510 
  5.085456729708040   5.866217893698868   1.595806560620430 
  2.512653967701058  10.131547217371628   1.371800526613740 
  1.254376633867103  12.288343873386042   1.639852273619670 
  2.509377399284082  14.452547748810865   1.726786984457595 
 10.024724753629499   1.439832438030490   1.741184663450295 
  8.779302454564668   3.604604371366983   1.695606169552425 
  7.546586271169131   5.764199750792145   1.625749953768615 
  6.227687196128357   7.844623445128667   1.595809836736680 
  4.992686786256231  10.130800842679969   1.490094840936315 
  3.757964884446016  12.285159807773464   1.654227955131810 
  5.014400389837242  14.450228163952156   1.750150329927345 
 12.529192737485888   1.440352633336184   1.758426328892220 
 11.280031695709322   3.608678227961822   1.741812761616810 
 10.033234591119147   5.776431505027891   1.695703975317270 
  8.763730156143742   7.939543021874113   1.656941486950740 
  7.482456595239626  10.071102236697225   1.670250916958025 
  6.260782414255093  12.279737687669593   1.722948661790880 
