B N                                     
   1.0000000000000000     
     8.7639499999999995  -15.1796066749929999    0.0000000000000000
     8.7639499999999995   15.1796066749929999    0.0000000000000000
     0.0000000000000000    0.0000000000000000   15.0000000000000000
   B    N 
    49    48
Selective dynamics
Direct
  0.9049119608639078  0.9530375404963559  0.1109666604362992   T   T   T
  0.9042671147380938  0.0957305740287471  0.1110326817832402   T   T   T
  0.9040494825590445  0.2386234563735429  0.1110191235960907   T   T   T
  0.9039860379205744  0.3814397930401829  0.1109614780449564   T   T   T
  0.9045166869663880  0.5242688530176864  0.1110437393126660   T   T   T
  0.9059913537145546  0.6674705004722075  0.1111505240893962   T   T   T
  0.9062962269750879  0.8109042380084023  0.1110001411050146   T   T   T
  0.0476829509432099  0.9523240206580491  0.1109835260786209   T   T   T
  0.0469582344138680  0.0950854055965513  0.1110238333116135   T   T   T
  0.0469361364062458  0.2381740016378410  0.1110332214837227   T   T   T
  0.0472790099926687  0.3810388982055872  0.1110124484180065   T   T   T
  0.0479236062665218  0.5237077320171034  0.1109647583156077   T   T   T
  0.0483435920772444  0.6665811875107964  0.1109971851695217   T   T   T
  0.0483466368234576  0.8095825039137475  0.1109695967261843   T   T   T
  0.1904271946781174  0.9516626645805368  0.1110361028961993   T   T   T
  0.1891000269744104  0.0937128371388305  0.1110259805738001   T   T   T
  0.1891904415319766  0.2371195137550967  0.1110763587929703   T   T   T
  0.1901699587239178  0.3805373255431523  0.1112471122495795   T   T   T
  0.1916627371995994  0.5231783291010208  0.1111478803784372   T   T   T
  0.1913280473215733  0.6660338043692339  0.1110589782273334   T   T   T
  0.1910401211130417  0.8089712891073741  0.1110006736477672   T   T   T
  0.3334308681578003  0.9516697763808406  0.1110704090515941   T   T   T
  0.3325362001081469  0.0940266520564010  0.1109920898652054   T   T   T
  0.3300421460805535  0.2344503874015839  0.1108134542451401   T   T   T
  0.3317738569788285  0.3791281019960392  0.1111415257100204   T   T   T
  0.3361212787858184  0.5223272251407918  0.1112361933227984   T   T   T
  0.3345803993322050  0.6654169869192632  0.1110793540983101   T   T   T
  0.3339694226454583  0.8086750065522395  0.1110515051411763   T   T   T
  0.4762979722425585  0.9520786718307861  0.1110319431856299   T   T   T
  0.4757388573950662  0.0955108729251151  0.1109396055547047   T   T   T
  0.4745699354814389  0.2385695538678305  0.1108671665731456   T   T   T
  0.4685735820874666  0.3775872854348175  0.1113767246755346   T   T   T
  0.4826722527382263  0.5172049596346112  0.1112275052261528   T   T   T
  0.4776679603520959  0.6638402496326820  0.1109398489630997   T   T   T
  0.4768194275730590  0.8083200435916384  0.1108797577037406   T   T   T
  0.6189602401012068  0.9527134549017037  0.1109813006422680   T   T   T
  0.6185581896411223  0.0960116293616086  0.1110270886502593   T   T   T
  0.6179326418765198  0.2394712033772681  0.1109871930202832   T   T   T
  0.6168030465124893  0.3832062579748260  0.1111147411726166   T   T   T
  0.6225285968924237  0.5314390858399519  0.1112653936440521   T   T   T
  0.6208577699316811  0.6681897152967812  0.1108761872449969   T   T   T
  0.6194577111778932  0.8098151323305357  0.1107110996308115   T   T   T
  0.7618238856374610  0.9530588355179757  0.1109532495290894   T   T   T
  0.7613739624079358  0.0959482848581448  0.1111026296086249   T   T   T
  0.7609873952347170  0.2390132279505857  0.1110835525001174   T   T   T
  0.7605364491995547  0.3820751441278533  0.1111062896604238   T   T   T
  0.7614750929312660  0.5254378725448938  0.1111859561837990   T   T   T
  0.7655748644311502  0.6699668573622579  0.1110672932606312   T   T   T
  0.7628784630887410  0.8107996651364656  0.1108418135790051   T   T   T
  0.9529026046110333  0.9056116684623894  0.1109395876182611   T   T   T
  0.9519518381055158  0.0480437621203855  0.1109986761892184   T   T   T
  0.9517037083893518  0.1909162362019482  0.1109809757387404   T   T   T
  0.9517894631043219  0.3338391099245726  0.1109350964570143   T   T   T
  0.9522483789682091  0.4766046902962528  0.1109157530342468   T   T   T
  0.9530239386896565  0.6194204381358973  0.1110297121625361   T   T   T
  0.9533196193315023  0.7625681826684382  0.1110063417283284   T   T   T
  0.0954003558890311  0.9046079708930161  0.1109529770714785   T   T   T
  0.0943922585861584  0.0471031805651341  0.1110201858046929   T   T   T
  0.0942511831392443  0.1901731583805334  0.1110319275601599   T   T   T
  0.0948325687827587  0.3333678846976912  0.1110767249208758   T   T   T
  0.0958678118330675  0.4761768662008952  0.1110019962773368   T   T   T
  0.0959344606265272  0.6188661232023465  0.1109833859190730   T   T   T
  0.0958531242119259  0.7617398107279978  0.1109493943340575   T   T   T
  0.2382723552103291  0.9041583679649133  0.1110174748753636   T   T   T
  0.2374379517084907  0.0466906119106182  0.1110604368018587   T   T   T
  0.2357360716405985  0.1883539805280436  0.1109344826152609   T   T   T
  0.2370420679621802  0.3323788685641265  0.1112282824656747   T   T   T
  0.2398394158071869  0.4756360845446181  0.1112942840361059   T   T   T
  0.2391909265208577  0.6183607418947162  0.1111043285258835   T   T   T
  0.2387357662090773  0.7612680504591398  0.1110318726514163   T   T   T
  0.3811396613076075  0.9040707653013729  0.1110539197004150   T   T   T
  0.3805871215280883  0.0469934239614167  0.1110167976052460   T   T   T
  0.3795076391248124  0.1891870515653286  0.1107750318026856   T   T   T
  0.3764015964975086  0.3288678741692115  0.1108879956986702   T   T   T
  0.3848958785796167  0.4742783778701403  0.1111888343273696   T   T   T
  0.3825371519965992  0.6174533663332110  0.1110819930778838   T   T   T
  0.3816377476102046  0.7608050142295241  0.1109792014722355   T   T   T
  0.5238227188812428  0.9041234158772771  0.1109560055191681   T   T   T
  0.5233938396931888  0.0477596856774839  0.1109903372171691   T   T   T
  0.5226928628948814  0.1912871894559417  0.1108416198645807   T   T   T
  0.5208108775528414  0.3352175121690284  0.1110821977966573   T   T   T
  0.5257033735075131  0.6150334002536473  0.1110131433722184   T   T   T
  0.5243601788975334  0.7601338363373584  0.1107158146598283   T   T   T
  0.6666297952972784  0.9051554404697261  0.1108439962798780   T   T   T
  0.6661570363608762  0.0482061944703998  0.1110587252754725   T   T   T
  0.6656628365684067  0.1915918858837658  0.1110133808139147   T   T   T
  0.6647606701401051  0.3352459970871062  0.1110530690272207   T   T   T
  0.6648507808421453  0.4791976451694909  0.1111059255872428   T   T   T
  0.6711601672221915  0.6236012961194892  0.1109674601600843   T   T   T
  0.6676128561482942  0.7629322766304282  0.1106753616774454   T   T   T
  0.8098232841633889  0.9057405948265783  0.1108981947207958   T   T   T
  0.8090809246915842  0.0482931413597672  0.1110645910397065   T   T   T
  0.8087241758158581  0.1912752315538336  0.1110798772929884   T   T   T
  0.8084077795189016  0.3343384841210000  0.1110248572622325   T   T   T
  0.8087437606968906  0.4773141630716764  0.1111536867233432   T   T   T
  0.8108357003919149  0.6204995791459501  0.1112552526341038   T   T   T
  0.8116570546310665  0.7642677235795852  0.1109701099985827   T   T   T

  0.00000000E+00  0.00000000E+00  0.00000000E+00
  0.00000000E+00  0.00000000E+00  0.00000000E+00
  0.00000000E+00  0.00000000E+00  0.00000000E+00
  0.00000000E+00  0.00000000E+00  0.00000000E+00
  0.00000000E+00  0.00000000E+00  0.00000000E+00
  0.00000000E+00  0.00000000E+00  0.00000000E+00
  0.00000000E+00  0.00000000E+00  0.00000000E+00
  0.00000000E+00  0.00000000E+00  0.00000000E+00
  0.00000000E+00  0.00000000E+00  0.00000000E+00
  0.00000000E+00  0.00000000E+00  0.00000000E+00
  0.00000000E+00  0.00000000E+00  0.00000000E+00
  0.00000000E+00  0.00000000E+00  0.00000000E+00
  0.00000000E+00  0.00000000E+00  0.00000000E+00
  0.00000000E+00  0.00000000E+00  0.00000000E+00
  0.00000000E+00  0.00000000E+00  0.00000000E+00
  0.00000000E+00  0.00000000E+00  0.00000000E+00
  0.00000000E+00  0.00000000E+00  0.00000000E+00
  0.00000000E+00  0.00000000E+00  0.00000000E+00
  0.00000000E+00  0.00000000E+00  0.00000000E+00
  0.00000000E+00  0.00000000E+00  0.00000000E+00
  0.00000000E+00  0.00000000E+00  0.00000000E+00
  0.00000000E+00  0.00000000E+00  0.00000000E+00
  0.00000000E+00  0.00000000E+00  0.00000000E+00
  0.00000000E+00  0.00000000E+00  0.00000000E+00
  0.00000000E+00  0.00000000E+00  0.00000000E+00
  0.00000000E+00  0.00000000E+00  0.00000000E+00
  0.00000000E+00  0.00000000E+00  0.00000000E+00
  0.00000000E+00  0.00000000E+00  0.00000000E+00
  0.00000000E+00  0.00000000E+00  0.00000000E+00
  0.00000000E+00  0.00000000E+00  0.00000000E+00
  0.00000000E+00  0.00000000E+00  0.00000000E+00
  0.00000000E+00  0.00000000E+00  0.00000000E+00
  0.00000000E+00  0.00000000E+00  0.00000000E+00
  0.00000000E+00  0.00000000E+00  0.00000000E+00
  0.00000000E+00  0.00000000E+00  0.00000000E+00
  0.00000000E+00  0.00000000E+00  0.00000000E+00
  0.00000000E+00  0.00000000E+00  0.00000000E+00
  0.00000000E+00  0.00000000E+00  0.00000000E+00
  0.00000000E+00  0.00000000E+00  0.00000000E+00
  0.00000000E+00  0.00000000E+00  0.00000000E+00
  0.00000000E+00  0.00000000E+00  0.00000000E+00
  0.00000000E+00  0.00000000E+00  0.00000000E+00
  0.00000000E+00  0.00000000E+00  0.00000000E+00
  0.00000000E+00  0.00000000E+00  0.00000000E+00
  0.00000000E+00  0.00000000E+00  0.00000000E+00
  0.00000000E+00  0.00000000E+00  0.00000000E+00
  0.00000000E+00  0.00000000E+00  0.00000000E+00
  0.00000000E+00  0.00000000E+00  0.00000000E+00
  0.00000000E+00  0.00000000E+00  0.00000000E+00
  0.00000000E+00  0.00000000E+00  0.00000000E+00
  0.00000000E+00  0.00000000E+00  0.00000000E+00
  0.00000000E+00  0.00000000E+00  0.00000000E+00
  0.00000000E+00  0.00000000E+00  0.00000000E+00
  0.00000000E+00  0.00000000E+00  0.00000000E+00
  0.00000000E+00  0.00000000E+00  0.00000000E+00
  0.00000000E+00  0.00000000E+00  0.00000000E+00
  0.00000000E+00  0.00000000E+00  0.00000000E+00
  0.00000000E+00  0.00000000E+00  0.00000000E+00
  0.00000000E+00  0.00000000E+00  0.00000000E+00
  0.00000000E+00  0.00000000E+00  0.00000000E+00
  0.00000000E+00  0.00000000E+00  0.00000000E+00
  0.00000000E+00  0.00000000E+00  0.00000000E+00
  0.00000000E+00  0.00000000E+00  0.00000000E+00
  0.00000000E+00  0.00000000E+00  0.00000000E+00
  0.00000000E+00  0.00000000E+00  0.00000000E+00
  0.00000000E+00  0.00000000E+00  0.00000000E+00
  0.00000000E+00  0.00000000E+00  0.00000000E+00
  0.00000000E+00  0.00000000E+00  0.00000000E+00
  0.00000000E+00  0.00000000E+00  0.00000000E+00
  0.00000000E+00  0.00000000E+00  0.00000000E+00
  0.00000000E+00  0.00000000E+00  0.00000000E+00
  0.00000000E+00  0.00000000E+00  0.00000000E+00
  0.00000000E+00  0.00000000E+00  0.00000000E+00
  0.00000000E+00  0.00000000E+00  0.00000000E+00
  0.00000000E+00  0.00000000E+00  0.00000000E+00
  0.00000000E+00  0.00000000E+00  0.00000000E+00
  0.00000000E+00  0.00000000E+00  0.00000000E+00
  0.00000000E+00  0.00000000E+00  0.00000000E+00
  0.00000000E+00  0.00000000E+00  0.00000000E+00
  0.00000000E+00  0.00000000E+00  0.00000000E+00
  0.00000000E+00  0.00000000E+00  0.00000000E+00
  0.00000000E+00  0.00000000E+00  0.00000000E+00
  0.00000000E+00  0.00000000E+00  0.00000000E+00
  0.00000000E+00  0.00000000E+00  0.00000000E+00
  0.00000000E+00  0.00000000E+00  0.00000000E+00
  0.00000000E+00  0.00000000E+00  0.00000000E+00
  0.00000000E+00  0.00000000E+00  0.00000000E+00
  0.00000000E+00  0.00000000E+00  0.00000000E+00
  0.00000000E+00  0.00000000E+00  0.00000000E+00
  0.00000000E+00  0.00000000E+00  0.00000000E+00
  0.00000000E+00  0.00000000E+00  0.00000000E+00
  0.00000000E+00  0.00000000E+00  0.00000000E+00
  0.00000000E+00  0.00000000E+00  0.00000000E+00
  0.00000000E+00  0.00000000E+00  0.00000000E+00
  0.00000000E+00  0.00000000E+00  0.00000000E+00
  0.00000000E+00  0.00000000E+00  0.00000000E+00
  0.00000000E+00  0.00000000E+00  0.00000000E+00
