 B N C 
 1.0
 17.527899999999772   0.000000000000000   0.000000000000000
 -8.763949999999658  15.179606674993195   0.000000000000000
  0.000000000000001   0.000000000000002  15.000000000000000
 B N C 
  47  48   2
Cartesian
  7.517616018558018  14.444177478711085   1.665401765324130 
 15.044396241455180   1.435487721091425   1.665945373015200 
 13.796231533779759   3.606072304047566   1.665956721539115 
 12.539005763280823   5.781385995047490   1.665245796055785 
 11.262154126675494   7.953776398526570   1.665009106388220 
  9.999533569284161  10.119737783328796   1.666110340372380 
  8.749675849445559  12.271532465972765   1.665650072897055 
 -7.503600122681465  14.491810913678229   1.664986578283845 
  0.023326781940801   1.470787137347962   1.665096819445545 
 -1.229265236490729   3.624495741454530   1.665355537929675 
 -2.503021412111349   5.790836965781995   1.665418886879115 
 -3.777894371209296   7.964615759511368   1.665204776403870 
 -5.028189253907885  10.136842444568286   1.665098695252440 
 -6.272321749947039  12.308528011279666   1.664741955558900 
 -5.012291823529162  14.497938340455807   1.664517532081020 
  2.546252929210578   1.543997132557309   1.665436607549565 
  1.289431431239710   3.675462571618612   1.665031863211980 
 -0.010796391210622   5.814223619010625   1.664900288797425 
 -1.303736425457543   7.977118086065165   1.666032002310540 
 -2.540262608671299  10.146534348798930   1.666488712982310 
 -3.776086420496656  12.317288893540910   1.665111849546660 
 -2.513064277218187  14.485697368761295   1.665421403515800 
  5.015255234137709   1.496758241876972   1.665656093968095 
  3.875427424954829   3.815886912002420   1.666011444300975 
  2.488146898379444   5.887400633896091   1.665408239003295 
  1.136826311200141   8.022552659027227   1.665155292558345 
 -0.060290797153789  10.159677270602755   1.666453237623360 
 -1.277633529864126  12.315670757237024   1.666651074297300 
  0.008272671210918  14.446537801545087   1.665452489839155 
  7.541019671303584   1.429017683896227   1.665217689412065 
  6.322188305258037   3.577328856542825   1.664553582755625 
  2.455748641409149  10.090251407384432   1.665226411806855 
  1.244586522000189  12.274950259849742   1.666120170228675 
  2.519813267409374  14.426930447973415   1.665033483138360 
 10.046188593374929   1.421458426295535   1.665142288018020 
  8.818888443461431   3.587248000221147   1.665073427996415 
  7.601892855342758   5.761058953840082   1.664661593264235 
  6.193324499177812   7.752469733465447   1.666380817608150 
  4.992846894712692  10.012335147242691   1.665389202865125 
  3.758192158734781  12.238390878430502   1.664950621361160 
  5.020608231933416  14.423874900352537   1.665743516512275 
 12.544614177009077   1.422883835923282   1.665919970526240 
 11.303881733301676   3.597289966674198   1.665384516579315 
 10.061810387501637   5.771771467956775   1.665359667836430 
  8.759413773709813   7.930986411238125   1.666513671697035 
  7.475000687553434  10.040347222631924   1.666051932238335 
  6.249824644046397  12.232057511678205   1.665416610924615 
  8.769700349196290  13.732260198629474   1.665117379789395 
 16.300068775659160   0.721414795700048   1.665199380259290 
 15.052740236095612   2.887700945032328   1.665591958122165 
 13.788866982843224   5.056281398700365   1.665235337611440 
 12.512831088494391   7.230589157532826   1.664513867369550 
 11.252160174391019   9.401412514183077   1.665046707607890 
 10.003521061940047  11.564749696457584   1.665550225237605 
 -6.261111606882752  13.763666359204354   1.664139126289425 
  1.289393530662592   0.782788337637406   1.664809476558465 
  0.042995235892128   2.927502187228619   1.664739911412195 
 -1.239905460263256   5.074924086883933   1.664856094814850 
 -2.527933370578716   7.238914715861412   1.665335483390535 
 -3.779591917405593   9.412456265134725   1.665327665795430 
 -5.024294729544532  11.585800265744268   1.664505599140320 
 -3.767280476515072  13.767328649651173   1.664553721287870 
  3.766767553746122   0.782529701836444   1.665081081809265 
  2.594268543806461   3.050016724903018   1.665307406604720 
  1.277837142385247   5.126806441626855   1.664596807413645 
 -0.051434005492732   7.257468162023899   1.665228566346420 
 -1.290527267227563   9.420729779068434   1.666499795041095 
 -2.526543565258895  11.590795793317458   1.666063366033335 
 -1.261774356298167  13.754115548011335   1.665622582858380 
  6.260490460323363   0.755024813970717   1.665117029632650 
  5.029983781312931   2.969329337724003   1.665904357368975 
  3.898249851183899   5.509393296215109   1.665617905048755 
  2.390697744389638   7.327637753539499   1.664417783505675 
  1.191452672206687   9.432925074587713   1.665616239050505 
 -0.024625545520837  11.586744914385452   1.666626936313695 
  1.260968646564011  13.712475229103797   1.665166706456340 
  8.787604472586347   0.705812665795181   1.664667375950055 
  7.570489090372089   2.862993093275632   1.664731824480585 
  6.481493566906978   4.951425995283044   1.659758883218970 
  3.703800243689799   9.260561328112139   1.664644632582285 
  2.500299698254864  11.520574489530048   1.665100703705115 
  3.768720324797153  13.684872917672191   1.664909395568370 
 11.293918758521006   0.692498615150114   1.665027278932110 
 10.059902027454507   2.865372151723347   1.664907423100530 
  8.834917910734674   5.030771465504744   1.664951268130875 
  7.499389606470876   7.184956065679768   1.666383319914150 
  6.196421013992448   9.236881225687702   1.665643586757630 
  4.992545175779640  11.466182502999413   1.664674026307560 
  6.265089949928756  13.688833359854032   1.665267879723195 
 13.794668644499707   0.695554845934047   1.665843371602500 
 12.551363948896277   2.872256195246170   1.665840801410220 
 11.302127158772764   5.047170456596374   1.665142437043950 
 10.015324155644196   7.219702937509659   1.665313557744465 
  8.743367416449598   9.368782047167198   1.666267600373265 
  7.489484939480474  11.501847918301422   1.665633796395810 
  3.600542830840360   7.890873144418300   1.664830315026645 
  4.652433785842108   6.856672271825732   1.666019986977345 
