Al B N                                  
   1.0000000000000000     
     8.7639499999999995  -15.1796066749929999    0.0000000000000000
     8.7639499999999995   15.1796066749929999    0.0000000000000000
     0.0000000000000000    0.0000000000000000   15.0000000000000000
   Al   B    N 
     1    48    48
Selective dynamics
Direct
  0.4440067694431768  0.5077185873455893  0.1112570705467891   T   T   T
  0.9050950376818623  0.9526601092390485  0.1109987749298592   T   T   T
  0.9061427594856420  0.0962522669832990  0.1110254567880927   T   T   T
  0.9066116658670156  0.2390201797790099  0.1110837534435898   T   T   T
  0.9061427594856420  0.3813191861933402  0.1110254567880927   T   T   T
  0.9050950376818623  0.5238653336908153  0.1109987749298592   T   T   T
  0.9038727410564753  0.6660939350197473  0.1110564364347127   T   T   T
  0.9038727410564753  0.8092092112847225  0.1110564364347127   T   T   T
  0.0469497877448864  0.9516358291407758  0.1110116676165778   T   T   T
  0.0480875845755272  0.0950450320052484  0.1109972206708769   T   T   T
  0.0495990585156281  0.2390372756838013  0.1110216574223042   T   T   T
  0.0495990585156281  0.3819921880788267  0.1110216574223042   T   T   T
  0.0480875845755272  0.5244729578182734  0.1109972206708769   T   T   T
  0.0469497877448864  0.6667460754081078  0.1110116676165778   T   T   T
  0.0469491799423699  0.8091906483731871  0.1109898649488244   T   T   T
  0.1897411254744067  0.9514555477031740  0.1110030706692600   T   T   T
  0.1897518956425562  0.0934035511811006  0.1110414835822596   T   T   T
  0.1910559472968268  0.2368600414103564  0.1110079377540908   T   T   T
  0.1935758192627010  0.3825031122548504  0.1110350232161855   T   T   T
  0.1910559472968268  0.5256263111344720  0.1110079377540908   T   T   T
  0.1897518956425562  0.6677787497094502  0.1110414835822596   T   T   T
  0.1897411254744067  0.8097176945752372  0.1110030706692600   T   T   T
  0.3329468818763420  0.9521894993396723  0.1110177233140490   T   T   T
  0.3329198467394232  0.0927367147178721  0.1110642608798297   T   T   T
  0.3325218690900577  0.2327889318134479  0.1110214265349930   T   T   T
  0.3337640554416277  0.3731008220669482  0.1111598658575153   T   T   T
  0.3337640554416277  0.5320936386216795  0.1111598658575153   T   T   T
  0.3325218690900577  0.6711633425236168  0.1110214265349930   T   T   T
  0.3329198467394232  0.8116135372685438  0.1110642608798297   T   T   T
  0.4765549075899294  0.9536414333840610  0.1110058770730037   T   T   T
  0.4765549075899294  0.0943438794528610  0.1110058770730037   T   T   T
  0.4766315407121652  0.2347994557121594  0.1110104472313804   T   T   T
  0.4773970273510253  0.3755323123187150  0.1110314538482852   T   T   T
  0.4773970273510253  0.6732951202793103  0.1110314538482852   T   T   T
  0.4766315407121652  0.8132624902470057  0.1110104472313804   T   T   T
  0.6201138805011722  0.9542383885798967  0.1109936285104053   T   T   T
  0.6201595077130398  0.0957941007020185  0.1109834162565575   T   T   T
  0.6201138805011722  0.2373058971682753  0.1109936285104053   T   T   T
  0.6201056428165999  0.3794390852984352  0.1110024540746151   T   T   T
  0.6167121401649656  0.5200325290862594  0.1110497422352368   T   T   T
  0.6167121401649656  0.6681100163267006  0.1110497422352368   T   T   T
  0.6201056428165999  0.8120969627651644  0.1110024540746151   T   T   T
  0.7630581426752858  0.9539100892633813  0.1109886670388786   T   T   T
  0.7633954793048122  0.0963024369154583  0.1110284457823134   T   T   T
  0.7633954793048122  0.2385217360803511  0.1110284457823134   T   T   T
  0.7630581426752858  0.3805784586589043  0.1109886670388786   T   T   T
  0.7614986684083295  0.5227677058524853  0.1110398151514331   T   T   T
  0.7604634847235755  0.6659469449857816  0.1110993460722905   T   T   T
  0.7614986684083295  0.8101613678038458  0.1110398151514331   T   T   T
  0.9516996829421587  0.9041927400172679  0.1110082264134927   T   T   T
  0.9529253100670049  0.0478020065509497  0.1109763166269044   T   T   T
  0.9543546316071747  0.1915507064770743  0.1110340973063996   T   T   T
  0.9543546316071747  0.3342309072480987  0.1110340973063996   T   T   T
  0.9529253100670049  0.4765502856340535  0.1109763166269044   T   T   T
  0.9516996829421587  0.6189356365998865  0.1110082264134927   T   T   T
  0.9511212466998105  0.7612749701874031  0.1110287322002779   T   T   T
  0.0944085119617617  0.9040561354434230  0.1109707779868782   T   T   T
  0.0947971261764207  0.0466874585600899  0.1110014788261786   T   T   T
  0.0962749406695357  0.1904437130391450  0.1109796171623254   T   T   T
  0.0982560899463082  0.3348423918101546  0.1109942606951170   T   T   T
  0.0962749406695357  0.4772599213043917  0.1109796171623254   T   T   T
  0.0947971261764207  0.6195383612913266  0.1110014788261786   T   T   T
  0.0944085119617617  0.7617827817493443  0.1109707779868782   T   T   T
  0.2376702685775937  0.9045503369042961  0.1109769532880767   T   T   T
  0.2376942209134103  0.0463006550120862  0.1110370598054212   T   T   T
  0.2378138037200985  0.1883840956130423  0.1110102000347386   T   T   T
  0.2403673850111920  0.3330094956408423  0.1110413321080899   T   T   T
  0.2403673850111920  0.4787865830443436  0.1110413321080899   T   T   T
  0.2378138037200985  0.6208584017820520  0.1110102000347386   T   T   T
  0.2376942209134103  0.7628222595763269  0.1110370598054212   T   T   T
  0.3812461792233505  0.9059621639149421  0.1110149739938725   T   T   T
  0.3812461792233505  0.0467127089834112  0.1110149739938725   T   T   T
  0.3813317937963368  0.1872916501884183  0.1110204003481570   T   T   T
  0.3811314267554068  0.3270454123319951  0.1110209842356061   T   T   T
  0.3811314267554068  0.6255147080984074  0.1110209842356061   T   T   T
  0.3813317937963368  0.7654688372829285  0.1110204003481570   T   T   T
  0.5248722233808383  0.9073421546822499  0.1109878058165010   T   T   T
  0.5248980926333641  0.0481625373761857  0.1109691320986231   T   T   T
  0.5248722233808383  0.1889587623735913  0.1109878058165010   T   T   T
  0.5250334004952163  0.3295501436461427  0.1109871497982138   T   T   T
  0.5230494110956393  0.4691989381600893  0.1110404345136483   T   T   T
  0.5230494110956393  0.6252791666105455  0.1110404345136483   T   T   T
  0.5250334004952163  0.7669119505240766  0.1109871497982138   T   T   T
  0.6679883955905225  0.9068104198687404  0.1109734200346430   T   T   T
  0.6681686393998212  0.0488629804655613  0.1109813111762245   T   T   T
  0.6681686393998212  0.1907326410532670  0.1109813111762245   T   T   T
  0.6679883955905225  0.3326066693967777  0.1109734200346430   T   T   T
  0.6666660271659123  0.4748243270974157  0.1110114003970130   T   T   T
  0.6638380381272678  0.6176333659016328  0.1110507297863392   T   T   T
  0.6666660271659123  0.7632703937434994  0.1110114003970130   T   T   T
  0.8097505678121761  0.9051830452471153  0.1109864827662982   T   T   T
  0.8109951978858266  0.0488076146731199  0.1109985909860128   T   T   T
  0.8113015109787932  0.1913642465483957  0.1110517298661312   T   T   T
  0.8109951978858266  0.3336145653307050  0.1109985909860128   T   T   T
  0.8097505678121761  0.4759962162390688  0.1109864827662982   T   T   T
  0.8081280854068388  0.6183521061558660  0.1110613585500352   T   T   T
  0.8081280854068388  0.7612046729259754  0.1110613585500352   T   T   T

  0.00000000E+00  0.00000000E+00  0.00000000E+00
  0.00000000E+00  0.00000000E+00  0.00000000E+00
  0.00000000E+00  0.00000000E+00  0.00000000E+00
  0.00000000E+00  0.00000000E+00  0.00000000E+00
  0.00000000E+00  0.00000000E+00  0.00000000E+00
  0.00000000E+00  0.00000000E+00  0.00000000E+00
  0.00000000E+00  0.00000000E+00  0.00000000E+00
  0.00000000E+00  0.00000000E+00  0.00000000E+00
  0.00000000E+00  0.00000000E+00  0.00000000E+00
  0.00000000E+00  0.00000000E+00  0.00000000E+00
  0.00000000E+00  0.00000000E+00  0.00000000E+00
  0.00000000E+00  0.00000000E+00  0.00000000E+00
  0.00000000E+00  0.00000000E+00  0.00000000E+00
  0.00000000E+00  0.00000000E+00  0.00000000E+00
  0.00000000E+00  0.00000000E+00  0.00000000E+00
  0.00000000E+00  0.00000000E+00  0.00000000E+00
  0.00000000E+00  0.00000000E+00  0.00000000E+00
  0.00000000E+00  0.00000000E+00  0.00000000E+00
  0.00000000E+00  0.00000000E+00  0.00000000E+00
  0.00000000E+00  0.00000000E+00  0.00000000E+00
  0.00000000E+00  0.00000000E+00  0.00000000E+00
  0.00000000E+00  0.00000000E+00  0.00000000E+00
  0.00000000E+00  0.00000000E+00  0.00000000E+00
  0.00000000E+00  0.00000000E+00  0.00000000E+00
  0.00000000E+00  0.00000000E+00  0.00000000E+00
  0.00000000E+00  0.00000000E+00  0.00000000E+00
  0.00000000E+00  0.00000000E+00  0.00000000E+00
  0.00000000E+00  0.00000000E+00  0.00000000E+00
  0.00000000E+00  0.00000000E+00  0.00000000E+00
  0.00000000E+00  0.00000000E+00  0.00000000E+00
  0.00000000E+00  0.00000000E+00  0.00000000E+00
  0.00000000E+00  0.00000000E+00  0.00000000E+00
  0.00000000E+00  0.00000000E+00  0.00000000E+00
  0.00000000E+00  0.00000000E+00  0.00000000E+00
  0.00000000E+00  0.00000000E+00  0.00000000E+00
  0.00000000E+00  0.00000000E+00  0.00000000E+00
  0.00000000E+00  0.00000000E+00  0.00000000E+00
  0.00000000E+00  0.00000000E+00  0.00000000E+00
  0.00000000E+00  0.00000000E+00  0.00000000E+00
  0.00000000E+00  0.00000000E+00  0.00000000E+00
  0.00000000E+00  0.00000000E+00  0.00000000E+00
  0.00000000E+00  0.00000000E+00  0.00000000E+00
  0.00000000E+00  0.00000000E+00  0.00000000E+00
  0.00000000E+00  0.00000000E+00  0.00000000E+00
  0.00000000E+00  0.00000000E+00  0.00000000E+00
  0.00000000E+00  0.00000000E+00  0.00000000E+00
  0.00000000E+00  0.00000000E+00  0.00000000E+00
  0.00000000E+00  0.00000000E+00  0.00000000E+00
  0.00000000E+00  0.00000000E+00  0.00000000E+00
  0.00000000E+00  0.00000000E+00  0.00000000E+00
  0.00000000E+00  0.00000000E+00  0.00000000E+00
  0.00000000E+00  0.00000000E+00  0.00000000E+00
  0.00000000E+00  0.00000000E+00  0.00000000E+00
  0.00000000E+00  0.00000000E+00  0.00000000E+00
  0.00000000E+00  0.00000000E+00  0.00000000E+00
  0.00000000E+00  0.00000000E+00  0.00000000E+00
  0.00000000E+00  0.00000000E+00  0.00000000E+00
  0.00000000E+00  0.00000000E+00  0.00000000E+00
  0.00000000E+00  0.00000000E+00  0.00000000E+00
  0.00000000E+00  0.00000000E+00  0.00000000E+00
  0.00000000E+00  0.00000000E+00  0.00000000E+00
  0.00000000E+00  0.00000000E+00  0.00000000E+00
  0.00000000E+00  0.00000000E+00  0.00000000E+00
  0.00000000E+00  0.00000000E+00  0.00000000E+00
  0.00000000E+00  0.00000000E+00  0.00000000E+00
  0.00000000E+00  0.00000000E+00  0.00000000E+00
  0.00000000E+00  0.00000000E+00  0.00000000E+00
  0.00000000E+00  0.00000000E+00  0.00000000E+00
  0.00000000E+00  0.00000000E+00  0.00000000E+00
  0.00000000E+00  0.00000000E+00  0.00000000E+00
  0.00000000E+00  0.00000000E+00  0.00000000E+00
  0.00000000E+00  0.00000000E+00  0.00000000E+00
  0.00000000E+00  0.00000000E+00  0.00000000E+00
  0.00000000E+00  0.00000000E+00  0.00000000E+00
  0.00000000E+00  0.00000000E+00  0.00000000E+00
  0.00000000E+00  0.00000000E+00  0.00000000E+00
  0.00000000E+00  0.00000000E+00  0.00000000E+00
  0.00000000E+00  0.00000000E+00  0.00000000E+00
  0.00000000E+00  0.00000000E+00  0.00000000E+00
  0.00000000E+00  0.00000000E+00  0.00000000E+00
  0.00000000E+00  0.00000000E+00  0.00000000E+00
  0.00000000E+00  0.00000000E+00  0.00000000E+00
  0.00000000E+00  0.00000000E+00  0.00000000E+00
  0.00000000E+00  0.00000000E+00  0.00000000E+00
  0.00000000E+00  0.00000000E+00  0.00000000E+00
  0.00000000E+00  0.00000000E+00  0.00000000E+00
  0.00000000E+00  0.00000000E+00  0.00000000E+00
  0.00000000E+00  0.00000000E+00  0.00000000E+00
  0.00000000E+00  0.00000000E+00  0.00000000E+00
  0.00000000E+00  0.00000000E+00  0.00000000E+00
  0.00000000E+00  0.00000000E+00  0.00000000E+00
  0.00000000E+00  0.00000000E+00  0.00000000E+00
  0.00000000E+00  0.00000000E+00  0.00000000E+00
  0.00000000E+00  0.00000000E+00  0.00000000E+00
  0.00000000E+00  0.00000000E+00  0.00000000E+00
  0.00000000E+00  0.00000000E+00  0.00000000E+00
  0.00000000E+00  0.00000000E+00  0.00000000E+00
