 B N P 
 1.0
 17.527899999999772   0.000000000000000   0.000000000000000
 -8.763949999999658  15.179606674993195   0.000000000000000
  0.000000000000001   0.000000000000002  15.000000000000000
 B N P 
  48  48   1
Cartesian
  7.522236163853766  14.468863776623516   1.665260410292400 
 15.014790558485153   1.450956594317952   1.665657918358890 
 13.754578612327808   3.619671443405497   1.665558508315650 
 12.501863042976582   5.787446654322194   1.664962586074305 
 11.264480801164318   7.954655071280152   1.665078992720280 
 10.048050572943417  10.130433003551085   1.665770281661580 
  8.801625433801700  12.316746644692813   1.665556698358275 
 -7.495293965333762  14.447158025278364   1.665266246103150 
 -0.005329412713769   1.430742424482961   1.665468893571120 
 -1.264743864496037   3.605306218958203   1.665172352723535 
 -2.508503623829426   5.776389609804817   1.665188159675670 
 -3.737913221103888   7.941691144630920   1.664912152724910 
 -4.976260168569969  10.110176990706403   1.665509055972720 
 -6.228231894145686  12.281576859738689   1.665593127519855 
 -4.986305613036389  14.432648205731242   1.665367546109325 
  2.498145417775572   1.398813336982303   1.665585476146110 
  1.233580356425688   3.571465108402242   1.665268738758705 
 -0.002077960590790   5.759451650364408   1.665211630709160 
 -1.206952007978781   7.928354373878049   1.665170969025420 
 -2.460731461630298  10.097648958587493   1.664978068991670 
 -3.720701440764441  12.267904066862618   1.665129389027580 
 -2.479823900446422  14.434115226026536   1.665403809989340 
  5.014785633045111   1.412549838804356   1.665834754482900 
  3.721990141030194   3.518610362706756   1.664762138809620 
  2.475940303677747   5.707539171049850   1.665552355873425 
  1.345224347379701   7.904683151856087   1.666253830609560 
  0.062779163766326  10.083511688607848   1.665452275667655 
 -1.211217978635173  12.261863753364759   1.664910927511185 
  0.017312129782424  14.445918177524232   1.664850463522695 
  7.507284452252923   1.446991568725627   1.665188637260970 
  6.221795392418214   3.623425094640363   1.665894819021570 
  4.850878039296863   5.712606754956018   1.669076010035760 
  2.590920606233375  10.062289817635689   1.666831276624515 
  1.294337148601916  12.260708789676762   1.664925020159250 
  2.507223736503109  14.463865774776687   1.665133237940565 
 10.002829364311623   1.458992898700226   1.664982364189590 
  8.726909019875306   3.640087221303546   1.665989592239835 
  7.432206333409951   5.828769297679023   1.666863467809035 
  6.242112502485521   8.122336727977769   1.665707312184570 
  5.059057092526191  10.181613854527070   1.665850780687350 
  3.775105781667923  12.301700123385009   1.664884193064255 
  5.009307555339893  14.472277739788160   1.664975166145155 
 12.506529115055258   1.457991375147492   1.665578280402810 
 11.241503071557855   3.629485100800346   1.666091724211605 
  9.975020777886296   5.801887347219250   1.665918000473265 
  8.736885029339891   7.979695101768492   1.665650271271620 
  7.577750533417129  10.196980974076464   1.664598158670675 
  6.287784739536494  12.325525782966670   1.664787874804605 
  8.780775347420041  13.749337347799136   1.664851773565155 
 16.269238816057513   0.726699727888424   1.665087522180045 
 15.007430293173758   2.893805833010390   1.665079959027750 
 13.756920934882732   5.063906693901044   1.664693795695725 
 12.520404459654671   7.230838496320116   1.664432386484520 
 11.291775665838820   9.398334186689464   1.665099842361315 
 10.045801457665567  11.574170755499910   1.665348881151390 
 -6.239620428510454  13.722212038203617   1.664738764056945 
  1.247079703102659   0.700589410068180   1.664980409276355 
 -0.018711734305538   2.869722561567695   1.664872460876970 
 -1.261003091329762   5.049161991584741   1.664650633663005 
 -2.480791539748670   7.219672774518000   1.664667175667205 
 -3.723504368229086   9.385345362127326   1.664622092863005 
 -4.976132077213069  11.553851458378782   1.665079948423425 
 -3.730014861486720  13.712179610564185   1.664890508598705 
  3.763348061410936   0.692635020753370   1.665060586459410 
  2.474079333447830   2.826745038603489   1.664760633433725 
  1.226382403944814   5.011927637856204   1.664731894081335 
  0.052907194803318   7.203190223248176   1.665050415049920 
 -1.202551175951792   9.373454157052119   1.664721965464350 
 -2.465663965705110  11.543314589648311   1.664602176472680 
 -1.225725995389034  13.711618078913483   1.664519997045075 
  6.270668269403814   0.701509833276790   1.665164875880235 
  4.997469761364155   2.853022903610170   1.664985927217800 
  3.687327271795727   4.932264008136396   1.664447303209455 
  2.594359576911620   7.141741551782554   1.666055714477205 
  1.326938404613042   9.353650592739845   1.665772000267215 
  0.045044326154085  11.534354536039828   1.664641632263565 
  1.271151356515670  13.718229676420593   1.664537172825480 
  8.762078654465567   0.721231977224663   1.664469948568710 
  7.483736908560473   2.903341809405097   1.665249906444750 
  6.174903350161339   5.089785407509332   1.666778860212795 
  3.876204972612636   9.361960503896231   1.667849708954910 
  2.552272857478990  11.532222455661104   1.664752700827710 
  3.760762838029667  13.747113060881606   1.664490498355065 
 11.256953466311392   0.733839945185552   1.664737449089955 
  9.985864659715874   2.911196329412749   1.665216712757895 
  8.702201362059174   5.095541259216940   1.665771412763985 
  7.443538364438254   7.287105740942816   1.666002129477120 
  6.336150935043397   9.520165869176074   1.664108332893600 
  5.036691610663793  11.611572538110417   1.664264832685785 
  6.269347806566774  13.760975749153026   1.664462495434785 
 13.761565115678930   0.735910586438917   1.665069980102460 
 12.497683255034550   2.904217734625492   1.665407383438965 
 11.235734175622754   5.076033366555081   1.665225231090225 
  9.991465163720061   7.246866844200555   1.665126951375150 
  8.791900394610577   9.425185479938365   1.664607883384230 
  7.552964489515431  11.623636555305444   1.664488470379665 
  4.362164549037909   7.601245894750744   1.670194412019195 
