Species order: X N B                    
   2.51242800000000     
     5.9449720136058266    0.0000000000000000    0.0000000000000000
    -2.9724860068029120    5.1484967885702053   -0.0000000000000001
     0.0000000000000000    0.0000000000000009    5.3101128803662583
   As   N    B 
     1   143   143
Direct
  0.5025413733208087  0.4179373533270687  0.3750000000000000
  0.1114811106450755  0.0557335042968955  0.1250676203259307
  0.6114825282540133  0.5557740459121048  0.1240900663847349
  0.4448044461097651  0.0557197367824759  0.1250560647629949
  0.9447862096018609  0.5557244320887482  0.1250211238680243
  0.7781452510516127  0.0557392921924727  0.1248941102876927
  0.1114338702026350  0.7223836017679736  0.6250503994791687
  0.4448044461097651  0.7224180426606277  0.6249439352370046
  0.2781388496927910  0.2223940501931236  0.6253122681759173
  0.7781343308420612  0.7224035777436630  0.6250449937720346
  0.6114890442591312  0.2223913256809040  0.6251357598518629
  0.9448289215433208  0.2224128401534248  0.6250149398958952
  0.2781383431140111  0.7224126910537862  0.1250017151740310
  0.1114944499157903  0.2224138916245530  0.1250282459454428
  0.4448291030479143  0.2223917581210786  0.1246420806962776
  0.6114890442591312  0.7224310519115561  0.1248642401481481
  0.9447862096018609  0.7223951108464339  0.1250211238680243
  0.7781669456822903  0.2224120134641624  0.1249163394299664
  0.1114712617194828  0.8890604353895074  0.6249765052542126
  0.4448216192029135  0.8890774762681360  0.6249984594236757
  0.2781388496927910  0.3890781328329958  0.6253122681759173
  0.6114825282540133  0.3890418156752274  0.6259099336152650
  0.7781669456822903  0.8890882655514543  0.6250836605700290
  0.9448248564642826  0.3890688692662632  0.6250135999653113
  0.1114811106450755  0.3890809396815096  0.1250676203259307
  0.2781383431140111  0.8890589853935430  0.1250017151740310
  0.6114920273670488  0.8890881649353257  0.1249573900935423
  0.4447767495839626  0.3890550414586494  0.1239700993759826
  0.9448248564642826  0.8890893205313469  0.1249864000346917
  0.7781343308420612  0.3890640864317228  0.1249550062279782
  0.2781524903522057  0.5557632879966949  0.6249259487582842
  0.1114811106450755  0.0557335042968955  0.6249323796740718
  0.6114825282540133  0.5557740459121048  0.6259099336152650
  0.4448044461097651  0.0557197367824759  0.6249439352370046
  0.9447862096018609  0.5557244320887482  0.6249788761319727
  0.1114712617194828  0.5557441596633143  0.1250234947457926
  0.7781452510516127  0.0557392921924727  0.6251058897122954
  0.2781524903522057  0.0557225356888452  0.1250740512417070
  0.4448291030479143  0.5557706782601619  0.1246420806962776
  0.7781174239888204  0.5557253786610937  0.1249953212907141
  0.6114920273670488  0.0557371957650549  0.1249573900935423
  0.4448291030479143  0.5557706782601619  0.6253579193037297
  0.9448289215433208  0.0557494147232225  0.1249850601041052
  0.2781383431140111  0.7224126910537862  0.6249982848259584
  0.1114944499157903  0.2224138916245530  0.6249717540545550
  0.4448291030479143  0.2223917581210786  0.6253579193037297
  0.6114890442591312  0.7224310519115561  0.6251357598518629
  0.9447862096018609  0.7223951108464339  0.6249788761319727
  0.7781669456822903  0.2224120134641624  0.6250836605700290
  0.1114338702026350  0.7223836017679736  0.1249496005208333
  0.4448044461097651  0.7224180426606277  0.1250560647629949
  0.2781388496927910  0.2223940501931236  0.1246877318240841
  0.7781343308420612  0.7224035777436630  0.1249550062279782
  0.6114890442591312  0.2223913256809040  0.1248642401481481
  0.9448289215433208  0.2224128401534248  0.1249850601041052
  0.1114811106450755  0.3890809396815096  0.6249323796740718
  0.2781383431140111  0.8890589853935430  0.6249982848259584
  0.6114920273670488  0.8890881649353257  0.6250426099064657
  0.4447767495839626  0.3890550414586494  0.6260299006240132
  0.9448248564642826  0.8890893205313469  0.6250135999653113
  0.1114712617194828  0.8890604353895074  0.1250234947457926
  0.7781343308420612  0.3890640864317228  0.6250449937720346
  0.4448216192029135  0.8890774762681360  0.1250015405763183
  0.2781388496927910  0.3890781328329958  0.1246877318240841
  0.2781524903522057  0.5557632879966949  0.1250740512417070
  0.6114825282540133  0.3890418156752274  0.1240900663847349
  0.7781669456822903  0.8890882655514543  0.1249163394299664
  0.9448248564642826  0.3890688692662632  0.1249864000346917
  0.1114712617194828  0.5557441596633143  0.6249765052542126
  0.2781524903522057  0.0557225356888452  0.6249259487582842
  0.7781174239888204  0.5557253786610937  0.6250046787092860
  0.6114920273670488  0.0557371957650549  0.6250426099064657
  0.9448289215433208  0.0557494147232225  0.6250149398958952
  0.0592268914262450  0.1132552767446214  0.3750000000000000
  0.5556966185602826  0.6221646663257553  0.3750000000000000
  0.3880146258388478  0.1059861504094257  0.3750000000000000
  0.8841099040025445  0.6087216186679323  0.3750000000000000
  0.7243362926569734  0.1110959092887098  0.3750000000000000
  0.0550968322883418  0.7775476461592834  0.8750000000000000
  0.3884306585775055  0.7775488957918836  0.8750000000000000
  0.2217840506899216  0.2775586920116226  0.8750000000000000
  0.7217726230304747  0.7775537371730756  0.8750000000000000
  0.5551142804212510  0.2775549067121436  0.8750000000000000
  0.8884504682647988  0.2775531825586298  0.8750000000000000
  0.2200729319484165  0.7767031326408633  0.3750000000000000
  0.0592268914262450  0.2793049480149566  0.3750000000000000
  0.3946937141274636  0.2752525376950018  0.3750000000000000
  0.5559045934273783  0.7827335280523698  0.3750000000000000
  0.8877153866357204  0.7777440174953274  0.3750000000000000
  0.7235959168492606  0.2757084368786475  0.3750000000000000
  0.0551049648229866  0.9442248252326176  0.8750000000000000
  0.3884306585775055  0.9442150961189710  0.8750000000000000
  0.2217713126646412  0.4442243206579351  0.8750000000000000
  0.5551070791364268  0.4442202062348777  0.8750000000000000
  0.7217632293609125  0.9442191338088715  0.8750000000000000
  0.8884409013459491  0.4442131965587129  0.8750000000000000
  0.0562253219174697  0.4446461740801302  0.3750000000000000
  0.2207340443939760  0.9426025351687181  0.3750000000000000
  0.5558720309447679  0.9446026821390404  0.3750000000000000
  0.3946937141274636  0.4527745097657921  0.3750000000000000
  0.8912609770256386  0.9465107425394695  0.3750000000000000
  0.7177205243387664  0.4402779126337060  0.3750000000000000
  0.2217726920861451  0.6108899854045607  0.8750000000000000
  0.0551065803635694  0.1108837884596260  0.8750000000000000
  0.5551142804212510  0.6108927070424254  0.8750000000000000
  0.3884346276706455  0.1108743967867069  0.8750000000000000
  0.8884443932095190  0.6108888632714385  0.8750000000000000
  0.0529341253924327  0.6100763219815374  0.3750000000000000
  0.7217632293609125  0.1108774288853671  0.8750000000000000
  0.2249392223364897  0.1120495878268817  0.3750000000000000
  0.3880146258388478  0.6153618087627704  0.3750000000000000
  0.7177205243387664  0.6107759450384003  0.3750000000000000
  0.5559045934273783  0.1065043987083388  0.3750000000000000
  0.3884346276706455  0.6108935642172826  0.8750000000000000
  0.8920812095179187  0.1127072714256357  0.3750000000000000
  0.2217591465263427  0.7775462399298398  0.8750000000000000
  0.0551065803635694  0.2775561252372732  0.8750000000000000
  0.3884401758100721  0.2775525134986430  0.8750000000000000
  0.5550992101898266  0.7775509830867897  0.8750000000000000
  0.8884409013459491  0.7775610381205647  0.8750000000000000
  0.7217726230304747  0.2775522191907598  0.8750000000000000
  0.0529341253924327  0.7761911367442417  0.3750000000000000
  0.3876765596520402  0.7787026614977620  0.3750000000000000
  0.2280011476114845  0.2806672404724137  0.3750000000000000
  0.7235959168492606  0.7812208133039444  0.3750000000000000
  0.5556966185602826  0.2668652855678651  0.3750000000000000
  0.8912609770256386  0.2780835678195084  0.3750000000000000
  0.0551049648229866  0.4442134729236950  0.8750000000000000
  0.2217726920861451  0.9442160400149154  0.8750000000000000
  0.5551068316713563  0.9442200825023459  0.8750000000000000
  0.3884401758100721  0.4442209956447625  0.8750000000000000
  0.8884504682647988  0.9442306190395273  0.8750000000000000
  0.0562253219174697  0.9449124811706630  0.3750000000000000
  0.7217746760803931  0.4442170622961593  0.8750000000000000
  0.3876765596520402  0.9423072314876113  0.3750000000000000
  0.2249392223364897  0.4462229678429400  0.3750000000000000
  0.2207340443939760  0.6114648425585948  0.3750000000000000
  0.7243362926569734  0.9465737167016102  0.3750000000000000
  0.8877153866357204  0.4433047024737358  0.3750000000000000
  0.0550968322883418  0.6108825194623979  0.8750000000000000
  0.2217713126646412  0.1108803253400330  0.8750000000000000
  0.7217746760803931  0.6108909471175671  0.8750000000000000
  0.5550992101898266  0.1108815604363729  0.8750000000000000
  0.8884330276996216  0.1108831805164764  0.8750000000000000
  0.1136492173424915  0.0567060152056673  0.3750000000000000
  0.6073288986978920  0.5666261638244049  0.3750000000000000
  0.4444465984048190  0.0521938245892446  0.3750000000000000
  0.9415559580846962  0.5544234773936479  0.3750000000000000
  0.7808589609698887  0.0570961471516143  0.3750000000000000
  0.1105910939844864  0.7219622136589050  0.8750000000000000
  0.4439404232787050  0.7219701806411323  0.8750000000000000
  0.2773648170949128  0.2220554880157959  0.8750000000000000
  0.7772853752323634  0.7219827800454724  0.8750000000000000
  0.6106988513454720  0.2220627441911753  0.8750000000000000
  0.9440300533215302  0.2220567216663704  0.8750000000000000
  0.2764401826498155  0.7222480848459596  0.3750000000000000
  0.1162337229344361  0.2247835281338847  0.3750000000000000
  0.4442942305526300  0.2154693729130591  0.3750000000000000
  0.6129453157847846  0.7305463387340578  0.3750000000000000
  0.9415559580846962  0.7204658140243635  0.3750000000000000
  0.7803833104078534  0.2218520165728639  0.3750000000000000
  0.1106699638240154  0.8886706792723388  0.8750000000000000
  0.4439990932923626  0.8886662133128402  0.8750000000000000
  0.2773648170949128  0.3886426624124454  0.8750000000000000
  0.6106922969979722  0.3886316888147996  0.8750000000000000
  0.7773438767119560  0.8886766620927593  0.8750000000000000
  0.9440407463108267  0.3886290741625387  0.8750000000000000
  0.1136492173424915  0.3902765354701537  0.3750000000000000
  0.2764401826498155  0.8875254311371928  0.3750000000000000
  0.6129851709492794  0.8921476755988055  0.3750000000000000
  0.9451077074689851  0.8895347258114866  0.3750000000000000
  0.7765064076705738  0.3867609653586054  0.3750000000000000
  0.2773633195716234  0.5553989040687923  0.8750000000000000
  0.1106240393045261  0.0553125790379912  0.8750000000000000
  0.6106922969979722  0.5553939415164958  0.8750000000000000
  0.4439404232787050  0.0553035759709247  0.8750000000000000
  0.9440247147387166  0.5553817350245766  0.8750000000000000
  0.1097645528844919  0.5555264103207583  0.3750000000000000
  0.7772697555912434  0.0553015444622891  0.8750000000000000
  0.2773611820198384  0.0534792058291969  0.3750000000000000
  0.4442942305526300  0.5621581909729079  0.3750000000000000
  0.7719181267468703  0.5526257300401033  0.3750000000000000
  0.6129851709492794  0.0541708286837880  0.3750000000000000
  0.4440037650211245  0.5553372015335902  0.8750000000000000
  0.9480334442481098  0.0576732372258167  0.3750000000000000
  0.2773500332567730  0.7219668184104471  0.8750000000000000
  0.1106807662727248  0.2220070498030253  0.8750000000000000
  0.4440037650211245  0.2219998968208514  0.8750000000000000
  0.6106988513454720  0.7219694404876148  0.8750000000000000
  0.9440247147387166  0.7219763130474883  0.8750000000000000
  0.7773438767119560  0.2220005479525382  0.8750000000000000
  0.1087942252840408  0.7210637793087030  0.3750000000000000
  0.4444465984048190  0.7255861071489191  0.3750000000000000
  0.2837909665734724  0.2247877553523225  0.3750000000000000
  0.7765064076705738  0.7230787756452952  0.3750000000000000
  0.6129453157847846  0.2157323103840521  0.3750000000000000
  0.9480334442481098  0.2236935403556399  0.3750000000000000
  0.1106240393045261  0.3886447935998693  0.8750000000000000
  0.2773500332567730  0.8887165481796375  0.8750000000000000
  0.6106908629385042  0.8887206898032531  0.8750000000000000
  0.4439288367582135  0.3886310850457841  0.8750000000000000
  0.9440407463108267  0.8887450054816132  0.8750000000000000
  0.1097645528844919  0.8875714758970605  0.3750000000000000
  0.7772853752323634  0.3886359285202167  0.8750000000000000
  0.4444299516063405  0.8888816424698160  0.3750000000000000
  0.2837909665734724  0.3923365445544773  0.3750000000000000
  0.2773611820198384  0.5572153095239716  0.3750000000000000
  0.6073288986978920  0.3740360682068116  0.3750000000000000
  0.7803833104078534  0.8918646271683214  0.3750000000000000
  0.9451077074689851  0.3889063149908178  0.3750000000000000
  0.1106699638240154  0.5553326178849998  0.8750000000000000
  0.2773633195716234  0.0552977488361615  0.8750000000000000
  0.7773385011526440  0.5553359172429702  0.8750000000000000
  0.6106908629385042  0.0553035064685762  0.8750000000000000
  0.9440300533215302  0.0553066649884878  0.8750000000000000
  0.0559177506955803  0.1112522567781055  0.1250699293385275
  0.5559535760676606  0.6113469239041787  0.1245038236784693
  0.3892161018938857  0.1112172734105975  0.1249813875773668
  0.8893105206114867  0.6113219269724178  0.1250469258661450
  0.7225693914667278  0.1112309284399963  0.1249182521375845
  0.0558782394150553  0.7778952205042484  0.6250093625159159
  0.3892138419662167  0.7779000165125931  0.6249689629012289
  0.2226534960949068  0.2779934147141258  0.6251119209952445
  0.7225647580152803  0.7779176105099054  0.6251136755191334
  0.5559535760676606  0.2779399854968258  0.6254961763215365
  0.8893291290600148  0.2779890239352482  0.6250446964933840
  0.2225547454101090  0.7779440393717282  0.1249708481806432
  0.0559177506955803  0.2779988272508066  0.1250699293385275
  0.3891628245533610  0.2779221089983890  0.1245882540286922
  0.5559058236753364  0.7779685810508397  0.1249732619483260
  0.8892449085158404  0.7779661887010250  0.1249892544671852
  0.7225647580152803  0.2779804808386920  0.1248863244808816
  0.0559018577006054  0.9446742171622804  0.6249506851178331
  0.3892138419662167  0.9446471587869737  0.6249689629012289
  0.2225785329929458  0.4446156532043658  0.6249606674251000
  0.5559027428613385  0.4446180380973371  0.6260061278103691
  0.7225693914667278  0.9446717963600634  0.6250817478624006
  0.8892449085158404  0.4446120531481670  0.6250107455328224
  0.0559018577006054  0.4445609738716581  0.1250493148821757
  0.2226388008566738  0.9446507331058462  0.1250625440989829
  0.5559791137105282  0.9446562235219277  0.1249809196457924
  0.3891628245533610  0.4445740488883155  0.1245882540286922
  0.8893291290600148  0.9446734384580865  0.1249553035066178
  0.7225483210507966  0.4445461321686872  0.1246630391660040
  0.2226388008566738  0.6113214010841598  0.6249374559010126
  0.0559177506955803  0.1112522567781055  0.6249300706614728
  0.5559535760676606  0.6113469239041787  0.6254961763215365
  0.3892161018938857  0.1112172734105975  0.6250186124226238
  0.8893105206114867  0.6113219269724178  0.6249530741338410
  0.0558782394150553  0.6113163522441293  0.1249906374840713
  0.7225693914667278  0.1112309284399963  0.6250817478624006
  0.2225785329929458  0.1112962131219160  0.1250393325748965
  0.3892161018938857  0.6113321618166316  0.1249813875773668
  0.7225483210507966  0.6113355222154746  0.1246630391660040
  0.5559058236753364  0.1112705759578299  0.1249732619483260
  0.3892161018938857  0.6113321618166410  0.6250186124226238
  0.8892567312197901  0.1112950322765696  0.1249552714886793
  0.2225547454101090  0.7779440393717282  0.6250291518193397
  0.0559177506955803  0.2779988272508066  0.6249300706614728
  0.3891628245533610  0.2779221089983890  0.6254117459713117
  0.5559058236753364  0.7779685810508397  0.6250267380516643
  0.8892449085158404  0.7779661887010250  0.6250107455328224
  0.7225647580152803  0.2779804808386920  0.6251136755191334
  0.0558782394150553  0.7778952205042484  0.1249906374840713
  0.3892138419662167  0.7779000165125931  0.1250310370987739
  0.2226534960949139  0.2779934147141258  0.1248880790047441
  0.7225647580152803  0.7779176105099054  0.1248863244808816
  0.5559535760676606  0.2779399854968258  0.1245038236784693
  0.8893291290600148  0.2779890239352482  0.1249553035066178
  0.0559018577006054  0.4445609738716547  0.6249506851178331
  0.2226388008566738  0.9446507331058462  0.6249374559010126
  0.5559791137105282  0.9446562235219277  0.6250190803542041
  0.3891628245533610  0.4445740488883155  0.6254117459713117
  0.8893291290600148  0.9446734384580865  0.6250446964933840
  0.0559018577006054  0.9446742171622804  0.1250493148821757
  0.7225483210507966  0.4445461321686872  0.6253369608339985
  0.3892138419662167  0.9446471587869737  0.1250310370987739
  0.2225785329929458  0.4446156532043658  0.1250393325748965
  0.2226388008566738  0.6113214010841598  0.1250625440989829
  0.5559027428613385  0.4446180380973371  0.1239938721896392
  0.7225693914667278  0.9446717963600634  0.1249182521375845
  0.8892449085158404  0.4446120531481670  0.1249892544671852
  0.0558782394150553  0.6113163522441293  0.6250093625159159
  0.2225785329929458  0.1112962131219160  0.6249606674251000
  0.7225483210507966  0.6113355222154746  0.6253369608339985
  0.5559058236753364  0.1112705759578299  0.6250267380516643
  0.8892567312197901  0.1112950322765696  0.6250447285113153
 
  0.00000000E+00  0.00000000E+00  0.00000000E+00
  0.00000000E+00  0.00000000E+00  0.00000000E+00
  0.00000000E+00  0.00000000E+00  0.00000000E+00
  0.00000000E+00  0.00000000E+00  0.00000000E+00
  0.00000000E+00  0.00000000E+00  0.00000000E+00
  0.00000000E+00  0.00000000E+00  0.00000000E+00
  0.00000000E+00  0.00000000E+00  0.00000000E+00
  0.00000000E+00  0.00000000E+00  0.00000000E+00
  0.00000000E+00  0.00000000E+00  0.00000000E+00
  0.00000000E+00  0.00000000E+00  0.00000000E+00
  0.00000000E+00  0.00000000E+00  0.00000000E+00
  0.00000000E+00  0.00000000E+00  0.00000000E+00
  0.00000000E+00  0.00000000E+00  0.00000000E+00
  0.00000000E+00  0.00000000E+00  0.00000000E+00
  0.00000000E+00  0.00000000E+00  0.00000000E+00
  0.00000000E+00  0.00000000E+00  0.00000000E+00
  0.00000000E+00  0.00000000E+00  0.00000000E+00
  0.00000000E+00  0.00000000E+00  0.00000000E+00
  0.00000000E+00  0.00000000E+00  0.00000000E+00
  0.00000000E+00  0.00000000E+00  0.00000000E+00
  0.00000000E+00  0.00000000E+00  0.00000000E+00
  0.00000000E+00  0.00000000E+00  0.00000000E+00
  0.00000000E+00  0.00000000E+00  0.00000000E+00
  0.00000000E+00  0.00000000E+00  0.00000000E+00
  0.00000000E+00  0.00000000E+00  0.00000000E+00
  0.00000000E+00  0.00000000E+00  0.00000000E+00
  0.00000000E+00  0.00000000E+00  0.00000000E+00
  0.00000000E+00  0.00000000E+00  0.00000000E+00
  0.00000000E+00  0.00000000E+00  0.00000000E+00
  0.00000000E+00  0.00000000E+00  0.00000000E+00
  0.00000000E+00  0.00000000E+00  0.00000000E+00
  0.00000000E+00  0.00000000E+00  0.00000000E+00
  0.00000000E+00  0.00000000E+00  0.00000000E+00
  0.00000000E+00  0.00000000E+00  0.00000000E+00
  0.00000000E+00  0.00000000E+00  0.00000000E+00
  0.00000000E+00  0.00000000E+00  0.00000000E+00
  0.00000000E+00  0.00000000E+00  0.00000000E+00
  0.00000000E+00  0.00000000E+00  0.00000000E+00
  0.00000000E+00  0.00000000E+00  0.00000000E+00
  0.00000000E+00  0.00000000E+00  0.00000000E+00
  0.00000000E+00  0.00000000E+00  0.00000000E+00
  0.00000000E+00  0.00000000E+00  0.00000000E+00
  0.00000000E+00  0.00000000E+00  0.00000000E+00
  0.00000000E+00  0.00000000E+00  0.00000000E+00
  0.00000000E+00  0.00000000E+00  0.00000000E+00
  0.00000000E+00  0.00000000E+00  0.00000000E+00
  0.00000000E+00  0.00000000E+00  0.00000000E+00
  0.00000000E+00  0.00000000E+00  0.00000000E+00
  0.00000000E+00  0.00000000E+00  0.00000000E+00
  0.00000000E+00  0.00000000E+00  0.00000000E+00
  0.00000000E+00  0.00000000E+00  0.00000000E+00
  0.00000000E+00  0.00000000E+00  0.00000000E+00
  0.00000000E+00  0.00000000E+00  0.00000000E+00
  0.00000000E+00  0.00000000E+00  0.00000000E+00
  0.00000000E+00  0.00000000E+00  0.00000000E+00
  0.00000000E+00  0.00000000E+00  0.00000000E+00
  0.00000000E+00  0.00000000E+00  0.00000000E+00
  0.00000000E+00  0.00000000E+00  0.00000000E+00
  0.00000000E+00  0.00000000E+00  0.00000000E+00
  0.00000000E+00  0.00000000E+00  0.00000000E+00
  0.00000000E+00  0.00000000E+00  0.00000000E+00
  0.00000000E+00  0.00000000E+00  0.00000000E+00
  0.00000000E+00  0.00000000E+00  0.00000000E+00
  0.00000000E+00  0.00000000E+00  0.00000000E+00
  0.00000000E+00  0.00000000E+00  0.00000000E+00
  0.00000000E+00  0.00000000E+00  0.00000000E+00
  0.00000000E+00  0.00000000E+00  0.00000000E+00
  0.00000000E+00  0.00000000E+00  0.00000000E+00
  0.00000000E+00  0.00000000E+00  0.00000000E+00
  0.00000000E+00  0.00000000E+00  0.00000000E+00
  0.00000000E+00  0.00000000E+00  0.00000000E+00
  0.00000000E+00  0.00000000E+00  0.00000000E+00
  0.00000000E+00  0.00000000E+00  0.00000000E+00
  0.00000000E+00  0.00000000E+00  0.00000000E+00
  0.00000000E+00  0.00000000E+00  0.00000000E+00
  0.00000000E+00  0.00000000E+00  0.00000000E+00
  0.00000000E+00  0.00000000E+00  0.00000000E+00
  0.00000000E+00  0.00000000E+00  0.00000000E+00
  0.00000000E+00  0.00000000E+00  0.00000000E+00
  0.00000000E+00  0.00000000E+00  0.00000000E+00
  0.00000000E+00  0.00000000E+00  0.00000000E+00
  0.00000000E+00  0.00000000E+00  0.00000000E+00
  0.00000000E+00  0.00000000E+00  0.00000000E+00
  0.00000000E+00  0.00000000E+00  0.00000000E+00
  0.00000000E+00  0.00000000E+00  0.00000000E+00
  0.00000000E+00  0.00000000E+00  0.00000000E+00
  0.00000000E+00  0.00000000E+00  0.00000000E+00
  0.00000000E+00  0.00000000E+00  0.00000000E+00
  0.00000000E+00  0.00000000E+00  0.00000000E+00
  0.00000000E+00  0.00000000E+00  0.00000000E+00
  0.00000000E+00  0.00000000E+00  0.00000000E+00
  0.00000000E+00  0.00000000E+00  0.00000000E+00
  0.00000000E+00  0.00000000E+00  0.00000000E+00
  0.00000000E+00  0.00000000E+00  0.00000000E+00
  0.00000000E+00  0.00000000E+00  0.00000000E+00
  0.00000000E+00  0.00000000E+00  0.00000000E+00
  0.00000000E+00  0.00000000E+00  0.00000000E+00
  0.00000000E+00  0.00000000E+00  0.00000000E+00
  0.00000000E+00  0.00000000E+00  0.00000000E+00
  0.00000000E+00  0.00000000E+00  0.00000000E+00
  0.00000000E+00  0.00000000E+00  0.00000000E+00
  0.00000000E+00  0.00000000E+00  0.00000000E+00
  0.00000000E+00  0.00000000E+00  0.00000000E+00
  0.00000000E+00  0.00000000E+00  0.00000000E+00
  0.00000000E+00  0.00000000E+00  0.00000000E+00
  0.00000000E+00  0.00000000E+00  0.00000000E+00
  0.00000000E+00  0.00000000E+00  0.00000000E+00
  0.00000000E+00  0.00000000E+00  0.00000000E+00
  0.00000000E+00  0.00000000E+00  0.00000000E+00
  0.00000000E+00  0.00000000E+00  0.00000000E+00
  0.00000000E+00  0.00000000E+00  0.00000000E+00
  0.00000000E+00  0.00000000E+00  0.00000000E+00
  0.00000000E+00  0.00000000E+00  0.00000000E+00
  0.00000000E+00  0.00000000E+00  0.00000000E+00
  0.00000000E+00  0.00000000E+00  0.00000000E+00
  0.00000000E+00  0.00000000E+00  0.00000000E+00
  0.00000000E+00  0.00000000E+00  0.00000000E+00
  0.00000000E+00  0.00000000E+00  0.00000000E+00
  0.00000000E+00  0.00000000E+00  0.00000000E+00
  0.00000000E+00  0.00000000E+00  0.00000000E+00
  0.00000000E+00  0.00000000E+00  0.00000000E+00
  0.00000000E+00  0.00000000E+00  0.00000000E+00
  0.00000000E+00  0.00000000E+00  0.00000000E+00
  0.00000000E+00  0.00000000E+00  0.00000000E+00
  0.00000000E+00  0.00000000E+00  0.00000000E+00
  0.00000000E+00  0.00000000E+00  0.00000000E+00
  0.00000000E+00  0.00000000E+00  0.00000000E+00
  0.00000000E+00  0.00000000E+00  0.00000000E+00
  0.00000000E+00  0.00000000E+00  0.00000000E+00
  0.00000000E+00  0.00000000E+00  0.00000000E+00
  0.00000000E+00  0.00000000E+00  0.00000000E+00
  0.00000000E+00  0.00000000E+00  0.00000000E+00
  0.00000000E+00  0.00000000E+00  0.00000000E+00
  0.00000000E+00  0.00000000E+00  0.00000000E+00
  0.00000000E+00  0.00000000E+00  0.00000000E+00
  0.00000000E+00  0.00000000E+00  0.00000000E+00
  0.00000000E+00  0.00000000E+00  0.00000000E+00
  0.00000000E+00  0.00000000E+00  0.00000000E+00
  0.00000000E+00  0.00000000E+00  0.00000000E+00
  0.00000000E+00  0.00000000E+00  0.00000000E+00
  0.00000000E+00  0.00000000E+00  0.00000000E+00
  0.00000000E+00  0.00000000E+00  0.00000000E+00
  0.00000000E+00  0.00000000E+00  0.00000000E+00
  0.00000000E+00  0.00000000E+00  0.00000000E+00
  0.00000000E+00  0.00000000E+00  0.00000000E+00
  0.00000000E+00  0.00000000E+00  0.00000000E+00
  0.00000000E+00  0.00000000E+00  0.00000000E+00
  0.00000000E+00  0.00000000E+00  0.00000000E+00
  0.00000000E+00  0.00000000E+00  0.00000000E+00
  0.00000000E+00  0.00000000E+00  0.00000000E+00
  0.00000000E+00  0.00000000E+00  0.00000000E+00
  0.00000000E+00  0.00000000E+00  0.00000000E+00
  0.00000000E+00  0.00000000E+00  0.00000000E+00
  0.00000000E+00  0.00000000E+00  0.00000000E+00
  0.00000000E+00  0.00000000E+00  0.00000000E+00
  0.00000000E+00  0.00000000E+00  0.00000000E+00
  0.00000000E+00  0.00000000E+00  0.00000000E+00
  0.00000000E+00  0.00000000E+00  0.00000000E+00
  0.00000000E+00  0.00000000E+00  0.00000000E+00
  0.00000000E+00  0.00000000E+00  0.00000000E+00
  0.00000000E+00  0.00000000E+00  0.00000000E+00
  0.00000000E+00  0.00000000E+00  0.00000000E+00
  0.00000000E+00  0.00000000E+00  0.00000000E+00
  0.00000000E+00  0.00000000E+00  0.00000000E+00
  0.00000000E+00  0.00000000E+00  0.00000000E+00
  0.00000000E+00  0.00000000E+00  0.00000000E+00
  0.00000000E+00  0.00000000E+00  0.00000000E+00
  0.00000000E+00  0.00000000E+00  0.00000000E+00
  0.00000000E+00  0.00000000E+00  0.00000000E+00
  0.00000000E+00  0.00000000E+00  0.00000000E+00
  0.00000000E+00  0.00000000E+00  0.00000000E+00
  0.00000000E+00  0.00000000E+00  0.00000000E+00
  0.00000000E+00  0.00000000E+00  0.00000000E+00
  0.00000000E+00  0.00000000E+00  0.00000000E+00
  0.00000000E+00  0.00000000E+00  0.00000000E+00
  0.00000000E+00  0.00000000E+00  0.00000000E+00
  0.00000000E+00  0.00000000E+00  0.00000000E+00
  0.00000000E+00  0.00000000E+00  0.00000000E+00
  0.00000000E+00  0.00000000E+00  0.00000000E+00
  0.00000000E+00  0.00000000E+00  0.00000000E+00
  0.00000000E+00  0.00000000E+00  0.00000000E+00
  0.00000000E+00  0.00000000E+00  0.00000000E+00
  0.00000000E+00  0.00000000E+00  0.00000000E+00
  0.00000000E+00  0.00000000E+00  0.00000000E+00
  0.00000000E+00  0.00000000E+00  0.00000000E+00
  0.00000000E+00  0.00000000E+00  0.00000000E+00
  0.00000000E+00  0.00000000E+00  0.00000000E+00
  0.00000000E+00  0.00000000E+00  0.00000000E+00
  0.00000000E+00  0.00000000E+00  0.00000000E+00
  0.00000000E+00  0.00000000E+00  0.00000000E+00
  0.00000000E+00  0.00000000E+00  0.00000000E+00
  0.00000000E+00  0.00000000E+00  0.00000000E+00
  0.00000000E+00  0.00000000E+00  0.00000000E+00
  0.00000000E+00  0.00000000E+00  0.00000000E+00
  0.00000000E+00  0.00000000E+00  0.00000000E+00
  0.00000000E+00  0.00000000E+00  0.00000000E+00
  0.00000000E+00  0.00000000E+00  0.00000000E+00
  0.00000000E+00  0.00000000E+00  0.00000000E+00
  0.00000000E+00  0.00000000E+00  0.00000000E+00
  0.00000000E+00  0.00000000E+00  0.00000000E+00
  0.00000000E+00  0.00000000E+00  0.00000000E+00
  0.00000000E+00  0.00000000E+00  0.00000000E+00
  0.00000000E+00  0.00000000E+00  0.00000000E+00
  0.00000000E+00  0.00000000E+00  0.00000000E+00
  0.00000000E+00  0.00000000E+00  0.00000000E+00
  0.00000000E+00  0.00000000E+00  0.00000000E+00
  0.00000000E+00  0.00000000E+00  0.00000000E+00
  0.00000000E+00  0.00000000E+00  0.00000000E+00
  0.00000000E+00  0.00000000E+00  0.00000000E+00
  0.00000000E+00  0.00000000E+00  0.00000000E+00
  0.00000000E+00  0.00000000E+00  0.00000000E+00
  0.00000000E+00  0.00000000E+00  0.00000000E+00
  0.00000000E+00  0.00000000E+00  0.00000000E+00
  0.00000000E+00  0.00000000E+00  0.00000000E+00
  0.00000000E+00  0.00000000E+00  0.00000000E+00
  0.00000000E+00  0.00000000E+00  0.00000000E+00
  0.00000000E+00  0.00000000E+00  0.00000000E+00
  0.00000000E+00  0.00000000E+00  0.00000000E+00
  0.00000000E+00  0.00000000E+00  0.00000000E+00
  0.00000000E+00  0.00000000E+00  0.00000000E+00
  0.00000000E+00  0.00000000E+00  0.00000000E+00
  0.00000000E+00  0.00000000E+00  0.00000000E+00
  0.00000000E+00  0.00000000E+00  0.00000000E+00
  0.00000000E+00  0.00000000E+00  0.00000000E+00
  0.00000000E+00  0.00000000E+00  0.00000000E+00
  0.00000000E+00  0.00000000E+00  0.00000000E+00
  0.00000000E+00  0.00000000E+00  0.00000000E+00
  0.00000000E+00  0.00000000E+00  0.00000000E+00
  0.00000000E+00  0.00000000E+00  0.00000000E+00
  0.00000000E+00  0.00000000E+00  0.00000000E+00
  0.00000000E+00  0.00000000E+00  0.00000000E+00
  0.00000000E+00  0.00000000E+00  0.00000000E+00
  0.00000000E+00  0.00000000E+00  0.00000000E+00
  0.00000000E+00  0.00000000E+00  0.00000000E+00
  0.00000000E+00  0.00000000E+00  0.00000000E+00
  0.00000000E+00  0.00000000E+00  0.00000000E+00
  0.00000000E+00  0.00000000E+00  0.00000000E+00
  0.00000000E+00  0.00000000E+00  0.00000000E+00
  0.00000000E+00  0.00000000E+00  0.00000000E+00
  0.00000000E+00  0.00000000E+00  0.00000000E+00
  0.00000000E+00  0.00000000E+00  0.00000000E+00
  0.00000000E+00  0.00000000E+00  0.00000000E+00
  0.00000000E+00  0.00000000E+00  0.00000000E+00
  0.00000000E+00  0.00000000E+00  0.00000000E+00
  0.00000000E+00  0.00000000E+00  0.00000000E+00
  0.00000000E+00  0.00000000E+00  0.00000000E+00
  0.00000000E+00  0.00000000E+00  0.00000000E+00
  0.00000000E+00  0.00000000E+00  0.00000000E+00