B C N                                   
   1.0000000000000000     
     8.7639499999999995  -15.1796066749929999    0.0000000000000000
     8.7639499999999995   15.1796066749929999    0.0000000000000000
     0.0000000000000000    0.0000000000000000   15.0000000000000000
   B    C    N 
    46     3    48
Selective dynamics
Direct
  0.9045942305079365  0.9520131486451525  0.1110437747210489   T   T   T
  0.9047137941278630  0.0950388262434843  0.1109955954759621   T   T   T
  0.9046508453394287  0.2380222003574717  0.1110506826504479   T   T   T
  0.9043710315626085  0.3808939488986298  0.1109834630393876   T   T   T
  0.9044427681682208  0.5236517273761434  0.1110849659907001   T   T   T
  0.9051976460406008  0.6666497430794792  0.1110937279878768   T   T   T
  0.9051867788351809  0.8095983262136066  0.1110545178442514   T   T   T
  0.0478022970783961  0.9524449520643380  0.1109617859756631   T   T   T
  0.0477498275969663  0.0952473136213946  0.1109482061641634   T   T   T
  0.0477534126649250  0.2380312879339811  0.1110393182866972   T   T   T
  0.0476277906791411  0.3807722602735277  0.1110755127463551   T   T   T
  0.0474769795744033  0.5235850296329285  0.1109502543075073   T   T   T
  0.0476652049105753  0.6665040084020636  0.1109879834593947   T   T   T
  0.0478066446538207  0.8095241819089174  0.1110140322620538   T   T   T
  0.1904809965676449  0.9522276643390305  0.1109918092202513   T   T   T
  0.1906165484259200  0.0952082533169696  0.1111676857243627   T   T   T
  0.1909749182088225  0.2383992736473151  0.1109841204088384   T   T   T
  0.1909271045215377  0.3808608406358354  0.1109203380715332   T   T   T
  0.1904282924344948  0.5236741482202292  0.1109806377075089   T   T   T
  0.1903327478154182  0.6665628859800833  0.1111094158809651   T   T   T
  0.1905170260201036  0.8094578124245084  0.1109692051899941   T   T   T
  0.3334847517831722  0.9523926646609033  0.1110760147882678   T   T   T
  0.3331765347737989  0.0947505624239180  0.1110148751666052   T   T   T
  0.3333717255951387  0.2370838981643003  0.1108704734776346   T   T   T
  0.3348665018118381  0.3816112147313712  0.1110790775262898   T   T   T
  0.3332570847450594  0.5245977811151165  0.1110946402432040   T   T   T
  0.3329898197518070  0.6668027556072307  0.1110797591457145   T   T   T
  0.3334065349129146  0.8095720524239207  0.1109796921406078   T   T   T
  0.4764040743354005  0.9525243601938319  0.1110005719020779   T   T   T
  0.4764300943006528  0.0962612974541647  0.1110730080019040   T   T   T
  0.4755243428181093  0.2392307896411722  0.1110342966656576   T   T   T
  0.4752256271042092  0.6647952553778586  0.1109546867509252   T   T   T
  0.4762679883670672  0.8087579778492530  0.1110220809342407   T   T   T
  0.6190909550004665  0.9520247393527391  0.1110303542545910   T   T   T
  0.6191318223881332  0.0958162418409423  0.1109622031557449   T   T   T
  0.6192751900255056  0.2400077856887737  0.1110627913797429   T   T   T
  0.6206026491679523  0.3873506189504320  0.1111508377191765   T   T   T
  0.6189309328478581  0.6627366505342122  0.1106975511675595   T   T   T
  0.6190437870261605  0.8081896188010307  0.1109601255681892   T   T   T
  0.7617797365957222  0.9517983877103989  0.1110737567745052   T   T   T
  0.7618269862835267  0.0951702890513281  0.1110373061372834   T   T   T
  0.7617213810138949  0.2385137293776160  0.1110183458296475   T   T   T
  0.7611817175234840  0.3817377403132615  0.1110409496869579   T   T   T
  0.7602379877262186  0.5238281778537479  0.1111279622948829   T   T   T
  0.7629479455846064  0.6658817092393947  0.1108275156302838   T   T   T
  0.7614392045979910  0.8082255949793076  0.1109556383277505   T   T   T
  0.4748625978670077  0.3805228661303235  0.1113390341923812   T   T   T
  0.4747272921390542  0.5222454442753710  0.1113257859033076   T   T   T
  0.5145504181626921  0.4715423109085066  0.1116934880372028   T   T   T
  0.9528689973634235  0.9051557345156548  0.1109656351745425   T   T   T
  0.9525948476685391  0.0476626339611652  0.1109079808271781   T   T   T
  0.9526296115521976  0.1904736208312900  0.1109909481494305   T   T   T
  0.9525164940478837  0.3332370059733699  0.1110370843978788   T   T   T
  0.9525719610043393  0.4760145000748001  0.1109785662790601   T   T   T
  0.9530852685566291  0.6190640328188309  0.1110121765214463   T   T   T
  0.9531730573285416  0.7623462328170908  0.1112385106195053   T   T   T
  0.0956299137506838  0.9050397616559743  0.1108288475314210   T   T   T
  0.0957371043636797  0.0480320502262532  0.1110652177509819   T   T   T
  0.0959946191452729  0.1908982770306251  0.1108603432217340   T   T   T
  0.0959611505601790  0.3333805163937534  0.1112516906763520   T   T   T
  0.0955721818899000  0.4759848128324275  0.1109024824148751   T   T   T
  0.0955181983976252  0.6188695488536426  0.1109441843275383   T   T   T
  0.0956523090281780  0.7619859784883443  0.1109615225822275   T   T   T
  0.2383700541854804  0.9048890482273882  0.1109663730143348   T   T   T
  0.2382770539086962  0.0477934247567357  0.1111632535491120   T   T   T
  0.2388540621611290  0.1911306850896133  0.1112114311144486   T   T   T
  0.2399698298907636  0.3341387641316674  0.1108432054831303   T   T   T
  0.2387726367334953  0.4760351788486711  0.1106830000128214   T   T   T
  0.2381417926574638  0.6188005413804507  0.1112723063196561   T   T   T
  0.2383143989567248  0.7618468281852022  0.1110107877577842   T   T   T
  0.3811163506428814  0.9048010423434584  0.1110294750170061   T   T   T
  0.3810834479960454  0.0478652271062770  0.1111469352334309   T   T   T
  0.3807179987591845  0.1904379721866546  0.1105951685234019   T   T   T
  0.3830866887540700  0.3337941442659653  0.1108304532746781   T   T   T
  0.3829287315158326  0.4776063201861130  0.1114601998314122   T   T   T
  0.3805551652655567  0.6186760261271477  0.1110824587461667   T   T   T
  0.3809793064407374  0.7616501870836747  0.1108108739872909   T   T   T
  0.5236886124540322  0.9041922464747809  0.1110979712306176   T   T   T
  0.5237174691571679  0.0480708315761200  0.1108668998497578   T   T   T
  0.5233970980379362  0.1920608893122897  0.1112182844997278   T   T   T
  0.5206045910253286  0.3358609946174949  0.1112661317102004   T   T   T
  0.5204050983197783  0.6133036021656882  0.1106723132730603   T   T   T
  0.5232860440471387  0.7598877999188328  0.1110831122019808   T   T   T
  0.6662896353771015  0.9038394148476312  0.1109699145936203   T   T   T
  0.6664361215344291  0.0475043848335212  0.1109675988994062   T   T   T
  0.6662809889332909  0.1910965170700410  0.1110211466747159   T   T   T
  0.6654154324235698  0.3345020915809502  0.1109014563034467   T   T   T
  0.6678839209127986  0.4782615441639967  0.1111771660581946   T   T   T
  0.6704814526515146  0.6233355284846064  0.1106648160857944   T   T   T
  0.6653891512667069  0.7598560422190546  0.1107811193319616   T   T   T
  0.8092145803020838  0.9041897436843540  0.1112082859544534   T   T   T
  0.8094155694346854  0.0473483927186148  0.1110306315079680   T   T   T
  0.8093897216054763  0.1904549145352638  0.1110373357074130   T   T   T
  0.8091275086321089  0.3334296726278052  0.1109402885720623   T   T   T
  0.8097873895902302  0.4763793961608362  0.1112448163115466   T   T   T
  0.8113182857601682  0.6196701602941757  0.1108741945493679   T   T   T
  0.8104001385778684  0.7623991991351358  0.1108716506535970   T   T   T

  0.00000000E+00  0.00000000E+00  0.00000000E+00
  0.00000000E+00  0.00000000E+00  0.00000000E+00
  0.00000000E+00  0.00000000E+00  0.00000000E+00
  0.00000000E+00  0.00000000E+00  0.00000000E+00
  0.00000000E+00  0.00000000E+00  0.00000000E+00
  0.00000000E+00  0.00000000E+00  0.00000000E+00
  0.00000000E+00  0.00000000E+00  0.00000000E+00
  0.00000000E+00  0.00000000E+00  0.00000000E+00
  0.00000000E+00  0.00000000E+00  0.00000000E+00
  0.00000000E+00  0.00000000E+00  0.00000000E+00
  0.00000000E+00  0.00000000E+00  0.00000000E+00
  0.00000000E+00  0.00000000E+00  0.00000000E+00
  0.00000000E+00  0.00000000E+00  0.00000000E+00
  0.00000000E+00  0.00000000E+00  0.00000000E+00
  0.00000000E+00  0.00000000E+00  0.00000000E+00
  0.00000000E+00  0.00000000E+00  0.00000000E+00
  0.00000000E+00  0.00000000E+00  0.00000000E+00
  0.00000000E+00  0.00000000E+00  0.00000000E+00
  0.00000000E+00  0.00000000E+00  0.00000000E+00
  0.00000000E+00  0.00000000E+00  0.00000000E+00
  0.00000000E+00  0.00000000E+00  0.00000000E+00
  0.00000000E+00  0.00000000E+00  0.00000000E+00
  0.00000000E+00  0.00000000E+00  0.00000000E+00
  0.00000000E+00  0.00000000E+00  0.00000000E+00
  0.00000000E+00  0.00000000E+00  0.00000000E+00
  0.00000000E+00  0.00000000E+00  0.00000000E+00
  0.00000000E+00  0.00000000E+00  0.00000000E+00
  0.00000000E+00  0.00000000E+00  0.00000000E+00
  0.00000000E+00  0.00000000E+00  0.00000000E+00
  0.00000000E+00  0.00000000E+00  0.00000000E+00
  0.00000000E+00  0.00000000E+00  0.00000000E+00
  0.00000000E+00  0.00000000E+00  0.00000000E+00
  0.00000000E+00  0.00000000E+00  0.00000000E+00
  0.00000000E+00  0.00000000E+00  0.00000000E+00
  0.00000000E+00  0.00000000E+00  0.00000000E+00
  0.00000000E+00  0.00000000E+00  0.00000000E+00
  0.00000000E+00  0.00000000E+00  0.00000000E+00
  0.00000000E+00  0.00000000E+00  0.00000000E+00
  0.00000000E+00  0.00000000E+00  0.00000000E+00
  0.00000000E+00  0.00000000E+00  0.00000000E+00
  0.00000000E+00  0.00000000E+00  0.00000000E+00
  0.00000000E+00  0.00000000E+00  0.00000000E+00
  0.00000000E+00  0.00000000E+00  0.00000000E+00
  0.00000000E+00  0.00000000E+00  0.00000000E+00
  0.00000000E+00  0.00000000E+00  0.00000000E+00
  0.00000000E+00  0.00000000E+00  0.00000000E+00
  0.00000000E+00  0.00000000E+00  0.00000000E+00
  0.00000000E+00  0.00000000E+00  0.00000000E+00
  0.00000000E+00  0.00000000E+00  0.00000000E+00
  0.00000000E+00  0.00000000E+00  0.00000000E+00
  0.00000000E+00  0.00000000E+00  0.00000000E+00
  0.00000000E+00  0.00000000E+00  0.00000000E+00
  0.00000000E+00  0.00000000E+00  0.00000000E+00
  0.00000000E+00  0.00000000E+00  0.00000000E+00
  0.00000000E+00  0.00000000E+00  0.00000000E+00
  0.00000000E+00  0.00000000E+00  0.00000000E+00
  0.00000000E+00  0.00000000E+00  0.00000000E+00
  0.00000000E+00  0.00000000E+00  0.00000000E+00
  0.00000000E+00  0.00000000E+00  0.00000000E+00
  0.00000000E+00  0.00000000E+00  0.00000000E+00
  0.00000000E+00  0.00000000E+00  0.00000000E+00
  0.00000000E+00  0.00000000E+00  0.00000000E+00
  0.00000000E+00  0.00000000E+00  0.00000000E+00
  0.00000000E+00  0.00000000E+00  0.00000000E+00
  0.00000000E+00  0.00000000E+00  0.00000000E+00
  0.00000000E+00  0.00000000E+00  0.00000000E+00
  0.00000000E+00  0.00000000E+00  0.00000000E+00
  0.00000000E+00  0.00000000E+00  0.00000000E+00
  0.00000000E+00  0.00000000E+00  0.00000000E+00
  0.00000000E+00  0.00000000E+00  0.00000000E+00
  0.00000000E+00  0.00000000E+00  0.00000000E+00
  0.00000000E+00  0.00000000E+00  0.00000000E+00
  0.00000000E+00  0.00000000E+00  0.00000000E+00
  0.00000000E+00  0.00000000E+00  0.00000000E+00
  0.00000000E+00  0.00000000E+00  0.00000000E+00
  0.00000000E+00  0.00000000E+00  0.00000000E+00
  0.00000000E+00  0.00000000E+00  0.00000000E+00
  0.00000000E+00  0.00000000E+00  0.00000000E+00
  0.00000000E+00  0.00000000E+00  0.00000000E+00
  0.00000000E+00  0.00000000E+00  0.00000000E+00
  0.00000000E+00  0.00000000E+00  0.00000000E+00
  0.00000000E+00  0.00000000E+00  0.00000000E+00
  0.00000000E+00  0.00000000E+00  0.00000000E+00
  0.00000000E+00  0.00000000E+00  0.00000000E+00
  0.00000000E+00  0.00000000E+00  0.00000000E+00
  0.00000000E+00  0.00000000E+00  0.00000000E+00
  0.00000000E+00  0.00000000E+00  0.00000000E+00
  0.00000000E+00  0.00000000E+00  0.00000000E+00
  0.00000000E+00  0.00000000E+00  0.00000000E+00
  0.00000000E+00  0.00000000E+00  0.00000000E+00
  0.00000000E+00  0.00000000E+00  0.00000000E+00
  0.00000000E+00  0.00000000E+00  0.00000000E+00
  0.00000000E+00  0.00000000E+00  0.00000000E+00
  0.00000000E+00  0.00000000E+00  0.00000000E+00
  0.00000000E+00  0.00000000E+00  0.00000000E+00
  0.00000000E+00  0.00000000E+00  0.00000000E+00
  0.00000000E+00  0.00000000E+00  0.00000000E+00
