Species order: X N B                    
   2.51242800000000     
     5.9449720136058266    0.0000000000000000    0.0000000000000000
    -2.9724860068029120    5.1484967885702053   -0.0000000000000001
     0.0000000000000000    0.0000000000000009    5.3101128803662583
   S    N    B 
     1   144   143
Direct
  0.4444444444444429  0.3888888888888857  0.3750000000000000
  0.1111120000900199  0.0555487247953498  0.1252237566625512
  0.6111037704793861  0.5555490793814142  0.1253868419158547
  0.4444367247053298  0.0555487247953498  0.1252237566625512
  0.9444513418334148  0.5555618348301281  0.1251376667204489
  0.7777777777777786  0.0555555555555571  0.1250895069423361
  0.1111111111111143  0.7222222222222214  0.6248745543302976
  0.4444367247053298  0.7222213332433158  0.6247762433374484
  0.2777842539519215  0.2222295628539494  0.6246131580841449
  0.7777846085379861  0.7222213332433158  0.6247762433374484
  0.6111097990178743  0.2222235343154615  0.6247572920856440
  0.9444466799391399  0.2222283749978821  0.6249074885154789
  0.2777714985032079  0.7222228403366240  0.1251376667204489
  0.1111137352976019  0.2222235343154615  0.1252427079143561
  0.4444453089020211  0.2222295628539494  0.1253868419158547
  0.6111097990178743  0.7222195980357338  0.1252427079143561
  0.9444513418334148  0.7222228403366240  0.1251376667204489
  0.7777816950587426  0.2222283749978821  0.1250925114845221
  0.1111104929967126  0.8888819914999138  0.6248623332795507
  0.4444356390125954  0.8888844861729613  0.6249047295945224
  0.2777842539519215  0.3888880244313075  0.6246131580841449
  0.6111037704793861  0.3888880244313075  0.6246131580841449
  0.7777816950587426  0.8888866533941887  0.6249074885154789
  0.9444488471603673  0.3888976943207332  0.6249047295945224
  0.1111120000900199  0.3888966086279988  0.1252237566625512
  0.2777714985032079  0.8888819914999138  0.1251376667204489
  0.6111049583354531  0.8888866533941887  0.1250925114845221
  0.4444444444444429  0.3888888888888857  0.1235388139921405
  0.9444488471603673  0.8888844861729613  0.1250952704054841
  0.7777846085379861  0.3888966086279988  0.1252237566625512
  0.2777754996865250  0.5555578336468109  0.6246889107650341
  0.1111120000900199  0.0555487247953498  0.6247762433374484
  0.6111037704793861  0.5555490793814142  0.6246131580841449
  0.4444367247053298  0.0555487247953498  0.6247762433374484
  0.9444513418334148  0.5555618348301281  0.6248623332795507
  0.1111104929967126  0.5555618348301281  0.1251376667204489
  0.7777777777777786  0.0555555555555571  0.6249104930576642
  0.2777754996865250  0.0555509993730425  0.1253110892349656
  0.4444453089020211  0.5555490793814142  0.1253868419158547
  0.7777823339602928  0.5555578336468109  0.1253110892349656
  0.6111049583354531  0.0555516382745937  0.1250925114845221
  0.4444453089020211  0.5555490793814142  0.6246131580841449
  0.9444466799391399  0.0555516382745937  0.1250925114845221
  0.2777714985032079  0.7222228403366240  0.6248623332795507
  0.1111137352976019  0.2222235343154615  0.6247572920856440
  0.4444453089020211  0.2222295628539494  0.6246131580841449
  0.6111097990178743  0.7222195980357338  0.6247572920856440
  0.9444513418334148  0.7222228403366240  0.6248623332795507
  0.7777816950587426  0.2222283749978821  0.6249074885154789
  0.1111111111111143  0.7222222222222214  0.1251254456697019
  0.4444367247053298  0.7222213332433158  0.1252237566625512
  0.2777842539519215  0.2222295628539494  0.1253868419158547
  0.7777846085379861  0.7222213332433158  0.1252237566625512
  0.6111097990178743  0.2222235343154615  0.1252427079143561
  0.9444466799391399  0.2222283749978821  0.1250925114845221
  0.1111120000900199  0.3888966086279988  0.6247762433374484
  0.2777714985032079  0.8888819914999138  0.6248623332795507
  0.6111049583354531  0.8888866533941887  0.6249074885154789
  0.4444444444444429  0.3888888888888857  0.6264611860078600
  0.9444488471603673  0.8888844861729613  0.6249047295945224
  0.1111104929967126  0.8888819914999138  0.1251376667204489
  0.7777846085379861  0.3888966086279988  0.6247762433374484
  0.4444356390125954  0.8888844861729613  0.1250952704054841
  0.2777842539519215  0.3888880244313075  0.1253868419158547
  0.2777754996865250  0.5555578336468109  0.1253110892349656
  0.6111037704793861  0.3888880244313075  0.1253868419158547
  0.7777816950587426  0.8888866533941887  0.1250925114845221
  0.9444488471603673  0.3888976943207332  0.1250952704054841
  0.1111104929967126  0.5555618348301281  0.6248623332795507
  0.2777754996865250  0.0555509993730425  0.6246889107650341
  0.7777823339602928  0.5555578336468109  0.6246889107650341
  0.6111049583354531  0.0555516382745937  0.6249074885154789
  0.9444466799391399  0.0555516382745937  0.6249074885154789
  0.0548173242024355  0.1106019576059775  0.3750000000000000
  0.5560417893081718  0.6120835786163356  0.3750000000000000
  0.3881261619285486  0.1073814591791371  0.3750000000000000
  0.8901565436708903  0.6117449385021169  0.3750000000000000
  0.7223515582212768  0.1109817751120585  0.3750000000000000
  0.0555537515404764  0.7777795817928594  0.8750000000000000
  0.3888949168730180  0.7777804621191167  0.8750000000000000
  0.2222240353374971  0.2777786843354163  0.8750000000000000
  0.7222212154055230  0.7777790878768879  0.8750000000000000
  0.5555546489979194  0.2777786843354163  0.8750000000000000
  0.8888874162835947  0.2777748325671954  0.8750000000000000
  0.2219937461174295  0.7776635397253858  0.3750000000000000
  0.0548173242024355  0.2775486999297941  0.3750000000000000
  0.3814826883113682  0.2629653766227440  0.3750000000000000
  0.5557846334035426  0.7785160091308996  0.3750000000000000
  0.8899029412444536  0.7786155873911382  0.3750000000000000
  0.7227313757273585  0.2775486999297941  0.3750000000000000
  0.0555528712142197  0.9444477880872382  0.8750000000000000
  0.3888949168730180  0.9444477880872382  0.8750000000000000
  0.2222231379921874  0.4444406959423938  0.8750000000000000
  0.5555611289269770  0.4444472311301563  0.8750000000000000
  0.7222225982669190  0.9444451965338377  0.8750000000000000
  0.8888855452460904  0.4444384164603106  0.8750000000000000
  0.0547177459421981  0.4446206871866519  0.3750000000000000
  0.2215883948312192  0.9431767896624383  0.3750000000000000
  0.5557419627766094  0.9445376480549721  0.3750000000000000
  0.3814826883113682  0.4518506450219604  0.3750000000000000
  0.8887956852783565  0.9445376480549721  0.3750000000000000
  0.7259518741541992  0.4452071714047800  0.3750000000000000
  0.2222244113620365  0.6111089219712993  0.8750000000000000
  0.0555542454564476  0.1111121179278119  0.8750000000000000
  0.5555546489979194  0.6111092979958317  0.8750000000000000
  0.3888926373909348  0.1111157753831293  0.8750000000000000
  0.8888845106092557  0.6111089219712993  0.8750000000000000
  0.0556697936079496  0.6113395872159062  0.3750000000000000
  0.7222225982669190  0.1111107350664167  0.8750000000000000
  0.2192552972505813  0.1073814591791371  0.3750000000000000
  0.3881261619285486  0.6140780360827536  0.3750000000000000
  0.7259518741541992  0.6140780360827536  0.3750000000000000
  0.5557846334035426  0.1106019576059775  0.3750000000000000
  0.3888926373909348  0.6111101953411481  0.8750000000000000
  0.8886302168907736  0.1109817751120585  0.3750000000000000
  0.2222258302523900  0.7777795817928594  0.8750000000000000
  0.0555542454564476  0.2777754608619715  0.8750000000000000
  0.3888861022031723  0.2777722044063584  0.8750000000000000
  0.5555578724713637  0.7777790878768879  0.8750000000000000
  0.8888855452460904  0.7777804621191167  0.8750000000000000
  0.7222212154055230  0.2777754608619715  0.8750000000000000
  0.0556697936079496  0.7776635397253858  0.3750000000000000
  0.3887126461466767  0.7786155873911382  0.3750000000000000
  0.2212497547169995  0.2772915440251644  0.3750000000000000
  0.7227313757273585  0.7785160091308996  0.3750000000000000
  0.5560417893081718  0.2772915440251644  0.3750000000000000
  0.8887956852783565  0.2775913705567261  0.3750000000000000
  0.0555528712142197  0.4444384164603106  0.8750000000000000
  0.2222244113620365  0.9444488227240729  0.8750000000000000
  0.5555585007661400  0.9444459170497339  0.8750000000000000
  0.3888861022031723  0.4444472311301563  0.8750000000000000
  0.8888874162835947  0.9444459170497339  0.8750000000000000
  0.0547177459421981  0.9434303920888750  0.3750000000000000
  0.7222175579502057  0.4444406959423938  0.8750000000000000
  0.3887126461466767  0.9434303920888750  0.3750000000000000
  0.2192552972505813  0.4452071714047800  0.3750000000000000
  0.2215883948312192  0.6117449385021169  0.3750000000000000
  0.5703679567105993  0.4518506450219604  0.3750000000000000
  0.7223515582212768  0.9447031164425550  0.3750000000000000
  0.8899029412444536  0.4446206871866519  0.3750000000000000
  0.0555537515404764  0.6111075030809455  0.8750000000000000
  0.2222231379921874  0.1111157753831293  0.8750000000000000
  0.7222175579502057  0.6111101953411481  0.8750000000000000
  0.5555578724713637  0.1111121179278119  0.8750000000000000
  0.8888881367994909  0.1111107350664167  0.8750000000000000
  0.1085298320743622  0.0533132277809399  0.3750000000000000
  0.6173089297617176  0.5623974887740355  0.3750000000000000
  0.4447833957065776  0.0533132277809399  0.3750000000000000
  0.9451479421705989  0.5557213280492016  0.3750000000000000
  0.7777777777777786  0.0555555555555571  0.3750000000000000
  0.1111111111111143  0.7222222222222214  0.8750000000000000
  0.4444536934312177  0.7222495287607386  0.8750000000000000
  0.2777522455738961  0.2221996926541045  0.8750000000000000
  0.7777958353295137  0.7222495287607386  0.8750000000000000
  0.6111294570101492  0.2222038763231861  0.8750000000000000
  0.9444247569505130  0.2222094594200020  0.8750000000000000
  0.2776120052841338  0.7227599474547322  0.3750000000000000
  0.1092073544550121  0.2212703438941738  0.3750000000000000
  0.4450885590123111  0.2160244035716183  0.3750000000000000
  0.6120629894391612  0.7241259788783232  0.3750000000000000
  0.9451479421705989  0.7227599474547322  0.3750000000000000
  0.7780132134562697  0.2217563833801581  0.3750000000000000
  0.1111019180761281  0.8888809081765664  0.8750000000000000
  0.4444543146025328  0.8888938239679346  0.8750000000000000
  0.2777522455738961  0.3888858862531279  0.8750000000000000
  0.6111336406792313  0.3888858862531279  0.8750000000000000
  0.7777847024694897  0.8889085763828156  0.8750000000000000
  0.9444395093653940  0.3888790187307958  0.8750000000000000
  0.1085298320743622  0.3885499376267510  0.3750000000000000
  0.2776120052841338  0.8881853911627297  0.3750000000000000
  0.6115769499531781  0.8895901634094403  0.3750000000000000
  0.9442756514234044  0.8890576819099242  0.3750000000000000
  0.7800201055523958  0.3885499376267510  0.3750000000000000
  0.2777661567986519  0.5555671765346842  0.8750000000000000
  0.1110838045725966  0.0555374980038217  0.8750000000000000
  0.6111336406792313  0.5555810877594389  0.8750000000000000
  0.4444536934312177  0.0555374980038217  0.8750000000000000
  0.9444524251567622  0.5555543432328905  0.8750000000000000
  0.1105733858786029  0.5557213280492016  0.3750000000000000
  0.7777777777777786  0.0555555555555571  0.8750000000000000
  0.2765036431704048  0.0530072863408164  0.3750000000000000
  0.4450885590123111  0.5623974887740355  0.3750000000000000
  0.7803260469925191  0.5568296901629320  0.3750000000000000
  0.6115769499531781  0.0553201198770656  0.3750000000000000
  0.4444474470802007  0.5555810877594389  0.8750000000000000
  0.9437431699238883  0.0553201198770656  0.3750000000000000
  0.2777789901004449  0.7222314152572078  0.8750000000000000
  0.1110744193130434  0.2222038763231861  0.8750000000000000
  0.4444474470802007  0.2221996926541045  0.8750000000000000
  0.6111294570101492  0.7222589140202920  0.8750000000000000
  0.9444524251567622  0.7222314152572078  0.8750000000000000
  0.7777847024694897  0.2222094594200020  0.8750000000000000
  0.1111111111111143  0.7222222222222214  0.3750000000000000
  0.4447833957065776  0.7248035012589740  0.3750000000000000
  0.2709358445592994  0.2160244035716183  0.3750000000000000
  0.7800201055523958  0.7248035012589740  0.3750000000000000
  0.6120629894391612  0.2212703438941738  0.3750000000000000
  0.9437431699238883  0.2217563833801581  0.3750000000000000
  0.1110838045725966  0.3888796399021109  0.8750000000000000
  0.2777789901004449  0.8888809081765664  0.8750000000000000
  0.6111238739133339  0.8889085763828156  0.8750000000000000
  0.4444444444444429  0.3888888888888857  0.8750000000000000
  0.9444395093653940  0.8888938239679346  0.8750000000000000
  0.1105733858786029  0.8881853911627297  0.3750000000000000
  0.7777958353295137  0.3888796399021109  0.8750000000000000
  0.4447820304865203  0.8890576819099242  0.3750000000000000
  0.2709358445592994  0.3882447743210174  0.3750000000000000
  0.2765036431704048  0.5568296901629320  0.3750000000000000
  0.6173089297617176  0.3882447743210174  0.3750000000000000
  0.7780132134562697  0.8895901634094403  0.3750000000000000
  0.9442756514234044  0.3885513028468083  0.3750000000000000
  0.1111019180761281  0.5555543432328905  0.8750000000000000
  0.2777661567986519  0.0555323135972958  0.8750000000000000
  0.7778010197360391  0.5555671765346842  0.8750000000000000
  0.6111238739133339  0.0555486308638462  0.8750000000000000
  0.9444247569505130  0.0555486308638462  0.8750000000000000
  0.0554813772884184  0.1110465867504528  0.1248998039244427
  0.5556132136190149  0.6112264272380361  0.1248054772613624
  0.3888454430641975  0.1109765965973832  0.1249457856670047
  0.8889867697667857  0.6111600515500633  0.1249254293975517
  0.7222328627129859  0.1111004706203504  0.1248936700397332
  0.0555694261431028  0.7777639071902324  0.6250863125254034
  0.3888563965684810  0.7778080026544840  0.6250958940700906
  0.2221069060952991  0.2777201197143212  0.6251945227386374
  0.7222867465828831  0.7778519560449181  0.6251001960755580
  0.5556132136190149  0.2777201197143212  0.6251945227386374
  0.8888922006839768  0.2777844013679611  0.6251157463166578
  0.2221944810471301  0.7777639071902324  0.1249136874745971
  0.0554813772884184  0.2777681238713013  0.1248998039244427
  0.3888486411168746  0.2776972822337485  0.1240393567488506
  0.5555652094620342  0.7778519560449181  0.1248998039244427
  0.8889516060859964  0.7778080026544840  0.1249041059299095
  0.7222867465828831  0.2777681238713013  0.1248998039244427
  0.0555253306788516  0.9443817272473322  0.6250958940700906
  0.3888563965684810  0.9443817272473322  0.6250958940700906
  0.2221311535331784  0.4444878902691311  0.6250542143329954
  0.5556360510995866  0.4444846922164540  0.6259606432511490
  0.7222328627129859  0.9444657254259776  0.6251063299602673
  0.8889516060859964  0.4444769367648476  0.6250958940700906
  0.0555253306788516  0.4444769367648476  0.1249041059299095
  0.2221732817832720  0.9443465635665429  0.1249254293975517
  0.5555489319653740  0.9444411326493518  0.1248842536833419
  0.3888486411168746  0.4444846922164540  0.1240393567488506
  0.8888922006839768  0.9444411326493518  0.1248842536833419
  0.7223567367359534  0.4444878902691311  0.1249457856670047
  0.2221732817832720  0.6111600515500633  0.6250745706024478
  0.0554813772884184  0.1110465867504528  0.6251001960755580
  0.5556132136190149  0.6112264272380361  0.6251945227386374
  0.3888454430641975  0.1109765965973832  0.6250542143329954
  0.8889867697667857  0.6111600515500633  0.6250745706024478
  0.0555694261431028  0.6111388522862053  0.1249136874745971
  0.7222328627129859  0.1111004706203504  0.6251063299602673
  0.2221311535331784  0.1109765965973832  0.1249457856670047
  0.3888454430641975  0.6112021798001572  0.1249457856670047
  0.7223567367359534  0.6112021798001572  0.1249457856670047
  0.5555652094620342  0.1110465867504528  0.1248998039244427
  0.3888454430641975  0.6112021798001572  0.6250542143329954
  0.8888676079073510  0.1111004706203504  0.1248936700397332
  0.2221944810471301  0.7777639071902324  0.6250863125254034
  0.0554813772884184  0.2777681238713013  0.6251001960755580
  0.3888486411168746  0.2776972822337485  0.6259606432511490
  0.5555652094620342  0.7778519560449181  0.6251001960755580
  0.8889516060859964  0.7778080026544840  0.6250958940700906
  0.7222867465828831  0.2777681238713013  0.6251001960755580
  0.0555694261431028  0.7777639071902324  0.1249136874745971
  0.3888563965684810  0.7778080026544840  0.1249041059299095
  0.2221069060952991  0.2777201197143212  0.1248054772613624
  0.7222867465828831  0.7778519560449181  0.1248998039244427
  0.5556132136190149  0.2777201197143212  0.1248054772613624
  0.8888922006839768  0.2777844013679611  0.1248842536833419
  0.0555253306788516  0.4444769367648476  0.6250958940700906
  0.2221732817832720  0.9443465635665429  0.6250745706024478
  0.5555489319653740  0.9444411326493518  0.6251157463166578
  0.3888486411168746  0.4444846922164540  0.6259606432511490
  0.8888922006839768  0.9444411326493518  0.6251157463166578
  0.0555253306788516  0.9443817272473322  0.1249041059299095
  0.7223567367359534  0.4444878902691311  0.6250542143329954
  0.3888563965684810  0.9443817272473322  0.1249041059299095
  0.2221311535331784  0.4444878902691311  0.1249457856670047
  0.2221732817832720  0.6111600515500633  0.1249254293975517
  0.5556360510995866  0.4444846922164540  0.1240393567488506
  0.7222328627129859  0.9444657254259776  0.1248936700397332
  0.8889516060859964  0.4444769367648476  0.1249041059299095
  0.0555694261431028  0.6111388522862053  0.6250863125254034
  0.2221311535331784  0.1109765965973832  0.6250542143329954
  0.7223567367359534  0.6112021798001572  0.6250542143329954
  0.5555652094620342  0.1110465867504528  0.6251001960755580
  0.8888676079073510  0.1111004706203504  0.6251063299602673
 
  0.00000000E+00  0.00000000E+00  0.00000000E+00
  0.00000000E+00  0.00000000E+00  0.00000000E+00
  0.00000000E+00  0.00000000E+00  0.00000000E+00
  0.00000000E+00  0.00000000E+00  0.00000000E+00
  0.00000000E+00  0.00000000E+00  0.00000000E+00
  0.00000000E+00  0.00000000E+00  0.00000000E+00
  0.00000000E+00  0.00000000E+00  0.00000000E+00
  0.00000000E+00  0.00000000E+00  0.00000000E+00
  0.00000000E+00  0.00000000E+00  0.00000000E+00
  0.00000000E+00  0.00000000E+00  0.00000000E+00
  0.00000000E+00  0.00000000E+00  0.00000000E+00
  0.00000000E+00  0.00000000E+00  0.00000000E+00
  0.00000000E+00  0.00000000E+00  0.00000000E+00
  0.00000000E+00  0.00000000E+00  0.00000000E+00
  0.00000000E+00  0.00000000E+00  0.00000000E+00
  0.00000000E+00  0.00000000E+00  0.00000000E+00
  0.00000000E+00  0.00000000E+00  0.00000000E+00
  0.00000000E+00  0.00000000E+00  0.00000000E+00
  0.00000000E+00  0.00000000E+00  0.00000000E+00
  0.00000000E+00  0.00000000E+00  0.00000000E+00
  0.00000000E+00  0.00000000E+00  0.00000000E+00
  0.00000000E+00  0.00000000E+00  0.00000000E+00
  0.00000000E+00  0.00000000E+00  0.00000000E+00
  0.00000000E+00  0.00000000E+00  0.00000000E+00
  0.00000000E+00  0.00000000E+00  0.00000000E+00
  0.00000000E+00  0.00000000E+00  0.00000000E+00
  0.00000000E+00  0.00000000E+00  0.00000000E+00
  0.00000000E+00  0.00000000E+00  0.00000000E+00
  0.00000000E+00  0.00000000E+00  0.00000000E+00
  0.00000000E+00  0.00000000E+00  0.00000000E+00
  0.00000000E+00  0.00000000E+00  0.00000000E+00
  0.00000000E+00  0.00000000E+00  0.00000000E+00
  0.00000000E+00  0.00000000E+00  0.00000000E+00
  0.00000000E+00  0.00000000E+00  0.00000000E+00
  0.00000000E+00  0.00000000E+00  0.00000000E+00
  0.00000000E+00  0.00000000E+00  0.00000000E+00
  0.00000000E+00  0.00000000E+00  0.00000000E+00
  0.00000000E+00  0.00000000E+00  0.00000000E+00
  0.00000000E+00  0.00000000E+00  0.00000000E+00
  0.00000000E+00  0.00000000E+00  0.00000000E+00
  0.00000000E+00  0.00000000E+00  0.00000000E+00
  0.00000000E+00  0.00000000E+00  0.00000000E+00
  0.00000000E+00  0.00000000E+00  0.00000000E+00
  0.00000000E+00  0.00000000E+00  0.00000000E+00
  0.00000000E+00  0.00000000E+00  0.00000000E+00
  0.00000000E+00  0.00000000E+00  0.00000000E+00
  0.00000000E+00  0.00000000E+00  0.00000000E+00
  0.00000000E+00  0.00000000E+00  0.00000000E+00
  0.00000000E+00  0.00000000E+00  0.00000000E+00
  0.00000000E+00  0.00000000E+00  0.00000000E+00
  0.00000000E+00  0.00000000E+00  0.00000000E+00
  0.00000000E+00  0.00000000E+00  0.00000000E+00
  0.00000000E+00  0.00000000E+00  0.00000000E+00
  0.00000000E+00  0.00000000E+00  0.00000000E+00
  0.00000000E+00  0.00000000E+00  0.00000000E+00
  0.00000000E+00  0.00000000E+00  0.00000000E+00
  0.00000000E+00  0.00000000E+00  0.00000000E+00
  0.00000000E+00  0.00000000E+00  0.00000000E+00
  0.00000000E+00  0.00000000E+00  0.00000000E+00
  0.00000000E+00  0.00000000E+00  0.00000000E+00
  0.00000000E+00  0.00000000E+00  0.00000000E+00
  0.00000000E+00  0.00000000E+00  0.00000000E+00
  0.00000000E+00  0.00000000E+00  0.00000000E+00
  0.00000000E+00  0.00000000E+00  0.00000000E+00
  0.00000000E+00  0.00000000E+00  0.00000000E+00
  0.00000000E+00  0.00000000E+00  0.00000000E+00
  0.00000000E+00  0.00000000E+00  0.00000000E+00
  0.00000000E+00  0.00000000E+00  0.00000000E+00
  0.00000000E+00  0.00000000E+00  0.00000000E+00
  0.00000000E+00  0.00000000E+00  0.00000000E+00
  0.00000000E+00  0.00000000E+00  0.00000000E+00
  0.00000000E+00  0.00000000E+00  0.00000000E+00
  0.00000000E+00  0.00000000E+00  0.00000000E+00
  0.00000000E+00  0.00000000E+00  0.00000000E+00
  0.00000000E+00  0.00000000E+00  0.00000000E+00
  0.00000000E+00  0.00000000E+00  0.00000000E+00
  0.00000000E+00  0.00000000E+00  0.00000000E+00
  0.00000000E+00  0.00000000E+00  0.00000000E+00
  0.00000000E+00  0.00000000E+00  0.00000000E+00
  0.00000000E+00  0.00000000E+00  0.00000000E+00
  0.00000000E+00  0.00000000E+00  0.00000000E+00
  0.00000000E+00  0.00000000E+00  0.00000000E+00
  0.00000000E+00  0.00000000E+00  0.00000000E+00
  0.00000000E+00  0.00000000E+00  0.00000000E+00
  0.00000000E+00  0.00000000E+00  0.00000000E+00
  0.00000000E+00  0.00000000E+00  0.00000000E+00
  0.00000000E+00  0.00000000E+00  0.00000000E+00
  0.00000000E+00  0.00000000E+00  0.00000000E+00
  0.00000000E+00  0.00000000E+00  0.00000000E+00
  0.00000000E+00  0.00000000E+00  0.00000000E+00
  0.00000000E+00  0.00000000E+00  0.00000000E+00
  0.00000000E+00  0.00000000E+00  0.00000000E+00
  0.00000000E+00  0.00000000E+00  0.00000000E+00
  0.00000000E+00  0.00000000E+00  0.00000000E+00
  0.00000000E+00  0.00000000E+00  0.00000000E+00
  0.00000000E+00  0.00000000E+00  0.00000000E+00
  0.00000000E+00  0.00000000E+00  0.00000000E+00
  0.00000000E+00  0.00000000E+00  0.00000000E+00
  0.00000000E+00  0.00000000E+00  0.00000000E+00
  0.00000000E+00  0.00000000E+00  0.00000000E+00
  0.00000000E+00  0.00000000E+00  0.00000000E+00
  0.00000000E+00  0.00000000E+00  0.00000000E+00
  0.00000000E+00  0.00000000E+00  0.00000000E+00
  0.00000000E+00  0.00000000E+00  0.00000000E+00
  0.00000000E+00  0.00000000E+00  0.00000000E+00
  0.00000000E+00  0.00000000E+00  0.00000000E+00
  0.00000000E+00  0.00000000E+00  0.00000000E+00
  0.00000000E+00  0.00000000E+00  0.00000000E+00
  0.00000000E+00  0.00000000E+00  0.00000000E+00
  0.00000000E+00  0.00000000E+00  0.00000000E+00
  0.00000000E+00  0.00000000E+00  0.00000000E+00
  0.00000000E+00  0.00000000E+00  0.00000000E+00
  0.00000000E+00  0.00000000E+00  0.00000000E+00
  0.00000000E+00  0.00000000E+00  0.00000000E+00
  0.00000000E+00  0.00000000E+00  0.00000000E+00
  0.00000000E+00  0.00000000E+00  0.00000000E+00
  0.00000000E+00  0.00000000E+00  0.00000000E+00
  0.00000000E+00  0.00000000E+00  0.00000000E+00
  0.00000000E+00  0.00000000E+00  0.00000000E+00
  0.00000000E+00  0.00000000E+00  0.00000000E+00
  0.00000000E+00  0.00000000E+00  0.00000000E+00
  0.00000000E+00  0.00000000E+00  0.00000000E+00
  0.00000000E+00  0.00000000E+00  0.00000000E+00
  0.00000000E+00  0.00000000E+00  0.00000000E+00
  0.00000000E+00  0.00000000E+00  0.00000000E+00
  0.00000000E+00  0.00000000E+00  0.00000000E+00
  0.00000000E+00  0.00000000E+00  0.00000000E+00
  0.00000000E+00  0.00000000E+00  0.00000000E+00
  0.00000000E+00  0.00000000E+00  0.00000000E+00
  0.00000000E+00  0.00000000E+00  0.00000000E+00
  0.00000000E+00  0.00000000E+00  0.00000000E+00
  0.00000000E+00  0.00000000E+00  0.00000000E+00
  0.00000000E+00  0.00000000E+00  0.00000000E+00
  0.00000000E+00  0.00000000E+00  0.00000000E+00
  0.00000000E+00  0.00000000E+00  0.00000000E+00
  0.00000000E+00  0.00000000E+00  0.00000000E+00
  0.00000000E+00  0.00000000E+00  0.00000000E+00
  0.00000000E+00  0.00000000E+00  0.00000000E+00
  0.00000000E+00  0.00000000E+00  0.00000000E+00
  0.00000000E+00  0.00000000E+00  0.00000000E+00
  0.00000000E+00  0.00000000E+00  0.00000000E+00
  0.00000000E+00  0.00000000E+00  0.00000000E+00
  0.00000000E+00  0.00000000E+00  0.00000000E+00
  0.00000000E+00  0.00000000E+00  0.00000000E+00
  0.00000000E+00  0.00000000E+00  0.00000000E+00
  0.00000000E+00  0.00000000E+00  0.00000000E+00
  0.00000000E+00  0.00000000E+00  0.00000000E+00
  0.00000000E+00  0.00000000E+00  0.00000000E+00
  0.00000000E+00  0.00000000E+00  0.00000000E+00
  0.00000000E+00  0.00000000E+00  0.00000000E+00
  0.00000000E+00  0.00000000E+00  0.00000000E+00
  0.00000000E+00  0.00000000E+00  0.00000000E+00
  0.00000000E+00  0.00000000E+00  0.00000000E+00
  0.00000000E+00  0.00000000E+00  0.00000000E+00
  0.00000000E+00  0.00000000E+00  0.00000000E+00
  0.00000000E+00  0.00000000E+00  0.00000000E+00
  0.00000000E+00  0.00000000E+00  0.00000000E+00
  0.00000000E+00  0.00000000E+00  0.00000000E+00
  0.00000000E+00  0.00000000E+00  0.00000000E+00
  0.00000000E+00  0.00000000E+00  0.00000000E+00
  0.00000000E+00  0.00000000E+00  0.00000000E+00
  0.00000000E+00  0.00000000E+00  0.00000000E+00
  0.00000000E+00  0.00000000E+00  0.00000000E+00
  0.00000000E+00  0.00000000E+00  0.00000000E+00
  0.00000000E+00  0.00000000E+00  0.00000000E+00
  0.00000000E+00  0.00000000E+00  0.00000000E+00
  0.00000000E+00  0.00000000E+00  0.00000000E+00
  0.00000000E+00  0.00000000E+00  0.00000000E+00
  0.00000000E+00  0.00000000E+00  0.00000000E+00
  0.00000000E+00  0.00000000E+00  0.00000000E+00
  0.00000000E+00  0.00000000E+00  0.00000000E+00
  0.00000000E+00  0.00000000E+00  0.00000000E+00
  0.00000000E+00  0.00000000E+00  0.00000000E+00
  0.00000000E+00  0.00000000E+00  0.00000000E+00
  0.00000000E+00  0.00000000E+00  0.00000000E+00
  0.00000000E+00  0.00000000E+00  0.00000000E+00
  0.00000000E+00  0.00000000E+00  0.00000000E+00
  0.00000000E+00  0.00000000E+00  0.00000000E+00
  0.00000000E+00  0.00000000E+00  0.00000000E+00
  0.00000000E+00  0.00000000E+00  0.00000000E+00
  0.00000000E+00  0.00000000E+00  0.00000000E+00
  0.00000000E+00  0.00000000E+00  0.00000000E+00
  0.00000000E+00  0.00000000E+00  0.00000000E+00
  0.00000000E+00  0.00000000E+00  0.00000000E+00
  0.00000000E+00  0.00000000E+00  0.00000000E+00
  0.00000000E+00  0.00000000E+00  0.00000000E+00
  0.00000000E+00  0.00000000E+00  0.00000000E+00
  0.00000000E+00  0.00000000E+00  0.00000000E+00
  0.00000000E+00  0.00000000E+00  0.00000000E+00
  0.00000000E+00  0.00000000E+00  0.00000000E+00
  0.00000000E+00  0.00000000E+00  0.00000000E+00
  0.00000000E+00  0.00000000E+00  0.00000000E+00
  0.00000000E+00  0.00000000E+00  0.00000000E+00
  0.00000000E+00  0.00000000E+00  0.00000000E+00
  0.00000000E+00  0.00000000E+00  0.00000000E+00
  0.00000000E+00  0.00000000E+00  0.00000000E+00
  0.00000000E+00  0.00000000E+00  0.00000000E+00
  0.00000000E+00  0.00000000E+00  0.00000000E+00
  0.00000000E+00  0.00000000E+00  0.00000000E+00
  0.00000000E+00  0.00000000E+00  0.00000000E+00
  0.00000000E+00  0.00000000E+00  0.00000000E+00
  0.00000000E+00  0.00000000E+00  0.00000000E+00
  0.00000000E+00  0.00000000E+00  0.00000000E+00
  0.00000000E+00  0.00000000E+00  0.00000000E+00
  0.00000000E+00  0.00000000E+00  0.00000000E+00
  0.00000000E+00  0.00000000E+00  0.00000000E+00
  0.00000000E+00  0.00000000E+00  0.00000000E+00
  0.00000000E+00  0.00000000E+00  0.00000000E+00
  0.00000000E+00  0.00000000E+00  0.00000000E+00
  0.00000000E+00  0.00000000E+00  0.00000000E+00
  0.00000000E+00  0.00000000E+00  0.00000000E+00
  0.00000000E+00  0.00000000E+00  0.00000000E+00
  0.00000000E+00  0.00000000E+00  0.00000000E+00
  0.00000000E+00  0.00000000E+00  0.00000000E+00
  0.00000000E+00  0.00000000E+00  0.00000000E+00
  0.00000000E+00  0.00000000E+00  0.00000000E+00
  0.00000000E+00  0.00000000E+00  0.00000000E+00
  0.00000000E+00  0.00000000E+00  0.00000000E+00
  0.00000000E+00  0.00000000E+00  0.00000000E+00
  0.00000000E+00  0.00000000E+00  0.00000000E+00
  0.00000000E+00  0.00000000E+00  0.00000000E+00
  0.00000000E+00  0.00000000E+00  0.00000000E+00
  0.00000000E+00  0.00000000E+00  0.00000000E+00
  0.00000000E+00  0.00000000E+00  0.00000000E+00
  0.00000000E+00  0.00000000E+00  0.00000000E+00
  0.00000000E+00  0.00000000E+00  0.00000000E+00
  0.00000000E+00  0.00000000E+00  0.00000000E+00
  0.00000000E+00  0.00000000E+00  0.00000000E+00
  0.00000000E+00  0.00000000E+00  0.00000000E+00
  0.00000000E+00  0.00000000E+00  0.00000000E+00
  0.00000000E+00  0.00000000E+00  0.00000000E+00
  0.00000000E+00  0.00000000E+00  0.00000000E+00
  0.00000000E+00  0.00000000E+00  0.00000000E+00
  0.00000000E+00  0.00000000E+00  0.00000000E+00
  0.00000000E+00  0.00000000E+00  0.00000000E+00
  0.00000000E+00  0.00000000E+00  0.00000000E+00
  0.00000000E+00  0.00000000E+00  0.00000000E+00
  0.00000000E+00  0.00000000E+00  0.00000000E+00
  0.00000000E+00  0.00000000E+00  0.00000000E+00
  0.00000000E+00  0.00000000E+00  0.00000000E+00
  0.00000000E+00  0.00000000E+00  0.00000000E+00
  0.00000000E+00  0.00000000E+00  0.00000000E+00
  0.00000000E+00  0.00000000E+00  0.00000000E+00
  0.00000000E+00  0.00000000E+00  0.00000000E+00
  0.00000000E+00  0.00000000E+00  0.00000000E+00
  0.00000000E+00  0.00000000E+00  0.00000000E+00
  0.00000000E+00  0.00000000E+00  0.00000000E+00