 N B S 
 1.0
 14.936314146199660   0.000000000000000   0.000000000000000
 -7.468157073099825  12.935227489513863   0.000000000000000
  0.000000000000001   0.000000000000001  13.341276283792837
 N B S 
 144 143   1
Cartesian
  1.244757136775035   0.718535391980252   1.670644734929537 
  4.978710105170801   7.186153723388585   1.672820500351678 
  6.223399936324796   0.718535391980252   1.670644734929537 
  9.957598891092749   7.186318718019432   1.669496185226698 
 11.202235609649751   0.718623749417456   1.668853672321127 
 -3.734078536549858   9.342108742426664   8.336624072032423 
  1.244584180102209   9.342097243282295   8.335312477915076 
  2.489427600214011   2.874589950411051   8.333136712492950 
  6.223572892997630   9.342097243282295   8.335312477915076 
  7.468127676344652   2.874511969894279   8.335059644028837 
 12.446915895322366   2.874574585222600   8.337063456096104 
 -1.244791250909660   9.342116737877081   1.669496185226698 
  0.000029396755406   2.874511969894278   1.670897568815791 
  4.978729472885732   2.874589950411050   1.672820500351678 
  3.734078536550024   9.342074797977480   1.670897568815791 
  8.712948324009481   9.342116737877081   1.669496185226698 
  9.957555323977139   2.874574585222599   1.668893756748536 
 -4.978729103633118  11.497890771383515   8.336461027617929 
 -0.000098640522194  11.497923040546890   8.337026648569372 
  1.244796031593129   5.030355063966582   8.333136712492950 
  6.223361041506722   5.030355063966582   8.333136712492950 
  4.978846586831208  11.497951074046496   8.337063456096104 
 11.202235609649755   5.030480146186106   8.337026648569372 
 -1.244737219672622   5.030466102503607   1.670644734929537 
 -2.489427969466598  11.497890771383515   1.669496185226698 
  2.489310486268735  11.497951074046496   1.668893756748536 
  3.734078536549917   5.030366245922020   1.648165449241245 
  7.468255713622049  11.497923040546890   1.668930564275335 
  8.712894292772560   5.030466102503607   1.670644734929537 
 -0.000051039429925   7.186266961803001   8.334147349937927 
  1.244757136775035   0.718535391980253   8.335312477915076 
  4.978710105170802   7.186153723388586   8.333136712492950 
  6.223399936324797   0.718535391980253   8.335312477915076 
  9.957598891092749   7.186318718019433   8.336461027617929 
 -2.489441817992915   7.186318718019432   1.669496185226698 
 11.202235609649751   0.718623749417456   8.337103540523501 
  3.734078536549967   0.718564814160153   1.671809862906700 
  2.489446967928931   7.186153723388585   1.672820500351678 
  7.468208112529864   7.186266961803000   1.671809862906700 
  8.712787273695888   0.718573078497059   1.668893756748536 
  2.489446967928931   7.186153723388586   8.333136712492950 
 13.691683945603586   0.718573078497059   1.668893756748536 
 -1.244791250909660   9.342116737877081   8.336461027617929 
  0.000029396755406   2.874511969894279   8.335059644028837 
  4.978729472885733   2.874589950411051   8.333136712492950 
  3.734078536550025   9.342074797977480   8.335059644028837 
  8.712948324009481   9.342116737877081   8.336461027617929 
  9.957555323977139   2.874574585222600   8.337063456096104 
 -3.734078536549859   9.342108742426664   1.669333140812204 
  1.244584180102208   9.342097243282295   1.670644734929537 
  2.489427600214011   2.874589950411050   1.672820500351678 
  6.223572892997629   9.342097243282295   1.670644734929537 
  7.468127676344651   2.874511969894278   1.670897568815791 
 12.446915895322366   2.874574585222599   1.668893756748536 
 -1.244737219672621   5.030466102503608   8.335312477915076 
 -2.489427969466597  11.497890771383515   8.336461027617929 
  2.489310486268736  11.497951074046496   8.337063456096104 
  3.734078536549917   5.030366245922021   8.357791763603396 
  7.468255713622050  11.497923040546890   8.337026648569372 
 -4.978729103633118  11.497890771383515   1.669496185226698 
  8.712894292772560   5.030466102503608   8.335312477915076 
 -0.000098640522195  11.497923040546890   1.668930564275335 
  1.244796031593129   5.030355063966581   1.672820500351678 
 -0.000051039429925   7.186266961803000   1.671809862906700 
  6.223361041506721   5.030355063966581   1.672820500351678 
  4.978846586831207  11.497951074046496   1.668893756748536 
 11.202235609649755   5.030480146186105   1.668930564275335 
 -2.489441817992914   7.186318718019433   8.336461027617929 
  3.734078536549968   0.718564814160154   8.334147349937927 
  7.468208112529865   7.186266961803001   8.334147349937927 
  8.712787273695888   0.718573078497060   8.337063456096104 
 13.691683945603586   0.718573078497060   8.337063456096104 
 -0.007224017052128   1.430661482418894   5.002978606422314 
  3.734078536549979   7.917440331998050   5.002978606422314 
  4.995232679035114   1.389003602638084   5.002978606422314 
  8.727050486156108   7.913059945083552   5.002978606422314 
  9.960440468801529   1.435574508264552   5.002978606422314 
 -4.978811800070489  10.060755827189588  11.673616748318732 
  0.000069988781868  10.060767214409999  11.673616748318732 
  1.244713156461130   3.593130473616469  11.673616748318732 
  4.978746559910114  10.060749438274142  11.673616748318732 
  6.223443916638703   3.593130473616469  11.673616748318732 
 11.202235609649710   3.593080650118293  11.673616748318732 
 -2.491945134190363  10.059254796648469   5.002978606422314 
 -1.254008511568709   3.590155573010706   5.002978606422314 
  3.734078536549857   3.401516968480885   5.002978606422314 
  2.487294042033353  10.070281682336644   5.002978606422314 
  7.477046383853320  10.071569749785832   5.002978606422314 
  8.722165584668527   3.590155573010706   5.002978606422314 
 -6.223529292598228  12.216646990876606  11.673616748318732 
 -1.244627780501589  12.216646990876606  11.673616748318732 
  0.000041672629984   5.748941507612728  11.673616748318732 
  4.978833816286353   5.749026041753116  11.673616748318732 
  3.734078536549921  12.216613468543827  11.673616748318732 
  9.957537840366214   5.748912021993426  11.673616748318732 
 -2.503215687094888   5.751269735303326   5.002978606422314 
 -3.734078536549910  12.200206337113004   5.002978606422314 
  1.246781023126219  12.217809350001444   5.002978606422314 
  2.323453683349893   5.844790884642628   5.002978606422314 
  6.221376049973531  12.217809350001444   5.002978606422314 
  7.518168161268145   5.758856042083822   5.002978606422314 
 -1.244643798996694   7.904832926570330  11.673616748318732 
 -0.000027087117098   1.437260522237941  11.673616748318732 
  3.734078536549962   7.904837790533207  11.673616748318732 
  4.978792537354632   1.437307832254499  11.673616748318732 
  8.712800872096427   7.904832926570330  11.673616748318732 
 -3.734078536549955   7.907816633983246   5.002978606422314 
  9.957551189215673   1.437242634611210  11.673616748318732 
  2.472924394064613   1.389003602638084   5.002978606422314 
  1.211143054316898   7.943239093044327   5.002978606422314 
  6.257014018782850   7.943239093044327   5.002978606422314 
  7.475381090151959   1.430661482418894   5.002978606422314 
  1.244755673434708   7.904849397899005  11.673616748318732 
 12.444030750497843   1.435574508264552   5.002978606422314 
 -2.489345273029226  10.060755827189588  11.673616748318732 
 -1.244695110477307   3.593088777254164  11.673616748318732 
  3.734078536549813   3.593046654259988  11.673616748318732 
  2.489410513189711  10.060749438274142  11.673616748318732 
  7.468087084317839  10.060767214409999  11.673616748318732 
  8.712852183577125   3.593088777254164  11.673616748318732 
 -4.976211938909549  10.059254796648469   5.002978606422314 
 -0.008889310753588  10.071569749785832   5.002978606422314 
  1.233799035400433   3.586829202884045   5.002978606422314 
  4.980863031066501  10.070281682336644   5.002978606422314 
  6.234358037699521   3.586829202884045   5.002978606422314 
 11.202235609649655   3.590707527277192   5.002978606422314 
 -2.489380767266395   5.748912021993426  11.673616748318732 
 -3.734078536549917  12.216660374139437  11.673616748318732 
  1.244725838459550  12.216622788580851  11.673616748318732 
  2.489323256813379   5.749026041753116  11.673616748318732 
  6.223431234640306  12.216622788580851  11.673616748318732 
 -6.228404912891262  12.203486742190858   5.002978606422314 
  7.468115400469838   5.748941507612728  11.673616748318732 
 -1.239752160208558  12.203486742190858   5.002978606422314 
 -0.050011088168309   5.758856042083822   5.002978606422314 
 -1.258893413056390   7.913059945083552   5.002978606422314 
  5.144703389750046   5.844790884642628   5.002978606422314 
  3.734078536549913  12.219949721237153   5.002978606422314 
  9.971372760194722   5.751269735303326   5.002978606422314 
 -3.734078536549866   7.904814572900831  11.673616748318732 
  2.489364535745096   1.437307832254499  11.673616748318732 
  6.223401399665026   7.904849397899005  11.673616748318732 
  7.468184160216931   1.437260522237941  11.673616748318732 
 12.446920030083712   1.437242634611210  11.673616748318732 
  1.222884106954958   0.689618729546730   5.002978606422314 
  5.020247316493926   7.274739456823475   5.002978606422314 
  6.245272966144872   0.689618729546730   5.002978606422314 
  9.966812412151141   7.188381799091191   5.002978606422314 
 11.202235609649751   0.718623749417456   5.002978606422314 
 -3.734078536549858   9.342108742426666  11.673616748318732 
  1.244627061769860   9.342461958714347  11.673616748318732 
  2.489172588368751   2.874203572580899  11.673616748318732 
  6.223530011329874   9.342461958714347  11.673616748318732 
  7.468568103266806   2.874257689292215  11.673616748318732 
 12.446729711183945   2.874329907919627  11.673616748318732 
 -1.251184692057049   9.349064340636046   5.002978606422314 
 -0.021326330605069   2.862182234954106   5.002978606422314 
  5.034678362791652   2.794324803485431   5.002978606422314 
  3.734078536549913   9.366734267858019   5.002978606422314 
  8.719341765156901   9.349064340636046   5.002978606422314 
  9.964538263031576   2.868469266274195   5.002978606422314 
 -4.978849090911829  11.497876758349566  11.673616748318732 
  0.000110567836404  11.498043827049132  11.673616748318732 
  1.244333912654114   5.030327406145424  11.673616748318732 
  6.223823160445709   5.030327406145424  11.673616748318732 
  4.978727782140315  11.498234652891636  11.673616748318732 
 11.202235609649687   5.030238573181770  11.673616748318732 
 -1.280716298842749   5.025981834238447   5.002978606422314 
 -2.486607889555610  11.488880087552769   5.002978606422314 
  2.491106378049057  11.507051136134917   5.002978606422314 
  7.464375354717955  11.500163366804721   5.002978606422314 
  8.748873371942688   5.025981834238447   5.002978606422314 
 -0.000260361892380   7.186387814183047  11.673616748318732 
  1.244419843111849   0.718390170877861  11.673616748318732 
  4.978917212264551   7.186567759039911  11.673616748318732 
  6.223737229987878   0.718390170877861  11.673616748318732 
  9.957671020375479   7.186221812504913  11.673616748318732 
 -2.498655339051304   7.188381799091191   5.002978606422314 
 11.202235609649751   0.718623749417457  11.673616748318732 
  3.734078536549871   0.685661307420256   5.002978606422314 
  2.447909756605807   7.274739456823475   5.002978606422314 
  7.496703385240137   7.202718715173047   5.002978606422314 
  8.721566104530654   0.715578335357027   5.002978606422314 
  2.489239860835183   7.186567759039911  11.673616748318732 
 13.682905114768836   0.715578335357027   5.002978606422314 
 -1.244743392913682   9.342227656425541  11.673616748318732 
 -0.000411030166883   2.874257689292215  11.673616748318732 
  4.978984484730979   2.874203572580899  11.673616748318732 
  3.734078536549965   9.342583359181713  11.673616748318732 
  8.712900466013505   9.342227656425541  11.673616748318732 
  9.957741508115561   2.874329907919627  11.673616748318732 
 -3.734078536549858   9.342108742426664   5.002978606422314 
  1.230478130752158   9.375498173980976   5.002978606422314 
  2.433478710308060   2.794324803485431   5.002978606422314 
  6.237678942347681   9.375498173980976   5.002978606422314 
  7.489483403704888   2.862182234954106   5.002978606422314 
 12.439932956267914   2.868469266274195   5.002978606422314 
 -1.245031631668103   5.030246608174039  11.673616748318732 
 -2.489307982187884  11.497876758349566  11.673616748318732 
  2.489429290959646  11.498234652891636  11.673616748318732 
  3.734078536549918   5.030366245922021  11.673616748318732 
  7.468046505263318  11.498043827049132  11.673616748318732 
 -4.981549183544105  11.488880087552769   5.002978606422314 
  8.713188704767939   5.030246608174039  11.673616748318732 
  0.003781718381884  11.500163366804721   5.002978606422314 
  1.147309930364061   5.022034477457326   5.002978606422314 
 -0.028546312140421   7.202718715173047   5.002978606422314 
  6.320847142735773   5.022034477457326   5.002978606422314 
  4.977050695050901  11.507051136134917   5.002978606422314 
 11.202235609649748   5.025999493670458   5.002978606422314 
 -2.489513947275655   7.186221812504913  11.673616748318732 
  3.734078536549976   0.718323109400049  11.673616748318732 
  7.468417434992322   7.186387814183047  11.673616748318732 
  8.713092262525226   0.718534176954880  11.673616748318732 
 13.691378956774280   0.718534176954880  11.673616748318732 
 -0.000626071840350   1.436412861551146   1.666322791947547 
  3.734078536549873   7.906352883926789   1.665064353874455 
  4.979127037097748   1.435507522999159   1.666936247079077 
  8.713946403272329   7.905494299303085   1.666664668464197 
  9.957781158702165   1.437109861666279   1.666240958096938 
 -4.978460618887060  10.060553072638799   8.339449196618677 
 -0.000711039631704  10.061123457500154   8.339577026653584 
  1.243401047093218   3.592372926919767   8.340892858970159 
  4.979181163237057  10.061692004604353   8.339634420897093 
  6.224756026006511   3.592372926919767   8.340892858970159 
 11.202235609649694   3.593204424733003   8.339841880959890 
 -2.489696454212747  10.060553072638799   1.666508016225951 
 -1.245728698527486   3.592993871610745   1.666322791947547 
  3.734078536549924   3.592077518913280   1.654843328450365 
  2.488975909862768  10.061692004604353   1.666322791947547 
  7.468868112731438  10.061123457500154   1.666380186191043 
  8.713885771627320   3.592993871610745   1.666322791947547 
 -6.223447293957441  12.215792478884273   8.339577026653584 
 -1.244709779142365  12.215792478884273   8.339577026653584 
 -0.001684690791374   5.749551976965286   8.339020965765551 
  4.979673112116370   5.749510609426385   8.351113884394262 
  3.734078536549877  12.216879014433763   8.339716254747691 
  9.958236870139027   5.749410290895578   8.339577026653584 
 -2.490079797039192   5.749410290895577   1.666380186191043 
 -3.734078536549902  12.215337628673899   1.666664668464197 
  1.244618646498860  12.216560901273507   1.666115331884739 
  2.488483960983586   5.749510609426384   1.654843328450365 
  6.223538426600965  12.216560901273507   1.666115331884739 
  7.469841763891209   5.749551976965285   1.666936247079077 
 -1.245789330172567   7.905494299303086   8.339292544380431 
 -0.000626071840350   1.436412861551146   8.339634420897093 
  3.734078536549874   7.906352883926790   8.340892858970159 
  4.979127037097749   1.435507522999160   8.339020965765551 
  8.713946403272329   7.905494299303086   8.339292544380431 
 -3.734078536549904   7.905220082002471   1.666508016225951 
  9.957781158702165   1.437109861666280   8.339716254747691 
  2.489030036001963   1.435507522999159   1.666936247079077 
  1.243363809756467   7.906039237801786   1.666936247079077 
  6.224793263343265   7.906039237801786   1.666936247079077 
  7.468783144940168   1.436412861551146   1.666322791947547 
  1.243363809756467   7.906039237801787   8.339020965765551 
 12.446690060597133   1.437109861666279   1.666240958096938 
 -2.489696454212747  10.060553072638799   8.339449196618677 
 -1.245728698527486   3.592993871610746   8.339634420897093 
  3.734078536549925   3.592077518913281   8.351113884394262 
  2.488975909862769  10.061692004604353   8.339634420897093 
  7.468868112731439  10.061123457500154   8.339577026653584 
  8.713885771627320   3.592993871610746   8.339634420897093 
 -4.978460618887061  10.060553072638799   1.666508016225951 
 -0.000711039631705  10.061123457500154   1.666380186191043 
  1.243401047093218   3.592372926919766   1.665064353874455 
  4.979181163237056  10.061692004604353   1.666322791947547 
  6.224756026006510   3.592372926919766   1.665064353874455 
 11.202235609649694   3.593204424733002   1.666115331884739 
 -2.490079797039191   5.749410290895578   8.339577026653584 
 -3.734078536549902  12.215337628673899   8.339292544380431 
  1.244618646498860  12.216560901273507   8.339841880959890 
  2.488483960983586   5.749510609426385   8.351113884394262 
  6.223538426600966  12.216560901273507   8.339841880959890 
 -6.223447293957442  12.215792478884273   1.666380186191043 
  7.469841763891210   5.749551976965286   8.339020965765551 
 -1.244709779142365  12.215792478884273   1.666380186191043 
 -0.001684690791374   5.749551976965285   1.666936247079077 
 -1.245789330172567   7.905494299303085   1.666664668464197 
  4.979673112116370   5.749510609426384   1.654843328450365 
  3.734078536549877  12.216879014433763   1.666240958096938 
  9.958236870139027   5.749410290895577   1.666380186191043 
 -3.734078536549903   7.905220082002472   8.339449196618677 
  2.489030036001964   1.435507522999160   8.339020965765551 
  6.224793263343266   7.906039237801787   8.339020965765551 
  7.468783144940168   1.436412861551146   8.339634420897093 
 12.446690060597133   1.437109861666280   8.339716254747691 
  3.734078536549917   5.030366245922021   5.002978606422314 
Generated by cif2cell 2.0.0.  :  Failed to get author information, No journal information. Species order: N B S 
 1.0
 14.936314146199660   0.000000000000000   0.000000000000000
 -7.468157073099825  12.935227489513863   0.000000000000000
  0.000000000000001   0.000000000000001  13.341276283792837
 N B S 
 144 143   1
Cartesian
  1.244757136775035   0.718535391980252   1.670644734929537 
  4.978710105170801   7.186153723388585   1.672820500351678 
  6.223399936324796   0.718535391980252   1.670644734929537 
  9.957598891092749   7.186318718019432   1.669496185226698 
 11.202235609649751   0.718623749417456   1.668853672321127 
 -3.734078536549858   9.342108742426664   8.336624072032423 
  1.244584180102209   9.342097243282295   8.335312477915076 
  2.489427600214011   2.874589950411051   8.333136712492950 
  6.223572892997630   9.342097243282295   8.335312477915076 
  7.468127676344652   2.874511969894279   8.335059644028837 
 12.446915895322366   2.874574585222600   8.337063456096104 
 -1.244791250909660   9.342116737877081   1.669496185226698 
  0.000029396755406   2.874511969894278   1.670897568815791 
  4.978729472885732   2.874589950411050   1.672820500351678 
  3.734078536550024   9.342074797977480   1.670897568815791 
  8.712948324009481   9.342116737877081   1.669496185226698 
  9.957555323977139   2.874574585222599   1.668893756748536 
 -4.978729103633118  11.497890771383515   8.336461027617929 
 -0.000098640522194  11.497923040546890   8.337026648569372 
  1.244796031593129   5.030355063966582   8.333136712492950 
  6.223361041506722   5.030355063966582   8.333136712492950 
  4.978846586831208  11.497951074046496   8.337063456096104 
 11.202235609649755   5.030480146186106   8.337026648569372 
 -1.244737219672622   5.030466102503607   1.670644734929537 
 -2.489427969466598  11.497890771383515   1.669496185226698 
  2.489310486268735  11.497951074046496   1.668893756748536 
  3.734078536549917   5.030366245922020   1.648165449241245 
  7.468255713622049  11.497923040546890   1.668930564275335 
  8.712894292772560   5.030466102503607   1.670644734929537 
 -0.000051039429925   7.186266961803001   8.334147349937927 
  1.244757136775035   0.718535391980253   8.335312477915076 
  4.978710105170802   7.186153723388586   8.333136712492950 
  6.223399936324797   0.718535391980253   8.335312477915076 
  9.957598891092749   7.186318718019433   8.336461027617929 
 -2.489441817992915   7.186318718019432   1.669496185226698 
 11.202235609649751   0.718623749417456   8.337103540523501 
  3.734078536549967   0.718564814160153   1.671809862906700 
  2.489446967928931   7.186153723388585   1.672820500351678 
  7.468208112529864   7.186266961803000   1.671809862906700 
  8.712787273695888   0.718573078497059   1.668893756748536 
  2.489446967928931   7.186153723388586   8.333136712492950 
 13.691683945603586   0.718573078497059   1.668893756748536 
 -1.244791250909660   9.342116737877081   8.336461027617929 
  0.000029396755406   2.874511969894279   8.335059644028837 
  4.978729472885733   2.874589950411051   8.333136712492950 
  3.734078536550025   9.342074797977480   8.335059644028837 
  8.712948324009481   9.342116737877081   8.336461027617929 
  9.957555323977139   2.874574585222600   8.337063456096104 
 -3.734078536549859   9.342108742426664   1.669333140812204 
  1.244584180102208   9.342097243282295   1.670644734929537 
  2.489427600214011   2.874589950411050   1.672820500351678 
  6.223572892997629   9.342097243282295   1.670644734929537 
  7.468127676344651   2.874511969894278   1.670897568815791 
 12.446915895322366   2.874574585222599   1.668893756748536 
 -1.244737219672621   5.030466102503608   8.335312477915076 
 -2.489427969466597  11.497890771383515   8.336461027617929 
  2.489310486268736  11.497951074046496   8.337063456096104 
  3.734078536549917   5.030366245922021   8.357791763603396 
  7.468255713622050  11.497923040546890   8.337026648569372 
 -4.978729103633118  11.497890771383515   1.669496185226698 
  8.712894292772560   5.030466102503608   8.335312477915076 
 -0.000098640522195  11.497923040546890   1.668930564275335 
  1.244796031593129   5.030355063966581   1.672820500351678 
 -0.000051039429925   7.186266961803000   1.671809862906700 
  6.223361041506721   5.030355063966581   1.672820500351678 
  4.978846586831207  11.497951074046496   1.668893756748536 
 11.202235609649755   5.030480146186105   1.668930564275335 
 -2.489441817992914   7.186318718019433   8.336461027617929 
  3.734078536549968   0.718564814160154   8.334147349937927 
  7.468208112529865   7.186266961803001   8.334147349937927 
  8.712787273695888   0.718573078497060   8.337063456096104 
 13.691683945603586   0.718573078497060   8.337063456096104 
 -0.007224017052128   1.430661482418894   5.002978606422314 
  3.734078536549979   7.917440331998050   5.002978606422314 
  4.995232679035114   1.389003602638084   5.002978606422314 
  8.727050486156108   7.913059945083552   5.002978606422314 
  9.960440468801529   1.435574508264552   5.002978606422314 
 -4.978811800070489  10.060755827189588  11.673616748318732 
  0.000069988781868  10.060767214409999  11.673616748318732 
  1.244713156461130   3.593130473616469  11.673616748318732 
  4.978746559910114  10.060749438274142  11.673616748318732 
  6.223443916638703   3.593130473616469  11.673616748318732 
 11.202235609649710   3.593080650118293  11.673616748318732 
 -2.491945134190363  10.059254796648469   5.002978606422314 
 -1.254008511568709   3.590155573010706   5.002978606422314 
  3.734078536549857   3.401516968480885   5.002978606422314 
  2.487294042033353  10.070281682336644   5.002978606422314 
  7.477046383853320  10.071569749785832   5.002978606422314 
  8.722165584668527   3.590155573010706   5.002978606422314 
 -6.223529292598228  12.216646990876606  11.673616748318732 
 -1.244627780501589  12.216646990876606  11.673616748318732 
  0.000041672629984   5.748941507612728  11.673616748318732 
  4.978833816286353   5.749026041753116  11.673616748318732 
  3.734078536549921  12.216613468543827  11.673616748318732 
  9.957537840366214   5.748912021993426  11.673616748318732 
 -2.503215687094888   5.751269735303326   5.002978606422314 
 -3.734078536549910  12.200206337113004   5.002978606422314 
  1.246781023126219  12.217809350001444   5.002978606422314 
  2.323453683349893   5.844790884642628   5.002978606422314 
  6.221376049973531  12.217809350001444   5.002978606422314 
  7.518168161268145   5.758856042083822   5.002978606422314 
 -1.244643798996694   7.904832926570330  11.673616748318732 
 -0.000027087117098   1.437260522237941  11.673616748318732 
  3.734078536549962   7.904837790533207  11.673616748318732 
  4.978792537354632   1.437307832254499  11.673616748318732 
  8.712800872096427   7.904832926570330  11.673616748318732 
 -3.734078536549955   7.907816633983246   5.002978606422314 
  9.957551189215673   1.437242634611210  11.673616748318732 
  2.472924394064613   1.389003602638084   5.002978606422314 
  1.211143054316898   7.943239093044327   5.002978606422314 
  6.257014018782850   7.943239093044327   5.002978606422314 
  7.475381090151959   1.430661482418894   5.002978606422314 
  1.244755673434708   7.904849397899005  11.673616748318732 
 12.444030750497843   1.435574508264552   5.002978606422314 
 -2.489345273029226  10.060755827189588  11.673616748318732 
 -1.244695110477307   3.593088777254164  11.673616748318732 
  3.734078536549813   3.593046654259988  11.673616748318732 
  2.489410513189711  10.060749438274142  11.673616748318732 
  7.468087084317839  10.060767214409999  11.673616748318732 
  8.712852183577125   3.593088777254164  11.673616748318732 
 -4.976211938909549  10.059254796648469   5.002978606422314 
 -0.008889310753588  10.071569749785832   5.002978606422314 
  1.233799035400433   3.586829202884045   5.002978606422314 
  4.980863031066501  10.070281682336644   5.002978606422314 
  6.234358037699521   3.586829202884045   5.002978606422314 
 11.202235609649655   3.590707527277192   5.002978606422314 
 -2.489380767266395   5.748912021993426  11.673616748318732 
 -3.734078536549917  12.216660374139437  11.673616748318732 
  1.244725838459550  12.216622788580851  11.673616748318732 
  2.489323256813379   5.749026041753116  11.673616748318732 
  6.223431234640306  12.216622788580851  11.673616748318732 
 -6.228404912891262  12.203486742190858   5.002978606422314 
  7.468115400469838   5.748941507612728  11.673616748318732 
 -1.239752160208558  12.203486742190858   5.002978606422314 
 -0.050011088168309   5.758856042083822   5.002978606422314 
 -1.258893413056390   7.913059945083552   5.002978606422314 
  5.144703389750046   5.844790884642628   5.002978606422314 
  3.734078536549913  12.219949721237153   5.002978606422314 
  9.971372760194722   5.751269735303326   5.002978606422314 
 -3.734078536549866   7.904814572900831  11.673616748318732 
  2.489364535745096   1.437307832254499  11.673616748318732 
  6.223401399665026   7.904849397899005  11.673616748318732 
  7.468184160216931   1.437260522237941  11.673616748318732 
 12.446920030083712   1.437242634611210  11.673616748318732 
  1.222884106954958   0.689618729546730   5.002978606422314 
  5.020247316493926   7.274739456823475   5.002978606422314 
  6.245272966144872   0.689618729546730   5.002978606422314 
  9.966812412151141   7.188381799091191   5.002978606422314 
 11.202235609649751   0.718623749417456   5.002978606422314 
 -3.734078536549858   9.342108742426666  11.673616748318732 
  1.244627061769860   9.342461958714347  11.673616748318732 
  2.489172588368751   2.874203572580899  11.673616748318732 
  6.223530011329874   9.342461958714347  11.673616748318732 
  7.468568103266806   2.874257689292215  11.673616748318732 
 12.446729711183945   2.874329907919627  11.673616748318732 
 -1.251184692057049   9.349064340636046   5.002978606422314 
 -0.021326330605069   2.862182234954106   5.002978606422314 
  5.034678362791652   2.794324803485431   5.002978606422314 
  3.734078536549913   9.366734267858019   5.002978606422314 
  8.719341765156901   9.349064340636046   5.002978606422314 
  9.964538263031576   2.868469266274195   5.002978606422314 
 -4.978849090911829  11.497876758349566  11.673616748318732 
  0.000110567836404  11.498043827049132  11.673616748318732 
  1.244333912654114   5.030327406145424  11.673616748318732 
  6.223823160445709   5.030327406145424  11.673616748318732 
  4.978727782140315  11.498234652891636  11.673616748318732 
 11.202235609649687   5.030238573181770  11.673616748318732 
 -1.280716298842749   5.025981834238447   5.002978606422314 
 -2.486607889555610  11.488880087552769   5.002978606422314 
  2.491106378049057  11.507051136134917   5.002978606422314 
  7.464375354717955  11.500163366804721   5.002978606422314 
  8.748873371942688   5.025981834238447   5.002978606422314 
 -0.000260361892380   7.186387814183047  11.673616748318732 
  1.244419843111849   0.718390170877861  11.673616748318732 
  4.978917212264551   7.186567759039911  11.673616748318732 
  6.223737229987878   0.718390170877861  11.673616748318732 
  9.957671020375479   7.186221812504913  11.673616748318732 
 -2.498655339051304   7.188381799091191   5.002978606422314 
 11.202235609649751   0.718623749417457  11.673616748318732 
  3.734078536549871   0.685661307420256   5.002978606422314 
  2.447909756605807   7.274739456823475   5.002978606422314 
  7.496703385240137   7.202718715173047   5.002978606422314 
  8.721566104530654   0.715578335357027   5.002978606422314 
  2.489239860835183   7.186567759039911  11.673616748318732 
 13.682905114768836   0.715578335357027   5.002978606422314 
 -1.244743392913682   9.342227656425541  11.673616748318732 
 -0.000411030166883   2.874257689292215  11.673616748318732 
  4.978984484730979   2.874203572580899  11.673616748318732 
  3.734078536549965   9.342583359181713  11.673616748318732 
  8.712900466013505   9.342227656425541  11.673616748318732 
  9.957741508115561   2.874329907919627  11.673616748318732 
 -3.734078536549858   9.342108742426664   5.002978606422314 
  1.230478130752158   9.375498173980976   5.002978606422314 
  2.433478710308060   2.794324803485431   5.002978606422314 