B N As                                  
   1.0000000000000000     
     8.7639499999999995  -15.1796066749929999    0.0000000000000000
     8.7639499999999995   15.1796066749929999    0.0000000000000000
     0.0000000000000000    0.0000000000000000   15.0000000000000000
   B    N    As
    48    48     1
Selective dynamics
Direct
  0.9055486448140736  0.9534899774613655  0.1110032508666589   T   T   T
  0.9042957791247628  0.0957062420712384  0.1110060995527222   T   T   T
  0.9039861807023626  0.2384253269954796  0.1110690099964160   T   T   T
  0.9045066676784882  0.3813924738117591  0.1110067467224763   T   T   T
  0.9058294543535560  0.5245364556105289  0.1110110753313276   T   T   T
  0.9065122101625245  0.6677362551165520  0.1110702890252492   T   T   T
  0.9064807398043858  0.8108614135891097  0.1110343813758686   T   T   T
  0.0477682621714500  0.9522337590245459  0.1110184616228771   T   T   T
  0.0465120437346384  0.0944533763819318  0.1110032508666589   T   T   T
  0.0460499544223236  0.2375713010937195  0.1109912730497390   T   T   T
  0.0464060505994742  0.3809165777293213  0.1109866931063850   T   T   T
  0.0475135957195740  0.5241158695250494  0.1109952625146636   T   T   T
  0.0483987828765436  0.6670258718725189  0.1110466292403434   T   T   T
  0.0484124015304715  0.8097362942969355  0.1110528398132744   T   T   T
  0.1902657268990728  0.9515896196655438  0.1110528398132744   T   T   T
  0.1891406076069012  0.0935212813916097  0.1110343813758686   T   T   T
  0.1871514466688417  0.2352560722421064  0.1109477785110093   T   T   T
  0.1877324341098645  0.3798627552831438  0.1109380111156941   T   T   T
  0.1891594893261565  0.5237137078897881  0.1110362473834019   T   T   T
  0.1906445959786775  0.6666901193751311  0.1110788666872102   T   T   T
  0.1907368669325900  0.8092651542634154  0.1110292277458291   T   T   T
  0.3329761493244749  0.9516032383194607  0.1110466292403434   T   T   T
  0.3322657660804419  0.0934898110334678  0.1110702890252492   T   T   T
  0.3302488693524784  0.2341881456787308  0.1109704909392376   T   T   T
  0.3262908008931651  0.3759177507238687  0.1109508836809829   T   T   T
  0.3304224074417005  0.5234645071163013  0.1109941596318670   T   T   T
  0.3332386996226216  0.6667633215743948  0.1111187948917123   T   T   T
  0.3333119018218671  0.8093574252173202  0.1110788666872102   T   T   T
  0.4758861516719480  0.9524884254764266  0.1109952625146636   T   T   T
  0.4754655655864647  0.0941725668424407  0.1110110753313276   T   T   T
  0.4748697911442061  0.2350746696590213  0.1108880366280986   T   T   T
  0.4698308709393769  0.3687651608505780  0.1113432550513149   T   T   T
  0.4765375140806884  0.6695796137552983  0.1109941596318670   T   T   T
  0.4762883133072141  0.8108425318698493  0.1110362473834019   T   T   T
  0.6190854434666864  0.9535959705965257  0.1109866931063850   T   T   T
  0.6186095473842579  0.0954953535175192  0.1110067467224763   T   T   T
  0.6186807570272861  0.2376921702234950  0.1109804109558864   T   T   T
  0.6196737477900810  0.3803282734059302  0.1108635866091401   T   T   T
  0.6312368603454247  0.5301711502576206  0.1113432550513149   T   T   T
  0.6240842704721123  0.6737112203038415  0.1109508836809829   T   T   T
  0.6201392659128723  0.8122695870861421  0.1109380111156941   T   T   T
  0.7624307201022749  0.9539520667736725  0.1109912730497390   T   T   T
  0.7615766942005260  0.0960158404936352  0.1110690099964160   T   T   T
  0.7615211061367012  0.2384809150593015  0.1110780687840928   T   T   T
  0.7623098509725170  0.3813212641687136  0.1109804109558864   T   T   T
  0.7649273515369844  0.5251322300527961  0.1108880366280986   T   T   T
  0.7658138755172763  0.6697531518445355  0.1109704909392376   T   T   T
  0.7647459489538996  0.8128505745271620  0.1109477785110093   T   T   T
  0.9528913891552515  0.9054724605566807  0.1110048308096983   T   T   T
  0.9519713013744002  0.0480301005436094  0.1109827511868038   T   T   T
  0.9513632728115107  0.1906438770113991  0.1110114554267717   T   T   T
  0.9515086215468975  0.3335406574935082  0.1110023821083477   T   T   T
  0.9523869543486079  0.4765234017995720  0.1109677372165183   T   T   T
  0.9530768859148004  0.6195164770375478  0.1110410938283260   T   T   T
  0.9532189467230894  0.7624963669428011  0.1110634261021999   T   T   T
  0.0953600653010939  0.9046413366169135  0.1110151494599948   T   T   T
  0.0945289413613186  0.0471100127627666  0.1110048308096983   T   T   T
  0.0931493702474322  0.1892226780748463  0.1109738977656432   T   T   T
  0.0933853864971671  0.3327405121838081  0.1109646059729521   T   T   T
  0.0943699739597475  0.4760731826280644  0.1109780364132547   T   T   T
  0.0954871528550248  0.6191500587788415  0.1110126809015924   T   T   T
  0.0956740883655178  0.7619590942780728  0.1110246355170652   T   T   T
  0.2380423076399299  0.9043273135524769  0.1110246355170652   T   T   T
  0.2375050349751979  0.0467824551949184  0.1110634261021999   T   T   T
  0.2361884012159447  0.1887580161414263  0.1109559406048084   T   T   T
  0.2334510554026157  0.3299302664348173  0.1108597404701668   T   T   T
  0.2359016473621184  0.4753406899131115  0.1109484480884593   T   T   T
  0.2380745309616142  0.6188726761350855  0.1110908329630125   T   T   T
  0.2382799125709623  0.7617214893470476  0.1110428256141587   T   T   T
  0.3808513431391528  0.9045142490629723  0.1110126809015924   T   T   T
  0.3804849248804675  0.0469245160031912  0.1110410938283260   T   T   T
  0.3800002696091703  0.1892130520228113  0.1109638497375538   T   T   T
  0.3777978724418736  0.3308616602450385  0.1110431965788690   T   T   T
  0.3710154380438537  0.4695345548557743  0.1109308049829756   T   T   T
  0.3812008188468529  0.6188005830711505  0.1110962539445564   T   T   T
  0.3811287257829244  0.7619268709563896  0.1110908329630125   T   T   T
  0.5239282192889264  0.9056314279582457  0.1109780364132547   T   T   T
  0.5234780001174290  0.0476144475694042  0.1109677372165183   T   T   T
  0.5233586351691868  0.1896893234162262  0.1109489070974016   T   T   T
  0.5237487390323204  0.3319093909795659  0.1107908304888857   T   T   T
  0.5304668470612275  0.6289859638741446  0.1109308049829756   T   T   T
  0.5246607120038808  0.7640997545558834  0.1109484480884593   T   T   T
  0.6672608897331882  0.9066160154208269  0.1109646059729521   T   T   T
  0.6664607444234881  0.0484927803711030  0.1110023821083477   T   T   T
  0.6662409601351909  0.1908193106162763  0.1110244630174251   T   T   T
  0.6665090605135099  0.3334923414034829  0.1109214478583022   T   T   T
  0.6680920109374229  0.4762526628846768  0.1107908304888857   T   T   T
  0.6691397416719665  0.6222035294761323  0.1110431965788690   T   T   T
  0.6700711354821836  0.7665503465153850  0.1108597404701668   T   T   T
  0.8107787238431522  0.9068520316705599  0.1109738977656432   T   T   T
  0.8093575249065978  0.0486381291064995  0.1110114554267717   T   T   T
  0.8089375106680945  0.1910638912499039  0.1110989847784921   T   T   T
  0.8091820913017246  0.3337604417817920  0.1110244630174251   T   T   T
  0.8103120785017719  0.4766427667478231  0.1109489070974016   T   T   T
  0.8107883498951879  0.6200011323088334  0.1109638497375538   T   T   T
  0.8112433857765645  0.7638130007020592  0.1109559406048084   T   T   T
  0.4884431970182861  0.5115588241787241  0.1126777261912366   T   T   T

  0.00000000E+00  0.00000000E+00  0.00000000E+00
  0.00000000E+00  0.00000000E+00  0.00000000E+00
  0.00000000E+00  0.00000000E+00  0.00000000E+00
  0.00000000E+00  0.00000000E+00  0.00000000E+00
  0.00000000E+00  0.00000000E+00  0.00000000E+00
  0.00000000E+00  0.00000000E+00  0.00000000E+00
  0.00000000E+00  0.00000000E+00  0.00000000E+00
  0.00000000E+00  0.00000000E+00  0.00000000E+00
  0.00000000E+00  0.00000000E+00  0.00000000E+00
  0.00000000E+00  0.00000000E+00  0.00000000E+00
  0.00000000E+00  0.00000000E+00  0.00000000E+00
  0.00000000E+00  0.00000000E+00  0.00000000E+00
  0.00000000E+00  0.00000000E+00  0.00000000E+00
  0.00000000E+00  0.00000000E+00  0.00000000E+00
  0.00000000E+00  0.00000000E+00  0.00000000E+00
  0.00000000E+00  0.00000000E+00  0.00000000E+00
  0.00000000E+00  0.00000000E+00  0.00000000E+00
  0.00000000E+00  0.00000000E+00  0.00000000E+00
  0.00000000E+00  0.00000000E+00  0.00000000E+00
  0.00000000E+00  0.00000000E+00  0.00000000E+00
  0.00000000E+00  0.00000000E+00  0.00000000E+00
  0.00000000E+00  0.00000000E+00  0.00000000E+00
  0.00000000E+00  0.00000000E+00  0.00000000E+00
  0.00000000E+00  0.00000000E+00  0.00000000E+00
  0.00000000E+00  0.00000000E+00  0.00000000E+00
  0.00000000E+00  0.00000000E+00  0.00000000E+00
  0.00000000E+00  0.00000000E+00  0.00000000E+00
  0.00000000E+00  0.00000000E+00  0.00000000E+00
  0.00000000E+00  0.00000000E+00  0.00000000E+00
  0.00000000E+00  0.00000000E+00  0.00000000E+00
  0.00000000E+00  0.00000000E+00  0.00000000E+00
  0.00000000E+00  0.00000000E+00  0.00000000E+00
  0.00000000E+00  0.00000000E+00  0.00000000E+00
  0.00000000E+00  0.00000000E+00  0.00000000E+00
  0.00000000E+00  0.00000000E+00  0.00000000E+00
  0.00000000E+00  0.00000000E+00  0.00000000E+00
  0.00000000E+00  0.00000000E+00  0.00000000E+00
  0.00000000E+00  0.00000000E+00  0.00000000E+00
  0.00000000E+00  0.00000000E+00  0.00000000E+00
  0.00000000E+00  0.00000000E+00  0.00000000E+00
  0.00000000E+00  0.00000000E+00  0.00000000E+00
  0.00000000E+00  0.00000000E+00  0.00000000E+00
  0.00000000E+00  0.00000000E+00  0.00000000E+00
  0.00000000E+00  0.00000000E+00  0.00000000E+00
  0.00000000E+00  0.00000000E+00  0.00000000E+00
  0.00000000E+00  0.00000000E+00  0.00000000E+00
  0.00000000E+00  0.00000000E+00  0.00000000E+00
  0.00000000E+00  0.00000000E+00  0.00000000E+00
  0.00000000E+00  0.00000000E+00  0.00000000E+00
  0.00000000E+00  0.00000000E+00  0.00000000E+00
  0.00000000E+00  0.00000000E+00  0.00000000E+00
  0.00000000E+00  0.00000000E+00  0.00000000E+00
  0.00000000E+00  0.00000000E+00  0.00000000E+00
  0.00000000E+00  0.00000000E+00  0.00000000E+00
  0.00000000E+00  0.00000000E+00  0.00000000E+00
  0.00000000E+00  0.00000000E+00  0.00000000E+00
  0.00000000E+00  0.00000000E+00  0.00000000E+00
  0.00000000E+00  0.00000000E+00  0.00000000E+00
  0.00000000E+00  0.00000000E+00  0.00000000E+00
  0.00000000E+00  0.00000000E+00  0.00000000E+00
  0.00000000E+00  0.00000000E+00  0.00000000E+00
  0.00000000E+00  0.00000000E+00  0.00000000E+00
  0.00000000E+00  0.00000000E+00  0.00000000E+00
  0.00000000E+00  0.00000000E+00  0.00000000E+00
  0.00000000E+00  0.00000000E+00  0.00000000E+00
  0.00000000E+00  0.00000000E+00  0.00000000E+00
  0.00000000E+00  0.00000000E+00  0.00000000E+00
  0.00000000E+00  0.00000000E+00  0.00000000E+00
  0.00000000E+00  0.00000000E+00  0.00000000E+00
  0.00000000E+00  0.00000000E+00  0.00000000E+00
  0.00000000E+00  0.00000000E+00  0.00000000E+00
  0.00000000E+00  0.00000000E+00  0.00000000E+00
  0.00000000E+00  0.00000000E+00  0.00000000E+00
  0.00000000E+00  0.00000000E+00  0.00000000E+00
  0.00000000E+00  0.00000000E+00  0.00000000E+00
  0.00000000E+00  0.00000000E+00  0.00000000E+00
  0.00000000E+00  0.00000000E+00  0.00000000E+00
  0.00000000E+00  0.00000000E+00  0.00000000E+00
  0.00000000E+00  0.00000000E+00  0.00000000E+00
  0.00000000E+00  0.00000000E+00  0.00000000E+00
  0.00000000E+00  0.00000000E+00  0.00000000E+00
  0.00000000E+00  0.00000000E+00  0.00000000E+00
  0.00000000E+00  0.00000000E+00  0.00000000E+00
  0.00000000E+00  0.00000000E+00  0.00000000E+00
  0.00000000E+00  0.00000000E+00  0.00000000E+00
  0.00000000E+00  0.00000000E+00  0.00000000E+00
  0.00000000E+00  0.00000000E+00  0.00000000E+00
  0.00000000E+00  0.00000000E+00  0.00000000E+00
  0.00000000E+00  0.00000000E+00  0.00000000E+00
  0.00000000E+00  0.00000000E+00  0.00000000E+00
  0.00000000E+00  0.00000000E+00  0.00000000E+00
  0.00000000E+00  0.00000000E+00  0.00000000E+00
  0.00000000E+00  0.00000000E+00  0.00000000E+00
  0.00000000E+00  0.00000000E+00  0.00000000E+00
  0.00000000E+00  0.00000000E+00  0.00000000E+00
  0.00000000E+00  0.00000000E+00  0.00000000E+00
  0.00000000E+00  0.00000000E+00  0.00000000E+00
