 N Ga B 
 1.0
 14.936314146199660   0.000000000000000   0.000000000000000
 -7.468157073099825  12.935227489513863   0.000000000000000
  0.000000000000001   0.000000000000001  13.341276283792837
 N Ga B 
 143   1 143
Cartesian
  1.245412456961803   0.718953900207310   1.666162332238727 
  4.979280645482258   7.187114746808131   1.664461401880249 
  6.224235646232989   0.718560539265662   1.666542099773317 
  9.957872795837922   7.186426249420454   1.668459222951208 
 11.202898318658121   0.719006364641832   1.667224424873834 
 -3.733780551909233   9.342280783939161   8.338321132873158 
  1.245023813244300   9.342808415650291   8.339415113071311 
  2.490449455927171   2.874893188198450   8.337096166317719 
  6.223917763617408   9.342586905731675   8.338412629710374 
  7.469012192406642   2.874309219417778   8.340227638868255 
 12.447677796301772   2.874918628379127   8.338768385655134 
 -1.244348709708341   9.342435574710320   1.667411612209324 
  0.000987682452692   2.875065236399636   1.666686015218302 
  4.979976996679595   2.874422266500139   1.667388409643678 
  3.734345207517687   9.342942186595559   1.665729573976360 
  8.713178401307058   9.342300180644102   1.668459222951208 
  9.958214041596811   2.874714844985037   1.667658119369163 
 -4.978347711304083  11.498142856786799   8.338569095505619 
  0.000490713088097  11.498263304012458   8.338334839032029 
  1.245569571077030   5.031088398079404   8.337096166317719 
  6.224478582357453   5.030368654660337   8.341495810964378 
  4.979297414158443  11.498451410357832   8.338299093475465 
 11.202821768842099   5.030646870517823   8.338206387657609 
 -1.244047120822904   5.030824372319419   1.666162332238727 
 -2.488930578068677  11.498114604889436   1.667411612209324 
  2.489839583221327  11.498547479520951   1.667240889251935 
  3.736166502949612   5.031571733884935   1.697713436556393 
  7.468693180724902  11.498347307132290   1.667750825187032 
  8.713490788202893   5.030519937996663   1.667544583134253 
  0.000436262543974   7.186805924552802   8.339282400765875 
  1.245412456961803   0.718953900207311   8.339794880605901 
  4.979280645482259   7.187114746808132   8.341495810964378 
  6.224235646232990   0.718560539265662   8.339415113071311 
  9.957872795837922   7.186426249420455   8.337497989893420 
 -2.489032809465223   7.186522970763530   1.667388117339022 
 11.202898318658121   0.719006364641833   8.338732787970780 
  3.734788942969879   0.718717348674067   1.666674812078753 
  2.489925511299252   7.187317952641273   1.667388409643678 
  7.468450591061957   7.186406956848827   1.668121134605242 
  8.713568324464028   0.718733087161826   1.667240889251935 
  2.489925511299253   7.187317952641274   8.338568803200952 
 13.692362846206841   0.719060882522129   1.667188827189495 
 -1.244348709708341   9.342435574710320   8.338545600635291 
  0.000987682452692   2.875065236399637   8.339271197626339 
  4.979976996679595   2.874422266500140   8.338568803200952 
  3.734345207517687   9.342942186595559   8.340227638868255 
  8.713178401307058   9.342300180644102   8.337497989893420 
  9.958214041596811   2.874714844985037   8.338299093475465 
 -3.733780551909234   9.342280783939161   1.667636079971468 
  1.245023813244299   9.342808415650291   1.666542099773317 
  2.490449455927171   2.874893188198449   1.668861046526922 
  6.223917763617407   9.342586905731675   1.667544583134253 
  7.469012192406641   2.874309219417777   1.665729573976360 
 12.447677796301772   2.874918628379126   1.667188827189495 
 -1.244047120822904   5.030824372319420   8.339794880605901 
 -2.488930578068677  11.498114604889436   8.338545600635291 
  2.489839583221328  11.498547479520951   8.338716323592692 
  3.736166502949612   5.031571733884936   8.308243776288235 
  7.468693180724903  11.498347307132290   8.338206387657609 
 -4.978347711304083  11.498142856786799   1.667388117339022 
  8.713490788202893   5.030519937996663   8.338412629710374 
  0.000490713088096  11.498263304012458   1.667622373812585 
  1.245569571077029   5.031088398079403   1.668861046526922 
  0.000436262543974   7.186805924552801   1.666674812078753 
  6.224478582357452   5.030368654660336   1.664461401880249 
  4.979297414158443  11.498451410357832   1.667658119369163 
 11.202821768842099   5.030646870517822   1.667750825187032 
 -2.489032809465223   7.186522970763531   8.338569095505619 
  3.734788942969879   0.718717348674067   8.339282400765875 
  7.468450591061958   7.186406956848828   8.337836078239386 
  8.713568324464028   0.718733087161827   8.338716323592692 
 13.692362846206841   0.719060882522129   8.338768385655134 
  0.033457851371828   1.459296133558810   5.002978606422314 
  3.685375237074802   8.013615617077637   5.002978606422314 
  5.014286076615718   1.365650349892674   5.002978606422314 
  8.683044200326002   7.887652904113497   5.002978606422314 
  9.989838229314786   1.441406237038804   5.002978606422314 
 -4.979088493955003  10.060553258246458  11.673616748318732 
 -0.000236249731160  10.060583745809284  11.673616748318732 
  1.244412917340140   3.592957130479152  11.673616748318732 
  4.978552141773852  10.060569571838700  11.673616748318732 
  6.223192299693090   3.593009018286598  11.673616748318732 
 11.201990567200514   3.593007441619791  11.673616748318732 
 -2.502886715527568  10.052937671718022   5.002978606422314 
 -1.208869242041051   3.611069778969298   5.002978606422314 
  3.818613501471991   3.492342238972079   5.002978606422314 
  2.473940681620869  10.114986664028676   5.002978606422314 
  7.465391184013670  10.068153132576414   5.002978606422314 
  8.750249357444410   3.577185559605748   5.002978606422314 
 -6.223735010800734  12.216416837632568  11.673616748318732 
 -1.244939788227098  12.216473514845026  11.673616748318732 
 -0.000276437275668   5.748809647844993  11.673616748318732 
  4.978425387555101   5.748790235315131  11.673616748318732 
  3.733828921082663  12.216438641034518  11.673616748318732 
  9.957301339094881   5.748850197729784  11.673616748318732 
 -2.483781093388210   5.756750409799924   5.002978606422314 
 -3.733863882535825  12.193235656502047   5.002978606422314 
  1.256587755758473  12.223471269726495   5.002978606422314 
  2.444378157361927   5.872587676527626   5.002978606422314 
  6.244956411488245  12.241027051140032   5.002978606422314 
  7.465356551782698   5.717247416771786   5.002978606422314 
 -1.244967966199344   7.904686429207780  11.673616748318732 
 -0.000273283599083   1.437067530504828  11.673616748318732 
  3.733847544676005   7.904680611531319  11.673616748318732 
  4.978506483054453   1.437173800202519  11.673616748318732 
  8.712554995473145   7.904690969635666  11.673616748318732 
 -3.752926680213052   7.899653629766533   5.002978606422314 
  9.957274976417709   1.437113875030030  11.673616748318732 
  2.512599292253967   1.426422941086492   5.002978606422314 
  1.200445242968669   7.971416445750252   5.002978606422314 
  6.194574087503347   7.918307210271218   5.002978606422314 
  7.507420059766726   1.396744642229791   5.002978606422314 
  1.244496571122668   7.904668683634204  11.673616748318732 
 12.479864160024132   1.456262936900529   5.002978606422314 
 -2.489685568414453  10.060559357557384  11.673616748318732 
 -1.244985344461896   3.592972060713000  11.673616748318732 
  3.733798959939515   3.593090249049494  11.673616748318732 
  2.489140940184347  10.060573346097433  11.673616748318732 
  7.467915292299301  10.060593310432795  11.673616748318732 
  8.712599205606619   3.593010339426912  11.673616748318732 
 -4.992705379763911  10.047013327530303   5.002978606422314 
 -0.016410393885373  10.079828556284887   5.002978606422314 
  1.296595833357834   3.623084951089059   5.002978606422314 
  4.983672556358330  10.101087949697135   5.002978606422314 
  6.293296628057004   3.496563265750731   5.002978606422314 
 11.234132909410542   3.599519868809995   5.002978606422314 
 -2.489682944923748   5.748848941426056  11.673616748318732 
 -3.734367490588782  12.216452885788115  11.673616748318732 
  1.244438892961359  12.216457120520227  11.673616748318732 
  2.489221222703467   5.748762123911451  11.673616748318732 
  6.223245312996219  12.216447179844119  11.673616748318732 
 -6.213941212693980  12.217577256804747   5.002978606422314 
  7.467883835082909   5.748845590636245  11.673616748318732 
 -1.236360365541320  12.192843889885214   5.002978606422314 
  0.002232458615504   5.774505842584146   5.002978606422314 
 -1.264822872540103   7.916731181218251   5.002978606422314 
  3.753827842073032  12.242493064268867   5.002978606422314 
  9.962586282976549   5.742884344760687   5.002978606422314 
 -3.734392313342944   7.904676233439427  11.673616748318732 
  2.489091286883682   1.437098270878864  11.673616748318732 
  6.223202550433288   7.904696814879503  11.673616748318732 
  7.467896873415818   1.437115111255464  11.673616748318732 
 12.446670298762935   1.437098452165934  11.673616748318732 
  4.219334341885125   5.310528815758126   5.002978606422314 
  1.268211788011765   0.723684917462400   5.002978606422314 
  4.905357263713556   7.326844215144019   5.002978606422314 
  6.256477342340420   0.678538144661587   5.002978606422314 
  9.941543174277740   7.178697460582156   5.002978606422314 
 11.236335967203182   0.738311600030399   5.002978606422314 
 -3.734303251079027   9.341979003432758  11.673616748318732 
  1.244353274667977   9.341915318536280  11.673616748318732 
  2.488836437096147   2.874219657050086  11.673616748318732 
  6.223257539804748   9.342212285074968  11.673616748318732 
  7.467979278684878   2.874203724142170  11.673616748318732 
 12.446820882444083   2.874354533128881  11.673616748318732 
 -1.256596342698781   9.348812757736509   5.002978606422314 
  0.050605645753146   2.903712180867812   5.002978606422314 
  5.020736868069202   2.781133578377097   5.002978606422314 
  3.716806747017877   9.429337677421865   5.002978606422314 
  8.698320263052537   9.332022707957915   5.002978606422314 
  9.998537839704271   2.873584679190478   5.002978606422314 
 -4.979034952882162  11.497939138579559  11.673616748318732 
 -0.000292067633684  11.497811365352030  11.673616748318732 
  1.244179766576793   5.030028248369137  11.673616748318732 
  6.223332624908053   5.029988389617368  11.673616748318732 
  4.978583685893382  11.498020730239828  11.673616748318732 
 11.202203186439059   5.030172791690728  11.673616748318732 
 -1.228550274169274   5.048203663570433   5.002978606422314 
 -2.489531592058633  11.484319252070391   5.002978606422314 
  2.500965621894522  11.534555499601613   5.002978606422314 
  7.478300167079112  11.509018069891768   5.002978606422314 
  8.731898957672865   5.012568378559616   5.002978606422314 
 -0.000313319341793   7.185950347230643  11.673616748318732 
  1.244398345619979   0.718541951162279  11.673616748318732 
  4.978378347570168   7.186312451066794  11.673616748318732 
  6.223126932156047   0.718426384381357  11.673616748318732 
  9.957462900540822   7.186074450696814  11.673616748318732 
 -2.501245357727571   7.190794721876273   5.002978606422314 
 11.202076339267787   0.718531794619589  11.673616748318732 
  3.746421177412084   0.691327090584752   5.002978606422314 
  2.429515073193793   7.269261380781155   5.002978606422314 
  7.435841278957237   7.167579961727095   5.002978606422314 
  8.750315203930464   0.710364509255959   5.002978606422314 
  2.488902865721157   7.186007329007458  11.673616748318732 
 13.725869385184202   0.744378000374825   5.002978606422314 
 -1.244956088217094   9.341902548282508  11.673616748318732 
 -0.000292683147798   2.874326016975542  11.673616748318732 
  4.978330640528870   2.874191941267337  11.673616748318732 
  3.733737389068151   9.342100404710401  11.673616748318732 
  8.712668787026816   9.342121100265750  11.673616748318732 
  9.957484197541167   2.874312078235122  11.673616748318732 
 -3.747219916872996   9.334521562959585   5.002978606422314 
  1.226484250850623   9.390741740842424   5.002978606422314 
  2.544813879567691   2.877775806470046   5.002978606422314 
  6.217575341842357   9.367504627848378   5.002978606422314 
  7.535063651984749   2.815922721668508   5.002978606422314 
 12.486356333001499   2.891277583400053   5.002978606422314 
 -1.244910934831886   5.030152100657663  11.673616748318732 
 -2.489695881750433  11.497855112885063  11.673616748318732 
  2.489114056461477  11.497876068870548  11.673616748318732 
  3.733364430445896   5.029953956570634  11.673616748318732 
  7.467973325215738  11.498048638470445  11.673616748318732 
 -4.980754540452986  11.485430604190304   5.002978606422314 
  8.712836245291069   5.030135477731071  11.673616748318732 
  0.008045964995061  11.502625330734737   5.002978606422314 
  1.275248203549905   5.076728060878395   5.002978606422314 
 -0.017468279556467   7.210574864127159   5.002978606422314 
  6.308526160709286   4.896484393947017   5.002978606422314 
  4.998480560923597  11.533937926793246   5.002978606422314 
 11.216866413646668   5.033631383374642   5.002978606422314 
 -2.489552855396955   7.186029661202014  11.673616748318732 
  3.733673200331119   0.718495980379831  11.673616748318732 
  7.468015043443543   7.186155493314108  11.673616748318732 
  8.712624102404487   0.718440467881861  11.673616748318732 
 13.691445868461129   0.718600820977640  11.673616748318732 
  0.001026802280187   1.438075392306781   1.667695292294108 
  3.733007667125930   7.906299245893008   1.665069747685297 
  4.979215306717799   1.436617130769924   1.667525606759366 
  8.713927743030096   7.905483525807242   1.667777740148434 
  9.958263771089486   1.437258966852532   1.667482703604247 
 -4.978038712741978  10.061350478632502   8.338114847105608 
  0.000157189038670  10.061095018454276   8.338424219136012 
  1.245763544645515   3.593736915517467   8.334667340643273 
  4.978874324609925  10.061772924116582   8.339331639812986 
  6.224174139394729   3.591472345811296   8.340887465159332 
 11.203345482489159   3.593273706470965   8.338234192726819 
 -2.488882392164533  10.061023071581481   1.667687972382090 
 -1.243462467598273   3.593594037210583   1.667695292294108 
  3.734540553455976   3.590889840357349   1.682132784671616 
  2.489154957556240  10.061574109161276   1.666773000247337 
  7.468893749938798  10.061735509934874   1.667705931885966 
  8.713802430667014   3.592687681808658   1.666625573031655 
 -6.222736693170376  12.217482675492393   8.338400571843044 
 -1.244300293743389  12.216558606492089   8.338424219136012 
  0.000821982117507   5.749364552263223   8.337525496384426 
  4.980837025376078   5.750182595060252   8.339106616841153 
  3.734448971622711  12.217222416428163   8.338474509240381 
  9.958779741699630   5.749126467151061   8.338251280958650 
 -2.488260743445645   5.749180590925076   1.667556641001598 
 -3.733584365659897  12.216994689739046   1.667683801673389 
  1.245029115418325  12.216797885614637   1.667630163299813 
  2.487686409635586   5.750504567082072   1.682132784671616 
  6.224153362765797  12.217487438478461   1.667723020117808 
  7.469805421585494   5.749212090597353   1.664637193778423 
 -1.244107187749533   7.905093733315081   8.338273411171237 
  0.001026802280187   1.438075392306781   8.338261920550519 
  3.733007667125931   7.906299245893009   8.340887465159332 
  4.979215306717800   1.436617130769925   8.338431606085249 
  8.713927743030096   7.905483525807243   8.338179472696165 
 -3.733177009629702   7.905186760445299   1.667842365739020 
  9.958263771089486   1.437258966852532   8.338474509240381 
  2.490121057903127   1.437772077768248   1.668431716460215 
  1.244368893084211   7.905560877649750   1.667525606759366 
  6.224480741961377   7.906177707625771   1.664637193778423 
  7.468770568338222   1.436626869123694   1.666773000247337 
  1.244368893084211   7.905560877649751   8.338431606085249 
 12.447838161989434   1.437772718314129   1.667615236459711 
 -2.488882392164532  10.061023071581481   8.338269240462537 
 -1.243462467598273   3.593594037210584   8.338261920550519 
  3.734540553455977   3.590889840357350   8.323824428172999 
  2.489154957556240  10.061574109161276   8.339184212597290 
  7.468893749938799  10.061735509934874   8.338251280958650 
  8.713802430667014   3.592687681808659   8.339331639812986 
 -4.978038712741979  10.061350478632502   1.667842365739020 
  0.000157189038670  10.061095018454276   1.667532993708603 
  1.245763544645514   3.593736915517467   1.671289872201368 
  4.978874324609924  10.061772924116582   1.666625573031655 
  6.224174139394728   3.591472345811295   1.665069747685297 
 11.203345482489159   3.593273706470964   1.667723020117808 
 -2.488260743445645   5.749180590925077   8.338400571843044 
 -3.733584365659897  12.216994689739046   8.338273411171237 
  1.245029115418326  12.216797885614637   8.338327049544814 
  2.487686409635586   5.750504567082073   8.323824428172999 
  6.224153362765798  12.217487438478461   8.338234192726819 
 -6.222736693170377  12.217482675492393   1.667556641001598 
  7.469805421585495   5.749212090597354   8.341320019066204 
 -1.244300293743390  12.216558606492089   1.667532993708603 
  0.000821982117507   5.749364552263222   1.668431716460215 
 -1.244107187749533   7.905093733315081   1.667683801673389 
  4.980837025376077   5.750182595060251   1.666850596003473 
  3.734448971622711  12.217222416428163   1.667482703604247 
  9.958779741699630   5.749126467151060   1.667705931885966 
 -3.733177009629701   7.905186760445300   8.338114847105608 
  2.490121057903128   1.437772077768248   8.337525496384426 
  6.224480741961378   7.906177707625772   8.341320019066204 
  7.468770568338223   1.436626869123695   8.339184212597290 
 12.447838161989434   1.437772718314130   8.338341976384918 
Generated by cif2cell 2.0.0.  :  Failed to get author information, No journal information. Species order: N Ga B 
 1.0
 14.936314146199660   0.000000000000000   0.000000000000000
 -7.468157073099825  12.935227489513863   0.000000000000000
  0.000000000000001   0.000000000000001  13.341276283792837
 N Ga B 
 143   1 143
Cartesian
  1.245412456961803   0.718953900207310   1.666162332238727 
  4.979280645482258   7.187114746808131   1.664461401880249 
  6.224235646232989   0.718560539265662   1.666542099773317 
  9.957872795837922   7.186426249420454   1.668459222951208 
 11.202898318658121   0.719006364641832   1.667224424873834 
 -3.733780551909233   9.342280783939161   8.338321132873158 
  1.245023813244300   9.342808415650291   8.339415113071311 
  2.490449455927171   2.874893188198450   8.337096166317719 
  6.223917763617408   9.342586905731675   8.338412629710374 
  7.469012192406642   2.874309219417778   8.340227638868255 
 12.447677796301772   2.874918628379127   8.338768385655134 
 -1.244348709708341   9.342435574710320   1.667411612209324 
  0.000987682452692   2.875065236399636   1.666686015218302 
  4.979976996679595   2.874422266500139   1.667388409643678 
  3.734345207517687   9.342942186595559   1.665729573976360 
  8.713178401307058   9.342300180644102   1.668459222951208 
  9.958214041596811   2.874714844985037   1.667658119369163 
 -4.978347711304083  11.498142856786799   8.338569095505619 
  0.000490713088097  11.498263304012458   8.338334839032029 
  1.245569571077030   5.031088398079404   8.337096166317719 
  6.224478582357453   5.030368654660337   8.341495810964378 
  4.979297414158443  11.498451410357832   8.338299093475465 
 11.202821768842099   5.030646870517823   8.338206387657609 
 -1.244047120822904   5.030824372319419   1.666162332238727 
 -2.488930578068677  11.498114604889436   1.667411612209324 
  2.489839583221327  11.498547479520951   1.667240889251935 
  3.736166502949612   5.031571733884935   1.697713436556393 
  7.468693180724902  11.498347307132290   1.667750825187032 
  8.713490788202893   5.030519937996663   1.667544583134253 
  0.000436262543974   7.186805924552802   8.339282400765875 
  1.245412456961803   0.718953900207311   8.339794880605901 
  4.979280645482259   7.187114746808132   8.341495810964378 
  6.224235646232990   0.718560539265662   8.339415113071311 
  9.957872795837922   7.186426249420455   8.337497989893420 
 -2.489032809465223   7.186522970763530   1.667388117339022 
 11.202898318658121   0.719006364641833   8.338732787970780 
  3.734788942969879   0.718717348674067   1.666674812078753 
  2.489925511299252   7.187317952641273   1.667388409643678 
  7.468450591061957   7.186406956848827   1.668121134605242 
  8.713568324464028   0.718733087161826   1.667240889251935 
  2.489925511299253   7.187317952641274   8.338568803200952 
 13.692362846206841   0.719060882522129   1.667188827189495 
 -1.244348709708341   9.342435574710320   8.338545600635291 
  0.000987682452692   2.875065236399637   8.339271197626339 
  4.979976996679595   2.874422266500140   8.338568803200952 
  3.734345207517687   9.342942186595559   8.340227638868255 
  8.713178401307058   9.342300180644102   8.337497989893420 
  9.958214041596811   2.874714844985037   8.338299093475465 
 -3.733780551909234   9.342280783939161   1.667636079971468 
  1.245023813244299   9.342808415650291   1.666542099773317 
  2.490449455927171   2.874893188198449   1.668861046526922 
  6.223917763617407   9.342586905731675   1.667544583134253 
  7.469012192406641   2.874309219417777   1.665729573976360 
 12.447677796301772   2.874918628379126   1.667188827189495 
 -1.244047120822904   5.030824372319420   8.339794880605901 
 -2.488930578068677  11.498114604889436   8.338545600635291 
  2.489839583221328  11.498547479520951   8.338716323592692 
  3.736166502949612   5.031571733884936   8.308243776288235 
  7.468693180724903  11.498347307132290   8.338206387657609 
 -4.978347711304083  11.498142856786799   1.667388117339022 
  8.713490788202893   5.030519937996663   8.338412629710374 
  0.000490713088096  11.498263304012458   1.667622373812585 
  1.245569571077029   5.031088398079403   1.668861046526922 
  0.000436262543974   7.186805924552801   1.666674812078753 
  6.224478582357452   5.030368654660336   1.664461401880249 
  4.979297414158443  11.498451410357832   1.667658119369163 
 11.202821768842099   5.030646870517822   1.667750825187032 
 -2.489032809465223   7.186522970763531   8.338569095505619 
  3.734788942969879   0.718717348674067   8.339282400765875 
  7.468450591061958   7.186406956848828   8.337836078239386 
  8.713568324464028   0.718733087161827   8.338716323592692 
 13.692362846206841   0.719060882522129   8.338768385655134 
  0.033457851371828   1.459296133558810   5.002978606422314 
  3.685375237074802   8.013615617077637   5.002978606422314 
  5.014286076615718   1.365650349892674   5.002978606422314 
  8.683044200326002   7.887652904113497   5.002978606422314 
  9.989838229314786   1.441406237038804   5.002978606422314 
 -4.979088493955003  10.060553258246458  11.673616748318732 
 -0.000236249731160  10.060583745809284  11.673616748318732 
  1.244412917340140   3.592957130479152  11.673616748318732 
  4.978552141773852  10.060569571838700  11.673616748318732 
  6.223192299693090   3.593009018286598  11.673616748318732 
 11.201990567200514   3.593007441619791  11.673616748318732 
 -2.502886715527568  10.052937671718022   5.002978606422314 
 -1.208869242041051   3.611069778969298   5.002978606422314 
  3.818613501471991   3.492342238972079   5.002978606422314 
  2.473940681620869  10.114986664028676   5.002978606422314 
  7.465391184013670  10.068153132576414   5.002978606422314 
  8.750249357444410   3.577185559605748   5.002978606422314 
 -6.223735010800734  12.216416837632568  11.673616748318732 
 -1.244939788227098  12.216473514845026  11.673616748318732 
 -0.000276437275668   5.748809647844993  11.673616748318732 
  4.978425387555101   5.748790235315131  11.673616748318732 
  3.733828921082663  12.216438641034518  11.673616748318732 
  9.957301339094881   5.748850197729784  11.673616748318732 
 -2.483781093388210   5.756750409799924   5.002978606422314 
 -3.733863882535825  12.193235656502047   5.002978606422314 
  1.256587755758473  12.223471269726495   5.002978606422314 
  2.444378157361927   5.872587676527626   5.002978606422314 
  6.244956411488245  12.241027051140032   5.002978606422314 
  7.465356551782698   5.717247416771786   5.002978606422314 
 -1.244967966199344   7.904686429207780  11.673616748318732 
 -0.000273283599083   1.437067530504828  11.673616748318732 
  3.733847544676005   7.904680611531319  11.673616748318732 
  4.978506483054453   1.437173800202519  11.673616748318732 
  8.712554995473145   7.904690969635666  11.673616748318732 
 -3.752926680213052   7.899653629766533   5.002978606422314 
  9.957274976417709   1.437113875030030  11.673616748318732 
  2.512599292253967   1.426422941086492   5.002978606422314 
  1.200445242968669   7.971416445750252   5.002978606422314 
  6.194574087503347   7.918307210271218   5.002978606422314 
  7.507420059766726   1.396744642229791   5.002978606422314 
  1.244496571122668   7.904668683634204  11.673616748318732 
 12.479864160024132   1.456262936900529   5.002978606422314 
 -2.489685568414453  10.060559357557384  11.673616748318732 
 -1.244985344461896   3.592972060713000  11.673616748318732 
  3.733798959939515   3.593090249049494  11.673616748318732 
  2.489140940184347  10.060573346097433  11.673616748318732 
  7.467915292299301  10.060593310432795  11.673616748318732 
  8.712599205606619   3.593010339426912  11.673616748318732 
 -4.992705379763911  10.047013327530303   5.002978606422314 
 -0.016410393885373  10.079828556284887   5.002978606422314 
  1.296595833357834   3.623084951089059   5.002978606422314 
  4.983672556358330  10.101087949697135   5.002978606422314 
  6.293296628057004   3.496563265750731   5.002978606422314 
 11.234132909410542   3.599519868809995   5.002978606422314 
 -2.489682944923748   5.748848941426056  11.673616748318732 
 -3.734367490588782  12.216452885788115  11.673616748318732 
  1.244438892961359  12.216457120520227  11.673616748318732 
  2.489221222703467   5.748762123911451  11.673616748318732 
  6.223245312996219  12.216447179844119  11.673616748318732 
 -6.213941212693980  12.217577256804747   5.002978606422314 
  7.467883835082909   5.748845590636245  11.673616748318732 
 -1.236360365541320  12.192843889885214   5.002978606422314 
  0.002232458615504   5.774505842584146   5.002978606422314 
 -1.264822872540103   7.916731181218251   5.002978606422314 
  3.753827842073032  12.242493064268867   5.002978606422314 
  9.962586282976549   5.742884344760687   5.002978606422314 
 -3.734392313342944   7.904676233439427  11.673616748318732 
  2.489091286883682   1.437098270878864  11.673616748318732 
  6.223202550433288   7.904696814879503  11.673616748318732 
  7.467896873415818   1.437115111255464  11.673616748318732 
 12.446670298762935   1.437098452165934  11.673616748318732 
  4.219334341885125   5.310528815758126   5.002978606422314 
  1.268211788011765   0.723684917462400   5.002978606422314 
  4.905357263713556   7.326844215144019   5.002978606422314 
  6.256477342340420   0.678538144661587   5.002978606422314 
  9.941543174277740   7.178697460582156   5.002978606422314 
 11.236335967203182   0.738311600030399   5.002978606422314 
 -3.734303251079027   9.341979003432758  11.673616748318732 
  1.244353274667977   9.341915318536280  11.673616748318732 
  2.488836437096147   2.874219657050086  11.673616748318732 
  6.223257539804748   9.342212285074968  11.673616748318732 
  7.467979278684878   2.874203724142170  11.673616748318732 
 12.446820882444083   2.874354533128881  11.673616748318732 
 -1.256596342698781   9.348812757736509   5.002978606422314 
  0.050605645753146   2.903712180867812   5.002978606422314 
  5.020736868069202   2.781133578377097   5.002978606422314 
  3.716806747017877   9.429337677421865   5.002978606422314 
  8.698320263052537   9.332022707957915   5.002978606422314 
  9.998537839704271   2.873584679190478   5.002978606422314 
 -4.979034952882162  11.497939138579559  11.673616748318732 
 -0.000292067633684  11.497811365352030  11.673616748318732 
  1.244179766576793   5.030028248369137  11.673616748318732 
  6.223332624908053   5.029988389617368  11.673616748318732 
  4.978583685893382  11.498020730239828  11.673616748318732 
 11.202203186439059   5.030172791690728  11.673616748318732 
 -1.228550274169274   5.048203663570433   5.002978606422314 
 -2.489531592058633  11.484319252070391   5.002978606422314 
  2.500965621894522  11.534555499601613   5.002978606422314 
  7.478300167079112  11.509018069891768   5.002978606422314 
  8.731898957672865   5.012568378559616   5.002978606422314 
 -0.000313319341793   7.185950347230643  11.673616748318732 
  1.244398345619979   0.718541951162279  11.673616748318732 
  4.978378347570168   7.186312451066794  11.673616748318732 
  6.223126932156047   0.718426384381357  11.673616748318732 
  9.957462900540822   7.186074450696814  11.673616748318732 
 -2.501245357727571   7.190794721876273   5.002978606422314 
 11.202076339267787   0.718531794619589  11.673616748318732 
  3.746421177412084   0.691327090584752   5.002978606422314 
  2.429515073193793   7.269261380781155   5.002978606422314 
  7.435841278957237   7.167579961727095   5.002978606422314 
  8.750315203930464   0.710364509255959   5.002978606422314 
  2.488902865721157   7.186007329007458  11.673616748318732 
 13.725869385184202   0.744378000374825   5.002978606422314 
 -1.244956088217094   9.341902548282508  11.673616748318732 
 -0.000292683147798   2.874326016975542  11.673616748318732 
  4.978330640528870   2.874191941267337  11.673616748318732 
  3.733737389068151   9.342100404710401  11.673616748318732 
  8.712668787026816   9.342121100265750  11.673616748318732 
  9.957484197541167   2.874312078235122  11.673616748318732 
 -3.747219916872996   9.334521562959585   5.002978606422314 
  1.226484250850623   9.390741740842424   5.002978606422314 
  2.544813879567691   2.877775806470046   5.002978606422314 
  6.217575341842357   9.367504627848378   5.002978606422314 