Species order: X N B                    
   2.51242800000000     
     5.9449720136058266    0.0000000000000000    0.0000000000000000
    -2.9724860068029120    5.1484967885702053   -0.0000000000000001
     0.0000000000000000    0.0000000000000009    5.3101128803662583
   Ga   N    B 
     1   143   143
Direct
  0.4877622090625342  0.4105477711979311  0.3750000000000000
  0.1111720514531303  0.0555810789404473  0.1248877766112082
  0.6111791162059435  0.5556233744350046  0.1247602827851081
  0.4444936483005271  0.0555506688883652  0.1249162422187341
  0.9444738365416282  0.5555701478962185  0.1250599408527406
  0.7778369364164167  0.0555851348748757  0.1249673861337544
  0.1111377115729344  0.7222355224531323  0.6250017581153510
  0.4444936483005271  0.7222763127454991  0.6250837577812659
  0.2778643895275149  0.2222530056413021  0.6249099403215068
  0.7778266254211738  0.7222591881979183  0.6250086162925796
  0.6111611810397227  0.2222078600278099  0.6251446609347320
  0.9445109886018419  0.2222549723775425  0.6250352821030464
  0.2778134514058241  0.7222474890591528  0.1249814168255340
  0.1111992794452797  0.2222663063893040  0.1249270294509240
  0.4445223500938103  0.2222165995016578  0.1249796776691635
  0.6111611810397227  0.7222866543452409  0.1248553390652671
  0.9444738365416282  0.7222370219787463  0.1250599408527406
  0.7778312184300400  0.2222392182368237  0.1249998938553622
  0.1111457717073316  0.8889014797851789  0.6250203442406347
  0.4444882493692091  0.8889107913512686  0.6250027854652519
  0.2778643895275149  0.3889447172195407  0.6249099403215068
  0.6111791162059435  0.3888890751042673  0.6252397172148917
  0.7778312184300400  0.8889253335265445  0.6250001061446383
  0.9444945356430450  0.3889105834896210  0.6249931573478448
  0.1111720514531303  0.3889243058460109  0.1248877766112082
  0.2778134514058241  0.8888992956799988  0.1249814168255340
  0.6111634354004947  0.8889327604669046  0.1249686202269357
  0.4446308328112339  0.3889820830722812  0.1272527005994767
  0.9444945356430450  0.8889172854867530  0.1250068426521556
  0.7778266254211738  0.3889007705565853  0.1249913837074202
  0.2778289581405159  0.5555994999221228  0.6250738102842940
  0.1111720514531303  0.0555810789404473  0.6251122233887920
  0.6111791162059435  0.5556233744350046  0.6252397172148917
  0.4444936483005271  0.0555506688883652  0.6250837577812659
  0.9444738365416282  0.5555701478962185  0.6249400591472587
  0.1111457717073316  0.5555776252554809  0.1249796557593664
  0.7778369364164167  0.0555851348748757  0.6250326138662445
  0.2778289581405159  0.0555627915517298  0.1249261897157058
  0.4445223500938103  0.5556390839254878  0.1249796776691635
  0.7778039795086068  0.5555686564209709  0.1250345993232822
  0.6111634354004947  0.0555640082669186  0.1249686202269357
  0.4445223500938103  0.5556390839254878  0.6250203223308369
  0.9445109886018419  0.0555893495576360  0.1249647178969537
  0.2778134514058241  0.7222474890591528  0.6250185831744651
  0.1111992794452797  0.2222663063893040  0.6250729705490767
  0.4445223500938103  0.2222165995016578  0.6250203223308369
  0.6111611810397227  0.7222866543452409  0.6251446609347320
  0.9444738365416282  0.7222370219787463  0.6249400591472587
  0.7778312184300400  0.2222392182368237  0.6250001061446383
  0.1111377115729344  0.7222355224531323  0.1249982418846491
  0.4444936483005271  0.7222763127454991  0.1249162422187341
  0.2778643895275149  0.2222530056413020  0.1250900596784940
  0.7778266254211738  0.7222591881979183  0.1249913837074202
  0.6111611810397227  0.2222078600278099  0.1248553390652671
  0.9445109886018419  0.2222549723775425  0.1249647178969537
  0.1111720514531303  0.3889243058460109  0.6251122233887920
  0.2778134514058241  0.8888992956799988  0.6250185831744651
  0.6111634354004947  0.8889327604669046  0.6250313797730640
  0.4446308328112339  0.3889820830722812  0.6227472994005229
  0.9444945356430450  0.8889172854867530  0.6249931573478448
  0.1111457717073316  0.8889014797851789  0.1249796557593664
  0.7778266254211738  0.3889007705565853  0.6250086162925796
  0.4444882493692091  0.8889107913512686  0.1249972145347474
  0.2778643895275149  0.3889447172195407  0.1250900596784940
  0.2778289581405159  0.5555994999221228  0.1249261897157058
  0.6111791162059435  0.3888890751042673  0.1247602827851081
  0.7778312184300400  0.8889253335265445  0.1249998938553622
  0.9444945356430450  0.3889105834896210  0.1250068426521556
  0.1111457717073316  0.5555776252554809  0.6250203442406347
  0.2778289581405159  0.0555627915517298  0.6250738102842940
  0.7778039795086068  0.5555686564209709  0.6249654006767181
  0.6111634354004947  0.0555640082669186  0.6250313797730640
  0.9445109886018419  0.0555893495576360  0.6250352821030464
  0.0586478603981602  0.1128156528164506  0.3750000000000000
  0.5564986307476411  0.6195187230819091  0.3750000000000000
  0.3884991047286976  0.1055760597175240  0.3750000000000000
  0.8862281951372992  0.6097807642353215  0.3750000000000000
  0.7245451858037054  0.1114326159479837  0.3750000000000000
  0.0555273965030478  0.7777639215392382  0.8750000000000000
  0.3888673221026481  0.7777662784798371  0.8750000000000000
  0.2221972336229602  0.2777652834781482  0.8750000000000000
  0.7222012463510251  0.7777651827147566  0.8750000000000000
  0.5555331082610374  0.2777692948345381  0.8750000000000000
  0.8888681806547313  0.2777691729451616  0.8750000000000000
  0.2210170141758341  0.7771751737545854  0.3750000000000000
  0.0586478603981602  0.2791655409150450  0.3750000000000000
  0.3906531541939626  0.2699869207405278  0.3750000000000000
  0.5566186459102157  0.7819720737210493  0.3750000000000000
  0.8889905484966957  0.7783514546410808  0.3750000000000000
  0.7241102655822145  0.2765460106910105  0.3750000000000000
  0.0555302018168984  0.9444299953391606  0.8750000000000000
  0.3888673221026481  0.9444343769561451  0.8750000000000000
  0.2221967433158171  0.4444305020924723  0.8750000000000000
  0.5555246693535932  0.4444290013434609  0.8750000000000000
  0.7221991284755510  0.9444316809223461  0.8750000000000000
  0.8888673215046820  0.4444336369337280  0.8750000000000000
  0.0562307606244967  0.4450443886253043  0.3750000000000000
  0.2213333205019166  0.9426378984356226  0.3750000000000000
  0.5566173891623732  0.9449753612478506  0.3750000000000000
  0.3906531541939626  0.4539995667867706  0.3750000000000000
  0.8912718723185475  0.9463325682569871  0.3750000000000000
  0.7208077428941110  0.4419904807554842  0.3750000000000000
  0.2221970453405162  0.6110975965143124  0.8750000000000000
  0.0555303024469781  0.1110971980716848  0.8750000000000000
  0.5555331082610374  0.6110971467598357  0.8750000000000000
  0.3888683048991361  0.1111054135976804  0.8750000000000000
  0.8888625617204932  0.6110979475269164  0.8750000000000000
  0.0540923591676725  0.6107085195193128  0.3750000000000000
  0.7221991284755510  0.1111007808865396  0.8750000000000000
  0.2233579803299285  0.1102742833276676  0.3750000000000000
  0.3884991047286976  0.6162563783445166  0.3750000000000000
  0.7208077428941111  0.6121505954719627  0.3750000000000000
  0.5566186459102157  0.1079799055225026  0.3750000000000000
  0.3888683048991361  0.6110962246347995  0.8750000000000000
  0.8918289899549130  0.1125811616441277  0.3750000000000000
  0.2221954527994368  0.7777643930663859  0.8750000000000000
  0.0555303024469781  0.2777664377086289  0.8750000000000000
  0.3888690694101853  0.2777755746439164  0.8750000000000000
  0.5555330176198017  0.7777654744961525  0.8750000000000000
  0.8888673215046820  0.7777670179042903  0.8750000000000000
  0.7222012463510251  0.2777693969696040  0.8750000000000000
  0.0540923591676725  0.7767171729816942  0.3750000000000000
  0.3885283397006938  0.7792540613960017  0.3750000000000000
  0.2268554927273067  0.2800944130303212  0.3750000000000000
  0.7241102655822145  0.7808975882245388  0.3750000000000000
  0.5564986307476409  0.2703132409990678  0.3750000000000000
  0.8912718723185475  0.2782726373948975  0.3750000000000000
  0.0555302018168984  0.4444335398110661  0.8750000000000000
  0.2221970453405162  0.9444327821595382  0.8750000000000000
  0.5555328857453362  0.9444331095393322  0.8750000000000000
  0.3888690694101853  0.4444268280996043  0.8750000000000000
  0.8888681806547313  0.9444323410429049  0.8750000000000000
  0.0562307606244967  0.9445197053325205  0.3750000000000000
  0.7221983468465617  0.4444332807673177  0.8750000000000000
  0.3885283397006938  0.9426076116380272  0.3750000000000000
  0.2233579803299285  0.4464170303355962  0.3750000000000000
  0.2213333205019166  0.6120287553996296  0.3750000000000000
  0.7245451858037054  0.9464459031890573  0.3750000000000000
  0.8889905484966957  0.4439724271889491  0.3750000000000000
  0.0555273965030478  0.6110968082971462  0.8750000000000000
  0.2221967433158171  0.1110995745566802  0.8750000000000000
  0.7221983468465617  0.6110983994125778  0.8750000000000000
  0.5555330176198017  0.1111008764569844  0.8750000000000000
  0.8888658438099946  0.1110995885716687  0.8750000000000000
  0.1128813610515913  0.0559468256781002  0.3750000000000000
  0.6116309990682531  0.5664256172598153  0.3750000000000000
  0.4451052286221336  0.0524566069836541  0.3750000000000000
  0.9430818036965115  0.5549726486373492  0.3750000000000000
  0.7808218449391636  0.0570775891362497  0.3750000000000000
  0.1110910513179615  0.7222121923256455  0.8750000000000000
  0.4444142332303903  0.7222072689567647  0.8750000000000000
  0.2777303616675463  0.2222009361165171  0.8750000000000000
  0.7777679421917588  0.7222302269247584  0.8750000000000000
  0.6110879486855545  0.2221997043710430  0.8750000000000000
  0.9444318128165254  0.2222113631522153  0.8750000000000000
  0.2772399655665626  0.7227404980171601  0.3750000000000000
  0.1156285706179920  0.2244809519756605  0.3750000000000000
  0.4436452677237986  0.2150046128397563  0.3750000000000000
  0.6133265077106109  0.7289657398809495  0.3750000000000000
  0.9430818036965115  0.7214424883924966  0.3750000000000000
  0.7804872483041732  0.2221518470796125  0.3750000000000000
  0.1110918856995802  0.8888857306839428  0.8750000000000000
  0.4444183721813822  0.8888758527573558  0.8750000000000000
  0.2777303616675463  0.3888627588843570  0.8750000000000000
  0.6110876944829559  0.3888596774733960  0.8750000000000000
  0.7777667860983613  0.8888920383936713  0.8750000000000000
  0.9444347958750707  0.3888739332778273  0.8750000000000000
  0.1128813610515913  0.3902678687068193  0.3750000000000000
  0.2772399655665626  0.8878328008827305  0.3750000000000000
  0.6133001927321466  0.8917164780404734  0.3750000000000000
  0.9455502013147438  0.8897422236463741  0.3750000000000000
  0.7783651673745557  0.3875129666349609  0.3750000000000000
  0.2777457013429653  0.5555333567234157  0.8750000000000000
  0.1110882322309571  0.0555492318743350  0.8750000000000000
  0.6110876944829559  0.5555613503428900  0.8750000000000000
  0.4444142332303903  0.0555402976069619  0.8750000000000000
  0.9444327951991064  0.5555429509471179  0.8750000000000000
  0.1104932511783648  0.5559078669243038  0.3750000000000000
  0.7777635600459355  0.0555484466896366  0.8750000000000000
  0.2775490002876007  0.0534452982094970  0.3750000000000000
  0.4436452677237986  0.5619739882173772  0.3750000000000000
  0.7748930148368208  0.5541131740850792  0.3750000000000000
  0.6133001927321466  0.0549170480250021  0.3750000000000000
  0.4444032220098351  0.5555377618857418  0.8750000000000000
  0.9477328935051316  0.0575465720242077  0.3750000000000000
  0.2777521831805194  0.7222062817105972  0.8750000000000000
  0.1110849839023993  0.2222091586178637  0.8750000000000000
  0.4444032220098351  0.2221987934574284  0.8750000000000000
  0.6110879486855545  0.7222215776478393  0.8750000000000000
  0.9444327951991064  0.7222231775853245  0.8750000000000000
  0.7777667860983613  0.2222080810380200  0.8750000000000000
  0.1099380077430853  0.7216356705382068  0.3750000000000000
  0.4451052286221336  0.7259819549718142  0.3750000000000000
  0.2816155629112008  0.2224758558597408  0.3750000000000000
  0.7783651673745557  0.7241855340729250  0.3750000000000000
  0.6133265077106109  0.2176941011629894  0.3750000000000000
  0.9477328935051316  0.2235196548142590  0.3750000000000000
  0.1110882322309571  0.3888723336899508  0.8750000000000000
  0.2777521831805194  0.8888792348032508  0.8750000000000000
  0.6110889079187677  0.8888808548741394  0.8750000000000000
  0.4443806976952312  0.3888570155142796  0.8750000000000000
  0.9444347958750707  0.8888941959305708  0.8750000000000000
  0.1104932511783648  0.8879187175873896  0.3750000000000000
  0.7777679421917588  0.3888710486003296  0.8750000000000000
  0.4451626908084208  0.8892480120708748  0.3750000000000000
  0.2816155629112008  0.3924730403847884  0.3750000000000000
  0.2775490002876007  0.5574370354114394  0.3750000000000000
  0.6116309990682530  0.3785387151417647  0.3750000000000000
  0.7804872483041732  0.8916687345578889  0.3750000000000000
  0.9455502013147438  0.3891413110016991  0.3750000000000000
  0.1110918856995802  0.5555394883489657  0.8750000000000000
  0.2777457013429653  0.0555456779528837  0.8750000000000000
  0.7777650990892352  0.5555492162112856  0.8750000000000000
  0.6110889079187677  0.0555413863779567  0.8750000000000000
  0.9444318128165254  0.0555537829976464  0.8750000000000000
  0.0556563024188265  0.1111751141193749  0.1250026801648692
  0.5555394445923059  0.6112222805746840  0.1248058815563277
  0.3888942437226501  0.1110623784494350  0.1249899613266464
  0.8889851040062300  0.6111592186697866  0.1250088600724413
  0.7222709375888344  0.1111119976836641  0.1249867455057452
  0.0556284961855216  0.7778255532644391  0.6249862958939593
  0.3889134259916204  0.7778058040811769  0.6250094849820057
  0.2223178012803842  0.2778255673068595  0.6247278868490517
  0.7222693313275251  0.7778582117920474  0.6250775010141815
  0.5555394445923059  0.2776504973509574  0.6251941184436719
  0.8889691857191251  0.2777897574189476  0.6249952414864702
  0.2222671506531430  0.7778002419932393  0.1250021314983198
  0.0556563024188265  0.2778145216327875  0.1250026801648692
  0.3888336648900935  0.2776054648647162  0.1260848474231127
  0.5555726397240514  0.7778428417527133  0.1249335494440027
  0.8889769808766974  0.7778553193665568  0.1250034776591744
  0.7222693313275251  0.2777444528688126  0.1249224989858195
  0.0556382391405541  0.9445123934153213  0.6250077124909436
  0.3889134259916204  0.9444409552437809  0.6250094849820057
  0.2222917328557079  0.4444734007905179  0.6249421209058507
  0.5557399511870598  0.4445366422601942  0.6250606343391313
  0.7222709375888344  0.9444922732385059  0.6250132544942547
  0.8889769808766974  0.4444549948434750  0.6249965223408247
  0.0556382391405541  0.4444591790585617  0.1249922875090570
  0.2222704192381909  0.9444746680831808  0.1250018188814004
  0.5555855736620644  0.9444594534976963  0.1249977983984685
  0.3888336648900935  0.4445615333587135  0.1260848474231127
  0.8889691857191251  0.9445127616335124  0.1250047585135302
  0.7223411655723136  0.4444616142435872  0.1247734593279241
  0.2222704192381909  0.6111290844883454  0.6249981811185998
  0.0556563024188265  0.1111751141193749  0.6249973198351306
  0.5555394445923059  0.6112222805746840  0.6251941184436719
  0.3888942437226501  0.1110623784494350  0.6250100386733533
  0.8889851040062300  0.6111592186697866  0.6249911399275574
  0.0556284961855216  0.6111362762544187  0.1250137041060409
  0.7222709375888344  0.1111119976836641  0.6250132544942547
  0.2222917328557079  0.1111516653985253  0.1250578790941496
  0.3888942437226501  0.6111651986065579  0.1249899613266464
  0.7223411655723136  0.6112128846620621  0.1247734593279241
  0.5555726397240514  0.1110631313046729  0.1249335494440027
  0.3888942437226501  0.6111651986065579  0.6250100386733533
  0.8889700965026885  0.1111517149180157  0.1249966795519820
  0.2222671506531430  0.7778002419932393  0.6249978685016805
  0.0556563024188265  0.2778145216327875  0.6249973198351306
  0.3888336648900935  0.2776054648647162  0.6239151525768865
  0.5555726397240514  0.7778428417527133  0.6250664505559973
  0.8889769808766974  0.7778553193665568  0.6249965223408247
  0.7222693313275251  0.2777444528688126  0.6250775010141815
  0.0556284961855216  0.7778255532644391  0.1250137041060409
  0.3889134259916204  0.7778058040811769  0.1249905150179932
  0.2223178012803842  0.2778255673068595  0.1252721131509492
  0.7222693313275251  0.7778582117920474  0.1249224989858195
  0.5555394445923059  0.2776504973509574  0.1248058815563277
  0.8889691857191251  0.2777897574189476  0.1250047585135302
  0.0556382391405541  0.4444591790585617  0.6250077124909436
  0.2222704192381909  0.9444746680831808  0.6249981811185998
  0.5555855736620644  0.9444594534976963  0.6250022016015311
  0.3888336648900935  0.4445615333587135  0.6239151525768865
  0.8889691857191251  0.9445127616335124  0.6249952414864702
  0.0556382391405541  0.9445123934153213  0.1249922875090570
  0.7223411655723136  0.4444616142435871  0.6252265406720759
  0.3889134259916204  0.9444409552437809  0.1249905150179932
  0.2222917328557079  0.4444734007905179  0.1250578790941496
  0.2222704192381909  0.6111290844883454  0.1250018188814004
  0.5557399511870598  0.4445366422601942  0.1249393656608690
  0.7222709375888344  0.9444922732385059  0.1249867455057452
  0.8889769808766974  0.4444549948434750  0.1250034776591744
  0.0556284961855216  0.6111362762544187  0.6249862958939593
  0.2222917328557079  0.1111516653985252  0.6249421209058507
  0.7223411655723136  0.6112128846620621  0.6252265406720759
  0.5555726397240514  0.1110631313046729  0.6250664505559973
  0.8889700965026885  0.1111517149180157  0.6250033204480180
 
  0.00000000E+00  0.00000000E+00  0.00000000E+00
  0.00000000E+00  0.00000000E+00  0.00000000E+00
  0.00000000E+00  0.00000000E+00  0.00000000E+00
  0.00000000E+00  0.00000000E+00  0.00000000E+00
  0.00000000E+00  0.00000000E+00  0.00000000E+00
  0.00000000E+00  0.00000000E+00  0.00000000E+00
  0.00000000E+00  0.00000000E+00  0.00000000E+00
  0.00000000E+00  0.00000000E+00  0.00000000E+00
  0.00000000E+00  0.00000000E+00  0.00000000E+00
  0.00000000E+00  0.00000000E+00  0.00000000E+00
  0.00000000E+00  0.00000000E+00  0.00000000E+00
  0.00000000E+00  0.00000000E+00  0.00000000E+00
  0.00000000E+00  0.00000000E+00  0.00000000E+00
  0.00000000E+00  0.00000000E+00  0.00000000E+00
  0.00000000E+00  0.00000000E+00  0.00000000E+00
  0.00000000E+00  0.00000000E+00  0.00000000E+00
  0.00000000E+00  0.00000000E+00  0.00000000E+00
  0.00000000E+00  0.00000000E+00  0.00000000E+00
  0.00000000E+00  0.00000000E+00  0.00000000E+00
  0.00000000E+00  0.00000000E+00  0.00000000E+00
  0.00000000E+00  0.00000000E+00  0.00000000E+00
  0.00000000E+00  0.00000000E+00  0.00000000E+00
  0.00000000E+00  0.00000000E+00  0.00000000E+00
  0.00000000E+00  0.00000000E+00  0.00000000E+00
  0.00000000E+00  0.00000000E+00  0.00000000E+00
  0.00000000E+00  0.00000000E+00  0.00000000E+00
  0.00000000E+00  0.00000000E+00  0.00000000E+00
  0.00000000E+00  0.00000000E+00  0.00000000E+00
  0.00000000E+00  0.00000000E+00  0.00000000E+00
  0.00000000E+00  0.00000000E+00  0.00000000E+00
  0.00000000E+00  0.00000000E+00  0.00000000E+00
  0.00000000E+00  0.00000000E+00  0.00000000E+00
  0.00000000E+00  0.00000000E+00  0.00000000E+00
  0.00000000E+00  0.00000000E+00  0.00000000E+00
  0.00000000E+00  0.00000000E+00  0.00000000E+00
  0.00000000E+00  0.00000000E+00  0.00000000E+00
  0.00000000E+00  0.00000000E+00  0.00000000E+00
  0.00000000E+00  0.00000000E+00  0.00000000E+00
  0.00000000E+00  0.00000000E+00  0.00000000E+00
  0.00000000E+00  0.00000000E+00  0.00000000E+00
  0.00000000E+00  0.00000000E+00  0.00000000E+00
  0.00000000E+00  0.00000000E+00  0.00000000E+00
  0.00000000E+00  0.00000000E+00  0.00000000E+00
  0.00000000E+00  0.00000000E+00  0.00000000E+00
  0.00000000E+00  0.00000000E+00  0.00000000E+00
  0.00000000E+00  0.00000000E+00  0.00000000E+00
  0.00000000E+00  0.00000000E+00  0.00000000E+00
  0.00000000E+00  0.00000000E+00  0.00000000E+00
  0.00000000E+00  0.00000000E+00  0.00000000E+00
  0.00000000E+00  0.00000000E+00  0.00000000E+00
  0.00000000E+00  0.00000000E+00  0.00000000E+00
  0.00000000E+00  0.00000000E+00  0.00000000E+00
  0.00000000E+00  0.00000000E+00  0.00000000E+00
  0.00000000E+00  0.00000000E+00  0.00000000E+00
  0.00000000E+00  0.00000000E+00  0.00000000E+00
  0.00000000E+00  0.00000000E+00  0.00000000E+00
  0.00000000E+00  0.00000000E+00  0.00000000E+00
  0.00000000E+00  0.00000000E+00  0.00000000E+00
  0.00000000E+00  0.00000000E+00  0.00000000E+00
  0.00000000E+00  0.00000000E+00  0.00000000E+00
  0.00000000E+00  0.00000000E+00  0.00000000E+00
  0.00000000E+00  0.00000000E+00  0.00000000E+00
  0.00000000E+00  0.00000000E+00  0.00000000E+00
  0.00000000E+00  0.00000000E+00  0.00000000E+00
  0.00000000E+00  0.00000000E+00  0.00000000E+00
  0.00000000E+00  0.00000000E+00  0.00000000E+00
  0.00000000E+00  0.00000000E+00  0.00000000E+00
  0.00000000E+00  0.00000000E+00  0.00000000E+00
  0.00000000E+00  0.00000000E+00  0.00000000E+00
  0.00000000E+00  0.00000000E+00  0.00000000E+00
  0.00000000E+00  0.00000000E+00  0.00000000E+00
  0.00000000E+00  0.00000000E+00  0.00000000E+00
  0.00000000E+00  0.00000000E+00  0.00000000E+00
  0.00000000E+00  0.00000000E+00  0.00000000E+00
  0.00000000E+00  0.00000000E+00  0.00000000E+00
  0.00000000E+00  0.00000000E+00  0.00000000E+00
  0.00000000E+00  0.00000000E+00  0.00000000E+00
  0.00000000E+00  0.00000000E+00  0.00000000E+00
  0.00000000E+00  0.00000000E+00  0.00000000E+00
  0.00000000E+00  0.00000000E+00  0.00000000E+00
  0.00000000E+00  0.00000000E+00  0.00000000E+00
  0.00000000E+00  0.00000000E+00  0.00000000E+00
  0.00000000E+00  0.00000000E+00  0.00000000E+00
  0.00000000E+00  0.00000000E+00  0.00000000E+00
  0.00000000E+00  0.00000000E+00  0.00000000E+00
  0.00000000E+00  0.00000000E+00  0.00000000E+00
  0.00000000E+00  0.00000000E+00  0.00000000E+00
  0.00000000E+00  0.00000000E+00  0.00000000E+00
  0.00000000E+00  0.00000000E+00  0.00000000E+00
  0.00000000E+00  0.00000000E+00  0.00000000E+00
  0.00000000E+00  0.00000000E+00  0.00000000E+00
  0.00000000E+00  0.00000000E+00  0.00000000E+00
  0.00000000E+00  0.00000000E+00  0.00000000E+00
  0.00000000E+00  0.00000000E+00  0.00000000E+00
  0.00000000E+00  0.00000000E+00  0.00000000E+00
  0.00000000E+00  0.00000000E+00  0.00000000E+00
  0.00000000E+00  0.00000000E+00  0.00000000E+00
  0.00000000E+00  0.00000000E+00  0.00000000E+00
  0.00000000E+00  0.00000000E+00  0.00000000E+00
  0.00000000E+00  0.00000000E+00  0.00000000E+00
  0.00000000E+00  0.00000000E+00  0.00000000E+00
  0.00000000E+00  0.00000000E+00  0.00000000E+00
  0.00000000E+00  0.00000000E+00  0.00000000E+00
  0.00000000E+00  0.00000000E+00  0.00000000E+00
  0.00000000E+00  0.00000000E+00  0.00000000E+00
  0.00000000E+00  0.00000000E+00  0.00000000E+00
  0.00000000E+00  0.00000000E+00  0.00000000E+00
  0.00000000E+00  0.00000000E+00  0.00000000E+00
  0.00000000E+00  0.00000000E+00  0.00000000E+00
  0.00000000E+00  0.00000000E+00  0.00000000E+00
  0.00000000E+00  0.00000000E+00  0.00000000E+00
  0.00000000E+00  0.00000000E+00  0.00000000E+00
  0.00000000E+00  0.00000000E+00  0.00000000E+00
  0.00000000E+00  0.00000000E+00  0.00000000E+00
  0.00000000E+00  0.00000000E+00  0.00000000E+00
  0.00000000E+00  0.00000000E+00  0.00000000E+00
  0.00000000E+00  0.00000000E+00  0.00000000E+00
  0.00000000E+00  0.00000000E+00  0.00000000E+00
  0.00000000E+00  0.00000000E+00  0.00000000E+00
  0.00000000E+00  0.00000000E+00  0.00000000E+00
  0.00000000E+00  0.00000000E+00  0.00000000E+00
  0.00000000E+00  0.00000000E+00  0.00000000E+00
  0.00000000E+00  0.00000000E+00  0.00000000E+00
  0.00000000E+00  0.00000000E+00  0.00000000E+00
  0.00000000E+00  0.00000000E+00  0.00000000E+00
  0.00000000E+00  0.00000000E+00  0.00000000E+00
  0.00000000E+00  0.00000000E+00  0.00000000E+00
  0.00000000E+00  0.00000000E+00  0.00000000E+00
  0.00000000E+00  0.00000000E+00  0.00000000E+00
  0.00000000E+00  0.00000000E+00  0.00000000E+00
  0.00000000E+00  0.00000000E+00  0.00000000E+00
  0.00000000E+00  0.00000000E+00  0.00000000E+00
  0.00000000E+00  0.00000000E+00  0.00000000E+00
  0.00000000E+00  0.00000000E+00  0.00000000E+00
  0.00000000E+00  0.00000000E+00  0.00000000E+00
  0.00000000E+00  0.00000000E+00  0.00000000E+00
  0.00000000E+00  0.00000000E+00  0.00000000E+00
  0.00000000E+00  0.00000000E+00  0.00000000E+00
  0.00000000E+00  0.00000000E+00  0.00000000E+00
  0.00000000E+00  0.00000000E+00  0.00000000E+00
  0.00000000E+00  0.00000000E+00  0.00000000E+00
  0.00000000E+00  0.00000000E+00  0.00000000E+00
  0.00000000E+00  0.00000000E+00  0.00000000E+00
  0.00000000E+00  0.00000000E+00  0.00000000E+00
  0.00000000E+00  0.00000000E+00  0.00000000E+00
  0.00000000E+00  0.00000000E+00  0.00000000E+00
  0.00000000E+00  0.00000000E+00  0.00000000E+00
  0.00000000E+00  0.00000000E+00  0.00000000E+00
  0.00000000E+00  0.00000000E+00  0.00000000E+00
  0.00000000E+00  0.00000000E+00  0.00000000E+00
  0.00000000E+00  0.00000000E+00  0.00000000E+00
  0.00000000E+00  0.00000000E+00  0.00000000E+00
  0.00000000E+00  0.00000000E+00  0.00000000E+00
  0.00000000E+00  0.00000000E+00  0.00000000E+00
  0.00000000E+00  0.00000000E+00  0.00000000E+00
  0.00000000E+00  0.00000000E+00  0.00000000E+00
  0.00000000E+00  0.00000000E+00  0.00000000E+00
  0.00000000E+00  0.00000000E+00  0.00000000E+00
  0.00000000E+00  0.00000000E+00  0.00000000E+00
  0.00000000E+00  0.00000000E+00  0.00000000E+00
  0.00000000E+00  0.00000000E+00  0.00000000E+00
  0.00000000E+00  0.00000000E+00  0.00000000E+00
  0.00000000E+00  0.00000000E+00  0.00000000E+00
  0.00000000E+00  0.00000000E+00  0.00000000E+00
  0.00000000E+00  0.00000000E+00  0.00000000E+00
  0.00000000E+00  0.00000000E+00  0.00000000E+00
  0.00000000E+00  0.00000000E+00  0.00000000E+00
  0.00000000E+00  0.00000000E+00  0.00000000E+00
  0.00000000E+00  0.00000000E+00  0.00000000E+00
  0.00000000E+00  0.00000000E+00  0.00000000E+00
  0.00000000E+00  0.00000000E+00  0.00000000E+00
  0.00000000E+00  0.00000000E+00  0.00000000E+00
  0.00000000E+00  0.00000000E+00  0.00000000E+00
  0.00000000E+00  0.00000000E+00  0.00000000E+00
  0.00000000E+00  0.00000000E+00  0.00000000E+00
  0.00000000E+00  0.00000000E+00  0.00000000E+00
  0.00000000E+00  0.00000000E+00  0.00000000E+00
  0.00000000E+00  0.00000000E+00  0.00000000E+00
  0.00000000E+00  0.00000000E+00  0.00000000E+00
  0.00000000E+00  0.00000000E+00  0.00000000E+00
  0.00000000E+00  0.00000000E+00  0.00000000E+00
  0.00000000E+00  0.00000000E+00  0.00000000E+00
  0.00000000E+00  0.00000000E+00  0.00000000E+00
  0.00000000E+00  0.00000000E+00  0.00000000E+00
  0.00000000E+00  0.00000000E+00  0.00000000E+00
  0.00000000E+00  0.00000000E+00  0.00000000E+00
  0.00000000E+00  0.00000000E+00  0.00000000E+00
  0.00000000E+00  0.00000000E+00  0.00000000E+00
  0.00000000E+00  0.00000000E+00  0.00000000E+00
  0.00000000E+00  0.00000000E+00  0.00000000E+00
  0.00000000E+00  0.00000000E+00  0.00000000E+00
  0.00000000E+00  0.00000000E+00  0.00000000E+00
  0.00000000E+00  0.00000000E+00  0.00000000E+00
  0.00000000E+00  0.00000000E+00  0.00000000E+00
  0.00000000E+00  0.00000000E+00  0.00000000E+00
  0.00000000E+00  0.00000000E+00  0.00000000E+00
  0.00000000E+00  0.00000000E+00  0.00000000E+00
  0.00000000E+00  0.00000000E+00  0.00000000E+00
  0.00000000E+00  0.00000000E+00  0.00000000E+00
  0.00000000E+00  0.00000000E+00  0.00000000E+00
  0.00000000E+00  0.00000000E+00  0.00000000E+00
  0.00000000E+00  0.00000000E+00  0.00000000E+00
  0.00000000E+00  0.00000000E+00  0.00000000E+00
  0.00000000E+00  0.00000000E+00  0.00000000E+00
  0.00000000E+00  0.00000000E+00  0.00000000E+00
  0.00000000E+00  0.00000000E+00  0.00000000E+00
  0.00000000E+00  0.00000000E+00  0.00000000E+00
  0.00000000E+00  0.00000000E+00  0.00000000E+00
  0.00000000E+00  0.00000000E+00  0.00000000E+00
  0.00000000E+00  0.00000000E+00  0.00000000E+00
  0.00000000E+00  0.00000000E+00  0.00000000E+00
  0.00000000E+00  0.00000000E+00  0.00000000E+00
  0.00000000E+00  0.00000000E+00  0.00000000E+00
  0.00000000E+00  0.00000000E+00  0.00000000E+00
  0.00000000E+00  0.00000000E+00  0.00000000E+00
  0.00000000E+00  0.00000000E+00  0.00000000E+00
  0.00000000E+00  0.00000000E+00  0.00000000E+00
  0.00000000E+00  0.00000000E+00  0.00000000E+00
  0.00000000E+00  0.00000000E+00  0.00000000E+00
  0.00000000E+00  0.00000000E+00  0.00000000E+00
  0.00000000E+00  0.00000000E+00  0.00000000E+00
  0.00000000E+00  0.00000000E+00  0.00000000E+00
  0.00000000E+00  0.00000000E+00  0.00000000E+00
  0.00000000E+00  0.00000000E+00  0.00000000E+00
  0.00000000E+00  0.00000000E+00  0.00000000E+00
  0.00000000E+00  0.00000000E+00  0.00000000E+00
  0.00000000E+00  0.00000000E+00  0.00000000E+00
  0.00000000E+00  0.00000000E+00  0.00000000E+00
  0.00000000E+00  0.00000000E+00  0.00000000E+00
  0.00000000E+00  0.00000000E+00  0.00000000E+00
  0.00000000E+00  0.00000000E+00  0.00000000E+00
  0.00000000E+00  0.00000000E+00  0.00000000E+00
  0.00000000E+00  0.00000000E+00  0.00000000E+00
  0.00000000E+00  0.00000000E+00  0.00000000E+00
  0.00000000E+00  0.00000000E+00  0.00000000E+00
  0.00000000E+00  0.00000000E+00  0.00000000E+00
  0.00000000E+00  0.00000000E+00  0.00000000E+00
  0.00000000E+00  0.00000000E+00  0.00000000E+00
  0.00000000E+00  0.00000000E+00  0.00000000E+00
  0.00000000E+00  0.00000000E+00  0.00000000E+00
  0.00000000E+00  0.00000000E+00  0.00000000E+00
  0.00000000E+00  0.00000000E+00  0.00000000E+00
  0.00000000E+00  0.00000000E+00  0.00000000E+00
  0.00000000E+00  0.00000000E+00  0.00000000E+00
  0.00000000E+00  0.00000000E+00  0.00000000E+00
  0.00000000E+00  0.00000000E+00  0.00000000E+00
  0.00000000E+00  0.00000000E+00  0.00000000E+00
  0.00000000E+00  0.00000000E+00  0.00000000E+00