Species order: X N B                    
   2.51242800000000     
     5.9449720136058266    0.0000000000000000    0.0000000000000000
    -2.9724860068029120    5.1484967885702053   -0.0000000000000001
     0.0000000000000000    0.0000000000000009    5.3101128803662583
   Si   N    B 
     1   143   143
Direct
  0.4895930238102949  0.4114631785718121  0.3750000000000000
  0.1110867520822681  0.0555443793296603  0.1249457097123810
  0.6112243096003064  0.5557454888829464  0.1235656881072222
  0.4444770450845925  0.0555692044244351  0.1249063948862322
  0.9444367844268616  0.5555416398532388  0.1248964560609714
  0.7778106639225169  0.0555719986279265  0.1248743283741307
  0.1111087260413382  0.7222210296873330  0.6251008697180735
  0.4444770450845925  0.7222411739934935  0.6250936051137682
  0.2776890335216672  0.2221727716016049  0.6254296066921154
  0.7778047049545908  0.7222844555201284  0.6253233973156003
  0.6111574063339975  0.2221941766796678  0.6253802666191672
  0.9444457055813562  0.2222139377594260  0.6250925683172577
  0.2777961094091518  0.7222277218372769  0.1249099663178180
  0.1110596494488489  0.2221964913910887  0.1249065707439470
  0.4444655109706473  0.2222308688950930  0.1246348000463845
  0.6111574063339975  0.7222965629876582  0.1246197333808323
  0.9444367844268616  0.7222284779069588  0.1248964560609714
  0.7778127734187776  0.2222014785854700  0.1248749103557372
  0.1111112629977993  0.8888969058807381  0.6251005665393553
  0.4444771302780717  0.8889052318057014  0.6251074937603440
  0.2776890335216672  0.3888495952533909  0.6254296066921154
  0.6112243096003064  0.3888121540506881  0.6264343118927777
  0.7778127734187776  0.8889446281666363  0.6251250896442629
  0.9444487200283657  0.3888744108297865  0.6250616259284256
  0.1110867520822681  0.3888757060859364  0.1249457097123810
  0.2777961094091518  0.8889017209052035  0.1249099663178180
  0.6111494173561397  0.8889250808608136  0.1248976933457706
  0.4441656232600356  0.3887494782966818  0.1235257577719639
  0.9444487200283657  0.8889076425319082  0.1249383740715744
  0.7778047049545908  0.3888535827677913  0.1246766026844000
  0.2777888893014775  0.5555529218279175  0.6250888120433620
  0.1110867520822681  0.0555443793296603  0.6250542902876201
  0.6112243096003064  0.5557454888829464  0.6264343118927777
  0.4444770450845925  0.0555692044244351  0.6250936051137682
  0.9444367844268616  0.5555416398532388  0.6251035439390280
  0.1111112629977993  0.5555476904503913  0.1248994334606446
  0.7778106639225169  0.0555719986279265  0.6251256716258705
  0.2777888893014775  0.0555693008068968  0.1249111879566380
  0.4444655109706473  0.5555679754088900  0.1246348000463845
  0.7777868482989737  0.5555600908161553  0.1246434584599370
  0.6111494173561397  0.0555576698286543  0.1248976933457706
  0.4444655109706473  0.5555679754088900  0.6253651999536152
  0.9444457055813562  0.0555651011552655  0.1249074316827419
  0.2777961094091518  0.7222277218372769  0.6250900336821819
  0.1110596494488489  0.2221964913910887  0.6250934292560524
  0.4444655109706473  0.2222308688950930  0.6253651999536152
  0.6111574063339975  0.7222965629876582  0.6253802666191672
  0.9444367844268616  0.7222284779069588  0.6251035439390280
  0.7778127734187776  0.2222014785854700  0.6251250896442629
  0.1111087260413383  0.7222210296873330  0.1248991302819260
  0.4444770450845925  0.7222411739934935  0.1249063948862322
  0.2776890335216672  0.2221727716016049  0.1245703933078857
  0.7778047049545908  0.7222844555201284  0.1246766026844000
  0.6111574063339975  0.2221941766796678  0.1246197333808323
  0.9444457055813562  0.2222139377594257  0.1249074316827419
  0.1110867520822681  0.3888757060859364  0.6250542902876201
  0.2777961094091518  0.8889017209052035  0.6250900336821819
  0.6111494173561397  0.8889250808608136  0.6251023066542291
  0.4441656232600356  0.3887494782966818  0.6264742422280356
  0.9444487200283657  0.8889076425319082  0.6250616259284256
  0.1111112629977993  0.8888969058807381  0.1248994334606446
  0.7778047049545908  0.3888535827677913  0.6253233973156003
  0.4444771302780717  0.8889052318057014  0.1248925062396560
  0.2776890335216672  0.3888495952533909  0.1245703933078857
  0.2777888893014775  0.5555529218279175  0.1249111879566380
  0.6112243096003064  0.3888121540506881  0.1235656881072222
  0.7778127734187776  0.8889446281666363  0.1248749103557372
  0.9444487200283657  0.3888744108297865  0.1249383740715744
  0.1111112629977993  0.5555476904503913  0.6251005665393553
  0.2777888893014775  0.0555693008068968  0.6250888120433620
  0.7777868482989737  0.5555600908161553  0.6253565415400636
  0.6111494173561397  0.0555576698286543  0.6251023066542291
  0.9444457055813562  0.0555651011552655  0.6250925683172577
  0.0588614804363077  0.1129334814355445  0.3750000000000000
  0.5557485123201302  0.6167820449776611  0.3750000000000000
  0.3888231787003855  0.1073241426203535  0.3750000000000000
  0.8871361166847480  0.6102347250090449  0.3750000000000000
  0.7242682778412098  0.1116636101083862  0.3750000000000000
  0.0555625120095756  0.7777803314719635  0.8750000000000000
  0.3888809243593175  0.7777802564273357  0.8750000000000000
  0.2222239822124562  0.2777786577728958  0.8750000000000000
  0.7222161882920142  0.7777715942241047  0.8750000000000000
  0.5555407582539301  0.2777635350623630  0.8750000000000000
  0.8888870787247841  0.2777805445738277  0.8750000000000000
  0.2215478168556974  0.7774405750945157  0.3750000000000000
  0.0588614804363077  0.2792613323340985  0.3750000000000000
  0.3946578526000131  0.2764862512270585  0.3750000000000000
  0.5564594710604753  0.7806613762502282  0.3750000000000000
  0.8883011149317751  0.7773919748578889  0.3750000000000000
  0.7235272362907614  0.2773282515672501  0.3750000000000000
  0.0555541984421008  0.9444393190834539  0.8750000000000000
  0.3888809243593175  0.9444340012653178  0.8750000000000000
  0.2222173949121602  0.4444502253183530  0.8750000000000000
  0.5555498079945154  0.4444415706639220  0.8750000000000000
  0.7222129440103644  0.9444388253198195  0.8750000000000000
  0.8888947804761393  0.4444499997110885  0.8750000000000000
  0.0565962653772170  0.4450139637165227  0.3750000000000000
  0.2218832306691876  0.9433798211268075  0.3750000000000000
  0.5566285518744126  0.9449809426038704  0.3750000000000000
  0.3946578526000134  0.4515049347062903  0.3750000000000000
  0.8910045130767569  0.9458527060250098  0.3750000000000000
  0.7192433784374667  0.4431775598571004  0.3750000000000000
  0.2222159559132229  0.6111157670791471  0.8750000000000000
  0.0555540886945610  0.1111075258311453  0.8750000000000000
  0.5555407582539301  0.6111105565249024  0.8750000000000000
  0.3888767661000117  0.1110903916513804  0.8750000000000000
  0.8889084726261315  0.6111209029797368  0.8750000000000000
  0.0546741829048384  0.6108597126838097  0.3750000000000000
  0.7222129440103644  0.1111074520238802  0.8750000000000000
  0.2250579798272031  0.1121900687371496  0.3750000000000000
  0.3888231787003855  0.6148323694133753  0.3750000000000000
  0.7192433784374667  0.6093991519137022  0.3750000000000000
  0.5564594710604753  0.1091314281435828  0.3750000000000000
  0.3888767661000117  0.6111197077819743  0.8750000000000000
  0.8916962560062991  0.1125147946698208  0.3750000000000000
  0.2222205118186936  0.7777769225760149  0.8750000000000000
  0.0555540886945610  0.2777798961967516  0.8750000000000000
  0.3888846370386658  0.2777612165066648  0.8750000000000000
  0.5555433519025100  0.7777759423682185  0.8750000000000000
  0.8888947804761393  0.7777781140983859  0.8750000000000000
  0.7222161882920142  0.2777779274012453  0.8750000000000000
  0.0546741829048385  0.7771478035543640  0.3750000000000000
  0.3888601833621784  0.7789535430773378  0.3750000000000000
  0.2274400731243300  0.2803867032288329  0.3750000000000000
  0.7235272362907614  0.7795323180568471  0.3750000000000000
  0.5557485123201296  0.2722998006758046  0.3750000000000000
  0.8910045130767569  0.2784851403850828  0.3750000000000000
  0.0555541984421008  0.4444482126919753  0.8750000000000000
  0.2222159559132229  0.9444335221674113  0.8750000000000000
  0.5555441817074885  0.9444387575204087  0.8750000000000000
  0.3888846370386658  0.4444567538653367  0.8750000000000000
  0.8888870787247841  0.9444398674842913  0.8750000000000000
  0.0565962653772170  0.9449156349940236  0.3750000000000000
  0.7222322672861254  0.4444539332659586  0.8750000000000000
  0.3888601833621784  0.9432399736181767  0.3750000000000000
  0.2250579798272031  0.4462012444233895  0.3750000000000000
  0.2218832306691876  0.6118367428757163  0.3750000000000000
  0.7242682778412098  0.9459380010661592  0.3750000000000000
  0.8883011149317751  0.4442424734072199  0.3750000000000000
  0.0555625120095756  0.6111155138709478  0.8750000000000000
  0.2222173949121602  0.1111005029271427  0.8750000000000000
  0.7222322672861254  0.6111116673535023  0.8750000000000000
  0.5555433519025100  0.1111007428676264  0.8750000000000000
  0.8888852182199658  0.1111092757766545  0.8750000000000000
  0.1139142249013437  0.0567969460822558  0.3750000000000000
  0.6065324965604322  0.5560548569230475  0.3750000000000000
  0.4452015067851300  0.0537308717473928  0.3750000000000000
  0.9431947678342837  0.5552649007218550  0.3750000000000000
  0.7803405120540662  0.0568369226937007  0.3750000000000000
  0.1110999938258373  0.7222166635795833  0.8750000000000000
  0.4444365695575150  0.7221846339580338  0.8750000000000000
  0.2778569417588485  0.2222721739508350  0.8750000000000000
  0.7777244006259800  0.7221371131712534  0.8750000000000000
  0.6110717902642372  0.2222721573981383  0.8750000000000000
  0.9444544622439996  0.2222392370166451  0.8750000000000000
  0.2776670696434752  0.7226863448792614  0.3750000000000000
  0.1160976380445511  0.2247154856889398  0.3750000000000000
  0.4451023910092279  0.2177464281862606  0.3750000000000000
  0.6122978906601482  0.7256860057587456  0.3750000000000000
  0.9431947678342837  0.7212632004457666  0.3750000000000000
  0.7797361298766042  0.2228575236046577  0.3750000000000000
  0.1111130625056223  0.8888857962146900  0.8750000000000000
  0.4444303494642703  0.8888818413987993  0.8750000000000000
  0.2778569417588485  0.3889181011413422  0.8750000000000000
  0.6110615689996574  0.3889282185354171  0.8750000000000000
  0.7777476244621798  0.8888310560929416  0.8750000000000000
  0.9444316188765339  0.3889095065486718  0.8750000000000000
  0.1139142249013437  0.3904506121524164  0.3750000000000000
  0.2776670696434752  0.8883140580975424  0.3750000000000000
  0.6128628566324552  0.8907061661359765  0.3750000000000000
  0.9451640442970312  0.8889647920670058  0.3750000000000000
  0.7763373728735689  0.3887165898486760  0.3750000000000000
  0.2778044733857744  0.5555509346071159  0.8750000000000000
  0.1111448041230575  0.0555702098729488  0.8750000000000000
  0.6110615689996574  0.5554666837975687  0.8750000000000000
  0.4444365695575150  0.0555852689328166  0.8750000000000000
  0.9444143064426768  0.5555564636682255  0.8750000000000000
  0.1109539282038261  0.5559800332630284  0.3750000000000000
  0.7777593838327431  0.0555463585830389  0.8750000000000000
  0.2784002627367078  0.0545415200674464  0.3750000000000000
  0.4451023910092279  0.5606892961563026  0.3750000000000000
  0.7747660668562706  0.5540497000948033  0.3750000000000000
  0.6128628566324552  0.0554900238298070  0.3750000000000000
  0.4444656231681378  0.5555203609079061  0.8750000000000000
  0.9475680668682537  0.0571904924835949  0.3750000000000000
  0.2777778666381657  0.7222140907353248  0.8750000000000000
  0.1111691332659349  0.2222512332996317  0.8750000000000000
  0.4444656231681378  0.2222785955935666  0.8750000000000000
  0.6110717902642372  0.7221329661994276  0.8750000000000000
  0.9444143064426768  0.7221911761077854  0.8750000000000000
  0.7777476244621798  0.2222499017025666  0.8750000000000000
  0.1103256297704330  0.7218294815518806  0.3750000000000000
  0.4452015067851301  0.7248039683710737  0.3750000000000000
  0.2843004043341252  0.2250855118280702  0.3750000000000000
  0.7763373728735689  0.7209541163582218  0.3750000000000000
  0.6122978906601482  0.2199452182347313  0.3750000000000000
  0.9475680668682537  0.2237109077179959  0.3750000000000000
  0.1111448041230575  0.3889079275834376  0.8750000000000000
  0.2777778666381657  0.8888971092361698  0.8750000000000000
  0.6110834830108115  0.8888501428842903  0.8750000000000000
  0.4445182873896786  0.3889258103615035  0.8750000000000000
  0.9444316188765339  0.8888554456611913  0.8750000000000000
  0.1109539282038261  0.8883072282741262  0.3750000000000000
  0.7777244006259800  0.3889206207880548  0.8750000000000000
  0.4452048598919151  0.8892690966126219  0.3750000000000000
  0.2843004043341252  0.3925482258393838  0.3750000000000000
  0.2784002627367078  0.5571920760025970  0.3750000000000000
  0.6065324965604322  0.3838109729707123  0.3750000000000000
  0.7797361298766042  0.8902119396052750  0.3750000000000000
  0.9451640442970312  0.3895325855633540  0.3750000000000000
  0.1111130625056223  0.5555605996242617  0.8750000000000000
  0.2778044733857744  0.0555868721119940  0.8750000000000000
  0.7777190162342337  0.5555261747837847  0.8750000000000000
  0.6110834830108115  0.0555666734598491  0.8750000000000000
  0.9444544622439996  0.0555485585606908  0.8750000000000000
  0.0555933529017036  0.1111485336271013  0.1251022400205433
  0.5556597068835846  0.6109459854673228  0.1248393364654350
  0.3890198468245822  0.1113558037067943  0.1251383122247640
  0.8886537569007569  0.6109935451170494  0.1250917673851950
  0.7222433728320917  0.1111405797237127  0.1250364206660607
  0.0554799670320372  0.7777551246426065  0.6249482706985968
  0.3889579923624442  0.7777517454976028  0.6249359074137575
  0.2223095023141481  0.2778214178237421  0.6249853001685529
  0.7221795182934122  0.7777019544706751  0.6250258513443009
  0.5556597068835846  0.2780470547495987  0.6251606635345642
  0.8888758291039126  0.2777733954833875  0.6249385732200692
  0.2222345938836099  0.7777839636084730  0.1250325222046760
  0.0555933529017036  0.2777781526079380  0.1251022400205433
  0.3889915026790154  0.2779863708505876  0.1248525347489437
  0.5556159211880709  0.7777121986049167  0.1250446890857158
  0.8887693981770325  0.7777097833502126  0.1250498726998534
  0.7221795182934122  0.2778108971560720  0.1249741486556995
  0.0555482163935979  0.9444715119137963  0.6249031795869365
  0.3889579923624442  0.9445395801981773  0.6249359074137575
  0.2222994076437817  0.4443942421778633  0.6249042628265565
  0.5555198226124565  0.4444265779728925  0.6223283647438985
  0.7222433728320917  0.9444361264417155  0.6249635793339399
  0.8887693981770325  0.4443929481601553  0.6249501273001461
  0.0555482163935979  0.4444100378131293  0.1250968204130636
  0.2222708086365362  0.9445464849038153  0.1250770531099245
  0.5556074517244820  0.9444703925289057  0.1250554775725485
  0.3889915026790154  0.4443384651617636  0.1248525347489436
  0.8888758291039126  0.9444357669538613  0.1250614267799301
  0.7219359397884204  0.4443301040748814  0.1247751414560228
  0.2222708086365362  0.6110576570660582  0.6249229468900760
  0.0555933529017036  0.1111485336271013  0.6248977599794574
  0.5556597068835846  0.6109459854673228  0.6251606635345642
  0.3890198468245822  0.1113558037067943  0.6248616877752360
  0.8886537569007569  0.6109935451170494  0.6249082326148051
  0.0554799670320373  0.6110581757227663  0.1250517293014023
  0.7222433728320917  0.1111405797237127  0.6249635793339399
  0.2222994076437817  0.1112384987992542  0.1250957371734436
  0.3890198468245822  0.6109973764511311  0.1251383122247640
  0.7219359397884204  0.6109391690468751  0.1247751414560228
  0.5556159211880709  0.1112370559164906  0.1250446890857158
  0.3890198468245822  0.6109973764511311  0.6248616877752360
  0.8889084421624061  0.1111208877478748  0.1250286683939169
  0.2222345938836099  0.7777839636084730  0.6249674777953239
  0.0555933529017036  0.2777781526079380  0.6248977599794574
  0.3889915026790154  0.2779863708505876  0.6251474652510562
  0.5556159211880709  0.7777121986049167  0.6249553109142842
  0.8887693981770325  0.7777097833502126  0.6249501273001461
  0.7221795182934122  0.2778108971560720  0.6250258513443009
  0.0554799670320372  0.7777551246426065  0.1250517293014023
  0.3889579923624442  0.7777517454976028  0.1250640925862416
  0.2223095023141481  0.2778214178237421  0.1250146998314470
  0.7221795182934122  0.7777019544706751  0.1249741486556995
  0.5556597068835846  0.2780470547495987  0.1248393364654350
  0.8888758291039126  0.2777733954833875  0.1250614267799301
  0.0555482163935979  0.4444100378131293  0.6249031795869365
  0.2222708086365362  0.9445464849038153  0.6249229468900760
  0.5556074517244820  0.9444703925289057  0.6249445224274509
  0.3889915026790154  0.4443384651617636  0.6251474652510562
  0.8888758291039126  0.9444357669538613  0.6249385732200692
  0.0555482163935979  0.9444715119137963  0.1250968204130636
  0.7219359397884204  0.4443301040748814  0.6252248585439777
  0.3889579923624442  0.9445395801981773  0.1250640925862416
  0.2222994076437817  0.4443942421778633  0.1250957371734436
  0.2222708086365362  0.6110576570660582  0.1250770531099245
  0.5555198226124565  0.4444265779728925  0.1276716352561015
  0.7222433728320917  0.9444361264417155  0.1250364206660607
  0.8887693981770325  0.4443929481601553  0.1250498726998534
  0.0554799670320372  0.6110581757227663  0.6249482706985968
  0.2222994076437817  0.1112384987992542  0.6249042628265565
  0.7219359397884204  0.6109391690468751  0.6252248585439777
  0.5556159211880709  0.1112370559164906  0.6249553109142842
  0.8889084421624061  0.1111208877478748  0.6249713316060829
 
  0.00000000E+00  0.00000000E+00  0.00000000E+00
  0.00000000E+00  0.00000000E+00  0.00000000E+00
  0.00000000E+00  0.00000000E+00  0.00000000E+00
  0.00000000E+00  0.00000000E+00  0.00000000E+00
  0.00000000E+00  0.00000000E+00  0.00000000E+00
  0.00000000E+00  0.00000000E+00  0.00000000E+00
  0.00000000E+00  0.00000000E+00  0.00000000E+00
  0.00000000E+00  0.00000000E+00  0.00000000E+00
  0.00000000E+00  0.00000000E+00  0.00000000E+00
  0.00000000E+00  0.00000000E+00  0.00000000E+00
  0.00000000E+00  0.00000000E+00  0.00000000E+00
  0.00000000E+00  0.00000000E+00  0.00000000E+00
  0.00000000E+00  0.00000000E+00  0.00000000E+00
  0.00000000E+00  0.00000000E+00  0.00000000E+00
  0.00000000E+00  0.00000000E+00  0.00000000E+00
  0.00000000E+00  0.00000000E+00  0.00000000E+00
  0.00000000E+00  0.00000000E+00  0.00000000E+00
  0.00000000E+00  0.00000000E+00  0.00000000E+00
  0.00000000E+00  0.00000000E+00  0.00000000E+00
  0.00000000E+00  0.00000000E+00  0.00000000E+00
  0.00000000E+00  0.00000000E+00  0.00000000E+00
  0.00000000E+00  0.00000000E+00  0.00000000E+00
  0.00000000E+00  0.00000000E+00  0.00000000E+00
  0.00000000E+00  0.00000000E+00  0.00000000E+00
  0.00000000E+00  0.00000000E+00  0.00000000E+00
  0.00000000E+00  0.00000000E+00  0.00000000E+00
  0.00000000E+00  0.00000000E+00  0.00000000E+00
  0.00000000E+00  0.00000000E+00  0.00000000E+00
  0.00000000E+00  0.00000000E+00  0.00000000E+00
  0.00000000E+00  0.00000000E+00  0.00000000E+00
  0.00000000E+00  0.00000000E+00  0.00000000E+00
  0.00000000E+00  0.00000000E+00  0.00000000E+00
  0.00000000E+00  0.00000000E+00  0.00000000E+00
  0.00000000E+00  0.00000000E+00  0.00000000E+00
  0.00000000E+00  0.00000000E+00  0.00000000E+00
  0.00000000E+00  0.00000000E+00  0.00000000E+00
  0.00000000E+00  0.00000000E+00  0.00000000E+00
  0.00000000E+00  0.00000000E+00  0.00000000E+00
  0.00000000E+00  0.00000000E+00  0.00000000E+00
  0.00000000E+00  0.00000000E+00  0.00000000E+00
  0.00000000E+00  0.00000000E+00  0.00000000E+00
  0.00000000E+00  0.00000000E+00  0.00000000E+00
  0.00000000E+00  0.00000000E+00  0.00000000E+00
  0.00000000E+00  0.00000000E+00  0.00000000E+00
  0.00000000E+00  0.00000000E+00  0.00000000E+00
  0.00000000E+00  0.00000000E+00  0.00000000E+00
  0.00000000E+00  0.00000000E+00  0.00000000E+00
  0.00000000E+00  0.00000000E+00  0.00000000E+00
  0.00000000E+00  0.00000000E+00  0.00000000E+00
  0.00000000E+00  0.00000000E+00  0.00000000E+00
  0.00000000E+00  0.00000000E+00  0.00000000E+00
  0.00000000E+00  0.00000000E+00  0.00000000E+00
  0.00000000E+00  0.00000000E+00  0.00000000E+00
  0.00000000E+00  0.00000000E+00  0.00000000E+00
  0.00000000E+00  0.00000000E+00  0.00000000E+00
  0.00000000E+00  0.00000000E+00  0.00000000E+00
  0.00000000E+00  0.00000000E+00  0.00000000E+00
  0.00000000E+00  0.00000000E+00  0.00000000E+00
  0.00000000E+00  0.00000000E+00  0.00000000E+00
  0.00000000E+00  0.00000000E+00  0.00000000E+00
  0.00000000E+00  0.00000000E+00  0.00000000E+00
  0.00000000E+00  0.00000000E+00  0.00000000E+00
  0.00000000E+00  0.00000000E+00  0.00000000E+00
  0.00000000E+00  0.00000000E+00  0.00000000E+00
  0.00000000E+00  0.00000000E+00  0.00000000E+00
  0.00000000E+00  0.00000000E+00  0.00000000E+00
  0.00000000E+00  0.00000000E+00  0.00000000E+00
  0.00000000E+00  0.00000000E+00  0.00000000E+00
  0.00000000E+00  0.00000000E+00  0.00000000E+00
  0.00000000E+00  0.00000000E+00  0.00000000E+00
  0.00000000E+00  0.00000000E+00  0.00000000E+00
  0.00000000E+00  0.00000000E+00  0.00000000E+00
  0.00000000E+00  0.00000000E+00  0.00000000E+00
  0.00000000E+00  0.00000000E+00  0.00000000E+00
  0.00000000E+00  0.00000000E+00  0.00000000E+00
  0.00000000E+00  0.00000000E+00  0.00000000E+00
  0.00000000E+00  0.00000000E+00  0.00000000E+00
  0.00000000E+00  0.00000000E+00  0.00000000E+00
  0.00000000E+00  0.00000000E+00  0.00000000E+00
  0.00000000E+00  0.00000000E+00  0.00000000E+00
  0.00000000E+00  0.00000000E+00  0.00000000E+00
  0.00000000E+00  0.00000000E+00  0.00000000E+00
  0.00000000E+00  0.00000000E+00  0.00000000E+00
  0.00000000E+00  0.00000000E+00  0.00000000E+00
  0.00000000E+00  0.00000000E+00  0.00000000E+00
  0.00000000E+00  0.00000000E+00  0.00000000E+00
  0.00000000E+00  0.00000000E+00  0.00000000E+00
  0.00000000E+00  0.00000000E+00  0.00000000E+00
  0.00000000E+00  0.00000000E+00  0.00000000E+00
  0.00000000E+00  0.00000000E+00  0.00000000E+00
  0.00000000E+00  0.00000000E+00  0.00000000E+00
  0.00000000E+00  0.00000000E+00  0.00000000E+00
  0.00000000E+00  0.00000000E+00  0.00000000E+00
  0.00000000E+00  0.00000000E+00  0.00000000E+00
  0.00000000E+00  0.00000000E+00  0.00000000E+00
  0.00000000E+00  0.00000000E+00  0.00000000E+00
  0.00000000E+00  0.00000000E+00  0.00000000E+00
  0.00000000E+00  0.00000000E+00  0.00000000E+00
  0.00000000E+00  0.00000000E+00  0.00000000E+00
  0.00000000E+00  0.00000000E+00  0.00000000E+00
  0.00000000E+00  0.00000000E+00  0.00000000E+00
  0.00000000E+00  0.00000000E+00  0.00000000E+00
  0.00000000E+00  0.00000000E+00  0.00000000E+00
  0.00000000E+00  0.00000000E+00  0.00000000E+00
  0.00000000E+00  0.00000000E+00  0.00000000E+00
  0.00000000E+00  0.00000000E+00  0.00000000E+00
  0.00000000E+00  0.00000000E+00  0.00000000E+00
  0.00000000E+00  0.00000000E+00  0.00000000E+00
  0.00000000E+00  0.00000000E+00  0.00000000E+00
  0.00000000E+00  0.00000000E+00  0.00000000E+00
  0.00000000E+00  0.00000000E+00  0.00000000E+00
  0.00000000E+00  0.00000000E+00  0.00000000E+00
  0.00000000E+00  0.00000000E+00  0.00000000E+00
  0.00000000E+00  0.00000000E+00  0.00000000E+00
  0.00000000E+00  0.00000000E+00  0.00000000E+00
  0.00000000E+00  0.00000000E+00  0.00000000E+00
  0.00000000E+00  0.00000000E+00  0.00000000E+00
  0.00000000E+00  0.00000000E+00  0.00000000E+00
  0.00000000E+00  0.00000000E+00  0.00000000E+00
  0.00000000E+00  0.00000000E+00  0.00000000E+00
  0.00000000E+00  0.00000000E+00  0.00000000E+00
  0.00000000E+00  0.00000000E+00  0.00000000E+00
  0.00000000E+00  0.00000000E+00  0.00000000E+00
  0.00000000E+00  0.00000000E+00  0.00000000E+00
  0.00000000E+00  0.00000000E+00  0.00000000E+00
  0.00000000E+00  0.00000000E+00  0.00000000E+00
  0.00000000E+00  0.00000000E+00  0.00000000E+00
  0.00000000E+00  0.00000000E+00  0.00000000E+00
  0.00000000E+00  0.00000000E+00  0.00000000E+00
  0.00000000E+00  0.00000000E+00  0.00000000E+00
  0.00000000E+00  0.00000000E+00  0.00000000E+00
  0.00000000E+00  0.00000000E+00  0.00000000E+00
  0.00000000E+00  0.00000000E+00  0.00000000E+00
  0.00000000E+00  0.00000000E+00  0.00000000E+00
  0.00000000E+00  0.00000000E+00  0.00000000E+00
  0.00000000E+00  0.00000000E+00  0.00000000E+00
  0.00000000E+00  0.00000000E+00  0.00000000E+00
  0.00000000E+00  0.00000000E+00  0.00000000E+00
  0.00000000E+00  0.00000000E+00  0.00000000E+00
  0.00000000E+00  0.00000000E+00  0.00000000E+00
  0.00000000E+00  0.00000000E+00  0.00000000E+00
  0.00000000E+00  0.00000000E+00  0.00000000E+00
  0.00000000E+00  0.00000000E+00  0.00000000E+00
  0.00000000E+00  0.00000000E+00  0.00000000E+00
  0.00000000E+00  0.00000000E+00  0.00000000E+00
  0.00000000E+00  0.00000000E+00  0.00000000E+00
  0.00000000E+00  0.00000000E+00  0.00000000E+00
  0.00000000E+00  0.00000000E+00  0.00000000E+00
  0.00000000E+00  0.00000000E+00  0.00000000E+00
  0.00000000E+00  0.00000000E+00  0.00000000E+00
  0.00000000E+00  0.00000000E+00  0.00000000E+00
  0.00000000E+00  0.00000000E+00  0.00000000E+00
  0.00000000E+00  0.00000000E+00  0.00000000E+00
  0.00000000E+00  0.00000000E+00  0.00000000E+00
  0.00000000E+00  0.00000000E+00  0.00000000E+00
  0.00000000E+00  0.00000000E+00  0.00000000E+00
  0.00000000E+00  0.00000000E+00  0.00000000E+00
  0.00000000E+00  0.00000000E+00  0.00000000E+00
  0.00000000E+00  0.00000000E+00  0.00000000E+00
  0.00000000E+00  0.00000000E+00  0.00000000E+00
  0.00000000E+00  0.00000000E+00  0.00000000E+00
  0.00000000E+00  0.00000000E+00  0.00000000E+00
  0.00000000E+00  0.00000000E+00  0.00000000E+00
  0.00000000E+00  0.00000000E+00  0.00000000E+00
  0.00000000E+00  0.00000000E+00  0.00000000E+00
  0.00000000E+00  0.00000000E+00  0.00000000E+00
  0.00000000E+00  0.00000000E+00  0.00000000E+00
  0.00000000E+00  0.00000000E+00  0.00000000E+00
  0.00000000E+00  0.00000000E+00  0.00000000E+00
  0.00000000E+00  0.00000000E+00  0.00000000E+00
  0.00000000E+00  0.00000000E+00  0.00000000E+00
  0.00000000E+00  0.00000000E+00  0.00000000E+00
  0.00000000E+00  0.00000000E+00  0.00000000E+00
  0.00000000E+00  0.00000000E+00  0.00000000E+00
  0.00000000E+00  0.00000000E+00  0.00000000E+00
  0.00000000E+00  0.00000000E+00  0.00000000E+00
  0.00000000E+00  0.00000000E+00  0.00000000E+00
  0.00000000E+00  0.00000000E+00  0.00000000E+00
  0.00000000E+00  0.00000000E+00  0.00000000E+00
  0.00000000E+00  0.00000000E+00  0.00000000E+00
  0.00000000E+00  0.00000000E+00  0.00000000E+00
  0.00000000E+00  0.00000000E+00  0.00000000E+00
  0.00000000E+00  0.00000000E+00  0.00000000E+00
  0.00000000E+00  0.00000000E+00  0.00000000E+00
  0.00000000E+00  0.00000000E+00  0.00000000E+00
  0.00000000E+00  0.00000000E+00  0.00000000E+00
  0.00000000E+00  0.00000000E+00  0.00000000E+00
  0.00000000E+00  0.00000000E+00  0.00000000E+00
  0.00000000E+00  0.00000000E+00  0.00000000E+00
  0.00000000E+00  0.00000000E+00  0.00000000E+00
  0.00000000E+00  0.00000000E+00  0.00000000E+00
  0.00000000E+00  0.00000000E+00  0.00000000E+00
  0.00000000E+00  0.00000000E+00  0.00000000E+00
  0.00000000E+00  0.00000000E+00  0.00000000E+00
  0.00000000E+00  0.00000000E+00  0.00000000E+00
  0.00000000E+00  0.00000000E+00  0.00000000E+00
  0.00000000E+00  0.00000000E+00  0.00000000E+00
  0.00000000E+00  0.00000000E+00  0.00000000E+00
  0.00000000E+00  0.00000000E+00  0.00000000E+00
  0.00000000E+00  0.00000000E+00  0.00000000E+00
  0.00000000E+00  0.00000000E+00  0.00000000E+00
  0.00000000E+00  0.00000000E+00  0.00000000E+00
  0.00000000E+00  0.00000000E+00  0.00000000E+00
  0.00000000E+00  0.00000000E+00  0.00000000E+00
  0.00000000E+00  0.00000000E+00  0.00000000E+00
  0.00000000E+00  0.00000000E+00  0.00000000E+00
  0.00000000E+00  0.00000000E+00  0.00000000E+00
  0.00000000E+00  0.00000000E+00  0.00000000E+00
  0.00000000E+00  0.00000000E+00  0.00000000E+00
  0.00000000E+00  0.00000000E+00  0.00000000E+00
  0.00000000E+00  0.00000000E+00  0.00000000E+00
  0.00000000E+00  0.00000000E+00  0.00000000E+00
  0.00000000E+00  0.00000000E+00  0.00000000E+00
  0.00000000E+00  0.00000000E+00  0.00000000E+00
  0.00000000E+00  0.00000000E+00  0.00000000E+00
  0.00000000E+00  0.00000000E+00  0.00000000E+00
  0.00000000E+00  0.00000000E+00  0.00000000E+00
  0.00000000E+00  0.00000000E+00  0.00000000E+00
  0.00000000E+00  0.00000000E+00  0.00000000E+00
  0.00000000E+00  0.00000000E+00  0.00000000E+00
  0.00000000E+00  0.00000000E+00  0.00000000E+00
  0.00000000E+00  0.00000000E+00  0.00000000E+00
  0.00000000E+00  0.00000000E+00  0.00000000E+00
  0.00000000E+00  0.00000000E+00  0.00000000E+00
  0.00000000E+00  0.00000000E+00  0.00000000E+00
  0.00000000E+00  0.00000000E+00  0.00000000E+00
  0.00000000E+00  0.00000000E+00  0.00000000E+00
  0.00000000E+00  0.00000000E+00  0.00000000E+00
  0.00000000E+00  0.00000000E+00  0.00000000E+00
  0.00000000E+00  0.00000000E+00  0.00000000E+00
  0.00000000E+00  0.00000000E+00  0.00000000E+00
  0.00000000E+00  0.00000000E+00  0.00000000E+00
  0.00000000E+00  0.00000000E+00  0.00000000E+00
  0.00000000E+00  0.00000000E+00  0.00000000E+00
  0.00000000E+00  0.00000000E+00  0.00000000E+00
  0.00000000E+00  0.00000000E+00  0.00000000E+00
  0.00000000E+00  0.00000000E+00  0.00000000E+00
  0.00000000E+00  0.00000000E+00  0.00000000E+00
  0.00000000E+00  0.00000000E+00  0.00000000E+00
  0.00000000E+00  0.00000000E+00  0.00000000E+00
  0.00000000E+00  0.00000000E+00  0.00000000E+00
  0.00000000E+00  0.00000000E+00  0.00000000E+00
  0.00000000E+00  0.00000000E+00  0.00000000E+00
  0.00000000E+00  0.00000000E+00  0.00000000E+00
  0.00000000E+00  0.00000000E+00  0.00000000E+00
  0.00000000E+00  0.00000000E+00  0.00000000E+00
  0.00000000E+00  0.00000000E+00  0.00000000E+00
  0.00000000E+00  0.00000000E+00  0.00000000E+00