Species order: X N B                    
   2.51242800000000     
     5.9449720136058266    0.0000000000000000    0.0000000000000000
    -2.9724860068029120    5.1484967885702053   -0.0000000000000001
     0.0000000000000000    0.0000000000000009    5.3101128803662583
   Se   N    B 
     1   143   143
Direct
  0.4934703328857930  0.4134018331095600  0.3750000000000000
  0.1110859563039256  0.0555226265257989  0.1252197184587541
  0.6110376765616566  0.5555101596116692  0.1249481439567052
  0.4444304763558120  0.0555328675618414  0.1252067076168134
  0.9444186911746922  0.5555526241415888  0.1251979983778126
  0.7777715247925095  0.0555524290629229  0.1250871978193871
  0.1110961193926565  0.7222147263629927  0.6248882034637194
  0.4444304763558120  0.7222309421273061  0.6247932923831859
  0.2777214590974572  0.2221859417150312  0.6250645108243904
  0.7777303623956442  0.7221787669085883  0.6246669707775323
  0.6110774299351400  0.2222025654996978  0.6247520874536217
  0.9444301978723086  0.2222262719071516  0.6248710955349415
  0.2777675929583739  0.7222263420297709  0.1251301220015696
  0.1110778918368089  0.2222056125850687  0.1251874942074884
  0.4444153698432179  0.2221921085858490  0.1249367969375620
  0.6110774299351400  0.7222081977687711  0.1252479125463787
  0.9444186911746926  0.7221994003664391  0.1251979983778126
  0.7777612589985657  0.2222240153700281  0.1251427714590458
  0.1110935049813600  0.8888635756725021  0.6248740108591616
  0.4444381931128045  0.8888857632230664  0.6248771236436564
  0.2777214590974572  0.3888688507157546  0.6250645108243904
  0.6110376765616566  0.3888608502833150  0.6250518560432954
  0.7777612589985657  0.8888705769618662  0.6248572285409534
  0.9444220142232753  0.3889003085894155  0.6248376826544525
  0.1110859563039255  0.3888966631114557  0.1252197184587541
  0.2777675929583739  0.8888745842619328  0.1251301220015696
  0.6111016850411176  0.8888894627750492  0.1251139701210657
  0.4442971733546182  0.3888152533439733  0.1230830047170259
  0.9444220142232753  0.8888550389671882  0.1251623173455473
  0.7777303623956442  0.3888849288203855  0.1253330292224684
  0.2777568372902221  0.5555631300076113  0.6248156689039857
  0.1110859563039256  0.0555226265257989  0.6247802815412458
  0.6110376765616566  0.5555101596116692  0.6250518560432954
  0.4444304763558120  0.0555328675618414  0.6247932923831859
  0.9444186911746926  0.5555526241415888  0.6248020016221869
  0.1110935049813600  0.5555632626421874  0.1251259891408396
  0.7777715247925095  0.0555524290629229  0.6249128021806127
  0.2777568372902221  0.0555270406159468  0.1251843310960130
  0.4444153698432179  0.5555565945907036  0.1249367969375620
  0.7777273333711522  0.5555303333522420  0.1253647241302979
  0.6111016850411176  0.0555455555993967  0.1251139701210657
  0.4444153698432179  0.5555565945907036  0.6250632030624381
  0.9444301978723086  0.0555372592984930  0.1251289044650583
  0.2777675929583739  0.7222263420297709  0.6248698779984293
  0.1110778918368089  0.2222056125850687  0.6248125057925110
  0.4444153698432179  0.2221921085858490  0.6250632030624381
  0.6110774299351400  0.7222081977687711  0.6247520874536217
  0.9444186911746926  0.7221994003664391  0.6248020016221869
  0.7777612589985657  0.2222240153700281  0.6248572285409534
  0.1110961193926565  0.7222147263629927  0.1251117965362807
  0.4444304763558120  0.7222309421273061  0.1252067076168134
  0.2777214590974572  0.2221859417150312  0.1249354891756090
  0.7777303623956442  0.7221787669085883  0.1253330292224684
  0.6110774299351400  0.2222025654996978  0.1252479125463787
  0.9444301978723086  0.2222262719071516  0.1251289044650583
  0.1110859563039255  0.3888966631114557  0.6247802815412458
  0.2777675929583739  0.8888745842619328  0.6248698779984293
  0.6111016850411176  0.8888894627750492  0.6248860298789350
  0.4442971733546182  0.3888152533439733  0.6269169952829745
  0.9444220142232753  0.8888550389671882  0.6248376826544525
  0.1110935049813600  0.8888635756725021  0.1251259891408396
  0.7777303623956442  0.3888849288203855  0.6246669707775323
  0.4444381931128045  0.8888857632230664  0.1251228763563435
  0.2777214590974572  0.3888688507157546  0.1249354891756090
  0.2777568372902221  0.5555631300076113  0.1251843310960130
  0.6110376765616566  0.3888608502833150  0.1249481439567052
  0.7777612589985657  0.8888705769618662  0.1251427714590458
  0.9444220142232753  0.3889003085894155  0.1251623173455473
  0.1110935049813600  0.5555632626421874  0.6248740108591616
  0.2777568372902221  0.0555270406159468  0.6248156689039857
  0.7777273333711522  0.5555303333522420  0.6246352758697018
  0.6111016850411176  0.0555455555993967  0.6248860298789350
  0.9444301978723086  0.0555372592984930  0.6248710955349415
  0.0573428958689367  0.1122629506316768  0.3750000000000000
  0.5537465005570005  0.6179085137583441  0.3750000000000000
  0.3868155324705937  0.1057335105109623  0.3750000000000000
  0.8843784037807723  0.6088558685570573  0.3750000000000000
  0.7227313761869775  0.1106334145002775  0.3750000000000000
  0.0555609082808033  0.7777830956137931  0.8750000000000000
  0.3889025237316868  0.7777845447400116  0.8750000000000000
  0.2222299832713140  0.2777816583023247  0.8750000000000000
  0.7222325431742230  0.7777831975087299  0.8750000000000000
  0.5555677848141592  0.2777866700429966  0.8750000000000000
  0.8888991572622330  0.2777813117608142  0.8750000000000000
  0.2193447189798829  0.7763390261566084  0.3750000000000000
  0.0573428958689367  0.2784132785705952  0.3750000000000000
  0.3922108484404205  0.2727590227066734  0.3750000000000000
  0.5546808465382153  0.7806663742686184  0.3750000000000000
  0.8867932482946576  0.7770639582394067  0.3750000000000000
  0.7220290369670195  0.2758418965290770  0.3750000000000000
  0.0555614893155771  0.9444502561797011  0.8750000000000000
  0.3889025237316868  0.9444513123250113  0.8750000000000000
  0.2222290694227869  0.4444469545002937  0.8750000000000000
  0.5555720806241606  0.4444527069787446  0.8750000000000000
  0.7222318316816705  0.9444495692659823  0.8750000000000000
  0.8888976137930319  0.4444456999962714  0.8750000000000000
  0.0551080621160077  0.4440048472954972  0.3750000000000000
  0.2198506814044894  0.9423647757857551  0.3750000000000000
  0.5547966391061337  0.9440649862197311  0.3750000000000000
  0.3922108484404206  0.4527851590670831  0.3750000000000000
  0.8895552076252403  0.9454186260278519  0.3750000000000000
  0.7176278390590459  0.4417124412532275  0.3750000000000000
  0.2222297984987657  0.6111133320596397  0.8750000000000000
  0.0555631092546917  0.1111151823953984  0.8750000000000000
  0.5555677848141592  0.6111144481044992  0.8750000000000000
  0.3889002416101330  0.1111179426332411  0.8750000000000000
  0.8888975883337658  0.6111154608335535  0.8750000000000000
  0.0524022244545475  0.6096954186064423  0.3750000000000000
  0.7222318316816705  0.1111155957490239  0.8750000000000000
  0.2238103585656107  0.1117518446040814  0.3750000000000000
  0.3868155324705937  0.6144153552929730  0.3750000000000000
  0.7176278390590459  0.6092487311391546  0.3750000000000000
  0.5546808465382153  0.1073478056029332  0.3750000000000000
  0.3889002416101330  0.6111156323102350  0.8750000000000000
  0.8902258055390395  0.1117795694361918  0.3750000000000000
  0.2222303827933696  0.7777818580633523  0.8750000000000000
  0.0555631092546917  0.2777812601926289  0.8750000000000000
  0.3888984668116047  0.2777797974322905  0.8750000000000000
  0.5555670340716519  0.7777826561336022  0.8750000000000000
  0.8888976137930319  0.7777852471300972  0.8750000000000000
  0.7222325431742230  0.2777826789988283  0.8750000000000000
  0.0524022244545475  0.7760401391814424  0.3750000000000000
  0.3868206930464003  0.7780923619866148  0.3750000000000000
  0.2256580736235648  0.2794957034784509  0.3750000000000000
  0.7220290369670195  0.7795204737712779  0.3750000000000000
  0.5537465005570005  0.2691713201319911  0.3750000000000000
  0.8895552076252403  0.2774699149307239  0.3750000000000000
  0.0555614893155771  0.4444445664692048  0.8750000000000000
  0.2222297984987657  0.9444497997724620  0.8750000000000000
  0.5555669302305054  0.9444501317819171  0.8750000000000000
  0.3888984668116047  0.4444520027126503  0.8750000000000000
  0.8888991572622330  0.9444511788347534  0.8750000000000000
  0.0551080621160077  0.9444365481538392  0.3750000000000000
  0.7222332496249607  0.4444501025195999  0.8750000000000000
  0.3868206930464004  0.9420616643931211  0.3750000000000000
  0.2238103585656108  0.4453918472948649  0.3750000000000000
  0.2198506814044894  0.6108192389520712  0.3750000000000000
  0.7227313761869775  0.9454312950200360  0.3750000000000000
  0.8867932482946576  0.4430626233885865  0.3750000000000000
  0.0555609082808033  0.6111111460003459  0.8750000000000000
  0.2222290694227869  0.1111154482558286  0.8750000000000000
  0.7222332496249607  0.6111164804386973  0.8750000000000000
  0.5555670340716519  0.1111177112713847  0.8750000000000000
  0.8888990591347138  0.1111161962340284  0.8750000000000000
  0.1119769469207391  0.0560383757020030  0.3750000000000000
  0.6105514640772878  0.5685828379006814  0.3750000000000000
  0.4432744764118718  0.0517560116811862  0.3750000000000000
  0.9415440596409811  0.5541352767725350  0.3750000000000000
  0.7791212977848532  0.0562273155590939  0.3750000000000000
  0.1111262047418363  0.7222297690375827  0.8750000000000000
  0.4444473777835455  0.7222355807034970  0.8750000000000000
  0.2777587126331639  0.2222095500440935  0.8750000000000000
  0.7778097789724030  0.7222599002374982  0.8750000000000000
  0.6111251767778935  0.2222065379365430  0.8750000000000000
  0.9444574282547478  0.2222205616470809  0.8750000000000000
  0.2754815353360697  0.7217630232766988  0.3750000000000000
  0.1134431415043478  0.2233882374188381  0.3750000000000000
  0.4428233653212355  0.2143185930203307  0.3750000000000000
  0.6117921537372377  0.7287505213459287  0.3750000000000000
  0.9415440596409811  0.7207421162017804  0.3750000000000000
  0.7788211081491183  0.2212309405249469  0.3750000000000000
  0.1111217709702405  0.8888997920349797  0.8750000000000000
  0.4444542079093124  0.8888937706213211  0.8750000000000000
  0.2777587126331639  0.3888824959223987  0.8750000000000000
  0.6111220071832303  0.3888870572674677  0.8750000000000000
  0.7778026866851974  0.8889224017714759  0.8750000000000000
  0.9444662447786950  0.3888823499323641  0.8750000000000000
  0.1119769469207391  0.3892719045520648  0.3750000000000000
  0.2754815353360697  0.8870518453926984  0.3750000000000000
  0.6115745837877675  0.8909255089520546  0.3750000000000000
  0.9440235109539924  0.8891430515806212  0.3750000000000000
  0.7764425896561759  0.3864319793043615  0.3750000000000000
  0.2777694260003096  0.5555572153990828  0.8750000000000000
  0.1111087286469995  0.0555586967433459  0.8750000000000000
  0.6111220071832303  0.5555682832490898  0.8750000000000000
  0.4444473777835455  0.0555451304133834  0.8750000000000000
  0.9444757156486353  0.5555618377896471  0.8750000000000000
  0.1089194564305930  0.5549177337360645  0.3750000000000000
  0.7777985090611601  0.0555659211972481  0.8750000000000000
  0.2760011639793775  0.0528853806188635  0.3750000000000000
  0.4428233653212355  0.5618381056342393  0.3750000000000000
  0.7738752642295984  0.5536042987814674  0.3750000000000000
  0.6115745837877675  0.0539824081690409  0.3750000000000000
  0.4444324391953205  0.5555607934924666  0.8750000000000000
  0.9460040365030205  0.0566815188562474  0.3750000000000000
  0.2777829184332886  0.7222274840870689  0.8750000000000000
  0.1111030026385021  0.2222181679859153  0.8750000000000000
  0.4444324391953205  0.2222049790361911  0.8750000000000000
  0.6111251767778935  0.7222519721746783  0.8750000000000000
  0.9444757156486353  0.7222472111923229  0.8750000000000000
  0.7778026866851974  0.2222136182470516  0.8750000000000000
  0.1082486469012887  0.7207909901173083  0.3750000000000000
  0.4432744764118718  0.7248517980640214  0.3750000000000000
  0.2803236130598824  0.2234917937731124  0.3750000000000000
  0.7764425896561759  0.7233439436851439  0.3750000000000000
  0.6117921537372377  0.2163749657246379  0.3750000000000000
  0.9460040365030205  0.2226558509801089  0.3750000000000000
  0.1111087286469995  0.3888833652369818  0.8750000000000000
  0.2777829184332886  0.8888887676795494  0.8750000000000000
  0.6111270269111099  0.8889085974691850  0.8750000000000000
  0.4444296579518605  0.3888814956425942  0.8750000000000000
  0.9444662447786950  0.8889172281796593  0.8750000000000000
  0.1089194564305930  0.8873350560278557  0.3750000000000000
  0.7778097789724030  0.3888832120682332  0.8750000000000000
  0.4433481558650955  0.8883407445992125  0.3750000000000000
  0.2803236130598825  0.3901651526200989  0.3750000000000000
  0.2760011639793775  0.5564491166938489  0.3750000000000000
  0.6105514640772878  0.3753019595099338  0.3750000000000000
  0.7788211081491183  0.8909235009574996  0.3750000000000000
  0.9440235109539924  0.3882137927067006  0.3750000000000000
  0.1111217709702405  0.5555553122685875  0.8750000000000000
  0.2777694260003096  0.0555455439345631  0.8750000000000000
  0.7778141344216623  0.5555737338774992  0.8750000000000000
  0.6111270269111099  0.0555517627752527  0.8750000000000000
  0.9444574282547478  0.0555701999410014  0.8750000000000000
  0.0555253367910758  0.1110825977620827  0.1249535208034391
  0.5554616085849827  0.6111565633206149  0.1244013832838444
  0.3888027035889596  0.1109814681356120  0.1248231001022766
  0.8889782074507373  0.6111557703920392  0.1248872694845372
  0.7222192230411464  0.1110783630764311  0.1248606336903497
  0.0556024486500620  0.7777911682401361  0.6251019341622136
  0.3888402147555858  0.7777957583750421  0.6250839780137041
  0.2221236297574160  0.2777284815453758  0.6253139989459322
  0.7222322573214816  0.7778513605941906  0.6251686951795373
  0.5554616085849827  0.2776383785977036  0.6255986167161557
  0.8889096174052541  0.2777768596219323  0.6251044159608541
  0.2222150441431635  0.7777741887382492  0.1249084147751588
  0.0555253367910758  0.2777760723623290  0.1249535208034391
  0.3887359695062917  0.2776706325886579  0.1238509763246694
  0.5555035709353230  0.7778406591954325  0.1248549675446489
  0.8889505229077475  0.7778199712954926  0.1249043463584809
  0.7222322573214816  0.2777142300606275  0.1248313048204629
  0.0555607120388509  0.9444214471178837  0.6250581241122074
  0.3888402147555858  0.9443777897138794  0.6250839780137041
  0.2221467825892172  0.4444571188250773  0.6251028493250620
  0.5553647211695213  0.4443490272514249  0.6262850896820988
  0.7222192230411464  0.9444741932980505  0.6251393663096496
  0.8889505229077475  0.4444638849455915  0.6250956536415195
  0.0555607120388509  0.4444725982542955  0.1249418758877926
  0.2221946956925089  0.9443859081877690  0.1249274367623383
  0.5555209322562731  0.9444271327948003  0.1248695722595039
  0.3887359695062917  0.4443986702509696  0.1238509763246694
  0.8889096174052541  0.9444660911166564  0.1248955840391470
  0.7222348647932826  0.4444259014153080  0.1246254710158704
  0.2221946956925089  0.6111421208380746  0.6250725632376612
  0.0555253367910758  0.1110825977620827  0.6250464791965621
  0.5554616085849827  0.6111565633206149  0.6255986167161557
  0.3888027035889596  0.1109814681356120  0.6251768998977238
  0.8889782074507373  0.6111557703920392  0.6251127305154630
  0.0556024486500620  0.6111446137432616  0.1248980658377868
  0.7222192230411464  0.1110783630764311  0.6251393663096496
  0.2221467825892172  0.1110229970974752  0.1248971506749390
  0.3888027035889596  0.6111545687866903  0.1248231001022766
  0.7222348647932826  0.6111422967113108  0.1246254710158704
  0.5555035709353230  0.1109962450732244  0.1248549675446489
  0.3888027035889596  0.6111545687866903  0.6251768998977238
  0.8888915818759481  0.1111124576046450  0.1248976694623890
  0.2222150441431635  0.7777741887382492  0.6250915852248419
  0.0555253367910758  0.2777760723623290  0.6250464791965621
  0.3887359695062917  0.2776706325886579  0.6261490236753307
  0.5555035709353230  0.7778406591954325  0.6251450324553514
  0.8889505229077475  0.7778199712954926  0.6250956536415195
  0.7222322573214816  0.2777142300606275  0.6251686951795373
  0.0556024486500620  0.7777911682401361  0.1248980658377868
  0.3888402147555858  0.7777957583750421  0.1249160219862963
  0.2221236297574160  0.2777284815453758  0.1246860010540671
  0.7222322573214816  0.7778513605941906  0.1248313048204629
  0.5554616085849827  0.2776383785977036  0.1244013832838444
  0.8889096174052541  0.2777768596219323  0.1248955840391470
  0.0555607120388509  0.4444725982542955  0.6250581241122074
  0.2221946956925089  0.9443859081877690  0.6250725632376612
  0.5555209322562731  0.9444271327948003  0.6251304277404965
  0.3887359695062917  0.4443986702509696  0.6261490236753307
  0.8889096174052541  0.9444660911166564  0.6251044159608541
  0.0555607120388509  0.9444214471178837  0.1249418758877926
  0.7222348647932826  0.4444259014153080  0.6253745289841287
  0.3888402147555858  0.9443777897138794  0.1249160219862963
  0.2221467825892172  0.4444571188250773  0.1248971506749390
  0.2221946956925089  0.6111421208380746  0.1249274367623383
  0.5553647211695213  0.4443490272514249  0.1237149103179015
  0.7222192230411464  0.9444741932980505  0.1248606336903497
  0.8889505229077475  0.4444638849455915  0.1249043463584809
  0.0556024486500620  0.6111446137432616  0.6251019341622136
  0.2221467825892172  0.1110229970974752  0.6251028493250620
  0.7222348647932826  0.6111422967113108  0.6253745289841287
  0.5555035709353230  0.1109962450732244  0.6251450324553514
  0.8888915818759481  0.1111124576046450  0.6251023305376100
 
  0.00000000E+00  0.00000000E+00  0.00000000E+00
  0.00000000E+00  0.00000000E+00  0.00000000E+00
  0.00000000E+00  0.00000000E+00  0.00000000E+00
  0.00000000E+00  0.00000000E+00  0.00000000E+00
  0.00000000E+00  0.00000000E+00  0.00000000E+00
  0.00000000E+00  0.00000000E+00  0.00000000E+00
  0.00000000E+00  0.00000000E+00  0.00000000E+00
  0.00000000E+00  0.00000000E+00  0.00000000E+00
  0.00000000E+00  0.00000000E+00  0.00000000E+00
  0.00000000E+00  0.00000000E+00  0.00000000E+00
  0.00000000E+00  0.00000000E+00  0.00000000E+00
  0.00000000E+00  0.00000000E+00  0.00000000E+00
  0.00000000E+00  0.00000000E+00  0.00000000E+00
  0.00000000E+00  0.00000000E+00  0.00000000E+00
  0.00000000E+00  0.00000000E+00  0.00000000E+00
  0.00000000E+00  0.00000000E+00  0.00000000E+00
  0.00000000E+00  0.00000000E+00  0.00000000E+00
  0.00000000E+00  0.00000000E+00  0.00000000E+00
  0.00000000E+00  0.00000000E+00  0.00000000E+00
  0.00000000E+00  0.00000000E+00  0.00000000E+00
  0.00000000E+00  0.00000000E+00  0.00000000E+00
  0.00000000E+00  0.00000000E+00  0.00000000E+00
  0.00000000E+00  0.00000000E+00  0.00000000E+00
  0.00000000E+00  0.00000000E+00  0.00000000E+00
  0.00000000E+00  0.00000000E+00  0.00000000E+00
  0.00000000E+00  0.00000000E+00  0.00000000E+00
  0.00000000E+00  0.00000000E+00  0.00000000E+00
  0.00000000E+00  0.00000000E+00  0.00000000E+00
  0.00000000E+00  0.00000000E+00  0.00000000E+00
  0.00000000E+00  0.00000000E+00  0.00000000E+00
  0.00000000E+00  0.00000000E+00  0.00000000E+00
  0.00000000E+00  0.00000000E+00  0.00000000E+00
  0.00000000E+00  0.00000000E+00  0.00000000E+00
  0.00000000E+00  0.00000000E+00  0.00000000E+00
  0.00000000E+00  0.00000000E+00  0.00000000E+00
  0.00000000E+00  0.00000000E+00  0.00000000E+00
  0.00000000E+00  0.00000000E+00  0.00000000E+00
  0.00000000E+00  0.00000000E+00  0.00000000E+00
  0.00000000E+00  0.00000000E+00  0.00000000E+00
  0.00000000E+00  0.00000000E+00  0.00000000E+00
  0.00000000E+00  0.00000000E+00  0.00000000E+00
  0.00000000E+00  0.00000000E+00  0.00000000E+00
  0.00000000E+00  0.00000000E+00  0.00000000E+00
  0.00000000E+00  0.00000000E+00  0.00000000E+00
  0.00000000E+00  0.00000000E+00  0.00000000E+00
  0.00000000E+00  0.00000000E+00  0.00000000E+00
  0.00000000E+00  0.00000000E+00  0.00000000E+00
  0.00000000E+00  0.00000000E+00  0.00000000E+00
  0.00000000E+00  0.00000000E+00  0.00000000E+00
  0.00000000E+00  0.00000000E+00  0.00000000E+00
  0.00000000E+00  0.00000000E+00  0.00000000E+00
  0.00000000E+00  0.00000000E+00  0.00000000E+00
  0.00000000E+00  0.00000000E+00  0.00000000E+00
  0.00000000E+00  0.00000000E+00  0.00000000E+00
  0.00000000E+00  0.00000000E+00  0.00000000E+00
  0.00000000E+00  0.00000000E+00  0.00000000E+00
  0.00000000E+00  0.00000000E+00  0.00000000E+00
  0.00000000E+00  0.00000000E+00  0.00000000E+00
  0.00000000E+00  0.00000000E+00  0.00000000E+00
  0.00000000E+00  0.00000000E+00  0.00000000E+00
  0.00000000E+00  0.00000000E+00  0.00000000E+00
  0.00000000E+00  0.00000000E+00  0.00000000E+00
  0.00000000E+00  0.00000000E+00  0.00000000E+00
  0.00000000E+00  0.00000000E+00  0.00000000E+00
  0.00000000E+00  0.00000000E+00  0.00000000E+00
  0.00000000E+00  0.00000000E+00  0.00000000E+00
  0.00000000E+00  0.00000000E+00  0.00000000E+00
  0.00000000E+00  0.00000000E+00  0.00000000E+00
  0.00000000E+00  0.00000000E+00  0.00000000E+00
  0.00000000E+00  0.00000000E+00  0.00000000E+00
  0.00000000E+00  0.00000000E+00  0.00000000E+00
  0.00000000E+00  0.00000000E+00  0.00000000E+00
  0.00000000E+00  0.00000000E+00  0.00000000E+00
  0.00000000E+00  0.00000000E+00  0.00000000E+00
  0.00000000E+00  0.00000000E+00  0.00000000E+00
  0.00000000E+00  0.00000000E+00  0.00000000E+00
  0.00000000E+00  0.00000000E+00  0.00000000E+00
  0.00000000E+00  0.00000000E+00  0.00000000E+00
  0.00000000E+00  0.00000000E+00  0.00000000E+00
  0.00000000E+00  0.00000000E+00  0.00000000E+00
  0.00000000E+00  0.00000000E+00  0.00000000E+00
  0.00000000E+00  0.00000000E+00  0.00000000E+00
  0.00000000E+00  0.00000000E+00  0.00000000E+00
  0.00000000E+00  0.00000000E+00  0.00000000E+00
  0.00000000E+00  0.00000000E+00  0.00000000E+00
  0.00000000E+00  0.00000000E+00  0.00000000E+00
  0.00000000E+00  0.00000000E+00  0.00000000E+00
  0.00000000E+00  0.00000000E+00  0.00000000E+00
  0.00000000E+00  0.00000000E+00  0.00000000E+00
  0.00000000E+00  0.00000000E+00  0.00000000E+00
  0.00000000E+00  0.00000000E+00  0.00000000E+00
  0.00000000E+00  0.00000000E+00  0.00000000E+00
  0.00000000E+00  0.00000000E+00  0.00000000E+00
  0.00000000E+00  0.00000000E+00  0.00000000E+00
  0.00000000E+00  0.00000000E+00  0.00000000E+00
  0.00000000E+00  0.00000000E+00  0.00000000E+00
  0.00000000E+00  0.00000000E+00  0.00000000E+00
  0.00000000E+00  0.00000000E+00  0.00000000E+00
  0.00000000E+00  0.00000000E+00  0.00000000E+00
  0.00000000E+00  0.00000000E+00  0.00000000E+00
  0.00000000E+00  0.00000000E+00  0.00000000E+00
  0.00000000E+00  0.00000000E+00  0.00000000E+00
  0.00000000E+00  0.00000000E+00  0.00000000E+00
  0.00000000E+00  0.00000000E+00  0.00000000E+00
  0.00000000E+00  0.00000000E+00  0.00000000E+00
  0.00000000E+00  0.00000000E+00  0.00000000E+00
  0.00000000E+00  0.00000000E+00  0.00000000E+00
  0.00000000E+00  0.00000000E+00  0.00000000E+00
  0.00000000E+00  0.00000000E+00  0.00000000E+00
  0.00000000E+00  0.00000000E+00  0.00000000E+00
  0.00000000E+00  0.00000000E+00  0.00000000E+00
  0.00000000E+00  0.00000000E+00  0.00000000E+00
  0.00000000E+00  0.00000000E+00  0.00000000E+00
  0.00000000E+00  0.00000000E+00  0.00000000E+00
  0.00000000E+00  0.00000000E+00  0.00000000E+00
  0.00000000E+00  0.00000000E+00  0.00000000E+00
  0.00000000E+00  0.00000000E+00  0.00000000E+00
  0.00000000E+00  0.00000000E+00  0.00000000E+00
  0.00000000E+00  0.00000000E+00  0.00000000E+00
  0.00000000E+00  0.00000000E+00  0.00000000E+00
  0.00000000E+00  0.00000000E+00  0.00000000E+00
  0.00000000E+00  0.00000000E+00  0.00000000E+00
  0.00000000E+00  0.00000000E+00  0.00000000E+00
  0.00000000E+00  0.00000000E+00  0.00000000E+00
  0.00000000E+00  0.00000000E+00  0.00000000E+00
  0.00000000E+00  0.00000000E+00  0.00000000E+00
  0.00000000E+00  0.00000000E+00  0.00000000E+00
  0.00000000E+00  0.00000000E+00  0.00000000E+00
  0.00000000E+00  0.00000000E+00  0.00000000E+00
  0.00000000E+00  0.00000000E+00  0.00000000E+00
  0.00000000E+00  0.00000000E+00  0.00000000E+00
  0.00000000E+00  0.00000000E+00  0.00000000E+00
  0.00000000E+00  0.00000000E+00  0.00000000E+00
  0.00000000E+00  0.00000000E+00  0.00000000E+00
  0.00000000E+00  0.00000000E+00  0.00000000E+00
  0.00000000E+00  0.00000000E+00  0.00000000E+00
  0.00000000E+00  0.00000000E+00  0.00000000E+00
  0.00000000E+00  0.00000000E+00  0.00000000E+00
  0.00000000E+00  0.00000000E+00  0.00000000E+00
  0.00000000E+00  0.00000000E+00  0.00000000E+00
  0.00000000E+00  0.00000000E+00  0.00000000E+00
  0.00000000E+00  0.00000000E+00  0.00000000E+00
  0.00000000E+00  0.00000000E+00  0.00000000E+00
  0.00000000E+00  0.00000000E+00  0.00000000E+00
  0.00000000E+00  0.00000000E+00  0.00000000E+00
  0.00000000E+00  0.00000000E+00  0.00000000E+00
  0.00000000E+00  0.00000000E+00  0.00000000E+00
  0.00000000E+00  0.00000000E+00  0.00000000E+00
  0.00000000E+00  0.00000000E+00  0.00000000E+00
  0.00000000E+00  0.00000000E+00  0.00000000E+00
  0.00000000E+00  0.00000000E+00  0.00000000E+00
  0.00000000E+00  0.00000000E+00  0.00000000E+00
  0.00000000E+00  0.00000000E+00  0.00000000E+00
  0.00000000E+00  0.00000000E+00  0.00000000E+00
  0.00000000E+00  0.00000000E+00  0.00000000E+00
  0.00000000E+00  0.00000000E+00  0.00000000E+00
  0.00000000E+00  0.00000000E+00  0.00000000E+00
  0.00000000E+00  0.00000000E+00  0.00000000E+00
  0.00000000E+00  0.00000000E+00  0.00000000E+00
  0.00000000E+00  0.00000000E+00  0.00000000E+00
  0.00000000E+00  0.00000000E+00  0.00000000E+00
  0.00000000E+00  0.00000000E+00  0.00000000E+00
  0.00000000E+00  0.00000000E+00  0.00000000E+00
  0.00000000E+00  0.00000000E+00  0.00000000E+00
  0.00000000E+00  0.00000000E+00  0.00000000E+00
  0.00000000E+00  0.00000000E+00  0.00000000E+00
  0.00000000E+00  0.00000000E+00  0.00000000E+00
  0.00000000E+00  0.00000000E+00  0.00000000E+00
  0.00000000E+00  0.00000000E+00  0.00000000E+00
  0.00000000E+00  0.00000000E+00  0.00000000E+00
  0.00000000E+00  0.00000000E+00  0.00000000E+00
  0.00000000E+00  0.00000000E+00  0.00000000E+00
  0.00000000E+00  0.00000000E+00  0.00000000E+00
  0.00000000E+00  0.00000000E+00  0.00000000E+00
  0.00000000E+00  0.00000000E+00  0.00000000E+00
  0.00000000E+00  0.00000000E+00  0.00000000E+00
  0.00000000E+00  0.00000000E+00  0.00000000E+00
  0.00000000E+00  0.00000000E+00  0.00000000E+00
  0.00000000E+00  0.00000000E+00  0.00000000E+00
  0.00000000E+00  0.00000000E+00  0.00000000E+00
  0.00000000E+00  0.00000000E+00  0.00000000E+00
  0.00000000E+00  0.00000000E+00  0.00000000E+00
  0.00000000E+00  0.00000000E+00  0.00000000E+00
  0.00000000E+00  0.00000000E+00  0.00000000E+00
  0.00000000E+00  0.00000000E+00  0.00000000E+00
  0.00000000E+00  0.00000000E+00  0.00000000E+00
  0.00000000E+00  0.00000000E+00  0.00000000E+00
  0.00000000E+00  0.00000000E+00  0.00000000E+00
  0.00000000E+00  0.00000000E+00  0.00000000E+00
  0.00000000E+00  0.00000000E+00  0.00000000E+00
  0.00000000E+00  0.00000000E+00  0.00000000E+00
  0.00000000E+00  0.00000000E+00  0.00000000E+00
  0.00000000E+00  0.00000000E+00  0.00000000E+00
  0.00000000E+00  0.00000000E+00  0.00000000E+00
  0.00000000E+00  0.00000000E+00  0.00000000E+00
  0.00000000E+00  0.00000000E+00  0.00000000E+00
  0.00000000E+00  0.00000000E+00  0.00000000E+00
  0.00000000E+00  0.00000000E+00  0.00000000E+00
  0.00000000E+00  0.00000000E+00  0.00000000E+00
  0.00000000E+00  0.00000000E+00  0.00000000E+00
  0.00000000E+00  0.00000000E+00  0.00000000E+00
  0.00000000E+00  0.00000000E+00  0.00000000E+00
  0.00000000E+00  0.00000000E+00  0.00000000E+00
  0.00000000E+00  0.00000000E+00  0.00000000E+00
  0.00000000E+00  0.00000000E+00  0.00000000E+00
  0.00000000E+00  0.00000000E+00  0.00000000E+00
  0.00000000E+00  0.00000000E+00  0.00000000E+00
  0.00000000E+00  0.00000000E+00  0.00000000E+00
  0.00000000E+00  0.00000000E+00  0.00000000E+00
  0.00000000E+00  0.00000000E+00  0.00000000E+00
  0.00000000E+00  0.00000000E+00  0.00000000E+00
  0.00000000E+00  0.00000000E+00  0.00000000E+00
  0.00000000E+00  0.00000000E+00  0.00000000E+00
  0.00000000E+00  0.00000000E+00  0.00000000E+00
  0.00000000E+00  0.00000000E+00  0.00000000E+00
  0.00000000E+00  0.00000000E+00  0.00000000E+00
  0.00000000E+00  0.00000000E+00  0.00000000E+00
  0.00000000E+00  0.00000000E+00  0.00000000E+00
  0.00000000E+00  0.00000000E+00  0.00000000E+00
  0.00000000E+00  0.00000000E+00  0.00000000E+00
  0.00000000E+00  0.00000000E+00  0.00000000E+00
  0.00000000E+00  0.00000000E+00  0.00000000E+00
  0.00000000E+00  0.00000000E+00  0.00000000E+00
  0.00000000E+00  0.00000000E+00  0.00000000E+00
  0.00000000E+00  0.00000000E+00  0.00000000E+00
  0.00000000E+00  0.00000000E+00  0.00000000E+00
  0.00000000E+00  0.00000000E+00  0.00000000E+00
  0.00000000E+00  0.00000000E+00  0.00000000E+00
  0.00000000E+00  0.00000000E+00  0.00000000E+00
  0.00000000E+00  0.00000000E+00  0.00000000E+00
  0.00000000E+00  0.00000000E+00  0.00000000E+00
  0.00000000E+00  0.00000000E+00  0.00000000E+00
  0.00000000E+00  0.00000000E+00  0.00000000E+00
  0.00000000E+00  0.00000000E+00  0.00000000E+00
  0.00000000E+00  0.00000000E+00  0.00000000E+00
  0.00000000E+00  0.00000000E+00  0.00000000E+00
  0.00000000E+00  0.00000000E+00  0.00000000E+00
  0.00000000E+00  0.00000000E+00  0.00000000E+00
  0.00000000E+00  0.00000000E+00  0.00000000E+00
  0.00000000E+00  0.00000000E+00  0.00000000E+00
  0.00000000E+00  0.00000000E+00  0.00000000E+00
  0.00000000E+00  0.00000000E+00  0.00000000E+00
  0.00000000E+00  0.00000000E+00  0.00000000E+00
  0.00000000E+00  0.00000000E+00  0.00000000E+00
  0.00000000E+00  0.00000000E+00  0.00000000E+00
  0.00000000E+00  0.00000000E+00  0.00000000E+00
  0.00000000E+00  0.00000000E+00  0.00000000E+00
  0.00000000E+00  0.00000000E+00  0.00000000E+00