 B N Se 
 1.0
 14.936314146199660   0.000000000000000   0.000000000000000
 -7.468157073099825  12.935227489513863   0.000000000000000
  0.000000000000001   0.000000000000001  13.341276283792837
 B N Se 
 143 143   1
Cartesian
  1.254019464476544   0.724869137848255   5.002978606422314 
  4.873122527369369   7.354748354878694   5.002978606422314 
  6.234364807967605   0.669475785046078   5.002978606422314 
  9.924828570602905   7.167865865017469   5.002978606422314 
 11.217286037315274   0.727313117881564   5.002978606422314 
 -3.733909454142313   9.342206362200194  11.673616748318732 
  1.244636895554528   9.342281537420885  11.673616748318732 
  2.489195565860804   2.874331080162873  11.673616748318732 
  6.223660822142890   9.342596116125627  11.673616748318732 
  7.468484295026594   2.874292117866478  11.673616748318732 
 12.447134786871880   2.874473517752534  11.673616748318732 
 -1.275560874128849   9.336168899603392   5.002978606422314 
  0.026123953913925   2.889577669494203   5.002978606422314 
  5.013583979353729   2.772259755950520   5.002978606422314 
  3.695496439884682   9.426553776711421   5.002978606422314 
  8.680582524292582   9.322963234343659   5.002978606422314 
  9.980529321736658   2.861672543409302   5.002978606422314 
 -4.978693589469444  11.498121025354031  11.673616748318732 
  0.000109372633830  11.498043136998545  11.673616748318732 
  1.244455826205356   5.030283551446179  11.673616748318732 
  6.223640653575790   5.030342553482305  11.673616748318732 
  4.978893149861680  11.498413487439084  11.673616748318732 
 11.202610060245027   5.030281663031865  11.673616748318732 
 -1.234620870999062   5.035320640657289   5.002978606422314 
 -2.509963760118785  11.474217415147628   5.002978606422314 
  2.481098466000057  11.524324134505752   5.002978606422314 
  7.459971751347803  11.501267642915892   5.002978606422314 
  8.711255716079602   4.998585561525037   5.002978606422314 
 -0.000137140744113   7.186258964627994  11.673616748318732 
  1.244633801400404   0.718664381396095  11.673616748318732 
  4.978839076808190   7.186402129785654  11.673616748318732 
  6.223585897456750   0.718488897831826  11.673616748318732 
  9.957962923951666   7.186318756301485  11.673616748318732 
 -2.517357580308867   7.177987123841470   5.002978606422314 
 11.202467846370673   0.718757831350805  11.673616748318732 
  3.727483760580418   0.684084429174521   5.002978606422314 
  2.418253673185970   7.267503708656402   5.002978606422314 
  7.424440196863262   7.160997543911079   5.002978606422314 
  8.731521003894821   0.698274730098337   5.002978606422314 
  2.489167259125360   7.186305248079895  11.673616748318732 
 13.706506986821715   0.733188340856725   5.002978606422314 
 -1.244655359504174   9.342176805845494  11.673616748318732 
 -0.000090833020580   2.874442555200819  11.673616748318732 
  4.978720842715951   2.874271953135791  11.673616748318732 
  3.734066448449793   9.342493564829498  11.673616748318732 
  8.713130373592183   9.342431980439663  11.673616748318732 
  9.957979067237385   2.874383703293608  11.673616748318732 
 -3.766144535052503   9.323595429559317   5.002978606422314 
  1.207579750018948   9.376122904141276   5.002978606422314 
  2.517929726813682   2.890917194494722   5.002978606422314 
  6.195144246277309   9.356618464729442   5.002978606422314 
  7.521997569681279   2.798859404683958   5.002978606422314 
 12.466984604417876   2.880104084299009   5.002978606422314 
 -1.244687179248999   5.030294796228071  11.673616748318732 
 -2.489308003377249  11.497978422808607  11.673616748318732 
  2.489476227648614  11.498234925648617  11.673616748318732 
  3.733912894776181   5.030270612599349  11.673616748318732 
  7.468271047465882  11.498346565851994  11.673616748318732 
 -4.999902357003219  11.477880809140848   5.002978606422314 
  8.713370293900780   5.030292814955458  11.673616748318732 
 -0.012280882962011  11.490889619594954   5.002978606422314 
  1.273186903043266   5.046875007621877   5.002978606422314 
 -0.033209316744562   7.197795910773984   5.002978606422314 
  6.316574486418173   4.854616223521318   5.002978606422314 
  4.979160089739954  11.524298160639384   5.002978606422314 
 11.200990139129722   5.021633723228156   5.002978606422314 
 -2.489224655123275   7.186234347202086  11.673616748318732 
  3.734028560136108   0.718494246822361  11.673616748318732 
  7.468564348790591   7.186472634904085  11.673616748318732 
  8.713115967084184   0.718574688941407  11.673616748318732 
 13.691705864381785   0.718813177874619  11.673616748318732 
 -0.000238414790154   1.436878672178707   1.667039443671336 
  3.732335870844468   7.905449178261639   1.659673224475771 
  4.978452285456483   1.435570537454375   1.665299465064007 
  8.713850486190580   7.905438921550126   1.666155566521698 
  9.957742534889197   1.436823895556452   1.665800211032411 
 -4.978170974151886  10.060905700520911   8.339657609191377 
 -0.000861294070438  10.060965074960126   8.339418051253112 
  1.243588389496535   3.592481089106692   8.342486824061021 
  4.978371741430736  10.061684302313740   8.340548286368470 
  6.223102061090290   3.591315586981080   8.346283988368857 
 11.202552074214033   3.593106870532449   8.339690719552713 
 -2.489466101566109  10.060686066801342   1.666437671685988 
 -1.245131466165567   3.593096687150390   1.667039443671336 
  3.732594661714380   3.591732799691513   1.652330093164895 
  2.488139624110689  10.061545877286349   1.665724617417150 
  7.468762550349828  10.061278274594345   1.666383393815049 
  8.713474390344814   3.592296742909413   1.665408926476157 
 -6.223215461081780  12.216306264445716   8.339073127210225 
 -1.244922069664911  12.215741545993311   8.339418051253112 
 -0.001221444323006   5.749153941336266   8.339669818631776 
  4.976633610311791   5.747755752241378   8.355442413868857 
  3.733811570727714  12.216988548285368   8.340157001812216 
  9.958318164484716   5.749241462644350   8.339573819029592 
 -2.489518929253062   5.749354171274621   1.666884085634401 
 -3.734052523485738  12.215846560299946   1.666691449272409 
  1.244304987160520  12.216379809970057   1.665919462953077 
  2.487443487962531   5.748397895733754   1.652330093164895 
  6.223612174467224  12.216883744725875   1.666266493291927 
  7.468484388767013   5.748750137039271   1.662662840820538 
 -1.245335575923546   7.905262361464471   8.339265763572206 
 -0.000238414790153   1.436878672178708   8.338917769173305 
  3.732335870844469   7.905449178261640   8.346283988368857 
  4.978452285456484   1.435570537454376   8.340657747780632 
  8.713850486190580   7.905438921550127   8.339801646322929 
 -3.733628329478341   7.905294607760175   1.666299603653264 
  9.957742534889197   1.436823895556453   8.340157001812216 
  2.488916950269813   1.436107724023477   1.666287394212864 
  1.243081006054864   7.905423378511583   1.665299465064007 
  6.223420162035462   7.905264636424788   1.662662840820538 
  7.468238452094572   1.435761680503985   1.665724617417150 
  1.243081006054865   7.905423378511584   8.340657747780632 
 12.446958622641880   1.437264916035048   1.666294315499567 
 -2.489466101566109  10.060686066801342   8.339519541158653 
 -1.245131466165566   3.593096687150391   8.338917769173305 
  3.732594661714380   3.591732799691514   8.353627119679732 
  2.488139624110689  10.061545877286349   8.340232595427478 
  7.468762550349829  10.061278274594345   8.339573819029592 
  8.713474390344814   3.592296742909414   8.340548286368470 
 -4.978170974151887  10.060905700520911   1.666299603653264 
 -0.000861294070439  10.060965074960126   1.666539161591515 
  1.243588389496534   3.592481089106691   1.663470388783593 
  4.978371741430735  10.061684302313740   1.665408926476157 
  6.223102061090289   3.591315586981079   1.659673224475771 
 11.202552074214033   3.593106870532448   1.666266493291927 
 -2.489518929253062   5.749354171274622   8.339073127210225 
 -3.734052523485737  12.215846560299946   8.339265763572206 
  1.244304987160521  12.216379809970057   8.340037749891565 
  2.487443487962531   5.748397895733755   8.353627119679732 
  6.223612174467225  12.216883744725875   8.339690719552713 
 -6.223215461081781  12.216306264445716   1.666884085634401 
  7.468484388767014   5.748750137039272   8.343294372024078 
 -1.244922069664911  12.215741545993311   1.666539161591515 
 -0.001221444323006   5.749153941336266   1.666287394212864 
 -1.245335575923546   7.905262361464470   1.666691449272409 
  4.976633610311790   5.747755752241377   1.650514798975770 
  3.733811570727713  12.216988548285368   1.665800211032411 
  9.958318164484716   5.749241462644349   1.666383393815049 
 -3.733628329478341   7.905294607760176   8.339657609191377 
  2.488916950269813   1.436107724023477   8.339669818631776 
  6.223420162035463   7.905264636424789   8.343294372024078 
  7.468238452094573   1.435761680503986   8.340232595427478 
 12.446958622641880   1.437264916035049   8.339662897345047 
  1.244563044580721   0.718197804926527   1.670590860136991 
  4.978013564606151   7.185650287313096   1.666967709673522 
  6.223425033324090   0.718330275057459   1.670417278899971 
  9.957179997465744   7.186199575667845   1.670301086536251 
 11.202165562235502   0.718583307523991   1.668822865673891 
 -3.734246477312226   9.342011781782320   8.336806168892426 
  1.244419092135979   9.342221536382624   8.335539933944643 
  2.488815446058103   2.874025701055795   8.339158334102004 
  6.223080547648165   9.341546638059192   8.333854642503001 
  7.467800799966068   2.874240733492199   8.334990207595075 
 12.446685420206311   2.874547381265576   8.336577927287957 
 -1.244875736548657   9.342162033074535   1.669395529047650 
 -0.000372130137496   2.874280148234652   1.670160947497813 
  4.978562008055438   2.874105470932724   1.666816325956137 
  3.733680200746040   9.341927332930871   1.670967005249565 
  8.712635696892862   9.341813536530390   1.670301086536251 
  9.957282642948019   2.874518192444538   1.669564288954678 
 -4.978845309675406  11.497652558466534   8.336616821433847 
 -0.000070028889870  11.497939559480514   8.336658349951792 
  1.244001300239492   5.030107047594098   8.339158334102004 
  6.222576782793900   5.030003560180472   8.338989503171106 
  4.978661408738258  11.497743121737177   8.336392923889937 
 11.201815300702735   5.030513962346226   8.336132156817916 
 -1.245126624734307   5.030466807259518   1.670590860136991 
 -2.489430985494431  11.497794957075163   1.669395529047650 
  2.489240614418714  11.497987414027024   1.669180042347344 
  3.732428771103211   5.029413753397256   1.642084371769221 
  7.468074844802254  11.497542134241286   1.669825056026699 
  8.712171281987157   5.030315021535099   1.672102570341627 
 -0.000369340898197   7.186335471434815   8.335838465290905 
  1.244563044580722   0.718197804926528   8.335366352707636 
  4.978013564606152   7.185650287313097   8.338989503171106 
  6.223425033324091   0.718330275057459   8.335539933944643 
  9.957179997465760   7.186199575667846   8.335656126308377 
 -2.489706219451675   7.186337187093228   1.669340391410809 
 11.202165562235502   0.718583307523991   8.337134347170736 
  3.733978716897334   0.718254902186751   1.670118747553708 
  2.488943663977993   7.186250934330382   1.666816325956137 
  7.467591982971627   7.185911239236721   1.672525420863776 
  8.712783809117203   0.718494397709641   1.669180042347344 
  2.488943663977994   7.186250934330383   8.339140886888490 
 13.691545148727693   0.718387083170126   1.669379285556658 
 -1.244875736548657   9.342162033074535   8.336561683796964 
 -0.000372130137496   2.874280148234653   8.335796265346803 
  4.978562008055439   2.874105470932725   8.339140886888490 
  3.733680200746040   9.341927332930871   8.334990207595075 
  8.712635696892862   9.341813536530390   8.335656126308377 
  9.957282642948019   2.874518192444539   8.336392923889937 
 -3.734246477312226   9.342011781782320   1.669151043952200 
  1.244419092135979   9.342221536382624   1.670417278899971 
  2.488815446058103   2.874025701055794   1.666798878742609 
  6.223080547648165   9.341546638059192   1.672102570341627 
  7.467800799966067   2.874240733492198   1.670967005249565 
 12.446685420206311   2.874547381265575   1.669379285556658 
 -1.245126624734307   5.030466807259518   8.335366352707636 
 -2.489430985494430  11.497794957075163   8.336561683796964 
  2.489240614418714  11.497987414027024   8.336777170497298 
  3.732428771103212   5.029413753397257   8.363872841075420 
  7.468074844802254  11.497542134241286   8.336132156817916 
 -4.978845309675407  11.497652558466534   1.669340391410809 
  8.712171281987157   5.030315021535100   8.333854642503001 
 -0.000070028889870  11.497939559480514   1.669298862892836 
  1.244001300239491   5.030107047594097   1.666798878742609 
 -0.000369340898198   7.186335471434814   1.670118747553708 
  6.222576782793899   5.030003560180472   1.666967709673522 
  4.978661408738257  11.497743121737177   1.669564288954678 
 11.201815300702735   5.030513962346225   1.669825056026699 
 -2.489706219451674   7.186337187093229   8.336616821433847 
  3.733978716897335   0.718254902186751   8.335838465290905 
  7.467591982971628   7.185911239236722   8.333431791980852 
  8.712783809117203   0.718494397709642   8.336777170497298 
 13.691545148727693   0.718387083170127   8.336577927287957 
  0.018094157944243   1.452146805064807   5.002978606422314 
  3.656293852125100   7.992787193171587   5.002978606422314 
  4.987963845224171   1.367687011724199   5.002978606422314 
  8.662322401721498   7.875689168111084   5.002978606422314 
  9.968715161022464   1.431068384502765   5.002978606422314 
 -4.978731146515365  10.060801279262726  11.673616748318732 
  0.000153117558498  10.060820024040030  11.673616748318732 
  1.244779786617135   3.593168942554982  11.673616748318732 
  4.978885063645885  10.060802597296917  11.673616748318732 
  6.223580478798077   3.593233770560694  11.673616748318732 
 11.202362588959376   3.593164459961703  11.673616748318732 
 -2.521620160321485  10.042121912323378   5.002978606422314 
 -1.222742588850643   3.601339094412042   5.002978606422314 
  3.821177219174980   3.528200008528293   5.002978606422314 
  2.454748270049370  10.098097144578546   5.002978606422314 
  7.442186843281273  10.051499073728831   5.002978606422314 
  8.724421908196508   3.568077682742556   5.002978606422314 
 -6.223419002031201  12.216678916214081  11.673616748318732 
 -1.244540481632097  12.216692577693928  11.673616748318732 
  0.000083526447314   5.749022463482921  11.673616748318732 
  4.978956499778556   5.749096873100314  11.673616748318732 
  3.734183793482795  12.216670030828860  11.673616748318732 
  9.957663705384032   5.749006236187997  11.673616748318732 
 -2.492786613067493   5.743303706214119   5.002978606422314 
 -3.753969323011012  12.189702752893465   5.002978606422314 
  1.236191284642204  12.211695361636991   5.002978606422314 
  2.476713755572166   5.856879036408440   5.002978606422314 
  6.226141232468228  12.229205000493899   5.002978606422314 
  7.419936951822837   5.713650912559033   5.002978606422314 
 -1.244596270262583   7.904889972066270  11.673616748318732 
  0.000082419432725   1.437300161823300  11.673616748318732 
  3.734236275407422   7.904904408360410  11.673616748318732 
  4.978889930997156   1.437335866127725  11.673616748318732 
  8.712947371847626   7.904917508241120  11.673616748318732 
 -3.770605066489463   7.886548938988712   5.002978606422314 
  9.957652802057845   1.437305508646486  11.673616748318732 
  2.508321495997634   1.445535532326590   5.002978606422314 
  1.189047928157929   7.947602393765092   5.002978606422314 
  6.168749623510349   7.880770934982640   5.002978606422314 
  7.483197101079455   1.388568285974050   5.002978606422314 
  1.244828648302342   7.904919726330999  11.673616748318732 
 12.461904910471800   1.445894159337055   5.002978606422314 
 -2.489294274392567  10.060785271266242  11.673616748318732 
 -1.244606028314471   3.593163792915499  11.673616748318732 
  3.734206512315343   3.593144871777751  11.673616748318732 
  2.489520705428076  10.060795594486478  11.673616748318732 
  7.468231608712658  10.060829109615566  11.673616748318732 
  8.712967472509188   3.593182145496447  11.673616748318732 
 -5.012893568024464  10.038255741305953   5.002978606422314 
 -0.033240587103587  10.064801710150034   5.002978606422314 
  1.283182062434213   3.615340506835475   5.002978606422314 
  4.962871178996307  10.083274660965106   5.002978606422314 
  6.260717991358732   3.481792259560067   5.002978606422314 
 11.214487123716156   3.589136471124974   5.002978606422314 
 -2.489297973829603   5.748991573757533  11.673616748318732 
 -3.734005369334206  12.216673012482616  11.673616748318732 
  1.244820267305427  12.216677307100445  11.673616748318732 
  2.489472303561676   5.749087763258162  11.673616748318732 
  6.223567305748620  12.216690850967073  11.673616748318732 
 -6.230089159436096  12.216501599781122   5.002978606422314 
  7.468279526457363   5.749063183828786  11.673616748318732 
 -1.257789092641979  12.185781938075083   5.002978606422314 
  0.016645550033411   5.761244866733899   5.002978606422314 
 -1.277935177051857   7.901085810816767   5.002978606422314 
  3.734313465010084  12.229368876789861   5.002978606422314 
  9.936561274572215   5.731115825632166   5.002978606422314 
 -3.733998847122363   7.904861694891997  11.673616748318732 
  2.489455572493934   1.437303600788456  11.673616748318732 
  6.223588837352930   7.904930697065596  11.673616748318732 
  7.468279228788546   1.437332873409485  11.673616748318732 
 12.447042384656292   1.437313276056617  11.673616748318732 
  4.283278089842332   5.347446755854204   5.002978606422314 
Generated by cif2cell 2.0.0.  :  Failed to get author information, No journal information. Species order: B N Se 
 1.0
 14.936314146199660   0.000000000000000   0.000000000000000
 -7.468157073099825  12.935227489513863   0.000000000000000
  0.000000000000001   0.000000000000001  13.341276283792837
 B N Se 
 143 143   1
Cartesian
  1.254019464476544   0.724869137848255   5.002978606422314 
  4.873122527369369   7.354748354878694   5.002978606422314 
  6.234364807967605   0.669475785046078   5.002978606422314 
  9.924828570602905   7.167865865017469   5.002978606422314 
 11.217286037315274   0.727313117881564   5.002978606422314 
 -3.733909454142313   9.342206362200194  11.673616748318732 
  1.244636895554528   9.342281537420885  11.673616748318732 
  2.489195565860804   2.874331080162873  11.673616748318732 
  6.223660822142890   9.342596116125627  11.673616748318732 
  7.468484295026594   2.874292117866478  11.673616748318732 
 12.447134786871880   2.874473517752534  11.673616748318732 
 -1.275560874128849   9.336168899603392   5.002978606422314 
  0.026123953913925   2.889577669494203   5.002978606422314 
  5.013583979353729   2.772259755950520   5.002978606422314 
  3.695496439884682   9.426553776711421   5.002978606422314 
  8.680582524292582   9.322963234343659   5.002978606422314 
  9.980529321736658   2.861672543409302   5.002978606422314 
 -4.978693589469444  11.498121025354031  11.673616748318732 
  0.000109372633830  11.498043136998545  11.673616748318732 
  1.244455826205356   5.030283551446179  11.673616748318732 
  6.223640653575790   5.030342553482305  11.673616748318732 
  4.978893149861680  11.498413487439084  11.673616748318732 
 11.202610060245027   5.030281663031865  11.673616748318732 
 -1.234620870999062   5.035320640657289   5.002978606422314 
 -2.509963760118785  11.474217415147628   5.002978606422314 
  2.481098466000057  11.524324134505752   5.002978606422314 
  7.459971751347803  11.501267642915892   5.002978606422314 
  8.711255716079602   4.998585561525037   5.002978606422314 
 -0.000137140744113   7.186258964627994  11.673616748318732 
  1.244633801400404   0.718664381396095  11.673616748318732 
  4.978839076808190   7.186402129785654  11.673616748318732 
  6.223585897456750   0.718488897831826  11.673616748318732 
  9.957962923951666   7.186318756301485  11.673616748318732 
 -2.517357580308867   7.177987123841470   5.002978606422314 
 11.202467846370673   0.718757831350805  11.673616748318732 
  3.727483760580418   0.684084429174521   5.002978606422314 
  2.418253673185970   7.267503708656402   5.002978606422314 
  7.424440196863262   7.160997543911079   5.002978606422314 
  8.731521003894821   0.698274730098337   5.002978606422314 
  2.489167259125360   7.186305248079895  11.673616748318732 
 13.706506986821715   0.733188340856725   5.002978606422314 
 -1.244655359504174   9.342176805845494  11.673616748318732 
 -0.000090833020580   2.874442555200819  11.673616748318732 
  4.978720842715951   2.874271953135791  11.673616748318732 
  3.734066448449793   9.342493564829498  11.673616748318732 
  8.713130373592183   9.342431980439663  11.673616748318732 
  9.957979067237385   2.874383703293608  11.673616748318732 
 -3.766144535052503   9.323595429559317   5.002978606422314 
  1.207579750018948   9.376122904141276   5.002978606422314 
  2.517929726813682   2.890917194494722   5.002978606422314 
  6.195144246277309   9.356618464729442   5.002978606422314 
  7.521997569681279   2.798859404683958   5.002978606422314 
 12.466984604417876   2.880104084299009   5.002978606422314 
 -1.244687179248999   5.030294796228071  11.673616748318732 
 -2.489308003377249  11.497978422808607  11.673616748318732 
  2.489476227648614  11.498234925648617  11.673616748318732 
  3.733912894776181   5.030270612599349  11.673616748318732 
  7.468271047465882  11.498346565851994  11.673616748318732 
 -4.999902357003219  11.477880809140848   5.002978606422314 
  8.713370293900780   5.030292814955458  11.673616748318732 
 -0.012280882962011  11.490889619594954   5.002978606422314 
  1.273186903043266   5.046875007621877   5.002978606422314 
 -0.033209316744562   7.197795910773984   5.002978606422314 
  6.316574486418173   4.854616223521318   5.002978606422314 
  4.979160089739954  11.524298160639384   5.002978606422314 
 11.200990139129722   5.021633723228156   5.002978606422314 
 -2.489224655123275   7.186234347202086  11.673616748318732 
  3.734028560136108   0.718494246822361  11.673616748318732 
  7.468564348790591   7.186472634904085  11.673616748318732 
  8.713115967084184   0.718574688941407  11.673616748318732 
 13.691705864381785   0.718813177874619  11.673616748318732 
 -0.000238414790154   1.436878672178707   1.667039443671336 
  3.732335870844468   7.905449178261639   1.659673224475771 
  4.978452285456483   1.435570537454375   1.665299465064007 
  8.713850486190580   7.905438921550126   1.666155566521698 
  9.957742534889197   1.436823895556452   1.665800211032411 
 -4.978170974151886  10.060905700520911   8.339657609191377 
 -0.000861294070438  10.060965074960126   8.339418051253112 
  1.243588389496535   3.592481089106692   8.342486824061021 
  4.978371741430736  10.061684302313740   8.340548286368470 
  6.223102061090290   3.591315586981080   8.346283988368857 
 11.202552074214033   3.593106870532449   8.339690719552713 
 -2.489466101566109  10.060686066801342   1.666437671685988 
 -1.245131466165567   3.593096687150390   1.667039443671336 
  3.732594661714380   3.591732799691513   1.652330093164895 
  2.488139624110689  10.061545877286349   1.665724617417150 
  7.468762550349828  10.061278274594345   1.666383393815049 
  8.713474390344814   3.592296742909413   1.665408926476157 
 -6.223215461081780  12.216306264445716   8.339073127210225 
 -1.244922069664911  12.215741545993311   8.339418051253112 
 -0.001221444323006   5.749153941336266   8.339669818631776 
  4.976633610311791   5.747755752241378   8.355442413868857 
  3.733811570727714  12.216988548285368   8.340157001812216 
  9.958318164484716   5.749241462644350   8.339573819029592 
 -2.489518929253062   5.749354171274621   1.666884085634401 
 -3.734052523485738  12.215846560299946   1.666691449272409 
  1.244304987160520  12.216379809970057   1.665919462953077 
  2.487443487962531   5.748397895733754   1.652330093164895 
  6.223612174467224  12.216883744725875   1.666266493291927 
  7.468484388767013   5.748750137039271   1.662662840820538 
 -1.245335575923546   7.905262361464471   8.339265763572206 
 -0.000238414790153   1.436878672178708   8.338917769173305 
  3.732335870844469   7.905449178261640   8.346283988368857 
  4.978452285456484   1.435570537454376   8.340657747780632 
  8.713850486190580   7.905438921550127   8.339801646322929 
 -3.733628329478341   7.905294607760175   1.666299603653264 
  9.957742534889197   1.436823895556453   8.340157001812216 
  2.488916950269813   1.436107724023477   1.666287394212864 
  1.243081006054864   7.905423378511583   1.665299465064007 
  6.223420162035462   7.905264636424788   1.662662840820538 
  7.468238452094572   1.435761680503985   1.665724617417150 
  1.243081006054865   7.905423378511584   8.340657747780632 
 12.446958622641880   1.437264916035048   1.666294315499567 
 -2.489466101566109  10.060686066801342   8.339519541158653 
 -1.245131466165566   3.593096687150391   8.338917769173305 
  3.732594661714380   3.591732799691514   8.353627119679732 
  2.488139624110689  10.061545877286349   8.340232595427478 
  7.468762550349829  10.061278274594345   8.339573819029592 
  8.713474390344814   3.592296742909414   8.340548286368470 
 -4.978170974151887  10.060905700520911   1.666299603653264 
 -0.000861294070439  10.060965074960126   1.666539161591515 
  1.243588389496534   3.592481089106691   1.663470388783593 
  4.978371741430735  10.061684302313740   1.665408926476157 
  6.223102061090289   3.591315586981079   1.659673224475771 
 11.202552074214033   3.593106870532448   1.666266493291927 
 -2.489518929253062   5.749354171274622   8.339073127210225 
 -3.734052523485737  12.215846560299946   8.339265763572206 
  1.244304987160521  12.216379809970057   8.340037749891565 
  2.487443487962531   5.748397895733755   8.353627119679732 
  6.223612174467225  12.216883744725875   8.339690719552713 
 -6.223215461081781  12.216306264445716   1.666884085634401 
  7.468484388767014   5.748750137039272   8.343294372024078 
 -1.244922069664911  12.215741545993311   1.666539161591515 
 -0.001221444323006   5.749153941336266   1.666287394212864 
 -1.245335575923546   7.905262361464470   1.666691449272409 
  4.976633610311790   5.747755752241377   1.650514798975770 
  3.733811570727713  12.216988548285368   1.665800211032411 
  9.958318164484716   5.749241462644349   1.666383393815049 
 -3.733628329478341   7.905294607760176   8.339657609191377 
  2.488916950269813   1.436107724023477   8.339669818631776 
  6.223420162035463   7.905264636424789   8.343294372024078 
  7.468238452094573   1.435761680503986   8.340232595427478 
 12.446958622641880   1.437264916035049   8.339662897345047 
  1.244563044580721   0.718197804926527   1.670590860136991 
  4.978013564606151   7.185650287313096   1.666967709673522 
  6.223425033324090   0.718330275057459   1.670417278899971 
  9.957179997465744   7.186199575667845   1.670301086536251 
 11.202165562235502   0.718583307523991   1.668822865673891 
 -3.734246477312226   9.342011781782320   8.336806168892426 
  1.244419092135979   9.342221536382624   8.335539933944643 
  2.488815446058103   2.874025701055795   8.339158334102004 
  6.223080547648165   9.341546638059192   8.333854642503001 
  7.467800799966068   2.874240733492199   8.334990207595075 
 12.446685420206311   2.874547381265576   8.336577927287957 
 -1.244875736548657   9.342162033074535   1.669395529047650 
 -0.000372130137496   2.874280148234652   1.670160947497813 
  4.978562008055438   2.874105470932724   1.666816325956137 
  3.733680200746040   9.341927332930871   1.670967005249565 
  8.712635696892862   9.341813536530390   1.670301086536251 
  9.957282642948019   2.874518192444538   1.669564288954678 
 -4.978845309675406  11.497652558466534   8.336616821433847 
 -0.000070028889870  11.497939559480514   8.336658349951792 
  1.244001300239492   5.030107047594098   8.339158334102004 
  6.222576782793900   5.030003560180472   8.338989503171106 
  4.978661408738258  11.497743121737177   8.336392923889937 
 11.201815300702735   5.030513962346226   8.336132156817916 
 -1.245126624734307   5.030466807259518   1.670590860136991 
 -2.489430985494431  11.497794957075163   1.669395529047650 
  2.489240614418714  11.497987414027024   1.669180042347344 
  3.732428771103211   5.029413753397256   1.642084371769221 
  7.468074844802254  11.497542134241286   1.669825056026699 
  8.712171281987157   5.030315021535099   1.672102570341627 
 -0.000369340898197   7.186335471434815   8.335838465290905 
  1.244563044580722   0.718197804926528   8.335366352707636 
  4.978013564606152   7.185650287313097   8.338989503171106 
  6.223425033324091   0.718330275057459   8.335539933944643 
  9.957179997465760   7.186199575667846   8.335656126308377 
 -2.489706219451675   7.186337187093228   1.669340391410809 
 11.202165562235502   0.718583307523991   8.337134347170736 
  3.733978716897334   0.718254902186751   1.670118747553708 
  2.488943663977993   7.186250934330382   1.666816325956137 
  7.467591982971627   7.185911239236721   1.672525420863776 
  8.712783809117203   0.718494397709641   1.669180042347344 
  2.488943663977994   7.186250934330383   8.339140886888490 
 13.691545148727693   0.718387083170126   1.669379285556658 
 -1.244875736548657   9.342162033074535   8.336561683796964 
 -0.000372130137496   2.874280148234653   8.335796265346803 
  4.978562008055439   2.874105470932725   8.339140886888490 
  3.733680200746040   9.341927332930871   8.334990207595075 
  8.712635696892862   9.341813536530390   8.335656126308377 
  9.957282642948019   2.874518192444539   8.336392923889937 
 -3.734246477312226   9.342011781782320   1.669151043952200 
  1.244419092135979   9.342221536382624   1.670417278899971 
  2.488815446058103   2.874025701055794   1.666798878742609 
  6.223080547648165   9.341546638059192   1.672102570341627 