Species order: X N B                    
   2.51242800000000     
     5.9449720136058266    0.0000000000000000    0.0000000000000000
    -2.9724860068029120    5.1484967885702053   -0.0000000000000001
     0.0000000000000000    0.0000000000000009    5.3101128803662583
   P    N    B 
     1   143   143
Direct
  0.4864782956758842  0.4099058145046703  0.3750000000000000
  0.1110829317909959  0.0555194220381987  0.1251527636580728
  0.6110611375715589  0.5555374260100173  0.1252389953350413
  0.4444092322923887  0.0555286457349558  0.1251678117792862
  0.9443954553628384  0.5555414409635855  0.1251790507302609
  0.7777630223459582  0.0555481778396397  0.1250819359439095
  0.1110672275312640  0.7222002804323532  0.6248807828943963
  0.4444092322923887  0.7222139198910104  0.6248321882207210
  0.2777586305488159  0.2221985260171261  0.6250235209775563
  0.7777285943278187  0.7221807458022521  0.6247216713241031
  0.6110703141741259  0.2221984518527199  0.6248251842627075
  0.9444323897369399  0.2222268508167023  0.6248645723836169
  0.2777398158493025  0.7222121078803011  0.1251339659234840
  0.1111087539665922  0.2222210436499319  0.1251436400446432
  0.4444081363498353  0.2221968025772061  0.1251140645466802
  0.6110703141741259  0.7222051956549550  0.1251748157374131
  0.9443954553628384  0.7221873477332492  0.1251790507302609
  0.7777498729221014  0.2222211228169219  0.1251309918787869
  0.1110692831801188  0.8888492962522164  0.6248629210305290
  0.4444124183974918  0.8888728758655879  0.6248652443767384
  0.2777586305488159  0.3888934378651822  0.6250235209775563
  0.6110611375715589  0.3888570448948629  0.6247610046650228
  0.7777498729221014  0.8888620834386575  0.6248690081211706
  0.9444105510549030  0.3888925212549532  0.6248459608189274
  0.1110829317909959  0.3888968430860050  0.1251527636580728
  0.2777398158493025  0.8888610413022803  0.1251339659234840
  0.6110841042556105  0.8888784326938207  0.1251007238877136
  0.4443930502976018  0.3888631918152912  0.1250774005117017
  0.9444105510549030  0.8888513631333916  0.1251540391809517
  0.7777285943278116  0.3888811818589587  0.1252783286758544
  0.2777433844783199  0.5555588544380501  0.6248624021849408
  0.1110829317909959  0.0555194220381987  0.6248472363418701
  0.6110611375715589  0.5555374260100173  0.6247610046650228
  0.4444092322923958  0.0555286457349558  0.6248321882207210
  0.9443954553628384  0.5555414409635855  0.6248209492698741
  0.1110692831801188  0.5555533202609750  0.1251370789695634
  0.7777630223459582  0.0555481778396397  0.6249180640561330
  0.2777433844783270  0.0555178633735911  0.1251375978150807
  0.4444081363498353  0.5555446671060572  0.1251140645466802
  0.7777156783365642  0.5555245058349498  0.1253718858093312
  0.6110841042556105  0.0555390048949123  0.1251007238877136
  0.4444081363498353  0.5555446671060572  0.6248859354530713
  0.9444323897369399  0.0555388722533388  0.1251354276162411
  0.2777398158493025  0.7222121078803011  0.6248660340764737
  0.1111087539665922  0.2222210436499319  0.6248563599551150
  0.4444081363498353  0.2221968025771990  0.6248859354530713
  0.6110703141741259  0.7222051956549621  0.6248251842627075
  0.9443954553628384  0.7221873477332492  0.6248209492698741
  0.7777498729221014  0.2222211228169219  0.6248690081211706
  0.1110672275312640  0.7222002804323532  0.1251192171055396
  0.4444092322923887  0.7222139198910104  0.1251678117792862
  0.2777586305488159  0.2221985260171545  0.1249764790223868
  0.7777285943278187  0.7221807458022521  0.1252783286758544
  0.6110703141741259  0.2221984518527199  0.1251748157374131
  0.9444323897369399  0.2222268508167023  0.1251354276162411
  0.1110829317909888  0.3888968430860050  0.6248472363418701
  0.2777398158493025  0.8888610413022803  0.6248660340764666
  0.6110841042556105  0.8888784326938207  0.6248992761118676
  0.4443930502976018  0.3888631918152912  0.6249225994880567
  0.9444105510549030  0.8888513631333916  0.6248459608189274
  0.1110692831801188  0.8888492962522164  0.1251370789695634
  0.7777285943278187  0.3888811818589587  0.6247216713241031
  0.4444124183974918  0.8888728758655808  0.1251347556231122
  0.2777586305488159  0.3888934378651822  0.1249764790223868
  0.2777433844783199  0.5555588544380501  0.1251375978150807
  0.6110611375715589  0.3888570448948629  0.1252389953350413
  0.7777498729221085  0.8888620834386575  0.1251309918787869
  0.9444105510549030  0.3888925212549532  0.1251540391809517
  0.1110692831801188  0.5555533202609750  0.6248629210305290
  0.2777433844783270  0.0555178633735911  0.6248624021849408
  0.7777156783365642  0.5555245058349498  0.6246281141906691
  0.6110841042556105  0.0555390048949123  0.6248992761118676
  0.9444323897369399  0.0555388722533388  0.6248645723836169
  0.0591391667925394  0.1132135442179971  0.3750000000000000
  0.5555892550006255  0.6178345353492681  0.3750000000000000
  0.3890617865401310  0.1086211447545325  0.3750000000000000
  0.8858290506647268  0.6095811919987896  0.3750000000000000
  0.7243386446690245  0.1115860218834945  0.3750000000000000
  0.0555096527008598  0.7777565782614269  0.8750000000000000
  0.3888530630008169  0.7777592435882957  0.8750000000000000
  0.2221722475864318  0.2777527904599582  0.8750000000000000
  0.7221797448074626  0.7777565382832282  0.8750000000000000
  0.5555123339992811  0.2777585179416605  0.8750000000000000
  0.8888447176346169  0.2777558522201661  0.8750000000000000
  0.2214532132358007  0.7773932732843554  0.3750000000000000
  0.0591391667925394  0.2792589559078851  0.3750000000000000
  0.3972645527056116  0.2805599515800808  0.3750000000000000
  0.5563986951999049  0.7810174537349081  0.3750000000000000
  0.8881012486531553  0.7774861011745881  0.3750000000000000
  0.7235922524876761  0.2769953534695193  0.3750000000000000
  0.0555075104540496  0.9444218718654045  0.8750000000000000
  0.3888530630008169  0.9444271527462407  0.8750000000000000
  0.2221733428121873  0.4444189622346906  0.8750000000000000
  0.5555109158653982  0.4444221245993599  0.8750000000000000
  0.7221792165811014  0.9444232462897179  0.8750000000000000
  0.8888447641799280  0.4444217215125876  0.8750000000000000
  0.0569777285466296  0.4448223964515888  0.3750000000000000
  0.2220396106639643  0.9439118405078485  0.3750000000000000
  0.5565146690816627  0.9449240012075673  0.3750000000000000
  0.3972645527055548  0.4500379344589162  0.3750000000000000
  0.8911819697265768  0.9461104108964614  0.3750000000000000
  0.7179076676658122  0.4423128597175905  0.3750000000000000
  0.2221788272164220  0.6110868186840517  0.8750000000000000
  0.0555056133393231  0.1110862999161890  0.8750000000000000
  0.5555123339992811  0.6110871493907932  0.8750000000000000
  0.3888484670687110  0.1110931003235357  0.8750000000000000
  0.8888414543889454  0.6110873938612045  0.8750000000000000
  0.0543008491125831  0.6105904890958752  0.3750000000000000
  0.7221792165811014  0.1110893036248324  0.8750000000000000
  0.2262622347666604  0.1137526214514301  0.3750000000000000
  0.3890617865401310  0.6137739751191970  0.3750000000000000
  0.7179076676657979  0.6089281412814930  0.3750000000000000
  0.5563986951999120  0.1087145747981761  0.3750000000000000
  0.3888484670687110  0.6110887000787097  0.8750000000000000
  0.8918528403256349  0.1125930868294959  0.3750000000000000
  0.2221823664263399  0.7777578498797811  0.8750000000000000
  0.0555056133393231  0.2777526467563917  0.8750000000000000
  0.3888458273096380  0.2777578571134178  0.8750000000000000
  0.5555157020029284  0.7777578186484496  0.8750000000000000
  0.8888447641799351  0.7777563760008114  0.8750000000000000
  0.7221797448074626  0.2777565398577266  0.8750000000000000
  0.0543008491125760  0.7770436933499437  0.3750000000000000
  0.3888340791567265  0.7786096875665340  0.3750000000000000
  0.2277663277259382  0.2805498305296230  0.3750000000000000
  0.7235922524876761  0.7799302323513360  0.3750000000000000
  0.5555892550006255  0.2710880529846643  0.3750000000000000
  0.8911819697265768  0.2784048921636434  0.3750000000000000
  0.0555075104540496  0.4444189719217963  0.8750000000000000
  0.2221788272164220  0.9444253418657347  0.8750000000000000
  0.5555169889319134  0.9444251611325321  0.8750000000000000
  0.3888458273096380  0.4444213035297477  0.8750000000000000
  0.8888447176346169  0.9444221987475303  0.8750000000000000
  0.0569777285466296  0.9454886654284330  0.3750000000000000
  0.7221764885839514  0.4444219230344294  0.8750000000000000
  0.3888340791567265  0.9435577249234783  0.3750000000000000
  0.2262622347666604  0.4458429466486158  0.3750000000000000
  0.2220396106639643  0.6114611034894732  0.3750000000000000
  0.7243386446692306  0.9460859561188517  0.3750000000000000
  0.8881012486531553  0.4439484808119031  0.3750000000000000
  0.0555096527008598  0.6110864077728682  0.8750000000000000
  0.2221733428121873  0.1110877139108964  0.8750000000000000
  0.7221764885839514  0.6110878988828933  0.8750000000000000
  0.5555157020029284  0.1110912166877010  0.8750000000000000
  0.8888443892509471  0.1110888612921130  0.8750000000000000
  0.1140075289484411  0.0572131291262606  0.3750000000000000
  0.6087131907880828  0.5634734943431157  0.3750000000000000
  0.4452655289401257  0.0536712248286009  0.3750000000000000
  0.9430362349165882  0.5549918349544566  0.3750000000000000
  0.7805791050972047  0.0569562192151885  0.3750000000000000
  0.1110718210110597  0.7222025771723254  0.8750000000000000
  0.4444077862280295  0.7222300578487768  0.8750000000000000
  0.2776841627882841  0.2221630421647923  0.8750000000000000
  0.7777632601577632  0.7222399586545379  0.8750000000000000
  0.6110895359899302  0.2221746122022245  0.8750000000000000
  0.9443836095794012  0.2221870549367660  0.8750000000000000
  0.2775405935951851  0.7225785199377229  0.3750000000000000
  0.1151364167678981  0.2242348750506098  0.3750000000000000
  0.4454757225062120  0.2175643741628268  0.3750000000000000
  0.6133509386614437  0.7284417222712504  0.3750000000000000
  0.9430362349165882  0.7213777332952400  0.3750000000000000
  0.7802643925984650  0.2223666887029347  0.3750000000000000
  0.1110597742304877  0.8888619265307066  0.8750000000000000
  0.4444125545317299  0.8888729439327318  0.8750000000000000
  0.2776841627882841  0.3888544539568701  0.8750000000000000
  0.6110977030306176  0.3888554012777178  0.8750000000000000
  0.7777469726343338  0.8888943881857760  0.8750000000000000
  0.9444015845707907  0.3888568971784506  0.8750000000000000
  0.1140075289484411  0.3901277331554595  0.3750000000000000
  0.2775405935951922  0.8882954069908687  0.3750000000000000
  0.6131316488690856  0.8913903920108683  0.3750000000000000
  0.9454828292928922  0.8895775575699578  0.3750000000000000
  0.7770336169341420  0.3877252849754957  0.3750000000000000
  0.2777129012526434  0.5555415950792445  0.8750000000000000
  0.1110334913328304  0.0555122278170083  0.8750000000000000
  0.6110977030306176  0.5555756350860296  0.8750000000000000
  0.4444077862280295  0.0555110617128086  0.8750000000000000
  0.9444184171240371  0.5555367447577867  0.8750000000000000
  0.1108415419477502  0.5557635215281720  0.3750000000000000
  0.7777381491713733  0.0555357412523438  0.8750000000000000
  0.2781830477994411  0.0545823851673508  0.3750000000000000
  0.4454757225061551  0.5612446816766642  0.3750000000000000
  0.7746375966692898  0.5539854650011067  0.3750000000000000
  0.6131316488690856  0.0550745901913822  0.3750000000000000
  0.4443959318991597  0.5555648761183364  0.8750000000000000
  0.9475370123780987  0.0573512101285940  0.3750000000000000
  0.2777348540001933  0.7222080134505460  0.8750000000000000
  0.1110186316691298  0.2221759825012186  0.8750000000000000
  0.4443959318991597  0.2221643891141021  0.8750000000000000
  0.6110895359899302  0.7222482571208919  0.8750000000000000
  0.9444184171240300  0.7222150056998133  0.8750000000000000
  0.7777469726343338  0.2221859177819931  0.8750000000000000
  0.1101567839693550  0.7217450586514305  0.3750000000000000
  0.4452655289401257  0.7249276374448745  0.3750000000000000
  0.2832639456314189  0.2254737453391736  0.3750000000000000
  0.7770336169341420  0.7226416652918185  0.3750000000000000
  0.6133509386614509  0.2182425497234788  0.3750000000000000
  0.9475370123781058  0.2235191355831103  0.3750000000000000
  0.1110334913328304  0.3888545968492501  0.8750000000000000
  0.2777348540001933  0.8888601738830332  0.8750000000000000
  0.6110828262736457  0.8888898013922271  0.8750000000000000
  0.4443823196981155  0.3888578265158500  0.8750000000000000
  0.9444015845707907  0.8888780207255410  0.8750000000000000
  0.1108415419477645  0.8884113537529637  0.3750000000000000
  0.7777632601577632  0.3888566348366036  0.8750000000000000
  0.4451796958964201  0.8892565146150909  0.3750000000000000
  0.2832639456314189  0.3911235336255171  0.3750000000000000
  0.2781830477994411  0.5569339959656252  0.3750000000000000
  0.6087131907878555  0.3785730297783105  0.3750000000000000
  0.7802643925984650  0.8912310372289511  0.3750000000000000
  0.9454828292928922  0.3892386050562059  0.3750000000000000
  0.1110597742304877  0.5555311810332662  0.8750000000000000
  0.2777129012526434  0.0555046395066846  0.8750000000000000
  0.7777686329572751  0.5555509831452411  0.8750000000000000
  0.6110828262736457  0.0555263582149102  0.8750000000000000
  0.9443836095794012  0.0555298879758356  0.8750000000000000
  0.0554852055442241  0.1110441406434163  0.1249161436344163
  0.5555470949391784  0.6112405257507703  0.1247236563868740
  0.3887863143592395  0.1109172336677761  0.1247887852028045
  0.8889519058221962  0.6111426195778830  0.1249662401022245
  0.7222069245004408  0.1110816418325181  0.1248995496749514
  0.0555425322947928  0.7777497100001101  0.6250526199295430
  0.3888174769759155  0.7777963371239560  0.6250671296545953
  0.2220911395810594  0.2777122364572473  0.6253739038879812
  0.7222377189806185  0.7778377090812737  0.6250986031534885
  0.5555470949391784  0.2776399025218510  0.6252763436131685
  0.8888777044414443  0.2777772995337063  0.6250634649957536
  0.2221613249999318  0.7777473291666266  0.1249378156435984
  0.0554852055442313  0.2777743982341080  0.1249161436344163
  0.3887369863456173  0.2775660366868419  0.1243959883942808
  0.5555223049503987  0.7778452540600267  0.1248870779277620
  0.8889199172096036  0.7777952361895675  0.1249650426827184
  0.7222377189806185  0.2777333432328014  0.1249013968465042
  0.0555056060496146  0.9443700088267706  0.6250464233542432
  0.3888174769759155  0.9443544731854161  0.6250671296545953
  0.2220952659263289  0.4444837340256177  0.6252018990050012
  0.5556426027099672  0.4444879680216479  0.6254044497024600
  0.7222069245004408  0.9444586160013582  0.6251004503252119
  0.8889199172096036  0.4444580143534494  0.6250349573173524
  0.0555056060496146  0.4444689305560094  0.1249535766457426
  0.2221384795351002  0.9443225823709004  0.1249254065242712
  0.5555162130655493  0.9444247731993823  0.1249122481188459
  0.3887369863456173  0.4445042829921039  0.1243959883942808
  0.8888777044414514  0.9444337382410102  0.1249365350042465
  0.7223191295114716  0.4444606743588941  0.1249056054527559
  0.2221384795351002  0.6111492304974930  0.6250745934756577
  0.0554852055442241  0.1110441406434163  0.6250838563657327
  0.5555470949391784  0.6112405257507703  0.6252763436131685
  0.3887863143592395  0.1109172336677618  0.6252112147971811
  0.8889519058221962  0.6111426195778830  0.6250337598977965
  0.0555425322947928  0.6111261556279477  0.1249473800705216
  0.7222069245004408  0.1110816418325181  0.6251004503252119
  0.2220952659263289  0.1109448652341466  0.1247981009951195
  0.3887863143592395  0.6112024140248203  0.1247887852028045
  0.7223191295114716  0.6111917884862900  0.1249056054527559
  0.5555223049503987  0.1110103842234307  0.1248870779277620
  0.3887863143592395  0.6112024140248203  0.6252112147971811
  0.8888616182285939  0.1110974757809614  0.1249220041721634
  0.2221613249999247  0.7777473291666266  0.6250621843564940
  0.0554852055442241  0.2777743982341080  0.6250838563657327
  0.3887369863456173  0.2775660366868419  0.6256040116058400
  0.5555223049503987  0.7778452540600267  0.6251129220722239
  0.8889199172096036  0.7777952361895675  0.6250349573173453
  0.7222377189806185  0.2777333432328085  0.6250986031534885
  0.0555425322947928  0.7777497100001101  0.1249473800705216
  0.3888174769759155  0.7777963371239560  0.1249328703455894
  0.2220911395810594  0.2777122364572473  0.1246260961120970
  0.7222377189806185  0.7778377090812737  0.1249013968465042
  0.5555470949391713  0.2776399025218510  0.1247236563868740
  0.8888777044414443  0.2777772995337063  0.1249365350042465
  0.0555056060496218  0.4444689305560094  0.6250464233542432
  0.2221384795351002  0.9443225823709004  0.6250745934756577
  0.5555162130655493  0.9444247731993823  0.6250877518810546
  0.3887369863456244  0.4445042829921039  0.6256040116058400
  0.8888777044414443  0.9444337382410102  0.6250634649957536
  0.0555056060496146  0.9443700088267706  0.1249535766457426
  0.7223191295114716  0.4444606743588941  0.6250943945473721
  0.3888174769759155  0.9443544731854161  0.1249328703455894
  0.2220952659263289  0.4444837340256177  0.1247981009951124
  0.2221384795351002  0.6111492304974930  0.1249254065242712
  0.5556426027099672  0.4444879680216479  0.1245955502974549
  0.7222069245004408  0.9444586160013582  0.1248995496749514
  0.8889199172096036  0.4444580143534494  0.1249650426827184
  0.0555425322947928  0.6111261556279477  0.6250526199295430
  0.2220952659263289  0.1109448652341466  0.6252018990050012
  0.7223191295114716  0.6111917884862900  0.6250943945473721
  0.5555223049503987  0.1110103842234307  0.6251129220722239
  0.8888616182285939  0.1110974757809614  0.6250779958279360
 
  0.00000000E+00  0.00000000E+00  0.00000000E+00
  0.00000000E+00  0.00000000E+00  0.00000000E+00
  0.00000000E+00  0.00000000E+00  0.00000000E+00
  0.00000000E+00  0.00000000E+00  0.00000000E+00
  0.00000000E+00  0.00000000E+00  0.00000000E+00
  0.00000000E+00  0.00000000E+00  0.00000000E+00
  0.00000000E+00  0.00000000E+00  0.00000000E+00
  0.00000000E+00  0.00000000E+00  0.00000000E+00
  0.00000000E+00  0.00000000E+00  0.00000000E+00
  0.00000000E+00  0.00000000E+00  0.00000000E+00
  0.00000000E+00  0.00000000E+00  0.00000000E+00
  0.00000000E+00  0.00000000E+00  0.00000000E+00
  0.00000000E+00  0.00000000E+00  0.00000000E+00
  0.00000000E+00  0.00000000E+00  0.00000000E+00
  0.00000000E+00  0.00000000E+00  0.00000000E+00
  0.00000000E+00  0.00000000E+00  0.00000000E+00
  0.00000000E+00  0.00000000E+00  0.00000000E+00
  0.00000000E+00  0.00000000E+00  0.00000000E+00
  0.00000000E+00  0.00000000E+00  0.00000000E+00
  0.00000000E+00  0.00000000E+00  0.00000000E+00
  0.00000000E+00  0.00000000E+00  0.00000000E+00
  0.00000000E+00  0.00000000E+00  0.00000000E+00
  0.00000000E+00  0.00000000E+00  0.00000000E+00
  0.00000000E+00  0.00000000E+00  0.00000000E+00
  0.00000000E+00  0.00000000E+00  0.00000000E+00
  0.00000000E+00  0.00000000E+00  0.00000000E+00
  0.00000000E+00  0.00000000E+00  0.00000000E+00
  0.00000000E+00  0.00000000E+00  0.00000000E+00
  0.00000000E+00  0.00000000E+00  0.00000000E+00
  0.00000000E+00  0.00000000E+00  0.00000000E+00
  0.00000000E+00  0.00000000E+00  0.00000000E+00
  0.00000000E+00  0.00000000E+00  0.00000000E+00
  0.00000000E+00  0.00000000E+00  0.00000000E+00
  0.00000000E+00  0.00000000E+00  0.00000000E+00
  0.00000000E+00  0.00000000E+00  0.00000000E+00
  0.00000000E+00  0.00000000E+00  0.00000000E+00
  0.00000000E+00  0.00000000E+00  0.00000000E+00
  0.00000000E+00  0.00000000E+00  0.00000000E+00
  0.00000000E+00  0.00000000E+00  0.00000000E+00
  0.00000000E+00  0.00000000E+00  0.00000000E+00
  0.00000000E+00  0.00000000E+00  0.00000000E+00
  0.00000000E+00  0.00000000E+00  0.00000000E+00
  0.00000000E+00  0.00000000E+00  0.00000000E+00
  0.00000000E+00  0.00000000E+00  0.00000000E+00
  0.00000000E+00  0.00000000E+00  0.00000000E+00
  0.00000000E+00  0.00000000E+00  0.00000000E+00
  0.00000000E+00  0.00000000E+00  0.00000000E+00
  0.00000000E+00  0.00000000E+00  0.00000000E+00
  0.00000000E+00  0.00000000E+00  0.00000000E+00
  0.00000000E+00  0.00000000E+00  0.00000000E+00
  0.00000000E+00  0.00000000E+00  0.00000000E+00
  0.00000000E+00  0.00000000E+00  0.00000000E+00
  0.00000000E+00  0.00000000E+00  0.00000000E+00
  0.00000000E+00  0.00000000E+00  0.00000000E+00
  0.00000000E+00  0.00000000E+00  0.00000000E+00
  0.00000000E+00  0.00000000E+00  0.00000000E+00
  0.00000000E+00  0.00000000E+00  0.00000000E+00
  0.00000000E+00  0.00000000E+00  0.00000000E+00
  0.00000000E+00  0.00000000E+00  0.00000000E+00
  0.00000000E+00  0.00000000E+00  0.00000000E+00
  0.00000000E+00  0.00000000E+00  0.00000000E+00
  0.00000000E+00  0.00000000E+00  0.00000000E+00
  0.00000000E+00  0.00000000E+00  0.00000000E+00
  0.00000000E+00  0.00000000E+00  0.00000000E+00
  0.00000000E+00  0.00000000E+00  0.00000000E+00
  0.00000000E+00  0.00000000E+00  0.00000000E+00
  0.00000000E+00  0.00000000E+00  0.00000000E+00
  0.00000000E+00  0.00000000E+00  0.00000000E+00
  0.00000000E+00  0.00000000E+00  0.00000000E+00
  0.00000000E+00  0.00000000E+00  0.00000000E+00
  0.00000000E+00  0.00000000E+00  0.00000000E+00
  0.00000000E+00  0.00000000E+00  0.00000000E+00
  0.00000000E+00  0.00000000E+00  0.00000000E+00
  0.00000000E+00  0.00000000E+00  0.00000000E+00
  0.00000000E+00  0.00000000E+00  0.00000000E+00
  0.00000000E+00  0.00000000E+00  0.00000000E+00
  0.00000000E+00  0.00000000E+00  0.00000000E+00
  0.00000000E+00  0.00000000E+00  0.00000000E+00
  0.00000000E+00  0.00000000E+00  0.00000000E+00
  0.00000000E+00  0.00000000E+00  0.00000000E+00
  0.00000000E+00  0.00000000E+00  0.00000000E+00
  0.00000000E+00  0.00000000E+00  0.00000000E+00
  0.00000000E+00  0.00000000E+00  0.00000000E+00
  0.00000000E+00  0.00000000E+00  0.00000000E+00
  0.00000000E+00  0.00000000E+00  0.00000000E+00
  0.00000000E+00  0.00000000E+00  0.00000000E+00
  0.00000000E+00  0.00000000E+00  0.00000000E+00
  0.00000000E+00  0.00000000E+00  0.00000000E+00
  0.00000000E+00  0.00000000E+00  0.00000000E+00
  0.00000000E+00  0.00000000E+00  0.00000000E+00
  0.00000000E+00  0.00000000E+00  0.00000000E+00
  0.00000000E+00  0.00000000E+00  0.00000000E+00
  0.00000000E+00  0.00000000E+00  0.00000000E+00
  0.00000000E+00  0.00000000E+00  0.00000000E+00
  0.00000000E+00  0.00000000E+00  0.00000000E+00
  0.00000000E+00  0.00000000E+00  0.00000000E+00
  0.00000000E+00  0.00000000E+00  0.00000000E+00
  0.00000000E+00  0.00000000E+00  0.00000000E+00
  0.00000000E+00  0.00000000E+00  0.00000000E+00
  0.00000000E+00  0.00000000E+00  0.00000000E+00
  0.00000000E+00  0.00000000E+00  0.00000000E+00
  0.00000000E+00  0.00000000E+00  0.00000000E+00
  0.00000000E+00  0.00000000E+00  0.00000000E+00
  0.00000000E+00  0.00000000E+00  0.00000000E+00
  0.00000000E+00  0.00000000E+00  0.00000000E+00
  0.00000000E+00  0.00000000E+00  0.00000000E+00
  0.00000000E+00  0.00000000E+00  0.00000000E+00
  0.00000000E+00  0.00000000E+00  0.00000000E+00
  0.00000000E+00  0.00000000E+00  0.00000000E+00
  0.00000000E+00  0.00000000E+00  0.00000000E+00
  0.00000000E+00  0.00000000E+00  0.00000000E+00
  0.00000000E+00  0.00000000E+00  0.00000000E+00
  0.00000000E+00  0.00000000E+00  0.00000000E+00
  0.00000000E+00  0.00000000E+00  0.00000000E+00
  0.00000000E+00  0.00000000E+00  0.00000000E+00
  0.00000000E+00  0.00000000E+00  0.00000000E+00
  0.00000000E+00  0.00000000E+00  0.00000000E+00
  0.00000000E+00  0.00000000E+00  0.00000000E+00
  0.00000000E+00  0.00000000E+00  0.00000000E+00
  0.00000000E+00  0.00000000E+00  0.00000000E+00
  0.00000000E+00  0.00000000E+00  0.00000000E+00
  0.00000000E+00  0.00000000E+00  0.00000000E+00
  0.00000000E+00  0.00000000E+00  0.00000000E+00
  0.00000000E+00  0.00000000E+00  0.00000000E+00
  0.00000000E+00  0.00000000E+00  0.00000000E+00
  0.00000000E+00  0.00000000E+00  0.00000000E+00
  0.00000000E+00  0.00000000E+00  0.00000000E+00
  0.00000000E+00  0.00000000E+00  0.00000000E+00
  0.00000000E+00  0.00000000E+00  0.00000000E+00
  0.00000000E+00  0.00000000E+00  0.00000000E+00
  0.00000000E+00  0.00000000E+00  0.00000000E+00
  0.00000000E+00  0.00000000E+00  0.00000000E+00
  0.00000000E+00  0.00000000E+00  0.00000000E+00
  0.00000000E+00  0.00000000E+00  0.00000000E+00
  0.00000000E+00  0.00000000E+00  0.00000000E+00
  0.00000000E+00  0.00000000E+00  0.00000000E+00
  0.00000000E+00  0.00000000E+00  0.00000000E+00
  0.00000000E+00  0.00000000E+00  0.00000000E+00
  0.00000000E+00  0.00000000E+00  0.00000000E+00
  0.00000000E+00  0.00000000E+00  0.00000000E+00
  0.00000000E+00  0.00000000E+00  0.00000000E+00
  0.00000000E+00  0.00000000E+00  0.00000000E+00
  0.00000000E+00  0.00000000E+00  0.00000000E+00
  0.00000000E+00  0.00000000E+00  0.00000000E+00
  0.00000000E+00  0.00000000E+00  0.00000000E+00
  0.00000000E+00  0.00000000E+00  0.00000000E+00
  0.00000000E+00  0.00000000E+00  0.00000000E+00
  0.00000000E+00  0.00000000E+00  0.00000000E+00
  0.00000000E+00  0.00000000E+00  0.00000000E+00
  0.00000000E+00  0.00000000E+00  0.00000000E+00
  0.00000000E+00  0.00000000E+00  0.00000000E+00
  0.00000000E+00  0.00000000E+00  0.00000000E+00
  0.00000000E+00  0.00000000E+00  0.00000000E+00
  0.00000000E+00  0.00000000E+00  0.00000000E+00
  0.00000000E+00  0.00000000E+00  0.00000000E+00
  0.00000000E+00  0.00000000E+00  0.00000000E+00
  0.00000000E+00  0.00000000E+00  0.00000000E+00
  0.00000000E+00  0.00000000E+00  0.00000000E+00
  0.00000000E+00  0.00000000E+00  0.00000000E+00
  0.00000000E+00  0.00000000E+00  0.00000000E+00
  0.00000000E+00  0.00000000E+00  0.00000000E+00
  0.00000000E+00  0.00000000E+00  0.00000000E+00
  0.00000000E+00  0.00000000E+00  0.00000000E+00
  0.00000000E+00  0.00000000E+00  0.00000000E+00
  0.00000000E+00  0.00000000E+00  0.00000000E+00
  0.00000000E+00  0.00000000E+00  0.00000000E+00
  0.00000000E+00  0.00000000E+00  0.00000000E+00
  0.00000000E+00  0.00000000E+00  0.00000000E+00
  0.00000000E+00  0.00000000E+00  0.00000000E+00
  0.00000000E+00  0.00000000E+00  0.00000000E+00
  0.00000000E+00  0.00000000E+00  0.00000000E+00
  0.00000000E+00  0.00000000E+00  0.00000000E+00
  0.00000000E+00  0.00000000E+00  0.00000000E+00
  0.00000000E+00  0.00000000E+00  0.00000000E+00
  0.00000000E+00  0.00000000E+00  0.00000000E+00
  0.00000000E+00  0.00000000E+00  0.00000000E+00
  0.00000000E+00  0.00000000E+00  0.00000000E+00
  0.00000000E+00  0.00000000E+00  0.00000000E+00
  0.00000000E+00  0.00000000E+00  0.00000000E+00
  0.00000000E+00  0.00000000E+00  0.00000000E+00
  0.00000000E+00  0.00000000E+00  0.00000000E+00
  0.00000000E+00  0.00000000E+00  0.00000000E+00
  0.00000000E+00  0.00000000E+00  0.00000000E+00
  0.00000000E+00  0.00000000E+00  0.00000000E+00
  0.00000000E+00  0.00000000E+00  0.00000000E+00
  0.00000000E+00  0.00000000E+00  0.00000000E+00
  0.00000000E+00  0.00000000E+00  0.00000000E+00
  0.00000000E+00  0.00000000E+00  0.00000000E+00
  0.00000000E+00  0.00000000E+00  0.00000000E+00
  0.00000000E+00  0.00000000E+00  0.00000000E+00
  0.00000000E+00  0.00000000E+00  0.00000000E+00
  0.00000000E+00  0.00000000E+00  0.00000000E+00
  0.00000000E+00  0.00000000E+00  0.00000000E+00
  0.00000000E+00  0.00000000E+00  0.00000000E+00
  0.00000000E+00  0.00000000E+00  0.00000000E+00
  0.00000000E+00  0.00000000E+00  0.00000000E+00
  0.00000000E+00  0.00000000E+00  0.00000000E+00
  0.00000000E+00  0.00000000E+00  0.00000000E+00
  0.00000000E+00  0.00000000E+00  0.00000000E+00
  0.00000000E+00  0.00000000E+00  0.00000000E+00
  0.00000000E+00  0.00000000E+00  0.00000000E+00
  0.00000000E+00  0.00000000E+00  0.00000000E+00
  0.00000000E+00  0.00000000E+00  0.00000000E+00
  0.00000000E+00  0.00000000E+00  0.00000000E+00
  0.00000000E+00  0.00000000E+00  0.00000000E+00
  0.00000000E+00  0.00000000E+00  0.00000000E+00
  0.00000000E+00  0.00000000E+00  0.00000000E+00
  0.00000000E+00  0.00000000E+00  0.00000000E+00
  0.00000000E+00  0.00000000E+00  0.00000000E+00
  0.00000000E+00  0.00000000E+00  0.00000000E+00
  0.00000000E+00  0.00000000E+00  0.00000000E+00
  0.00000000E+00  0.00000000E+00  0.00000000E+00
  0.00000000E+00  0.00000000E+00  0.00000000E+00
  0.00000000E+00  0.00000000E+00  0.00000000E+00
  0.00000000E+00  0.00000000E+00  0.00000000E+00
  0.00000000E+00  0.00000000E+00  0.00000000E+00
  0.00000000E+00  0.00000000E+00  0.00000000E+00
  0.00000000E+00  0.00000000E+00  0.00000000E+00
  0.00000000E+00  0.00000000E+00  0.00000000E+00
  0.00000000E+00  0.00000000E+00  0.00000000E+00
  0.00000000E+00  0.00000000E+00  0.00000000E+00
  0.00000000E+00  0.00000000E+00  0.00000000E+00
  0.00000000E+00  0.00000000E+00  0.00000000E+00
  0.00000000E+00  0.00000000E+00  0.00000000E+00
  0.00000000E+00  0.00000000E+00  0.00000000E+00
  0.00000000E+00  0.00000000E+00  0.00000000E+00
  0.00000000E+00  0.00000000E+00  0.00000000E+00
  0.00000000E+00  0.00000000E+00  0.00000000E+00
  0.00000000E+00  0.00000000E+00  0.00000000E+00
  0.00000000E+00  0.00000000E+00  0.00000000E+00
  0.00000000E+00  0.00000000E+00  0.00000000E+00
  0.00000000E+00  0.00000000E+00  0.00000000E+00
  0.00000000E+00  0.00000000E+00  0.00000000E+00
  0.00000000E+00  0.00000000E+00  0.00000000E+00
  0.00000000E+00  0.00000000E+00  0.00000000E+00
  0.00000000E+00  0.00000000E+00  0.00000000E+00
  0.00000000E+00  0.00000000E+00  0.00000000E+00
  0.00000000E+00  0.00000000E+00  0.00000000E+00
  0.00000000E+00  0.00000000E+00  0.00000000E+00
  0.00000000E+00  0.00000000E+00  0.00000000E+00
  0.00000000E+00  0.00000000E+00  0.00000000E+00
  0.00000000E+00  0.00000000E+00  0.00000000E+00
  0.00000000E+00  0.00000000E+00  0.00000000E+00
  0.00000000E+00  0.00000000E+00  0.00000000E+00
  0.00000000E+00  0.00000000E+00  0.00000000E+00
  0.00000000E+00  0.00000000E+00  0.00000000E+00
  0.00000000E+00  0.00000000E+00  0.00000000E+00
  0.00000000E+00  0.00000000E+00  0.00000000E+00