 B N 
 1.0
 14.936314146199660   0.000000000000000   0.000000000000000
 -7.468157073099825  12.935227489513863   0.000000000000000
  0.000000000000001   0.000000000000001  13.341276283792837
 B N 
 143 145
Cartesian
  1.242722137565784   0.724028814764393   5.002978606422314 
  4.952243237359308   7.211353739509248   5.002978606422314 
  6.225434935533957   0.724028814764393   5.002978606422314 
  9.955777391950296   7.184218791856849   5.002978606422314 
 11.202235609649751   0.718623749417456   5.002978606422314 
 -3.734078536549858   9.342108742426666  11.673616748318732 
  1.244460212898755   9.342992503439458  11.673616748318732 
  2.488780856555920   2.873682209796064  11.673616748318732 
  6.223696860213301   9.342992503439458  11.673616748318732 
  7.469229645409478   2.873875747760616  11.673616748318732 
 12.446453172189205   2.874084749040837  11.673616748318732 
 -1.242061911933944   9.341589236422488   5.002978606422314 
 -0.025026534585252   2.860045921189332   5.002978606422314 
  5.013786760928743   2.884910922240143   5.002978606422314 
  3.734078536545490   9.371006895383376   5.002978606422314 
  8.710218985038590   9.341589236422488   5.002978606422314 
  9.963404306986419   2.871485499830279   5.002978606422314 
 -4.978911467811241  11.497682851780290  11.673616748318732 
  0.000218315338960  11.498106035101117  11.673616748318732 
  1.243686533330995   5.030248837837259  11.673616748318732 
  6.224470539771590   5.030248837837259  11.673616748318732 
  4.978653737820227  11.498596722125615  11.673616748318732 
 11.202235609647619   5.030114157081356  11.673616748318732 
 -1.240997275592497   5.025957030099723   5.002978606422314 
 -2.488520129636553  11.500518198995143   5.002978606422314 
  2.489061221198336  11.504560984604167   5.002978606422314 
  7.466948184488799  11.498677942843955   5.002978606422314 
  8.709154348695900   5.025957030099723   5.002978606422314 
 -0.000721727838058   7.186654183933806  11.673616748318732 
  1.244043802336931   0.717980403148010  11.673616748318732 
  4.979172859782597   7.187167690125859  11.673616748318732 
  6.224113270765775   0.717980403147997  11.673616748318732 
  9.957870136840436   7.186264745809561  11.673616748318732 
 -2.487620318845502   7.184218791856849   5.002978606422314 
 11.202235609649751   0.718623749417457  11.673616748318732 
  3.734078536548848   0.723799654274163   5.002978606422314 
  2.515913835744920   7.211353739509248   5.002978606422314 
  7.463674608007706   7.183649541747379   5.002978606422314 
  8.718386991624662   0.715052253327555   5.002978606422314 
  2.488984213328944   7.187167690125846  11.673616748318732 
 13.686084227683386   0.715052253327555   5.002978606422314 
 -1.244880132481650   9.342378629692655  11.673616748318732 
 -0.001072572305567   2.873875747760616  11.673616748318732 
  4.979376216542869   2.873682209796064  11.673616748318732 
  3.734078536552549   9.343347242248093  11.673616748318732 
  8.713037205577052   9.342378629692655  11.673616748318732 
  9.958018047109839   2.874084749040837  11.673616748318732 
 -3.734078536549858   9.342108742426664   5.002978606422314 
  1.250359123390090   9.341112892904626   5.002978606422314 
  2.454370312171628   2.884910922240143   5.002978606422314 
  6.217797949710315   9.341112892904626   5.002978606422314 
  7.493183607679543   2.860045921189332   5.002978606422314 
 12.441066912325589   2.871485499830279   5.002978606422314 
 -1.245574521317801   5.030125831172440  11.673616748318732 
 -2.489245605289474  11.497682851780290  11.673616748318732 
  2.489503335283497  11.498596722125615  11.673616748318732 
  3.734078536549918   5.030366245922021  11.673616748318732 
  7.467938757756625  11.498106035101117  11.673616748318732 
 -4.979636943459802  11.500518198995143   5.002978606422314 
  8.713731594425610   5.030125831172440  11.673616748318732 
  0.001208888610729  11.498677942843955   5.002978606422314 
  1.236205611367989   4.994834076019000   5.002978606422314 
  0.004482465091639   7.183649541747379   5.002978606422314 
  6.231951461739493   4.994834076019000   5.002978606422314 
  4.979095851917890  11.504560984604167   5.002978606422314 
 11.202235609649598   5.028970341592276   5.002978606422314 
 -2.489713063740032   7.186264745809561  11.673616748318732 
  3.734078536549259   0.717790369893253  11.673616748318732 
  7.468878800941645   7.186654183933806  11.673616748318732 
  8.713442845843010   0.718417266601089  11.673616748318732 
 13.691028373459101   0.718417266601102  11.673616748318732 
 -0.000907378070920   1.435559079792905   1.638893997681983 
  3.734078536549664   7.907813159652802   1.618873692168414 
  4.979366218244849   1.433456754089160   1.625160793299780 
  8.715144032057676   7.906185750607523   1.640653085014515 
  9.957874602865930   1.437055911651226   1.655184398881205 
 -4.978111780266388  10.060351670567405   8.355574602196748 
 -0.001552065100050  10.061379937236982   8.362262040191890 
  1.242136411217654   3.591642789056721   8.387083520670263 
  4.979779906817475  10.062362513825750   8.367063215158188 
  6.226020661881583   3.591642789056721   8.387083520670263 
 11.202235609646893   3.593568645342103   8.355186680342936 
 -2.490045292833688  10.060351670567405   1.650382610647106 
 -1.246608748334777   3.593177144148092   1.638893997681983 
  3.734078536549558   3.590458301419880   1.609942154870514 
  2.488377166284663  10.062362513825750   1.638893997681983 
  7.469709138196572  10.061379937236982   1.643695172651671 
  8.714765821438434   3.593177144148092   1.638893997681983 
 -6.223248899194522  12.214935889597822   8.362262040191890 
 -1.244908173910493  12.214935889597822   8.362262040191890 
 -0.003580299334967   5.750370224470803   8.380796419540726 
  4.981075395600329   5.750320218173389   8.396015057975141 
  3.734078536548682  12.216986914460092   8.350772813961475 
  9.958879500837638   5.750010400447981   8.362262040191890 
 -2.490722427743016   5.750010400447980   1.643695172651671 
 -3.734078536552889  12.213954726069266   1.640653085014515 
  1.244303222194791  12.216378790971371   1.650770532498785 
  2.487081677499508   5.750320218173388   1.609942154870514 
  6.223853850896834  12.216378790971371   1.650770532498785 
  7.471737372439239   5.750370224470802   1.625160793299780 
 -1.246986958963351   7.906185750607523   8.365304127827699 
 -0.000907378070919   1.435559079792906   8.367063215158188 
  3.734078536549665   7.907813159652803   8.387083520671798 
  4.979366218244850   1.433456754089160   8.380796419540726 
  8.715144032057676   7.906185750607523   8.365304127827699 
 -3.734078536548605   7.905622886143473   1.650382610647106 
  9.957874602865930   1.437055911651227   8.350772813961475 
  2.488790854858178   1.433456754089160   1.625160793299793 
  1.241707382356561   7.907271759206463   1.625160793299780 
  6.226449690744096   7.907271759206463   1.625160793299780 
  7.469064451169481   1.435559079792905   1.638893997681983 
  1.241707382356562   7.907271759206464   8.380796419540726 
 12.446596616434347   1.437055911651213   1.655184398881205 
 -2.490045292833687  10.060351670567405   8.355574602196748 
 -1.246608748334777   3.593177144148092   8.367063215158188 
  3.734078536549626   3.590458301419765   8.396015057975141 
  2.488377166284664  10.062362513825750   8.367063215158188 
  7.469709138196573  10.061379937236982   8.362262040191890 
  8.714765821438434   3.593177144148092   8.367063215158188 
 -4.978111780266373  10.060351670567405   1.650382610647106 
 -0.001552065100051  10.061379937236982   1.643695172651671 
  1.242136411217653   3.591642789056720   1.618873692168454 
  4.979779906817474  10.062362513825750   1.638893997681983 
  6.226020661881583   3.591642789056720   1.618873692168454 
 11.202235609646909   3.593568645342077   1.650770532498785 
 -2.490722427743015   5.750010400447981   8.362262040191890 
 -3.734078536552889  12.213954726069266   8.365304127827699 
  1.244303222194791  12.216378790971371   8.355186680342936 
  2.487081677499508   5.750320218173389   8.396015057975141 
  6.223853850896835  12.216378790971371   8.355186680342936 
 -6.223248899194523  12.214935889597822   1.643695172651671 
  7.471737372439240   5.750370224470803   8.380796419540726 
 -1.244908173910494  12.214935889597822   1.643695172651671 
 -0.003580299334968   5.750370224470802   1.625160793299780 
 -1.246986958963351   7.906185750607523   1.640653085014515 
  4.981075395600328   5.750320218173388   1.609942154870514 
  3.734078536548681  12.216986914460092   1.655184398881205 
  9.958879500837638   5.750010400447980   1.643695172651671 
 -3.734078536548604   7.905622886143473   8.355574602196748 
  2.488790854858178   1.433456754089160   8.380796419540726 
  6.226449690744097   7.907271759206464   8.380796419540726 
  7.469064451169482   1.435559079792906   8.367063215158188 
 12.446596616434340   1.437055911651227   8.350772813961475 
  3.734078536549917   5.030366245922021   5.002978606422314 
  1.244988432142001   0.718473103753696   1.642734920297534 
  4.978842239185866   7.185988971972730   1.630692409028374 
  6.223168640958337   0.718473103753696   1.642734920297521 
  9.957640856470643   7.186442326836257   1.652225011860408 
 11.202235609649751   0.718623749417456   1.665505698465235 
 -3.734078536549858   9.342108742426664   8.347596039641191 
  1.244414589234786   9.341928079728355   8.363222292543291 
  2.489636346132993   2.874557894703843   8.375264803819523 
  6.223742483872103   9.341928079728355   8.363222292543291 
  7.467771590769306   2.874717555999699   8.365583313445374 
 12.447122297419794   2.874800928880440   8.349135389293698 
 -1.244919281979836   9.342091276555509   1.652225011860394 
  0.000385482335591   2.874717555999698   1.640373899395652 
  4.978520726964539   2.874557894703842   1.630692409028307 
  3.734078536557425   9.341663625761738   1.640373899395666 
  8.713076355071905   9.342091276555509   1.652225011860394 
  9.957348921875843   2.874800928880439   1.656821823546300 
 -4.978643037950641  11.497792623891771   8.353732200986876 
 -0.000297321879237  11.497808331816627   8.352333554016420 
  1.244872643495139   5.030551871090876   8.375264803819523 
  6.223284429601304   5.030551871090876   8.375264803819523 
  4.978939405136309  11.497659152757794   8.349135389293698 
 11.202235609645683   5.030709563653709   8.352333554016420 
 -1.244675515175454   5.030697554280016   1.642734920297534 
 -2.489514035156857  11.497792623891771   1.652225011860394 
  2.489217667963156  11.497659152757718   1.656821823546300 
  3.734078536549917   5.030366245922020   1.634179103851551 
  7.468454394970951  11.497808331816627   1.653623658827033 
  8.712832588278214   5.030697554280016   1.642734920297521 
 -0.000229145515658   7.186369791393136   8.369285867155032 
  1.244988432142001   0.718473103753697   8.363222292543291 
  4.978842239185867   7.185988971972731   8.375264803819523 
  6.223168640958338   0.718473103753697   8.363222292543291 
  9.957640856470643   7.186442326836258   8.353732200986876 
 -2.489483783374884   7.186442326836257   1.652225011860394 
 11.202235609649751   0.718623749417456   8.340451514379300 
  3.734078536545718   0.718359154968021   1.636671345685781 
  2.489314833910846   7.185988971972730   1.630692409028468 
  7.468386218626590   7.186369791393135   1.636671345685781 
  8.712488053290066   0.718638656132692   1.656821823546300 
  2.489314833910846   7.185988971972731   8.375264803819402 
 13.691983166007304   0.718638656132692   1.656821823546300 
 -1.244919281979836   9.342091276555509   8.353732200986876 
  0.000385482335592   2.874717555999699   8.365583313445374 
  4.978520726964540   2.874557894703843   8.375264803819523 
  3.734078536557426   9.341663625761738   8.365583313445374 
  8.713076355071905   9.342091276555509   8.353732200986876 
  9.957348921875843   2.874800928880440   8.349135389293698 
 -3.734078536549859   9.342108742426664   1.658361173204077 
  1.244414589234785   9.341928079728355   1.642734920297534 
  2.489636346132992   2.874557894703842   1.630692409028388 
  6.223742483872102   9.341928079728355   1.642734920297521 
  7.467771590769305   2.874717555999698   1.640373899395652 
 12.447122297419885   2.874800928880439   1.656821823546300 
 -1.244675515175453   5.030697554280017   8.363222292543291 
 -2.489514035156856  11.497792623891771   8.353732200986876 
  2.489217667963156  11.497659152757718   8.349135389293698 
  3.734078536549917   5.030366245922021   8.371778108987673 
  7.468454394970952  11.497808331816627   8.352333554016420 
 -4.978643037950642  11.497792623891771   1.652225011860394 
  8.712832588278214   5.030697554280017   8.363222292543291 
 -0.000297321879238  11.497808331816627   1.653623658827033 
  1.244872643494736   5.030551871090875   1.630692409028374 
 -0.000229145515658   7.186369791393135   1.636671345685781 
  6.223284429601303   5.030551871090875   1.630692409028374 
  4.978939405136352  11.497659152757718   1.656821823546300 
 11.202235609645683   5.030709563653708   1.653623658827033 
 -2.489483783374884   7.186442326836258   8.353732200986876 
  3.734078536545719   0.718359154968022   8.369285867155032 
  7.468386218626591   7.186369791393136   8.369285867155032 
  8.712488053290066   0.718638656132693   8.349135389293698 
 13.691983166007304   0.718638656132693   8.349135389293698 
  0.001063314648340   1.438182510978985   5.002978606422314 
  3.734078536546049   7.909206134588302   5.002978606422314 
  4.966935502846682   1.472200651815680   5.002978606422314 
  8.700284056484211   7.897606339705315   5.002978606422314 
  9.956959263926713   1.437584382836269   5.002978606422314 
 -4.978809512424033  10.060754506417567  11.673616748318732 
  0.000051944107185  10.060795761235855  11.673616748318732 
  1.244627244562219   3.593080872355073  11.673616748318732 
  4.978752662272004  10.060839550583626  11.673616748318732 
  6.223529828542574   3.593080872355073  11.673616748318732 
 11.202235609652607   3.593082072041129  11.673616748318732 
 -2.486768561791018  10.062243492119505   5.002978606422314 
 -1.243351443922131   3.593572098511664   5.002978606422314 
  3.734078536549401   3.701898707326989   5.002978606422314 
  2.489663777969867  10.059344128279644   5.002978606422314 
  7.461103888869641  10.054023732292000   5.002978606422314 
  8.711508517024534   3.593572098511664   5.002978606422314 
 -6.223544992529142  12.216617090316499  11.673616748318732 
 -1.244612080562252  12.216617090316499  11.673616748318732 
 -0.000020364320066   5.748930291117554  11.673616748318732 
  4.978750659364665   5.748978031081942  11.673616748318732 
  3.734078536548456  12.216642898755870  11.673616748318732 
  9.957571584980549   5.748913375727163  11.673616748318732 
 -2.480049142713535   5.746236138390854   5.002978606422314 
 -3.734078536548610  12.231113547866608   5.002978606422314 
  1.244143303445367  12.216286461833581   5.002978606422314 
  2.583591900022877   5.694600015219971   5.002978606422314 
  6.224013769654518  12.216286461833581   5.002978606422314 
  7.431968815068153   5.741763590929570   5.002978606422314 
 -1.244674147930639   7.904850448536703  11.673616748318732 
 -0.000102075487615   1.437210181286273  11.673616748318732 
  3.734078536548925   7.904936993056087  11.673616748318732 
  4.978833269598270   1.437259714929335  11.673616748318732 
  8.712831221024203   7.904850448536703  11.673616748318732 
 -3.734078536551114   7.901839243046830   5.002978606422314 
  9.957576676526157   1.437227919504011  11.673616748318732 
  2.501221570251619   1.472200651815718   5.002978606422314 
  1.269045224331040   7.877134495019844   5.002978606422314 
  6.199111848771710   7.877134495019844   5.002978606422314 
  7.467093758445622   1.438182510979011   5.002978606422314 
  1.244734368731222   7.904908731718206  11.673616748318732 
 12.447511955374734   1.437584382836269   5.002978606422314 
 -2.489347560678028  10.060754506417567  11.673616748318732 
 -1.244776201205367   3.593049005895805  11.673616748318732 
  3.734078536544720   3.593142675611182  11.673616748318732 
  2.489404410826178  10.060839550583600  11.673616748318732 
  7.468105128993118  10.060795761235855  11.673616748318732 
  8.712933274309608   3.593049005895805  11.673616748318732 
 -4.981388511311672  10.062243492119583   5.002978606422314 
  0.007053184234483  10.054023732292000   5.002978606422314 
  1.240930059539350   3.590946301588971   5.002978606422314 
  4.978493295119293  10.059344128279644   5.002978606422314 
  6.227227013559048   3.590946301588971   5.002978606422314 
 11.202235609649993   3.593753303612338   5.002978606422314 
 -2.489414511872273   5.748913375727163  11.673616748318732 
 -3.734078536551986  12.216625330213818  11.673616748318732 
  1.244724607036415  12.216622077616924  11.673616748318732 
  2.489406413735172   5.748978031081942  11.673616748318732 
  6.223432466065951  12.216622077616924  11.673616748318732 
 -6.221180863495784  12.226066356593334   5.002978606422314 
  7.468177437419768   5.748930291117554  11.673616748318732 
 -1.246976209597225  12.226066356593334   5.002978606422314 
  0.036188258032323   5.741763590929570   5.002978606422314 
 -1.232126983381521   7.897606339705315   5.002978606422314 
  4.884565173076957   5.694600015219971   5.002978606422314 
  3.734078536551072  12.215929972092127   5.002978606422314 
  9.948206215820182   5.746236138390854   5.002978606422314 
 -3.734078536550232   7.904817214449338  11.673616748318732 
  2.489323803499174   1.437259714929335  11.673616748318732 
  6.223422704371960   7.904908731718206  11.673616748318732 
  7.468259148581481   1.437210181286337  11.673616748318732 
 12.446894542773125   1.437227919504011  11.673616748318732 
Generated by cif2cell 2.0.0.  :  Failed to get author information, No journal information. Species order: B N 
 1.0
 14.936314146199660   0.000000000000000   0.000000000000000
 -7.468157073099825  12.935227489513863   0.000000000000000
  0.000000000000001   0.000000000000001  13.341276283792837
 B N 
 143 145
Cartesian
  1.242722137565784   0.724028814764393   5.002978606422314 
  4.952243237359308   7.211353739509248   5.002978606422314 
  6.225434935533957   0.724028814764393   5.002978606422314 
  9.955777391950296   7.184218791856849   5.002978606422314 
 11.202235609649751   0.718623749417456   5.002978606422314 
 -3.734078536549858   9.342108742426666  11.673616748318732 
  1.244460212898755   9.342992503439458  11.673616748318732 
  2.488780856555920   2.873682209796064  11.673616748318732 
  6.223696860213301   9.342992503439458  11.673616748318732 
  7.469229645409478   2.873875747760616  11.673616748318732 
 12.446453172189205   2.874084749040837  11.673616748318732 
 -1.242061911933944   9.341589236422488   5.002978606422314 
 -0.025026534585252   2.860045921189332   5.002978606422314 
  5.013786760928743   2.884910922240143   5.002978606422314 
  3.734078536545490   9.371006895383376   5.002978606422314 
  8.710218985038590   9.341589236422488   5.002978606422314 
  9.963404306986419   2.871485499830279   5.002978606422314 
 -4.978911467811241  11.497682851780290  11.673616748318732 
  0.000218315338960  11.498106035101117  11.673616748318732 
  1.243686533330995   5.030248837837259  11.673616748318732 
  6.224470539771590   5.030248837837259  11.673616748318732 
  4.978653737820227  11.498596722125615  11.673616748318732 
 11.202235609647619   5.030114157081356  11.673616748318732 
 -1.240997275592497   5.025957030099723   5.002978606422314 
 -2.488520129636553  11.500518198995143   5.002978606422314 
  2.489061221198336  11.504560984604167   5.002978606422314 
  7.466948184488799  11.498677942843955   5.002978606422314 
  8.709154348695900   5.025957030099723   5.002978606422314 
 -0.000721727838058   7.186654183933806  11.673616748318732 
  1.244043802336931   0.717980403148010  11.673616748318732 
  4.979172859782597   7.187167690125859  11.673616748318732 
  6.224113270765775   0.717980403147997  11.673616748318732 
  9.957870136840436   7.186264745809561  11.673616748318732 
 -2.487620318845502   7.184218791856849   5.002978606422314 
 11.202235609649751   0.718623749417457  11.673616748318732 
  3.734078536548848   0.723799654274163   5.002978606422314 
  2.515913835744920   7.211353739509248   5.002978606422314 
  7.463674608007706   7.183649541747379   5.002978606422314 
  8.718386991624662   0.715052253327555   5.002978606422314 
  2.488984213328944   7.187167690125846  11.673616748318732 
 13.686084227683386   0.715052253327555   5.002978606422314 
 -1.244880132481650   9.342378629692655  11.673616748318732 
 -0.001072572305567   2.873875747760616  11.673616748318732 
  4.979376216542869   2.873682209796064  11.673616748318732 
  3.734078536552549   9.343347242248093  11.673616748318732 
  8.713037205577052   9.342378629692655  11.673616748318732 
  9.958018047109839   2.874084749040837  11.673616748318732 
 -3.734078536549858   9.342108742426664   5.002978606422314 
  1.250359123390090   9.341112892904626   5.002978606422314 
  2.454370312171628   2.884910922240143   5.002978606422314 
  6.217797949710315   9.341112892904626   5.002978606422314 
  7.493183607679543   2.860045921189332   5.002978606422314 
 12.441066912325589   2.871485499830279   5.002978606422314 
 -1.245574521317801   5.030125831172440  11.673616748318732 
 -2.489245605289474  11.497682851780290  11.673616748318732 
  2.489503335283497  11.498596722125615  11.673616748318732 
  3.734078536549918   5.030366245922021  11.673616748318732 
  7.467938757756625  11.498106035101117  11.673616748318732 
 -4.979636943459802  11.500518198995143   5.002978606422314 
  8.713731594425610   5.030125831172440  11.673616748318732 
  0.001208888610729  11.498677942843955   5.002978606422314 
  1.236205611367989   4.994834076019000   5.002978606422314 
  0.004482465091639   7.183649541747379   5.002978606422314 
  6.231951461739493   4.994834076019000   5.002978606422314 
  4.979095851917890  11.504560984604167   5.002978606422314 
 11.202235609649598   5.028970341592276   5.002978606422314 
 -2.489713063740032   7.186264745809561  11.673616748318732 
  3.734078536549259   0.717790369893253  11.673616748318732 
  7.468878800941645   7.186654183933806  11.673616748318732 
  8.713442845843010   0.718417266601089  11.673616748318732 
 13.691028373459101   0.718417266601102  11.673616748318732 
 -0.000907378070920   1.435559079792905   1.638893997681983 
  3.734078536549664   7.907813159652802   1.618873692168414 
  4.979366218244849   1.433456754089160   1.625160793299780 
  8.715144032057676   7.906185750607523   1.640653085014515 
  9.957874602865930   1.437055911651226   1.655184398881205 
 -4.978111780266388  10.060351670567405   8.355574602196748 
 -0.001552065100050  10.061379937236982   8.362262040191890 
  1.242136411217654   3.591642789056721   8.387083520670263 
  4.979779906817475  10.062362513825750   8.367063215158188 
  6.226020661881583   3.591642789056721   8.387083520670263 
 11.202235609646893   3.593568645342103   8.355186680342936 
 -2.490045292833688  10.060351670567405   1.650382610647106 
 -1.246608748334777   3.593177144148092   1.638893997681983 
  3.734078536549558   3.590458301419880   1.609942154870514 
  2.488377166284663  10.062362513825750   1.638893997681983 
  7.469709138196572  10.061379937236982   1.643695172651671 
  8.714765821438434   3.593177144148092   1.638893997681983 
 -6.223248899194522  12.214935889597822   8.362262040191890 
 -1.244908173910493  12.214935889597822   8.362262040191890 
 -0.003580299334967   5.750370224470803   8.380796419540726 
  4.981075395600329   5.750320218173389   8.396015057975141 
  3.734078536548682  12.216986914460092   8.350772813961475 
  9.958879500837638   5.750010400447981   8.362262040191890 
 -2.490722427743016   5.750010400447980   1.643695172651671 
 -3.734078536552889  12.213954726069266   1.640653085014515 
  1.244303222194791  12.216378790971371   1.650770532498785 
  2.487081677499508   5.750320218173388   1.609942154870514 
  6.223853850896834  12.216378790971371   1.650770532498785 
  7.471737372439239   5.750370224470802   1.625160793299780 
 -1.246986958963351   7.906185750607523   8.365304127827699 
 -0.000907378070919   1.435559079792906   8.367063215158188 
  3.734078536549665   7.907813159652803   8.387083520671798 
  4.979366218244850   1.433456754089160   8.380796419540726 
  8.715144032057676   7.906185750607523   8.365304127827699 
 -3.734078536548605   7.905622886143473   1.650382610647106 
  9.957874602865930   1.437055911651227   8.350772813961475 
  2.488790854858178   1.433456754089160   1.625160793299793 
  1.241707382356561   7.907271759206463   1.625160793299780 
  6.226449690744096   7.907271759206463   1.625160793299780 
  7.469064451169481   1.435559079792905   1.638893997681983 
  1.241707382356562   7.907271759206464   8.380796419540726 
 12.446596616434347   1.437055911651213   1.655184398881205 
 -2.490045292833687  10.060351670567405   8.355574602196748 
 -1.246608748334777   3.593177144148092   8.367063215158188 
  3.734078536549626   3.590458301419765   8.396015057975141 
  2.488377166284664  10.062362513825750   8.367063215158188 
  7.469709138196573  10.061379937236982   8.362262040191890 
  8.714765821438434   3.593177144148092   8.367063215158188 
 -4.978111780266373  10.060351670567405   1.650382610647106 
 -0.001552065100051  10.061379937236982   1.643695172651671 
  1.242136411217653   3.591642789056720   1.618873692168454 
  4.979779906817474  10.062362513825750   1.638893997681983 
  6.226020661881583   3.591642789056720   1.618873692168454 
 11.202235609646909   3.593568645342077   1.650770532498785 
 -2.490722427743015   5.750010400447981   8.362262040191890 
 -3.734078536552889  12.213954726069266   8.365304127827699 
  1.244303222194791  12.216378790971371   8.355186680342936 
  2.487081677499508   5.750320218173389   8.396015057975141 
  6.223853850896835  12.216378790971371   8.355186680342936 
 -6.223248899194523  12.214935889597822   1.643695172651671 
  7.471737372439240   5.750370224470803   8.380796419540726 
 -1.244908173910494  12.214935889597822   1.643695172651671 
 -0.003580299334968   5.750370224470802   1.625160793299780 
 -1.246986958963351   7.906185750607523   1.640653085014515 
  4.981075395600328   5.750320218173388   1.609942154870514 
  3.734078536548681  12.216986914460092   1.655184398881205 
  9.958879500837638   5.750010400447980   1.643695172651671 
 -3.734078536548604   7.905622886143473   8.355574602196748 
  2.488790854858178   1.433456754089160   8.380796419540726 
  6.226449690744097   7.907271759206464   8.380796419540726 
  7.469064451169482   1.435559079792906   8.367063215158188 
 12.446596616434340   1.437055911651227   8.350772813961475 
  3.734078536549917   5.030366245922021   5.002978606422314 
  1.244988432142001   0.718473103753696   1.642734920297534 
  4.978842239185866   7.185988971972730   1.630692409028374 
  6.223168640958337   0.718473103753696   1.642734920297521 
  9.957640856470643   7.186442326836257   1.652225011860408 
 11.202235609649751   0.718623749417456   1.665505698465235 
 -3.734078536549858   9.342108742426664   8.347596039641191 
  1.244414589234786   9.341928079728355   8.363222292543291 
  2.489636346132993   2.874557894703843   8.375264803819523 
  6.223742483872103   9.341928079728355   8.363222292543291 
  7.467771590769306   2.874717555999699   8.365583313445374 
 12.447122297419794   2.874800928880440   8.349135389293698 
 -1.244919281979836   9.342091276555509   1.652225011860394 
  0.000385482335591   2.874717555999698   1.640373899395652 
  4.978520726964539   2.874557894703842   1.630692409028307 
  3.734078536557425   9.341663625761738   1.640373899395666 
  8.713076355071905   9.342091276555509   1.652225011860394 
  9.957348921875843   2.874800928880439   1.656821823546300 
 -4.978643037950641  11.497792623891771   8.353732200986876 
 -0.000297321879237  11.497808331816627   8.352333554016420 
  1.244872643495139   5.030551871090876   8.375264803819523 
  6.223284429601304   5.030551871090876   8.375264803819523 
  4.978939405136309  11.497659152757794   8.349135389293698 
 11.202235609645683   5.030709563653709   8.352333554016420 
 -1.244675515175454   5.030697554280016   1.642734920297534 
 -2.489514035156857  11.497792623891771   1.652225011860394 
  2.489217667963156  11.497659152757718   1.656821823546300 
  3.734078536549917   5.030366245922020   1.634179103851551 
  7.468454394970951  11.497808331816627   1.653623658827033 
  8.712832588278214   5.030697554280016   1.642734920297521 
 -0.000229145515658   7.186369791393136   8.369285867155032 
  1.244988432142001   0.718473103753697   8.363222292543291 
  4.978842239185867   7.185988971972731   8.375264803819523 
  6.223168640958338   0.718473103753697   8.363222292543291 
  9.957640856470643   7.186442326836258   8.353732200986876 
 -2.489483783374884   7.186442326836257   1.652225011860394 
 11.202235609649751   0.718623749417456   8.340451514379300 
  3.734078536545718   0.718359154968021   1.636671345685781 
  2.489314833910846   7.185988971972730   1.630692409028468 
  7.468386218626590   7.186369791393135   1.636671345685781 
  8.712488053290066   0.718638656132692   1.656821823546300 
  2.489314833910846   7.185988971972731   8.375264803819402 
 13.691983166007304   0.718638656132692   1.656821823546300 
 -1.244919281979836   9.342091276555509   8.353732200986876 
  0.000385482335592   2.874717555999699   8.365583313445374 
  4.978520726964540   2.874557894703843   8.375264803819523 
  3.734078536557426   9.341663625761738   8.365583313445374 
  8.713076355071905   9.342091276555509   8.353732200986876 
  9.957348921875843   2.874800928880440   8.349135389293698 
 -3.734078536549859   9.342108742426664   1.658361173204077 
  1.244414589234785   9.341928079728355   1.642734920297534 
  2.489636346132992   2.874557894703842   1.630692409028388 