Species order: X N B                    
   2.51242800000000     
     5.9449720136058266    0.0000000000000000    0.0000000000000000
    -2.9724860068029120    5.1484967885702053   -0.0000000000000001
     0.0000000000000000    0.0000000000000009    5.3101128803662583
   N    B 
   145   143
Direct
  0.4444444444444429  0.3888888888888857  0.3750000000000000
  0.1111250778306647  0.0555439094005989  0.1231317668080335
  0.6111062486504000  0.5555363427352292  0.1222291161910322
  0.4444188315699681  0.0555439094005989  0.1231317668080327
  0.9444589294457566  0.5555713908133473  0.1238430999189745
  0.7777777777777786  0.0555555555555571  0.1248385583985330
  0.1111111111111143  0.7222222222222214  0.6256969619752174
  0.4444188315699681  0.7222082555023894  0.6268682331916805
  0.2777969905980537  0.2222270846828282  0.6277708838092129
  0.7777894239328931  0.7222082555023894  0.6268682331916805
  0.6110939055129756  0.2222394278206646  0.6270452043338614
  0.9444692478676072  0.2222458732334583  0.6258123444633507
  0.2777619425197405  0.7222208719660177  0.1238430999189743
  0.1111455223080275  0.2222394278206646  0.1229547956658690
  0.4444300940846205  0.2222270846828282  0.1222291161910268
  0.6110939055129758  0.7221878110249469  0.1229547956658699
  0.9444589294457566  0.7222208719660177  0.1238430999189743
  0.7777766253655928  0.2222458732334583  0.1241876555363018
  0.1111124613673171  0.8888744038875720  0.6261569000812244
  0.4444179031461187  0.8888756182399957  0.6260520640115180
  0.2777969905980809  0.3889032392487081  0.6277708838092129
  0.6111062486504000  0.3889032392487081  0.6277708838092129
  0.7777766253655928  0.8888640854657214  0.6258123444633507
  0.9444577150933329  0.3889154301872098  0.6260520640115180
  0.1111250778306644  0.3889145017633605  0.1231317668080335
  0.2777619425197405  0.8888744038875720  0.1238430999189743
  0.6110874601000995  0.8888640854657155  0.1241876555363018
  0.4444444444444429  0.3888888888888857  0.1224904626131441
  0.9444577150933329  0.8888756182399957  0.1239479359883941
  0.7777894239328931  0.3889145017633605  0.1231317668080328
  0.2777675501085350  0.5555657832240576  0.6273227305338214
  0.1111250778306647  0.0555439094005989  0.6268682331916805
  0.6111062486504000  0.5555363427352292  0.6277708838092129
  0.4444188315699681  0.0555439094005989  0.6268682331916805
  0.9444589294457566  0.5555713908133473  0.6261569000812244
  0.1111124613673171  0.5555713908133473  0.1238430999189744
  0.7777777777777786  0.0555555555555571  0.6251614416014605
  0.2777675501085350  0.0555351002176325  0.1226772694658927
  0.4444300940846205  0.5555363427352292  0.1222291161910387
  0.7777982331162657  0.5555657832240576  0.1226772694658927
  0.6110874601000995  0.0555567079678552  0.1241876555363018
  0.4444300940846205  0.5555363427352292  0.6277708838092038
  0.9444692478676131  0.0555567079678552  0.1241876555363018
  0.2777619425197410  0.7222208719660177  0.6261569000812244
  0.1111455223080275  0.2222394278206646  0.6270452043338614
  0.4444300940846205  0.2222270846828282  0.6277708838092129
  0.6110939055129757  0.7221878110249469  0.6270452043338614
  0.9444589294457566  0.7222208719660177  0.6261569000812244
  0.7777766253655928  0.2222458732334583  0.6258123444633507
  0.1111111111111143  0.7222222222222214  0.1243030380248314
  0.4444188315699681  0.7222082555023894  0.1231317668080335
  0.2777969905980537  0.2222270846828282  0.1222291161910327
  0.7777894239328931  0.7222082555023894  0.1231317668080327
  0.6110939055129757  0.2222394278206646  0.1229547956658687
  0.9444692478676131  0.2222458732334583  0.1241876555363018
  0.1111250778306644  0.3889145017633605  0.6268682331916805
  0.2777619425197410  0.8888744038875720  0.6261569000812244
  0.6110874601000995  0.8888640854657155  0.6258123444633507
  0.4444444444444429  0.3888888888888857  0.6275095373864509
  0.9444577150933329  0.8888756182399957  0.6260520640115180
  0.1111124613673167  0.8888744038875720  0.1238430999189743
  0.7777894239328931  0.3889145017633605  0.6268682331916805
  0.4444179031461187  0.8888756182399957  0.1239479359883941
  0.2777969905980537  0.3889032392487081  0.1222291161910322
  0.2777675501085350  0.5555657832240576  0.1226772694658929
  0.6111062486504000  0.3889032392487081  0.1222291161910321
  0.7777766253655928  0.8888640854657155  0.1241876555363018
  0.9444577150933329  0.3889154301872099  0.1239479359883941
  0.1111124613673167  0.5555713908133473  0.6261569000812244
  0.2777675501085350  0.0555351002176319  0.6273227305338214
  0.7777982331162657  0.5555657832240576  0.6273227305338214
  0.6110874601000995  0.0555567079678553  0.6258123444633507
  0.9444692478676131  0.0555567079678553  0.6258123444633507
  0.0556628875349012  0.1111833952781168  0.3750000000000000
  0.5557235035484805  0.6114470070974797  0.3750000000000000
  0.3894475496790240  0.1138132787389430  0.3750000000000000
  0.8877671608186247  0.6105502470758732  0.3750000000000000
  0.7221961783044459  0.1111371550289055  0.3750000000000000
  0.0555538536472181  0.7777794796862652  0.8750000000000000
  0.3888948122182104  0.7777826690247073  0.8750000000000000
  0.2222163661629332  0.2777748497479353  0.8750000000000000
  0.7222251071774464  0.7777860543032274  0.8750000000000000
  0.5555584835853339  0.2777748497479353  0.8750000000000000
  0.8888874712469828  0.2777749424935835  0.8750000000000000
  0.2224558478425623  0.7778945905881139  0.3750000000000000
  0.0556628875349029  0.2778128255900286  0.3750000000000000
  0.3930936839080373  0.2861873678161425  0.3750000000000000
  0.5555205077428244  0.7776704457988387  0.3750000000000000
  0.8881573504211934  0.7772591352136984  0.3750000000000000
  0.7221499380552983  0.2778128255900288  0.3750000000000000
  0.0555506643091553  0.9444454765268009  0.8750000000000000
  0.3888948122182104  0.9444454765268009  0.8750000000000000
  0.2222185509973039  0.4444398288146084  0.8750000000000000
  0.5555537056835632  0.4444435195084459  0.8750000000000000
  0.7222237358661425  0.9444474717324817  0.8750000000000000
  0.8888878568065277  0.4444385211151182  0.8750000000000000
  0.0560741981197986  0.4442315485405361  0.3750000000000000
  0.2227830862574394  0.9455661725147039  0.3750000000000000
  0.5555064990912525  0.9444199162122888  0.3750000000000000
  0.3930936839080373  0.4402396494252913  0.3750000000000000
  0.8889134171210398  0.9444199162122888  0.3750000000000000
  0.7195200545945224  0.4438857836543046  0.3750000000000000
  0.2222230567693471  0.6111102765641261  0.8750000000000000
  0.0555472790300934  0.1111082261561590  0.8750000000000000
  0.5555584835853339  0.6111169671708009  0.8750000000000000
  0.3888935045187202  0.1111120555161837  0.8750000000000000
  0.8888872197943586  0.6111102765641261  0.8750000000000000
  0.0554387427453632  0.6108774854908867  0.3750000000000000
  0.7222237358661425  0.1111095974670043  0.8750000000000000
  0.2243657290598178  0.1138132787389459  0.3750000000000000
  0.3894475496790240  0.6089676042733354  0.3750000000000000
  0.7195200545945060  0.6089676042733354  0.3750000000000000
  0.5555205077428244  0.1111833952781192  0.3750000000000000
  0.3888935045187202  0.6111147823357912  0.8750000000000000
  0.8889409767245910  0.1111371550289055  0.3750000000000000
  0.2222256260388971  0.7777794796862652  0.8750000000000000
  0.0555472790300934  0.2777723862072438  0.8750000000000000
  0.3888898138248827  0.2777796276504625  0.8750000000000000
  0.5555609471256688  0.7777860543032247  0.8750000000000000
  0.8888878568065277  0.7777826690247073  0.8750000000000000
  0.7222251071774464  0.2777723862072438  0.8750000000000000
  0.0554387427453632  0.7778945905881198  0.3750000000000000
  0.3891017847927924  0.7772591352136984  0.3750000000000000
  0.2218863262360123  0.2776098297845959  0.3750000000000000
  0.7221499380553003  0.7776704457988387  0.3750000000000000
  0.5557235035484882  0.2776098297845959  0.3750000000000000
  0.8889134171210398  0.2778268342420471  0.3750000000000000
  0.0555506643091553  0.4444385211151182  0.8750000000000000
  0.2222230567693463  0.9444461135389700  0.8750000000000000
  0.5555583908395318  0.9444458620863458  0.8750000000000000
  0.3888898138248827  0.4444435195084459  0.8750000000000000
  0.8888874712469828  0.9444458620863458  0.8750000000000000
  0.0560741981197986  0.9451759829121352  0.3750000000000000
  0.7222212778172945  0.4444398288146084  0.8750000000000000
  0.3891017847927924  0.9451759829121352  0.3750000000000000
  0.2243657290598256  0.4438857836543046  0.3750000000000000
  0.2227830862574394  0.6105502470758732  0.3750000000000000
  0.5471459655172539  0.4402396494252913  0.3750000000000000
  0.7221961783044459  0.9443923566087375  0.3750000000000000
  0.8881573504211934  0.4442315485405361  0.3750000000000000
  0.0555538536472181  0.6111077072944787  0.8750000000000000
  0.2222185509973039  0.1111120555161837  0.8750000000000000
  0.7222212778172945  0.6111147823357912  0.8750000000000000
  0.5555609471256688  0.1111082261561640  0.8750000000000000
  0.8888858616008469  0.1111095974670043  0.8750000000000000
  0.1111880985104753  0.0559734117819993  0.3750000000000000
  0.6103058740503208  0.5574972489162047  0.3750000000000000
  0.4447853132715178  0.0559734117819992  0.3750000000000000
  0.9442482199622485  0.5553994931809929  0.3750000000000000
  0.7777777777777786  0.0555555555555571  0.3750000000000000
  0.1111111111111143  0.7222222222222214  0.8750000000000000
  0.4444630304917133  0.7222905442531643  0.8750000000000000
  0.2777058659416640  0.2221593870015555  0.8750000000000000
  0.7778275137622689  0.7222905442531643  0.8750000000000000
  0.6111589842477440  0.2221743490858871  0.8750000000000000
  0.9443967660060729  0.2221905066123305  0.8750000000000000
  0.2779338401522366  0.7221820601141637  0.3750000000000000
  0.1088770450320141  0.2211051891826308  0.3750000000000000
  0.4471913748661785  0.2230274592834829  0.3750000000000000
  0.6122281441502460  0.7244562883010849  0.3750000000000000
  0.9442482199622485  0.7221820601141637  0.3750000000000000
  0.7780538839459529  0.2219895631644736  0.3750000000000000
  0.1110902465949533  0.8888659175960421  0.8750000000000000
  0.4444639329954451  0.8888986331645292  0.8750000000000000
  0.2777058659416649  0.3888798122735073  0.8750000000000000
  0.6111739463320265  0.3888798122735073  0.8750000000000000
  0.7777937406062279  0.8889365673272557  0.8750000000000000
  0.9444347001687994  0.3888694003378835  0.8750000000000000
  0.1111880985104753  0.3885480200618108  0.3750000000000000
  0.2779338401522365  0.8890851133710801  0.3750000000000000
  0.6113437701691139  0.8893976541139700  0.3750000000000000
  0.9443904869732217  0.8889428463601069  0.3750000000000000
  0.7773599215515750  0.3885480200618108  0.3750000000000000
  0.2777455642150091  0.5555877691180747  0.8750000000000000
  0.1110427890798820  0.0555058195714032  0.8750000000000000
  0.6111739463320265  0.5556274673910642  0.8750000000000000
  0.4444630304917133  0.0555058195714017  0.8750000000000000
  0.9444674157372865  0.5555576623322018  0.8750000000000000
  0.1111512732190755  0.5553994931809929  0.3750000000000000
  0.7777777777777786  0.0555555555555571  0.8750000000000000
  0.2779778478909273  0.0559556957819968  0.3750000000000000
  0.4471913748661785  0.5574972489162047  0.3750000000000000
  0.7773776375514811  0.5553554854424405  0.3750000000000000
  0.6113437701691139  0.0552794493879004  0.3750000000000000
  0.4444535210598213  0.5556274673910631  0.8750000000000000
  0.9439356792193586  0.0552794493879004  0.3750000000000000
  0.2777756710010286  0.7222430867386126  0.8750000000000000
  0.1110153648384164  0.2221743490858871  0.8750000000000000
  0.4444535210598213  0.2221593870015555  0.8750000000000000
  0.6111589842477440  0.7223179684951357  0.8750000000000000
  0.9444674157372865  0.7222430867386126  0.8750000000000000
  0.7777937406062279  0.2221905066123305  0.8750000000000000
  0.1111111111111143  0.7222222222222214  0.3750000000000000
  0.4447853132715178  0.7221452348230547  0.3750000000000000
  0.2758360844173411  0.2230274592834829  0.3750000000000000
  0.7773599215515750  0.7221452348230547  0.3750000000000000
  0.6122281441502460  0.2211051891826308  0.3750000000000000
  0.9439356792193586  0.2219895631644736  0.3750000000000000
  0.1110427890798800  0.3888703028416153  0.8750000000000000
  0.2777756710010286  0.8888659175960421  0.8750000000000000
  0.6111428267212877  0.8889365673272557  0.8750000000000000
  0.4444444444444429  0.3888888888888857  0.8750000000000000
  0.9444347001687994  0.8888986331645292  0.8750000000000000
  0.1111512732190755  0.8890851133710801  0.3750000000000000
  0.7778275137622689  0.3888703028416153  0.8750000000000000
  0.4445523593868644  0.8889428463601069  0.3750000000000000
  0.2758360844173411  0.3861419584671500  0.3750000000000000
  0.2779778478909274  0.5553554854424405  0.3750000000000000
  0.6103058740503208  0.3861419584671500  0.3750000000000000
  0.7780538839459529  0.8893976541139700  0.3750000000000000
  0.9443904869732217  0.3887809739464642  0.3750000000000000
  0.1110902465949534  0.5555576623322018  0.8750000000000000
  0.2777455642150091  0.0554911284301058  0.8750000000000000
  0.7778422049033175  0.5555877691180747  0.8750000000000000
  0.6111428267212878  0.0555395927271853  0.8750000000000000
  0.9443967660060729  0.0555395927271857  0.8750000000000000
  0.0554295413835931  0.1109805823636782  0.1228438691186493
  0.5556696593107060  0.6113393186214462  0.1213432401617413
  0.3887821857688640  0.1108180552101785  0.1218144920118360
  0.8890936795683920  0.6112135064510305  0.1229757221209495
  0.7222370334948430  0.1110962998382666  0.1240649218015180
  0.0555849961879123  0.7777483371454409  0.6262949979041519
  0.3888100031399240  0.7778278306580533  0.6267962571429897
  0.2219940147118672  0.2776636740226126  0.6286567598378127
  0.7223527509699248  0.7779037919497707  0.6271561308810172
  0.5556696593107060  0.2776636740226126  0.6286567598378127
  0.8889062793155494  0.2778125586314799  0.6262659210867954
  0.2221633409575120  0.7777483371454409  0.1237050020957903
  0.0554295413835930  0.2777822923532623  0.1228438691186493
  0.3887860516689761  0.2775721033380005  0.1206737736798308
  0.5555510409800003  0.7779037919497707  0.1228438691186493
  0.8890178275179075  0.7778278306580533  0.1232037428569300
  0.7223527509699248  0.2777822923532623  0.1228438691186493
  0.0555055026751486  0.9443155058154211  0.6267962571429897
  0.3888100031399240  0.9443155058154211  0.6267962571429897
  0.2220358694415283  0.4445511475644648  0.6281855079878549
  0.5557612299953764  0.4445472816643525  0.6293262263202457
  0.7222370334948430  0.9444740669898521  0.6259350781983362
  0.8890178275179075  0.4445233301934046  0.6267962571429897
  0.0555055026751486  0.4445233301934046  0.1232037428569300
  0.2221198268822694  0.9442396537649366  0.1229757221209495
  0.5555207747016803  0.9444270540177792  0.1237340789129874
  0.3887860516689761  0.4445472816643525  0.1206737736798308
  0.8889062793155494  0.9444270540177792  0.1237340789129874
  0.7225152781232337  0.4445511475644648  0.1218144920118363
  0.2221198268822694  0.6112135064510305  0.6270242778788697
  0.0554295413835931  0.1109805823636782  0.6271561308810172
  0.5556696593107060  0.6113393186214462  0.6286567598379279
  0.3887821857688638  0.1108180552101785  0.6281855079878549
  0.8890936795683920  0.6112135064510305  0.6270242778788697
  0.0555849961879123  0.6111699923756487  0.1237050020957903
  0.7222370334948430  0.1110962998382667  0.6259350781983362
  0.2220358694415284  0.1108180552101785  0.1218144920118365
  0.3887821857688638  0.6112974638920425  0.1218144920118361
  0.7225152781232337  0.6112974638920425  0.1218144920118361
  0.5555510409800003  0.1109805823636782  0.1228438691186493
  0.3887821857688638  0.6112974638920425  0.6281855079878549
  0.8888592663434765  0.1110962998382660  0.1240649218015180
  0.2221633409575120  0.7777483371454409  0.6262949979041519
  0.0554295413835931  0.2777822923532623  0.6271561308810172
  0.3887860516689761  0.2775721033379910  0.6293262263202465
  0.5555510409800003  0.7779037919497707  0.6271561308810172
  0.8890178275179075  0.7778278306580533  0.6267962571429897
  0.7223527509699248  0.2777822923532623  0.6271561308810172
  0.0555849961879130  0.7777483371454409  0.1237050020957903
  0.3888100031399240  0.7778278306580533  0.1232037428569300
  0.2219940147118672  0.2776636740226126  0.1213432401617442
  0.7223527509699248  0.7779037919497707  0.1228438691186493
  0.5556696593107060  0.2776636740226126  0.1213432401617442
  0.8889062793155494  0.2778125586314777  0.1237340789129874
  0.0555055026751486  0.4445233301934046  0.6267962571429897
  0.2221198268822694  0.9442396537649366  0.6270242778788697
  0.5555207747016803  0.9444270540177792  0.6262659210867954
  0.3887860516689761  0.4445472816643525  0.6293262263202465
  0.8889062793155494  0.9444270540177792  0.6262659210867954
  0.0555055026751486  0.9443155058154211  0.1232037428569300
  0.7225152781232337  0.4445511475644648  0.6281855079878549
  0.3888100031399240  0.9443155058154211  0.1232037428569300
  0.2220358694415284  0.4445511475644648  0.1218144920118363
  0.2221198268822694  0.6112135064510305  0.1229757221209495
  0.5557612299953764  0.4445472816643525  0.1206737736798308
  0.7222370334948430  0.9444740669898521  0.1240649218015180
  0.8890178275179075  0.4445233301934046  0.1232037428569295
  0.0555849961879123  0.6111699923756487  0.6262949979041519
  0.2220358694415284  0.1108180552101785  0.6281855079878549
  0.7225152781232337  0.6112974638920425  0.6281855079878549
  0.5555510409800003  0.1109805823636782  0.6271561308810172
  0.8888592663434765  0.1110962998382666  0.6259350781983362
 
  0.00000000E+00  0.00000000E+00  0.00000000E+00
  0.00000000E+00  0.00000000E+00  0.00000000E+00
  0.00000000E+00  0.00000000E+00  0.00000000E+00
  0.00000000E+00  0.00000000E+00  0.00000000E+00
  0.00000000E+00  0.00000000E+00  0.00000000E+00
  0.00000000E+00  0.00000000E+00  0.00000000E+00
  0.00000000E+00  0.00000000E+00  0.00000000E+00
  0.00000000E+00  0.00000000E+00  0.00000000E+00
  0.00000000E+00  0.00000000E+00  0.00000000E+00
  0.00000000E+00  0.00000000E+00  0.00000000E+00
  0.00000000E+00  0.00000000E+00  0.00000000E+00
  0.00000000E+00  0.00000000E+00  0.00000000E+00
  0.00000000E+00  0.00000000E+00  0.00000000E+00
  0.00000000E+00  0.00000000E+00  0.00000000E+00
  0.00000000E+00  0.00000000E+00  0.00000000E+00
  0.00000000E+00  0.00000000E+00  0.00000000E+00
  0.00000000E+00  0.00000000E+00  0.00000000E+00
  0.00000000E+00  0.00000000E+00  0.00000000E+00
  0.00000000E+00  0.00000000E+00  0.00000000E+00
  0.00000000E+00  0.00000000E+00  0.00000000E+00
  0.00000000E+00  0.00000000E+00  0.00000000E+00
  0.00000000E+00  0.00000000E+00  0.00000000E+00
  0.00000000E+00  0.00000000E+00  0.00000000E+00
  0.00000000E+00  0.00000000E+00  0.00000000E+00
  0.00000000E+00  0.00000000E+00  0.00000000E+00
  0.00000000E+00  0.00000000E+00  0.00000000E+00
  0.00000000E+00  0.00000000E+00  0.00000000E+00
  0.00000000E+00  0.00000000E+00  0.00000000E+00
  0.00000000E+00  0.00000000E+00  0.00000000E+00
  0.00000000E+00  0.00000000E+00  0.00000000E+00
  0.00000000E+00  0.00000000E+00  0.00000000E+00
  0.00000000E+00  0.00000000E+00  0.00000000E+00
  0.00000000E+00  0.00000000E+00  0.00000000E+00
  0.00000000E+00  0.00000000E+00  0.00000000E+00
  0.00000000E+00  0.00000000E+00  0.00000000E+00
  0.00000000E+00  0.00000000E+00  0.00000000E+00
  0.00000000E+00  0.00000000E+00  0.00000000E+00
  0.00000000E+00  0.00000000E+00  0.00000000E+00
  0.00000000E+00  0.00000000E+00  0.00000000E+00
  0.00000000E+00  0.00000000E+00  0.00000000E+00
  0.00000000E+00  0.00000000E+00  0.00000000E+00
  0.00000000E+00  0.00000000E+00  0.00000000E+00
  0.00000000E+00  0.00000000E+00  0.00000000E+00
  0.00000000E+00  0.00000000E+00  0.00000000E+00
  0.00000000E+00  0.00000000E+00  0.00000000E+00
  0.00000000E+00  0.00000000E+00  0.00000000E+00
  0.00000000E+00  0.00000000E+00  0.00000000E+00
  0.00000000E+00  0.00000000E+00  0.00000000E+00
  0.00000000E+00  0.00000000E+00  0.00000000E+00
  0.00000000E+00  0.00000000E+00  0.00000000E+00
  0.00000000E+00  0.00000000E+00  0.00000000E+00
  0.00000000E+00  0.00000000E+00  0.00000000E+00
  0.00000000E+00  0.00000000E+00  0.00000000E+00
  0.00000000E+00  0.00000000E+00  0.00000000E+00
  0.00000000E+00  0.00000000E+00  0.00000000E+00
  0.00000000E+00  0.00000000E+00  0.00000000E+00
  0.00000000E+00  0.00000000E+00  0.00000000E+00
  0.00000000E+00  0.00000000E+00  0.00000000E+00
  0.00000000E+00  0.00000000E+00  0.00000000E+00
  0.00000000E+00  0.00000000E+00  0.00000000E+00
  0.00000000E+00  0.00000000E+00  0.00000000E+00
  0.00000000E+00  0.00000000E+00  0.00000000E+00
  0.00000000E+00  0.00000000E+00  0.00000000E+00
  0.00000000E+00  0.00000000E+00  0.00000000E+00
  0.00000000E+00  0.00000000E+00  0.00000000E+00
  0.00000000E+00  0.00000000E+00  0.00000000E+00
  0.00000000E+00  0.00000000E+00  0.00000000E+00
  0.00000000E+00  0.00000000E+00  0.00000000E+00
  0.00000000E+00  0.00000000E+00  0.00000000E+00
  0.00000000E+00  0.00000000E+00  0.00000000E+00
  0.00000000E+00  0.00000000E+00  0.00000000E+00
  0.00000000E+00  0.00000000E+00  0.00000000E+00
  0.00000000E+00  0.00000000E+00  0.00000000E+00
  0.00000000E+00  0.00000000E+00  0.00000000E+00
  0.00000000E+00  0.00000000E+00  0.00000000E+00
  0.00000000E+00  0.00000000E+00  0.00000000E+00
  0.00000000E+00  0.00000000E+00  0.00000000E+00
  0.00000000E+00  0.00000000E+00  0.00000000E+00
  0.00000000E+00  0.00000000E+00  0.00000000E+00
  0.00000000E+00  0.00000000E+00  0.00000000E+00
  0.00000000E+00  0.00000000E+00  0.00000000E+00
  0.00000000E+00  0.00000000E+00  0.00000000E+00
  0.00000000E+00  0.00000000E+00  0.00000000E+00
  0.00000000E+00  0.00000000E+00  0.00000000E+00
  0.00000000E+00  0.00000000E+00  0.00000000E+00
  0.00000000E+00  0.00000000E+00  0.00000000E+00
  0.00000000E+00  0.00000000E+00  0.00000000E+00
  0.00000000E+00  0.00000000E+00  0.00000000E+00
  0.00000000E+00  0.00000000E+00  0.00000000E+00
  0.00000000E+00  0.00000000E+00  0.00000000E+00
  0.00000000E+00  0.00000000E+00  0.00000000E+00
  0.00000000E+00  0.00000000E+00  0.00000000E+00
  0.00000000E+00  0.00000000E+00  0.00000000E+00
  0.00000000E+00  0.00000000E+00  0.00000000E+00
  0.00000000E+00  0.00000000E+00  0.00000000E+00
  0.00000000E+00  0.00000000E+00  0.00000000E+00
  0.00000000E+00  0.00000000E+00  0.00000000E+00
  0.00000000E+00  0.00000000E+00  0.00000000E+00
  0.00000000E+00  0.00000000E+00  0.00000000E+00
  0.00000000E+00  0.00000000E+00  0.00000000E+00
  0.00000000E+00  0.00000000E+00  0.00000000E+00
  0.00000000E+00  0.00000000E+00  0.00000000E+00
  0.00000000E+00  0.00000000E+00  0.00000000E+00
  0.00000000E+00  0.00000000E+00  0.00000000E+00
  0.00000000E+00  0.00000000E+00  0.00000000E+00
  0.00000000E+00  0.00000000E+00  0.00000000E+00
  0.00000000E+00  0.00000000E+00  0.00000000E+00
  0.00000000E+00  0.00000000E+00  0.00000000E+00
  0.00000000E+00  0.00000000E+00  0.00000000E+00
  0.00000000E+00  0.00000000E+00  0.00000000E+00
  0.00000000E+00  0.00000000E+00  0.00000000E+00
  0.00000000E+00  0.00000000E+00  0.00000000E+00
  0.00000000E+00  0.00000000E+00  0.00000000E+00
  0.00000000E+00  0.00000000E+00  0.00000000E+00
  0.00000000E+00  0.00000000E+00  0.00000000E+00
  0.00000000E+00  0.00000000E+00  0.00000000E+00
  0.00000000E+00  0.00000000E+00  0.00000000E+00
  0.00000000E+00  0.00000000E+00  0.00000000E+00
  0.00000000E+00  0.00000000E+00  0.00000000E+00
  0.00000000E+00  0.00000000E+00  0.00000000E+00
  0.00000000E+00  0.00000000E+00  0.00000000E+00
  0.00000000E+00  0.00000000E+00  0.00000000E+00
  0.00000000E+00  0.00000000E+00  0.00000000E+00
  0.00000000E+00  0.00000000E+00  0.00000000E+00
  0.00000000E+00  0.00000000E+00  0.00000000E+00
  0.00000000E+00  0.00000000E+00  0.00000000E+00
  0.00000000E+00  0.00000000E+00  0.00000000E+00
  0.00000000E+00  0.00000000E+00  0.00000000E+00
  0.00000000E+00  0.00000000E+00  0.00000000E+00
  0.00000000E+00  0.00000000E+00  0.00000000E+00
  0.00000000E+00  0.00000000E+00  0.00000000E+00
  0.00000000E+00  0.00000000E+00  0.00000000E+00
  0.00000000E+00  0.00000000E+00  0.00000000E+00
  0.00000000E+00  0.00000000E+00  0.00000000E+00
  0.00000000E+00  0.00000000E+00  0.00000000E+00
  0.00000000E+00  0.00000000E+00  0.00000000E+00
  0.00000000E+00  0.00000000E+00  0.00000000E+00
  0.00000000E+00  0.00000000E+00  0.00000000E+00
  0.00000000E+00  0.00000000E+00  0.00000000E+00
  0.00000000E+00  0.00000000E+00  0.00000000E+00
  0.00000000E+00  0.00000000E+00  0.00000000E+00
  0.00000000E+00  0.00000000E+00  0.00000000E+00
  0.00000000E+00  0.00000000E+00  0.00000000E+00
  0.00000000E+00  0.00000000E+00  0.00000000E+00
  0.00000000E+00  0.00000000E+00  0.00000000E+00
  0.00000000E+00  0.00000000E+00  0.00000000E+00
  0.00000000E+00  0.00000000E+00  0.00000000E+00
  0.00000000E+00  0.00000000E+00  0.00000000E+00
  0.00000000E+00  0.00000000E+00  0.00000000E+00
  0.00000000E+00  0.00000000E+00  0.00000000E+00
  0.00000000E+00  0.00000000E+00  0.00000000E+00
  0.00000000E+00  0.00000000E+00  0.00000000E+00
  0.00000000E+00  0.00000000E+00  0.00000000E+00
  0.00000000E+00  0.00000000E+00  0.00000000E+00
  0.00000000E+00  0.00000000E+00  0.00000000E+00
  0.00000000E+00  0.00000000E+00  0.00000000E+00
  0.00000000E+00  0.00000000E+00  0.00000000E+00
  0.00000000E+00  0.00000000E+00  0.00000000E+00
  0.00000000E+00  0.00000000E+00  0.00000000E+00
  0.00000000E+00  0.00000000E+00  0.00000000E+00
  0.00000000E+00  0.00000000E+00  0.00000000E+00
  0.00000000E+00  0.00000000E+00  0.00000000E+00
  0.00000000E+00  0.00000000E+00  0.00000000E+00
  0.00000000E+00  0.00000000E+00  0.00000000E+00
  0.00000000E+00  0.00000000E+00  0.00000000E+00
  0.00000000E+00  0.00000000E+00  0.00000000E+00
  0.00000000E+00  0.00000000E+00  0.00000000E+00
  0.00000000E+00  0.00000000E+00  0.00000000E+00
  0.00000000E+00  0.00000000E+00  0.00000000E+00
  0.00000000E+00  0.00000000E+00  0.00000000E+00
  0.00000000E+00  0.00000000E+00  0.00000000E+00
  0.00000000E+00  0.00000000E+00  0.00000000E+00
  0.00000000E+00  0.00000000E+00  0.00000000E+00
  0.00000000E+00  0.00000000E+00  0.00000000E+00
  0.00000000E+00  0.00000000E+00  0.00000000E+00
  0.00000000E+00  0.00000000E+00  0.00000000E+00
  0.00000000E+00  0.00000000E+00  0.00000000E+00
  0.00000000E+00  0.00000000E+00  0.00000000E+00
  0.00000000E+00  0.00000000E+00  0.00000000E+00
  0.00000000E+00  0.00000000E+00  0.00000000E+00
  0.00000000E+00  0.00000000E+00  0.00000000E+00
  0.00000000E+00  0.00000000E+00  0.00000000E+00
  0.00000000E+00  0.00000000E+00  0.00000000E+00
  0.00000000E+00  0.00000000E+00  0.00000000E+00
  0.00000000E+00  0.00000000E+00  0.00000000E+00
  0.00000000E+00  0.00000000E+00  0.00000000E+00
  0.00000000E+00  0.00000000E+00  0.00000000E+00
  0.00000000E+00  0.00000000E+00  0.00000000E+00
  0.00000000E+00  0.00000000E+00  0.00000000E+00
  0.00000000E+00  0.00000000E+00  0.00000000E+00
  0.00000000E+00  0.00000000E+00  0.00000000E+00
  0.00000000E+00  0.00000000E+00  0.00000000E+00
  0.00000000E+00  0.00000000E+00  0.00000000E+00
  0.00000000E+00  0.00000000E+00  0.00000000E+00
  0.00000000E+00  0.00000000E+00  0.00000000E+00
  0.00000000E+00  0.00000000E+00  0.00000000E+00
  0.00000000E+00  0.00000000E+00  0.00000000E+00
  0.00000000E+00  0.00000000E+00  0.00000000E+00
  0.00000000E+00  0.00000000E+00  0.00000000E+00
  0.00000000E+00  0.00000000E+00  0.00000000E+00
  0.00000000E+00  0.00000000E+00  0.00000000E+00
  0.00000000E+00  0.00000000E+00  0.00000000E+00
  0.00000000E+00  0.00000000E+00  0.00000000E+00
  0.00000000E+00  0.00000000E+00  0.00000000E+00
  0.00000000E+00  0.00000000E+00  0.00000000E+00
  0.00000000E+00  0.00000000E+00  0.00000000E+00
  0.00000000E+00  0.00000000E+00  0.00000000E+00
  0.00000000E+00  0.00000000E+00  0.00000000E+00
  0.00000000E+00  0.00000000E+00  0.00000000E+00
  0.00000000E+00  0.00000000E+00  0.00000000E+00
  0.00000000E+00  0.00000000E+00  0.00000000E+00
  0.00000000E+00  0.00000000E+00  0.00000000E+00
  0.00000000E+00  0.00000000E+00  0.00000000E+00
  0.00000000E+00  0.00000000E+00  0.00000000E+00
  0.00000000E+00  0.00000000E+00  0.00000000E+00
  0.00000000E+00  0.00000000E+00  0.00000000E+00
  0.00000000E+00  0.00000000E+00  0.00000000E+00
  0.00000000E+00  0.00000000E+00  0.00000000E+00
  0.00000000E+00  0.00000000E+00  0.00000000E+00
  0.00000000E+00  0.00000000E+00  0.00000000E+00
  0.00000000E+00  0.00000000E+00  0.00000000E+00
  0.00000000E+00  0.00000000E+00  0.00000000E+00
  0.00000000E+00  0.00000000E+00  0.00000000E+00
  0.00000000E+00  0.00000000E+00  0.00000000E+00
  0.00000000E+00  0.00000000E+00  0.00000000E+00
  0.00000000E+00  0.00000000E+00  0.00000000E+00
  0.00000000E+00  0.00000000E+00  0.00000000E+00
  0.00000000E+00  0.00000000E+00  0.00000000E+00
  0.00000000E+00  0.00000000E+00  0.00000000E+00
  0.00000000E+00  0.00000000E+00  0.00000000E+00
  0.00000000E+00  0.00000000E+00  0.00000000E+00
  0.00000000E+00  0.00000000E+00  0.00000000E+00
  0.00000000E+00  0.00000000E+00  0.00000000E+00
  0.00000000E+00  0.00000000E+00  0.00000000E+00
  0.00000000E+00  0.00000000E+00  0.00000000E+00
  0.00000000E+00  0.00000000E+00  0.00000000E+00
  0.00000000E+00  0.00000000E+00  0.00000000E+00
  0.00000000E+00  0.00000000E+00  0.00000000E+00
  0.00000000E+00  0.00000000E+00  0.00000000E+00
  0.00000000E+00  0.00000000E+00  0.00000000E+00
  0.00000000E+00  0.00000000E+00  0.00000000E+00
  0.00000000E+00  0.00000000E+00  0.00000000E+00
  0.00000000E+00  0.00000000E+00  0.00000000E+00
  0.00000000E+00  0.00000000E+00  0.00000000E+00
  0.00000000E+00  0.00000000E+00  0.00000000E+00
  0.00000000E+00  0.00000000E+00  0.00000000E+00
  0.00000000E+00  0.00000000E+00  0.00000000E+00