B N O Se                                
   1.0000000000000000     
     8.7639499999999995  -15.1796066749929999    0.0000000000000000
     8.7639499999999995   15.1796066749929999    0.0000000000000000
     0.0000000000000000    0.0000000000000000   15.0000000000000000
   B    N    O    Se
    48    48     1     1
Selective dynamics
Direct
  0.9062641805635819  0.9534406650177669  0.1111024675938989   T   T   T
  0.9046972920272189  0.0953047291687719  0.1110830734068998   T   T   T
  0.9042283470716399  0.2377890654340255  0.1110538508855819   T   T   T
  0.9047668143451980  0.3806997662354856  0.1110358388340020   T   T   T
  0.9070138281082805  0.5241292737961446  0.1112980436248412   T   T   T
  0.9081186907565668  0.6678323129597220  0.1113327380306230   T   T   T
  0.9082989565528694  0.8116555721493317  0.1112757093260232   T   T   T
  0.0482216904125849  0.9517803307834203  0.1110866779324023   T   T   T
  0.0465613561782349  0.0937378406324040  0.1111024675938989   T   T   T
  0.0458218741402845  0.2366721559606770  0.1110842068253665   T   T   T
  0.0460907518933643  0.3801495378136863  0.1111321383999309   T   T   T
  0.0472945260827952  0.5236916835373538  0.1110843126184220   T   T   T
  0.0490427348794830  0.6667851138229443  0.1111269458478997   T   T   T
  0.0491680601939330  0.8095284863046966  0.1111171739603141   T   T   T
  0.1904735348912942  0.9508339610020625  0.1111171739603141   T   T   T
  0.1883464490466677  0.0917030646431293  0.1112757093260232   T   T   T
  0.1865228396133003  0.2338642582129331  0.1114770533845276   T   T   T
  0.1866936219326816  0.3785277012257753  0.1116872297119722   T   T   T
  0.1873046580063548  0.5234162997489931  0.1115941468554106   T   T   T
  0.1907045361082514  0.6665436955705654  0.1112292877158473   T   T   T
  0.1910609718500654  0.8089410493459512  0.1110874019803375   T   T   T
  0.3332169073740605  0.9509592863165226  0.1111269458478997   T   T   T
  0.3321697082372813  0.0918833304394258  0.1113327380306230   T   T   T
  0.3278064672108922  0.2301535762064157  0.1110817474204025   T   T   T
  0.3263257412216006  0.3731903847458983  0.1103100026005435   T   T   T
  0.3253530661580408  0.5219518451040990  0.1108220659339039   T   T   T
  0.3331350314054006  0.6668669897916002  0.1115350340267177   T   T   T
  0.3334583256264425  0.8092974850877497  0.1112292877158473   T   T   T
  0.4763103376596456  0.9527074951132003  0.1110843126184220   T   T   T
  0.4758727474008509  0.0929881930877218  0.1112980436248412   T   T   T
  0.4749486274498148  0.2320998127685222  0.1108873509381971   T   T   T
  0.4661143736728607  0.3611455884748784  0.1095514556574965   T   T   T
  0.4780501760929154  0.6746489550389527  0.1108220659339040   T   T   T
  0.4765857214480039  0.8126973631896598  0.1115941468554106   T   T   T
  0.6198524833823130  0.9539112693026297  0.1111321383999309   T   T   T
  0.6193022549605174  0.0952352068507994  0.1110358388340020   T   T   T
  0.6193035912983520  0.2369891480738546  0.1113710782674251   T   T   T
  0.6202468393334925  0.3797551818624959  0.1100703421527427   T   T   T
  0.6388564327211185  0.5338876475241368  0.1095514556574965   T   T   T
  0.6268116364500972  0.6736762799753959  0.1103100026005435   T   T   T
  0.6214743199702328  0.8133083992633299  0.1116872297119722   T   T   T
  0.7633298652353226  0.9541801470557254  0.1110842068253665   T   T   T
  0.7622129557619838  0.0957736741243624  0.1110538508855819   T   T   T
  0.7620778102204923  0.2379242109755121  0.1110453882808082   T   T   T
  0.7630128731221540  0.3806984298976550  0.1113710782674251   T   T   T
  0.7679022084274858  0.5250533937471815  0.1108873509381971   T   T   T
  0.7698484449895938  0.6721955539861076  0.1110817474204025   T   T   T
  0.7661377629830759  0.8134791815827003  0.1114770533845277   T   T   T
  0.9540351600330694  0.9058658040909222  0.1111125109579059   T   T   T
  0.9522829370126099  0.0477184649054053  0.1110759092375478   T   T   T
  0.9513263666340318  0.1899464030165741  0.1110469826451004   T   T   T
  0.9514175771972608  0.3326965739985943  0.1110242586536737   T   T   T
  0.9528014932255372  0.4757966507217298  0.1110270808791808   T   T   T
  0.9543292954688779  0.6192543694269231  0.1111762473894304   T   T   T
  0.9546605304684459  0.7627529639286345  0.1112223993928952   T   T   T
  0.0958199901536407  0.9041814117643494  0.1110464611792031   T   T   T
  0.0941355978270824  0.0459662418849417  0.1111125109579059   T   T   T
  0.0924670813705327  0.1880711235153973  0.1111101860529965   T   T   T
  0.0923518924734344  0.3314937810895701  0.1111970767690832   T   T   T
  0.0930479792355993  0.4753256331429948  0.1111843702312627   T   T   T
  0.0956742493608597  0.6188049818031470  0.1111265032090191   T   T   T
  0.0962590265126017  0.7616952100875776  0.1110656670172287   T   T   T
  0.2383061918304466  0.9037423754053953  0.1110656670172287   T   T   T
  0.2372484379893760  0.0453408714495641  0.1112223993928952   T   T   T
  0.2339486588797445  0.1855678107594690  0.1113967363496293   T   T   T
  0.2318453584547216  0.3279385057687620  0.1117634138020137   T   T   T
  0.2315581559194110  0.4741109340829984  0.1119521845916963   T   T   T
  0.2374883133252266  0.6187934253648634  0.1113862868148878   T   T   T
  0.2384168059864044  0.7615845959316043  0.1111519939499681   T   T   T
  0.3811964201148493  0.9043271525571436  0.1111265032090191   T   T   T
  0.3807470324910788  0.0456721064491304  0.1111762473894304   T   T   T
  0.3793529314456693  0.1862468735191993  0.1113242126181735   T   T   T
  0.3734113041291173  0.3233927722044261  0.1101991313644397   T   T   T
  0.3588013552496333  0.4639120444897410  0.1085792076362135   T   T   T
  0.3804787852021581  0.6195226167158397  0.1114136833702727   T   T   T
  0.3812079765531513  0.7625130885927799  0.1113862868148879   T   T   T
  0.5246757687740023  0.9069534226823903  0.1111843702312627   T   T   T
  0.5242047511952623  0.0471999086924782  0.1110270808791808   T   T   T
  0.5239737185689324  0.1874496297475326  0.1115051425188306   T   T   T
  0.5235489214349175  0.3265317760487323  0.1096054770010046   T   T   T
  0.5360893574272688  0.6412000466683766  0.1085792076362135   T   T   T
  0.5258904678339927  0.7684432459985995  0.1119521845916963   T   T   T
  0.6685076208274302  0.9076495094445670  0.1111970767690832   T   T   T
  0.6673048279184133  0.0485838247207525  0.1110242586536737   T   T   T
  0.6670465057940739  0.1902400940616600  0.1110932843811914   T   T   T
  0.6674625252717528  0.3325388766452403  0.1113141352712500   T   T   T
  0.6734696258682653  0.4764524804820819  0.1096054770010049   T   T   T
  0.6766086297125695  0.6265900977888774  0.1101991313644397   T   T   T
  0.6720628961482356  0.7681560434632749  0.1117634138020137   T   T   T
  0.8119302784025946  0.9075343205474593  0.1111101860529965   T   T   T
  0.8100549989014305  0.0486750352839747  0.1110469826451004   T   T   T
  0.8094317599549102  0.1905696419630940  0.1110029091905785   T   T   T
  0.8097613078563349  0.3329548961229131  0.1110932843811914   T   T   T
  0.8125517721704687  0.4760276833480623  0.1115051425188306   T   T   T
  0.8137545283987900  0.6206484704723223  0.1113242126181735   T   T   T
  0.8144335911585232  0.7660527430382557  0.1113967363496293   T   T   T
  0.4564821090180995  0.5435199121789009  0.1101249953239631   T   T   T
  0.5198085746435038  0.4801928272734793  0.1094155852803143   T   T   T

  0.00000000E+00  0.00000000E+00  0.00000000E+00
  0.00000000E+00  0.00000000E+00  0.00000000E+00
  0.00000000E+00  0.00000000E+00  0.00000000E+00
  0.00000000E+00  0.00000000E+00  0.00000000E+00
  0.00000000E+00  0.00000000E+00  0.00000000E+00
  0.00000000E+00  0.00000000E+00  0.00000000E+00
  0.00000000E+00  0.00000000E+00  0.00000000E+00
  0.00000000E+00  0.00000000E+00  0.00000000E+00
  0.00000000E+00  0.00000000E+00  0.00000000E+00
  0.00000000E+00  0.00000000E+00  0.00000000E+00
  0.00000000E+00  0.00000000E+00  0.00000000E+00
  0.00000000E+00  0.00000000E+00  0.00000000E+00
  0.00000000E+00  0.00000000E+00  0.00000000E+00
  0.00000000E+00  0.00000000E+00  0.00000000E+00
  0.00000000E+00  0.00000000E+00  0.00000000E+00
  0.00000000E+00  0.00000000E+00  0.00000000E+00
  0.00000000E+00  0.00000000E+00  0.00000000E+00
  0.00000000E+00  0.00000000E+00  0.00000000E+00
  0.00000000E+00  0.00000000E+00  0.00000000E+00
  0.00000000E+00  0.00000000E+00  0.00000000E+00
  0.00000000E+00  0.00000000E+00  0.00000000E+00
  0.00000000E+00  0.00000000E+00  0.00000000E+00
  0.00000000E+00  0.00000000E+00  0.00000000E+00
  0.00000000E+00  0.00000000E+00  0.00000000E+00
  0.00000000E+00  0.00000000E+00  0.00000000E+00
  0.00000000E+00  0.00000000E+00  0.00000000E+00
  0.00000000E+00  0.00000000E+00  0.00000000E+00
  0.00000000E+00  0.00000000E+00  0.00000000E+00
  0.00000000E+00  0.00000000E+00  0.00000000E+00
  0.00000000E+00  0.00000000E+00  0.00000000E+00
  0.00000000E+00  0.00000000E+00  0.00000000E+00
  0.00000000E+00  0.00000000E+00  0.00000000E+00
  0.00000000E+00  0.00000000E+00  0.00000000E+00
  0.00000000E+00  0.00000000E+00  0.00000000E+00
  0.00000000E+00  0.00000000E+00  0.00000000E+00
  0.00000000E+00  0.00000000E+00  0.00000000E+00
  0.00000000E+00  0.00000000E+00  0.00000000E+00
  0.00000000E+00  0.00000000E+00  0.00000000E+00
  0.00000000E+00  0.00000000E+00  0.00000000E+00
  0.00000000E+00  0.00000000E+00  0.00000000E+00
  0.00000000E+00  0.00000000E+00  0.00000000E+00
  0.00000000E+00  0.00000000E+00  0.00000000E+00
  0.00000000E+00  0.00000000E+00  0.00000000E+00
  0.00000000E+00  0.00000000E+00  0.00000000E+00
  0.00000000E+00  0.00000000E+00  0.00000000E+00
  0.00000000E+00  0.00000000E+00  0.00000000E+00
  0.00000000E+00  0.00000000E+00  0.00000000E+00
  0.00000000E+00  0.00000000E+00  0.00000000E+00
  0.00000000E+00  0.00000000E+00  0.00000000E+00
  0.00000000E+00  0.00000000E+00  0.00000000E+00
  0.00000000E+00  0.00000000E+00  0.00000000E+00
  0.00000000E+00  0.00000000E+00  0.00000000E+00
  0.00000000E+00  0.00000000E+00  0.00000000E+00
  0.00000000E+00  0.00000000E+00  0.00000000E+00
  0.00000000E+00  0.00000000E+00  0.00000000E+00
  0.00000000E+00  0.00000000E+00  0.00000000E+00
  0.00000000E+00  0.00000000E+00  0.00000000E+00
  0.00000000E+00  0.00000000E+00  0.00000000E+00
  0.00000000E+00  0.00000000E+00  0.00000000E+00
  0.00000000E+00  0.00000000E+00  0.00000000E+00
  0.00000000E+00  0.00000000E+00  0.00000000E+00
  0.00000000E+00  0.00000000E+00  0.00000000E+00
  0.00000000E+00  0.00000000E+00  0.00000000E+00
  0.00000000E+00  0.00000000E+00  0.00000000E+00
  0.00000000E+00  0.00000000E+00  0.00000000E+00
  0.00000000E+00  0.00000000E+00  0.00000000E+00
  0.00000000E+00  0.00000000E+00  0.00000000E+00
  0.00000000E+00  0.00000000E+00  0.00000000E+00
  0.00000000E+00  0.00000000E+00  0.00000000E+00
  0.00000000E+00  0.00000000E+00  0.00000000E+00
  0.00000000E+00  0.00000000E+00  0.00000000E+00
  0.00000000E+00  0.00000000E+00  0.00000000E+00
  0.00000000E+00  0.00000000E+00  0.00000000E+00
  0.00000000E+00  0.00000000E+00  0.00000000E+00
  0.00000000E+00  0.00000000E+00  0.00000000E+00
  0.00000000E+00  0.00000000E+00  0.00000000E+00
  0.00000000E+00  0.00000000E+00  0.00000000E+00
  0.00000000E+00  0.00000000E+00  0.00000000E+00
  0.00000000E+00  0.00000000E+00  0.00000000E+00
  0.00000000E+00  0.00000000E+00  0.00000000E+00
  0.00000000E+00  0.00000000E+00  0.00000000E+00
  0.00000000E+00  0.00000000E+00  0.00000000E+00
  0.00000000E+00  0.00000000E+00  0.00000000E+00
  0.00000000E+00  0.00000000E+00  0.00000000E+00
  0.00000000E+00  0.00000000E+00  0.00000000E+00
  0.00000000E+00  0.00000000E+00  0.00000000E+00
  0.00000000E+00  0.00000000E+00  0.00000000E+00
  0.00000000E+00  0.00000000E+00  0.00000000E+00
  0.00000000E+00  0.00000000E+00  0.00000000E+00
  0.00000000E+00  0.00000000E+00  0.00000000E+00
  0.00000000E+00  0.00000000E+00  0.00000000E+00
  0.00000000E+00  0.00000000E+00  0.00000000E+00
  0.00000000E+00  0.00000000E+00  0.00000000E+00
  0.00000000E+00  0.00000000E+00  0.00000000E+00
  0.00000000E+00  0.00000000E+00  0.00000000E+00
  0.00000000E+00  0.00000000E+00  0.00000000E+00
  0.00000000E+00  0.00000000E+00  0.00000000E+00
  0.00000000E+00  0.00000000E+00  0.00000000E+00
