 O Se B N 
 1.0
 17.527899999999772   0.000000000000000   0.000000000000000
 -8.763949999999658  15.179606674993195   0.000000000000000
  0.000000000000001   0.000000000000002  15.000000000000000
 O Se B N 
   1   1  48  48
Cartesian
  3.237791424318139   8.250418486902563   1.651874929859445 
  4.902766786910513   7.289138246164357   1.641233779204710 
  7.529001614318069  14.472854282913648   1.666537013908485 
 15.022197783725058   1.446688303048710   1.666246101103500 
 13.765252564626341   3.609544484902735   1.665807763283730 
 12.522228528861632   5.778872712716533   1.665537582510030 
 11.304604928613369   7.956076223075299   1.669470654372615 
 10.064564600548696  10.137431835579541   1.669991070459345 
  8.807264429024961  12.320612340793422   1.669135639890345 
 -7.496130262586291  14.447651062287234   1.666300168986030 
 -0.005390953453850   1.422903551363088   1.666537013908485 
 -1.271021713488021   3.592590238405723   1.666263102380505 
 -2.523737451810439   5.770520461692206   1.666982075998965 
 -3.760634006210402   7.949433775062042   1.666264689276330 
 -4.983017180639027  10.119737783328796   1.666904187718500 
 -6.232854335276546  12.288324014307916   1.666757609404710 
 -4.994460220302637  14.433285541237135   1.666757609404710 
  2.497636650865930   1.392016452174174   1.669135639890345 
  1.219779014692764   3.549967455011370   1.672155800767920 
 -0.045050711283688   5.745901620196604   1.675308445679580 
 -1.304136965115461   7.945253557470052   1.673912202831165 
 -2.499983294881336  10.119737783328796   1.668439315737705 
 -3.740621300924460  12.279406952327797   1.666311029705055 
 -2.491526303980111  14.435187930217058   1.666904187718500 
  5.016976515207585   1.394752816058916   1.669991070459345 
  3.728704542431578   3.493640761656467   1.666226211306030 
  2.449183087164341   5.664883255332112   1.654650039008145 
  1.128396135411563   7.923023711967195   1.662330989008560 
 -0.001755621850608  10.122778609573190   1.673025510400770 
 -1.250009361101253  12.284817506693216   1.668439315737705 
 -0.000760884332603  14.461725052136376   1.666264689276330 
  7.526106054356158   1.411524196489941   1.669470654372615 
  6.290740892964894   3.523183867165728   1.663310264072955 
  5.004944250186151   5.482047985457603   1.643271834862440 
  2.466625972025493  10.240905781186473   1.662330989008560 
  1.231107810842617  12.336426319023133   1.673912202831165 
  2.504681674872243  14.479997870857435   1.666982075998965 
 10.020431403642277   1.445632981606746   1.665537582510030 
  8.778130373656461   3.597402054002840   1.670566174011375 
  7.543469149069681   5.764534293463199   1.651055132291145 
  6.518847018573361   8.104204498053804   1.643271834862440 
  5.082626448643369  10.226140956299107   1.654650039008145 
  3.765345587282520  12.345701606285674   1.675308445679580 
  5.017182445069349  14.484079329393071   1.666263102380505 
 12.520636775958135   1.453806703026789   1.665807763283730 
 11.272467760984831   3.611595941066371   1.665680824212120 
 10.037591334096206   5.778852427633873   1.670566174011375 
  8.858171428965521   7.970104000452554   1.663310264072955 
  7.602738333576608  10.203664118188273   1.666226211306030 
  6.299495222359457  12.348294014720755   1.672155800767920 
  8.783270267781086  13.750686606426637   1.666687664368590 
 16.273317851155401   0.724347528398515   1.666138638563220 
 15.010072643007394   2.883311687121334   1.665704739676500 
 13.760616011660790   5.050203135416425   1.665363879805110 
 12.530751236015128   7.222406015234979   1.665406213187715 
 11.300274127109859   9.400037759671623   1.667643710841450 
 10.048465473775565  11.578289982621937   1.668335990893425 
 -6.244677478217874  13.725118193422883   1.665696917688045 
  1.247153499585767   0.697749472141018   1.666687664368590 
 -0.027492167378155   2.854845681887790   1.666652790794940 
 -1.286460186694741   5.031945212145970   1.667956151536245 
 -2.534794407339754   7.215256153652773   1.667765553468945 
 -3.746207244901283   9.393216232298093   1.666897548135285 
 -4.988240145636555  11.562233695355744   1.665985005258435 
 -3.743345891148966  13.718453794177941   1.665985005258435 
  3.761101765893538   0.688256594905810   1.668335990893425 
  2.474321682872844   2.816846378868310   1.670951045244435 
  1.189725590826440   4.977977531154794   1.676451207030210 
 -0.096356319616737   7.196817499693535   1.679282768875440 
 -1.260403233092989   9.393040810110378   1.670794302223320 
 -2.495543385865485  11.560554615975372   1.667279909249520 
 -1.243905216521899  13.727330481334013   1.666897548135285 
  6.273427853485460   0.693284611916214   1.667643710841450 
  5.017001959907935   2.827154284468647   1.669863189272610 
  3.710917911683796   4.908975083598859   1.652986970466600 
  2.223332312374254   7.042002367146212   1.628688114543195 
  1.239528862378244   9.404109648009015   1.671205250554095 
 -0.000851290546546  11.574648769372640   1.670794302223320 
  1.247969958776689  13.767196228857532   1.667765553468945 
  8.774550818689885   0.716476049047409   1.665406213187715 
  7.541359759078437   2.845411650940655   1.672577137782465 
  6.315004981316790   4.956623927306715   1.644082155015075 
  3.777075499050204   9.733164508413244   1.628688114543195 
  2.483157345378166  11.664666226313772   1.679282768875440 
  3.762939808804555  13.777762552119048   1.667956151536245 
 11.270666082609580   0.737483350027827   1.665363879805110 
 10.024669776556177   2.887769801669708   1.666399265717865 
  8.784862308735670   5.047809351618824   1.669712029068750 
  7.628902538935428   7.232361253042877   1.644082155015075 
  6.368124113222187   9.511391230880676   1.652986970466600 
  5.047770080286806  11.660306604791494   1.676451207030210 
  6.277847318251067  13.776014029967623   1.666652790794940 
 13.771977439767230   0.738867890502157   1.665704739676500 
 12.517496131631090   2.892772209194045   1.665043637858670 
 11.275415166098581   5.054124363659036   1.666399265717865 
 10.070443391948494   7.225912999631789   1.672577137782465 
  8.824075835525273   9.421199665205975   1.669863189272610 
  7.561662605117426  11.628379331620357   1.670951045244435 
