B Se N                                  
   1.0000000000000000     
     8.7639499999999995  -15.1796066749929999    0.0000000000000000
     8.7639499999999995   15.1796066749929999    0.0000000000000000
     0.0000000000000000    0.0000000000000000   15.0000000000000000
   B    Se   N 
    47     1    49
Selective dynamics
Direct
  0.9095426908694443  0.9544646603465601  0.1106375274629904   T   T   T
  0.9092059557242100  0.0961874337688116  0.1107605667533623   T   T   T
  0.9090470872924238  0.2379313828507587  0.1107320345868690   T   T   T
  0.9091460234912446  0.3801526446284646  0.1106824306007236   T   T   T
  0.9088918572841503  0.5228429867465213  0.1107227070737860   T   T   T
  0.9084586264971147  0.6656767487517021  0.1107398667035967   T   T   T
  0.9044934114026950  0.8073260371413352  0.1107039330234886   T   T   T
  0.0504980508377890  0.9537878517109667  0.1106587860804515   T   T   T
  0.0528934768385578  0.0976675314179144  0.1107340082728262   T   T   T
  0.0521896171277652  0.2390995962667035  0.1108340478850447   T   T   T
  0.0509809444707085  0.3812450729808735  0.1107140457552417   T   T   T
  0.0496999270656376  0.5243834106369345  0.1106932951806673   T   T   T
  0.0496012188065953  0.6676821134592515  0.1107211012238015   T   T   T
  0.0492001596349382  0.8106226962593029  0.1107284112499225   T   T   T
  0.1931033073562480  0.9549304353892430  0.1107008667442303   T   T   T
  0.1964236901571738  0.0997970750031046  0.1106952106563509   T   T   T
  0.1967397396625452  0.2416569903665663  0.1107766227722252   T   T   T
  0.1936370386209280  0.3822189430029351  0.1107509588003917   T   T   T
  0.1899204792206107  0.5252393181824586  0.1106845208599747   T   T   T
  0.1899561920581526  0.6688147696504225  0.1107557191602077   T   T   T
  0.1916658853039788  0.8117708405035603  0.1107517067055633   T   T   T
  0.3352030771000868  0.9547647495808245  0.1107436203761092   T   T   T
  0.3371970920306734  0.0983435162886807  0.1107518266239755   T   T   T
  0.3439673055155075  0.2469493409487668  0.1107920624230193   T   T   T
  0.3400417233160574  0.3856875515167673  0.1107833168059408   T   T   T
  0.3291341501494436  0.5267981653359435  0.1106708118868222   T   T   T
  0.3291038332945579  0.6700942844536548  0.1106637646529885   T   T   T
  0.3337414396717141  0.8124121901015066  0.1108147196096512   T   T   T
  0.4776832605291989  0.9536721798900517  0.1107281279398315   T   T   T
  0.4789980571375654  0.0953996951137310  0.1107478230048834   T   T   T
  0.4809795246555050  0.2377864061073749  0.1107742428715762   T   T   T
  0.4980776811087562  0.3924333113233582  0.1108598656426678   T   T   T
  0.4658758413723280  0.6691699902606312  0.1107747060623279   T   T   T
  0.4762317111917718  0.8119316831864524  0.1107700046110770   T   T   T
  0.6210609075694731  0.9549314729116436  0.1107304153061076   T   T   T
  0.6219239805596862  0.0947660802247603  0.1107021154374465   T   T   T
  0.6230428600622572  0.2346272736023889  0.1107019610440618   T   T   T
  0.6257140749222512  0.3734693221492765  0.1107441450906278   T   T   T
  0.6133906305658380  0.4982906348825717  0.1108745792137161   T   T   T
  0.6200619162585590  0.8157861403657920  0.1107983578777824   T   T   T
  0.7654972352347069  0.9542897188796580  0.1106920304957865   T   T   T
  0.7655882011396803  0.0954625580152149  0.1107066896591080   T   T   T
  0.7661675977326765  0.2366459653678625  0.1106804786982325   T   T   T
  0.7674703829456931  0.3780609961096789  0.1106834799101451   T   T   T
  0.7670847249494191  0.5190353240312776  0.1107289341905272   T   T   T
  0.7633483270697949  0.6571376241208857  0.1108189977628534   T   T   T
  0.7671648737858309  0.8133345375875911  0.1107822077975699   T   T   T
  0.6155073884192395  0.6589320944914512  0.1109197311118829   T   T   T
  0.9543327233943621  0.9041789590642949  0.1106334606004120   T   T   T
  0.9575535865525541  0.0494919936810892  0.1106921468197877   T   T   T
  0.9570113426708958  0.1910577484047742  0.1107978351027414   T   T   T
  0.9564187148440666  0.3328672429755545  0.1106864365935018   T   T   T
  0.9556726156469543  0.4753463014467906  0.1106914616595811   T   T   T
  0.9554071547459599  0.6183773633583746  0.1107141325506561   T   T   T
  0.9536755539290661  0.7612721986056112  0.1107211625189951   T   T   T
  0.0976635446612217  0.9062023086967324  0.1106826514519081   T   T   T
  0.1001421846928728  0.0501032084502447  0.1106540950717471   T   T   T
  0.1010343426116194  0.1928879620852375  0.1107914173442644   T   T   T
  0.0988635487465678  0.3339980386677273  0.1107690758309787   T   T   T
  0.0962091624695950  0.4764004546339288  0.1106607025804006   T   T   T
  0.0959469241925954  0.6197910618817924  0.1107083019175392   T   T   T
  0.0966052012710591  0.7631415545202893  0.1107088883304932   T   T   T
  0.2400060731212413  0.9070312351164423  0.1107122737012038   T   T   T
  0.2420275593622631  0.0505723155602416  0.1106924868621552   T   T   T
  0.2465691416646194  0.1964559177916770  0.1107274689142526   T   T   T
  0.2439597619913618  0.3367320381489658  0.1107578835645423   T   T   T
  0.2362785659000919  0.4770129367238210  0.1106908348414984   T   T   T
  0.2355457965397112  0.6206117420629739  0.1106868059656102   T   T   T
  0.2386139945907818  0.7641087369678808  0.1107877408461482   T   T   T
  0.3824202895100214  0.9071581756617395  0.1107562351537188   T   T   T
  0.3837911951672004  0.0497316742544705  0.1107404926318665   T   T   T
  0.3863614430580930  0.1939722150095179  0.1107693389853552   T   T   T
  0.3966856004107899  0.3457926635352275  0.1108161781724708   T   T   T
  0.3764336008458343  0.4798039960292217  0.1106830331296938   T   T   T
  0.3730427283025476  0.6215358600152473  0.1105399922788813   T   T   T
  0.3806574007432150  0.7649558787184346  0.1107614951356492   T   T   T
  0.5253929727713118  0.9066424105626671  0.1107300163778251   T   T   T
  0.5265373193437953  0.0481236255876759  0.1107000284978297   T   T   T
  0.5278738052924224  0.1896278761407100  0.1107294025393419   T   T   T
  0.5310219705623681  0.3317260196512742  0.1107704588219132   T   T   T
  0.4652451662783503  0.5250471852030520  0.1105805057102247   T   T   T
  0.4967201975038557  0.6104252306990438  0.1110559411234231   T   T   T
  0.5234361933420444  0.7640837198751229  0.1107689676364957   T   T   T
  0.6695604348911414  0.9095201890695223  0.1106900078356859   T   T   T
  0.6701278284998974  0.0487991835315633  0.1106893587602778   T   T   T
  0.6709397398775593  0.1886722354854826  0.1106788330874975   T   T   T
  0.6728934671859674  0.3281275606804426  0.1106809759970399   T   T   T
  0.6732571130425301  0.4661111784597825  0.1107199250771750   T   T   T
  0.6701797051507705  0.5924763205371233  0.1109144453851562   T   T   T
  0.6752868309893200  0.7792402655837847  0.1109145376851185   T   T   T
  0.8149364201668350  0.9080126319001340  0.1106413513362065   T   T   T
  0.8138268039971132  0.0488428292377951  0.1107109967527056   T   T   T
  0.8139651903138863  0.1900221406486275  0.1106835990950465   T   T   T
  0.8146350419375613  0.3313350462520473  0.1106565500985146   T   T   T
  0.8148582777717606  0.4729867311699021  0.1106928857266694   T   T   T
  0.8143217996921287  0.6147427571220250  0.1107346800050394   T   T   T
  0.8071517736520555  0.7565337337317388  0.1107532504443210   T   T   T

  0.00000000E+00  0.00000000E+00  0.00000000E+00
  0.00000000E+00  0.00000000E+00  0.00000000E+00
  0.00000000E+00  0.00000000E+00  0.00000000E+00
  0.00000000E+00  0.00000000E+00  0.00000000E+00
  0.00000000E+00  0.00000000E+00  0.00000000E+00
  0.00000000E+00  0.00000000E+00  0.00000000E+00
  0.00000000E+00  0.00000000E+00  0.00000000E+00
  0.00000000E+00  0.00000000E+00  0.00000000E+00
  0.00000000E+00  0.00000000E+00  0.00000000E+00
  0.00000000E+00  0.00000000E+00  0.00000000E+00
  0.00000000E+00  0.00000000E+00  0.00000000E+00
  0.00000000E+00  0.00000000E+00  0.00000000E+00
  0.00000000E+00  0.00000000E+00  0.00000000E+00
  0.00000000E+00  0.00000000E+00  0.00000000E+00
  0.00000000E+00  0.00000000E+00  0.00000000E+00
  0.00000000E+00  0.00000000E+00  0.00000000E+00
  0.00000000E+00  0.00000000E+00  0.00000000E+00
  0.00000000E+00  0.00000000E+00  0.00000000E+00
  0.00000000E+00  0.00000000E+00  0.00000000E+00
  0.00000000E+00  0.00000000E+00  0.00000000E+00
  0.00000000E+00  0.00000000E+00  0.00000000E+00
  0.00000000E+00  0.00000000E+00  0.00000000E+00
  0.00000000E+00  0.00000000E+00  0.00000000E+00
  0.00000000E+00  0.00000000E+00  0.00000000E+00
  0.00000000E+00  0.00000000E+00  0.00000000E+00
  0.00000000E+00  0.00000000E+00  0.00000000E+00
  0.00000000E+00  0.00000000E+00  0.00000000E+00
  0.00000000E+00  0.00000000E+00  0.00000000E+00
  0.00000000E+00  0.00000000E+00  0.00000000E+00
  0.00000000E+00  0.00000000E+00  0.00000000E+00
  0.00000000E+00  0.00000000E+00  0.00000000E+00
  0.00000000E+00  0.00000000E+00  0.00000000E+00
  0.00000000E+00  0.00000000E+00  0.00000000E+00
  0.00000000E+00  0.00000000E+00  0.00000000E+00
  0.00000000E+00  0.00000000E+00  0.00000000E+00
  0.00000000E+00  0.00000000E+00  0.00000000E+00
  0.00000000E+00  0.00000000E+00  0.00000000E+00
  0.00000000E+00  0.00000000E+00  0.00000000E+00
  0.00000000E+00  0.00000000E+00  0.00000000E+00
  0.00000000E+00  0.00000000E+00  0.00000000E+00
  0.00000000E+00  0.00000000E+00  0.00000000E+00
  0.00000000E+00  0.00000000E+00  0.00000000E+00
  0.00000000E+00  0.00000000E+00  0.00000000E+00
  0.00000000E+00  0.00000000E+00  0.00000000E+00
  0.00000000E+00  0.00000000E+00  0.00000000E+00
  0.00000000E+00  0.00000000E+00  0.00000000E+00
  0.00000000E+00  0.00000000E+00  0.00000000E+00
  0.00000000E+00  0.00000000E+00  0.00000000E+00
  0.00000000E+00  0.00000000E+00  0.00000000E+00
  0.00000000E+00  0.00000000E+00  0.00000000E+00
  0.00000000E+00  0.00000000E+00  0.00000000E+00
  0.00000000E+00  0.00000000E+00  0.00000000E+00
  0.00000000E+00  0.00000000E+00  0.00000000E+00
  0.00000000E+00  0.00000000E+00  0.00000000E+00
  0.00000000E+00  0.00000000E+00  0.00000000E+00
  0.00000000E+00  0.00000000E+00  0.00000000E+00
  0.00000000E+00  0.00000000E+00  0.00000000E+00
  0.00000000E+00  0.00000000E+00  0.00000000E+00
  0.00000000E+00  0.00000000E+00  0.00000000E+00
  0.00000000E+00  0.00000000E+00  0.00000000E+00
  0.00000000E+00  0.00000000E+00  0.00000000E+00
  0.00000000E+00  0.00000000E+00  0.00000000E+00
  0.00000000E+00  0.00000000E+00  0.00000000E+00
  0.00000000E+00  0.00000000E+00  0.00000000E+00
  0.00000000E+00  0.00000000E+00  0.00000000E+00
  0.00000000E+00  0.00000000E+00  0.00000000E+00
  0.00000000E+00  0.00000000E+00  0.00000000E+00
  0.00000000E+00  0.00000000E+00  0.00000000E+00
  0.00000000E+00  0.00000000E+00  0.00000000E+00
  0.00000000E+00  0.00000000E+00  0.00000000E+00
  0.00000000E+00  0.00000000E+00  0.00000000E+00
  0.00000000E+00  0.00000000E+00  0.00000000E+00
  0.00000000E+00  0.00000000E+00  0.00000000E+00
  0.00000000E+00  0.00000000E+00  0.00000000E+00
  0.00000000E+00  0.00000000E+00  0.00000000E+00
  0.00000000E+00  0.00000000E+00  0.00000000E+00
  0.00000000E+00  0.00000000E+00  0.00000000E+00
  0.00000000E+00  0.00000000E+00  0.00000000E+00
  0.00000000E+00  0.00000000E+00  0.00000000E+00
  0.00000000E+00  0.00000000E+00  0.00000000E+00
  0.00000000E+00  0.00000000E+00  0.00000000E+00
  0.00000000E+00  0.00000000E+00  0.00000000E+00
  0.00000000E+00  0.00000000E+00  0.00000000E+00
  0.00000000E+00  0.00000000E+00  0.00000000E+00
  0.00000000E+00  0.00000000E+00  0.00000000E+00
  0.00000000E+00  0.00000000E+00  0.00000000E+00
  0.00000000E+00  0.00000000E+00  0.00000000E+00
  0.00000000E+00  0.00000000E+00  0.00000000E+00
  0.00000000E+00  0.00000000E+00  0.00000000E+00
  0.00000000E+00  0.00000000E+00  0.00000000E+00
  0.00000000E+00  0.00000000E+00  0.00000000E+00
  0.00000000E+00  0.00000000E+00  0.00000000E+00
  0.00000000E+00  0.00000000E+00  0.00000000E+00
  0.00000000E+00  0.00000000E+00  0.00000000E+00
  0.00000000E+00  0.00000000E+00  0.00000000E+00
  0.00000000E+00  0.00000000E+00  0.00000000E+00
  0.00000000E+00  0.00000000E+00  0.00000000E+00
