 N Se B 
 1.0
 17.527899999999772   0.000000000000000   0.000000000000000
 -8.763949999999658  15.179606674993195   0.000000000000000
  0.000000000000001   0.000000000000002  15.000000000000000
 N Se B 
  49   1  47
Cartesian
  8.803269354092599  13.725080962400773   1.659501909006180 
 16.350158151712929   0.751268997640180   1.660382202296820 
 15.099978559069028   2.900181472994278   1.661967526541115 
 13.846779717839611   5.052793823358301   1.660296548902530 
 12.585022821233586   7.215569890375036   1.660371924893715 
 11.326852774067078   9.386725152499482   1.660711988259840 
 10.044178256743674  11.555812547440478   1.660817437784925 
 -6.230074878835004  13.755794613987158   1.660239771778620 
  1.316180185380678   0.760546997429915   1.659811426076205 
  0.080459398545318   2.927963396794913   1.661871260163960 
 -1.194271714906965   5.069958857195264   1.661536137464685 
 -2.488805185538067   7.231571521130982   1.659910538706015 
 -3.750069784223355   9.408184540041971   1.660624528763085 
 -4.994848119378853  11.584188634960862   1.660633324957395 
 -3.742373943936687  13.768377391000865   1.660684105518060 
  3.799021612791589   0.767667858848112   1.660387302932325 
  2.600109417452918   2.982123561052455   1.660912033713795 
  1.324999566472822   5.111459893970108   1.661368253468130 
 -0.039050451560400   7.240868758351020   1.660362522622470 
 -1.310387109684242   9.420642142398275   1.660302089484150 
 -2.514208529561686  11.598870084098266   1.661816112692220 
 -1.247264301087786  13.770304298549597   1.661343527305785 
  6.291207783188632   0.754907254471740   1.661107389477990 
  5.072141944045261   2.944421929721695   1.661540084780325 
  3.922555921850761   5.248996623563007   1.662242672587065 
  2.393112281265471   7.283235940813587   1.660245496945410 
  1.091546437033735   9.434669889435080   1.658099884183215 
 -0.031910218807255  11.611729362669641   1.661422427034735 
  1.263266733387783  13.762475187208981   1.660950245667375 
  8.807340431256888   0.730497708195560   1.660500427467450 
  7.590630046681612   2.878476574430304   1.660941038090130 
  6.400469747897340   5.035470502167403   1.661556882328695 
  3.553283471250076   7.970009757194637   1.658707585653375 
  3.356725749243045   9.266014906503470   1.665839116851345 
  2.478345736480572  11.598490334470048   1.661534514547440 
  3.764998885732751  13.806158733040789   1.660350117535290 
 11.318259960651767   0.740752412069932   1.660340381404170 
 10.106650628416778   2.863970325161326   1.660182496312455 
  8.918715868063501   4.980847310354088   1.660214639955600 
  7.715808289235553   7.075384355837066   1.660798876157625 
  6.554410004540929   8.993557510000720   1.663716680777340 
  5.007137319334801  11.828560736879092   1.663718065276770 
  6.326346773701212  13.783274608169414   1.659620270043105 
 13.836618724482255   0.741414936723586   1.660664951290590 
 12.601755919765107   2.884461354586394   1.660253986425705 
 11.375037772976675   5.029535679746752   1.659848251477725 
 10.137522344319162   7.179752541649856   1.660393285900035 
  8.885776286544122   9.331553259413210   1.661020200075585 
  7.517451757657656  11.483884514411830   1.661298756664815 
  5.013704023955312  10.002330019909676   1.663795966678245 
  7.577492771246412  14.488398129241755   1.659562911944850 
 15.093489211160026   1.460087411687525   1.661408501300430 
 13.848467698617844   3.611704807311743   1.660980518803035 
 12.603781815260479   5.770567621918564   1.660236459010860 
 11.348795791593652   7.936550891590868   1.660840606106790 
 10.089414217156323  10.104711218739103   1.661098000553955 
  8.778505042520564  12.254891702286413   1.660558995352335 
 -7.473824257722333  14.478124440359215   1.659881791206780 
  0.071158210708555   1.482554711841475   1.661010124092390 
 -1.180682516647749   3.629437827478223   1.662510718275675 
 -2.447623860762472   5.787150254628743   1.660710686328630 
 -3.724534640037594   7.959933920360102   1.660399427710005 
 -4.982127455130878  10.135151866239626   1.660816518357015 
 -6.241881300816224  12.304933691038698   1.660926168748830 
 -4.984267128219695  14.495468411188712   1.660513001163450 
  2.568278223232457   1.514880345861930   1.660428159845265 
  1.330564702108094   3.668258064027091   1.661649341583375 
  0.044302943713277   5.801933218516196   1.661264382005880 
 -1.274263954854078   7.972926260251328   1.660267812899625 
 -2.531926061701540  10.152345141719596   1.661335787403120 
 -3.754818586611328  12.322362069072675   1.661275600583445 
 -2.492104511985997  14.492953365785283   1.661154305641635 
  5.048479249826205   1.492815896297964   1.661277399359625 
  3.864772857737332   3.748593864251074   1.661880936345285 
  2.580070904996199   5.854585331465698   1.661749752089115 
  1.152197689308607   7.996588946907650   1.660062178302330 
 -0.104173724633773  10.171767673167491   1.659956469794820 
 -1.270153233018065  12.332097503710676   1.662220794144765 
  0.014849121282543  14.476368587614346   1.660921919097465 
  7.559751887709465   1.448129848740707   1.661217345073245 
  6.346612836404468   3.609504117370152   1.661613643073640 
  5.290989867933842   5.956983312053728   1.662897984640020 
  2.301252823845494  10.157737250865406   1.661620590934920 
  1.231613135736524  12.324803597735528   1.661550069166155 
  2.516921799763146  14.495484160370676   1.660956229591620 
 10.070496150066225   1.438511823942708   1.660531731561690 
  8.864371252397515   3.561549728510279   1.660529415660930 
  7.694387267979559   5.669117415402334   1.661162176359420 
  6.384455423915864   7.563855847350087   1.663118688205740 
  3.718874317129750  12.383312741663511   1.661975368166730 
  5.054211607695194  14.485742586583036   1.660380457436805 
 12.582524345438610   1.449084082859683   1.660600344886620 
 11.355355628112811   3.592192675508222   1.660207180473480 
 10.138836458378345   5.738817220101060   1.660252198652175 
  8.896584722397005   7.878752069222442   1.660934012857905 
  7.620771861132471   9.975090665494571   1.662284966442795 
  6.318765970540001  12.346098375767101   1.661733116963550 
