 B N P 
 1.0
 14.936314146199660   0.000000000000000   0.000000000000000
 -7.468157073099825  12.935227489513863   0.000000000000000
  0.000000000000001   0.000000000000001  13.341276283792837
 B N P 
 143 143   2
Cartesian
  1.210929627370054   0.681220116980539   5.002978606422314 
  4.971880353739293   7.556814654251478   5.002978606422314 
  6.247925373493922   0.671222232925386   5.002978606422314 
  9.981138285409436   7.188906396290892   5.002978606422314 
 11.208733750797121   0.722375452958122   5.002978606422314 
 -3.734051292052520   9.342124472044546  11.673616748318732 
  1.244488765978456   9.342944914423937  11.673616748318732 
  2.488678726730193   2.873675029150075  11.673616748318732 
  6.223611674662105   9.343012481533245  11.673616748318732 
  7.469178613375505   2.873831761941628  11.673616748318732 
 12.446523913765347   2.874085362779701  11.673616748318732 
 -1.258599312171307   9.349529141437573   5.002978606422314 
 -0.042133463244501   2.850169231323588   5.002978606422314 
  5.040891188468246   2.765453650749868   5.002978606422314 
  3.696087264328926   9.459278914318412   5.002978606422314 
  8.726959016287736   9.361208612209287   5.002978606422314 
  9.990028831178851   2.853512298935376   5.002978606422314 
 -4.978943422938262  11.497807957048565  11.673616748318732 
  0.000238477762004  11.498117675879048  11.673616748318732 
  1.243629249796790   5.030163981135799  11.673616748318732 
  6.224302480629651   5.030184193505066  11.673616748318732 
  4.978659535241349  11.498660163963011  11.673616748318732 
 11.202331097606500   5.030020130639479  11.673616748318732 
 -1.293966950474058   5.019828257511980   5.002978606422314 
 -2.489912670310910  11.482226437773635   5.002978606422314 
  2.481880052241945  11.533841991348247   5.002978606422314 
  7.470401202823197  11.524357563079450   5.002978606422314 
  8.824388799371114   5.005759108762946   5.002978606422314 
 -0.000657514071981   7.186563814081149  11.673616748318732 
  1.244004019982963   0.718095467768111  11.673616748318732 
  4.979032846571881   7.187054468815838  11.673616748318732 
  6.224086334005642   0.718028925354371  11.673616748318732 
  9.957892165406502   7.186201039974637  11.673616748318732 
 -2.499571876419486   7.188460993296906   5.002978606422314 
 11.202276949957716   0.718647617255404  11.673616748318732 
  3.726986349355951   0.670541205106712   5.002978606422314 
  2.426013017738625   7.294555498056368   5.002978606422314 
  7.517974449168404   7.214999569657894   5.002978606422314 
  8.740154502830951   0.694192675217812   5.002978606422314 
  2.488935900298335   7.187172325615209  11.673616748318732 
 13.679945172405215   0.720103849314919   5.002978606422314 
 -1.244805515156360   9.342333041571074  11.673616748318732 
 -0.001086991829644   2.873867422644258  11.673616748318732 
  4.979356074475079   2.873638051746527  11.673616748318732 
  3.734014927698539   9.343325040120408  11.673616748318732 
  8.712993048990105   9.342429559905455  11.673616748318732 
  9.958075888063478   2.874058048835706  11.673616748318732 
 -3.732981587955857   9.342742065992706   5.002978606422314 
  1.215872501011964   9.386993474437109   5.002978606422314 
  2.388816092043466   2.751414519307230   5.002978606422314 
  6.257923262066357   9.451007815249373   5.002978606422314 
  7.550633782413396   2.783008504858354   5.002978606422314 
 12.442372195138820   2.863643124014617   5.002978606422314 
 -1.245494763612104   5.030033846335715  11.673616748318732 
 -2.489247777096002  11.497770266336488  11.673616748318732 
  2.489478409082927  11.498599415203902  11.673616748318732 
  3.734078995974623   5.030366511171008  11.673616748318732 
  7.467905072450892  11.498235743316529  11.673616748318732 
 -4.981938868034214  11.488046745805548   5.002978606422314 
  8.713706303180636   5.030042069284769  11.673616748318732 
 -0.000777551172725  11.497531071300068   5.002978606422314 
  1.087817225049893   5.004810657529657   5.002978606422314 
 -0.045186798448671   7.204136752051386   5.002978606422314 
  6.540947948108653   4.839109860293852   5.002978606422314 
  4.976842865445541  11.536605099376779   5.002978606422314 
 11.226201322300406   5.019120933071619   5.002978606422314 
 -2.489620696963345   7.186174519224120  11.673616748318732 
  3.734032380842935   0.717891165574398  11.673616748318732 
  7.468780700862715   7.186597545831175  11.673616748318732 
  8.713432715015630   0.718394333341296  11.673616748318732 
 13.691064275761432   0.718478223732303  11.673616748318732 
 -0.001471698463204   1.435335178143794   1.663766518357667 
  3.733285188270465   7.907907697105395   1.659655738820222 
  4.979276590261329   1.432810541813034   1.664443915339573 
  8.715213821806902   7.906226043735212   1.665305683141043 
  9.957966119701860   1.436774178961283   1.664340729430342 
 -4.978009608992345  10.060416314056726   8.340958773615592 
 -0.001710580803071  10.061545428064706   8.341553942905703 
  1.240887994611529   3.590922015392925   8.342315193514084 
  4.979202013445523  10.062714800815606   8.343026927361279 
  6.225705859577658   3.590908460566383   8.346301474024406 
 11.202188622353582   3.593131683710182   8.341856105221416 
 -2.490008464415405  10.060372933464329   1.664614364596436 
 -1.247084813046917   3.592800379176913   1.663766518357667 
  3.733294217773993   3.587932709314837   1.661341429773720 
  2.488067361009632  10.062642911240010   1.664014629153311 
  7.469558885818579  10.061654454034665   1.664241480572779 
  8.714781964233392   3.592500530315324   1.662930285483347 
 -6.223523485668589  12.214754691427753   8.341686530348012 
 -1.244844112499496  12.214715865555464   8.341553942905703 
 -0.004634021963361   5.750344832475517   8.341256831646978 
  4.980910476904388   5.750225002319894   8.347742191962244 
  3.733880307299639  12.217207036710617   8.341616483414287 
  9.959042113170813   5.749743019670023   8.341715732271849 
 -2.491016643195834   5.749863200666411   1.664270682496616 
 -3.734130735832263  12.213780723697859   1.664694585914251 
  1.244352081628864  12.216406999974032   1.664321357616117 
  2.484502291189459   5.750903774241089   1.661341429773720 
  6.223451937379256  12.216556579592815   1.664101107623211 
  7.471554593276075   5.749806494459730   1.658402349708873 
 -1.247163749074290   7.906227545886548   8.341262626930391 
 -0.001471698463203   1.435335178143795   8.342190694486959 
  3.733285188270465   7.907907697105396   8.346301474024406 
  4.979276590261330   1.432810541813035   8.341513297505054 
  8.715213821806902   7.906226043735213   8.340651529703571 
 -3.733971468008829   7.905679047319727   1.664998439229049 
  9.957966119701860   1.436774178961284   8.341616483414287 
  2.488242003429368   1.432556899524917   1.664700381197636 
  1.241102932117544   7.907517245233725   1.664443915339573 
  6.225870096651587   7.907395332814219   1.658402349708873 
  7.469152379816713   1.435150581845910   1.664014629153311 
  1.241102932117544   7.907517245233726   8.341513297505054 
 12.446340693676603   1.436908154580604   1.664216245119326 
 -2.490008464415404  10.060372933464329   8.341342848248191 
 -1.247084813046917   3.592800379176914   8.342190694486959 
  3.733294217773993   3.587932709314838   8.344615783070921 
  2.488067361009632  10.062642911240010   8.341942583691317 
  7.469558885818580  10.061654454034665   8.341715732271849 
  8.714781964233392   3.592500530315325   8.343026927361279 
 -4.978009608992346  10.060416314056726   1.664998439229049 
 -0.001710580803071  10.061545428064706   1.664403269938912 
  1.240887994611528   3.590922015392924   1.663642019330543 
  4.979202013445522  10.062714800815606   1.662930285483347 
  6.225705859577657   3.590908460566382   1.659655738820222 
 11.202188622353582   3.593131683710181   1.664101107623211 
 -2.491016643195834   5.749863200666412   8.341686530348012 
 -3.734130735832262  12.213780723697859   8.341262626930391 
  1.244352081628864  12.216406999974032   8.341635855228523 
  2.484502291189459   5.750903774241090   8.344615783070921 
  6.223451937379257  12.216556579592815   8.341856105221416 
 -6.223523485668590  12.214754691427753   1.664270682496616 
  7.471554593276076   5.749806494459730   8.347554863135755 
 -1.244844112499496  12.214715865555464   1.664403269938912 
 -0.004634021963361   5.750344832475516   1.664700381197636 
 -1.247163749074291   7.906227545886547   1.664694585914251 
  4.980910476904387   5.750225002319893   1.658215020882371 
  3.733880307299638  12.217207036710617   1.664340729430342 
  9.959042113170813   5.749743019670023   1.664241480572779 
 -3.733971468008829   7.905679047319728   8.340958773615592 
  2.488242003429369   1.432556899524917   8.341256831646978 
  6.225870096651588   7.907395332814220   8.347554863135755 
  7.469152379816714   1.435150581845910   8.341942583691317 
 12.446340693676603   1.436908154580605   8.341740967725302 
  1.244536074866420   0.717969109241409   1.671084267562912 
  4.978503485884085   7.185774471244051   1.668523326763798 
  6.223173791239982   0.718219698545455   1.671698578237163 
  9.957401405245093   7.186385906108493   1.671716092996880 
 11.202080284137327   0.718534072191062   1.669071988607888 
 -3.734224070134792   9.342024718572242   8.335724549814302 
  1.244197709025467   9.342059242611290   8.334258634607465 
  2.488776721851389   2.873764550825404   8.326760360010056 
  6.223483504988670   9.341848527799039   8.335338229150716 
  7.467621105494548   2.874501413009649   8.334210694622545 
 12.446681906399132   2.874571352713919   8.336845065848308 
 -1.245075257324047   9.342113791495128   1.670234250386786 
 -0.000414295379456   2.874255804120865   1.671133731275194 
  4.978256410626535   2.874020632709403   1.677934485597921 
  3.733816108594637   9.341641373194891   1.671746518222083 
  8.712907767677628   9.341912116071565   1.671716092996880 
  9.957253003752285   2.874586438361833   1.669417269691730 
 -4.978803589103292  11.497535245694181   8.335666699339168 
 -0.000303412582355  11.497804815342851   8.336188862150843 
  1.243755775402412   5.030204086562538   8.326760360010056 
  6.222929289871802   5.030365752487564   8.337433886080829 
  4.978705691838473  11.497683330482078   8.336539943152898 
 11.201922555263533   5.030588712267864   8.336122326873735 
 -1.245338165864484   5.030557798644345   1.671084267562912 
 -2.489572524315396  11.497646287804770   1.670234250386786 
  2.489121313626106  11.497769224807774   1.669741071638345 
  3.732080341679108   5.029212587575466   1.692225831883004 
  7.468193207413722  11.497597644454791   1.669834885970906 
  8.712634204841267   5.030513047958681   1.670618983693911 
 -0.000593931672393   7.186381112711746   8.332413177573349 
  1.244536074866420   0.717969109241410   8.334872945281717 
  4.978503485884086   7.185774471244052   8.337433886080829 
  6.223173791239983   0.718219698545455   8.334258634607465 
  9.957401405245093   7.186385906108494   8.334241119847748 
 -2.489786955006656   7.186431974554703   1.670290513505461 
 11.202080284137327   0.718534072191063   8.336885224236754 
  3.733905948015519   0.718037580232375   1.673544035271292 
  2.488717393206927   7.186028698305295   1.677934485597921 
  7.467955255706205   7.186120974847853   1.673703516120291 
  8.712535201314198   0.718500174802175   1.669741071638345 
  2.488717393206927   7.186028698305296   8.328022727246720 
 13.691564151707350   0.718372054399649   1.669112146996318 
 -1.245075257324047   9.342113791495128   8.335722962457854 
 -0.000414295379455   2.874255804120866   8.334823481569448 
  4.978256410626535   2.874020632709404   8.328022727246720 
  3.733816108594638   9.341641373194891   8.334210694622545 
  8.712907767677628   9.341912116071565   8.334241119847748 
  9.957253003752285   2.874586438361834   8.336539943152898 
 -3.734224070134793   9.342024718572242   1.670232663030326 
  1.244197709025467   9.342059242611290   1.671698578237163 
  2.488776721851389   2.873764550825403   1.679196852834585 
  6.223483504988669   9.341848527799039   1.670618983693911 
  7.467621105494547   2.874501413009648   1.671746518222083 
 12.446681906399132   2.874571352713919   1.669112146996318 
 -1.245338165864484   5.030557798644346   8.334872945281717 
 -2.489572524315396  11.497646287804770   8.335722962457854 
  2.489121313626107  11.497769224807774   8.336216141206283 
  3.732080341679109   5.029212587575467   8.313731380961624 
  7.468193207413723  11.497597644454791   8.336122326873735 
 -4.978803589103292  11.497535245694181   1.670290513505461 
  8.712634204841267   5.030513047958681   8.335338229150716 
 -0.000303412582355  11.497804815342851   1.669768350693784 
  1.243755775402412   5.030204086562537   1.679196852834585 
 -0.000593931672394   7.186381112711745   1.673544035271292 
  6.222929289871801   5.030365752487563   1.668523326763798 
  4.978705691838472  11.497683330482078   1.669417269691730 
 11.201922555263533   5.030588712267863   1.669834885970906 
 -2.489786955006656   7.186431974554703   8.335666699339168 
  3.733905948015520   0.718037580232376   8.332413177573349 
  7.467955255706205   7.186120974847854   8.332253696724337 
  8.712535201314198   0.718500174802176   8.336216141206283 
 13.691564151707350   0.718372054399649   8.336845065848308 
 -0.011827078195095   1.427387450878892   5.002978606422314 
  3.662885828608086   8.029716021591188   5.002978606422314 
  4.988719763180836   1.376558884697207   5.002978606422314 
  8.735838195356401   7.918133531355885   5.002978606422314 
  9.969696689621861   1.427353325412634   5.002978606422314 
 -4.978873966365615  10.060755921989825  11.673616748318732 
  0.000113267949967  10.060767750143608  11.673616748318732 
  1.244684977132376   3.593114204273427  11.673616748318732 
  4.978720493073702  10.060762000973691  11.673616748318732 
  6.223434909850657   3.593112450563145  11.673616748318732 
 11.202240950674820   3.593062154275173  11.673616748318732 
 -2.495280230418460  10.057329277943344   5.002978606422314 
 -1.259145436626618   3.587806220895712   5.002978606422314 
  3.687238218864338   3.395781962741208   5.002978606422314 
  2.454428764754548  10.112669695954811   5.002978606422314 
  7.496601180173358  10.105634045181120   5.002978606422314 
  8.752381962262952   3.568043226773500   5.002978606422314 
 -6.223567014115416  12.216669970060572  11.673616748318732 
 -1.244605676958611  12.216684203868807  11.673616748318732 
  0.000059000549604   5.748890161380543  11.673616748318732 
  4.978668120158353   5.748930377048961  11.673616748318732 
  3.734065979639572  12.216628209069471  11.673616748318732 
  9.957518243118601   5.748885936458754  11.673616748318732 
 -2.497765790496011   5.752830969779997   5.002978606422314 
 -3.735624534892842  12.194505794474415   5.002978606422314 
  1.241106485625462  12.214533154247796   5.002978606422314 
  2.295066863845725   5.807093482475474   5.002978606422314 
  6.224210127989544  12.230587365622432   5.002978606422314 
  7.603176815345535   5.742366183673841   5.002978606422314 
 -1.244616988187569   7.904773081663735  11.673616748318732 
 -0.000074030420710   1.437247056849883  11.673616748318732 
  3.734058424733855   7.904839001952704  11.673616748318732 
  4.978806197675233   1.437342680484678  11.673616748318732 
  8.712732579465149   7.904793497801278  11.673616748318732 
 -3.730627069003539   7.910076100983233   5.002978606422314 
  9.957557676430181   1.437224389745019  11.673616748318732 
  2.460883800984126   1.368972743790204   5.002978606422314 
  1.197109154510020   7.943821101432263   5.002978606422314 
  6.285237709533693   8.025103676221860   5.002978606422314 
  7.495657548121843   1.381005310583959   5.002978606422314 
  1.244792683047605   7.904843803968607  11.673616748318732 
 12.446609468548115   1.437063331825032   5.002978606422314 
 -2.489349154730605  10.060753586088328  11.673616748318732 
 -1.244730243497244   3.593054855854727  11.673616748318732 
  3.734095559646557   3.593208345127521  11.673616748318732 
  2.489426857145738  10.060773697948614  11.673616748318732 
  7.468054694958349  10.060763285463032  11.673616748318732 
  8.712850029775883   3.593059921361835  11.673616748318732 
 -4.972529449315285  10.061114121723918   5.002978606422314 
 -0.019632685854265  10.071338184817323   5.002978606422314 
  1.211130684799613   3.573741624562647   5.002978606422314 
  4.976821366285022  10.107506006062350   5.002978606422314 
  6.295995283143595   3.469036664445680   5.002978606422314 
 11.214718734795422   3.586772903024820   5.002978606422314 
 -2.489379727467917   5.748867864609290  11.673616748318732 
 -3.734116958354753  12.216713515434535  11.673616748318732 
  1.244742771049849  12.216632564616400  11.673616748318732 
  2.489471796760648   5.748959938753490  11.673616748318732 
  6.223417887282841  12.216636661965866  11.673616748318732 
 -6.224327895873746  12.207425873855124   5.002978606422314 
  7.468063738987525   5.748914341975514  11.673616748318732 
 -1.245324388904253  12.194298488915541   5.002978606422314 
 -0.073378617330445   5.758444012023442   5.002978606422314 
 -1.264603226968223   7.914571342563646   5.002978606422314 
  3.731586893761176  12.232076435036531   5.002978606422314 
 10.010650703529070   5.751172537984678   5.002978606422314 
 -3.734109537598067   7.904760687909965  11.673616748318732 
  2.489328732563445   1.437348511789178  11.673616748318732 
  6.223352042791933   7.904818240561533  11.673616748318732 
  7.468213341689325   1.437262546681824  11.673616748318732 
 12.446904024260894   1.437233393645097  11.673616748318732 
  3.557289151990529   4.928296847156790   5.002978606422314 
  5.154417785646500   5.850399493728530   5.002978606422314 
Generated by cif2cell 2.0.0.  :  Failed to get author information, No journal information. Species order: B N P 
 1.0
 14.936314146199660   0.000000000000000   0.000000000000000
 -7.468157073099825  12.935227489513863   0.000000000000000
  0.000000000000001   0.000000000000001  13.341276283792837
 B N P 
 143 143   2
Cartesian
  1.210929627370054   0.681220116980539   5.002978606422314 
  4.971880353739293   7.556814654251478   5.002978606422314 
  6.247925373493922   0.671222232925386   5.002978606422314 
  9.981138285409436   7.188906396290892   5.002978606422314 
 11.208733750797121   0.722375452958122   5.002978606422314 
 -3.734051292052520   9.342124472044546  11.673616748318732 
  1.244488765978456   9.342944914423937  11.673616748318732 
  2.488678726730193   2.873675029150075  11.673616748318732 
  6.223611674662105   9.343012481533245  11.673616748318732 
  7.469178613375505   2.873831761941628  11.673616748318732 
 12.446523913765347   2.874085362779701  11.673616748318732 
 -1.258599312171307   9.349529141437573   5.002978606422314 
 -0.042133463244501   2.850169231323588   5.002978606422314 
  5.040891188468246   2.765453650749868   5.002978606422314 
  3.696087264328926   9.459278914318412   5.002978606422314 
  8.726959016287736   9.361208612209287   5.002978606422314 
  9.990028831178851   2.853512298935376   5.002978606422314 
 -4.978943422938262  11.497807957048565  11.673616748318732 
  0.000238477762004  11.498117675879048  11.673616748318732 
  1.243629249796790   5.030163981135799  11.673616748318732 
  6.224302480629651   5.030184193505066  11.673616748318732 
  4.978659535241349  11.498660163963011  11.673616748318732 
 11.202331097606500   5.030020130639479  11.673616748318732 
 -1.293966950474058   5.019828257511980   5.002978606422314 
 -2.489912670310910  11.482226437773635   5.002978606422314 
  2.481880052241945  11.533841991348247   5.002978606422314 
  7.470401202823197  11.524357563079450   5.002978606422314 
  8.824388799371114   5.005759108762946   5.002978606422314 
 -0.000657514071981   7.186563814081149  11.673616748318732 
  1.244004019982963   0.718095467768111  11.673616748318732 
  4.979032846571881   7.187054468815838  11.673616748318732 
  6.224086334005642   0.718028925354371  11.673616748318732 
  9.957892165406502   7.186201039974637  11.673616748318732 
 -2.499571876419486   7.188460993296906   5.002978606422314 
 11.202276949957716   0.718647617255404  11.673616748318732 
  3.726986349355951   0.670541205106712   5.002978606422314 
  2.426013017738625   7.294555498056368   5.002978606422314 
  7.517974449168404   7.214999569657894   5.002978606422314 
  8.740154502830951   0.694192675217812   5.002978606422314 
  2.488935900298335   7.187172325615209  11.673616748318732 
 13.679945172405215   0.720103849314919   5.002978606422314 
 -1.244805515156360   9.342333041571074  11.673616748318732 
 -0.001086991829644   2.873867422644258  11.673616748318732 
  4.979356074475079   2.873638051746527  11.673616748318732 
  3.734014927698539   9.343325040120408  11.673616748318732 
  8.712993048990105   9.342429559905455  11.673616748318732 
  9.958075888063478   2.874058048835706  11.673616748318732 
 -3.732981587955857   9.342742065992706   5.002978606422314 
  1.215872501011964   9.386993474437109   5.002978606422314 
  2.388816092043466   2.751414519307230   5.002978606422314 
  6.257923262066357   9.451007815249373   5.002978606422314 
  7.550633782413396   2.783008504858354   5.002978606422314 
 12.442372195138820   2.863643124014617   5.002978606422314 
 -1.245494763612104   5.030033846335715  11.673616748318732 
 -2.489247777096002  11.497770266336488  11.673616748318732 
  2.489478409082927  11.498599415203902  11.673616748318732 
  3.734078995974623   5.030366511171008  11.673616748318732 
  7.467905072450892  11.498235743316529  11.673616748318732 
 -4.981938868034214  11.488046745805548   5.002978606422314 
  8.713706303180636   5.030042069284769  11.673616748318732 
 -0.000777551172725  11.497531071300068   5.002978606422314 
  1.087817225049893   5.004810657529657   5.002978606422314 
 -0.045186798448671   7.204136752051386   5.002978606422314 
  6.540947948108653   4.839109860293852   5.002978606422314 
  4.976842865445541  11.536605099376779   5.002978606422314 
 11.226201322300406   5.019120933071619   5.002978606422314 
 -2.489620696963345   7.186174519224120  11.673616748318732 
  3.734032380842935   0.717891165574398  11.673616748318732 
  7.468780700862715   7.186597545831175  11.673616748318732 
  8.713432715015630   0.718394333341296  11.673616748318732 
 13.691064275761432   0.718478223732303  11.673616748318732 
 -0.001471698463204   1.435335178143794   1.663766518357667 
  3.733285188270465   7.907907697105395   1.659655738820222 
  4.979276590261329   1.432810541813034   1.664443915339573 
  8.715213821806902   7.906226043735212   1.665305683141043 
  9.957966119701860   1.436774178961283   1.664340729430342 
 -4.978009608992345  10.060416314056726   8.340958773615592 
 -0.001710580803071  10.061545428064706   8.341553942905703 
  1.240887994611529   3.590922015392925   8.342315193514084 
  4.979202013445523  10.062714800815606   8.343026927361279 
  6.225705859577658   3.590908460566383   8.346301474024406 
 11.202188622353582   3.593131683710182   8.341856105221416 
 -2.490008464415405  10.060372933464329   1.664614364596436 
 -1.247084813046917   3.592800379176913   1.663766518357667 
  3.733294217773993   3.587932709314837   1.661341429773720 
  2.488067361009632  10.062642911240010   1.664014629153311 
  7.469558885818579  10.061654454034665   1.664241480572779 
  8.714781964233392   3.592500530315324   1.662930285483347 
 -6.223523485668589  12.214754691427753   8.341686530348012 
 -1.244844112499496  12.214715865555464   8.341553942905703 
 -0.004634021963361   5.750344832475517   8.341256831646978 
  4.980910476904388   5.750225002319894   8.347742191962244 
  3.733880307299639  12.217207036710617   8.341616483414287 
  9.959042113170813   5.749743019670023   8.341715732271849 
 -2.491016643195834   5.749863200666411   1.664270682496616 
 -3.734130735832263  12.213780723697859   1.664694585914251 
  1.244352081628864  12.216406999974032   1.664321357616117 
  2.484502291189459   5.750903774241089   1.661341429773720 
  6.223451937379256  12.216556579592815   1.664101107623211 
  7.471554593276075   5.749806494459730   1.658402349708873 
 -1.247163749074290   7.906227545886548   8.341262626930391 
 -0.001471698463203   1.435335178143795   8.342190694486959 
  3.733285188270465   7.907907697105396   8.346301474024406 
  4.979276590261330   1.432810541813035   8.341513297505054 
  8.715213821806902   7.906226043735213   8.340651529703571 
 -3.733971468008829   7.905679047319727   1.664998439229049 
  9.957966119701860   1.436774178961284   8.341616483414287 
  2.488242003429368   1.432556899524917   1.664700381197636 
  1.241102932117544   7.907517245233725   1.664443915339573 
  6.225870096651587   7.907395332814219   1.658402349708873 
  7.469152379816713   1.435150581845910   1.664014629153311 
  1.241102932117544   7.907517245233726   8.341513297505054 
 12.446340693676603   1.436908154580604   1.664216245119326 
 -2.490008464415404  10.060372933464329   8.341342848248191 
 -1.247084813046917   3.592800379176914   8.342190694486959 
  3.733294217773993   3.587932709314838   8.344615783070921 
  2.488067361009632  10.062642911240010   8.341942583691317 
  7.469558885818580  10.061654454034665   8.341715732271849 
  8.714781964233392   3.592500530315325   8.343026927361279 
 -4.978009608992346  10.060416314056726   1.664998439229049 
 -0.001710580803071  10.061545428064706   1.664403269938912 
  1.240887994611528   3.590922015392924   1.663642019330543 
  4.979202013445522  10.062714800815606   1.662930285483347 
  6.225705859577657   3.590908460566382   1.659655738820222 
 11.202188622353582   3.593131683710181   1.664101107623211 
 -2.491016643195834   5.749863200666412   8.341686530348012 
 -3.734130735832262  12.213780723697859   8.341262626930391 
  1.244352081628864  12.216406999974032   8.341635855228523 
  2.484502291189459   5.750903774241090   8.344615783070921 
  6.223451937379257  12.216556579592815   8.341856105221416 
 -6.223523485668590  12.214754691427753   1.664270682496616 
  7.471554593276076   5.749806494459730   8.347554863135755 
 -1.244844112499496  12.214715865555464   1.664403269938912 
 -0.004634021963361   5.750344832475516   1.664700381197636 
 -1.247163749074291   7.906227545886547   1.664694585914251 
  4.980910476904387   5.750225002319893   1.658215020882371 
  3.733880307299638  12.217207036710617   1.664340729430342 
  9.959042113170813   5.749743019670023   1.664241480572779 
 -3.733971468008829   7.905679047319728   8.340958773615592 
  2.488242003429369   1.432556899524917   8.341256831646978 
  6.225870096651588   7.907395332814220   8.347554863135755 
  7.469152379816714   1.435150581845910   8.341942583691317 
 12.446340693676603   1.436908154580605   8.341740967725302 
  1.244536074866420   0.717969109241409   1.671084267562912 
  4.978503485884085   7.185774471244051   1.668523326763798 
  6.223173791239982   0.718219698545455   1.671698578237163 
  9.957401405245093   7.186385906108493   1.671716092996880 
 11.202080284137327   0.718534072191062   1.669071988607888 
 -3.734224070134792   9.342024718572242   8.335724549814302 
  1.244197709025467   9.342059242611290   8.334258634607465 
  2.488776721851389   2.873764550825404   8.326760360010056 
  6.223483504988670   9.341848527799039   8.335338229150716 
  7.467621105494548   2.874501413009649   8.334210694622545 
 12.446681906399132   2.874571352713919   8.336845065848308 
 -1.245075257324047   9.342113791495128   1.670234250386786 
 -0.000414295379456   2.874255804120865   1.671133731275194 
  4.978256410626535   2.874020632709403   1.677934485597921 
  3.733816108594637   9.341641373194891   1.671746518222083 
  8.712907767677628   9.341912116071565   1.671716092996880 
  9.957253003752285   2.874586438361833   1.669417269691730 
 -4.978803589103292  11.497535245694181   8.335666699339168 
 -0.000303412582355  11.497804815342851   8.336188862150843 
  1.243755775402412   5.030204086562538   8.326760360010056 
  6.222929289871802   5.030365752487564   8.337433886080829 
  4.978705691838473  11.497683330482078   8.336539943152898 
 11.201922555263533   5.030588712267864   8.336122326873735 
 -1.245338165864484   5.030557798644345   1.671084267562912 
 -2.489572524315396  11.497646287804770   1.670234250386786 
  2.489121313626106  11.497769224807774   1.669741071638345 
  3.732080341679108   5.029212587575466   1.692225831883004 
  7.468193207413722  11.497597644454791   1.669834885970906 
  8.712634204841267   5.030513047958681   1.670618983693911 
 -0.000593931672393   7.186381112711746   8.332413177573349 
  1.244536074866420   0.717969109241410   8.334872945281717 
  4.978503485884086   7.185774471244052   8.337433886080829 
  6.223173791239983   0.718219698545455   8.334258634607465 
  9.957401405245093   7.186385906108494   8.334241119847748 
 -2.489786955006656   7.186431974554703   1.670290513505461 
 11.202080284137327   0.718534072191063   8.336885224236754 
  3.733905948015519   0.718037580232375   1.673544035271292 
  2.488717393206927   7.186028698305295   1.677934485597921 
  7.467955255706205   7.186120974847853   1.673703516120291 
  8.712535201314198   0.718500174802175   1.669741071638345 
  2.488717393206927   7.186028698305296   8.328022727246720 
 13.691564151707350   0.718372054399649   1.669112146996318 
 -1.245075257324047   9.342113791495128   8.335722962457854 
 -0.000414295379455   2.874255804120866   8.334823481569448 
  4.978256410626535   2.874020632709404   8.328022727246720 
  3.733816108594638   9.341641373194891   8.334210694622545 
  8.712907767677628   9.341912116071565   8.334241119847748 
  9.957253003752285   2.874586438361834   8.336539943152898 
 -3.734224070134793   9.342024718572242   1.670232663030326 
  1.244197709025467   9.342059242611290   1.671698578237163 
  2.488776721851389   2.873764550825403   1.679196852834585 