Species order:X N B                     
   2.51242800000000     
     5.9449720136058266    0.0000000000000000    0.0000000000000000
    -2.9724860068029120    5.1484967885702053   -0.0000000000000001
     0.0000000000000000    0.0000000000000009    5.3101128803662583
   P    N    B 
     2   143   143
Direct
  0.4286628281028712  0.3809980807181000  0.3750000000000000
  0.5712351403902675  0.4522842368617981  0.3750000000000000
  0.1110753106233307  0.0555049464590741  0.1252567019838253
  0.6110752774649593  0.5555197600559644  0.1250647457762900
  0.4444093812275228  0.0555243190835023  0.1253027478538892
  0.9444407170711879  0.5555670290247504  0.1253040606787897
  0.7777639121961373  0.0555486227647365  0.1251058709154760
  0.1110981196342341  0.7222157264837815  0.6248071303298509
  0.4444093812275228  0.7222183954773564  0.6246972521461110
  0.2777087719404603  0.2221657526437058  0.6241352163679810
  0.7777690100470942  0.7222021054807227  0.6247781735302640
  0.6110754755652960  0.2222227181810217  0.6246936587878820
  0.9444308892152247  0.2222281250982435  0.6248911189985640
  0.2777523701221359  0.7222226125569456  0.1251929886510036
  0.1110741278343885  0.2222037305838587  0.1252604095535676
  0.4443916304657180  0.2221855498899630  0.1257701624571175
  0.6110754755652960  0.7221860907176030  0.1253063412121181
  0.9444407170711879  0.7222070213797733  0.1253040606787897
  0.7777619126138345  0.2222292913435157  0.1251317515791020
  0.1110917635886488  0.8888545064255603  0.6248027941273836
  0.4444173594416874  0.8888753463875080  0.6248419330223872
  0.2777087719404603  0.3888763526300832  0.6241352163679810
  0.6110752774649593  0.3888888507423243  0.6249352542237103
  0.7777619126138345  0.8888659546036473  0.6248682484208981
  0.9444320844083756  0.3889060873761969  0.6248369458475700
  0.1110753106233307  0.3889036974975851  0.1252567019838253
  0.2777523701221359  0.8888630908985184  0.1251929886510036
  0.6110852638280475  0.8888725949449757  0.1251560222665327
  0.4442660697931294  0.3887997015632286  0.1268413752842177
  0.9444320844083756  0.8888593303655067  0.1251630541524307
  0.7777690100470942  0.3889002378996995  0.1252218264697362
  0.2777435649548430  0.5555666584555624  0.6245589252728151
  0.1110753106233307  0.0555049464590741  0.6247432980161746
  0.6110752774649593  0.5555197600559644  0.6249352542237103
  0.4444093812275228  0.0555243190835023  0.6246972521461110
  0.9444407170711879  0.5555670290247504  0.6246959393212104
  0.1110917635886488  0.5555705904964169  0.1251972058726159
  0.7777639121961373  0.0555486227647365  0.6248941290845247
  0.2777435649548430  0.0555102398326168  0.1254410747271858
  0.4443916304657179  0.5555394139090907  0.1257701624571175
  0.7777597619637344  0.5555465476485348  0.1254530286696433
  0.6110852638280475  0.0555460022164002  0.1251560222665327
  0.4443916304657179  0.5555394139090907  0.6242298375428826
  0.9444308892152247  0.0555360974503162  0.1251088810014356
  0.2777523701221359  0.7222226125569456  0.6248070113489970
  0.1110741278343885  0.2222037305838587  0.6247395904464330
  0.4443916304657180  0.2221855498899630  0.6242298375428826
  0.6110754755652960  0.7221860907176030  0.6246936587878820
  0.9444407170711879  0.7222070213797733  0.6246959393212104
  0.7777619126138345  0.2222292913435157  0.6248682484208981
  0.1110981196342341  0.7222157264837815  0.1251928696701489
  0.4444093812275228  0.7222183954773564  0.1253027478538892
  0.2777087719404603  0.2221657526437058  0.1258647836320196
  0.7777690100470942  0.7222021054807227  0.1252218264697362
  0.6110754755652960  0.2222227181810217  0.1253063412121181
  0.9444308892152247  0.2222281250982435  0.1251088810014356
  0.1110753106233307  0.3889036974975851  0.6247432980161746
  0.2777523701221359  0.8888630908985184  0.6248070113489970
  0.6110852638280475  0.8888725949449757  0.6248439777334671
  0.4442660697931294  0.3887997015632286  0.6231586247157822
  0.9444320844083756  0.8888593303655067  0.6248369458475700
  0.1110917635886488  0.8888545064255603  0.1251972058726159
  0.7777690100470942  0.3889002378996996  0.6247781735302640
  0.4444173594416874  0.8888753463875080  0.1251580669776130
  0.2777087719404603  0.3888763526300832  0.1258647836320196
  0.2777435649548430  0.5555666584555624  0.1254410747271858
  0.6110752774649593  0.3888888507423243  0.1250647457762900
  0.7777619126138345  0.8888659546036473  0.1251317515791020
  0.9444320844083756  0.3889060873761969  0.1251630541524307
  0.1110917635886488  0.5555705904964169  0.6248027941273836
  0.2777435649548430  0.0555102398326168  0.6245589252728151
  0.7777597619637344  0.5555465476485348  0.6245469713303573
  0.6110852638280475  0.0555460022164002  0.6248439777334671
  0.9444308892152247  0.0555360974503162  0.6248911189985640
  0.0543825901662888  0.1103488479066966  0.3750000000000000
  0.5556152912933676  0.6207634174273784  0.3750000000000000
  0.3872090764298539  0.1064193796215131  0.3750000000000000
  0.8909410039792158  0.6121371686562791  0.3750000000000000
  0.7226534880443628  0.1103462097260940  0.3750000000000000
  0.0555495931141352  0.7777795891217008  0.8750000000000000
  0.3888978351615345  0.7777805035357529  0.8750000000000000
  0.2222215198281170  0.2777774265807264  0.8750000000000000
  0.7222199558070526  0.7777800590773987  0.8750000000000000
  0.5555533493196620  0.2777772910044259  0.8750000000000000
  0.8888870589293750  0.2777734026856456  0.8750000000000000
  0.2216960290951914  0.7775146812142631  0.3750000000000000
  0.0543825901662888  0.2773670755929278  0.3750000000000000
  0.3781250041931691  0.2625220132768481  0.3750000000000000
  0.5552227446990210  0.7817929529382305  0.3750000000000000
  0.8925288786780368  0.7812490389808299  0.3750000000000000
  0.7238996564940294  0.2758392327978764  0.3750000000000000
  0.0555512339643005  0.9444495645680909  0.8750000000000000
  0.3888978351615345  0.9444506649591164  0.8750000000000000
  0.2222223133683049  0.4444367264542480  0.8750000000000000
  0.5555463375823029  0.4444398354578157  0.8750000000000000
  0.7222223273524307  0.9444463360983074  0.8750000000000000
  0.8888832248785787  0.4444363998328729  0.8750000000000000
  0.0551429697077186  0.4447413835159545  0.3750000000000000
  0.2212645392854328  0.9427360905991083  0.3750000000000000
  0.5552354087548480  0.9442843710440879  0.3750000000000000
  0.3781250041931691  0.4489363242496566  0.3750000000000000
  0.8894793525254802  0.9455254942781128  0.3750000000000000
  0.7310058807281502  0.4439323690541183  0.3750000000000000
  0.2222238931174592  0.6111042954653758  0.8750000000000000
  0.0555505820661030  0.1111110769420178  0.8750000000000000
  0.5555533493196620  0.6111093916485718  0.8750000000000000
  0.3888948989901053  0.1111184694393571  0.8750000000000000
  0.8888784142697701  0.6111058738015559  0.8750000000000000
  0.0559882102789263  0.6115142626904440  0.3750000000000000
  0.7222223273524307  0.1111093245874592  0.8750000000000000
  0.2176748929689523  0.1058329082267768  0.3750000000000000
  0.3872090764298539  0.6141230301416837  0.3750000000000000
  0.7310058807281502  0.6204068450073673  0.3750000000000000
  0.5552227446990211  0.1067631250941272  0.3750000000000000
  0.3888948989901052  0.6111097628840917  0.8750000000000000
  0.8888604136247232  0.1110968734790330  0.3750000000000000
  0.2222254837410788  0.7777794085372075  0.8750000000000000
  0.0555505820661030  0.2777728384574210  0.8750000000000000
  0.3888934919354418  0.2777847044468608  0.8750000000000000
  0.5555599044509621  0.7777809633502411  0.8750000000000000
  0.8888832248785787  0.7777801583790422  0.8750000000000000
  0.7222199558070526  0.2777732300629888  0.8750000000000000
  0.0559882102789263  0.7778072809218173  0.3750000000000000
  0.3879844163376946  0.7785976855050908  0.3750000000000000
  0.2192261987598957  0.2762797660466159  0.3750000000000000
  0.7238996564940294  0.7813937570294883  0.3750000000000000
  0.5556152912933676  0.2681852071993254  0.3750000000000000
  0.8894793525254802  0.2772871915807041  0.3750000000000000
  0.0555512339643005  0.4444350027295378  0.8750000000000000
  0.2222238931174592  0.9444529309854195  0.8750000000000000
  0.5555600123028436  0.9444466728180855  0.8750000000000000
  0.3888934919354418  0.4444421208219165  0.8750000000000000
  0.8888870589293750  0.9444469895770650  0.8750000000000000
  0.0551429697077186  0.9437349195250925  0.3750000000000000
  0.7222130491021993  0.4444385958141021  0.8750000000000000
  0.3879844163376946  0.9427200641659396  0.3750000000000000
  0.2176748929689524  0.4451753180755116  0.3750000000000000
  0.2212645392854328  0.6118617820196601  0.3750000000000000
  0.7226534880443628  0.9456406116516036  0.3750000000000000
  0.8925288786780368  0.4446131730305438  0.3750000000000000
  0.0555495931141352  0.6111033373257696  0.8750000000000000
  0.2222223133683049  0.1111189202473931  0.8750000000000000
  0.7222130491021993  0.6111077866214331  0.8750000000000000
  0.5555599044509621  0.1111122744340567  0.8750000000000000
  0.8888867079933693  0.1111100206633564  0.8750000000000000
  0.1074048275621150  0.0526639456115314  0.3750000000000000
  0.6249740891371505  0.5842042330046012  0.3750000000000000
  0.4442498762017370  0.0518910265373778  0.3750000000000000
  0.9461273504402409  0.5557618837487542  0.3750000000000000
  0.7783578531639613  0.0558455932486485  0.3750000000000000
  0.1111135431700609  0.7222234382516951  0.8750000000000000
  0.4444631026345973  0.7222868652289215  0.8750000000000000
  0.2776987506940481  0.2221588318782693  0.8750000000000000
  0.7778225827469832  0.7222920887249412  0.8750000000000000
  0.6111538673723453  0.2221709486185179  0.8750000000000000
  0.9444015259433469  0.2221905540594182  0.8750000000000000
  0.2771335561047432  0.7227958803984628  0.3750000000000000
  0.1073499455087525  0.2203416394210403  0.3750000000000000
  0.4443885240488824  0.2137924248330173  0.3750000000000000
  0.6130966717903658  0.7312804449698865  0.3750000000000000
  0.9461273504402408  0.7236988000248227  0.3750000000000000
  0.7791416818898450  0.2206000861792821  0.3750000000000000
  0.1110929430053861  0.8888755892673266  0.8750000000000000
  0.4444657328524282  0.8888995330928786  0.8750000000000000
  0.2776987506940481  0.3888732521491075  0.8750000000000000
  0.6111601958469649  0.3888748147323156  0.8750000000000000
  0.7777965810381178  0.8889414719056601  0.8750000000000000
  0.9444374586651019  0.3888621313167575  0.8750000000000000
  0.1074048275621150  0.3880742152839123  0.3750000000000000
  0.2771335561047432  0.8876710090396072  0.3750000000000000
  0.6119948162086033  0.8916613179550440  0.3750000000000000
  0.9456142931821121  0.8909280932571030  0.3750000000000000
  0.7842942411126497  0.3869865537982180  0.3750000000000000
  0.2777463702175612  0.5555807827815198  0.8750000000000000
  0.1110445733377090  0.0555147150175942  0.8750000000000000
  0.6111601958469649  0.5556187144479776  0.8750000000000000
  0.4444631026345973  0.0555095707390112  0.8750000000000000
  0.9444664280762931  0.5555527373446066  0.8750000000000000
  0.1105150840402996  0.5557274504158772  0.3750000000000000
  0.7777814681400794  0.0555574007367075  0.8750000000000000
  0.2754443602589746  0.0518383774580151  0.3750000000000000
  0.4443885240488824  0.5639294325492000  0.3750000000000000
  0.7822248701086750  0.5577791017210049  0.3750000000000000
  0.6119948162086033  0.0536668315868872  0.3750000000000000
  0.4444504656387095  0.5556278257527048  0.8750000000000000
  0.9437199288713494  0.0556699795112751  0.3750000000000000
  0.2777789045304358  0.7222395624000104  0.8750000000000000
  0.1110140776378346  0.2221737054855816  0.8750000000000000
  0.4444504656387095  0.2221559732193414  0.8750000000000000
  0.6111538673723453  0.7223162520871557  0.8750000000000000
  0.9444664280762931  0.7222470240650224  0.8750000000000000
  0.7777965810381178  0.2221884424657856  0.8750000000000000
  0.1112090334037915  0.7222711833685599  0.3750000000000000
  0.4442498762017370  0.7256921829976949  0.3750000000000000
  0.2662869812784241  0.2127070839332132  0.3750000000000000
  0.7842942411126497  0.7306410206477604  0.3750000000000000
  0.6130966717903658  0.2151495601538076  0.3750000000000000
  0.9437199288713494  0.2213832826934095  0.3750000000000000
  0.1110445733377090  0.3888631916534433  0.8750000000000000
  0.2777789045304358  0.8888726754637539  0.8750000000000000
  0.6111412619877885  0.8889367755244671  0.8750000000000000
  0.4444444854563201  0.3888889093948247  0.8750000000000000
  0.9444374586651019  0.8889086606816734  0.8750000000000000
  0.1105150840402996  0.8881209669577524  0.3750000000000000
  0.7778225827469832  0.3888638273553705  0.8750000000000000
  0.4443750340874551  0.8888541837103920  0.3750000000000000
  0.2662869812784241  0.3869132306785386  0.3750000000000000
  0.2754443602589747  0.5569393161342950  0.3750000000000000
  0.6249740891371505  0.3741031894658787  0.3750000000000000
  0.7791416818898450  0.8918749290438917  0.3750000000000000
  0.9456142931821121  0.3880195332583396  0.3750000000000000
  0.1110929430053861  0.5555506870713869  0.8750000000000000
  0.2777463702175612  0.0554989207693769  0.8750000000000000
  0.7778334477158706  0.5555833905246040  0.8750000000000000
  0.6111412619877885  0.0555378197966503  0.8750000000000000
  0.9444015259433469  0.0555443052172643  0.8750000000000000
  0.0553831048890953  0.1109632729155610  0.1247081975491977
  0.5556201981753643  0.6113466271479225  0.1244000726404563
  0.3887512063176713  0.1107680976600186  0.1247589720753751
  0.8890999095523376  0.6112166214428404  0.1248235661804019
  0.7222322704985814  0.1110745195726957  0.1247512377396912
  0.0555943353869031  0.7777533346214709  0.6251994633937911
  0.3888057872719080  0.7778406244668871  0.6252440745147552
  0.2218825711884748  0.2776079522609055  0.6253011343186444
  0.7223276778240427  0.7779310266458855  0.6253544825764914
  0.5556201981753643  0.2776069043607778  0.6255999273595435
  0.8888862431000411  0.2777787778856619  0.6252667231961319
  0.2221666285529028  0.7777499809431195  0.1247717481586553
  0.0553831048890953  0.2777531653068699  0.1247081975491977
  0.3886359162315901  0.2773768541932056  0.1245264241916596
  0.5555411377501281  0.7779254689874949  0.1247267947801051
  0.8890183791914296  0.7778490530755098  0.1247437985070834
  0.7223276778240427  0.2777299845114932  0.1246455174235089
  0.0554801147994907  0.9443014976991962  0.6252540126525684
  0.3888057872719080  0.9442984961383561  0.6252440745147552
  0.2219643402347070  0.4445491845533540  0.6252218044371101
  0.5557465080504282  0.4445399206918784  0.6257079168732301
  0.7222322704985814  0.9444910842592201  0.6252487622603086
  0.8890183791914296  0.4445026594492550  0.6252562014929169
  0.0554801147994907  0.4445119504336224  0.1247459873474316
  0.2221096061816429  0.9442262019434245  0.1247777611754087
  0.5555251362803614  0.9444292348068445  0.1247497857186236
  0.3886359162315901  0.4445923953717195  0.1245264241916596
  0.8888862431000411  0.9444407985477143  0.1247332768038681
  0.7224812503951190  0.4445075665751447  0.1243061244240568
  0.2221096061816429  0.6112167375715537  0.6252222388245923
  0.0553831048890953  0.1109632729155610  0.6252918024508015
  0.5556201981753643  0.6113466271479225  0.6255999273595435
  0.3887512063176714  0.1107680976600186  0.6252410279246247
  0.8890999095523376  0.6112166214428404  0.6251764338195972
  0.0555943353869031  0.6111743340987685  0.1248005366062097
  0.7222322704985814  0.1110745195726957  0.6252487622603086
  0.2219643402347070  0.1107484890146884  0.1247781955628889
  0.3887512063176713  0.6113164419909951  0.1247589720753751
  0.7224812503951190  0.6113070171533104  0.1243061244240568
  0.5555411377501281  0.1109490020959693  0.1247267947801051
  0.3887512063176713  0.6113164419909951  0.6252410279246247
  0.8888364206575258  0.1110848769954343  0.1247419069749004
  0.2221666285529028  0.7777499809431195  0.6252282518413446
  0.0553831048890953  0.2777531653068699  0.6252918024508015
  0.3886359162315901  0.2773768541932056  0.6254735758083410
  0.5555411377501281  0.7779254689874949  0.6252732052198946
  0.8890183791914296  0.7778490530755098  0.6252562014929169
  0.7223276778240427  0.2777299845114932  0.6253544825764914
  0.0555943353869031  0.7777533346214709  0.1248005366062097
  0.3888057872719080  0.7778406244668871  0.1247559254852444
  0.2218825711884748  0.2776079522609055  0.1246988656813561
  0.7223276778240427  0.7779310266458855  0.1246455174235089
  0.5556201981753643  0.2776069043607778  0.1244000726404563
  0.8888862431000411  0.2777787778856619  0.1247332768038681
  0.0554801147994907  0.4445119504336224  0.6252540126525684
  0.2221096061816429  0.9442262019434245  0.6252222388245923
  0.5555251362803614  0.9444292348068445  0.6252502142813767
  0.3886359162315901  0.4445923953717195  0.6254735758083410
  0.8888862431000411  0.9444407985477143  0.6252667231961319
  0.0554801147994907  0.9443014976991962  0.1247459873474316
  0.7224812503951190  0.4445075665751447  0.6256938755759431
  0.3888057872719080  0.9442984961383561  0.1247559254852444
  0.2219643402347070  0.4445491845533540  0.1247781955628889
  0.2221096061816429  0.6112167375715537  0.1247777611754087
  0.5557465080504282  0.4445399206918784  0.1242920831267689
  0.7222322704985814  0.9444910842592201  0.1247512377396912
  0.8890183791914296  0.4445026594492550  0.1247437985070834
  0.0555943353869031  0.6111743340987685  0.6251994633937911
  0.2219643402347070  0.1107484890146884  0.6252218044371101
  0.7224812503951190  0.6113070171533104  0.6256938755759431
  0.5555411377501281  0.1109490020959693  0.6252732052198946
  0.8888364206575258  0.1110848769954343  0.6252580930250997
 
  0.00000000E+00  0.00000000E+00  0.00000000E+00
  0.00000000E+00  0.00000000E+00  0.00000000E+00
  0.00000000E+00  0.00000000E+00  0.00000000E+00
  0.00000000E+00  0.00000000E+00  0.00000000E+00
  0.00000000E+00  0.00000000E+00  0.00000000E+00
  0.00000000E+00  0.00000000E+00  0.00000000E+00
  0.00000000E+00  0.00000000E+00  0.00000000E+00
  0.00000000E+00  0.00000000E+00  0.00000000E+00
  0.00000000E+00  0.00000000E+00  0.00000000E+00
  0.00000000E+00  0.00000000E+00  0.00000000E+00
  0.00000000E+00  0.00000000E+00  0.00000000E+00
  0.00000000E+00  0.00000000E+00  0.00000000E+00
  0.00000000E+00  0.00000000E+00  0.00000000E+00
  0.00000000E+00  0.00000000E+00  0.00000000E+00
  0.00000000E+00  0.00000000E+00  0.00000000E+00
  0.00000000E+00  0.00000000E+00  0.00000000E+00
  0.00000000E+00  0.00000000E+00  0.00000000E+00
  0.00000000E+00  0.00000000E+00  0.00000000E+00
  0.00000000E+00  0.00000000E+00  0.00000000E+00
  0.00000000E+00  0.00000000E+00  0.00000000E+00
  0.00000000E+00  0.00000000E+00  0.00000000E+00
  0.00000000E+00  0.00000000E+00  0.00000000E+00
  0.00000000E+00  0.00000000E+00  0.00000000E+00
  0.00000000E+00  0.00000000E+00  0.00000000E+00
  0.00000000E+00  0.00000000E+00  0.00000000E+00
  0.00000000E+00  0.00000000E+00  0.00000000E+00
  0.00000000E+00  0.00000000E+00  0.00000000E+00
  0.00000000E+00  0.00000000E+00  0.00000000E+00
  0.00000000E+00  0.00000000E+00  0.00000000E+00
  0.00000000E+00  0.00000000E+00  0.00000000E+00
  0.00000000E+00  0.00000000E+00  0.00000000E+00
  0.00000000E+00  0.00000000E+00  0.00000000E+00
  0.00000000E+00  0.00000000E+00  0.00000000E+00
  0.00000000E+00  0.00000000E+00  0.00000000E+00
  0.00000000E+00  0.00000000E+00  0.00000000E+00
  0.00000000E+00  0.00000000E+00  0.00000000E+00
  0.00000000E+00  0.00000000E+00  0.00000000E+00
  0.00000000E+00  0.00000000E+00  0.00000000E+00
  0.00000000E+00  0.00000000E+00  0.00000000E+00
  0.00000000E+00  0.00000000E+00  0.00000000E+00
  0.00000000E+00  0.00000000E+00  0.00000000E+00
  0.00000000E+00  0.00000000E+00  0.00000000E+00
  0.00000000E+00  0.00000000E+00  0.00000000E+00
  0.00000000E+00  0.00000000E+00  0.00000000E+00
  0.00000000E+00  0.00000000E+00  0.00000000E+00
  0.00000000E+00  0.00000000E+00  0.00000000E+00
  0.00000000E+00  0.00000000E+00  0.00000000E+00
  0.00000000E+00  0.00000000E+00  0.00000000E+00
  0.00000000E+00  0.00000000E+00  0.00000000E+00
  0.00000000E+00  0.00000000E+00  0.00000000E+00
  0.00000000E+00  0.00000000E+00  0.00000000E+00
  0.00000000E+00  0.00000000E+00  0.00000000E+00
  0.00000000E+00  0.00000000E+00  0.00000000E+00
  0.00000000E+00  0.00000000E+00  0.00000000E+00
  0.00000000E+00  0.00000000E+00  0.00000000E+00
  0.00000000E+00  0.00000000E+00  0.00000000E+00
  0.00000000E+00  0.00000000E+00  0.00000000E+00
  0.00000000E+00  0.00000000E+00  0.00000000E+00
  0.00000000E+00  0.00000000E+00  0.00000000E+00
  0.00000000E+00  0.00000000E+00  0.00000000E+00
  0.00000000E+00  0.00000000E+00  0.00000000E+00
  0.00000000E+00  0.00000000E+00  0.00000000E+00
  0.00000000E+00  0.00000000E+00  0.00000000E+00
  0.00000000E+00  0.00000000E+00  0.00000000E+00
  0.00000000E+00  0.00000000E+00  0.00000000E+00
  0.00000000E+00  0.00000000E+00  0.00000000E+00
  0.00000000E+00  0.00000000E+00  0.00000000E+00
  0.00000000E+00  0.00000000E+00  0.00000000E+00
  0.00000000E+00  0.00000000E+00  0.00000000E+00
  0.00000000E+00  0.00000000E+00  0.00000000E+00
  0.00000000E+00  0.00000000E+00  0.00000000E+00
  0.00000000E+00  0.00000000E+00  0.00000000E+00
  0.00000000E+00  0.00000000E+00  0.00000000E+00
  0.00000000E+00  0.00000000E+00  0.00000000E+00
  0.00000000E+00  0.00000000E+00  0.00000000E+00
  0.00000000E+00  0.00000000E+00  0.00000000E+00
  0.00000000E+00  0.00000000E+00  0.00000000E+00
  0.00000000E+00  0.00000000E+00  0.00000000E+00
  0.00000000E+00  0.00000000E+00  0.00000000E+00
  0.00000000E+00  0.00000000E+00  0.00000000E+00
  0.00000000E+00  0.00000000E+00  0.00000000E+00
  0.00000000E+00  0.00000000E+00  0.00000000E+00
  0.00000000E+00  0.00000000E+00  0.00000000E+00
  0.00000000E+00  0.00000000E+00  0.00000000E+00
  0.00000000E+00  0.00000000E+00  0.00000000E+00
  0.00000000E+00  0.00000000E+00  0.00000000E+00
  0.00000000E+00  0.00000000E+00  0.00000000E+00
  0.00000000E+00  0.00000000E+00  0.00000000E+00
  0.00000000E+00  0.00000000E+00  0.00000000E+00
  0.00000000E+00  0.00000000E+00  0.00000000E+00
  0.00000000E+00  0.00000000E+00  0.00000000E+00
  0.00000000E+00  0.00000000E+00  0.00000000E+00
  0.00000000E+00  0.00000000E+00  0.00000000E+00
  0.00000000E+00  0.00000000E+00  0.00000000E+00
  0.00000000E+00  0.00000000E+00  0.00000000E+00
  0.00000000E+00  0.00000000E+00  0.00000000E+00
  0.00000000E+00  0.00000000E+00  0.00000000E+00
  0.00000000E+00  0.00000000E+00  0.00000000E+00
  0.00000000E+00  0.00000000E+00  0.00000000E+00
  0.00000000E+00  0.00000000E+00  0.00000000E+00
  0.00000000E+00  0.00000000E+00  0.00000000E+00
  0.00000000E+00  0.00000000E+00  0.00000000E+00
  0.00000000E+00  0.00000000E+00  0.00000000E+00
  0.00000000E+00  0.00000000E+00  0.00000000E+00
  0.00000000E+00  0.00000000E+00  0.00000000E+00
  0.00000000E+00  0.00000000E+00  0.00000000E+00
  0.00000000E+00  0.00000000E+00  0.00000000E+00
  0.00000000E+00  0.00000000E+00  0.00000000E+00
  0.00000000E+00  0.00000000E+00  0.00000000E+00
  0.00000000E+00  0.00000000E+00  0.00000000E+00
  0.00000000E+00  0.00000000E+00  0.00000000E+00
  0.00000000E+00  0.00000000E+00  0.00000000E+00
  0.00000000E+00  0.00000000E+00  0.00000000E+00
  0.00000000E+00  0.00000000E+00  0.00000000E+00
  0.00000000E+00  0.00000000E+00  0.00000000E+00
  0.00000000E+00  0.00000000E+00  0.00000000E+00
  0.00000000E+00  0.00000000E+00  0.00000000E+00
  0.00000000E+00  0.00000000E+00  0.00000000E+00
  0.00000000E+00  0.00000000E+00  0.00000000E+00
  0.00000000E+00  0.00000000E+00  0.00000000E+00
  0.00000000E+00  0.00000000E+00  0.00000000E+00
  0.00000000E+00  0.00000000E+00  0.00000000E+00
  0.00000000E+00  0.00000000E+00  0.00000000E+00
  0.00000000E+00  0.00000000E+00  0.00000000E+00
  0.00000000E+00  0.00000000E+00  0.00000000E+00
  0.00000000E+00  0.00000000E+00  0.00000000E+00
  0.00000000E+00  0.00000000E+00  0.00000000E+00
  0.00000000E+00  0.00000000E+00  0.00000000E+00
  0.00000000E+00  0.00000000E+00  0.00000000E+00
  0.00000000E+00  0.00000000E+00  0.00000000E+00
  0.00000000E+00  0.00000000E+00  0.00000000E+00
  0.00000000E+00  0.00000000E+00  0.00000000E+00
  0.00000000E+00  0.00000000E+00  0.00000000E+00
  0.00000000E+00  0.00000000E+00  0.00000000E+00
  0.00000000E+00  0.00000000E+00  0.00000000E+00
  0.00000000E+00  0.00000000E+00  0.00000000E+00
  0.00000000E+00  0.00000000E+00  0.00000000E+00
  0.00000000E+00  0.00000000E+00  0.00000000E+00
  0.00000000E+00  0.00000000E+00  0.00000000E+00
  0.00000000E+00  0.00000000E+00  0.00000000E+00
  0.00000000E+00  0.00000000E+00  0.00000000E+00
  0.00000000E+00  0.00000000E+00  0.00000000E+00
  0.00000000E+00  0.00000000E+00  0.00000000E+00
  0.00000000E+00  0.00000000E+00  0.00000000E+00
  0.00000000E+00  0.00000000E+00  0.00000000E+00
  0.00000000E+00  0.00000000E+00  0.00000000E+00
  0.00000000E+00  0.00000000E+00  0.00000000E+00
  0.00000000E+00  0.00000000E+00  0.00000000E+00
  0.00000000E+00  0.00000000E+00  0.00000000E+00
  0.00000000E+00  0.00000000E+00  0.00000000E+00
  0.00000000E+00  0.00000000E+00  0.00000000E+00
  0.00000000E+00  0.00000000E+00  0.00000000E+00
  0.00000000E+00  0.00000000E+00  0.00000000E+00
  0.00000000E+00  0.00000000E+00  0.00000000E+00
  0.00000000E+00  0.00000000E+00  0.00000000E+00
  0.00000000E+00  0.00000000E+00  0.00000000E+00
  0.00000000E+00  0.00000000E+00  0.00000000E+00
  0.00000000E+00  0.00000000E+00  0.00000000E+00
  0.00000000E+00  0.00000000E+00  0.00000000E+00
  0.00000000E+00  0.00000000E+00  0.00000000E+00
  0.00000000E+00  0.00000000E+00  0.00000000E+00
  0.00000000E+00  0.00000000E+00  0.00000000E+00
  0.00000000E+00  0.00000000E+00  0.00000000E+00
  0.00000000E+00  0.00000000E+00  0.00000000E+00
  0.00000000E+00  0.00000000E+00  0.00000000E+00
  0.00000000E+00  0.00000000E+00  0.00000000E+00
  0.00000000E+00  0.00000000E+00  0.00000000E+00
  0.00000000E+00  0.00000000E+00  0.00000000E+00
  0.00000000E+00  0.00000000E+00  0.00000000E+00
  0.00000000E+00  0.00000000E+00  0.00000000E+00
  0.00000000E+00  0.00000000E+00  0.00000000E+00
  0.00000000E+00  0.00000000E+00  0.00000000E+00
  0.00000000E+00  0.00000000E+00  0.00000000E+00
  0.00000000E+00  0.00000000E+00  0.00000000E+00
  0.00000000E+00  0.00000000E+00  0.00000000E+00
  0.00000000E+00  0.00000000E+00  0.00000000E+00
  0.00000000E+00  0.00000000E+00  0.00000000E+00
  0.00000000E+00  0.00000000E+00  0.00000000E+00
  0.00000000E+00  0.00000000E+00  0.00000000E+00
  0.00000000E+00  0.00000000E+00  0.00000000E+00
  0.00000000E+00  0.00000000E+00  0.00000000E+00
  0.00000000E+00  0.00000000E+00  0.00000000E+00
  0.00000000E+00  0.00000000E+00  0.00000000E+00
  0.00000000E+00  0.00000000E+00  0.00000000E+00
  0.00000000E+00  0.00000000E+00  0.00000000E+00
  0.00000000E+00  0.00000000E+00  0.00000000E+00
  0.00000000E+00  0.00000000E+00  0.00000000E+00
  0.00000000E+00  0.00000000E+00  0.00000000E+00
  0.00000000E+00  0.00000000E+00  0.00000000E+00
  0.00000000E+00  0.00000000E+00  0.00000000E+00
  0.00000000E+00  0.00000000E+00  0.00000000E+00
  0.00000000E+00  0.00000000E+00  0.00000000E+00
  0.00000000E+00  0.00000000E+00  0.00000000E+00
  0.00000000E+00  0.00000000E+00  0.00000000E+00
  0.00000000E+00  0.00000000E+00  0.00000000E+00
  0.00000000E+00  0.00000000E+00  0.00000000E+00
  0.00000000E+00  0.00000000E+00  0.00000000E+00
  0.00000000E+00  0.00000000E+00  0.00000000E+00
  0.00000000E+00  0.00000000E+00  0.00000000E+00
  0.00000000E+00  0.00000000E+00  0.00000000E+00
  0.00000000E+00  0.00000000E+00  0.00000000E+00
  0.00000000E+00  0.00000000E+00  0.00000000E+00
  0.00000000E+00  0.00000000E+00  0.00000000E+00
  0.00000000E+00  0.00000000E+00  0.00000000E+00
  0.00000000E+00  0.00000000E+00  0.00000000E+00
  0.00000000E+00  0.00000000E+00  0.00000000E+00
  0.00000000E+00  0.00000000E+00  0.00000000E+00
  0.00000000E+00  0.00000000E+00  0.00000000E+00
  0.00000000E+00  0.00000000E+00  0.00000000E+00
  0.00000000E+00  0.00000000E+00  0.00000000E+00
  0.00000000E+00  0.00000000E+00  0.00000000E+00
  0.00000000E+00  0.00000000E+00  0.00000000E+00
  0.00000000E+00  0.00000000E+00  0.00000000E+00
  0.00000000E+00  0.00000000E+00  0.00000000E+00
  0.00000000E+00  0.00000000E+00  0.00000000E+00
  0.00000000E+00  0.00000000E+00  0.00000000E+00
  0.00000000E+00  0.00000000E+00  0.00000000E+00
  0.00000000E+00  0.00000000E+00  0.00000000E+00
  0.00000000E+00  0.00000000E+00  0.00000000E+00
  0.00000000E+00  0.00000000E+00  0.00000000E+00
  0.00000000E+00  0.00000000E+00  0.00000000E+00
  0.00000000E+00  0.00000000E+00  0.00000000E+00
  0.00000000E+00  0.00000000E+00  0.00000000E+00
  0.00000000E+00  0.00000000E+00  0.00000000E+00
  0.00000000E+00  0.00000000E+00  0.00000000E+00
  0.00000000E+00  0.00000000E+00  0.00000000E+00
  0.00000000E+00  0.00000000E+00  0.00000000E+00
  0.00000000E+00  0.00000000E+00  0.00000000E+00
  0.00000000E+00  0.00000000E+00  0.00000000E+00
  0.00000000E+00  0.00000000E+00  0.00000000E+00
  0.00000000E+00  0.00000000E+00  0.00000000E+00
  0.00000000E+00  0.00000000E+00  0.00000000E+00
  0.00000000E+00  0.00000000E+00  0.00000000E+00
  0.00000000E+00  0.00000000E+00  0.00000000E+00
  0.00000000E+00  0.00000000E+00  0.00000000E+00
  0.00000000E+00  0.00000000E+00  0.00000000E+00
  0.00000000E+00  0.00000000E+00  0.00000000E+00
  0.00000000E+00  0.00000000E+00  0.00000000E+00
  0.00000000E+00  0.00000000E+00  0.00000000E+00
  0.00000000E+00  0.00000000E+00  0.00000000E+00
  0.00000000E+00  0.00000000E+00  0.00000000E+00
  0.00000000E+00  0.00000000E+00  0.00000000E+00
  0.00000000E+00  0.00000000E+00  0.00000000E+00
  0.00000000E+00  0.00000000E+00  0.00000000E+00
  0.00000000E+00  0.00000000E+00  0.00000000E+00
  0.00000000E+00  0.00000000E+00  0.00000000E+00
  0.00000000E+00  0.00000000E+00  0.00000000E+00