Al B N                                  
   1.0000000000000000     
     8.7639499999999995  -15.1796066749929999    0.0000000000000000
     8.7639499999999995   15.1796066749929999    0.0000000000000000
     0.0000000000000000    0.0000000000000000   15.0000000000000000
   Al   B    N 
     1    48    48
Selective dynamics
Direct
  0.4931939211572576  0.5068074807597389  0.1108131592710201   T   T   T
  0.9059849189952196  0.9531362475734195  0.1110175576251823   T   T   T
  0.9046858924591910  0.0953161287368050  0.1110413049243734   T   T   T
  0.9042794679386916  0.2380144020957161  0.1110477186338605   T   T   T
  0.9043523917134848  0.3808008665987963  0.1109868404254306   T   T   T
  0.9049018170072872  0.5235953917645397  0.1110020661857690   T   T   T
  0.9059706988403355  0.6666999721617651  0.1110778976858301   T   T   T
  0.9070923632599850  0.8107504368079087  0.1110422101574439   T   T   T
  0.0482374026388220  0.9517646185571813  0.1110090518505115   T   T   T
  0.0468657736225839  0.0940171022007767  0.1110175576251823   T   T   T
  0.0464599525162778  0.2371276187373336  0.1109908166693294   T   T   T
  0.0469042425349620  0.3802986806547011  0.1110042493613038   T   T   T
  0.0479139417157107  0.5231740678334780  0.1109960739510258   T   T   T
  0.0486019412108641  0.6660182397401496  0.1110449061266627   T   T   T
  0.0487035908631671  0.8089854452420260  0.1110618081003923   T   T   T
  0.1910165759539774  0.9512984303328363  0.1110618081003923   T   T   T
  0.1892515843880874  0.0929096579360184  0.1110422101574439   T   T   T
  0.1873446793156170  0.2347671525101876  0.1109865798932813   T   T   T
  0.1885636783365052  0.3790613972061668  0.1109926240662079   T   T   T
  0.1908966760704626  0.5224761616377522  0.1110504178232433   T   T   T
  0.1917725000041469  0.6655165877436386  0.1110265019381681   T   T   T
  0.1914929115007187  0.8085091096952851  0.1110174346105983   T   T   T
  0.3339837814568491  0.9514000799851392  0.1110449061266627   T   T   T
  0.3333020490352332  0.0940313223556609  0.1110778976858301   T   T   T
  0.3295431495663342  0.2336801411533142  0.1110005281081021   T   T   T
  0.3268420841377495  0.3752537802540868  0.1110341508618012   T   T   T
  0.3339920780278548  0.5202786474007618  0.1111247133879590   T   T   T
  0.3353514793030382  0.6646505418939599  0.1110810786301783   T   T   T
  0.3344854334533593  0.8082295211918563  0.1110265019381681   T   T   T
  0.4768279533635203  0.9520880794802927  0.1109960739510258   T   T   T
  0.4764066294324587  0.0951002041887092  0.1110020661857690   T   T   T
  0.4757925438186425  0.2378364155487929  0.1110445726509575   T   T   T
  0.4676089026596554  0.3722381353599312  0.1111234314392932   T   T   T
  0.4797233737962362  0.6660099431691433  0.1111247133879590   T   T   T
  0.4775258595592459  0.8091053451255406  0.1110504178232433   T   T   T
  0.6197033405413093  0.9530977786610418  0.1110042493613038   T   T   T
  0.6192011545972070  0.0956496294825117  0.1109868404254306   T   T   T
  0.6190412278276024  0.2386655367547015  0.1110057935962267   T   T   T
  0.6183092699312308  0.3816927512647724  0.1110315001832146   T   T   T
  0.6277638858360650  0.5323931185373496  0.1111234314392932   T   T   T
  0.6247482409419166  0.6731599370592486  0.1110341508618012   T   T   T
  0.6209406239898366  0.8114383428594987  0.1109926240662079   T   T   T
  0.7628744024586771  0.9535420686797255  0.1109908166693294   T   T   T
  0.7619876191002870  0.0957225532573048  0.1110477186338605   T   T   T
  0.7616545217287678  0.2383474994672356  0.1110375387624516   T   T   T
  0.7613364844413021  0.3809607933684011  0.1110057935962267   T   T   T
  0.7621656056472106  0.5242094773783625  0.1110445726509575   T   T   T
  0.7663218800426893  0.6704588716306643  0.1110005281081021   T   T   T
  0.7652348686858155  0.8126573418803865  0.1109865798932813   T   T   T
  0.9537837218316865  0.9054906870566485  0.1109941138641258   T   T   T
  0.9523274732665972  0.0476739286514084  0.1110143768365358   T   T   T
  0.9515500028811574  0.1901631631884244  0.1110156959980092   T   T   T
  0.9517218137565129  0.3330569973028663  0.1109962670306291   T   T   T
  0.9525288529174959  0.4759530748452583  0.1109551534727277   T   T   T
  0.9534459839181173  0.6188364016852566  0.1110431001673915   T   T   T
  0.9539290936190743  0.7621178100587260  0.1110605311109879   T   T   T
  0.0959488947713153  0.9040525071466834  0.1110174153628566   T   T   T
  0.0945107148613502  0.0462176800863193  0.1109941138641258   T   T   T
  0.0928072577277443  0.1883250455374313  0.1109812641769970   T   T   T
  0.0933997349235411  0.3320398482012764  0.1109641900091516   T   T   T
  0.0951679997382938  0.4754458608234853  0.1109979290672094   T   T   T
  0.0962025703002953  0.6183830330894287  0.1110050358964311   T   T   T
  0.0963108992983811  0.7612404962309276  0.1110282047497935   T   T   T
  0.2387609056870778  0.9036905026196177  0.1110282047497935   T   T   T
  0.2378835918592797  0.0460723082989309  0.1110605311109879   T   T   T
  0.2347764643228546  0.1867997274681875  0.1109816397270566   T   T   T
  0.2325516027803449  0.3285798515328591  0.1109611620367558   T   T   T
  0.2373410248155430  0.4743188387148159  0.1110486775659686   T   T   T
  0.2392913637438396  0.6179030248909820  0.1110382857748973   T   T   T
  0.2391230080706180  0.7608783938473876  0.1109972209193599   T   T   T
  0.3816183688285700  0.9037988316177034  0.1110050358964311   T   T   T
  0.3811650002327421  0.0465554179998882  0.1110431001673915   T   T   T
  0.3800341962388549  0.1885521308702527  0.1110227071781304   T   T   T
  0.3732605410904281  0.3265432561705811  0.1110007720818921   T   T   T
  0.3748496535004329  0.4677973042020706  0.1110608588919665   T   T   T
  0.3829204687547548  0.6170809331632437  0.1111232236543257   T   T   T
  0.3820983770270166  0.7607100381741663  0.1110382857748973   T   T   T
  0.5245555410935112  0.9048334021797044  0.1109979290672094   T   T   T
  0.5240483270717382  0.0474725490005097  0.1109551534727277   T   T   T
  0.5237172444371960  0.1902915297409799  0.1110032223062904   T   T   T
  0.5232712112976404  0.3332504031544906  0.1110415067607100   T   T   T
  0.5322040977149259  0.6251517484175586  0.1110608588919665   T   T   T
  0.5256825632021811  0.7626603771024629  0.1110486775659686   T   T   T
  0.6679615537157205  0.9066016669944578  0.1109641900091516   T   T   T
  0.6669444046141304  0.0482795881614926  0.1109962670306291   T   T   T
  0.6666059251729670  0.1907493878552909  0.1109963549638970   T   T   T
  0.6664067749713022  0.3335946269456943  0.1109895334320195   T   T   T
  0.6667509987625064  0.4767301906193564  0.1110415067607100   T   T   T
  0.6734581457464157  0.6267408608275707  0.1110007720818921   T   T   T
  0.6714215503841379  0.7674497991376610  0.1109611620367558   T   T   T
  0.8116763563805669  0.9071941441902543  0.1109812641769970   T   T   T
  0.8098382387295742  0.0484513990368483  0.1110156959980092   T   T   T
  0.8092719426918653  0.1907294592261329  0.1110467448475284   T   T   T
  0.8092520140627080  0.3333954767440298  0.1109963549638970   T   T   T
  0.8097098721770187  0.4762841574798004  0.1110032223062904   T   T   T
  0.8114492710477461  0.6199672056791437  0.1110227071781304   T   T   T
  0.8132016744498036  0.7652249375951510  0.1109816397270566   T   T   T

  0.00000000E+00  0.00000000E+00  0.00000000E+00
  0.00000000E+00  0.00000000E+00  0.00000000E+00
  0.00000000E+00  0.00000000E+00  0.00000000E+00
  0.00000000E+00  0.00000000E+00  0.00000000E+00
  0.00000000E+00  0.00000000E+00  0.00000000E+00
  0.00000000E+00  0.00000000E+00  0.00000000E+00
  0.00000000E+00  0.00000000E+00  0.00000000E+00
  0.00000000E+00  0.00000000E+00  0.00000000E+00
  0.00000000E+00  0.00000000E+00  0.00000000E+00
  0.00000000E+00  0.00000000E+00  0.00000000E+00
  0.00000000E+00  0.00000000E+00  0.00000000E+00
  0.00000000E+00  0.00000000E+00  0.00000000E+00
  0.00000000E+00  0.00000000E+00  0.00000000E+00
  0.00000000E+00  0.00000000E+00  0.00000000E+00
  0.00000000E+00  0.00000000E+00  0.00000000E+00
  0.00000000E+00  0.00000000E+00  0.00000000E+00
  0.00000000E+00  0.00000000E+00  0.00000000E+00
  0.00000000E+00  0.00000000E+00  0.00000000E+00
  0.00000000E+00  0.00000000E+00  0.00000000E+00
  0.00000000E+00  0.00000000E+00  0.00000000E+00
  0.00000000E+00  0.00000000E+00  0.00000000E+00
  0.00000000E+00  0.00000000E+00  0.00000000E+00
  0.00000000E+00  0.00000000E+00  0.00000000E+00
  0.00000000E+00  0.00000000E+00  0.00000000E+00
  0.00000000E+00  0.00000000E+00  0.00000000E+00
  0.00000000E+00  0.00000000E+00  0.00000000E+00
  0.00000000E+00  0.00000000E+00  0.00000000E+00
  0.00000000E+00  0.00000000E+00  0.00000000E+00
  0.00000000E+00  0.00000000E+00  0.00000000E+00
  0.00000000E+00  0.00000000E+00  0.00000000E+00
  0.00000000E+00  0.00000000E+00  0.00000000E+00
  0.00000000E+00  0.00000000E+00  0.00000000E+00
  0.00000000E+00  0.00000000E+00  0.00000000E+00
  0.00000000E+00  0.00000000E+00  0.00000000E+00
  0.00000000E+00  0.00000000E+00  0.00000000E+00
  0.00000000E+00  0.00000000E+00  0.00000000E+00
  0.00000000E+00  0.00000000E+00  0.00000000E+00
  0.00000000E+00  0.00000000E+00  0.00000000E+00
  0.00000000E+00  0.00000000E+00  0.00000000E+00
  0.00000000E+00  0.00000000E+00  0.00000000E+00
  0.00000000E+00  0.00000000E+00  0.00000000E+00
  0.00000000E+00  0.00000000E+00  0.00000000E+00
  0.00000000E+00  0.00000000E+00  0.00000000E+00
  0.00000000E+00  0.00000000E+00  0.00000000E+00
  0.00000000E+00  0.00000000E+00  0.00000000E+00
  0.00000000E+00  0.00000000E+00  0.00000000E+00
  0.00000000E+00  0.00000000E+00  0.00000000E+00
  0.00000000E+00  0.00000000E+00  0.00000000E+00
  0.00000000E+00  0.00000000E+00  0.00000000E+00
  0.00000000E+00  0.00000000E+00  0.00000000E+00
  0.00000000E+00  0.00000000E+00  0.00000000E+00
  0.00000000E+00  0.00000000E+00  0.00000000E+00
  0.00000000E+00  0.00000000E+00  0.00000000E+00
  0.00000000E+00  0.00000000E+00  0.00000000E+00
  0.00000000E+00  0.00000000E+00  0.00000000E+00
  0.00000000E+00  0.00000000E+00  0.00000000E+00
  0.00000000E+00  0.00000000E+00  0.00000000E+00
  0.00000000E+00  0.00000000E+00  0.00000000E+00
  0.00000000E+00  0.00000000E+00  0.00000000E+00
  0.00000000E+00  0.00000000E+00  0.00000000E+00
  0.00000000E+00  0.00000000E+00  0.00000000E+00
  0.00000000E+00  0.00000000E+00  0.00000000E+00
  0.00000000E+00  0.00000000E+00  0.00000000E+00
  0.00000000E+00  0.00000000E+00  0.00000000E+00
  0.00000000E+00  0.00000000E+00  0.00000000E+00
  0.00000000E+00  0.00000000E+00  0.00000000E+00
  0.00000000E+00  0.00000000E+00  0.00000000E+00
  0.00000000E+00  0.00000000E+00  0.00000000E+00
  0.00000000E+00  0.00000000E+00  0.00000000E+00
  0.00000000E+00  0.00000000E+00  0.00000000E+00
  0.00000000E+00  0.00000000E+00  0.00000000E+00
  0.00000000E+00  0.00000000E+00  0.00000000E+00
  0.00000000E+00  0.00000000E+00  0.00000000E+00
  0.00000000E+00  0.00000000E+00  0.00000000E+00
  0.00000000E+00  0.00000000E+00  0.00000000E+00
  0.00000000E+00  0.00000000E+00  0.00000000E+00
  0.00000000E+00  0.00000000E+00  0.00000000E+00
  0.00000000E+00  0.00000000E+00  0.00000000E+00
  0.00000000E+00  0.00000000E+00  0.00000000E+00
  0.00000000E+00  0.00000000E+00  0.00000000E+00
  0.00000000E+00  0.00000000E+00  0.00000000E+00
  0.00000000E+00  0.00000000E+00  0.00000000E+00
  0.00000000E+00  0.00000000E+00  0.00000000E+00
  0.00000000E+00  0.00000000E+00  0.00000000E+00
  0.00000000E+00  0.00000000E+00  0.00000000E+00
  0.00000000E+00  0.00000000E+00  0.00000000E+00
  0.00000000E+00  0.00000000E+00  0.00000000E+00
  0.00000000E+00  0.00000000E+00  0.00000000E+00
  0.00000000E+00  0.00000000E+00  0.00000000E+00
  0.00000000E+00  0.00000000E+00  0.00000000E+00
  0.00000000E+00  0.00000000E+00  0.00000000E+00
  0.00000000E+00  0.00000000E+00  0.00000000E+00
  0.00000000E+00  0.00000000E+00  0.00000000E+00
  0.00000000E+00  0.00000000E+00  0.00000000E+00
  0.00000000E+00  0.00000000E+00  0.00000000E+00
  0.00000000E+00  0.00000000E+00  0.00000000E+00
  0.00000000E+00  0.00000000E+00  0.00000000E+00
