Al B N                                  
   1.0000000000000000     
     8.7639499999999995  -15.1796066749929999    0.0000000000000000
     8.7639499999999995   15.1796066749929999    0.0000000000000000
     0.0000000000000000    0.0000000000000000   15.0000000000000000
   Al   B    N 
     1    48    48
Selective dynamics
Direct
  0.4559646400377881  0.5136975226428954  0.1110394893914319   T   T   T
  0.9052531919830612  0.9526561860995297  0.1110074791662939   T   T   T
  0.9050102250662103  0.0953180934169900  0.1110222536906267   T   T   T
  0.9048792242169028  0.2381539589539531  0.1110485607869281   T   T   T
  0.9050102250662103  0.3811208253402176  0.1110222536906267   T   T   T
  0.9052531919830612  0.5240274111315337  0.1110074791662939   T   T   T
  0.9049501151003346  0.6668133360889823  0.1110473776581277   T   T   T
  0.9049501151003346  0.8095671842593537  0.1110473776581277   T   T   T
  0.0475271119361865  0.9520883490050347  0.1110146067754206   T   T   T
  0.0474147702180007  0.0947070248435676  0.1110003935002889   T   T   T
  0.0471536260128771  0.2375530515413964  0.1110121442464492   T   T   T
  0.0471536260128771  0.3810309797184802  0.1110121442464492   T   T   T
  0.0474147702180007  0.5241381506224281  0.1110003935002889   T   T   T
  0.0475271119361865  0.6668708797351490  0.1110146067754206   T   T   T
  0.0475544411199242  0.8094932789619644  0.1109957828237981   T   T   T
  0.1901800608301980  0.9520181351537441  0.1109962238293000   T   T   T
  0.1900476296963515  0.0943434419390687  0.1110501857124762   T   T   T
  0.1893020123102404  0.2362769433974279  0.1110349797595138   T   T   T
  0.1886214759590132  0.3800259406030069  0.1110217417027848   T   T   T
  0.1893020123102404  0.5244554741608136  0.1110349797595138   T   T   T
  0.1900476296963515  0.6671345930052781  0.1110501857124762   T   T   T
  0.1901800608301980  0.8095940424804595  0.1109962238293000   T   T   T
  0.3330056661738636  0.9522188914884330  0.1110240794465363   T   T   T
  0.3330027189084517  0.0945291239942442  0.1110614669311207   T   T   T
  0.3326727194370087  0.2363869651699453  0.1110652688412298   T   T   T
  0.3289600971476027  0.3741331927920990  0.1110534377292304   T   T   T
  0.3289600971476027  0.5262573096025033  0.1110534377292304   T   T   T
  0.3326727194370087  0.6677161595140633  0.1110652688412298   T   T   T
  0.3330027189084517  0.8099040001612070  0.1110614669311207   T   T   T
  0.4761036649882535  0.9529704171936195  0.1110124105351293   T   T   T
  0.4761036649882535  0.0945636530416332  0.1110124105351293   T   T   T
  0.4764925634465227  0.2360366981548334  0.1110579577591657   T   T   T
  0.4791800541262936  0.3780264723560003  0.1110425627734743   T   T   T
  0.4791800541262936  0.6725839870172929  0.1110425627734743   T   T   T
  0.4764925634465227  0.8118862705386958  0.1110579577591657   T   T   T
  0.6195845229602129  0.9533188564846781  0.1110251490376326   T   T   T
  0.6192714154408224  0.0953500545659063  0.1109993586566459   T   T   T
  0.6195845229602129  0.2376960717225338  0.1110251490376326   T   T   T
  0.6205604742234938  0.3803988714466192  0.1110277769841123   T   T   T
  0.6206638242720864  0.5230836145134182  0.1110057078075262   T   T   T
  0.6206638242720864  0.6690106150066628  0.1110057078075262   T   T   T
  0.6205604742234938  0.8115920080238734  0.1110277769841123   T   T   T
  0.7627505055178961  0.9532262096182408  0.1110110982373600   T   T   T
  0.7623033482479878  0.0955773594982659  0.1110407400274199   T   T   T
  0.7623033482479878  0.2381546824407196  0.1110407400274199   T   T   T
  0.7627505055178961  0.3809547011466549  0.1110110982373600   T   T   T
  0.7631538710625534  0.5239027981451934  0.1110276968247202   T   T   T
  0.7620059317492582  0.6667181684986268  0.1110372885441259   T   T   T
  0.7631538710625534  0.8106814781653617  0.1110276968247202   T   T   T
  0.9525955899643564  0.9048856696203069  0.1110119374280499   T   T   T
  0.9527811210906179  0.0479217923984965  0.1109825409638203   T   T   T
  0.9527612725118862  0.1906954335735055  0.1110169910166553   T   T   T
  0.9527612725118862  0.3334928210563794  0.1110169910166553   T   T   T
  0.9527811210906179  0.4762863108101194  0.1109825409638203   T   T   T
  0.9525955899643564  0.6191386140190440  0.1110119374280499   T   T   T
  0.9525258313988341  0.7619772625369186  0.1110244639915683   T   T   T
  0.0952251125228907  0.9047317134921232  0.1109743434472793   T   T   T
  0.0953101254690659  0.0476009151445806  0.1110076452899267   T   T   T
  0.0952639513421217  0.1904210338127086  0.1109900639509458   T   T   T
  0.0952460921253384  0.3333373928996697  0.1109955559323945   T   T   T
  0.0952639513421217  0.4762716112034140  0.1109900639509458   T   T   T
  0.0953101254690659  0.6191379039994886  0.1110076452899267   T   T   T
  0.0952251125228907  0.7619238042617732  0.1109743434472793   T   T   T
  0.2379142962162148  0.9046723507236069  0.1109842326896785   T   T   T
  0.2379551467766782  0.0474626220726665  0.1110228952545253   T   T   T
  0.2380576247461860  0.1904157471636867  0.1110450014158650   T   T   T
  0.2376571626558039  0.3334197521707265  0.1110167291056501   T   T   T
  0.2376571626558039  0.4756661041590714  0.1110167291056501   T   T   T
  0.2380576247461860  0.6190705712574947  0.1110450014158650   T   T   T
  0.2379551467766782  0.7619212183790141  0.1110228952545253   T   T   T
  0.3807809093295502  0.9048077042841276  0.1110206987496540   T   T   T
  0.3807809093295502  0.0474018987204262  0.1110206987496540   T   T   T
  0.3808699737623160  0.1901562252440524  0.1110507727154704   T   T   T
  0.3814357844184832  0.3339614924686709  0.1110391638467680   T   T   T
  0.3814357844184832  0.6189029856248071  0.1110391638467680   T   T   T
  0.3808699737623160  0.7621424421932663  0.1110507727154704   T   T   T
  0.5240582378634404  0.9060584492592273  0.1110153158440435   T   T   T
  0.5239140069699015  0.0476704945444542  0.1109745129316440   T   T   T
  0.5240582378634404  0.1894284822792167  0.1110153158440435   T   T   T
  0.5246966544241097  0.3304861004597091  0.1110337634332462   T   T   T
  0.5261714884806136  0.4703746885414546  0.1109841172762794   T   T   T
  0.5261714884806136  0.6272254936141546  0.1109841172762794   T   T   T
  0.5246966544241097  0.7656392476394044  0.1110337634332462   T   T   T
  0.6675644795133289  0.9061250255018091  0.1110035051938455   T   T   T
  0.6671160780500902  0.0481395408173475  0.1110069601486234   T   T   T
  0.6671160780500902  0.1904035193517501  0.1110069601486234   T   T   T
  0.6675644795133289  0.3328681476865223  0.1110035051938455   T   T   T
  0.6681411949628540  0.4756934643266098  0.1110084694250878   T   T   T
  0.6663017452261398  0.6188652194510688  0.1109967439929708   T   T   T
  0.6681411949628540  0.7638764243112460  0.1110084694250878   T   T   T
  0.8103492800341292  0.9056447141346554  0.1109990060435351   T   T   T
  0.8101360783367023  0.0482293310343967  0.1110140566282441   T   T   T
  0.8100219667013180  0.1907244744096612  0.1110301824904158   T   T   T
  0.8101360783367023  0.3333337294203111  0.1110140566282441   T   T   T
  0.8103492800341293  0.4761332595734753  0.1109990060435351   T   T   T
  0.8097576368268042  0.6190998826476478  0.1110251851444012   T   T   T
  0.8097576368268042  0.7620864478541595  0.1110251851444012   T   T   T

  0.00000000E+00  0.00000000E+00  0.00000000E+00
  0.00000000E+00  0.00000000E+00  0.00000000E+00
  0.00000000E+00  0.00000000E+00  0.00000000E+00
  0.00000000E+00  0.00000000E+00  0.00000000E+00
  0.00000000E+00  0.00000000E+00  0.00000000E+00
  0.00000000E+00  0.00000000E+00  0.00000000E+00
  0.00000000E+00  0.00000000E+00  0.00000000E+00
  0.00000000E+00  0.00000000E+00  0.00000000E+00
  0.00000000E+00  0.00000000E+00  0.00000000E+00
  0.00000000E+00  0.00000000E+00  0.00000000E+00
  0.00000000E+00  0.00000000E+00  0.00000000E+00
  0.00000000E+00  0.00000000E+00  0.00000000E+00
  0.00000000E+00  0.00000000E+00  0.00000000E+00
  0.00000000E+00  0.00000000E+00  0.00000000E+00
  0.00000000E+00  0.00000000E+00  0.00000000E+00
  0.00000000E+00  0.00000000E+00  0.00000000E+00
  0.00000000E+00  0.00000000E+00  0.00000000E+00
  0.00000000E+00  0.00000000E+00  0.00000000E+00
  0.00000000E+00  0.00000000E+00  0.00000000E+00
  0.00000000E+00  0.00000000E+00  0.00000000E+00
  0.00000000E+00  0.00000000E+00  0.00000000E+00
  0.00000000E+00  0.00000000E+00  0.00000000E+00
  0.00000000E+00  0.00000000E+00  0.00000000E+00
  0.00000000E+00  0.00000000E+00  0.00000000E+00
  0.00000000E+00  0.00000000E+00  0.00000000E+00
  0.00000000E+00  0.00000000E+00  0.00000000E+00
  0.00000000E+00  0.00000000E+00  0.00000000E+00
  0.00000000E+00  0.00000000E+00  0.00000000E+00
  0.00000000E+00  0.00000000E+00  0.00000000E+00
  0.00000000E+00  0.00000000E+00  0.00000000E+00
  0.00000000E+00  0.00000000E+00  0.00000000E+00
  0.00000000E+00  0.00000000E+00  0.00000000E+00
  0.00000000E+00  0.00000000E+00  0.00000000E+00
  0.00000000E+00  0.00000000E+00  0.00000000E+00
  0.00000000E+00  0.00000000E+00  0.00000000E+00
  0.00000000E+00  0.00000000E+00  0.00000000E+00
  0.00000000E+00  0.00000000E+00  0.00000000E+00
  0.00000000E+00  0.00000000E+00  0.00000000E+00
  0.00000000E+00  0.00000000E+00  0.00000000E+00
  0.00000000E+00  0.00000000E+00  0.00000000E+00
  0.00000000E+00  0.00000000E+00  0.00000000E+00
  0.00000000E+00  0.00000000E+00  0.00000000E+00
  0.00000000E+00  0.00000000E+00  0.00000000E+00
  0.00000000E+00  0.00000000E+00  0.00000000E+00
  0.00000000E+00  0.00000000E+00  0.00000000E+00
  0.00000000E+00  0.00000000E+00  0.00000000E+00
  0.00000000E+00  0.00000000E+00  0.00000000E+00
  0.00000000E+00  0.00000000E+00  0.00000000E+00
  0.00000000E+00  0.00000000E+00  0.00000000E+00
  0.00000000E+00  0.00000000E+00  0.00000000E+00
  0.00000000E+00  0.00000000E+00  0.00000000E+00
  0.00000000E+00  0.00000000E+00  0.00000000E+00
  0.00000000E+00  0.00000000E+00  0.00000000E+00
  0.00000000E+00  0.00000000E+00  0.00000000E+00
  0.00000000E+00  0.00000000E+00  0.00000000E+00
  0.00000000E+00  0.00000000E+00  0.00000000E+00
  0.00000000E+00  0.00000000E+00  0.00000000E+00
  0.00000000E+00  0.00000000E+00  0.00000000E+00
  0.00000000E+00  0.00000000E+00  0.00000000E+00
  0.00000000E+00  0.00000000E+00  0.00000000E+00
  0.00000000E+00  0.00000000E+00  0.00000000E+00
  0.00000000E+00  0.00000000E+00  0.00000000E+00
  0.00000000E+00  0.00000000E+00  0.00000000E+00
  0.00000000E+00  0.00000000E+00  0.00000000E+00
  0.00000000E+00  0.00000000E+00  0.00000000E+00
  0.00000000E+00  0.00000000E+00  0.00000000E+00
  0.00000000E+00  0.00000000E+00  0.00000000E+00
  0.00000000E+00  0.00000000E+00  0.00000000E+00
  0.00000000E+00  0.00000000E+00  0.00000000E+00
  0.00000000E+00  0.00000000E+00  0.00000000E+00
  0.00000000E+00  0.00000000E+00  0.00000000E+00
  0.00000000E+00  0.00000000E+00  0.00000000E+00
  0.00000000E+00  0.00000000E+00  0.00000000E+00
  0.00000000E+00  0.00000000E+00  0.00000000E+00
  0.00000000E+00  0.00000000E+00  0.00000000E+00
  0.00000000E+00  0.00000000E+00  0.00000000E+00
  0.00000000E+00  0.00000000E+00  0.00000000E+00
  0.00000000E+00  0.00000000E+00  0.00000000E+00
  0.00000000E+00  0.00000000E+00  0.00000000E+00
  0.00000000E+00  0.00000000E+00  0.00000000E+00
  0.00000000E+00  0.00000000E+00  0.00000000E+00
  0.00000000E+00  0.00000000E+00  0.00000000E+00
  0.00000000E+00  0.00000000E+00  0.00000000E+00
  0.00000000E+00  0.00000000E+00  0.00000000E+00
  0.00000000E+00  0.00000000E+00  0.00000000E+00
  0.00000000E+00  0.00000000E+00  0.00000000E+00
  0.00000000E+00  0.00000000E+00  0.00000000E+00
  0.00000000E+00  0.00000000E+00  0.00000000E+00
  0.00000000E+00  0.00000000E+00  0.00000000E+00
  0.00000000E+00  0.00000000E+00  0.00000000E+00
  0.00000000E+00  0.00000000E+00  0.00000000E+00
  0.00000000E+00  0.00000000E+00  0.00000000E+00
  0.00000000E+00  0.00000000E+00  0.00000000E+00
  0.00000000E+00  0.00000000E+00  0.00000000E+00
  0.00000000E+00  0.00000000E+00  0.00000000E+00
  0.00000000E+00  0.00000000E+00  0.00000000E+00
  0.00000000E+00  0.00000000E+00  0.00000000E+00
