 B N O 
 1.0
 14.936314146199660   0.000000000000000   0.000000000000000
 -7.468157073099825  12.935227489513863   0.000000000000000
  0.000000000000001   0.000000000000001  13.341276283792837
 B N O 
 142 144   1
Cartesian
  1.251744952230609   0.726606998841084   5.002978606422314 
  4.952638182793660   7.122630010445673   5.002978606422314 
  6.225030495779569   0.761399309562648   5.002978606422314 
  9.956513752705794   7.182419964967017   5.002978606422314 
 11.209824846656193   0.702501704395984   5.002978606422314 
 -3.731462313778112   9.339470458856951  11.673616748318732 
  1.247705518476140   9.339741818197711  11.673616748318732 
  2.493575052144370   2.872614537123151  11.673616748318732 
  6.226461121191040   9.338537304275162  11.673616748318732 
  7.470765298565897   2.872952295968339  11.673616748318732 
 12.449223551263170   2.872357036026983  11.673616748318732 
 -1.251725524543731   9.357476819667474   5.002978606422314 
 -0.015738942321551   2.863345069388382   5.002978606422314 
  5.035843728850957   2.990695792484866   5.002978606422314 
  3.729781861811291   9.323694980903593   5.002978606422314 
  8.713879328005135   9.325331611859200   5.002978606422314 
  9.976664254805591   2.866280843197808   5.002978606422314 
 -4.975620000142460  11.495182149953260  11.673616748318732 
  0.002861821977217  11.495903613018127  11.673616748318732 
  1.248512692264733   5.028325104751682  11.673616748318732 
  6.226739024889626   5.028215749134202  11.673616748318732 
  4.981521622842492  11.494958631384440  11.673616748318732 
 11.204265182921521   5.028195182450674  11.673616748318732 
 -1.258820259342130   5.029351012399982   5.002978606422314 
 -2.488134678574669  11.522459014977541   5.002978606422314 
  2.490571185757414  11.489105136388698   5.002978606422314 
  7.471953421692733  11.480173995372368   5.002978606422314 
  8.711477233538503   5.032177023654858   5.002978606422314 
  0.003075303726221   7.184056363051777  11.673616748318732 
  1.248115146312784   0.716148532746048  11.673616748318732 
  4.982363631479121   7.182949437324386  11.673616748318732 
  6.226712121577745   0.716909790303437  11.673616748318732 
  9.959721821852515   7.183455000538899  11.673616748318732 
 -2.495893072875430   7.194326426158088   5.002978606422314 
 11.204547623244153   0.716337391460483  11.673616748318732 
  3.750007494889461   0.759695089149671   5.002978606422314 
  2.479644769194374   7.202378434698677   5.002978606422314 
  7.459099581388145   7.112917794073252   5.002978606422314 
  8.722468035164372   0.716305300864482   5.002978606422314 
  2.493163388186938   7.183743015999466  11.673616748318732 
 13.693582189913982   0.701083992141472   5.002978606422314 
 -1.241943212312970   9.339854134628576  11.673616748318732 
  0.003232647514958   2.872265302648984  11.673616748318732 
  4.982838851097882   2.872961720159116  11.673616748318732 
  3.737278740598708   9.338962628978027  11.673616748318732 
  8.715599258610141   9.338737071434656  11.673616748318732 
  9.959641831300306   2.872548031729786  11.673616748318732 
 -3.734410169140516   9.352308481623187   5.002978606422314 
  1.236353392171299   9.347260137505888   5.002978606422314 
  2.469920250627190   2.907301555276280   5.002978606422314 
  6.221511455000194   9.292180317423401   5.002978606422314 
  7.506450343073839   2.892455530050541   5.002978606422314 
 12.449448436493761   2.864180364770265   5.002978606422314 
 -1.241959470941375   5.028160943147467  11.673616748318732 
 -2.486314572249104  11.495762761134463  11.673616748318732 
  2.492066125905314  11.495625541017780  11.673616748318732 
  3.738599644829398   5.028388077972122  11.673616748318732 
  7.471115728066603  11.494805662084069  11.673616748318732 
 -4.971685315236751  11.509363989311566   5.002978606422314 
  8.714892026520388   5.028263072709247  11.673616748318732 
 -0.005123087629771  11.514582882996622   5.002978606422314 
  1.191573702384783   5.012989626724972   5.002978606422314 
 -0.018409172827866   7.195630546196339   5.002978606422314 
  4.982412347905067  11.471780492558063   5.002978606422314 
 11.207223615747877   5.029658692321248   5.002978606422314 
 -2.486923743795890   7.183795659691326  11.673616748318732 
  3.737865395285048   0.716580804724774  11.673616748318732 
  7.470894384024395   7.182872732602467  11.673616748318732 
  8.715341734912842   0.716808256051277  11.673616748318732 
 13.694336003434595   0.716047053744617  11.673616748318732 
 -0.001583914532705   1.437379788675509   1.633123964752974 
  3.736498484875431   7.903942499998966   1.636182727392524 
  4.978138691624702   1.441152216671578   1.642994174570058 
  8.708617183667350   7.903109365335954   1.643649731840916 
  9.955532627684985   1.439362671861872   1.643187482950160 
 -4.981690275644551  10.060305436024828   8.363141787491138 
 -0.001273822810462  10.061837971954118   8.362769325409637 
  1.243897585430607   3.593403623329656   8.372690417527306 
  4.978787507269387  10.060277095862089   8.373771380456153 
  6.223143115322999   3.598761645401708   8.352509110821279 
 11.199080373769831   3.593999442547912   8.365163213180221 
 -2.491859464831323  10.061432951796755   1.647300602211012 
 -1.247050245914394   3.593314617028508   1.634918449256747 
  3.735442840885073   3.595749508292288   1.643436720194828 
  2.489491297681679  10.061204799808882   1.635977040605145 
  7.466327342344665  10.059767826438447   1.634782499177129 
  8.709592871943286   3.595841619033559   1.646793995519249 
 -6.225124133175215  12.216648787953131   8.370166346230047 
 -1.246207378665719  12.219274732362420   8.360087690053227 
 -0.001487178942873   5.749102998450513   8.370864632789083 
  4.981990739388222   5.748611960629979   8.345355493268796 
  3.733131757462261  12.217482227728551   8.368422011103034 
  9.952614552686423   5.748551118346654   8.361542388100423 
 -2.492889477735507   5.749042124855475   1.639574065828345 
 -3.735733452985973  12.217925382071464   1.643012946711338 
  1.243473314623514  12.218761661155886   1.643265038067395 
  2.491482899627366   5.748789723559877   1.639249292818671 
  6.222194767481010  12.216601095533411   1.633102215553214 
  7.464052892224871   5.747955870887714   1.657229076219037 
 -1.247065610626052   7.905097452815958   8.363819098577611 
 -0.001583914532690   1.437379788675510   8.372833248090693 
  3.736498484875432   7.903942499998967   8.369774485451783 
  4.978138691624703   1.441152216671579   8.362963038277478 
  8.708617183667350   7.903109365335955   8.362307481009006 
 -3.738109826949639   7.904324769561986   1.644830360803609 
  9.955532627684985   1.439362671861872   8.362769729891385 
  2.488595554530155   1.438366317372651   1.635717023312397 
  1.244755163745675   7.904927709188467   1.636387409696374 
  6.222811175959537   7.902967827023902   1.641791470375150 
  7.466551539785931   1.441610603249876   1.645784003518734 
  1.244755163745676   7.904927709188468   8.369569803148174 
 12.445036956771947   1.437976671184327   1.637747301189978 
 -2.491859464831323  10.061432951796755   8.358656610629946 
 -1.247050245914394   3.593314617028509   8.371038763587695 
  3.735442840885073   3.595749508292289   8.362520492649359 
  2.489491297681679  10.061204799808882   8.369980172244258 
  7.466327342343188  10.059767826438447   8.371174713670728 
  8.709592871943286   3.595841619033560   8.359163217326165 
 -4.981690275644552  10.060305436024828   1.642815425360507 
 -0.001273822810463  10.061837971954118   1.643187887439727 
  1.243897585430606   3.593403623329655   1.633266795313228 
  4.978787507269386  10.060277095862089   1.632185832386779 
  6.223143115322998   3.598761645401707   1.653448102026069 
 11.199080373769831   3.593999442547911   1.640793999664046 
 -2.492889477735551   5.749042124855476   8.366383147010840 
 -3.735733452985972  12.217925382071464   8.362944266136520 
  1.243473314623514  12.218761661155886   8.362692174774164 
  2.491482899627367   5.748789723559878   8.366707920026849 
  6.222194767481011  12.216601095533411   8.372854997293240 
 -6.225124133175097  12.216648787953131   1.635790866612752 
  7.464052892224871   5.747955870887715   8.348728136631514 
 -1.246207378665719  12.219274732362420   1.645869522793682 
 -0.001487178942873   5.749102998450512   1.635092580046619 
 -1.247065610626441   7.905097452815957   1.642138114264562 
  4.981990739388221   5.748611960629979   1.660601719573818 
  3.733131757462260  12.217482227728551   1.637535201742342 
  9.952614552686423   5.748551118346653   1.644414824746341 
 -3.738109826949639   7.904324769561986   8.361126852040979 
  2.488595554530140   1.438366317372677   8.370240189531069 
  6.222811175959538   7.902967827023903   8.364165742474480 
  7.466551539785932   1.441610603249876   8.360173209324639 
 12.445036956771947   1.437976671184328   8.368209911658091 
  5.018600560452677   5.725895472344009   5.002978606422314 
  1.243175799713773   0.719319013129395   1.632726997110121 
  4.977323601076042   7.187548732771490   1.633775196394430 
  6.221917375816234   0.719717268609576   1.641295210741093 
  9.955918338736568   7.186707164172825   1.638807807277481 
 11.201143576751365   0.719193490739679   1.638466367836131 
 -3.735702558054825   9.342695342620612   8.361738751697631 
  1.243397054389149   9.342691848682254   8.368953039377537 
  2.487634997287438   2.875255703987241   8.370265108733824 
  6.222186165059025   9.343224893863649   8.377298519584013 
  7.467067041200273   2.875229602098095   8.367001610471283 
 12.445714817846728   2.874825733471756   8.369729328156517 
 -1.246196039705167   9.342705886811400   1.644328198803800 
 -0.001603930667143   2.874821591149995   1.632118917740073 
  4.977098405318053   2.875672025589362   1.639155724440130 
  3.732951936801925   9.343071805050441   1.629468150351500 
  8.711307012822676   9.342856625435596   1.635232004466650 
  9.956510798958417   2.874890380043554   1.638733365821937 
 -4.980339652567146  11.498823807383147   8.366295076671740 
 -0.001482120830793  11.498809963575138   8.362727704195036 
  1.243170162395065   5.030643582668088   8.370841405122320 
  6.222172418783658   5.030940072072656   8.377074128826981 
  4.977666283735081  11.498951162255022   8.375058327816109 
 11.200838145111337   5.030704444530096   8.368569644988360 
 -1.246160195238888   5.030747058539039   1.634616962874994 
 -2.490928064198436  11.498840109939545   1.645023547822389 
  2.488117000937290  11.498779894620242   1.637444747082137 
  3.732313429919724   5.031109768862217   1.645173177547132 
  7.466890651413270  11.498932769377852   1.630826573060106 
  8.711718087466069   5.030682933885172   1.636681163280276 
 -0.001429059605411   7.186616621470785   8.369055627736087 
  1.243175799713773   0.719319013129395   8.373230215734079 
  4.977323601076043   7.187548732771491   8.372182016451813 
  6.221917375816042   0.719717268609577   8.364662002104708 
  9.955918338736568   7.186707164172826   8.367149405567455 
 -2.490997984220089   7.186639405252822   1.640991424234510 
 11.201143576751365   0.719193490739680   8.367490845010057 
  3.732433799092677   0.719613676327254   1.637712961517817 
  2.488174397430408   7.186773307264917   1.635116534262199 
  7.466544969988613   7.187091452926031   1.636043331272288 
  8.711557662495965   0.719398026442137   1.641675692850678 
  2.488174397430408   7.186773307264918   8.370840678573838 
 13.690433160468334   0.719164472487946   1.633105652678617 
 -1.246196039705166   9.342705886811400   8.361629014048580 
 -0.001603930667142   2.874821591149996   8.373838295106756 
  4.977098405318054   2.875672025589362   8.366801488403270 
  3.732951936801925   9.343071805050442   8.376489062495901 
  8.711307012819635   9.342856625440859   8.370725208378644 
  9.956510798958529   2.874890380043361   8.367223847017300 
 -3.735702558054825   9.342695342620612   1.644218461143448 
  1.243397054389238   9.342691848682254   1.637004173467037 
  2.487634997287437   2.875255703987240   1.635692104109936 
  6.222186165059024   9.343224893863647   1.628658693266045 
  7.467067041200272   2.875229602098094   1.638955602373333 
 12.445714817846728   2.874825733471755   1.636227884685282 
 -1.246160195238888   5.030747058539040   8.371340249964630 
 -2.490928064198436  11.498840109939545   8.360933665024213 
  2.488117000937291  11.498779894620242   8.368512465764626 
  3.732313429919724   5.031109768862218   8.360784035302526 
  7.466890651413271  11.498932769377854   8.375130639783295 
 -4.980339652567147  11.498823807383147   1.639662136177624 
  8.711718087466069   5.030682933885173   8.369276049559989 
 -0.001482120830793  11.498809963575138   1.643229508655102 
  1.243170162395065   5.030643582668087   1.635115807722188 
 -0.001429059605411   7.186616621470784   1.636901585108099 
  6.222172418783657   5.030940072072656   1.628883084011469 
  4.977666283735065  11.498951162255047   1.630898885034294 
 11.200838145111270   5.030704444530289   1.637387567862365 
 -2.490997984219909   7.186639405252823   8.364965788608584 
  3.732433799092543   0.719613676327307   8.368244251329665 
  7.466544969988614   7.187091452926032   8.369913881569939 
  8.711557662495965   0.719398026442137   8.364281519992948 
 13.690433160468334   0.719164472487946   8.372851560167465 
 -0.000421034771521   1.430362031506707   5.002978606422314 
  3.711603413290540   7.893143431753376   5.002978606422314 
  4.976405403556742   1.502910943785856   5.002978606422314 
  8.716122275253031   7.897362410230452   5.002978606422314 
  9.974980535808498   1.421878413077696   5.002978606422314 
 -4.975673090695977  10.058294127105615  11.673616748318732 
  0.002876425829271  10.058477191750507  11.673616748318732 
  1.247793216160373   3.590883407720758  11.673616748318732 
  4.981611168795998  10.058356303409326  11.673616748318732 
  6.226675235779449   3.590684058134686  11.673616748318732 
 11.205252991534259   3.590725025315076  11.673616748318732 
 -2.490743878874110  10.080831568001553   5.002978606422314 
 -1.246659357461018   3.589632131950876   5.002978606422314 
  3.705341771571435   3.637472198146846   5.002978606422314 
  2.484369637180987  10.052428306136125   5.002978606422314 
  7.466278798634700  10.044483572458903   5.002978606422314 
  8.761126294911199   3.579665173284878   5.002978606422314 
 -6.220437316100741  12.214278891065760  11.673616748318732 
 -1.241765483999845  12.214190853978842  11.673616748318732 
  0.003048871457350   5.746802133239575  11.673616748318732 
  4.981726690049998   5.746753402198105  11.673616748318732 
  3.736955797470295  12.214087084316070  11.673616748318732 
  9.960654697788337   5.746675662020137  11.673616748318732 
 -2.485418706884779   5.754962066932526   5.002978606422314 
 -3.729914972342484  12.247021789590725   5.002978606422314 
  1.249003526109395  12.211648766459030   5.002978606422314 
  2.393244572484836   5.760785138842439   5.002978606422314 
  6.226566394387361  12.200387053066848   5.002978606422314 
  7.523099461549641   5.723098525005089   5.002978606422314 
 -1.241736460569467   7.902592125863917  11.673616748318732 
  0.003091344250069   1.434835692551663  11.673616748318732 
  3.736875066266209   7.902688590910709  11.673616748318732 
  4.981898301332365   1.434798328967893  11.673616748318732 
  8.715941131807316   7.902543890612669  11.673616748318732 
 -3.730660956264751   7.916300068257161   5.002978606422314 
  9.960423289393017   1.434780919805345  11.673616748318732 
  2.495050963966814   1.468773330428920   5.002978606422314 
  1.227391597846459   7.904145230039479   5.002978606422314 
  6.213301559947730   7.867354701661899   5.002978606422314 
  7.487820168224766   1.434529142257461   5.002978606422314 
  1.247605232641039   7.902641733455928  11.673616748318732 
 12.455380592052773   1.423663064121180   5.002978606422314 
 -2.486417818258618  10.058336753894292  11.673616748318732 
 -1.241620751448971   3.590810008651702  11.673616748318732 
  3.737275508730536   3.590845822612746  11.673616748318732 
  2.492118116192920  10.058397867076092  11.673616748318732 
  7.471055252372294  10.058464983571811  11.673616748318732 
  8.715873343028239   3.590681605158100  11.673616748318732 
 -4.976526088739769  10.070631928405762   5.002978606422314 
 -0.005991956662143  10.071816793718570   5.002978606422314 
  1.218988928443343   3.592091034418231   5.002978606422314 
  4.977031956601732  10.037967525254041   5.002978606422314 
  6.292445308453033   3.562783980277162   5.002978606422314 
 11.222573323363530   3.586601763681498   5.002978606422314 
 -2.486378470183251   5.746787227812518  11.673616748318732 
 -3.731031926166353  12.214284529308342  11.673616748318732 
  1.247485210570506  12.214099493738164  11.673616748318732 
  2.492350258485161   5.746812719983237  11.673616748318732 
  6.226452336691419  12.214198548852460  11.673616748318732 
 -6.219716954891922  12.222601629968928   5.002978606422314 
  7.471286371733189   5.746666411158213  11.673616748318732 
 -1.247823083567237  12.244385039424298   5.002978606422314 
 -0.021635543381806   5.757250967180262   5.002978606422314 
 -1.252448279645732   7.918238777565446   5.002978606422314 
  3.740159202368673  12.199020228625594   5.002978606422314 
  9.985806763161992   5.749225492137168   5.002978606422314 
 -3.730992951694513   7.902429144887835  11.673616748318732 
  2.492448052174499   1.434953453938285  11.673616748318732 
  6.226379914187388   7.902577932705629  11.673616748318732 
  7.471116786387840   1.434714871301496  11.673616748318732 
 12.449967896519922   1.434759529019184  11.673616748318732 
  3.648342366392664   5.074486914417761   5.002978606422314 
Generated by cif2cell 2.0.0.  :  Failed to get author information, No journal information. Species order: B N O 
 1.0
 14.936314146199660   0.000000000000000   0.000000000000000
 -7.468157073099825  12.935227489513863   0.000000000000000
  0.000000000000001   0.000000000000001  13.341276283792837
 B N O 
 142 144   1
Cartesian
  1.251744952230609   0.726606998841084   5.002978606422314 
  4.952638182793660   7.122630010445673   5.002978606422314 
  6.225030495779569   0.761399309562648   5.002978606422314 
  9.956513752705794   7.182419964967017   5.002978606422314 
 11.209824846656193   0.702501704395984   5.002978606422314 
 -3.731462313778112   9.339470458856951  11.673616748318732 
  1.247705518476140   9.339741818197711  11.673616748318732 
  2.493575052144370   2.872614537123151  11.673616748318732 
  6.226461121191040   9.338537304275162  11.673616748318732 
  7.470765298565897   2.872952295968339  11.673616748318732 
 12.449223551263170   2.872357036026983  11.673616748318732 
 -1.251725524543731   9.357476819667474   5.002978606422314 
 -0.015738942321551   2.863345069388382   5.002978606422314 
  5.035843728850957   2.990695792484866   5.002978606422314 
  3.729781861811291   9.323694980903593   5.002978606422314 
  8.713879328005135   9.325331611859200   5.002978606422314 
  9.976664254805591   2.866280843197808   5.002978606422314 
 -4.975620000142460  11.495182149953260  11.673616748318732 
  0.002861821977217  11.495903613018127  11.673616748318732 
  1.248512692264733   5.028325104751682  11.673616748318732 
  6.226739024889626   5.028215749134202  11.673616748318732 
  4.981521622842492  11.494958631384440  11.673616748318732 
 11.204265182921521   5.028195182450674  11.673616748318732 
 -1.258820259342130   5.029351012399982   5.002978606422314 
 -2.488134678574669  11.522459014977541   5.002978606422314 
  2.490571185757414  11.489105136388698   5.002978606422314 
  7.471953421692733  11.480173995372368   5.002978606422314 
  8.711477233538503   5.032177023654858   5.002978606422314 
  0.003075303726221   7.184056363051777  11.673616748318732 
  1.248115146312784   0.716148532746048  11.673616748318732 
  4.982363631479121   7.182949437324386  11.673616748318732 
  6.226712121577745   0.716909790303437  11.673616748318732 
  9.959721821852515   7.183455000538899  11.673616748318732 
 -2.495893072875430   7.194326426158088   5.002978606422314 
 11.204547623244153   0.716337391460483  11.673616748318732 
  3.750007494889461   0.759695089149671   5.002978606422314 
  2.479644769194374   7.202378434698677   5.002978606422314 
  7.459099581388145   7.112917794073252   5.002978606422314 
  8.722468035164372   0.716305300864482   5.002978606422314 
  2.493163388186938   7.183743015999466  11.673616748318732 
 13.693582189913982   0.701083992141472   5.002978606422314 
 -1.241943212312970   9.339854134628576  11.673616748318732 
  0.003232647514958   2.872265302648984  11.673616748318732 
  4.982838851097882   2.872961720159116  11.673616748318732 
  3.737278740598708   9.338962628978027  11.673616748318732 
  8.715599258610141   9.338737071434656  11.673616748318732 
  9.959641831300306   2.872548031729786  11.673616748318732 
 -3.734410169140516   9.352308481623187   5.002978606422314 
  1.236353392171299   9.347260137505888   5.002978606422314 
  2.469920250627190   2.907301555276280   5.002978606422314 
  6.221511455000194   9.292180317423401   5.002978606422314 
  7.506450343073839   2.892455530050541   5.002978606422314 
 12.449448436493761   2.864180364770265   5.002978606422314 
 -1.241959470941375   5.028160943147467  11.673616748318732 
 -2.486314572249104  11.495762761134463  11.673616748318732 
  2.492066125905314  11.495625541017780  11.673616748318732 
  3.738599644829398   5.028388077972122  11.673616748318732 
  7.471115728066603  11.494805662084069  11.673616748318732 
 -4.971685315236751  11.509363989311566   5.002978606422314 
  8.714892026520388   5.028263072709247  11.673616748318732 
 -0.005123087629771  11.514582882996622   5.002978606422314 
  1.191573702384783   5.012989626724972   5.002978606422314 
 -0.018409172827866   7.195630546196339   5.002978606422314 
  4.982412347905067  11.471780492558063   5.002978606422314 
 11.207223615747877   5.029658692321248   5.002978606422314 
 -2.486923743795890   7.183795659691326  11.673616748318732 
  3.737865395285048   0.716580804724774  11.673616748318732 
  7.470894384024395   7.182872732602467  11.673616748318732 
  8.715341734912842   0.716808256051277  11.673616748318732 
 13.694336003434595   0.716047053744617  11.673616748318732 
 -0.001583914532705   1.437379788675509   1.633123964752974 
  3.736498484875431   7.903942499998966   1.636182727392524 
  4.978138691624702   1.441152216671578   1.642994174570058 
  8.708617183667350   7.903109365335954   1.643649731840916 
  9.955532627684985   1.439362671861872   1.643187482950160 
 -4.981690275644551  10.060305436024828   8.363141787491138 
 -0.001273822810462  10.061837971954118   8.362769325409637 
  1.243897585430607   3.593403623329656   8.372690417527306 
  4.978787507269387  10.060277095862089   8.373771380456153 
  6.223143115322999   3.598761645401708   8.352509110821279 
 11.199080373769831   3.593999442547912   8.365163213180221 
 -2.491859464831323  10.061432951796755   1.647300602211012 
 -1.247050245914394   3.593314617028508   1.634918449256747 
  3.735442840885073   3.595749508292288   1.643436720194828 
  2.489491297681679  10.061204799808882   1.635977040605145 
  7.466327342344665  10.059767826438447   1.634782499177129 
  8.709592871943286   3.595841619033559   1.646793995519249 
 -6.225124133175215  12.216648787953131   8.370166346230047 
 -1.246207378665719  12.219274732362420   8.360087690053227 
 -0.001487178942873   5.749102998450513   8.370864632789083 
  4.981990739388222   5.748611960629979   8.345355493268796 
  3.733131757462261  12.217482227728551   8.368422011103034 
  9.952614552686423   5.748551118346654   8.361542388100423 
 -2.492889477735507   5.749042124855475   1.639574065828345 
 -3.735733452985973  12.217925382071464   1.643012946711338 
  1.243473314623514  12.218761661155886   1.643265038067395 
  2.491482899627366   5.748789723559877   1.639249292818671 
  6.222194767481010  12.216601095533411   1.633102215553214 
  7.464052892224871   5.747955870887714   1.657229076219037 
 -1.247065610626052   7.905097452815958   8.363819098577611 
 -0.001583914532690   1.437379788675510   8.372833248090693 
  3.736498484875432   7.903942499998967   8.369774485451783 
  4.978138691624703   1.441152216671579   8.362963038277478 
  8.708617183667350   7.903109365335955   8.362307481009006 
 -3.738109826949639   7.904324769561986   1.644830360803609 
  9.955532627684985   1.439362671861872   8.362769729891385 
  2.488595554530155   1.438366317372651   1.635717023312397 
  1.244755163745675   7.904927709188467   1.636387409696374 
  6.222811175959537   7.902967827023902   1.641791470375150 
  7.466551539785931   1.441610603249876   1.645784003518734 
  1.244755163745676   7.904927709188468   8.369569803148174 
 12.445036956771947   1.437976671184327   1.637747301189978 
 -2.491859464831323  10.061432951796755   8.358656610629946 
 -1.247050245914394   3.593314617028509   8.371038763587695 
  3.735442840885073   3.595749508292289   8.362520492649359 
  2.489491297681679  10.061204799808882   8.369980172244258 
  7.466327342343188  10.059767826438447   8.371174713670728 
  8.709592871943286   3.595841619033560   8.359163217326165 
 -4.981690275644552  10.060305436024828   1.642815425360507 
 -0.001273822810463  10.061837971954118   1.643187887439727 
  1.243897585430606   3.593403623329655   1.633266795313228 
  4.978787507269386  10.060277095862089   1.632185832386779 
  6.223143115322998   3.598761645401707   1.653448102026069 
 11.199080373769831   3.593999442547911   1.640793999664046 
 -2.492889477735551   5.749042124855476   8.366383147010840 
 -3.735733452985972  12.217925382071464   8.362944266136520 
  1.243473314623514  12.218761661155886   8.362692174774164 
  2.491482899627367   5.748789723559878   8.366707920026849 
  6.222194767481011  12.216601095533411   8.372854997293240 
 -6.225124133175097  12.216648787953131   1.635790866612752 
  7.464052892224871   5.747955870887715   8.348728136631514 
 -1.246207378665719  12.219274732362420   1.645869522793682 
 -0.001487178942873   5.749102998450512   1.635092580046619 
 -1.247065610626441   7.905097452815957   1.642138114264562 
  4.981990739388221   5.748611960629979   1.660601719573818 
  3.733131757462260  12.217482227728551   1.637535201742342 
  9.952614552686423   5.748551118346653   1.644414824746341 
 -3.738109826949639   7.904324769561986   8.361126852040979 
  2.488595554530140   1.438366317372677   8.370240189531069 
  6.222811175959538   7.902967827023903   8.364165742474480 
  7.466551539785932   1.441610603249876   8.360173209324639 
 12.445036956771947   1.437976671184328   8.368209911658091 
  5.018600560452677   5.725895472344009   5.002978606422314 
  1.243175799713773   0.719319013129395   1.632726997110121 
  4.977323601076042   7.187548732771490   1.633775196394430 
  6.221917375816234   0.719717268609576   1.641295210741093 
  9.955918338736568   7.186707164172825   1.638807807277481 
 11.201143576751365   0.719193490739679   1.638466367836131 
 -3.735702558054825   9.342695342620612   8.361738751697631 
  1.243397054389149   9.342691848682254   8.368953039377537 
  2.487634997287438   2.875255703987241   8.370265108733824 
  6.222186165059025   9.343224893863649   8.377298519584013 
  7.467067041200273   2.875229602098095   8.367001610471283 
 12.445714817846728   2.874825733471756   8.369729328156517 
 -1.246196039705167   9.342705886811400   1.644328198803800 
 -0.001603930667143   2.874821591149995   1.632118917740073 
  4.977098405318053   2.875672025589362   1.639155724440130 
  3.732951936801925   9.343071805050441   1.629468150351500 
  8.711307012822676   9.342856625435596   1.635232004466650 
  9.956510798958417   2.874890380043554   1.638733365821937 
 -4.980339652567146  11.498823807383147   8.366295076671740 
 -0.001482120830793  11.498809963575138   8.362727704195036 
  1.243170162395065   5.030643582668088   8.370841405122320 
  6.222172418783658   5.030940072072656   8.377074128826981 
  4.977666283735081  11.498951162255022   8.375058327816109 
 11.200838145111337   5.030704444530096   8.368569644988360 
 -1.246160195238888   5.030747058539039   1.634616962874994 
 -2.490928064198436  11.498840109939545   1.645023547822389 
  2.488117000937290  11.498779894620242   1.637444747082137 
  3.732313429919724   5.031109768862217   1.645173177547132 
  7.466890651413270  11.498932769377852   1.630826573060106 
  8.711718087466069   5.030682933885172   1.636681163280276 
 -0.001429059605411   7.186616621470785   8.369055627736087 
  1.243175799713773   0.719319013129395   8.373230215734079 
  4.977323601076043   7.187548732771491   8.372182016451813 
  6.221917375816042   0.719717268609577   8.364662002104708 
  9.955918338736568   7.186707164172826   8.367149405567455 
 -2.490997984220089   7.186639405252822   1.640991424234510 
 11.201143576751365   0.719193490739680   8.367490845010057 
  3.732433799092677   0.719613676327254   1.637712961517817 
  2.488174397430408   7.186773307264917   1.635116534262199 
  7.466544969988613   7.187091452926031   1.636043331272288 
  8.711557662495965   0.719398026442137   1.641675692850678 
  2.488174397430408   7.186773307264918   8.370840678573838 
 13.690433160468334   0.719164472487946   1.633105652678617 
 -1.246196039705166   9.342705886811400   8.361629014048580 
 -0.001603930667142   2.874821591149996   8.373838295106756 
  4.977098405318054   2.875672025589362   8.366801488403270 
  3.732951936801925   9.343071805050442   8.376489062495901 
  8.711307012819635   9.342856625440859   8.370725208378644 
  9.956510798958529   2.874890380043361   8.367223847017300 
 -3.735702558054825   9.342695342620612   1.644218461143448 
  1.243397054389238   9.342691848682254   1.637004173467037 
  2.487634997287437   2.875255703987240   1.635692104109936 
  6.222186165059024   9.343224893863647   1.628658693266045 