B C N                                   
   1.0000000000000000     
     8.7639499999999995  -15.1796066749929999    0.0000000000000000
     8.7639499999999995   15.1796066749929999    0.0000000000000000
     0.0000000000000000    0.0000000000000000   15.0000000000000000
   B    C    N 
    46     3    47
Selective dynamics
Direct
  0.9064674375571466  0.9537904378244595  0.1109811051826523   T   T   T
  0.9043323994707193  0.0950890592240771  0.1110192780418914   T   T   T
  0.9034758280450079  0.2375384817929700  0.1110541665758554   T   T   T
  0.9031261481148369  0.3804715171585119  0.1109576632335432   T   T   T
  0.9036520368804505  0.5236428325113749  0.1109598427566710   T   T   T
  0.9052017922792976  0.6670081112827758  0.1110553942034505   T   T   T
  0.9063706946695479  0.8105222767523981  0.1110356307262186   T   T   T
  0.0489709353659881  0.9535040305767555  0.1109352811219858   T   T   T
  0.0484922586679187  0.0962560558623364  0.1109577528103557   T   T   T
  0.0467931497795112  0.2377126774152098  0.1109721858081576   T   T   T
  0.0461039532336693  0.3801437492877698  0.1109678914105184   T   T   T
  0.0463189935822482  0.5232316686342713  0.1109660793241980   T   T   T
  0.0476153553020271  0.6664966681086285  0.1109796941663615   T   T   T
  0.0485067514595681  0.8099674625996928  0.1109707142782152   T   T   T
  0.1912602423414700  0.9528514733616207  0.1109604048327172   T   T   T
  0.1917314275730791  0.0967223018903429  0.1109589188788657   T   T   T
  0.1911290000974663  0.2392546157447215  0.1109812796471179   T   T   T
  0.1890371961499592  0.3798000644897838  0.1109522222645290   T   T   T
  0.1885755497014341  0.5225642128564302  0.1110301934023875   T   T   T
  0.1902752138438525  0.6658451039132497  0.1110323028602869   T   T   T
  0.1910188518775293  0.8092892119927477  0.1109672886897910   T   T   T
  0.3337851706736458  0.9520087516710737  0.1110022176958597   T   T   T
  0.3337102782693370  0.0958349611799838  0.1110352889332751   T   T   T
  0.3349631875155331  0.2403906557331179  0.1110760715372931   T   T   T
  0.3348632497290526  0.3830621155430754  0.1110921623256886   T   T   T
  0.3293408900736527  0.5210752959735621  0.1111129203693046   T   T   T
  0.3330003262342794  0.6644673031303973  0.1110805138372162   T   T   T
  0.3337660868026854  0.8080737793765934  0.1110277093293713   T   T   T
  0.4761026382205866  0.9501524065125159  0.1109660512560902   T   T   T
  0.4759959251423297  0.0957042903780471  0.1109554975492007   T   T   T
  0.4754021404130021  0.2410695918752639  0.1110659332522389   T   T   T
  0.4731699456840498  0.6521492177666137  0.1112030980233385   T   T   T
  0.4762003856920404  0.8034827809837458  0.1110382279240797   T   T   T
  0.6182556082985684  0.9506189653909374  0.1109939979744267   T   T   T
  0.6181041869916308  0.0944340154578171  0.1109880396368127   T   T   T
  0.6179435015253444  0.2383324432806187  0.1109616608262788   T   T   T
  0.6168214811167059  0.3823545819251434  0.1110260431223073   T   T   T
  0.6431073241169833  0.6767296871998454  0.1110806147030217   T   T   T
  0.6183903310868568  0.8074585677601943  0.1110125709626050   T   T   T
  0.7616529386804528  0.9519368366528931  0.1109789191282382   T   T   T
  0.7608313355330302  0.0945198286660096  0.1110850885328033   T   T   T
  0.7605050045294411  0.2377323048155111  0.1110337806558081   T   T   T
  0.7600140467682431  0.3810518997257335  0.1109871616943317   T   T   T
  0.7607848635635098  0.5250490003794989  0.1110341376193421   T   T   T
  0.7617862801040062  0.6659447265671665  0.1111359145427244   T   T   T
  0.7661217625536323  0.8122507108618927  0.1109912457049716   T   T   T
  0.4777965628347446  0.3884866952404199  0.1113092157192007   T   T   T
  0.4734254785083732  0.5334460698031548  0.1114745958007544   T   T   T
  0.5160302285520595  0.4814620750290250  0.1115022946139172   T   T   T
  0.9539396506602988  0.9061118705821468  0.1109594975917496   T   T   T
  0.9532938143079273  0.0487416296012554  0.1109671258761307   T   T   T
  0.9515683256428078  0.1901806241349581  0.1110053641282642   T   T   T
  0.9509573088262224  0.3327133060769731  0.1109746911474773   T   T   T
  0.9512413088912176  0.4757293171720566  0.1109098910610071   T   T   T
  0.9526422900963307  0.6190870251898202  0.1109775270654454   T   T   T
  0.9536823472260885  0.7626820010610531  0.1110145325404482   T   T   T
  0.0963108844823308  0.9055195014035076  0.1109238717727955   T   T   T
  0.0965636884015600  0.0490349728826118  0.1109212038168844   T   T   T
  0.0958389216706973  0.1914154277494006  0.1109558537397930   T   T   T
  0.0940824142712792  0.3326304194366642  0.1109327625119561   T   T   T
  0.0937618758905873  0.4753560307707728  0.1109644054722742   T   T   T
  0.0951244589144931  0.6185816279176656  0.1109799066153582   T   T   T
  0.0959695336222713  0.7619974912916115  0.1109394107795636   T   T   T
  0.2387223016513268  0.9047652256480673  0.1109608333821315   T   T   T
  0.2387726662714523  0.0484421170491340  0.1109646321840436   T   T   T
  0.2396688520722432  0.1926544789168332  0.1109796898247809   T   T   T
  0.2391612907462361  0.3345024935955820  0.1109532765437838   T   T   T
  0.2354258472511368  0.4743669771463456  0.1109879934145816   T   T   T
  0.2378140973908032  0.6177453321917207  0.1110474875023670   T   T   T
  0.2385918472999533  0.7611525624194601  0.1110003455891060   T   T   T
  0.3810476888314163  0.9034083734485531  0.1109808767792112   T   T   T
  0.3809442079639890  0.0476358490218343  0.1109869944213510   T   T   T
  0.3807761310655016  0.1915017560703215  0.1110727620283865   T   T   T
  0.3841080084434559  0.3369423061185670  0.1111096367002324   T   T   T
  0.3805286852829144  0.4781179739809602  0.1111966699344492   T   T   T
  0.3798880564373918  0.6150928497655453  0.1111062556476196   T   T   T
  0.3811948662669869  0.7592051884767828  0.1110349457387547   T   T   T
  0.5230500412331714  0.9004188097137285  0.1109632766392167   T   T   T
  0.5229272921136929  0.0463800752575540  0.1109300625402727   T   T   T
  0.5226499480640984  0.1919494784035310  0.1109449875015786   T   T   T
  0.5205360935601825  0.3377645064880207  0.1111610742229738   T   T   T
  0.5230848283580442  0.7516355967170110  0.1110935121309086   T   T   T
  0.6656802570407062  0.9028968001483165  0.1109676859126838   T   T   T
  0.6654023283636087  0.0461705739994521  0.1110117702146552   T   T   T
  0.6651560900796860  0.1898108275482360  0.1109773111174458   T   T   T
  0.6643233204587322  0.3329168049065604  0.1109571987224899   T   T   T
  0.6679511075290224  0.4728652126558354  0.1109096985256067   T   T   T
  0.6682088319495177  0.6194106441275858  0.1111659062975033   T   T   T
  0.6697365873768137  0.7652937586829163  0.1109418907213876   T   T   T
  0.8113262815900141  0.9065752647855876  0.1109514139863923   T   T   T
  0.8088122270570913  0.0471370227396979  0.1110201125302837   T   T   T
  0.8081669975178981  0.1897951184488295  0.1110795734398275   T   T   T
  0.8078247850104296  0.3329065785294503  0.1109760700735209   T   T   T
  0.8085476998993623  0.4761239015376298  0.1109738742550516   T   T   T
  0.8108040674719147  0.6200162068181855  0.1110892968027065   T   T   T
  0.8116494249975641  0.7633817899766612  0.1110394124713242   T   T   T

  0.00000000E+00  0.00000000E+00  0.00000000E+00
  0.00000000E+00  0.00000000E+00  0.00000000E+00
  0.00000000E+00  0.00000000E+00  0.00000000E+00
  0.00000000E+00  0.00000000E+00  0.00000000E+00
  0.00000000E+00  0.00000000E+00  0.00000000E+00
  0.00000000E+00  0.00000000E+00  0.00000000E+00
  0.00000000E+00  0.00000000E+00  0.00000000E+00
  0.00000000E+00  0.00000000E+00  0.00000000E+00
  0.00000000E+00  0.00000000E+00  0.00000000E+00
  0.00000000E+00  0.00000000E+00  0.00000000E+00
  0.00000000E+00  0.00000000E+00  0.00000000E+00
  0.00000000E+00  0.00000000E+00  0.00000000E+00
  0.00000000E+00  0.00000000E+00  0.00000000E+00
  0.00000000E+00  0.00000000E+00  0.00000000E+00
  0.00000000E+00  0.00000000E+00  0.00000000E+00
  0.00000000E+00  0.00000000E+00  0.00000000E+00
  0.00000000E+00  0.00000000E+00  0.00000000E+00
  0.00000000E+00  0.00000000E+00  0.00000000E+00
  0.00000000E+00  0.00000000E+00  0.00000000E+00
  0.00000000E+00  0.00000000E+00  0.00000000E+00
  0.00000000E+00  0.00000000E+00  0.00000000E+00
  0.00000000E+00  0.00000000E+00  0.00000000E+00
  0.00000000E+00  0.00000000E+00  0.00000000E+00
  0.00000000E+00  0.00000000E+00  0.00000000E+00
  0.00000000E+00  0.00000000E+00  0.00000000E+00
  0.00000000E+00  0.00000000E+00  0.00000000E+00
  0.00000000E+00  0.00000000E+00  0.00000000E+00
  0.00000000E+00  0.00000000E+00  0.00000000E+00
  0.00000000E+00  0.00000000E+00  0.00000000E+00
  0.00000000E+00  0.00000000E+00  0.00000000E+00
  0.00000000E+00  0.00000000E+00  0.00000000E+00
  0.00000000E+00  0.00000000E+00  0.00000000E+00
  0.00000000E+00  0.00000000E+00  0.00000000E+00
  0.00000000E+00  0.00000000E+00  0.00000000E+00
  0.00000000E+00  0.00000000E+00  0.00000000E+00
  0.00000000E+00  0.00000000E+00  0.00000000E+00
  0.00000000E+00  0.00000000E+00  0.00000000E+00
  0.00000000E+00  0.00000000E+00  0.00000000E+00
  0.00000000E+00  0.00000000E+00  0.00000000E+00
  0.00000000E+00  0.00000000E+00  0.00000000E+00
  0.00000000E+00  0.00000000E+00  0.00000000E+00
  0.00000000E+00  0.00000000E+00  0.00000000E+00
  0.00000000E+00  0.00000000E+00  0.00000000E+00
  0.00000000E+00  0.00000000E+00  0.00000000E+00
  0.00000000E+00  0.00000000E+00  0.00000000E+00
  0.00000000E+00  0.00000000E+00  0.00000000E+00
  0.00000000E+00  0.00000000E+00  0.00000000E+00
  0.00000000E+00  0.00000000E+00  0.00000000E+00
  0.00000000E+00  0.00000000E+00  0.00000000E+00
  0.00000000E+00  0.00000000E+00  0.00000000E+00
  0.00000000E+00  0.00000000E+00  0.00000000E+00
  0.00000000E+00  0.00000000E+00  0.00000000E+00
  0.00000000E+00  0.00000000E+00  0.00000000E+00
  0.00000000E+00  0.00000000E+00  0.00000000E+00
  0.00000000E+00  0.00000000E+00  0.00000000E+00
  0.00000000E+00  0.00000000E+00  0.00000000E+00
  0.00000000E+00  0.00000000E+00  0.00000000E+00
  0.00000000E+00  0.00000000E+00  0.00000000E+00
  0.00000000E+00  0.00000000E+00  0.00000000E+00
  0.00000000E+00  0.00000000E+00  0.00000000E+00
  0.00000000E+00  0.00000000E+00  0.00000000E+00
  0.00000000E+00  0.00000000E+00  0.00000000E+00
  0.00000000E+00  0.00000000E+00  0.00000000E+00
  0.00000000E+00  0.00000000E+00  0.00000000E+00
  0.00000000E+00  0.00000000E+00  0.00000000E+00
  0.00000000E+00  0.00000000E+00  0.00000000E+00
  0.00000000E+00  0.00000000E+00  0.00000000E+00
  0.00000000E+00  0.00000000E+00  0.00000000E+00
  0.00000000E+00  0.00000000E+00  0.00000000E+00
  0.00000000E+00  0.00000000E+00  0.00000000E+00
  0.00000000E+00  0.00000000E+00  0.00000000E+00
  0.00000000E+00  0.00000000E+00  0.00000000E+00
  0.00000000E+00  0.00000000E+00  0.00000000E+00
  0.00000000E+00  0.00000000E+00  0.00000000E+00
  0.00000000E+00  0.00000000E+00  0.00000000E+00
  0.00000000E+00  0.00000000E+00  0.00000000E+00
  0.00000000E+00  0.00000000E+00  0.00000000E+00
  0.00000000E+00  0.00000000E+00  0.00000000E+00
  0.00000000E+00  0.00000000E+00  0.00000000E+00
  0.00000000E+00  0.00000000E+00  0.00000000E+00
  0.00000000E+00  0.00000000E+00  0.00000000E+00
  0.00000000E+00  0.00000000E+00  0.00000000E+00
  0.00000000E+00  0.00000000E+00  0.00000000E+00
  0.00000000E+00  0.00000000E+00  0.00000000E+00
  0.00000000E+00  0.00000000E+00  0.00000000E+00
  0.00000000E+00  0.00000000E+00  0.00000000E+00
  0.00000000E+00  0.00000000E+00  0.00000000E+00
  0.00000000E+00  0.00000000E+00  0.00000000E+00
  0.00000000E+00  0.00000000E+00  0.00000000E+00
  0.00000000E+00  0.00000000E+00  0.00000000E+00
  0.00000000E+00  0.00000000E+00  0.00000000E+00
  0.00000000E+00  0.00000000E+00  0.00000000E+00
  0.00000000E+00  0.00000000E+00  0.00000000E+00
  0.00000000E+00  0.00000000E+00  0.00000000E+00
  0.00000000E+00  0.00000000E+00  0.00000000E+00
  0.00000000E+00  0.00000000E+00  0.00000000E+00
