 Se O B N 
 1.0
 17.527899999999772   0.000000000000000   0.000000000000000
 -8.763949999999658  15.179606674993195   0.000000000000000
  0.000000000000001   0.000000000000002  15.000000000000000
 Se O B N 
   1   1  49  47
Cartesian
  7.491246620515508   7.219911290108341   1.661302767628290 
  4.826374603447184   7.204885357435087   1.671215659519740 
  7.514175696849769  14.473369540522608   1.665488218570425 
 15.028258097897170   1.448916455184400   1.665215239747740 
 13.784864630607279   3.608900513799016   1.665344058914880 
 12.551278789055512   5.776351547794477   1.665192790565025 
 11.364342137556950   7.966922301602825   1.662707914388205 
 10.077898860912279  10.199145071698068   1.664717142163575 
  8.774078331217332  12.320754380177362   1.667022557230260 
 -7.507535778148648  14.466715004456178   1.664781844538445 
 -0.000932984291300   1.447655061758661   1.664946052396035 
 -1.251045787080950   3.612663982799186   1.664802814213800 
 -2.494239085991905   5.782237106911888   1.665172350421500 
 -3.718538130655966   7.958949520876134   1.665456072133725 
 -4.975998172302442  10.138007395565088   1.665208897842615 
 -6.234024879101135  12.318442268396691   1.665368759538735 
 -5.003355132898626  14.452976484058379   1.664579912673855 
  2.497352455514177   1.434695748677796   1.665405426301785 
  1.239703332982453   3.605711394893738   1.663266879433515 
 -0.012952646253525   5.781883759748577   1.663625078697555 
 -1.253866703171843   7.957304636029990   1.665484570488810 
 -2.493290020135063  10.127825717774037   1.665912886325145 
 -3.743622858573525  12.293395717973421   1.664802135406275 
 -2.501204700216168  14.443401440987769   1.665526694345700 
  4.995365998320470   1.404589734811287   1.666032957313665 
  3.732802083679913   3.578411905816509   1.660118646336345 
  2.464024607735778   5.771934120149368   1.662469926311520 
  1.206773356799896   7.961893658831261   1.666638555411975 
 -0.009226081011042  10.128514421890122   1.666525448036415 
 -1.252245980123636  12.288691444477157   1.666680401571825 
  0.001075009763730  14.443777955574886   1.665860902565670 
  7.513268608606148   1.409254831559298   1.664702121552330 
  6.221975577250856   3.516203972584681   1.668280986271170 
  4.955399214069111   5.701804367874294   1.689066768018630 
  3.623845227611825   7.981194852143958   1.654728935143845 
  2.476854302360972  10.135869186879233   1.665966785519805 
  1.244366162026086  12.291787452560458   1.665971655325350 
  2.502141767757280  14.455159910616066   1.665757220320920 
 10.032070908779723   1.407498215256228   1.664752685219460 
  8.806456746041691   3.517915883531627   1.668650422199055 
  7.525768148870887   5.445636817163973   1.641097157528100 
  5.973585752013751   8.125131816176159   1.665889459238220 
  4.966567148874971  10.212644914616220   1.668425718722685 
  3.734290888507079  12.322421715110849   1.664111164060995 
  5.006845882076208  14.469802628886914   1.665063353695620 
 12.528680976879746   1.439236506340373   1.665218367709695 
 11.291930853119997   3.591261064945476   1.665323041549740 
 10.062975243777785   5.751846325817319   1.665828161065950 
  9.047792972717318   8.120015019690561   1.680864514332000 
  7.501606679886648  10.180258064849632   1.664767003973235 
  6.253736746692917  12.326366522307714   1.665333115019400 
  8.767305957315362  13.755358747999900   1.665445495569465 
 16.278286448922678   0.732035993127016   1.664925314445465 
 15.031255477999778   2.890658257693068   1.664863950963135 
 13.790200910901726   5.053405954965593   1.664909394464025 
 12.577399811962394   7.225510958249604   1.664089573762575 
 11.307127621539253   9.419220100921859   1.664848795228290 
 10.044039460818741  11.620493468655756   1.664568075246090 
 -6.252337534112907  13.750404235069750   1.665002713584795 
  1.248759159592073   0.726050625971468   1.665119278954230 
 -0.003479433734967   2.890038994333704   1.664626080066420 
 -1.251149145459234   5.056627800360048   1.664825716068390 
 -2.487114137029771   7.227102255694654   1.665080487508815 
 -3.735082771493876   9.403499066689534   1.664754468269805 
 -4.991167972377225  11.579644182390409   1.664565045623835 
 -3.752050474109966  13.732513169871110   1.664825023432650 
  3.746019224267710   0.708747716045850   1.664397735953955 
  2.488060775089960   2.879496649237589   1.662179655363840 
  1.234778971657752   5.052706076289627   1.660939001601600 
 -0.016353653230499   7.226882240720108   1.664933295744795 
 -1.249911321239178   9.400354809956314   1.666656164437035 
 -2.496880680050221  11.568779773817855   1.665668702398590 
 -1.250143260773743  13.727637951887468   1.665718969321965 
  6.256489974425884   0.702237839876649   1.665087859346745 
  4.973822870713864   2.840026290997029   1.666442115416265 
  3.719117621308211   5.040140031076886   1.665288217241625 
  2.445753983348476   7.222699222765240   1.664268202261605 
  1.236502669884149   9.402189246302434   1.665180893007360 
 -0.002602955426622  11.567977157151432   1.666508369932815 
  1.252078061369530  13.730949053996667   1.665401673702465 
  8.769764094703680   0.702434502722405   1.665082593821865 
  7.510984109738103   2.847987872542850   1.664474057136975 
  6.187871938128936   4.953549076025682   1.671560699052135 
  3.730786756496766   9.407115213941230   1.663413778195560 
  2.493660946405257  11.574813578666928   1.665638311260060 
  3.751137674761305  13.752478929312069   1.664758330530780 
 11.280726383321973   0.709398115397472   1.664777309878800 
 10.052776567315991   2.839258961415234   1.666277224748490 
  8.840087331324698   4.944019775783198   1.663685641841940 
  6.199587626458619   9.531752333833831   1.665066377766915 
  4.983531049977155  11.629496382275972   1.664921775614670 
  6.260593659055647  13.759716947903149   1.664969076821220 
 13.778253141484388   0.728334454104047   1.664991340217970 
 12.537892166174256   2.881621398479908   1.664851571236890 
 11.302692973486844   5.041502335210115   1.665623027394630 
 10.135419467480606   7.226181651334607   1.665495245005320 
  8.827315361472868   9.508742563767818   1.669648843632690 
  7.512981245840943  11.610063157485243   1.666372329424995 
