B N O                                   
   1.0000000000000000     
     8.7639499999999995  -15.1796066749929999    0.0000000000000000
     8.7639499999999995   15.1796066749929999    0.0000000000000000
     0.0000000000000000    0.0000000000000000   15.0000000000000000
   B    N    O 
    48    48     1
Selective dynamics
Direct
  0.9040471952451602  0.9512347019478347  0.1109876989712262   T   T   T
  0.9054296403759472  0.0945723808200494  0.1110778513357117   T   T   T
  0.9059510700342480  0.2374837993905195  0.1110888727048869   T   T   T
  0.9058286754670412  0.3803476376963017  0.1110272447907902   T   T   T
  0.9046298625896304  0.5231364812112147  0.1110323160712914   T   T   T
  0.9027683246684244  0.6655121965173696  0.1110660510278448   T   T   T
  0.9024273778942042  0.8077190241591471  0.1110086964877953   T   T   T
  0.0473580418228554  0.9526439793731488  0.1109600056900294   T   T   T
  0.0487673192481700  0.0959548259508380  0.1109876989712262   T   T   T
  0.0491145703276098  0.2385711749065119  0.1110318507403951   T   T   T
  0.0486122201109371  0.3811770298678060  0.1110192290587532   T   T   T
  0.0473986646430632  0.5240198924801921  0.1110050178549708   T   T   T
  0.0463861651008020  0.6667989007208170  0.1110086327953357   T   T   T
  0.0464172420540291  0.8095551206851512  0.1109681342243943   T   T   T
  0.1904469005108596  0.9535847791419659  0.1109681342243943   T   T   T
  0.1922829970368573  0.0975746433017912  0.1110086964877953   T   T   T
  0.1932909580980945  0.2408699263147840  0.1108472313457721   T   T   T
  0.1920163698735090  0.3824622670842946  0.1107445072688693   T   T   T
  0.1900222693250573  0.5248824489867046  0.1109194502819343   T   T   T
  0.1891691117836516  0.6676260208292384  0.1110781327589727   T   T   T
  0.1895529231552485  0.8104490980407560  0.1110086959416952   T   T   T
  0.3332031204761799  0.9536158560952007  0.1110086327953357   T   T   T
  0.3344898246796275  0.0972336965275739  0.1110660510278448   T   T   T
  0.3372621578552804  0.2427671180006906  0.1110827868550837   T   T   T
  0.3378599414139000  0.3858431000659643  0.1105938459943807   T   T   T
  0.3326469731091780  0.5273689938710192  0.1110895658773617   T   T   T
  0.3314267182648306  0.6685753029321664  0.1113845841957907   T   T   T
  0.3323760003677589  0.8108329094123524  0.1110781327589727   T   T   T
  0.4759821287168077  0.9526033565529405  0.1110050178549708   T   T   T
  0.4768655399857826  0.0953721586063661  0.1110323160712914   T   T   T
  0.4782376787587445  0.2384016380466915  0.1111009316363662   T   T   T
  0.4818355654918939  0.3811159334746958  0.1107999117015524   T   T   T
  0.4726330273259780  0.6673550480878204  0.1110895658773617   T   T   T
  0.4751195722102953  0.8099797518709477  0.1109194502819343   T   T   T
  0.6188249913281979  0.9513898010850651  0.1110192290587532   T   T   T
  0.6196543834997001  0.0941733457289537  0.1110272447907902   T   T   T
  0.6205673442983322  0.2366488385837906  0.1110106539024717   T   T   T
  0.6216432162551432  0.3783588049408633  0.1110297383068984   T   T   T
  0.6188860877213079  0.5181664557051064  0.1107999117015524   T   T   T
  0.6141589211300410  0.6621420797830975  0.1105938459943807   T   T   T
  0.6175397541117105  0.8079856513224958  0.1107445072688693   T   T   T
  0.7614308462894914  0.9508874508683919  0.1110318507403951   T   T   T
  0.7625182218054843  0.0940509511617493  0.1110888727048869   T   T   T
  0.7631442144713970  0.2368578067246054  0.1110106567611261   T   T   T
  0.7633531826122102  0.3794346768976721  0.1110106539024717   T   T   T
  0.7616003831493102  0.5217643424382512  0.1111009316363662   T   T   T
  0.7572349031953129  0.6627398633417185  0.1110827868550837   T   T   T
  0.7591320948812199  0.8067110630979102  0.1108472313457721   T   T   T
  0.9513518443870158  0.9035430462168906  0.1109589914091268   T   T   T
  0.9529657499379613  0.0470356519800454  0.1109928283047847   T   T   T
  0.9536799571097552  0.1900906856154091  0.1110752094144830   T   T   T
  0.9534639599143376  0.3328925760569457  0.1110446883538941   T   T   T
  0.9523451058811485  0.4757150533037266  0.1109908156725729   T   T   T
  0.9509493569631474  0.6184200355206062  0.1110129565169883   T   T   T
  0.9505964601517571  0.7608520435784840  0.1110051140098455   T   T   T
  0.0948469615081366  0.9051544404098613  0.1109352667551231   T   T   T
  0.0964583557011066  0.0486495575309899  0.1109589914091268   T   T   T
  0.0975330958070351  0.1918301047312822  0.1109563439350018   T   T   T
  0.0967566117569297  0.3339738089990048  0.1109652068474944   T   T   T
  0.0951744524696523  0.4765207243386583  0.1109637020207165   T   T   T
  0.0940906081117576  0.6193496040716242  0.1110010744289400   T   T   T
  0.0941077991085900  0.7621977291759683  0.1109622108362955   T   T   T
  0.2378036727420375  0.9058936028094106  0.1109622108362955   T   T   T
  0.2391493583395221  0.0494049417662514  0.1110051140098455   T   T   T
  0.2416023103884108  0.1940280880741238  0.1109899158232546   T   T   T
  0.2418614789053243  0.3368150357964615  0.1105884059193213   T   T   T
  0.2380745747753205  0.4775425870038122  0.1106749333406019   T   T   T
  0.2366538380480167  0.6201030424606141  0.1110972353251117   T   T   T
  0.2370825452772228  0.7629188566407845  0.1110700212108736   T   T   T
  0.3806517978463731  0.9059107938062438  0.1110010744289400   T   T   T
  0.3815813663973916  0.0490520449548589  0.1110129565169883   T   T   T
  0.3832213491593400  0.1932373979870669  0.1111098998228937   T   T   T
  0.3875914996687068  0.3404478743404426  0.1109915954957970   T   T   T
  0.3803883116658568  0.4810258998233843  0.1102622323801408   T   T   T
  0.3786548683179449  0.6213465336000532  0.1118218256745642   T   T   T
  0.3798983594573904  0.7633475638699905  0.1110972353251117   T   T   T
  0.5234806775783393  0.9048269494483453  0.1109637020207165   T   T   T
  0.5242863486132723  0.0476562960368557  0.1109908156725729   T   T   T
  0.5252946754042497  0.1906287308776197  0.1110543839256087   T   T   T
  0.5276358475611744  0.3339606250542446  0.1109610188182576   T   T   T
  0.5189755020936150  0.6196130902521407  0.1102622323801408   T   T   T
  0.5224588149131872  0.7619268271426866  0.1106749333406019   T   T   T
  0.6660275929179920  0.9032447901610728  0.1109652068474944   T   T   T
  0.6671088258600520  0.0465374420036657  0.1110446883538941   T   T   T
  0.6678657157192710  0.1892433240969117  0.1109807610025065   T   T   T
  0.6685842321242261  0.3314171697927713  0.1110033141454746   T   T   T
  0.6660407768627544  0.4723655543558213  0.1109610188182576   T   T   T
  0.6595535275765551  0.6124099022492911  0.1109915954957970   T   T   T
  0.6631863661205356  0.7581399230126830  0.1105884059193213   T   T   T
  0.8081712971867153  0.9024683061109618  0.1109563439350018   T   T   T
  0.8099107163025917  0.0463214448082515  0.1110752094144830   T   T   T
  0.8106218068799325  0.1893795950380663  0.1110600643283389   T   T   T
  0.8107580778210838  0.3321356861977255  0.1109807610025065   T   T   T
  0.8093726710403788  0.4747067265127469  0.1110543839256087   T   T   T
  0.8067640039309324  0.6167800527586600  0.1111098998228937   T   T   T
  0.8059733138438748  0.7583990915295963  0.1109899158232546   T   T   T
  0.4741222341995757  0.5258797869974244  0.1152743857289374   T   T   T

  0.00000000E+00  0.00000000E+00  0.00000000E+00
  0.00000000E+00  0.00000000E+00  0.00000000E+00
  0.00000000E+00  0.00000000E+00  0.00000000E+00
  0.00000000E+00  0.00000000E+00  0.00000000E+00
  0.00000000E+00  0.00000000E+00  0.00000000E+00
  0.00000000E+00  0.00000000E+00  0.00000000E+00
  0.00000000E+00  0.00000000E+00  0.00000000E+00
  0.00000000E+00  0.00000000E+00  0.00000000E+00
  0.00000000E+00  0.00000000E+00  0.00000000E+00
  0.00000000E+00  0.00000000E+00  0.00000000E+00
  0.00000000E+00  0.00000000E+00  0.00000000E+00
  0.00000000E+00  0.00000000E+00  0.00000000E+00
  0.00000000E+00  0.00000000E+00  0.00000000E+00
  0.00000000E+00  0.00000000E+00  0.00000000E+00
  0.00000000E+00  0.00000000E+00  0.00000000E+00
  0.00000000E+00  0.00000000E+00  0.00000000E+00
  0.00000000E+00  0.00000000E+00  0.00000000E+00
  0.00000000E+00  0.00000000E+00  0.00000000E+00
  0.00000000E+00  0.00000000E+00  0.00000000E+00
  0.00000000E+00  0.00000000E+00  0.00000000E+00
  0.00000000E+00  0.00000000E+00  0.00000000E+00
  0.00000000E+00  0.00000000E+00  0.00000000E+00
  0.00000000E+00  0.00000000E+00  0.00000000E+00
  0.00000000E+00  0.00000000E+00  0.00000000E+00
  0.00000000E+00  0.00000000E+00  0.00000000E+00
  0.00000000E+00  0.00000000E+00  0.00000000E+00
  0.00000000E+00  0.00000000E+00  0.00000000E+00
  0.00000000E+00  0.00000000E+00  0.00000000E+00
  0.00000000E+00  0.00000000E+00  0.00000000E+00
  0.00000000E+00  0.00000000E+00  0.00000000E+00
  0.00000000E+00  0.00000000E+00  0.00000000E+00
  0.00000000E+00  0.00000000E+00  0.00000000E+00
  0.00000000E+00  0.00000000E+00  0.00000000E+00
  0.00000000E+00  0.00000000E+00  0.00000000E+00
  0.00000000E+00  0.00000000E+00  0.00000000E+00
  0.00000000E+00  0.00000000E+00  0.00000000E+00
  0.00000000E+00  0.00000000E+00  0.00000000E+00
  0.00000000E+00  0.00000000E+00  0.00000000E+00
  0.00000000E+00  0.00000000E+00  0.00000000E+00
  0.00000000E+00  0.00000000E+00  0.00000000E+00
  0.00000000E+00  0.00000000E+00  0.00000000E+00
  0.00000000E+00  0.00000000E+00  0.00000000E+00
  0.00000000E+00  0.00000000E+00  0.00000000E+00
  0.00000000E+00  0.00000000E+00  0.00000000E+00
  0.00000000E+00  0.00000000E+00  0.00000000E+00
  0.00000000E+00  0.00000000E+00  0.00000000E+00
  0.00000000E+00  0.00000000E+00  0.00000000E+00
  0.00000000E+00  0.00000000E+00  0.00000000E+00
  0.00000000E+00  0.00000000E+00  0.00000000E+00
  0.00000000E+00  0.00000000E+00  0.00000000E+00
  0.00000000E+00  0.00000000E+00  0.00000000E+00
  0.00000000E+00  0.00000000E+00  0.00000000E+00
  0.00000000E+00  0.00000000E+00  0.00000000E+00
  0.00000000E+00  0.00000000E+00  0.00000000E+00
  0.00000000E+00  0.00000000E+00  0.00000000E+00
  0.00000000E+00  0.00000000E+00  0.00000000E+00
  0.00000000E+00  0.00000000E+00  0.00000000E+00
  0.00000000E+00  0.00000000E+00  0.00000000E+00
  0.00000000E+00  0.00000000E+00  0.00000000E+00
  0.00000000E+00  0.00000000E+00  0.00000000E+00
  0.00000000E+00  0.00000000E+00  0.00000000E+00
  0.00000000E+00  0.00000000E+00  0.00000000E+00
  0.00000000E+00  0.00000000E+00  0.00000000E+00
  0.00000000E+00  0.00000000E+00  0.00000000E+00
  0.00000000E+00  0.00000000E+00  0.00000000E+00
  0.00000000E+00  0.00000000E+00  0.00000000E+00
  0.00000000E+00  0.00000000E+00  0.00000000E+00
  0.00000000E+00  0.00000000E+00  0.00000000E+00
  0.00000000E+00  0.00000000E+00  0.00000000E+00
  0.00000000E+00  0.00000000E+00  0.00000000E+00
  0.00000000E+00  0.00000000E+00  0.00000000E+00
  0.00000000E+00  0.00000000E+00  0.00000000E+00
  0.00000000E+00  0.00000000E+00  0.00000000E+00
  0.00000000E+00  0.00000000E+00  0.00000000E+00
  0.00000000E+00  0.00000000E+00  0.00000000E+00
  0.00000000E+00  0.00000000E+00  0.00000000E+00
  0.00000000E+00  0.00000000E+00  0.00000000E+00
  0.00000000E+00  0.00000000E+00  0.00000000E+00
  0.00000000E+00  0.00000000E+00  0.00000000E+00
  0.00000000E+00  0.00000000E+00  0.00000000E+00
  0.00000000E+00  0.00000000E+00  0.00000000E+00
  0.00000000E+00  0.00000000E+00  0.00000000E+00
  0.00000000E+00  0.00000000E+00  0.00000000E+00
  0.00000000E+00  0.00000000E+00  0.00000000E+00
  0.00000000E+00  0.00000000E+00  0.00000000E+00
  0.00000000E+00  0.00000000E+00  0.00000000E+00
  0.00000000E+00  0.00000000E+00  0.00000000E+00
  0.00000000E+00  0.00000000E+00  0.00000000E+00
  0.00000000E+00  0.00000000E+00  0.00000000E+00
  0.00000000E+00  0.00000000E+00  0.00000000E+00
  0.00000000E+00  0.00000000E+00  0.00000000E+00
  0.00000000E+00  0.00000000E+00  0.00000000E+00
  0.00000000E+00  0.00000000E+00  0.00000000E+00
  0.00000000E+00  0.00000000E+00  0.00000000E+00
  0.00000000E+00  0.00000000E+00  0.00000000E+00
  0.00000000E+00  0.00000000E+00  0.00000000E+00
  0.00000000E+00  0.00000000E+00  0.00000000E+00
