In B N                                  
   1.0000000000000000     
     8.7639499999999995  -15.1796066749929999    0.0000000000000000
     8.7639499999999995   15.1796066749929999    0.0000000000000000
     0.0000000000000000    0.0000000000000000   15.0000000000000000
   In   B    N 
     1    48    48
Selective dynamics
Direct
  0.4973125557368345  0.5026888461801619  0.1112873286804544   T   T   T
  0.9064930612172724  0.9536776511444606  0.1110009782476545   T   T   T
  0.9044852482586671  0.0955167729373292  0.1110263079343282   T   T   T
  0.9038708088111378  0.2381515820343615  0.1110383277722355   T   T   T
  0.9042124310633854  0.3810201469857559  0.1109822543392293   T   T   T
  0.9062528230181552  0.5241754083851136  0.1110405808952141   T   T   T
  0.9080311482140999  0.6677912440170531  0.1110671068739688   T   T   T
  0.9086648871991870  0.8117945100038416  0.1110227867718558   T   T   T
  0.0484002339351611  0.9516017872608419  0.1110137168618878   T   T   T
  0.0463243700515428  0.0935089599787240  0.1110009782476545   T   T   T
  0.0457038767635787  0.2368189496128396  0.1109879398920503   T   T   T
  0.0462003347620775  0.3802399218142917  0.1110156230323449   T   T   T
  0.0478458876964955  0.5234023469482130  0.1110150041219405   T   T   T
  0.0493573573819327  0.6663816001376961  0.1110649986093000   T   T   T
  0.0494955920496290  0.8092434193799861  0.1110524966230321   T   T   T
  0.1907586018160171  0.9505064291463742  0.1110524966230321   T   T   T
  0.1882075111921548  0.0913371339968021  0.1110227867718558   T   T   T
  0.1858189055111092  0.2331462159303681  0.1109788046422810   T   T   T
  0.1872270003558760  0.3786270077521444  0.1110574746881396   T   T   T
  0.1895169916198607  0.5226329475638561  0.1110862881401390   T   T   T
  0.1917165958846985  0.6657204137137638  0.1110512171564241   T   T   T
  0.1916320486854082  0.8083699725105883  0.1110206442172336   T   T   T
  0.3336204210592949  0.9506446638140639  0.1110649986093000   T   T   T
  0.3322107771799591  0.0919708729818966  0.1110671068739688   T   T   T
  0.3272960388467568  0.2300825093612037  0.1109735729778285   T   T   T
  0.3240284507357689  0.3734781219113897  0.1110523626433118   T   T   T
  0.3309555199082367  0.5205428263262720  0.1111230559269412   T   T   T
  0.3348462360417224  0.6651557851552761  0.1111161923032007   T   T   T
  0.3342816074832347  0.8082854253113052  0.1110512171564241   T   T   T
  0.4765996742487783  0.9521561334995079  0.1110150041219405   T   T   T
  0.4758266128118843  0.0937491981778481  0.1110405808952141   T   T   T
  0.4743225486414112  0.2342628799992433  0.1109984497609943   T   T   T
  0.4645110589559449  0.3648807064867113  0.1111451651823796   T   T   T
  0.4794591948707193  0.6690465012887684  0.1111230559269412   T   T   T
  0.4773690736331421  0.8104850295761359  0.1110862881401390   T   T   T
  0.6197620993817187  0.9538016864339262  0.1110156230323449   T   T   T
  0.6189818742102544  0.0957895901326033  0.1109822543392293   T   T   T
  0.6184515763461189  0.2382518089305215  0.1109697599842468   T   T   T
  0.6183069693881620  0.3816950518078414  0.1110160840009835   T   T   T
  0.6351213147092991  0.5354909622410393  0.1111451651823796   T   T   T
  0.6265238992846066  0.6759735704612293  0.1110523626433118   T   T   T
  0.6213750134438518  0.8127750208401269  0.1110574746881396   T   T   T
  0.7631830715831784  0.9542981444324249  0.1109879398920503   T   T   T
  0.7618504391616421  0.0961312123848588  0.1110383277722355   T   T   T
  0.7614004949298094  0.2386015262661867  0.1110071514010032   T   T   T
  0.7617502122654818  0.3815504448498914  0.1109697599842468   T   T   T
  0.7657391411967603  0.5256794725555798  0.1109984497609943   T   T   T
  0.7699195118347996  0.6727059823502483  0.1109735729778285   T   T   T
  0.7668558052656423  0.8141831156848871  0.1109788046422810   T   T   T
  0.9542666239516290  0.9059652702459542  0.1109778913471998   T   T   T
  0.9521573102629581  0.0478440916550404  0.1109909667397495   T   T   T
  0.9510738021982632  0.1902315695629397  0.1109947612427007   T   T   T
  0.9511913880628702  0.3330933744290672  0.1109780562217612   T   T   T
  0.9527221303779013  0.4760672985843973  0.1109632984112000   T   T   T
  0.9543461834064868  0.6192500382649232  0.1110491003985805   T   T   T
  0.9549028757051130  0.7627022385387732  0.1110326329108443   T   T   T
  0.0960703281421809  0.9039310737758107  0.1109970443059872   T   T   T
  0.0940361316720445  0.0457347779663769  0.1109778913471998   T   T   T
  0.0919362757529782  0.1876872126605750  0.1109469748805546   T   T   T
  0.0925256495883833  0.3317093031597875  0.1109913839726155   T   T   T
  0.0943459782497638  0.4753298545308566  0.1110113234365561   T   T   T
  0.0963528849749848  0.6184917465777755  0.1110165235593617   T   T   T
  0.0966891603102059  0.7613367875411070  0.1110176553824024   T   T   T
  0.2386646143768991  0.9033122416077924  0.1110176553824024   T   T   T
  0.2372991633792330  0.0450985262128997  0.1110326329108443   T   T   T
  0.2334867280832401  0.1851246996570772  0.1109459206119357   T   T   T
  0.2307153041390768  0.3268951774684354  0.1109965737922635   T   T   T
  0.2351193456061879  0.4740479870497098  0.1110892782383541   T   T   T
  0.2389406088317363  0.6180133076520598  0.1110741216805469   T   T   T
  0.2391279382943975  0.7608734636236009  0.1110039143839897   T   T   T
  0.3815096553402301  0.9036485169430071  0.1110165235593617   T   T   T
  0.3807513636530681  0.0456552185115190  0.1110491003985805   T   T   T
  0.3789331104336332  0.1866157903474187  0.1109753390923698   T   T   T
  0.3721296951832046  0.3235793221867355  0.1109571166344712   T   T   T
  0.3677561317828582  0.4653225584243630  0.1110549868859638   T   T   T
  0.3824650782941072  0.6175363236238837  0.1111142300098155   T   T   T
  0.3819880942659387  0.7610607930862622  0.1110741216805469   T   T   T
  0.5246715473861332  0.9056554236682348  0.1110113234365561   T   T   T
  0.5239341033325992  0.0472792715401113  0.1109632984112000   T   T   T
  0.5231965777301796  0.1888600188254670  0.1109620771783064   T   T   T
  0.5215747072761836  0.3298260896314851  0.1109936150311395   T   T   T
  0.5346788434926338  0.6322452701351408  0.1110549868859638   T   T   T
  0.5259534148672796  0.7648820563118320  0.1110892782383541   T   T   T
  0.6682920987572023  0.9074757523296152  0.1109913839726155   T   T   T
  0.6669080274879224  0.0488100138551426  0.1109780562217612   T   T   T
  0.6662660298826125  0.1911177149194725  0.1109394234866092   T   T   T
  0.6658456696628343  0.3341557322541623  0.1109360641625487   T   T   T
  0.6701753122855114  0.4784266946408202  0.1109936150311395   T   T   T
  0.6764220797302616  0.6278717067348011  0.1109571166344712   T   T   T
  0.6731062244485611  0.7692860977789218  0.1109965737922635   T   T   T
  0.8123141892574236  0.9080651261650347  0.1109469748805546   T   T   T
  0.8097698323550661  0.0489275997197494  0.1109947612427007   T   T   T
  0.8089161490740417  0.1910852528439498  0.1110215959662376   T   T   T
  0.8088836869985263  0.3337353720343841  0.1109394234866092   T   T   T
  0.8111413830925314  0.4768048241868171  0.1109620771783064   T   T   T
  0.8133856115705802  0.6210682914843721  0.1109753390923698   T   T   T
  0.8148767022609216  0.7665146738347726  0.1109459206119357   T   T   T

  0.00000000E+00  0.00000000E+00  0.00000000E+00
  0.00000000E+00  0.00000000E+00  0.00000000E+00
  0.00000000E+00  0.00000000E+00  0.00000000E+00
  0.00000000E+00  0.00000000E+00  0.00000000E+00
  0.00000000E+00  0.00000000E+00  0.00000000E+00
  0.00000000E+00  0.00000000E+00  0.00000000E+00
  0.00000000E+00  0.00000000E+00  0.00000000E+00
  0.00000000E+00  0.00000000E+00  0.00000000E+00
  0.00000000E+00  0.00000000E+00  0.00000000E+00
  0.00000000E+00  0.00000000E+00  0.00000000E+00
  0.00000000E+00  0.00000000E+00  0.00000000E+00
  0.00000000E+00  0.00000000E+00  0.00000000E+00
  0.00000000E+00  0.00000000E+00  0.00000000E+00
  0.00000000E+00  0.00000000E+00  0.00000000E+00
  0.00000000E+00  0.00000000E+00  0.00000000E+00
  0.00000000E+00  0.00000000E+00  0.00000000E+00
  0.00000000E+00  0.00000000E+00  0.00000000E+00
  0.00000000E+00  0.00000000E+00  0.00000000E+00
  0.00000000E+00  0.00000000E+00  0.00000000E+00
  0.00000000E+00  0.00000000E+00  0.00000000E+00
  0.00000000E+00  0.00000000E+00  0.00000000E+00
  0.00000000E+00  0.00000000E+00  0.00000000E+00
  0.00000000E+00  0.00000000E+00  0.00000000E+00
  0.00000000E+00  0.00000000E+00  0.00000000E+00
  0.00000000E+00  0.00000000E+00  0.00000000E+00
  0.00000000E+00  0.00000000E+00  0.00000000E+00
  0.00000000E+00  0.00000000E+00  0.00000000E+00
  0.00000000E+00  0.00000000E+00  0.00000000E+00
  0.00000000E+00  0.00000000E+00  0.00000000E+00
  0.00000000E+00  0.00000000E+00  0.00000000E+00
  0.00000000E+00  0.00000000E+00  0.00000000E+00
  0.00000000E+00  0.00000000E+00  0.00000000E+00
  0.00000000E+00  0.00000000E+00  0.00000000E+00
  0.00000000E+00  0.00000000E+00  0.00000000E+00
  0.00000000E+00  0.00000000E+00  0.00000000E+00
  0.00000000E+00  0.00000000E+00  0.00000000E+00
  0.00000000E+00  0.00000000E+00  0.00000000E+00
  0.00000000E+00  0.00000000E+00  0.00000000E+00
  0.00000000E+00  0.00000000E+00  0.00000000E+00
  0.00000000E+00  0.00000000E+00  0.00000000E+00
  0.00000000E+00  0.00000000E+00  0.00000000E+00
  0.00000000E+00  0.00000000E+00  0.00000000E+00
  0.00000000E+00  0.00000000E+00  0.00000000E+00
  0.00000000E+00  0.00000000E+00  0.00000000E+00
  0.00000000E+00  0.00000000E+00  0.00000000E+00
  0.00000000E+00  0.00000000E+00  0.00000000E+00
  0.00000000E+00  0.00000000E+00  0.00000000E+00
  0.00000000E+00  0.00000000E+00  0.00000000E+00
  0.00000000E+00  0.00000000E+00  0.00000000E+00
  0.00000000E+00  0.00000000E+00  0.00000000E+00
  0.00000000E+00  0.00000000E+00  0.00000000E+00
  0.00000000E+00  0.00000000E+00  0.00000000E+00
  0.00000000E+00  0.00000000E+00  0.00000000E+00
  0.00000000E+00  0.00000000E+00  0.00000000E+00
  0.00000000E+00  0.00000000E+00  0.00000000E+00
  0.00000000E+00  0.00000000E+00  0.00000000E+00
  0.00000000E+00  0.00000000E+00  0.00000000E+00
  0.00000000E+00  0.00000000E+00  0.00000000E+00
  0.00000000E+00  0.00000000E+00  0.00000000E+00
  0.00000000E+00  0.00000000E+00  0.00000000E+00
  0.00000000E+00  0.00000000E+00  0.00000000E+00
  0.00000000E+00  0.00000000E+00  0.00000000E+00
  0.00000000E+00  0.00000000E+00  0.00000000E+00
  0.00000000E+00  0.00000000E+00  0.00000000E+00
  0.00000000E+00  0.00000000E+00  0.00000000E+00
  0.00000000E+00  0.00000000E+00  0.00000000E+00
  0.00000000E+00  0.00000000E+00  0.00000000E+00
  0.00000000E+00  0.00000000E+00  0.00000000E+00
  0.00000000E+00  0.00000000E+00  0.00000000E+00
  0.00000000E+00  0.00000000E+00  0.00000000E+00
  0.00000000E+00  0.00000000E+00  0.00000000E+00
  0.00000000E+00  0.00000000E+00  0.00000000E+00
  0.00000000E+00  0.00000000E+00  0.00000000E+00
  0.00000000E+00  0.00000000E+00  0.00000000E+00
  0.00000000E+00  0.00000000E+00  0.00000000E+00
  0.00000000E+00  0.00000000E+00  0.00000000E+00
  0.00000000E+00  0.00000000E+00  0.00000000E+00
  0.00000000E+00  0.00000000E+00  0.00000000E+00
  0.00000000E+00  0.00000000E+00  0.00000000E+00
  0.00000000E+00  0.00000000E+00  0.00000000E+00
  0.00000000E+00  0.00000000E+00  0.00000000E+00
  0.00000000E+00  0.00000000E+00  0.00000000E+00
  0.00000000E+00  0.00000000E+00  0.00000000E+00
  0.00000000E+00  0.00000000E+00  0.00000000E+00
  0.00000000E+00  0.00000000E+00  0.00000000E+00
  0.00000000E+00  0.00000000E+00  0.00000000E+00
  0.00000000E+00  0.00000000E+00  0.00000000E+00
  0.00000000E+00  0.00000000E+00  0.00000000E+00
  0.00000000E+00  0.00000000E+00  0.00000000E+00
  0.00000000E+00  0.00000000E+00  0.00000000E+00
  0.00000000E+00  0.00000000E+00  0.00000000E+00
  0.00000000E+00  0.00000000E+00  0.00000000E+00
  0.00000000E+00  0.00000000E+00  0.00000000E+00
  0.00000000E+00  0.00000000E+00  0.00000000E+00
  0.00000000E+00  0.00000000E+00  0.00000000E+00
  0.00000000E+00  0.00000000E+00  0.00000000E+00
  0.00000000E+00  0.00000000E+00  0.00000000E+00
