 N B 
 1.0
 14.936314146199660   0.000000000000000   0.000000000000000
 -7.468157073099825  12.935227489513863   0.000000000000000
  0.000000000000001   0.000000000000001  13.341276283792837
 N B 
 144 143
Cartesian
  3.605422760963236   4.956086799254242   5.002978606422314 
  1.244802352407916   0.718535088564338   1.671648372599176 
  4.979208504110803   7.186195059418099   1.689170301921550 
  6.223003915895893   0.718686388327717   1.673243127192215 
  9.957930536172936   7.186537102581881   1.670739450166293 
 11.201912147836911   0.718436998652748   1.670095488384749 
 -3.733887656384689   9.342218947141397   8.335878688980134 
  1.244516936560542   9.341678781356714   8.332714085652412 
  2.489593274773314   2.874665478190292   8.324959991696860 
  6.223895320536868   9.342050368601930   8.332076324915858 
  7.467797810216676   2.874783333950950   8.330344464177543 
 12.446838260300357   2.874576202575755   8.336158515273473 
 -1.244808193013263   9.342022237568834   1.670435062837240 
  0.000143764785203   2.874578000307138   1.672887614511101 
  4.978473977482254   2.875008641223384   1.683627950030590 
  3.734148611652726   9.341653443502574   1.675612748667070 
  8.713303273128467   9.342294758660312   1.670739450166293 
  9.957272833486282   2.874632057634519   1.670359426544237 
 -4.978590922642508  11.497980393656407   8.335468990385618 
 -0.000412522609975  11.497741820639041   8.335752265140268 
  1.244944277848333   5.030460778454015   8.324959991696860 
  6.223646039028410   5.030766022095022   8.316786910923076 
  4.978755114154522  11.497677693899123   8.335597786300392 
 11.202325122673379   5.030601055768729   8.336244911343890 
 -1.244714874622070   5.030505412098288   1.671648372599176 
 -2.489518280185991  11.497923349245500   1.670435062837240 
  2.489004201953224  11.497544016298518   1.670587868344804 
  3.733911112649799   5.030269583688227   1.681464400377190 
  7.468405180903967  11.497940106308020   1.669712301500739 
  8.713014911878188   5.030768770283650   1.673880887928770 
  0.000042054737584   7.186175326063966   8.331322745928489 
  1.244802352407916   0.718535088564339   8.334308840245466 
  4.979208504110804   7.186195059418100   8.316786910923076 
  6.223003915895894   0.718686388327718   8.332714085652412 
  9.957930536172936   7.186537102581882   8.335217762678335 
 -2.489295112332541   7.186393575131174   1.670488222459011 
 11.201912147836911   0.718436998652749   8.335861724459878 
  3.734045724755779   0.718691253943754   1.674634466916139 
  2.489681817107050   7.185723112472378   1.683627950030590 
  7.468675900988536   7.186537039595589   1.677412626598376 
  8.712281609187585   0.718511357373021   1.670587868344804 
  2.489681817107050   7.185723112472379   8.322329262814051 
 13.691646528761494   0.718505035919211   1.669798697571141 
 -1.244808193013263   9.342022237568834   8.335522150007399 
  0.000143764785204   2.874578000307139   8.333069598333513 
  4.978473977482255   2.875008641223385   8.322329262814051 
  3.734148611652726   9.341653443502574   8.330344464177543 
  8.713303273128467   9.342294758660312   8.335217762678335 
  9.957272833486282   2.874632057634520   8.335597786300392 
 -3.733887656384690   9.342218947141397   1.670078523864494 
  1.244516936560541   9.341678781356714   1.673243127192215 
  2.489593274773314   2.874665478190291   1.680997221147781 
  6.223895320536867   9.342050368601930   1.673880887928770 
  7.467797810216675   2.874783333950949   1.675612748667070 
 12.446838260300357   2.874576202575754   1.669798697571141 
 -1.244714874622070   5.030505412098289   8.334308840245466 
 -2.489518280185991  11.497923349245500   8.335522150007399 
  2.489004201953225  11.497544016298518   8.335369344499824 
  3.733911112649799   5.030269583688228   8.324492812467424 
  7.468405180903968  11.497940106308020   8.336244911343890 
 -4.978590922642509  11.497980393656407   1.670488222459011 
  8.713014911878188   5.030768770283651   8.332076324915858 
 -0.000412522609975  11.497741820639041   1.670204947704373 
  1.244944277848332   5.030460778454014   1.680997221147781 
  0.000042054737584   7.186175326063966   1.674634466916139 
  6.223646039028409   5.030766022095021   1.689170301921550 
  4.978755114154521  11.497677693899123   1.670359426544237 
 11.202325122673379   5.030601055768728   1.669712301500739 
 -2.489295112332540   7.186393575131175   8.335468990385618 
  3.734045724755779   0.718691253943755   8.331322745928489 
  7.468675900988537   7.186537039595589   8.328544586246252 
  8.712281609187585   0.718511357373022   8.335369344499824 
 13.691646528761494   0.718505035919212   8.336158515273473 
 -0.031225625657636   1.414279977728516   5.002978606422314 
  3.788559068076184   7.810078573476518   5.002978606422314 
  4.952467878057363   1.510206132554877   5.002978606422314 
  8.758402567125593   7.931161077470948   5.002978606422314 
  9.938208496706729   1.437560926763388   5.002978606422314 
 -4.978870403815793  10.060742340239113  11.673616748318732 
  0.000101544251411  10.060762880199004  11.673616748318732 
  1.244667489151032   3.593104107582707  11.673616748318732 
  4.978710592614704  10.060763877449862  11.673616748318732 
  6.223441948495009   3.593121239426138  11.673616748318732 
 11.202241357410731   3.593070552431936  11.673616748318732 
 -2.464076323066695  10.075344862252662   5.002978606422314 
 -1.280196115085529   3.577560322571808   5.002978606422314 
  3.624198500316719   3.666078925009411   5.002978606422314 
  2.510664156421866  10.021884965311498   5.002978606422314 
  7.488876751660012  10.069859953254795   5.002978606422314 
  8.695496864885122   3.612304794182470   5.002978606422314 
 -6.223553209580034  12.216653609677834  11.673616748318732 
 -1.244615756303630  12.216676485820331  11.673616748318732 
  0.000022694118071   5.748909948103123  11.673616748318732 
  4.978730307232179   5.748966280772773  11.673616748318732 
  3.734063909696660  12.216627882044751  11.673616748318732 
  9.957515364036276   5.748885466916658  11.673616748318732 
 -2.485979954296437   5.747320786946216   5.002978606422314 
 -3.724589009855947  12.246518745340376   5.002978606422314 
  1.243515410351359  12.215923947586759   5.002978606422314 
  2.497631040461948   5.617351003631700   5.002978606422314 
  6.211520058611089  12.199740351810302   5.002978606422314 
  7.504746575594439   5.793323916678441   5.002978606422314 
 -1.244636183766224   7.904785461162109  11.673616748318732 
 -0.000071155975492   1.437247632782815  11.673616748318732 
  3.734069555434662   7.904840703166012  11.673616748318732 
  4.978791078895727   1.437343298746745  11.673616748318732 
  8.712731932648495   7.904793124361520  11.673616748318732 
 -3.702128189679398   7.917401902663297   5.002978606422314 
  9.957556358247007   1.437222760634234  11.673616748318732 
  2.466439859866056   1.443662505349393   5.002978606422314 
  1.294725123738900   7.845602424051425   5.002978606422314 
  6.280153280959384   7.914381721594533   5.002978606422314 
  7.445153360942658   1.475098953681293   5.002978606422314 
  1.244785659088516   7.904830401590434  11.673616748318732 
 12.421807846429724   1.422744108618648   5.002978606422314 
 -2.489357150618517  10.060748969660292  11.673616748318732 
 -1.244728307502076   3.593057057230829  11.673616748318732 
  3.734079835630574   3.593131671563421  11.673616748318732 
  2.489408843951849  10.060762586962158  11.673616748318732 
  7.468052848781809  10.060761026875635  11.673616748318732 
  8.712846704622411   3.593050409074759  11.673616748318732 
 -4.951935679295195  10.082131974357981   5.002978606422314 
  0.026105200395840  10.048967610036945   5.002978606422314 
  1.179632326582751   3.555556038967102   5.002978606422314 
  4.986710459383592  10.036111282931913   5.002978606422314 
  6.168620293187955   3.687691606458276   5.002978606422314 
 11.181659402514001   3.591206487473356   5.002978606422314 
 -2.489386993707278   5.748887999878961  11.673616748318732 
 -3.734115835183995  12.216690701826577  11.673616748318732 
  1.244740638446717  12.216631333357409  11.673616748318732 
  2.489397533498347   5.748984658138251  11.673616748318732 
  6.223425363667896  12.216632815131115  11.673616748318732 
 -6.223206936087533  12.220387798825726   5.002978606422314 
  7.468062313994158   5.748902663661066  11.673616748318732 
 -1.241828931836274  12.245093947713736   5.002978606422314 
 -0.005917356976612   5.725910819380507   5.002978606422314 
 -1.214040927674061   7.898121912156715   5.002978606422314 
  3.724682839385066  12.199703059377386   5.002978606422314 
  9.975807216866896   5.762370032625538   5.002978606422314 
 -3.734119518464308   7.904770564043982  11.673616748318732 
  2.489327715152098   1.437307176135846  11.673616748318732 
  6.223341216578254   7.904822845638314  11.673616748318732 
  7.468194712695855   1.437252502291527  11.673616748318732 
 12.446913053294887   1.437238606560312  11.673616748318732 
  1.217442168169675   0.708924979063173   5.002978606422314 
  5.075680264586007   7.251557520647355   5.002978606422314 
  6.210538853467580   0.750827543452372   5.002978606422314 
  9.998772097640583   7.201402954917657   5.002978606422314 
 11.180410769923599   0.706023172326540   5.002978606422314 
 -3.734059182641171   9.342119916411056  11.673616748318732 
  1.244480648340543   9.342764403026447  11.673616748318732 
  2.488872706567510   2.873839631537999  11.673616748318732 
  6.223586938429994   9.342854607444750  11.673616748318732 
  7.468944940752935   2.873943072601574  11.673616748318732 
 12.446606547835946   2.874183825539173  11.673616748318732 
 -1.223764307340148   9.342970766956572   5.002978606422314 
 -0.071555662337260   2.833182316757242   5.002978606422314 
  4.956319436404923   2.932613235993351   5.002978606422314 
  3.755948698196207   9.313325925838123   5.002978606422314 
  8.746598259633963   9.370231662253657   5.002978606422314 
  9.942349746666091   2.872427256641733   5.002978606422314 
 -4.978899203073299  11.497818848472338  11.673616748318732 
  0.000166565640305  11.498076157396211  11.673616748318732 
  1.243868789564913   5.030249671408775  11.673616748318732 
  6.224128693062307   5.030199305408465  11.673616748318732 
  4.978689730347382  11.498541776526551  11.673616748318732 
 11.202329611565787   5.030119235241497  11.673616748318732 
 -1.266717565702350   5.011615852246331   5.002978606422314 
 -2.478174886803415  11.515673624138882   5.002978606422314 
  2.487799741623520  11.481451181037242   5.002978606422314 
  7.468898840715385  11.504945388659314   5.002978606422314 
  8.752723129742336   5.040333570274299   5.002978606422314 
 -0.000571997897950   7.186495676986888  11.673616748318732 
  1.244159837723922   0.718175605582982  11.673616748318732 
  4.978959040080460   7.186896408415947  11.673616748318732 
  6.223925947730773   0.718112150972488  11.673616748318732 
  9.957846845206557   7.186224772279082  11.673616748318732 
 -2.467331133493321   7.186517948354375   5.002978606422314 
 11.202263085495234   0.718639612604250  11.673616748318732 
  3.722966727531857   0.739805398087357   5.002978606422314 
  2.528491589013883   7.137734419705242   5.002978606422314 
  7.541961205756045   7.228848330030771   5.002978606422314 
  8.697742574867556   0.725514681760271   5.002978606422314 
  2.489007545975571   7.186888458866015  11.673616748318732 
 13.659332529284869   0.696780169297969   5.002978606422314 
 -1.244813163023924   9.342289404510151  11.673616748318732 
 -0.000848565714596   2.874005078025963  11.673616748318732 
  4.979146061497620   2.873842032097654  11.673616748318732 
  3.733994489246486   9.343067018363106  11.673616748318732 
  8.712990941668679   9.342378445308761  11.673616748318732 
  9.957988459089032   2.874143392282831  11.673616748318732 
 -3.706908784091548   9.357795206322303   5.002978606422314 
  1.266119462191311   9.314813143071708   5.002978606422314 
  2.388929738747340   2.845329431141518   5.002978606422314 
  6.252032789242953   9.371656294015974   5.002978606422314 
  7.454165503564857   2.907826521534514   5.002978606422314 
 12.411866974174229   2.857453891441726   5.002978606422314 
 -1.245347453358143   5.030128719550310  11.673616748318732 
 -2.489289391833099  11.497785461619367  11.673616748318732 
  2.489432656462914  11.498470777372058  11.673616748318732 
  3.733957001710414   5.030296077749710  11.673616748318732 
  7.467990156533523  11.498184904066498  11.673616748318732 
 -4.967501222852065  11.516939570687768   5.002978606422314 
  8.713557212093344   5.030099584123615  11.673616748318732 
  0.004214553534195  11.500413264296439   5.002978606422314 
  1.169206747844492   4.957951622545138   5.002978606422314 
  0.012787941333141   7.166023560947805   5.002978606422314 
  6.328487471144427   5.081631786799716   5.002978606422314 
  4.969384157074381  11.485856322106352   5.002978606422314 
 11.208638705055977   5.027525936530625   5.002978606422314 
 -2.489589154781191   7.186207369038642  11.673616748318732 
  3.734016130475387   0.717999293300662  11.673616748318732 
  7.468669952200471   7.186533605061215  11.673616748318732 
  8.713298435075345   0.718419029326022  11.673616748318732 
 13.691190864047755   0.718500555556936  11.673616748318732 
 -0.000985115562780   1.435720151725818   1.664038201337909 
  3.734000783940721   7.907280550106496   1.669535910882854 
  4.979099542567774   1.434166145582470   1.666911393474724 
  8.715543540806632   7.906416407088463   1.664533667945785 
  9.957640646727373   1.436802677193407   1.664510378895836 
 -4.977655809972910  10.060815636349927   8.341454907145931 
 -0.001448388838439  10.061229394493472   8.341047738172813 
  1.242258214766095   3.591713112367994   8.340922166116856 
  4.979422191077927  10.062396021083714   8.341009095473826 
  6.225520532179830   3.591841758095114   8.336421301961787 
 11.202326557288281   3.593288941136206   8.342001406957978 
 -2.489712350560464  10.060543894878190   1.664689793307653 
 -1.246508124694886   3.593029285538715   1.664038201337909 
  3.733857356384243   3.591745168779460   1.663159697808840 
  2.488319725058284  10.062074045085476   1.665264738694086 
  7.469844514628439  10.061797543845636   1.664074944608986 
  8.714615981703565   3.592850599604277   1.664948117370802 
 -6.223188010177472  12.215417992696004   8.341734132050943 
 -1.244986709618325  12.215100947243133   8.341047738172813 
 -0.003047484833589   5.749931556342982   8.339942975920481 
  4.979654698055101   5.749499978063224   8.332803170014561 
  3.733742251005378  12.216910919730404   8.341446833948792 
  9.959308846987057   5.749918836569944   8.341882268235642 
 -2.490274469701630   5.749822080329979   1.664223080793685 
 -3.733968795658070  12.214499491946723   1.665089074973866 
  1.244076292773845  12.216247773204366   1.664527485820341 
  2.488085547241838   5.749485236851118   1.663159697808840 
  6.223657093772468  12.216597406037334   1.663955805886635 
  7.471369217084842   5.750139296104714   1.668295200997347 
 -1.246460307424245   7.906008406066860   8.340868137870775 
 -0.000985115562780   1.435720151725819   8.341919011506718 
  3.734000783940722   7.907280550106496   8.336421301961787 
  4.979099542567775   1.434166145582470   8.339045819369904 
  8.715543540806632   7.906416407088464   8.341423544898856 
 -3.733448745248881   7.905785785111752   1.664502305698684 
  9.957640646727373   1.436802677193408   8.341446833948792 
  2.488677364364692   1.434137519049627   1.666014236924148 
  1.242188395572565   7.906686115548708   1.666911393474724 
  6.226065623234948   7.907068391500862   1.668295200997347 
  7.468785909299859   1.435653568600312   1.665264738694086 
  1.242188395572565   7.906686115548709   8.339045819369904 
 12.446374912090574   1.436927910591139   1.664296774886580 
 -2.489712350560464  10.060543894878190   8.341267419536988 
 -1.246508124694886   3.593029285538716   8.341919011506718 
  3.733857356384244   3.591745168779461   8.342797515035773 
  2.488319725058285  10.062074045085476   8.340692474150556 
  7.469844514628440  10.061797543845636   8.341882268235642 
  8.714615981703565   3.592850599604278   8.341009095473826 
 -4.977655809972911  10.060815636349927   1.664502305698684 
 -0.001448388838439  10.061229394493472   1.664909474671802 
  1.242258214766094   3.591713112367994   1.665035046727758 
  4.979422191077926  10.062396021083714   1.664948117370802 
  6.225520532179829   3.591841758095113   1.669535910882854 
 11.202326557288281   3.593288941136205   1.663955805886635 
 -2.490274469701629   5.749822080329980   8.341734132050943 
 -3.733968795658070  12.214499491946723   8.340868137870775 
  1.244076292773845  12.216247773204366   8.341429727024288 
  2.488085547241839   5.749485236851119   8.342797515035773 
  6.223657093772469  12.216597406037334   8.342001406957978 
 -6.223188010177473  12.215417992696004   1.664223080793685 
  7.471369217084843   5.750139296104715   8.337662011847282 
 -1.244986709618326  12.215100947243133   1.664909474671802 
 -0.003047484833590   5.749931556342981   1.666014236924148 
 -1.246460307424246   7.906008406066859   1.665089074973866 
  4.979654698055100   5.749499978063223   1.673154042830066 
  3.733742251005378  12.216910919730404   1.664510378895836 
  9.959308846987057   5.749918836569943   1.664074944608986 
 -3.733448745248880   7.905785785111753   8.341454907145931 
  2.488677364364693   1.434137519049628   8.339942975920481 
  6.226065623234949   7.907068391500863   8.337662011847282 
  7.468785909299860   1.435653568600312   8.340692474150556 
 12.446374912090574   1.436927910591139   8.341660437958048 
Generated by cif2cell 2.0.0.  :  Failed to get author information, No journal information. Species order: N B 
 1.0
 14.936314146199660   0.000000000000000   0.000000000000000
 -7.468157073099825  12.935227489513863   0.000000000000000
  0.000000000000001   0.000000000000001  13.341276283792837
 N B 
 144 143
Cartesian
  3.605422760963236   4.956086799254242   5.002978606422314 
  1.244802352407916   0.718535088564338   1.671648372599176 
  4.979208504110803   7.186195059418099   1.689170301921550 
  6.223003915895893   0.718686388327717   1.673243127192215 
  9.957930536172936   7.186537102581881   1.670739450166293 
 11.201912147836911   0.718436998652748   1.670095488384749 
 -3.733887656384689   9.342218947141397   8.335878688980134 
  1.244516936560542   9.341678781356714   8.332714085652412 
  2.489593274773314   2.874665478190292   8.324959991696860 
  6.223895320536868   9.342050368601930   8.332076324915858 
  7.467797810216676   2.874783333950950   8.330344464177543 
 12.446838260300357   2.874576202575755   8.336158515273473 
 -1.244808193013263   9.342022237568834   1.670435062837240 
  0.000143764785203   2.874578000307138   1.672887614511101 
  4.978473977482254   2.875008641223384   1.683627950030590 
  3.734148611652726   9.341653443502574   1.675612748667070 
  8.713303273128467   9.342294758660312   1.670739450166293 
  9.957272833486282   2.874632057634519   1.670359426544237 
 -4.978590922642508  11.497980393656407   8.335468990385618 
 -0.000412522609975  11.497741820639041   8.335752265140268 
  1.244944277848333   5.030460778454015   8.324959991696860 
  6.223646039028410   5.030766022095022   8.316786910923076 
  4.978755114154522  11.497677693899123   8.335597786300392 
 11.202325122673379   5.030601055768729   8.336244911343890 
 -1.244714874622070   5.030505412098288   1.671648372599176 
 -2.489518280185991  11.497923349245500   1.670435062837240 
  2.489004201953224  11.497544016298518   1.670587868344804 
  3.733911112649799   5.030269583688227   1.681464400377190 
  7.468405180903967  11.497940106308020   1.669712301500739 
  8.713014911878188   5.030768770283650   1.673880887928770 
  0.000042054737584   7.186175326063966   8.331322745928489 
  1.244802352407916   0.718535088564339   8.334308840245466 
  4.979208504110804   7.186195059418100   8.316786910923076 
  6.223003915895894   0.718686388327718   8.332714085652412 
  9.957930536172936   7.186537102581882   8.335217762678335 
 -2.489295112332541   7.186393575131174   1.670488222459011 
 11.201912147836911   0.718436998652749   8.335861724459878 
  3.734045724755779   0.718691253943754   1.674634466916139 
  2.489681817107050   7.185723112472378   1.683627950030590 
  7.468675900988536   7.186537039595589   1.677412626598376 
  8.712281609187585   0.718511357373021   1.670587868344804 
  2.489681817107050   7.185723112472379   8.322329262814051 
 13.691646528761494   0.718505035919211   1.669798697571141 
 -1.244808193013263   9.342022237568834   8.335522150007399 
  0.000143764785204   2.874578000307139   8.333069598333513 
  4.978473977482255   2.875008641223385   8.322329262814051 
  3.734148611652726   9.341653443502574   8.330344464177543 
  8.713303273128467   9.342294758660312   8.335217762678335 
  9.957272833486282   2.874632057634520   8.335597786300392 
 -3.733887656384690   9.342218947141397   1.670078523864494 
  1.244516936560541   9.341678781356714   1.673243127192215 
  2.489593274773314   2.874665478190291   1.680997221147781 
  6.223895320536867   9.342050368601930   1.673880887928770 
  7.467797810216675   2.874783333950949   1.675612748667070 
 12.446838260300357   2.874576202575754   1.669798697571141 
 -1.244714874622070   5.030505412098289   8.334308840245466 
 -2.489518280185991  11.497923349245500   8.335522150007399 
  2.489004201953225  11.497544016298518   8.335369344499824 
  3.733911112649799   5.030269583688228   8.324492812467424 
  7.468405180903968  11.497940106308020   8.336244911343890 
 -4.978590922642509  11.497980393656407   1.670488222459011 
  8.713014911878188   5.030768770283651   8.332076324915858 
 -0.000412522609975  11.497741820639041   1.670204947704373 
  1.244944277848332   5.030460778454014   1.680997221147781 
  0.000042054737584   7.186175326063966   1.674634466916139 
  6.223646039028409   5.030766022095021   1.689170301921550 
  4.978755114154521  11.497677693899123   1.670359426544237 
 11.202325122673379   5.030601055768728   1.669712301500739 
 -2.489295112332540   7.186393575131175   8.335468990385618 
  3.734045724755779   0.718691253943755   8.331322745928489 
  7.468675900988537   7.186537039595589   8.328544586246252 
  8.712281609187585   0.718511357373022   8.335369344499824 
 13.691646528761494   0.718505035919212   8.336158515273473 
 -0.031225625657636   1.414279977728516   5.002978606422314 
  3.788559068076184   7.810078573476518   5.002978606422314 
  4.952467878057363   1.510206132554877   5.002978606422314 
  8.758402567125593   7.931161077470948   5.002978606422314 
  9.938208496706729   1.437560926763388   5.002978606422314 
 -4.978870403815793  10.060742340239113  11.673616748318732 
  0.000101544251411  10.060762880199004  11.673616748318732 
  1.244667489151032   3.593104107582707  11.673616748318732 
  4.978710592614704  10.060763877449862  11.673616748318732 
  6.223441948495009   3.593121239426138  11.673616748318732 
 11.202241357410731   3.593070552431936  11.673616748318732 
 -2.464076323066695  10.075344862252662   5.002978606422314 
 -1.280196115085529   3.577560322571808   5.002978606422314 
  3.624198500316719   3.666078925009411   5.002978606422314 
  2.510664156421866  10.021884965311498   5.002978606422314 
  7.488876751660012  10.069859953254795   5.002978606422314 
  8.695496864885122   3.612304794182470   5.002978606422314 
 -6.223553209580034  12.216653609677834  11.673616748318732 
 -1.244615756303630  12.216676485820331  11.673616748318732 
  0.000022694118071   5.748909948103123  11.673616748318732 
  4.978730307232179   5.748966280772773  11.673616748318732 
  3.734063909696660  12.216627882044751  11.673616748318732 
  9.957515364036276   5.748885466916658  11.673616748318732 
 -2.485979954296437   5.747320786946216   5.002978606422314 
 -3.724589009855947  12.246518745340376   5.002978606422314 
  1.243515410351359  12.215923947586759   5.002978606422314 
  2.497631040461948   5.617351003631700   5.002978606422314 
  6.211520058611089  12.199740351810302   5.002978606422314 
  7.504746575594439   5.793323916678441   5.002978606422314 
 -1.244636183766224   7.904785461162109  11.673616748318732 
 -0.000071155975492   1.437247632782815  11.673616748318732 
  3.734069555434662   7.904840703166012  11.673616748318732 
  4.978791078895727   1.437343298746745  11.673616748318732 
  8.712731932648495   7.904793124361520  11.673616748318732 
 -3.702128189679398   7.917401902663297   5.002978606422314 
  9.957556358247007   1.437222760634234  11.673616748318732 
  2.466439859866056   1.443662505349393   5.002978606422314 
  1.294725123738900   7.845602424051425   5.002978606422314 
  6.280153280959384   7.914381721594533   5.002978606422314 
  7.445153360942658   1.475098953681293   5.002978606422314 
  1.244785659088516   7.904830401590434  11.673616748318732 
 12.421807846429724   1.422744108618648   5.002978606422314 
 -2.489357150618517  10.060748969660292  11.673616748318732 
 -1.244728307502076   3.593057057230829  11.673616748318732 
  3.734079835630574   3.593131671563421  11.673616748318732 
  2.489408843951849  10.060762586962158  11.673616748318732 
  7.468052848781809  10.060761026875635  11.673616748318732 
  8.712846704622411   3.593050409074759  11.673616748318732 
 -4.951935679295195  10.082131974357981   5.002978606422314 
  0.026105200395840  10.048967610036945   5.002978606422314 
  1.179632326582751   3.555556038967102   5.002978606422314 
  4.986710459383592  10.036111282931913   5.002978606422314 
  6.168620293187955   3.687691606458276   5.002978606422314 
 11.181659402514001   3.591206487473356   5.002978606422314 
 -2.489386993707278   5.748887999878961  11.673616748318732 
 -3.734115835183995  12.216690701826577  11.673616748318732 
  1.244740638446717  12.216631333357409  11.673616748318732 
  2.489397533498347   5.748984658138251  11.673616748318732 
  6.223425363667896  12.216632815131115  11.673616748318732 
 -6.223206936087533  12.220387798825726   5.002978606422314 
  7.468062313994158   5.748902663661066  11.673616748318732 
 -1.241828931836274  12.245093947713736   5.002978606422314 
 -0.005917356976612   5.725910819380507   5.002978606422314 
 -1.214040927674061   7.898121912156715   5.002978606422314 
  3.724682839385066  12.199703059377386   5.002978606422314 
  9.975807216866896   5.762370032625538   5.002978606422314 
 -3.734119518464308   7.904770564043982  11.673616748318732 
  2.489327715152098   1.437307176135846  11.673616748318732 
  6.223341216578254   7.904822845638314  11.673616748318732 
  7.468194712695855   1.437252502291527  11.673616748318732 
 12.446913053294887   1.437238606560312  11.673616748318732 
  1.217442168169675   0.708924979063173   5.002978606422314 
  5.075680264586007   7.251557520647355   5.002978606422314 
  6.210538853467580   0.750827543452372   5.002978606422314 
  9.998772097640583   7.201402954917657   5.002978606422314 
 11.180410769923599   0.706023172326540   5.002978606422314 
 -3.734059182641171   9.342119916411056  11.673616748318732 
  1.244480648340543   9.342764403026447  11.673616748318732 
  2.488872706567510   2.873839631537999  11.673616748318732 
  6.223586938429994   9.342854607444750  11.673616748318732 
  7.468944940752935   2.873943072601574  11.673616748318732 
 12.446606547835946   2.874183825539173  11.673616748318732 
 -1.223764307340148   9.342970766956572   5.002978606422314 
 -0.071555662337260   2.833182316757242   5.002978606422314 
  4.956319436404923   2.932613235993351   5.002978606422314 
  3.755948698196207   9.313325925838123   5.002978606422314 
  8.746598259633963   9.370231662253657   5.002978606422314 
  9.942349746666091   2.872427256641733   5.002978606422314 
 -4.978899203073299  11.497818848472338  11.673616748318732 
  0.000166565640305  11.498076157396211  11.673616748318732 
  1.243868789564913   5.030249671408775  11.673616748318732 
  6.224128693062307   5.030199305408465  11.673616748318732 
  4.978689730347382  11.498541776526551  11.673616748318732 
 11.202329611565787   5.030119235241497  11.673616748318732 
 -1.266717565702350   5.011615852246331   5.002978606422314 
 -2.478174886803415  11.515673624138882   5.002978606422314 
  2.487799741623520  11.481451181037242   5.002978606422314 
  7.468898840715385  11.504945388659314   5.002978606422314 
  8.752723129742336   5.040333570274299   5.002978606422314 
 -0.000571997897950   7.186495676986888  11.673616748318732 
  1.244159837723922   0.718175605582982  11.673616748318732 
  4.978959040080460   7.186896408415947  11.673616748318732 
  6.223925947730773   0.718112150972488  11.673616748318732 
  9.957846845206557   7.186224772279082  11.673616748318732 
 -2.467331133493321   7.186517948354375   5.002978606422314 
 11.202263085495234   0.718639612604250  11.673616748318732 
  3.722966727531857   0.739805398087357   5.002978606422314 
  2.528491589013883   7.137734419705242   5.002978606422314 
  7.541961205756045   7.228848330030771   5.002978606422314 
  8.697742574867556   0.725514681760271   5.002978606422314 
  2.489007545975571   7.186888458866015  11.673616748318732 
 13.659332529284869   0.696780169297969   5.002978606422314 
 -1.244813163023924   9.342289404510151  11.673616748318732 
 -0.000848565714596   2.874005078025963  11.673616748318732 
  4.979146061497620   2.873842032097654  11.673616748318732 
  3.733994489246486   9.343067018363106  11.673616748318732 
  8.712990941668679   9.342378445308761  11.673616748318732 
  9.957988459089032   2.874143392282831  11.673616748318732 
 -3.706908784091548   9.357795206322303   5.002978606422314 
  1.266119462191311   9.314813143071708   5.002978606422314 
  2.388929738747340   2.845329431141518   5.002978606422314 
  6.252032789242953   9.371656294015974   5.002978606422314 
  7.454165503564857   2.907826521534514   5.002978606422314 