 P N B 
 1.0
 17.527899999999772   0.000000000000000   0.000000000000000
 -8.763949999999658  15.179606674993195   0.000000000000000
  0.000000000000001   0.000000000000002  15.000000000000000
 P N B 
   1  49  48
Cartesian
  3.698206741195860   7.984595351261635   2.619565927710900 
  8.766910713971139  13.734154215418393   1.610318736815550 
 16.276846433347657   0.722327262260738   1.595937413432325 
 15.022883832282920   2.889498518379086   1.591892939858055 
 13.770123902249988   5.059868891664398   1.592437540938855 
 12.519699667252649   7.226961165980242   1.595595839246820 
 11.269975181297299   9.396028328285531   1.605825957717330 
 10.019004226345793  11.564963884140425   1.617994014036000 
 -6.258158809346416  13.732890423002136   1.605265243484835 
  1.253294929277754   0.720174302850628   1.610408817493815 
 -0.004707662554193   2.882443757579742   1.625383016068740 
 -1.256981105982405   5.055019672351926   1.640013595231965 
 -2.510398031947731   7.226622782372387   1.621043957420730 
 -3.757406482043876   9.396405353134961   1.606727018647170 
 -5.007286843987952  11.565056583709577   1.603091996261355 
 -3.755323665805894  13.733528304319979   1.603146256417080 
  3.757889640220577   0.720409780604635   1.617995056510590 
  2.504726066206671   2.885505541895685   1.666783361870010 
  1.236098751198550   5.036284444264168   1.737016511376720 
 -0.018269774455200   7.224147086522037   1.726644599116095 
 -1.257214361990615   9.396731982321427   1.658563058423145 
 -2.505229768009730  11.566161986944410   1.614755600466060 
 -1.252259242536370  13.735457115723989   1.606747438812450 
  6.261744510039071   0.721526767951348   1.605907036444965 
  5.011868938269222   2.886962455062451   1.651851791924415 
  3.762150375018058   5.050099190509164   1.782912285567450 
  2.432353918408216   7.173470057446269   1.962103996244745 
  1.241607501058376   9.402921849324855   1.800498404606535 
 -0.002441064611783  11.570055648479221   1.658611411149555 
  1.250327432820116  13.740404305739055   1.621144252156650 
  8.765072885140679   0.723782669499043   1.595718125270910 
  7.516693247041431   2.887939078953059   1.610719956576270 
  6.270457893318357   5.050788971697564   1.685538240368340 
  5.042831140549767   7.208263828889542   1.904989646453085 
  3.767715562419669   9.486434160936358   1.962194633627670 
  2.498558161343041  11.583383112375341   1.726613062524630 
  3.757707663123306  13.740706053098675   1.639926436787760 
 11.267008541378594   0.724444323677211   1.592485366407885 
 10.016702596582341   2.890037745069804   1.589585349425070 
  8.770502419636312   5.056096580641213   1.619942919232170 
  7.525065795315636   7.223838923843880   1.685546939650485 
  6.271498546966142   9.396468718572258   1.782810248144460 
  5.020466715883179  11.590985638872072   1.736968661550435 
  6.265358403838705  13.742514664703803   1.625366183404410 
 13.773018349140658   0.724689774019584   1.591946382043020 
 12.521195562526170   2.890639567465211   1.582189176400080 
 11.269511557619477   5.059868891664398   1.589558802692370 
 10.021296283695909   7.226014609102857   1.610627766475800 
  8.769670012122884   9.395724089922158   1.651819811976015 
  7.517404423251515  11.567727781694069   1.666830526767270 
  7.516816520597192  14.459451917853817   1.608079035092370 
 15.024923454336959   1.445113401978689   1.591344221405985 
 13.771866730297091   3.613034796199421   1.587583467661845 
 12.520246207132846   5.781659581495534   1.591198648826895 
 11.270293846572699   7.950374928478870   1.602481928375805 
 10.020274884290728  10.119737783328796   1.623310744253085 
  8.768337445701562  12.288864313396921   1.629305175130155 
 -7.509396752540058  14.455295357071616   1.606281338519220 
  0.000131536634114   1.440149882556312   1.608115499718675 
 -1.254246051558770   3.608884603809961   1.617769910828370 
 -2.507625378764533   5.780905201563892   1.616702859645285 
 -3.759730094841783   7.951337901214126   1.605616441608195 
 -5.007270620379621  10.119737783328796   1.603243131288915 
 -6.257875776703540  12.287908867102228   1.607027477240205 
 -5.006637727702564  14.455129117114124   1.607044707292680 
  2.505657017867703   1.441583655269668   1.629326331260445 
  1.244923081618849   3.598056011902050   1.674253234677840 
 -0.008829580683485   5.772542214669163   1.706153066204760 
 -1.265182375320892   7.952042571958734   1.664437083608100 
 -2.505915372459164  10.119737783328796   1.624956384963660 
 -3.755706034761315  12.288117553843488   1.604998431030990 
 -2.503645019454890  14.456178161141848   1.603303133347800 
  5.010130568238837   1.441937086585165   1.623345877319775 
  3.761381555052235   3.604833823325931   1.697858585145345 
  2.489906818802542   5.735016763623060   1.823684845309650 
  1.210358889014815   7.954388176853746   1.858705166836200 
  0.000000000000152  10.119737783328796   1.694729474980530 
 -1.252978713240566  12.289960575464070   1.624993974759045 
 -0.001965032424923  14.460002398957196   1.605681664062930 
  7.513882605275581   1.444097692284873   1.602564539808810 
  6.266487205465034   3.606868440462346   1.646594619032295 
  5.022479455316539   5.759405626640909   1.775515180175310 
  2.480436662998370  10.154255659776190   1.858714244451765 
  1.244714691366669  12.299297946832954   1.664471500057515 
  2.503751443129900  14.460852638454424   1.616708686041195 
 10.017035168170734   1.445964503434187   1.591284387885615 
  8.768411932527084   3.611449101279972   1.605090505895640 
  7.521762042804235   5.777077797428015   1.668711761719425 
  6.287418597081340   7.950322745713345   1.775476776679245 
  5.042241459209091  10.155796502189061   1.823619046096965 
  3.760399183686332  12.301016938965910   1.706125278812745 
  5.011460537599239  14.461387193621432   1.617769575008670 
 12.520916489951661   1.446336252410656   1.587615815212080 
 11.270183919737155   3.612913082385673   1.586310893541165 
 10.020573094181419   5.780257405496767   1.605053727554850 
  8.773561544212868   7.949261902501604   1.646569761509850 
  7.522756339768780  10.119737783328796   1.697867393414985 
  6.270409322409056  12.302475047423997   1.674243155463030 
