B N P                                   
   1.0000000000000000     
     8.7639499999999995  -15.1796066749929999    0.0000000000000000
     8.7639499999999995   15.1796066749929999    0.0000000000000000
     0.0000000000000000    0.0000000000000000   15.0000000000000000
   B    N    P 
    48    49     1
Selective dynamics
Direct
  0.9051275382507007  0.9525577458916804  0.1072052690061582   T   T   T
  0.9048009211587852  0.0952009780569189  0.1060896147603990   T   T   T
  0.9047206649099119  0.2380189996722056  0.1058388978441231   T   T   T
  0.9047455155992536  0.3808833591861246  0.1060799099217925   T   T   T
  0.9048685211399236  0.5237536847101759  0.1068321285583868   T   T   T
  0.9050090551420334  0.6666650715683883  0.1082207162835387   T   T   T
  0.9050323521400750  0.8095640800523203  0.1086203450086772   T   T   T
  0.0477166068428339  0.9522839205633169  0.1070854225679482   T   T   T
  0.0474445004251162  0.0948739920204128  0.1072076999812452   T   T   T
  0.0473156764886349  0.2377455938799269  0.1078513273885576   T   T   T
  0.0473520384939429  0.3808336622507696  0.1077801906430195   T   T   T
  0.0474088158217309  0.5238171232929983  0.1070410961072128   T   T   T
  0.0476590300579927  0.6666715782418904  0.1068828754192607   T   T   T
  0.0477268649122425  0.8095011372952938  0.1071351651493467   T   T   T
  0.1904982889698039  0.9522729690307081  0.1071363138195119   T   T   T
  0.1904367168512501  0.0949684458981752  0.1086217554173630   T   T   T
  0.1895413420118683  0.2370322294206390  0.1116168823118555   T   T   T
  0.1896376189311989  0.3802827265728053  0.1137435377469841   T   T   T
  0.1897507142445318  0.5238635454934996  0.1109624722405399   T   T   T
  0.1903660998108149  0.6666972002865700  0.1083304256642439   T   T   T
  0.1904872770145763  0.8095148851311716  0.1069998954020662   T   T   T
  0.3333296834597577  0.9523420778060658  0.1068868755565203   T   T   T
  0.3333347978421843  0.0949917291968179  0.1082230584879851   T   T   T
  0.3332494502491558  0.2374787371312140  0.1131905723430231   T   T   T
  0.3309592302036923  0.3778106301707340  0.1215789896873099   T   T   T
  0.3310623088995274  0.5240180689238650  0.1239136777890804   T   T   T
  0.3331690591283378  0.6668328163584013  0.1129819649987019   T   T   T
  0.3333056114513013  0.8096362994510582  0.1083329316506028   T   T   T
  0.4761848963706699  0.9525940104086185  0.1070454442708623   T   T   T
  0.4762483124990696  0.0951340652761357  0.1068376359872535   T   T   T
  0.4763213887857396  0.2376127733536258  0.1097729746021531   T   T   T
  0.4762506543413590  0.3794173162687365  0.1183676786783539   T   T   T
  0.4759839399808501  0.6689406304910563  0.1239142829634514   T   T   T
  0.4761390509880790  0.8102514254927797  0.1109647666705015   T   T   T
  0.6191687884260475  0.9526500223669935  0.1077805790694128   T   T   T
  0.6191194132478633  0.0952570467992604  0.1060856258590413   T   T   T
  0.6192118304711793  0.2379145374846545  0.1070060337263763   T   T   T
  0.6194215772727332  0.3805815210577981  0.1112474507812954   T   T   T
  0.6205843012832869  0.5237502470212658  0.1183651184452830   T   T   T
  0.6221905250248426  0.6690421378914694  0.1215746030731305   T   T   T
  0.6197202531224126  0.8103646690154723  0.1137416852541832   T   T   T
  0.7622559648726807  0.9526852377173282  0.1078513050005781   T   T   T
  0.7619828453277236  0.0952815368262039  0.1058410543474723   T   T   T
  0.7619908979633241  0.2380109814266513  0.1057540595694106   T   T   T
  0.7620882286657477  0.3807909868322960  0.1070035818369896   T   T   T
  0.7623885373308276  0.5236803609409180  0.1097713174339904   T   T   T
  0.7625208766082682  0.6667512627456269  0.1131911595609987   T   T   T
  0.7629691293730497  0.8104607260800133  0.1116162103642024   T   T   T
  0.9525572571348951  0.9047766855543085  0.1073545824543695   T   T   T
  0.9524177039267172  0.0475853740960691  0.1063958275621551   T   T   T
  0.9522610569259450  0.1903539782186338  0.1061261959905366   T   T   T
  0.9522784000888164  0.3332220854276680  0.1061625027292575   T   T   T
  0.9523210220194310  0.4760967343037881  0.1063730559497882   T   T   T
  0.9524686166595164  0.6189902366682859  0.1070550638478225   T   T   T
  0.9525407628992946  0.7618750690814992  0.1078662676024002   T   T   T
  0.0953068635218846  0.9046934296147234  0.1070176828989895   T   T   T
  0.0952246279869245  0.0474435417379454  0.1073605878329213   T   T   T
  0.0946760317441556  0.1898892256759370  0.1083588677379155   T   T   T
  0.0947937780686076  0.3330138771434403  0.1093342396821305   T   T   T
  0.0948142433940595  0.4760744423159192  0.1080695971613816   T   T   T
  0.0951403578297041  0.6190150742584486  0.1071151345764775   T   T   T
  0.0952653591023354  0.7618811759307172  0.1068727997507568   T   T   T
  0.2381193752598072  0.9047354518707343  0.1068764170944720   T   T   T
  0.2381242716457502  0.0474590545084035  0.1078663371007060   T   T   T
  0.2379448460778697  0.1900909294737687  0.1111188907913338   T   T   T
  0.2364116026911354  0.3317796404145914  0.1158011007584479   T   T   T
  0.2369133490385985  0.4759113487718401  0.1151096399410730   T   T   T
  0.2377918277434996  0.6190365918901936  0.1105708705615435   T   T   T
  0.2380488802790561  0.7619539975300177  0.1076503733644036   T   T   T
  0.3809874896975248  0.9048625178379430  0.1071164959208303   T   T   T
  0.3810107419453198  0.0475326392442027  0.1070604690963309   T   T   T
  0.3810300999457952  0.1901869077950757  0.1101234527949606   T   T   T
  0.3809826905729050  0.3326897263305693  0.1188608190378300   T   T   T
  0.3750568400720272  0.4725728545564886  0.1308069330829826   T   T   T
  0.3805582506709301  0.6194443670806817  0.1200332269737692   T   T   T
  0.3809659844349010  0.7622105036186260  0.1105740940766374   T   T   T
  0.5239277698704752  0.9051884281280440  0.1080762834771103   T   T   T
  0.5239046893359066  0.0476812532100318  0.1063812083513935   T   T   T
  0.5239672551576785  0.1902512456867960  0.1073813304384176   T   T   T
  0.5241091212152033  0.3327351676389747  0.1123692160245559   T   T   T
  0.5251355953964225  0.4748649937527298  0.1269993097635388   T   T   T
  0.5274283216406914  0.6249459794346490  0.1308129755751781   T   T   T
  0.5240917348569653  0.7630884884163532  0.1151075375016415   T   T   T
  0.6669885155515051  0.9052083065982887  0.1093284291191842   T   T   T
  0.6667811892724382  0.0477248415712018  0.1061656910938592   T   T   T
  0.6668110685602255  0.1903895013189526  0.1059723566283383   T   T   T
  0.6669162387689516  0.3330848215567138  0.1079961946154779   T   T   T
  0.6672648259391828  0.4758910476741403  0.1123697959766991   T   T   T
  0.6673105329825992  0.6190192486378424  0.1188540165429639   T   T   T
  0.6682218288933057  0.7635893265908533  0.1157979107700287   T   T   T
  0.8101143288612862  0.9053274540600019  0.1083577455602936   T   T   T
  0.8096473727742626  0.0477410113144390  0.1061297588028680   T   T   T
  0.8095725725804304  0.1904291480903284  0.1054792784266718   T   T   T
  0.8096137143802856  0.3331915856857495  0.1059705868461579   T   T   T
  0.8097511831668167  0.4760343771625493  0.1073751844317203   T   T   T
  0.8098114346083037  0.6189701940960448  0.1101213207984009   T   T   T
  0.8099107806368623  0.7620571487369753  0.1111220351178183   T   T   T
  0.4739937480597760  0.5260080529237571  0.1746377285140596   T   T   T

  0.00000000E+00  0.00000000E+00  0.00000000E+00
  0.00000000E+00  0.00000000E+00  0.00000000E+00
  0.00000000E+00  0.00000000E+00  0.00000000E+00
  0.00000000E+00  0.00000000E+00  0.00000000E+00
  0.00000000E+00  0.00000000E+00  0.00000000E+00
  0.00000000E+00  0.00000000E+00  0.00000000E+00
  0.00000000E+00  0.00000000E+00  0.00000000E+00
  0.00000000E+00  0.00000000E+00  0.00000000E+00
  0.00000000E+00  0.00000000E+00  0.00000000E+00
  0.00000000E+00  0.00000000E+00  0.00000000E+00
  0.00000000E+00  0.00000000E+00  0.00000000E+00
  0.00000000E+00  0.00000000E+00  0.00000000E+00
  0.00000000E+00  0.00000000E+00  0.00000000E+00
  0.00000000E+00  0.00000000E+00  0.00000000E+00
  0.00000000E+00  0.00000000E+00  0.00000000E+00
  0.00000000E+00  0.00000000E+00  0.00000000E+00
  0.00000000E+00  0.00000000E+00  0.00000000E+00
  0.00000000E+00  0.00000000E+00  0.00000000E+00
  0.00000000E+00  0.00000000E+00  0.00000000E+00
  0.00000000E+00  0.00000000E+00  0.00000000E+00
  0.00000000E+00  0.00000000E+00  0.00000000E+00
  0.00000000E+00  0.00000000E+00  0.00000000E+00
  0.00000000E+00  0.00000000E+00  0.00000000E+00
  0.00000000E+00  0.00000000E+00  0.00000000E+00
  0.00000000E+00  0.00000000E+00  0.00000000E+00
  0.00000000E+00  0.00000000E+00  0.00000000E+00
  0.00000000E+00  0.00000000E+00  0.00000000E+00
  0.00000000E+00  0.00000000E+00  0.00000000E+00
  0.00000000E+00  0.00000000E+00  0.00000000E+00
  0.00000000E+00  0.00000000E+00  0.00000000E+00
  0.00000000E+00  0.00000000E+00  0.00000000E+00
  0.00000000E+00  0.00000000E+00  0.00000000E+00
  0.00000000E+00  0.00000000E+00  0.00000000E+00
  0.00000000E+00  0.00000000E+00  0.00000000E+00
  0.00000000E+00  0.00000000E+00  0.00000000E+00
  0.00000000E+00  0.00000000E+00  0.00000000E+00
  0.00000000E+00  0.00000000E+00  0.00000000E+00
  0.00000000E+00  0.00000000E+00  0.00000000E+00
  0.00000000E+00  0.00000000E+00  0.00000000E+00
  0.00000000E+00  0.00000000E+00  0.00000000E+00
  0.00000000E+00  0.00000000E+00  0.00000000E+00
  0.00000000E+00  0.00000000E+00  0.00000000E+00
  0.00000000E+00  0.00000000E+00  0.00000000E+00
  0.00000000E+00  0.00000000E+00  0.00000000E+00
  0.00000000E+00  0.00000000E+00  0.00000000E+00
  0.00000000E+00  0.00000000E+00  0.00000000E+00
  0.00000000E+00  0.00000000E+00  0.00000000E+00
  0.00000000E+00  0.00000000E+00  0.00000000E+00
  0.00000000E+00  0.00000000E+00  0.00000000E+00
  0.00000000E+00  0.00000000E+00  0.00000000E+00
  0.00000000E+00  0.00000000E+00  0.00000000E+00
  0.00000000E+00  0.00000000E+00  0.00000000E+00
  0.00000000E+00  0.00000000E+00  0.00000000E+00
  0.00000000E+00  0.00000000E+00  0.00000000E+00
  0.00000000E+00  0.00000000E+00  0.00000000E+00
  0.00000000E+00  0.00000000E+00  0.00000000E+00
  0.00000000E+00  0.00000000E+00  0.00000000E+00
  0.00000000E+00  0.00000000E+00  0.00000000E+00
  0.00000000E+00  0.00000000E+00  0.00000000E+00
  0.00000000E+00  0.00000000E+00  0.00000000E+00
  0.00000000E+00  0.00000000E+00  0.00000000E+00
  0.00000000E+00  0.00000000E+00  0.00000000E+00
  0.00000000E+00  0.00000000E+00  0.00000000E+00
  0.00000000E+00  0.00000000E+00  0.00000000E+00
  0.00000000E+00  0.00000000E+00  0.00000000E+00
  0.00000000E+00  0.00000000E+00  0.00000000E+00
  0.00000000E+00  0.00000000E+00  0.00000000E+00
  0.00000000E+00  0.00000000E+00  0.00000000E+00
  0.00000000E+00  0.00000000E+00  0.00000000E+00
  0.00000000E+00  0.00000000E+00  0.00000000E+00
  0.00000000E+00  0.00000000E+00  0.00000000E+00
  0.00000000E+00  0.00000000E+00  0.00000000E+00
  0.00000000E+00  0.00000000E+00  0.00000000E+00
  0.00000000E+00  0.00000000E+00  0.00000000E+00
  0.00000000E+00  0.00000000E+00  0.00000000E+00
  0.00000000E+00  0.00000000E+00  0.00000000E+00
  0.00000000E+00  0.00000000E+00  0.00000000E+00
  0.00000000E+00  0.00000000E+00  0.00000000E+00
  0.00000000E+00  0.00000000E+00  0.00000000E+00
  0.00000000E+00  0.00000000E+00  0.00000000E+00
  0.00000000E+00  0.00000000E+00  0.00000000E+00
  0.00000000E+00  0.00000000E+00  0.00000000E+00
  0.00000000E+00  0.00000000E+00  0.00000000E+00
  0.00000000E+00  0.00000000E+00  0.00000000E+00
  0.00000000E+00  0.00000000E+00  0.00000000E+00
  0.00000000E+00  0.00000000E+00  0.00000000E+00
  0.00000000E+00  0.00000000E+00  0.00000000E+00
  0.00000000E+00  0.00000000E+00  0.00000000E+00
  0.00000000E+00  0.00000000E+00  0.00000000E+00
  0.00000000E+00  0.00000000E+00  0.00000000E+00
  0.00000000E+00  0.00000000E+00  0.00000000E+00
  0.00000000E+00  0.00000000E+00  0.00000000E+00
  0.00000000E+00  0.00000000E+00  0.00000000E+00
  0.00000000E+00  0.00000000E+00  0.00000000E+00
  0.00000000E+00  0.00000000E+00  0.00000000E+00
  0.00000000E+00  0.00000000E+00  0.00000000E+00
  0.00000000E+00  0.00000000E+00  0.00000000E+00
  0.00000000E+00  0.00000000E+00  0.00000000E+00
