B N O                                   
   1.0000000000000000     
     8.7639499999999995  -15.1796066749929999    0.0000000000000000
     8.7639499999999995   15.1796066749929999    0.0000000000000000
     0.0000000000000000    0.0000000000000000   15.0000000000000000
   B    N    O 
    48    47     2
Selective dynamics
Direct
  0.9059654429707222  0.9529385136087889  0.1122734830116608   T   T   T
  0.9047924627605911  0.0941718832649873  0.1108828121191268   T   T   T
  0.9044852951168497  0.2363251291366133  0.1100674794513074   T   T   T
  0.9043083966131379  0.3791944083158856  0.1100040324784561   T   T   T
  0.9045351001417425  0.5227088280061537  0.1109827519236463   T   T   T
  0.9054669473700410  0.6663998246993444  0.1128773870654345   T   T   T
  0.9054996818498551  0.8095803249967776  0.1127625227912365   T   T   T
  0.0485710939183978  0.9536882394368318  0.1106925899847861   T   T   T
  0.0498066832520742  0.0971984682992700  0.1105721358041227   T   T   T
  0.0482528241702360  0.2380142437594818  0.1102414158394143   T   T   T
  0.0465068789216676  0.3801119239880167  0.1098159375573702   T   T   T
  0.0450937328085095  0.5234033509475794  0.1097590969317902   T   T   T
  0.0461315495210365  0.6670578162791636  0.1102775483412266   T   T   T
  0.0476205014232463  0.8104229556517379  0.1107202490475961   T   T   T
  0.1907677908442471  0.9537593313118244  0.1100445685235531   T   T   T
  0.1923459539466889  0.0976559466093023  0.1102469045930721   T   T   T
  0.1948045740142036  0.2426106066115602  0.1104906842237931   T   T   T
  0.1901729261323481  0.3818598257444460  0.1099807429717427   T   T   T
  0.1852205162799584  0.5244627200198556  0.1092737256958043   T   T   T
  0.1863733422975395  0.6676068522011476  0.1094562195851020   T   T   T
  0.1893379028563977  0.8106123791351497  0.1099074837219677   T   T   T
  0.3329052395244741  0.9528213621775853  0.1100701588060498   T   T   T
  0.3341322417528175  0.0962235108717248  0.1101404337512165   T   T   T
  0.3365068229638038  0.2413209390565359  0.1103700115549515   T   T   T
  0.3418126519465647  0.3883776595260447  0.1111359321906792   T   T   T
  0.3236913497907322  0.5282847706939788  0.1115880549376896   T   T   T
  0.3257350153654443  0.6686874964101163  0.1107848345538695   T   T   T
  0.3313265672203354  0.8103431776396162  0.1100814077266309   T   T   T
  0.4752452331861589  0.9493773287209200  0.1105238045573494   T   T   T
  0.4762268586174654  0.0930640575808383  0.1102129477813852   T   T   T
  0.4774951907528704  0.2361817046956985  0.1104730843472516   T   T   T
  0.4823914541492646  0.3809601492979882  0.1099965636246493   T   T   T
  0.4612246580952863  0.6562832795110545  0.1161816414470417   T   T   T
  0.4732335332353435  0.8042717917056358  0.1118643991443826   T   T   T
  0.6178168815987397  0.9489127674299020  0.1118892962421497   T   T   T
  0.6185726038694386  0.0921411878453726  0.1102656357045796   T   T   T
  0.6195245877084532  0.2350779724534260  0.1102243162808061   T   T   T
  0.6213505834600686  0.3778052685144268  0.1119122889636257   T   T   T
  0.6207020750758470  0.5177781635441764  0.1134320288982410   T   T   T
  0.6453588850648794  0.6760299185439063  0.0967498099715876   T   T   T
  0.6159541341532223  0.8050859296659016  0.1152470161152705   T   T   T
  0.7604480563181907  0.9501957956161647  0.1126895064084803   T   T   T
  0.7612406829250313  0.0926950737214165  0.1106805357685000   T   T   T
  0.7617853759342871  0.2354256916022936  0.1099381006738128   T   T   T
  0.7626789844667414  0.3784454447606242  0.1108217699854420   T   T   T
  0.7636270780407070  0.5214631406936033  0.1138099682998892   T   T   T
  0.7644373954503918  0.6644338713327730  0.1152494507838510   T   T   T
  0.7641907134349314  0.8102676009457213  0.1139499513477459   T   T   T
  0.9529480458892183  0.9049910619232194  0.1117173161048453   T   T   T
  0.9539861818914134  0.0482633725684799  0.1111250016984754   T   T   T
  0.9530068533286989  0.1896001822623841  0.1102846567885321   T   T   T
  0.9519855191789526  0.3316933239831807  0.1099192529961703   T   T   T
  0.9509890018858030  0.4746221946487365  0.1100882681112810   T   T   T
  0.9515897436750365  0.6182566178234368  0.1111642526011842   T   T   T
  0.9523366273596021  0.7617921744836351  0.1120199278885941   T   T   T
  0.0955499941223397  0.9058515250337907  0.1102605773919380   T   T   T
  0.0970274494619524  0.0495433893275404  0.1103698135430741   T   T   T
  0.0988208204414485  0.1934765674840559  0.1103474403898684   T   T   T
  0.0958082293701529  0.3334502137956412  0.1099695989544246   T   T   T
  0.0918982841582978  0.4753028437250220  0.1095255644580603   T   T   T
  0.0922676622896787  0.6187615680715435  0.1096613460957871   T   T   T
  0.0942986871190370  0.7624108269379242  0.1101618794649011   T   T   T
  0.2377340976271526  0.9057504294687942  0.1099616225532766   T   T   T
  0.2390340778227611  0.0494026663573905  0.1100820259707129   T   T   T
  0.2414374511031045  0.1943843046499439  0.1103740699051666   T   T   T
  0.2453625052093582  0.3409836017676235  0.1107137287460099   T   T   T
  0.2327436878549350  0.4764638211962934  0.1093752620179512   T   T   T
  0.2321997796435982  0.6191838676958277  0.1092347929378184   T   T   T
  0.2361290272362277  0.7625665840817470  0.1097057317420702   T   T   T
  0.3800547234075267  0.9046360077888413  0.1101443668889478   T   T   T
  0.3810502431996665  0.0478304645571787  0.1101538822799192   T   T   T
  0.3823928727480492  0.1920040191486758  0.1102055856846138   T   T   T
  0.3866880351917127  0.3392797314945891  0.1104710891766044   T   T   T
  0.3865829555373437  0.4953684258092388  0.1129055499987373   T   T   T
  0.3698338774494405  0.6198876379344853  0.1131088293570271   T   T   T
  0.3781561118428013  0.7620109771253587  0.1106784318324248   T   T   T
  0.5220570037663695  0.8998087520907405  0.1113455073273685   T   T   T
  0.5232809655214168  0.0446588091904616  0.1102718488441324   T   T   T
  0.5242931989355789  0.1881894444863139  0.1102637998919012   T   T   T
  0.5261830948405111  0.3310091540288057  0.1109005769408166   T   T   T
  0.5192680077408960  0.7509116141800949  0.1136373919559192   T   T   T
  0.6646676602910602  0.9008649182958620  0.1135242695999115   T   T   T
  0.6658066877982991  0.0442555369451486  0.1107847715394722   T   T   T
  0.6666078890916520  0.1873784284370305  0.1099229068299942   T   T   T
  0.6678000582845341  0.3302345922749994  0.1108070379697948   T   T   T
  0.6691623892322183  0.4727834966301403  0.1142349503373834   T   T   T
  0.6668358307954847  0.6123866961260668  0.1136161091791986   T   T   T
  0.6662440653189856  0.7610865165441970  0.1124742472391493   T   T   T
  0.8099951058626533  0.9041633404145962  0.1137254531999626   T   T   T
  0.8091100824949512  0.0454687545134225  0.1112063396693901   T   T   T
  0.8093560405141305  0.1880270737695545  0.1100455886950932   T   T   T
  0.8095797039911228  0.3307687783949934  0.1100216698706006   T   T   T
  0.8100406501867409  0.4738884723199930  0.1116931287510603   T   T   T
  0.8104398831732985  0.6170598164324544  0.1151622294425454   T   T   T
  0.8093747124117679  0.7602074406620607  0.1142957149854931   T   T   T
  0.4678333050600518  0.5678655869835630  0.1168493878630837   T   T   T
  0.5307500344486928  0.4705113257386755  0.1088186364379343   T   T   T

  0.00000000E+00  0.00000000E+00  0.00000000E+00
  0.00000000E+00  0.00000000E+00  0.00000000E+00
  0.00000000E+00  0.00000000E+00  0.00000000E+00
  0.00000000E+00  0.00000000E+00  0.00000000E+00
  0.00000000E+00  0.00000000E+00  0.00000000E+00
  0.00000000E+00  0.00000000E+00  0.00000000E+00
  0.00000000E+00  0.00000000E+00  0.00000000E+00
  0.00000000E+00  0.00000000E+00  0.00000000E+00
  0.00000000E+00  0.00000000E+00  0.00000000E+00
  0.00000000E+00  0.00000000E+00  0.00000000E+00
  0.00000000E+00  0.00000000E+00  0.00000000E+00
  0.00000000E+00  0.00000000E+00  0.00000000E+00
  0.00000000E+00  0.00000000E+00  0.00000000E+00
  0.00000000E+00  0.00000000E+00  0.00000000E+00
  0.00000000E+00  0.00000000E+00  0.00000000E+00
  0.00000000E+00  0.00000000E+00  0.00000000E+00
  0.00000000E+00  0.00000000E+00  0.00000000E+00
  0.00000000E+00  0.00000000E+00  0.00000000E+00
  0.00000000E+00  0.00000000E+00  0.00000000E+00
  0.00000000E+00  0.00000000E+00  0.00000000E+00
  0.00000000E+00  0.00000000E+00  0.00000000E+00
  0.00000000E+00  0.00000000E+00  0.00000000E+00
  0.00000000E+00  0.00000000E+00  0.00000000E+00
  0.00000000E+00  0.00000000E+00  0.00000000E+00
  0.00000000E+00  0.00000000E+00  0.00000000E+00
  0.00000000E+00  0.00000000E+00  0.00000000E+00
  0.00000000E+00  0.00000000E+00  0.00000000E+00
  0.00000000E+00  0.00000000E+00  0.00000000E+00
  0.00000000E+00  0.00000000E+00  0.00000000E+00
  0.00000000E+00  0.00000000E+00  0.00000000E+00
  0.00000000E+00  0.00000000E+00  0.00000000E+00
  0.00000000E+00  0.00000000E+00  0.00000000E+00
  0.00000000E+00  0.00000000E+00  0.00000000E+00
  0.00000000E+00  0.00000000E+00  0.00000000E+00
  0.00000000E+00  0.00000000E+00  0.00000000E+00
  0.00000000E+00  0.00000000E+00  0.00000000E+00
  0.00000000E+00  0.00000000E+00  0.00000000E+00
  0.00000000E+00  0.00000000E+00  0.00000000E+00
  0.00000000E+00  0.00000000E+00  0.00000000E+00
  0.00000000E+00  0.00000000E+00  0.00000000E+00
  0.00000000E+00  0.00000000E+00  0.00000000E+00
  0.00000000E+00  0.00000000E+00  0.00000000E+00
  0.00000000E+00  0.00000000E+00  0.00000000E+00
  0.00000000E+00  0.00000000E+00  0.00000000E+00
  0.00000000E+00  0.00000000E+00  0.00000000E+00
  0.00000000E+00  0.00000000E+00  0.00000000E+00
  0.00000000E+00  0.00000000E+00  0.00000000E+00
  0.00000000E+00  0.00000000E+00  0.00000000E+00
  0.00000000E+00  0.00000000E+00  0.00000000E+00
  0.00000000E+00  0.00000000E+00  0.00000000E+00
  0.00000000E+00  0.00000000E+00  0.00000000E+00
  0.00000000E+00  0.00000000E+00  0.00000000E+00
  0.00000000E+00  0.00000000E+00  0.00000000E+00
  0.00000000E+00  0.00000000E+00  0.00000000E+00
  0.00000000E+00  0.00000000E+00  0.00000000E+00
  0.00000000E+00  0.00000000E+00  0.00000000E+00
  0.00000000E+00  0.00000000E+00  0.00000000E+00
  0.00000000E+00  0.00000000E+00  0.00000000E+00
  0.00000000E+00  0.00000000E+00  0.00000000E+00
  0.00000000E+00  0.00000000E+00  0.00000000E+00
  0.00000000E+00  0.00000000E+00  0.00000000E+00
  0.00000000E+00  0.00000000E+00  0.00000000E+00
  0.00000000E+00  0.00000000E+00  0.00000000E+00
  0.00000000E+00  0.00000000E+00  0.00000000E+00
  0.00000000E+00  0.00000000E+00  0.00000000E+00
  0.00000000E+00  0.00000000E+00  0.00000000E+00
  0.00000000E+00  0.00000000E+00  0.00000000E+00
  0.00000000E+00  0.00000000E+00  0.00000000E+00
  0.00000000E+00  0.00000000E+00  0.00000000E+00
  0.00000000E+00  0.00000000E+00  0.00000000E+00
  0.00000000E+00  0.00000000E+00  0.00000000E+00
  0.00000000E+00  0.00000000E+00  0.00000000E+00
  0.00000000E+00  0.00000000E+00  0.00000000E+00
  0.00000000E+00  0.00000000E+00  0.00000000E+00
  0.00000000E+00  0.00000000E+00  0.00000000E+00
  0.00000000E+00  0.00000000E+00  0.00000000E+00
  0.00000000E+00  0.00000000E+00  0.00000000E+00
  0.00000000E+00  0.00000000E+00  0.00000000E+00
  0.00000000E+00  0.00000000E+00  0.00000000E+00
  0.00000000E+00  0.00000000E+00  0.00000000E+00
  0.00000000E+00  0.00000000E+00  0.00000000E+00
  0.00000000E+00  0.00000000E+00  0.00000000E+00
  0.00000000E+00  0.00000000E+00  0.00000000E+00
  0.00000000E+00  0.00000000E+00  0.00000000E+00
  0.00000000E+00  0.00000000E+00  0.00000000E+00
  0.00000000E+00  0.00000000E+00  0.00000000E+00
  0.00000000E+00  0.00000000E+00  0.00000000E+00
  0.00000000E+00  0.00000000E+00  0.00000000E+00
  0.00000000E+00  0.00000000E+00  0.00000000E+00
  0.00000000E+00  0.00000000E+00  0.00000000E+00
  0.00000000E+00  0.00000000E+00  0.00000000E+00
  0.00000000E+00  0.00000000E+00  0.00000000E+00
  0.00000000E+00  0.00000000E+00  0.00000000E+00
  0.00000000E+00  0.00000000E+00  0.00000000E+00
  0.00000000E+00  0.00000000E+00  0.00000000E+00
  0.00000000E+00  0.00000000E+00  0.00000000E+00
  0.00000000E+00  0.00000000E+00  0.00000000E+00
