Ga B N                                  
   1.0000000000000000     
     8.7639499999999995  -15.1796066749929999    0.0000000000000000
     8.7639499999999995   15.1796066749929999    0.0000000000000000
     0.0000000000000000    0.0000000000000000   15.0000000000000000
   Ga   B    N 
     1    48    48
Selective dynamics
Direct
  0.4103152229441458  0.4790700634585543  0.1099478207987401   T   T   T
  0.9090210787042065  0.9555955275848704  0.1105652199322869   T   T   T
  0.9078071828246964  0.0981725485634235  0.1106437363454659   T   T   T
  0.9068798136468315  0.2404881014403177  0.1107815907993369   T   T   T
  0.9052885473252406  0.3823177098495066  0.1104713282104675   T   T   T
  0.9028386484227053  0.5239783295622948  0.1104265000844038   T   T   T
  0.9057769993134887  0.6666461387255090  0.1108164019614760   T   T   T
  0.9091174932311417  0.8120850546093560  0.1109685005461555   T   T   T
  0.0490327248178851  0.9507544392353290  0.1103403328166541   T   T   T
  0.0486878702657831  0.0942158450662196  0.1108357236971965   T   T   T
  0.0499781861303745  0.2391437956146245  0.1110985853270094   T   T   T
  0.0499745460906026  0.3818058757995380  0.1108201009521113   T   T   T
  0.0482173608900117  0.5235999088068406  0.1104122957929174   T   T   T
  0.0485232733354969  0.6653893852611130  0.1105608929075325   T   T   T
  0.0489297332086708  0.8077964958364625  0.1105636663439970   T   T   T
  0.1907965105783387  0.9481285869831735  0.1105257915382118   T   T   T
  0.1885237100572442  0.0885199765184281  0.1110141241050692   T   T   T
  0.1886452238480228  0.2323048660465078  0.1113390465794690   T   T   T
  0.1947849340912524  0.3810018237478093  0.1110634901053326   T   T   T
  0.1930001207502584  0.5237745973972855  0.1109780641137428   T   T   T
  0.1926325886602060  0.6656657120655647  0.1104726510764815   T   T   T
  0.1918248415028395  0.8070353758145478  0.1105368944373333   T   T   T
  0.3346022934427487  0.9488249538827298  0.1106361268562910   T   T   T
  0.3326776705577657  0.0871438976366858  0.1112197928856847   T   T   T
  0.3275557237679676  0.2209201398918118  0.1120987471376405   T   T   T
  0.3288603342482188  0.3595645847393564  0.1073377622733825   T   T   T
  0.3382252743441356  0.5322723135587181  0.1133074851731680   T   T   T
  0.3377474191974257  0.6701041096159530  0.1102488898257879   T   T   T
  0.3360245615971398  0.8092645137973952  0.1104106930163338   T   T   T
  0.4789446913202609  0.9519254980083691  0.1107663344149747   T   T   T
  0.4774714765311024  0.0927051484961984  0.1106637717298365   T   T   T
  0.4748357287508335  0.2320420422784884  0.1117414691705440   T   T   T
  0.4652952842813299  0.3641737314570910  0.1134266430229392   T   T   T
  0.4835575707730892  0.6672867411056342  0.1099215538088079   T   T   T
  0.4807135882087225  0.8103841507469252  0.1104720790337164   T   T   T
  0.6227444803487598  0.9560034606407068  0.1109250973801384   T   T   T
  0.6213419020243992  0.0974183550876642  0.1107026453787730   T   T   T
  0.6195664991025701  0.2397750666248661  0.1105527581504938   T   T   T
  0.6156560382874955  0.3835326916196953  0.1110364281943834   T   T   T
  0.6140671552846575  0.5397976560011890  0.1096137065940998   T   T   T
  0.6340359714285582  0.6820459164986378  0.1105519022166036   T   T   T
  0.6250821601655148  0.8159265445568589  0.1110027361618288   T   T   T
  0.7664113692153707  0.9572823876738199  0.1109327180370884   T   T   T
  0.7647764743224044  0.0987552611975269  0.1107792338315717   T   T   T
  0.7632234974904826  0.2406982650276269  0.1105595572941302   T   T   T
  0.7605654248819214  0.3828818764966722  0.1103342749059655   T   T   T
  0.7561010411672654  0.5253968512139967  0.1103980930010253   T   T   T
  0.7691924219494898  0.6735396707485132  0.1112784156508328   T   T   T
  0.7700272349825936  0.8174100331555120  0.1115088574071424   T   T   T
  0.9553001666640050  0.9063448407852134  0.1104446394672315   T   T   T
  0.9546898576937637  0.0496231089315129  0.1104088930497037   T   T   T
  0.9546665043964747  0.1928898287154043  0.1108112452065676   T   T   T
  0.9539903459686191  0.3352463822896943  0.1107093318359888   T   T   T
  0.9520653838569906  0.4770912453480474  0.1103474961840927   T   T   T
  0.9530218412100131  0.6188661337513731  0.1105969597722606   T   T   T
  0.9543371889800268  0.7619506304875067  0.1108202964528091   T   T   T
  0.0960761701242941  0.9023461825413125  0.1103315783975667   T   T   T
  0.0946363752408731  0.0444690184750685  0.1105110447976375   T   T   T
  0.0945644354839615  0.1881460657784085  0.1114583425037209   T   T   T
  0.0980117797886697  0.3342204910565585  0.1110557524300251   T   T   T
  0.0967505486522633  0.4767933410220511  0.1105455245603326   T   T   T
  0.0966911452805148  0.6185495971988165  0.1104595835875444   T   T   T
  0.0965426279488403  0.7602616171528066  0.1105615561293755   T   T   T
  0.2393041203831020  0.9016049000654517  0.1105586476616180   T   T   T
  0.2375549068866070  0.0419120554323361  0.1107927561139224   T   T   T
  0.2338839082219367  0.1811665050211604  0.1116270972477974   T   T   T
  0.2356820174726413  0.3258301728718126  0.1101467242584575   T   T   T
  0.2412605535198159  0.4773246151308031  0.1119952278530418   T   T   T
  0.2412066694501785  0.6196901943346037  0.1105334363069499   T   T   T
  0.2403484702189929  0.7608285158038920  0.1104601434468008   T   T   T
  0.3836236363893494  0.9036908007117744  0.1106458303502149   T   T   T
  0.3822181875206555  0.0427423436424932  0.1106566716154426   T   T   T
  0.3798129639136320  0.1798349364736907  0.1122066632945240   T   T   T
  0.3733782254044338  0.3110725434521789  0.1115890156257715   T   T   T
  0.3872940337011345  0.6266265856969701  0.1105875925632520   T   T   T
  0.3852395813976725  0.7645461216154682  0.1101131835120437   T   T   T
  0.5277052430917025  0.9059952263245815  0.1108277034036153   T   T   T
  0.5262688437915480  0.0470783737088622  0.1106915674456554   T   T   T
  0.5245831126758150  0.1876197644559539  0.1106560180317107   T   T   T
  0.5207906296555932  0.3271127088920309  0.1124944606178502   T   T   T
  0.5308443374207007  0.5397531064676875  0.1078331529303296   T   T   T
  0.5426101795148008  0.6291449840062945  0.1086888350804075   T   T   T
  0.5301900163427772  0.7643518864486990  0.1103695285611501   T   T   T
  0.6715803381110369  0.9105172131985937  0.1110090364966190   T   T   T
  0.6697381315949338  0.0510023424004546  0.1108359645586190   T   T   T
  0.6680977012064893  0.1927799614315685  0.1105274637214542   T   T   T
  0.6652570900242447  0.3357778882827914  0.1104684899730267   T   T   T
  0.6581063919401391  0.4801926702635521  0.1101317855094152   T   T   T
  0.6777867602468375  0.6323473558079403  0.1109555058394812   T   T   T
  0.6770428195896736  0.7742761281531078  0.1115943365132984   T   T   T
  0.8153771696045738  0.9111444427610981  0.1109909618612903   T   T   T
  0.8129798762034426  0.0518685558341280  0.1107116403876873   T   T   T
  0.8115833675254580  0.1936049577142717  0.1106992434274486   T   T   T
  0.8096532328144076  0.3356775270186748  0.1103745684001302   T   T   T
  0.8063535300752912  0.4778712990156998  0.1103347613006383   T   T   T
  0.8110685944141083  0.6209207798306903  0.1108256287486722   T   T   T
  0.8159820719860571  0.7681300335617055  0.1115417121503076   T   T   T

  0.00000000E+00  0.00000000E+00  0.00000000E+00
  0.00000000E+00  0.00000000E+00  0.00000000E+00
  0.00000000E+00  0.00000000E+00  0.00000000E+00
  0.00000000E+00  0.00000000E+00  0.00000000E+00
  0.00000000E+00  0.00000000E+00  0.00000000E+00
  0.00000000E+00  0.00000000E+00  0.00000000E+00
  0.00000000E+00  0.00000000E+00  0.00000000E+00
  0.00000000E+00  0.00000000E+00  0.00000000E+00
  0.00000000E+00  0.00000000E+00  0.00000000E+00
  0.00000000E+00  0.00000000E+00  0.00000000E+00
  0.00000000E+00  0.00000000E+00  0.00000000E+00
  0.00000000E+00  0.00000000E+00  0.00000000E+00
  0.00000000E+00  0.00000000E+00  0.00000000E+00
  0.00000000E+00  0.00000000E+00  0.00000000E+00
  0.00000000E+00  0.00000000E+00  0.00000000E+00
  0.00000000E+00  0.00000000E+00  0.00000000E+00
  0.00000000E+00  0.00000000E+00  0.00000000E+00
  0.00000000E+00  0.00000000E+00  0.00000000E+00
  0.00000000E+00  0.00000000E+00  0.00000000E+00
  0.00000000E+00  0.00000000E+00  0.00000000E+00
  0.00000000E+00  0.00000000E+00  0.00000000E+00
  0.00000000E+00  0.00000000E+00  0.00000000E+00
  0.00000000E+00  0.00000000E+00  0.00000000E+00
  0.00000000E+00  0.00000000E+00  0.00000000E+00
  0.00000000E+00  0.00000000E+00  0.00000000E+00
  0.00000000E+00  0.00000000E+00  0.00000000E+00
  0.00000000E+00  0.00000000E+00  0.00000000E+00
  0.00000000E+00  0.00000000E+00  0.00000000E+00
  0.00000000E+00  0.00000000E+00  0.00000000E+00
  0.00000000E+00  0.00000000E+00  0.00000000E+00
  0.00000000E+00  0.00000000E+00  0.00000000E+00
  0.00000000E+00  0.00000000E+00  0.00000000E+00
  0.00000000E+00  0.00000000E+00  0.00000000E+00
  0.00000000E+00  0.00000000E+00  0.00000000E+00
  0.00000000E+00  0.00000000E+00  0.00000000E+00
  0.00000000E+00  0.00000000E+00  0.00000000E+00
  0.00000000E+00  0.00000000E+00  0.00000000E+00
  0.00000000E+00  0.00000000E+00  0.00000000E+00
  0.00000000E+00  0.00000000E+00  0.00000000E+00
  0.00000000E+00  0.00000000E+00  0.00000000E+00
  0.00000000E+00  0.00000000E+00  0.00000000E+00
  0.00000000E+00  0.00000000E+00  0.00000000E+00
  0.00000000E+00  0.00000000E+00  0.00000000E+00
  0.00000000E+00  0.00000000E+00  0.00000000E+00
  0.00000000E+00  0.00000000E+00  0.00000000E+00
  0.00000000E+00  0.00000000E+00  0.00000000E+00
  0.00000000E+00  0.00000000E+00  0.00000000E+00
  0.00000000E+00  0.00000000E+00  0.00000000E+00
  0.00000000E+00  0.00000000E+00  0.00000000E+00
  0.00000000E+00  0.00000000E+00  0.00000000E+00
  0.00000000E+00  0.00000000E+00  0.00000000E+00
  0.00000000E+00  0.00000000E+00  0.00000000E+00
  0.00000000E+00  0.00000000E+00  0.00000000E+00
  0.00000000E+00  0.00000000E+00  0.00000000E+00
  0.00000000E+00  0.00000000E+00  0.00000000E+00
  0.00000000E+00  0.00000000E+00  0.00000000E+00
  0.00000000E+00  0.00000000E+00  0.00000000E+00
  0.00000000E+00  0.00000000E+00  0.00000000E+00
  0.00000000E+00  0.00000000E+00  0.00000000E+00
  0.00000000E+00  0.00000000E+00  0.00000000E+00
  0.00000000E+00  0.00000000E+00  0.00000000E+00
  0.00000000E+00  0.00000000E+00  0.00000000E+00
  0.00000000E+00  0.00000000E+00  0.00000000E+00
  0.00000000E+00  0.00000000E+00  0.00000000E+00
  0.00000000E+00  0.00000000E+00  0.00000000E+00
  0.00000000E+00  0.00000000E+00  0.00000000E+00
  0.00000000E+00  0.00000000E+00  0.00000000E+00
  0.00000000E+00  0.00000000E+00  0.00000000E+00
  0.00000000E+00  0.00000000E+00  0.00000000E+00
  0.00000000E+00  0.00000000E+00  0.00000000E+00
  0.00000000E+00  0.00000000E+00  0.00000000E+00
  0.00000000E+00  0.00000000E+00  0.00000000E+00
  0.00000000E+00  0.00000000E+00  0.00000000E+00
  0.00000000E+00  0.00000000E+00  0.00000000E+00
  0.00000000E+00  0.00000000E+00  0.00000000E+00
  0.00000000E+00  0.00000000E+00  0.00000000E+00
  0.00000000E+00  0.00000000E+00  0.00000000E+00
  0.00000000E+00  0.00000000E+00  0.00000000E+00
  0.00000000E+00  0.00000000E+00  0.00000000E+00
  0.00000000E+00  0.00000000E+00  0.00000000E+00
  0.00000000E+00  0.00000000E+00  0.00000000E+00
  0.00000000E+00  0.00000000E+00  0.00000000E+00
  0.00000000E+00  0.00000000E+00  0.00000000E+00
  0.00000000E+00  0.00000000E+00  0.00000000E+00
  0.00000000E+00  0.00000000E+00  0.00000000E+00
  0.00000000E+00  0.00000000E+00  0.00000000E+00
  0.00000000E+00  0.00000000E+00  0.00000000E+00
  0.00000000E+00  0.00000000E+00  0.00000000E+00
  0.00000000E+00  0.00000000E+00  0.00000000E+00
  0.00000000E+00  0.00000000E+00  0.00000000E+00
  0.00000000E+00  0.00000000E+00  0.00000000E+00
  0.00000000E+00  0.00000000E+00  0.00000000E+00
  0.00000000E+00  0.00000000E+00  0.00000000E+00
  0.00000000E+00  0.00000000E+00  0.00000000E+00
  0.00000000E+00  0.00000000E+00  0.00000000E+00
  0.00000000E+00  0.00000000E+00  0.00000000E+00
  0.00000000E+00  0.00000000E+00  0.00000000E+00
