 C B N 
 1.0
 17.527899999999772   0.000000000000000   0.000000000000000
 -8.763949999999658  15.179606674993195   0.000000000000000
  0.000000000000001   0.000000000000002  15.000000000000000
 C B N 
   4  47  47
Cartesian
  5.027591679833971   5.786914665376062   1.667869590614790 
  5.049410709887449   7.186633692620393   1.669040050428150 
  6.273844091904721   7.928158666982642   1.667514229080420 
  8.766858622177041   9.396145147805930   1.668125983287015 
  7.513112668849546  14.455096206088973   1.664930876346240 
 15.026357729363728   1.446070165950692   1.665514199026410 
 13.773454579552757   3.614897132874671   1.665532435444920 
 12.518724528090008   5.783408556394151   1.664742702503805 
 11.263881509179573   7.954043036086087   1.664743002029865 
 10.045143841797731  10.136282345267094   1.666890383476380 
  8.761473001215290  12.277559101452001   1.665232289695890 
 -7.512593946540827  14.459092514672076   1.664861606248725 
  0.003076746921118   1.449056072191072   1.664997716551620 
 -1.247118570510965   3.615945084851512   1.664879665809465 
 -2.500338937758357   5.781810700905116   1.665177818144925 
 -3.757082511649218   7.949468428421771   1.664973601650975 
 -4.995469244443076  10.119737783328796   1.665459422289675 
 -6.254727218733453  12.300025739986051   1.665132162054750 
 -5.006832259601115  14.459516880716402   1.664889240046800 
  2.508624943225448   1.453531708744925   1.665174150213675 
  1.259490326008451   3.621035170190802   1.664902591739595 
  0.009967594482029   5.783914810016447   1.664736179180850 
 -1.256522892283572   7.950416176644872   1.665656482958985 
 -2.501466434571418  10.119737783328796   1.665811847833695 
 -3.755360757957821  12.288799876482466   1.664994085618035 
 -2.502974069707145  14.455016042089429   1.665202570106190 
  5.007793692348997   1.436340247929674   1.665668947125660 
  3.774563377891406   3.619554148502973   1.665733613233185 
  2.520923590832152   5.803387965787659   1.665386080110960 
  1.237672096419583   7.955702791751765   1.665376970547795 
 -0.004744310533987  10.119737783328796   1.666003768020450 
 -1.252760135476973  12.289581987672122   1.665865368500205 
 -0.001450629794686  14.459679961377361   1.665046590079050 
  7.508727248520298   1.447989774705966   1.664675025121650 
  6.244736708945355   3.600529415007561   1.665051405761640 
  3.731085715810115   7.956996359192039   1.666585852147920 
  2.487547256027169  10.125281381122615   1.665452700104265 
  1.248760234897264  12.291736859203732   1.665718389410745 
  2.505882070681457  14.454221137874379   1.665161645439090 
 10.013421148560955   1.449686657597001   1.664768777955510 
  8.754616746678247   3.624734681311386   1.664879174522655 
  7.477040233341722   5.790954404206334   1.665459227522160 
  4.987094631385909  10.082523079352434   1.665423808283745 
  3.760235775952989  12.274716098834869   1.664818101653235 
  5.008195700915374  14.455819587244122   1.664883836920275 
 12.520277064268459   1.445829093787573   1.665535389937965 
 11.266992084209887   3.613929790562655   1.665570805722750 
 10.014301347959446   5.781029692391688   1.664758025244585 
  8.771467303427244   7.948597721210374   1.666370432992920 
  7.502985475712132  10.108464957358017   1.666848831472080 
  6.258401868727796  12.286287501430497   1.664788366910520 
  8.762944273842656  13.737627414884477   1.664668945589355 
 16.279114451107091   0.727048438878412   1.664969667610200 
 15.028433535860856   2.893309554352191   1.665142754353080 
 13.774258435487454   5.059868891664398   1.664936113286475 
 12.522363465844595   7.223567595190344   1.664213703708300 
 11.300472574422464   9.397813984139241   1.665310852215885 
 10.033563946758251  11.592481632908324   1.665395698709745 
 -6.253896360007637  13.749365762426150   1.664602723003860 
  1.257927146720496   0.734096849839230   1.664712828215415 
  0.010387258025660   2.898637964583793   1.664640049363230 
 -1.240254848065064   5.059868891664398   1.664640694631115 
 -2.501411756880647   7.224892687458521   1.665069898346790 
 -3.741839427989381   9.394574188907390   1.665144191823585 
 -4.998710733369315  11.571570670745203   1.664881181870700 
 -3.752939416441634  13.739507479604974   1.664611141409430 
  3.758474240277001   0.730407921809192   1.665170110034895 
  2.520886080419436   2.912009589576916   1.664965492006920 
  1.278701257386761   5.066050455959478   1.664515794321480 
 -0.001147907004386   7.226746396515358   1.664962572525075 
 -1.249583159633181   9.395403929774462   1.665689927134350 
 -2.499814868722778  11.567378923810995   1.665344419353075 
 -1.251100124684241  13.737245371894854   1.665182294449110 
  6.260151540113615   0.726127547130142   1.665050658831765 
  5.007437189885051   2.888998033155495   1.665197275653015 
  3.819110076882889   5.091074840132417   1.666180374542190 
  2.493151249056933   7.231824353345332   1.665089602016670 
  1.243765725253090   9.397252121079109   1.665435843641940 
 -0.000746227604135  11.567548042620377   1.665751737522045 
  1.250133136819581  13.737011051559763   1.665133759189575 
  8.759312774465139   0.729180652286820   1.664365482559185 
  7.498635469736806   2.903251261627934   1.664359658666595 
  6.207298257965813   5.067633642715037   1.665778006049160 
  3.732110344434112   9.391899832688923   1.665169889603910 
  2.499003230410583  11.565228831138507   1.665093996984945 
  3.756696211230421  13.725635579957457   1.664649320939130 
 11.267393729830028   0.723777157708841   1.664870958429345 
 10.005140966906170   2.897867782330803   1.664927336987310 
  8.729430042544946   5.070935736602840   1.664581799518020 
  7.457759809037975   7.238628559273494   1.666025328583905 
  6.237866868788354   9.305656236591888   1.666148432961360 
  5.008130762204890  11.533952412375308   1.664510992425435 
  6.254325888643225  13.736076852868036   1.664516749040805 
 13.771381748800875   0.723919609820959   1.665211009451325 
 12.519050658941783   2.890541217647701   1.665439197918735 
 11.264290091800950   5.051741088689383   1.664844694754640 
 10.018770184629371   7.199897106693046   1.664418308050245 
  7.487427513423410  11.570705279913469   1.665062514593295 
