 N B O 
 1.0
 17.527899999999772   0.000000000000000   0.000000000000000
 -8.763949999999658  15.179606674993195   0.000000000000000
  0.000000000000001   0.000000000000002  15.000000000000000
 N B O 
  48  49   1
Cartesian
  8.763770098159364  13.732361550563107   1.665227002133820 
 16.276281112201712   0.722636688835646   1.665198556024785 
 15.024022544633793   2.891397597934496   1.666146069571290 
 13.772178932360706   5.059868891664398   1.665198556024785 
 12.518481505893217   7.229010624609389   1.665227002133820 
 11.266292852603558   9.396720115494732   1.666203570052155 
 10.014967258637036  11.564079621056127   1.666203570052155 
 -6.259817295247626  13.733859170860573   1.665391631653365 
  1.253273378678448   0.723799642343224   1.665227002133820 
 -0.000024373999757   2.892375910784799   1.663887185052930 
 -1.251427029977175   5.059868891664398   1.663887185052930 
 -2.502511933068102   7.229010624609389   1.665227002133820 
 -3.755980213587250   9.397086131549667   1.665391631653365 
 -5.008206230902236  11.565295129573911   1.665183158392545 
 -3.755980213587105  13.734214214123092   1.665183158392545 
  3.756659192437070   0.724372080980057   1.666203570052155 
  2.506053216891964   2.895848716475067   1.666354654819110 
  1.252948847607798   5.059868891664398   1.671900825205470 
  0.004927662503339   7.227925252785192   1.666354654819110 
 -1.250323279795927   9.396720115494732   1.666203570052155 
 -2.503754196272163  11.565295129573911   1.665183158392545 
 -1.252143131926728  13.733859170860573   1.665391631653365 
  6.259310380370162   0.724372080980057   1.666203570052155 
  5.007984786403719   2.896221546056405   1.664285036876745 
  3.758710953345397   5.072193820046868   1.659123079698465 
  2.516026677825138   7.224586123014951   1.659123079698465 
  1.256216327139197   9.394475135737187   1.664285036876745 
  0.001002314170643  11.564079621056127   1.666203570052155 
  1.252199474648382  13.732361550563107   1.665227002133820 
  8.762696194128784   0.723799642343224   1.665227002133820 
  7.509916355915455   2.895848716475067   1.666354654819110 
  6.257258619462228   5.072193820046868   1.659123079698465 
  3.765300510874805   9.388391874453674   1.659123079698465 
  2.506859232006305  11.561397848255433   1.666354654819110 
  3.756249198672338  13.733461108667523   1.663887185052930 
 11.268052179840970   0.722636688835646   1.665198556024785 
 10.015352655977379   2.892375910784799   1.663887185052930 
  8.763949999999962   5.059868891664398   1.671900825205470 
  7.499942894982552   7.224586123014951   1.659123079698465 
  6.250669061915388   9.388391874453674   1.659123079698465 
  5.008437137464669  11.564607978054184   1.671900825205470 
  6.259079083305734  13.733461108667523   1.663887185052930 
 13.771949786403376   0.722743965906789   1.666146069571290 
 12.519877028173163   2.891397597934496   1.666146069571290 
 11.266779884633358   5.059868891664398   1.663887185052930 
 10.011041910321790   7.227925252785192   1.666354654819110 
  8.759753245668435   9.394475135737187   1.664285036876745 
  7.509110340801267  11.561397848255433   1.666354654819110 
  7.511684618565992  14.457007172646293   1.664662398828660 
 15.023043896828346   1.446199799420813   1.666549287179850 
 13.771940213584784   3.613174944335295   1.666549287179850 
 12.519985283421475   5.782375961535307   1.664662398828660 
 11.267460069125555   7.951413763628874   1.666251178332300 
 10.018276311203469  10.119737783328796   1.666326292288200 
  8.763863849791047  12.287769617153746   1.666251178332300 
 -7.511979553935363  14.456801654914056   1.665515346296325 
 -0.000325451261857   1.445824064735444   1.664662398828660 
 -1.253926383461482   3.613091826940246   1.664195547394575 
 -2.504034856233954   5.782375961535307   1.664662398828660 
 -3.755989786405967   7.951236544844101   1.665515346296325 
 -5.007282056799962  10.119737783328796   1.665867181178790 
 -6.259445881962115  12.288549147909514   1.665867181178790 
 -5.007950965063500  14.456201929392066   1.665867181178790 
  2.504378994250472   1.446023818149513   1.666251178332300 
  1.247598623547878   3.614005988458200   1.668094520123550 
 -0.002372192859050   5.779018950453424   1.668094520123550 
 -1.251509641955391   7.951413763628874   1.666251178332300 
 -2.504292223002798  10.119737783328796   1.665867181178790 
 -3.755989786406033  12.288279951557490   1.665101381443605 
 -2.503658742060551  14.456201929392066   1.665867181178790 
  5.009120441941022   1.443686676655042   1.666326292288200 
  3.758466135545471   3.609883478037025   1.663234197286995 
  2.494161163054267   5.777051180857258   1.664954527599105 
  1.251143068134284   7.952694421782796   1.663234197286995 
  0.000000000000152  10.119737783328796   1.666326292288200 
 -1.252163825162001  12.288549147909514   1.665867181178790 
 -0.000000018858920  14.456801654914056   1.665515346296325 
  7.511571432937060   1.446023818149513   1.666251178332300 
  6.260787699152642   3.609883478037025   1.663234197286995 
  5.007975213602551   5.731938405379949   1.660889897533230 
  3.711999378721150   7.976634396776107   1.660889897533230 
  2.502321563607324  10.119737783328796   1.663234197286995 
  1.252086577396689  12.287769617153746   1.666251178332300 
  2.504265808621806  14.457007172646293   1.664662398828660 
 10.016275878449378   1.445824064735459   1.664662398828660 
  8.768351803639597   3.614005988458200   1.668094520123550 
  7.521789264150831   5.777051180857258   1.664954527599105 
  6.303951048466561   7.976634396776107   1.660889897533230 
  5.007975213593894  10.131104837202543   1.664954527599105 
  3.758004397186898  12.292182260005527   1.668094520123550 
  5.007975213593925  14.459023545036658   1.664195547394575 
 12.520836530341301   1.446199799420813   1.666549287179850 
 11.269876810648972   3.613091826940246   1.664195547394575 
 10.018322620046588   5.779018950453424   1.668094520123550 
  8.768110766546538   7.952694421782796   1.663234197286995 
  7.516967698412407  10.119737783328796   1.663234197286995 
  6.257946030000818  12.292182260005527   1.668094520123550 
  5.007984786403784   7.228390605833453   1.681260285468675 
