Species order: X N B                    
   2.51242800000000     
     5.9449720136058266    0.0000000000000000    0.0000000000000000
    -2.9724860068029120    5.1484967885702053   -0.0000000000000001
     0.0000000000000000    0.0000000000000009    5.3101128803662583
   P    N    B 
     1   143   144
Direct
  0.5555555555555571  0.4444444444444429  0.3750000000000000
  0.1111079182943876  0.0555428048295465  0.1249507288280548
  0.6111265210968312  0.5555863755269910  0.1252409105577428
  0.4444348762694154  0.0555448474565026  0.1250193031789606
  0.9444551525434972  0.5555651237305845  0.1250193031789606
  0.7777745512995921  0.0555539423164638  0.1249277980867717
  0.1111185556008753  0.7222259444671020  0.6250439602004159
  0.4444348762694154  0.7222233621462490  0.6249806968210394
  0.2777629059360748  0.2222058582343097  0.6249508180946031
  0.7777941417656903  0.7222370940639254  0.6249508180946031
  0.6111096189649069  0.2222058582343097  0.6249508180946031
  0.9444460576835364  0.2222254487004081  0.6250722019132282
  0.2777740555328980  0.7222259444671020  0.1249560397995843
  0.1111104826105813  0.2222219079719549  0.1249490985765750
  0.4444442508170136  0.2222218349673627  0.1252320355070380
  0.6111096189649069  0.7222370940639254  0.1250491819053966
  0.9444551525434972  0.7222233621462490  0.1250193031789606
  0.7777780920280453  0.2222219079719549  0.1249490985765750
  0.1111152505313488  0.8888847494686513  0.6250388253171618
  0.4444361656039738  0.8888847494686513  0.6250388253171618
  0.2777629059360748  0.3888903810350936  0.6249508180946031
  0.6111265210968312  0.3888734789031688  0.6247590894422572
  0.7777780920280453  0.8888895173894186  0.6250509014234249
  0.9444571951704535  0.3888984467981696  0.6250492711719452
  0.1111079182943876  0.3888984467981696  0.1249507288280548
  0.2777740555328980  0.8888814443991245  0.1249560397995843
  0.6111015532018305  0.8888920817056125  0.1249507288280548
  0.4444136244730091  0.3888734789031688  0.1252409105577428
  0.9444571951704535  0.8888920817056125  0.1249507288280548
  0.7777941417656903  0.3888903810350936  0.1250491819053966
  0.2777766378537516  0.5555651237305845  0.6249806968210394
  0.1111079182943876  0.0555428048295465  0.6250492711719452
  0.6111265210968312  0.5555863755269910  0.6247590894422572
  0.4444348762694154  0.0555448474565026  0.6249806968210394
  0.9444551525434972  0.5555651237305845  0.6249806968210394
  0.1111152505313488  0.5555638343960266  0.1249611746828385
  0.7777745512995921  0.0555539423164638  0.6250722019132282
  0.2777766378537516  0.0555448474565026  0.1250193031789606
  0.4444442508170136  0.5555557491829864  0.1252320355070380
  0.7777781650326372  0.5555557491829864  0.1252320355070380
  0.6111015532018305  0.0555428048295465  0.1249507288280548
  0.4444442508170136  0.5555557491829864  0.6247679644929620
  0.9444460576835364  0.0555539423164638  0.1249277980867717
  0.2777740555328980  0.7222259444671020  0.6250439602004159
  0.1111104826105813  0.2222219079719549  0.6250509014234249
  0.4444442508170136  0.2222218349673627  0.6247679644929620
  0.6111096189649069  0.7222370940639254  0.6249508180946031
  0.9444551525434972  0.7222233621462490  0.6249806968210394
  0.7777780920280453  0.2222219079719549  0.6250509014234249
  0.1111185556008753  0.7222259444671020  0.1249560397995843
  0.4444348762694154  0.7222233621462490  0.1250193031789606
  0.2777629059360748  0.2222058582343097  0.1250491819053966
  0.7777941417656903  0.7222370940639254  0.1250491819053966
  0.6111096189649069  0.2222058582343097  0.1250491819053966
  0.9444460576835364  0.2222254487004081  0.1249277980867717
  0.1111079182943876  0.3888984467981696  0.6250492711719452
  0.2777740555328980  0.8888814443991245  0.6250439602004159
  0.6111015532018305  0.8888920817056125  0.6250492711719452
  0.4444136244730091  0.3888734789031688  0.6247590894422572
  0.9444571951704535  0.8888920817056125  0.6250492711719452
  0.1111152505313488  0.8888847494686513  0.1249611746828385
  0.7777941417656903  0.3888903810350936  0.6249508180946031
  0.4444361656039738  0.8888847494686513  0.1249611746828385
  0.2777629059360748  0.3888903810350936  0.1250491819053966
  0.2777766378537516  0.5555651237305845  0.1250193031789606
  0.6111265210968312  0.3888734789031688  0.1252409105577428
  0.7777780920280453  0.8888895173894186  0.1249490985765750
  0.9444571951704535  0.3888984467981696  0.1249507288280548
  0.1111152505313488  0.5555638343960266  0.6250388253171618
  0.2777766378537516  0.0555448474565026  0.6249806968210394
  0.7777781650326372  0.5555557491829864  0.6247679644929620
  0.6111015532018305  0.0555428048295465  0.6250492711719452
  0.9444460576835364  0.0555539423164638  0.6250722019132282
  0.0546393736181902  0.1105250706766841  0.3750000000000000
  0.5558707024295508  0.6187936220004330  0.3750000000000000
  0.3880385205423281  0.1094103744179989  0.3750000000000000
  0.8905896255820011  0.6119614794576718  0.3750000000000000
  0.7225523637251583  0.1105250706766841  0.3750000000000000
  0.0555548422937669  0.7777790465235873  0.8750000000000000
  0.3888908708964846  0.7777790465235873  0.8750000000000000
  0.2222097976155218  0.2777715654744286  0.8750000000000000
  0.7222284345255712  0.7777902023844785  0.8750000000000000
  0.5555549504220829  0.2777805525113037  0.8750000000000000
  0.8888935064380313  0.2777805444389640  0.8750000000000000
  0.2222222222222214  0.7777777777777786  0.3750000000000000
  0.0546393736181902  0.2774476362748420  0.3750000000000000
  0.3812063779995671  0.2704104137624537  0.3750000000000000
  0.5553366250210735  0.7808520644239721  0.3750000000000000
  0.8921821060695635  0.7808520644239721  0.3750000000000000
  0.7236632891094613  0.2763367108905388  0.3750000000000000
  0.0555559847685770  0.9444440152314232  0.8750000000000000
  0.3888908708964846  0.9444451577062333  0.8750000000000000
  0.2222253372767388  0.4444432157632546  0.8750000000000000
  0.5555555555555571  0.4444444444444429  0.8750000000000000
  0.7222194555610356  0.9444462953324029  0.8750000000000000
  0.8888845451531799  0.4444432157632546  0.8750000000000000
  0.0556912460881440  0.4447158255096164  0.3750000000000000
  0.2219505915855556  0.9437290990206222  0.3750000000000000
  0.5552841744903835  0.9443087539118560  0.3750000000000000
  0.3812063779995671  0.4441292975704492  0.3750000000000000
  0.8894749293233160  0.9453606263818102  0.3750000000000000
  0.7295895862375464  0.4441292975704492  0.3750000000000000
  0.2222209534764130  0.6111091291035159  0.8750000000000000
  0.0555537046675969  0.1111064935619685  0.8750000000000000
  0.5555549504220829  0.6111077312441149  0.8750000000000000
  0.3888858921211553  0.1111051175756534  0.8750000000000000
  0.8888948824243466  0.6111141078788448  0.8750000000000000
  0.0562709009793776  0.6115548258982688  0.3750000000000000
  0.7222194555610356  0.1111064935619685  0.8750000000000000
  0.2191479355760277  0.1078178939304369  0.3750000000000000
  0.3880385205423281  0.6119614794576718  0.3750000000000000
  0.7295895862375464  0.6187936220004330  0.3750000000000000
  0.5553366250210735  0.1078178939304369  0.3750000000000000
  0.3888858921211553  0.6111141078788448  0.8750000000000000
  0.8888888888888857  0.1111111111111143  0.3750000000000000
  0.2222222222222214  0.7777777777777786  0.8750000000000000
  0.0555537046675969  0.2777805444389640  0.8750000000000000
  0.3888922687558855  0.2777805525113037  0.8750000000000000
  0.5555567842367454  0.7777746627232613  0.8750000000000000
  0.8888845451531799  0.7777746627232613  0.8750000000000000
  0.7222284345255712  0.2777715654744286  0.8750000000000000
  0.0562709009793776  0.7780494084144445  0.3750000000000000
  0.3884451741017311  0.7780494084144445  0.3750000000000000
  0.2193400884477417  0.2763367108905388  0.3750000000000000
  0.7236632891094613  0.7806599115522581  0.3750000000000000
  0.5558707024295508  0.2704104137624537  0.3750000000000000
  0.8894749293233160  0.2774476362748420  0.3750000000000000
  0.0555559847685770  0.4444453028704828  0.8750000000000000
  0.2222209534764130  0.9444451577062333  0.8750000000000000
  0.5555546971295173  0.9444440152314232  0.8750000000000000
  0.3888922687558855  0.4444450495779173  0.8750000000000000
  0.8888935064380313  0.9444462953324029  0.8750000000000000
  0.0556912460881440  0.9443087539118560  0.3750000000000000
  0.7222194474886960  0.4444450495779173  0.8750000000000000
  0.3884451741017311  0.9437290990206222  0.3750000000000000
  0.2191479355760277  0.4446633749789266  0.3750000000000000
  0.2219505915855556  0.6115548258982688  0.3750000000000000
  0.7225523637251583  0.9453606263818102  0.3750000000000000
  0.8921821060695635  0.4446633749789266  0.3750000000000000
  0.0555548422937669  0.6111091291035159  0.8750000000000000
  0.2222253372767388  0.1111154548468201  0.8750000000000000
  0.7222194474886960  0.6111077312441149  0.8750000000000000
  0.5555567842367454  0.1111154548468201  0.8750000000000000
  0.8888888888888857  0.1111111111111143  0.8750000000000000
  0.1091258544175853  0.0541183697027918  0.3750000000000000
  0.6227485516019121  0.5788304365371530  0.3750000000000000
  0.4441682372589511  0.0539166341168535  0.3750000000000000
  0.9460833658831466  0.5558317627410491  0.3750000000000000
  0.7782835080240081  0.0558084206786718  0.3750000000000000
  0.1109134503494830  0.7221233918414059  0.8750000000000000
  0.4445343192548848  0.7224189787861321  0.8750000000000000
  0.2778487200922944  0.2221121589468885  0.8750000000000000
  0.7778878410531116  0.7221512799077054  0.8750000000000000
  0.6109301055212651  0.2221121589468885  0.8750000000000000
  0.9445442512439701  0.2224218358212759  0.8750000000000000
  0.2775451329385691  0.7224548670614309  0.3750000000000000
  0.1087391934827335  0.2210362634080310  0.3750000000000000
  0.4428025582083621  0.2189384497500600  0.3750000000000000
  0.6124589538553183  0.7290516506455467  0.3750000000000000
  0.9460833658831466  0.7235849364754338  0.3750000000000000
  0.7789637365919694  0.2210362634080310  0.3750000000000000
  0.1112107690175719  0.8887892309824281  0.8750000000000000
  0.4442451286315279  0.8887892309824281  0.8750000000000000
  0.2778487200922944  0.3890698944787348  0.8750000000000000
  0.6111964725472997  0.3888035274527005  0.8750000000000000
  0.7778820496607127  0.8890974326547535  0.8750000000000000
  0.9442481210953978  0.3887798699868189  0.8750000000000000
  0.1091258544175853  0.3883408180481220  0.3750000000000000
  0.2775451329385691  0.8884235992104669  0.3750000000000000
  0.6116591819518779  0.8908741455824146  0.3750000000000000
  0.4211695634628471  0.3772514483980878  0.3750000000000000
  0.9458816302972078  0.8908741455824146  0.3750000000000000
  0.7832593634568996  0.3875410461446814  0.3750000000000000
  0.2775810212138675  0.5554656807451153  0.8750000000000000
  0.1111984155580925  0.0557518789046020  0.8750000000000000
  0.6111964725472997  0.5557262784279277  0.8750000000000000
  0.4445343192548848  0.0554486738020879  0.8750000000000000
  0.9445513261979117  0.5554656807451153  0.8750000000000000
  0.1111826696665441  0.5556986726664171  0.3750000000000000
  0.7775781641787241  0.0554557487560299  0.8750000000000000
  0.2764150635245666  0.0539166341168535  0.3750000000000000
  0.4428025582083621  0.5571974417916379  0.3750000000000000
  0.7810615502499401  0.5571974417916379  0.3750000000000000
  0.6116591819518779  0.0541183697027918  0.3750000000000000
  0.4445324041735225  0.5554675958264771  0.8750000000000000
  0.9441915793213284  0.0558084206786718  0.3750000000000000
  0.2778766081585941  0.7221233918414059  0.8750000000000000
  0.1109025673452465  0.2221179503392876  0.8750000000000000
  0.4445324041735225  0.2223981416803807  0.8750000000000000
  0.6109301055212651  0.7221512799077054  0.8750000000000000
  0.9445513261979117  0.7224189787861321  0.8750000000000000
  0.7778820496607127  0.2221179503392876  0.8750000000000000
  0.1115764007895332  0.7224548670614309  0.3750000000000000
  0.4441682372589511  0.7235849364754338  0.3750000000000000
  0.2709483493544536  0.2167406365431007  0.3750000000000000
  0.7832593634568996  0.7290516506455467  0.3750000000000000
  0.6124589538553183  0.2167406365431007  0.3750000000000000
  0.9441915793213284  0.2217164919759920  0.3750000000000000
  0.1111984155580925  0.3887798699868189  0.8750000000000000
  0.2778766081585941  0.8890865496505168  0.8750000000000000
  0.6112201300131808  0.8888015844419074  0.8750000000000000
  0.4442737215720718  0.3888035274527005  0.8750000000000000
  0.9442481210953978  0.8888015844419074  0.8750000000000000
  0.1111826696665441  0.8888173303334562  0.3750000000000000
  0.7778878410531116  0.3890698944787348  0.8750000000000000
  0.4443013273335832  0.8888173303334562  0.3750000000000000
  0.2709483493544536  0.3875410461446814  0.3750000000000000
  0.2764150635245666  0.5558317627410491  0.3750000000000000
  0.6227485516019121  0.3772514483980879  0.3750000000000000
  0.7789637365919694  0.8912608065172667  0.3750000000000000
  0.9458816302972078  0.3883408180481220  0.3750000000000000
  0.1112107690175719  0.5557548713684725  0.8750000000000000
  0.2775810212138675  0.0554486738020879  0.8750000000000000
  0.7776018583196193  0.5554675958264771  0.8750000000000000
  0.6112201300131808  0.0557518789046020  0.8750000000000000
  0.9445442512439701  0.0554557487560299  0.8750000000000000
  0.0555137009477955  0.1110783350577212  0.1250451762285227
  0.5555319893234857  0.6112726165466471  0.1249067900939008
  0.3888037152192199  0.1109407637717826  0.1250952627172323
  0.8890592362282175  0.6111962847807801  0.1250952627172323
  0.7222313007765899  0.1110783350577212  0.1250451762285227
  0.0556264504679629  0.7778069356447233  0.6249487747702275
  0.3888471518434246  0.7778069356447233  0.6249487747702275
  0.2220993088423672  0.2777163210878516  0.6249612349385492
  0.7222836789121486  0.7779006911576325  0.6249612349385492
  0.5555319893234857  0.2775927061101741  0.6250932099060992
  0.8889216649422791  0.2777686992234101  0.6249548237714773
  0.2222222222222214  0.7777777777777786  0.1251067069765940
  0.0555137009477955  0.2777686992234101  0.1250451762285227
  0.3887273834533527  0.2775927061101741  0.1249067900939008
  0.5555334665439590  0.7778700663726686  0.1250281052471543
  0.8890032664953738  0.7778700663726686  0.1250281052471543
  0.7222836789121486  0.2777163210878516  0.1250387650614508
  0.0555660837300011  0.9444339162699991  0.6248983477645681
  0.3888471518434246  0.9443735495320368  0.6249487747702275
  0.2221299336273313  0.4444665334560409  0.6249718947528456
  0.5555555555555571  0.4444444444444429  0.6253336577166528
  0.7222313007765899  0.9444862990522047  0.6249548237714773
  0.8890032664953735  0.4444665334560409  0.6249718947528456
  0.0555660837300011  0.4444655007933306  0.1251016522354319
  0.2221930643552767  0.9443735495320368  0.1250512252297725
  0.5555344992066692  0.9444339162699991  0.1251016522354319
  0.3887273834533527  0.4444680106765144  0.1249067900939008
  0.8889216649422791  0.9444862990522047  0.1250451762285227
  0.7224072938898261  0.4444680106765144  0.1249067900939008
  0.2221930643552767  0.6111528481565756  0.6249487747702275
  0.0555137009477955  0.1110783350577212  0.6249548237714773
  0.5555319893234857  0.6112726165466471  0.6250932099060992
  0.3888037152192199  0.1109407637717826  0.6249047372827674
  0.8890592362282175  0.6111962847807801  0.6249047372827674
  0.0556264504679629  0.6111528481565756  0.1250512252297725
  0.7222313007765899  0.1110783350577212  0.6249548237714773
  0.2221299336273313  0.1109967335046261  0.1250281052471543
  0.3888037152192199  0.6111962847807801  0.1250952627172323
  0.7224072938898261  0.6112726165466471  0.1249067900939008
  0.5555334665439590  0.1109967335046261  0.1250281052471543
  0.3888037152192199  0.6111962847807801  0.6249047372827674
  0.8888888888888857  0.1111111111111143  0.1251158275668573
  0.2222222222222214  0.7777777777777786  0.6248932930234060
  0.0555137009477955  0.2777686992234101  0.6249548237714773
  0.3887273834533527  0.2775927061101741  0.6250932099060992
  0.5555334665439590  0.7778700663726686  0.6249718947528456
  0.8890032664953738  0.7778700663726686  0.6249718947528456
  0.7222836789121486  0.2777163210878516  0.6249612349385492
  0.0556264504679629  0.7778069356447233  0.1250512252297725
  0.3888471518434246  0.7778069356447233  0.1250512252297725
  0.2220993088423672  0.2777163210878516  0.1250387650614508
  0.7222836789121486  0.7779006911576325  0.1250387650614508
  0.5555319893234857  0.2775927061101741  0.1249067900939008
  0.8889216649422791  0.2777686992234101  0.1250451762285227
  0.0555660837300011  0.4444655007933306  0.6248983477645681
  0.2221930643552767  0.9443735495320368  0.6249487747702275
  0.5555344992066692  0.9444339162699991  0.6248983477645681
  0.3887273834533527  0.4444680106765144  0.6250932099060992
  0.8889216649422791  0.9444862990522047  0.6249548237714773
  0.0555660837300011  0.9444339162699991  0.1251016522354319
  0.7224072938898261  0.4444680106765144  0.6250932099060992
  0.3888471518434246  0.9443735495320368  0.1250512252297725
  0.2221299336273313  0.4444665334560409  0.1250281052471543
  0.2221930643552767  0.6111528481565756  0.1250512252297725
  0.5555555555555571  0.4444444444444429  0.1246663422833472
  0.7222313007765899  0.9444862990522047  0.1250451762285227
  0.8890032664953735  0.4444665334560409  0.1250281052471543
  0.0556264504679629  0.6111528481565756  0.6249487747702275
  0.2221299336273313  0.1109967335046261  0.6249718947528456
  0.7224072938898261  0.6112726165466471  0.6250932099060992
  0.5555334665439590  0.1109967335046261  0.6249718947528456
  0.8888888888888857  0.1111111111111143  0.6248841724331426
 
  0.00000000E+00  0.00000000E+00  0.00000000E+00
  0.00000000E+00  0.00000000E+00  0.00000000E+00
  0.00000000E+00  0.00000000E+00  0.00000000E+00
  0.00000000E+00  0.00000000E+00  0.00000000E+00
  0.00000000E+00  0.00000000E+00  0.00000000E+00
  0.00000000E+00  0.00000000E+00  0.00000000E+00
  0.00000000E+00  0.00000000E+00  0.00000000E+00
  0.00000000E+00  0.00000000E+00  0.00000000E+00
  0.00000000E+00  0.00000000E+00  0.00000000E+00
  0.00000000E+00  0.00000000E+00  0.00000000E+00
  0.00000000E+00  0.00000000E+00  0.00000000E+00
  0.00000000E+00  0.00000000E+00  0.00000000E+00
  0.00000000E+00  0.00000000E+00  0.00000000E+00
  0.00000000E+00  0.00000000E+00  0.00000000E+00
  0.00000000E+00  0.00000000E+00  0.00000000E+00
  0.00000000E+00  0.00000000E+00  0.00000000E+00
  0.00000000E+00  0.00000000E+00  0.00000000E+00
  0.00000000E+00  0.00000000E+00  0.00000000E+00
  0.00000000E+00  0.00000000E+00  0.00000000E+00
  0.00000000E+00  0.00000000E+00  0.00000000E+00
  0.00000000E+00  0.00000000E+00  0.00000000E+00
  0.00000000E+00  0.00000000E+00  0.00000000E+00
  0.00000000E+00  0.00000000E+00  0.00000000E+00
  0.00000000E+00  0.00000000E+00  0.00000000E+00
  0.00000000E+00  0.00000000E+00  0.00000000E+00
  0.00000000E+00  0.00000000E+00  0.00000000E+00
  0.00000000E+00  0.00000000E+00  0.00000000E+00
  0.00000000E+00  0.00000000E+00  0.00000000E+00
  0.00000000E+00  0.00000000E+00  0.00000000E+00
  0.00000000E+00  0.00000000E+00  0.00000000E+00
  0.00000000E+00  0.00000000E+00  0.00000000E+00
  0.00000000E+00  0.00000000E+00  0.00000000E+00
  0.00000000E+00  0.00000000E+00  0.00000000E+00
  0.00000000E+00  0.00000000E+00  0.00000000E+00
  0.00000000E+00  0.00000000E+00  0.00000000E+00
  0.00000000E+00  0.00000000E+00  0.00000000E+00
  0.00000000E+00  0.00000000E+00  0.00000000E+00
  0.00000000E+00  0.00000000E+00  0.00000000E+00
  0.00000000E+00  0.00000000E+00  0.00000000E+00
  0.00000000E+00  0.00000000E+00  0.00000000E+00
  0.00000000E+00  0.00000000E+00  0.00000000E+00
  0.00000000E+00  0.00000000E+00  0.00000000E+00
  0.00000000E+00  0.00000000E+00  0.00000000E+00
  0.00000000E+00  0.00000000E+00  0.00000000E+00
  0.00000000E+00  0.00000000E+00  0.00000000E+00
  0.00000000E+00  0.00000000E+00  0.00000000E+00
  0.00000000E+00  0.00000000E+00  0.00000000E+00
  0.00000000E+00  0.00000000E+00  0.00000000E+00
  0.00000000E+00  0.00000000E+00  0.00000000E+00
  0.00000000E+00  0.00000000E+00  0.00000000E+00
  0.00000000E+00  0.00000000E+00  0.00000000E+00
  0.00000000E+00  0.00000000E+00  0.00000000E+00
  0.00000000E+00  0.00000000E+00  0.00000000E+00
  0.00000000E+00  0.00000000E+00  0.00000000E+00
  0.00000000E+00  0.00000000E+00  0.00000000E+00
  0.00000000E+00  0.00000000E+00  0.00000000E+00
  0.00000000E+00  0.00000000E+00  0.00000000E+00
  0.00000000E+00  0.00000000E+00  0.00000000E+00
  0.00000000E+00  0.00000000E+00  0.00000000E+00
  0.00000000E+00  0.00000000E+00  0.00000000E+00
  0.00000000E+00  0.00000000E+00  0.00000000E+00
  0.00000000E+00  0.00000000E+00  0.00000000E+00
  0.00000000E+00  0.00000000E+00  0.00000000E+00
  0.00000000E+00  0.00000000E+00  0.00000000E+00
  0.00000000E+00  0.00000000E+00  0.00000000E+00
  0.00000000E+00  0.00000000E+00  0.00000000E+00
  0.00000000E+00  0.00000000E+00  0.00000000E+00
  0.00000000E+00  0.00000000E+00  0.00000000E+00
  0.00000000E+00  0.00000000E+00  0.00000000E+00
  0.00000000E+00  0.00000000E+00  0.00000000E+00
  0.00000000E+00  0.00000000E+00  0.00000000E+00
  0.00000000E+00  0.00000000E+00  0.00000000E+00
  0.00000000E+00  0.00000000E+00  0.00000000E+00
  0.00000000E+00  0.00000000E+00  0.00000000E+00
  0.00000000E+00  0.00000000E+00  0.00000000E+00
  0.00000000E+00  0.00000000E+00  0.00000000E+00
  0.00000000E+00  0.00000000E+00  0.00000000E+00
  0.00000000E+00  0.00000000E+00  0.00000000E+00
  0.00000000E+00  0.00000000E+00  0.00000000E+00
  0.00000000E+00  0.00000000E+00  0.00000000E+00
  0.00000000E+00  0.00000000E+00  0.00000000E+00
  0.00000000E+00  0.00000000E+00  0.00000000E+00
  0.00000000E+00  0.00000000E+00  0.00000000E+00
  0.00000000E+00  0.00000000E+00  0.00000000E+00
  0.00000000E+00  0.00000000E+00  0.00000000E+00
  0.00000000E+00  0.00000000E+00  0.00000000E+00
  0.00000000E+00  0.00000000E+00  0.00000000E+00
  0.00000000E+00  0.00000000E+00  0.00000000E+00
  0.00000000E+00  0.00000000E+00  0.00000000E+00
  0.00000000E+00  0.00000000E+00  0.00000000E+00
  0.00000000E+00  0.00000000E+00  0.00000000E+00
  0.00000000E+00  0.00000000E+00  0.00000000E+00
  0.00000000E+00  0.00000000E+00  0.00000000E+00
  0.00000000E+00  0.00000000E+00  0.00000000E+00
  0.00000000E+00  0.00000000E+00  0.00000000E+00
  0.00000000E+00  0.00000000E+00  0.00000000E+00
  0.00000000E+00  0.00000000E+00  0.00000000E+00
  0.00000000E+00  0.00000000E+00  0.00000000E+00
  0.00000000E+00  0.00000000E+00  0.00000000E+00
  0.00000000E+00  0.00000000E+00  0.00000000E+00
  0.00000000E+00  0.00000000E+00  0.00000000E+00
  0.00000000E+00  0.00000000E+00  0.00000000E+00
  0.00000000E+00  0.00000000E+00  0.00000000E+00
  0.00000000E+00  0.00000000E+00  0.00000000E+00
  0.00000000E+00  0.00000000E+00  0.00000000E+00
  0.00000000E+00  0.00000000E+00  0.00000000E+00
  0.00000000E+00  0.00000000E+00  0.00000000E+00
  0.00000000E+00  0.00000000E+00  0.00000000E+00
  0.00000000E+00  0.00000000E+00  0.00000000E+00
  0.00000000E+00  0.00000000E+00  0.00000000E+00
  0.00000000E+00  0.00000000E+00  0.00000000E+00
  0.00000000E+00  0.00000000E+00  0.00000000E+00
  0.00000000E+00  0.00000000E+00  0.00000000E+00
  0.00000000E+00  0.00000000E+00  0.00000000E+00
  0.00000000E+00  0.00000000E+00  0.00000000E+00
  0.00000000E+00  0.00000000E+00  0.00000000E+00
  0.00000000E+00  0.00000000E+00  0.00000000E+00
  0.00000000E+00  0.00000000E+00  0.00000000E+00
  0.00000000E+00  0.00000000E+00  0.00000000E+00
  0.00000000E+00  0.00000000E+00  0.00000000E+00
  0.00000000E+00  0.00000000E+00  0.00000000E+00
  0.00000000E+00  0.00000000E+00  0.00000000E+00
  0.00000000E+00  0.00000000E+00  0.00000000E+00
  0.00000000E+00  0.00000000E+00  0.00000000E+00
  0.00000000E+00  0.00000000E+00  0.00000000E+00
  0.00000000E+00  0.00000000E+00  0.00000000E+00
  0.00000000E+00  0.00000000E+00  0.00000000E+00
  0.00000000E+00  0.00000000E+00  0.00000000E+00
  0.00000000E+00  0.00000000E+00  0.00000000E+00
  0.00000000E+00  0.00000000E+00  0.00000000E+00
  0.00000000E+00  0.00000000E+00  0.00000000E+00
  0.00000000E+00  0.00000000E+00  0.00000000E+00
  0.00000000E+00  0.00000000E+00  0.00000000E+00
  0.00000000E+00  0.00000000E+00  0.00000000E+00
  0.00000000E+00  0.00000000E+00  0.00000000E+00
  0.00000000E+00  0.00000000E+00  0.00000000E+00
  0.00000000E+00  0.00000000E+00  0.00000000E+00
  0.00000000E+00  0.00000000E+00  0.00000000E+00
  0.00000000E+00  0.00000000E+00  0.00000000E+00
  0.00000000E+00  0.00000000E+00  0.00000000E+00
  0.00000000E+00  0.00000000E+00  0.00000000E+00
  0.00000000E+00  0.00000000E+00  0.00000000E+00
  0.00000000E+00  0.00000000E+00  0.00000000E+00
  0.00000000E+00  0.00000000E+00  0.00000000E+00
  0.00000000E+00  0.00000000E+00  0.00000000E+00
  0.00000000E+00  0.00000000E+00  0.00000000E+00
  0.00000000E+00  0.00000000E+00  0.00000000E+00
  0.00000000E+00  0.00000000E+00  0.00000000E+00
  0.00000000E+00  0.00000000E+00  0.00000000E+00
  0.00000000E+00  0.00000000E+00  0.00000000E+00
  0.00000000E+00  0.00000000E+00  0.00000000E+00
  0.00000000E+00  0.00000000E+00  0.00000000E+00
  0.00000000E+00  0.00000000E+00  0.00000000E+00
  0.00000000E+00  0.00000000E+00  0.00000000E+00
  0.00000000E+00  0.00000000E+00  0.00000000E+00
  0.00000000E+00  0.00000000E+00  0.00000000E+00
  0.00000000E+00  0.00000000E+00  0.00000000E+00
  0.00000000E+00  0.00000000E+00  0.00000000E+00
  0.00000000E+00  0.00000000E+00  0.00000000E+00
  0.00000000E+00  0.00000000E+00  0.00000000E+00
  0.00000000E+00  0.00000000E+00  0.00000000E+00
  0.00000000E+00  0.00000000E+00  0.00000000E+00
  0.00000000E+00  0.00000000E+00  0.00000000E+00
  0.00000000E+00  0.00000000E+00  0.00000000E+00
  0.00000000E+00  0.00000000E+00  0.00000000E+00
  0.00000000E+00  0.00000000E+00  0.00000000E+00
  0.00000000E+00  0.00000000E+00  0.00000000E+00
  0.00000000E+00  0.00000000E+00  0.00000000E+00
  0.00000000E+00  0.00000000E+00  0.00000000E+00
  0.00000000E+00  0.00000000E+00  0.00000000E+00
  0.00000000E+00  0.00000000E+00  0.00000000E+00
  0.00000000E+00  0.00000000E+00  0.00000000E+00
  0.00000000E+00  0.00000000E+00  0.00000000E+00
  0.00000000E+00  0.00000000E+00  0.00000000E+00
  0.00000000E+00  0.00000000E+00  0.00000000E+00
  0.00000000E+00  0.00000000E+00  0.00000000E+00
  0.00000000E+00  0.00000000E+00  0.00000000E+00
  0.00000000E+00  0.00000000E+00  0.00000000E+00
  0.00000000E+00  0.00000000E+00  0.00000000E+00
  0.00000000E+00  0.00000000E+00  0.00000000E+00
  0.00000000E+00  0.00000000E+00  0.00000000E+00
  0.00000000E+00  0.00000000E+00  0.00000000E+00
  0.00000000E+00  0.00000000E+00  0.00000000E+00
  0.00000000E+00  0.00000000E+00  0.00000000E+00
  0.00000000E+00  0.00000000E+00  0.00000000E+00
  0.00000000E+00  0.00000000E+00  0.00000000E+00
  0.00000000E+00  0.00000000E+00  0.00000000E+00
  0.00000000E+00  0.00000000E+00  0.00000000E+00
  0.00000000E+00  0.00000000E+00  0.00000000E+00
  0.00000000E+00  0.00000000E+00  0.00000000E+00
  0.00000000E+00  0.00000000E+00  0.00000000E+00
  0.00000000E+00  0.00000000E+00  0.00000000E+00
  0.00000000E+00  0.00000000E+00  0.00000000E+00
  0.00000000E+00  0.00000000E+00  0.00000000E+00
  0.00000000E+00  0.00000000E+00  0.00000000E+00
  0.00000000E+00  0.00000000E+00  0.00000000E+00
  0.00000000E+00  0.00000000E+00  0.00000000E+00
  0.00000000E+00  0.00000000E+00  0.00000000E+00
  0.00000000E+00  0.00000000E+00  0.00000000E+00
  0.00000000E+00  0.00000000E+00  0.00000000E+00
  0.00000000E+00  0.00000000E+00  0.00000000E+00
  0.00000000E+00  0.00000000E+00  0.00000000E+00
  0.00000000E+00  0.00000000E+00  0.00000000E+00
  0.00000000E+00  0.00000000E+00  0.00000000E+00
  0.00000000E+00  0.00000000E+00  0.00000000E+00
  0.00000000E+00  0.00000000E+00  0.00000000E+00
  0.00000000E+00  0.00000000E+00  0.00000000E+00
  0.00000000E+00  0.00000000E+00  0.00000000E+00
  0.00000000E+00  0.00000000E+00  0.00000000E+00
  0.00000000E+00  0.00000000E+00  0.00000000E+00
  0.00000000E+00  0.00000000E+00  0.00000000E+00
  0.00000000E+00  0.00000000E+00  0.00000000E+00
  0.00000000E+00  0.00000000E+00  0.00000000E+00
  0.00000000E+00  0.00000000E+00  0.00000000E+00
  0.00000000E+00  0.00000000E+00  0.00000000E+00
  0.00000000E+00  0.00000000E+00  0.00000000E+00
  0.00000000E+00  0.00000000E+00  0.00000000E+00
  0.00000000E+00  0.00000000E+00  0.00000000E+00
  0.00000000E+00  0.00000000E+00  0.00000000E+00
  0.00000000E+00  0.00000000E+00  0.00000000E+00
  0.00000000E+00  0.00000000E+00  0.00000000E+00
  0.00000000E+00  0.00000000E+00  0.00000000E+00
  0.00000000E+00  0.00000000E+00  0.00000000E+00
  0.00000000E+00  0.00000000E+00  0.00000000E+00
  0.00000000E+00  0.00000000E+00  0.00000000E+00
  0.00000000E+00  0.00000000E+00  0.00000000E+00
  0.00000000E+00  0.00000000E+00  0.00000000E+00
  0.00000000E+00  0.00000000E+00  0.00000000E+00
  0.00000000E+00  0.00000000E+00  0.00000000E+00
  0.00000000E+00  0.00000000E+00  0.00000000E+00
  0.00000000E+00  0.00000000E+00  0.00000000E+00
  0.00000000E+00  0.00000000E+00  0.00000000E+00
  0.00000000E+00  0.00000000E+00  0.00000000E+00
  0.00000000E+00  0.00000000E+00  0.00000000E+00
  0.00000000E+00  0.00000000E+00  0.00000000E+00
  0.00000000E+00  0.00000000E+00  0.00000000E+00
  0.00000000E+00  0.00000000E+00  0.00000000E+00
  0.00000000E+00  0.00000000E+00  0.00000000E+00
  0.00000000E+00  0.00000000E+00  0.00000000E+00
  0.00000000E+00  0.00000000E+00  0.00000000E+00
  0.00000000E+00  0.00000000E+00  0.00000000E+00
  0.00000000E+00  0.00000000E+00  0.00000000E+00
  0.00000000E+00  0.00000000E+00  0.00000000E+00
  0.00000000E+00  0.00000000E+00  0.00000000E+00
  0.00000000E+00  0.00000000E+00  0.00000000E+00
  0.00000000E+00  0.00000000E+00  0.00000000E+00
  0.00000000E+00  0.00000000E+00  0.00000000E+00