B N O                                   
   1.0000000000000000     
     8.7639499999999995  -15.1796066749929999    0.0000000000000000
     8.7639499999999995   15.1796066749929999    0.0000000000000000
     0.0000000000000000    0.0000000000000000   15.0000000000000000
   B    N    O 
    48    48     2
Selective dynamics
Direct
  0.9052036562326931  0.9523887317280038  0.1110438744333084   T   T   T
  0.9050480176936904  0.0949540035023057  0.1110452637201349   T   T   T
  0.9049888907864717  0.2376535108361850  0.1110198642934671   T   T   T
  0.9051923380404441  0.3805944605719598  0.1109805504661608   T   T   T
  0.9056712483385850  0.5237059601992218  0.1110641085008534   T   T   T
  0.9049614883090777  0.6666065828168960  0.1111533400648577   T   T   T
  0.9045497707911151  0.8090686086877537  0.1111080562120657   T   T   T
  0.0476734882831110  0.9523285329128920  0.1110187850823781   T   T   T
  0.0476132894680070  0.0947983649633029  0.1110438744333084   T   T   T
  0.0473608058863585  0.2375100780137865  0.1110486819847256   T   T   T
  0.0470835158270340  0.3806618488034436  0.1110351807214075   T   T   T
  0.0469363275841791  0.5239922452408253  0.1110328800010364   T   T   T
  0.0474384976315892  0.6669478551983509  0.1110829763207699   T   T   T
  0.0475031580354271  0.8096447719715469  0.1110330258110610   T   T   T
  0.1903572492244645  0.9524988631605840  0.1110330258110610   T   T   T
  0.1909334125082496  0.0954522504048884  0.1111080562120657   T   T   T
  0.1897332935308245  0.2369941746261834  0.1110739294046087   T   T   T
  0.1890268035757481  0.3803554482840082  0.1110137870076648   T   T   T
  0.1877333979993559  0.5242551886366517  0.1110241984145264   T   T   T
  0.1897354235617369  0.6673072891221029  0.1110430858194526   T   T   T
  0.1900790422534045  0.8099229789425999  0.1110218800284206   T   T   T
  0.3330541659986476  0.9525635235644141  0.1110829763207699   T   T   T
  0.3333954383801015  0.0950405328869190  0.1111533400648577   T   T   T
  0.3346677376289561  0.2387501124297360  0.1111179052967779   T   T   T
  0.3315747348962358  0.3786351685423276  0.1109834623084140   T   T   T
  0.3271950357810053  0.5244203576674680  0.1108985945376783   T   T   T
  0.3321933893600886  0.6678086318369099  0.1109718077298344   T   T   T
  0.3326947320748956  0.8102665976342674  0.1110430858194526   T   T   T
  0.4760097759561728  0.9530656936118238  0.1110328800010364   T   T   T
  0.4762960609977768  0.0943307728574108  0.1110641085008534   T   T   T
  0.4767672413051547  0.2353888128505563  0.1109694675530739   T   T   T
  0.4800449043833879  0.3778633494844946  0.1111377789184059   T   T   T
  0.4755816635295375  0.6728069854159938  0.1108985945376783   T   T   T
  0.4757468325603543  0.8122686231966476  0.1110241984145264   T   T   T
  0.6193401723925601  0.9529185053689702  0.1110351807214075   T   T   T
  0.6194075606240349  0.0948096831555527  0.1109805504661608   T   T   T
  0.6198727812699614  0.2367601630916741  0.1109259209018157   T   T   T
  0.6211034629445434  0.3788985582514600  0.1108848860519427   T   T   T
  0.6221386717115021  0.5199571168136100  0.1111377789184059   T   T   T
  0.6213668526536769  0.6684272863007633  0.1109834623084140   T   T   T
  0.6196465729119954  0.8109752176202544  0.1110137870076648   T   T   T
  0.7624919431822168  0.9526412153096453  0.1110486819847256   T   T   T
  0.7623485103598105  0.0950131304095250  0.1110198642934671   T   T   T
  0.7625438012800687  0.2374582199159357  0.1109444310536335   T   T   T
  0.7632418581043285  0.3801292399260429  0.1109259209018157   T   T   T
  0.7646132083454472  0.5232347798918515  0.1109694675530739   T   T   T
  0.7612519087662604  0.6653342835680498  0.1111179052967779   T   T   T
  0.7630078465698197  0.8102687276651778  0.1110739294046087   T   T   T
  0.9523937889485755  0.9044597815173748  0.1110313769695712   T   T   T
  0.9526135099000411  0.0473878920179636  0.1110196048538783   T   T   T
  0.9524136447278491  0.1900062206204129  0.1110274671234439   T   T   T
  0.9523004760736766  0.3327786283815014  0.1109912692297151   T   T   T
  0.9524087652328012  0.4758281855547092  0.1110037240312524   T   T   T
  0.9524685349593387  0.6189721433248977  0.1111225330426271   T   T   T
  0.9523517457791043  0.7617809482353479  0.1111065385449149   T   T   T
  0.0951955999256147  0.9048058019923831  0.1109691807489885   T   T   T
  0.0955416204006169  0.0476076129694290  0.1110313769695712   T   T   T
  0.0948159559411198  0.1897364202395447  0.1110470744825116   T   T   T
  0.0942905430130349  0.3326394200511420  0.1110337941390455   T   T   T
  0.0934377725700949  0.4759473444354007  0.1110271251804228   T   T   T
  0.0946890070959900  0.6192659175279174  0.1110333893853813   T   T   T
  0.0949877082446456  0.7621225128932809  0.1110155592875927   T   T   T
  0.2378788890247257  0.9050136936733602  0.1110155592875927   T   T   T
  0.2382204536826586  0.0476496561389016  0.1111065385449149   T   T   T
  0.2389204847543652  0.1908188975367388  0.1111112722744846   T   T   T
  0.2362883647862987  0.3316271833571693  0.1110132284740373   T   T   T
  0.2333879477657701  0.4758703797642380  0.1109562648233092   T   T   T
  0.2368749381258766  0.6196429850904327  0.1109963957180874   T   T   T
  0.2375440207522665  0.7624573811657384  0.1110275731015362   T   T   T
  0.3807354843900808  0.9053123948220088  0.1110333893853813   T   T   T
  0.3810292585931007  0.0475328669586681  0.1111225330426271   T   T   T
  0.3814848816479050  0.1901010115046743  0.1111040209690508   T   T   T
  0.3836007311465331  0.3347228315179357  0.1110598985589495   T   T   T
  0.3660295721662755  0.4709128986064014  0.1108236578092121   T   T   T
  0.3796533448168199  0.6203480571011784  0.1108562677618813   T   T   T
  0.3803584168275674  0.7631264637921296  0.1109963957180874   T   T   T
  0.5240540574815973  0.9065636293479030  0.1110271251804228   T   T   T
  0.5241732163622861  0.0475926366852048  0.1110037240312524   T   T   T
  0.5246019229329908  0.1888025244057032  0.1109723722121244   T   T   T
  0.5256072670978036  0.3293237615816580  0.1108694492265039   T   T   T
  0.5290885033105949  0.6339718297517244  0.1108236578092121   T   T   T
  0.5241310221527654  0.7666134541522432  0.1109562648233092   T   T   T
  0.6673619818658542  0.9057108589049631  0.1110337941390455   T   T   T
  0.6672227735354958  0.0477009258443288  0.1109912692297151   T   T   T
  0.6674605726526027  0.1896703947506505  0.1109237441002591   T   T   T
  0.6682737126006960  0.3317276893163005  0.1108794929422472   T   T   T
  0.6706776403353386  0.4743941348191928  0.1108694492265039   T   T   T
  0.6652785703990612  0.6164006707714652  0.1110598985589495   T   T   T
  0.6683742185598274  0.7637130371317074  0.1110132284740373   T   T   T
  0.8102649816784535  0.9051854459768791  0.1110470744825116   T   T   T
  0.8099951812975918  0.0475877571901568  0.1110274671234439   T   T   T
  0.8099971617545478  0.1900042401634512  0.1109777754377297   T   T   T
  0.8103310071673483  0.3325408292644011  0.1109237441002591   T   T   T
  0.8111988775122877  0.4753994789840059  0.1109723722121244   T   T   T
  0.8099003904133252  0.6185165202700931  0.1111040209690508   T   T   T
  0.8091825043812592  0.7610809171636401  0.1111112722744846   T   T   T
  0.4642646896504861  0.5357373315465120  0.1107733278592587   T   T   T
  0.5343081723279632  0.4656932295890339  0.1114480745189026   T   T   T

  0.00000000E+00  0.00000000E+00  0.00000000E+00
  0.00000000E+00  0.00000000E+00  0.00000000E+00
  0.00000000E+00  0.00000000E+00  0.00000000E+00
  0.00000000E+00  0.00000000E+00  0.00000000E+00
  0.00000000E+00  0.00000000E+00  0.00000000E+00
  0.00000000E+00  0.00000000E+00  0.00000000E+00
  0.00000000E+00  0.00000000E+00  0.00000000E+00
  0.00000000E+00  0.00000000E+00  0.00000000E+00
  0.00000000E+00  0.00000000E+00  0.00000000E+00
  0.00000000E+00  0.00000000E+00  0.00000000E+00
  0.00000000E+00  0.00000000E+00  0.00000000E+00
  0.00000000E+00  0.00000000E+00  0.00000000E+00
  0.00000000E+00  0.00000000E+00  0.00000000E+00
  0.00000000E+00  0.00000000E+00  0.00000000E+00
  0.00000000E+00  0.00000000E+00  0.00000000E+00
  0.00000000E+00  0.00000000E+00  0.00000000E+00
  0.00000000E+00  0.00000000E+00  0.00000000E+00
  0.00000000E+00  0.00000000E+00  0.00000000E+00
  0.00000000E+00  0.00000000E+00  0.00000000E+00
  0.00000000E+00  0.00000000E+00  0.00000000E+00
  0.00000000E+00  0.00000000E+00  0.00000000E+00
  0.00000000E+00  0.00000000E+00  0.00000000E+00
  0.00000000E+00  0.00000000E+00  0.00000000E+00
  0.00000000E+00  0.00000000E+00  0.00000000E+00
  0.00000000E+00  0.00000000E+00  0.00000000E+00
  0.00000000E+00  0.00000000E+00  0.00000000E+00
  0.00000000E+00  0.00000000E+00  0.00000000E+00
  0.00000000E+00  0.00000000E+00  0.00000000E+00
  0.00000000E+00  0.00000000E+00  0.00000000E+00
  0.00000000E+00  0.00000000E+00  0.00000000E+00
  0.00000000E+00  0.00000000E+00  0.00000000E+00
  0.00000000E+00  0.00000000E+00  0.00000000E+00
  0.00000000E+00  0.00000000E+00  0.00000000E+00
  0.00000000E+00  0.00000000E+00  0.00000000E+00
  0.00000000E+00  0.00000000E+00  0.00000000E+00
  0.00000000E+00  0.00000000E+00  0.00000000E+00
  0.00000000E+00  0.00000000E+00  0.00000000E+00
  0.00000000E+00  0.00000000E+00  0.00000000E+00
  0.00000000E+00  0.00000000E+00  0.00000000E+00
  0.00000000E+00  0.00000000E+00  0.00000000E+00
  0.00000000E+00  0.00000000E+00  0.00000000E+00
  0.00000000E+00  0.00000000E+00  0.00000000E+00
  0.00000000E+00  0.00000000E+00  0.00000000E+00
  0.00000000E+00  0.00000000E+00  0.00000000E+00
  0.00000000E+00  0.00000000E+00  0.00000000E+00
  0.00000000E+00  0.00000000E+00  0.00000000E+00
  0.00000000E+00  0.00000000E+00  0.00000000E+00
  0.00000000E+00  0.00000000E+00  0.00000000E+00
  0.00000000E+00  0.00000000E+00  0.00000000E+00
  0.00000000E+00  0.00000000E+00  0.00000000E+00
  0.00000000E+00  0.00000000E+00  0.00000000E+00
  0.00000000E+00  0.00000000E+00  0.00000000E+00
  0.00000000E+00  0.00000000E+00  0.00000000E+00
  0.00000000E+00  0.00000000E+00  0.00000000E+00
  0.00000000E+00  0.00000000E+00  0.00000000E+00
  0.00000000E+00  0.00000000E+00  0.00000000E+00
  0.00000000E+00  0.00000000E+00  0.00000000E+00
  0.00000000E+00  0.00000000E+00  0.00000000E+00
  0.00000000E+00  0.00000000E+00  0.00000000E+00
  0.00000000E+00  0.00000000E+00  0.00000000E+00
  0.00000000E+00  0.00000000E+00  0.00000000E+00
  0.00000000E+00  0.00000000E+00  0.00000000E+00
  0.00000000E+00  0.00000000E+00  0.00000000E+00
  0.00000000E+00  0.00000000E+00  0.00000000E+00
  0.00000000E+00  0.00000000E+00  0.00000000E+00
  0.00000000E+00  0.00000000E+00  0.00000000E+00
  0.00000000E+00  0.00000000E+00  0.00000000E+00
  0.00000000E+00  0.00000000E+00  0.00000000E+00
  0.00000000E+00  0.00000000E+00  0.00000000E+00
  0.00000000E+00  0.00000000E+00  0.00000000E+00
  0.00000000E+00  0.00000000E+00  0.00000000E+00
  0.00000000E+00  0.00000000E+00  0.00000000E+00
  0.00000000E+00  0.00000000E+00  0.00000000E+00
  0.00000000E+00  0.00000000E+00  0.00000000E+00
  0.00000000E+00  0.00000000E+00  0.00000000E+00
  0.00000000E+00  0.00000000E+00  0.00000000E+00
  0.00000000E+00  0.00000000E+00  0.00000000E+00
  0.00000000E+00  0.00000000E+00  0.00000000E+00
  0.00000000E+00  0.00000000E+00  0.00000000E+00
  0.00000000E+00  0.00000000E+00  0.00000000E+00
  0.00000000E+00  0.00000000E+00  0.00000000E+00
  0.00000000E+00  0.00000000E+00  0.00000000E+00
  0.00000000E+00  0.00000000E+00  0.00000000E+00
  0.00000000E+00  0.00000000E+00  0.00000000E+00
  0.00000000E+00  0.00000000E+00  0.00000000E+00
  0.00000000E+00  0.00000000E+00  0.00000000E+00
  0.00000000E+00  0.00000000E+00  0.00000000E+00
  0.00000000E+00  0.00000000E+00  0.00000000E+00
  0.00000000E+00  0.00000000E+00  0.00000000E+00
  0.00000000E+00  0.00000000E+00  0.00000000E+00
  0.00000000E+00  0.00000000E+00  0.00000000E+00
  0.00000000E+00  0.00000000E+00  0.00000000E+00
  0.00000000E+00  0.00000000E+00  0.00000000E+00
  0.00000000E+00  0.00000000E+00  0.00000000E+00
  0.00000000E+00  0.00000000E+00  0.00000000E+00
  0.00000000E+00  0.00000000E+00  0.00000000E+00
  0.00000000E+00  0.00000000E+00  0.00000000E+00
  0.00000000E+00  0.00000000E+00  0.00000000E+00
