 O B N 
 1.0
 17.527899999999772   0.000000000000000   0.000000000000000
 -8.763949999999658  15.179606674993195   0.000000000000000
  0.000000000000001   0.000000000000002  15.000000000000000
 O B N 
   2  48  48
Cartesian
  3.442409866917776   8.132281973986476   1.661599917888885 
  5.283988034290526   7.069040056368839   1.671721117783545 
  7.519631940653499  14.456886349326712   1.665658116499620 
 15.031419010339020   1.441364425380932   1.665678955802025 
 13.779771292523293   3.607486819424521   1.665297964402005 
 12.530609959209393   5.777274214163558   1.664708256992415 
 11.284782223865886   7.949650489173831   1.665961627512795 
 10.019441137599376  10.119737783328796   1.667300100972870 
  8.764221094340613  12.281343252964088   1.666620843180990 
 -7.510543510744085  14.455972554991012   1.665281776235670 
  0.003752845846162   1.439001893575395   1.665658116499620 
 -1.251390978713364   3.605309565596236   1.665730229770890 
 -2.510826252756154   5.778297141012009   1.665527710821120 
 -3.769546581415429   7.953996183502299   1.665493200015540 
 -5.013600412928643  10.124006114641283   1.666244644811550 
 -6.263055695590613  12.290089184992640   1.665495387165915 
 -5.011089583114417  14.458558101155830   1.665495387165915 
  2.510123011167426   1.448927617389160   1.666620843180990 
  1.248621098963831   3.597478355090110   1.666108941069135 
 -0.020173220593192   5.773646101641957   1.665206805114975 
 -1.303974033659137   7.957987560828739   1.665362976217890 
 -2.522584185853700  10.129462180229488   1.665646287291795 
 -3.766438046590326  12.294312257387464   1.665328200426315 
 -2.510478976134394  14.459539620653416   1.666244644811550 
  5.009702855138976   1.442677907405186   1.667300100972870 
  3.773628590557998   3.624132800293796   1.666768579451670 
  2.493469110441254   5.747532931792295   1.664751934626210 
  1.139048074086176   7.960494761751415   1.663478918065170 
 -0.029988949622231  10.137072365449631   1.664577115947510 
 -1.269695954001063  12.299528253973145   1.665646287291795 
 -0.009168333546924  14.467162364457064   1.665493200015540 
  7.521759550779151   1.431904029323623   1.665961627512795 
  6.293792742490968   3.573109594765024   1.664542013296110 
  5.102603577826965   5.735817022070127   1.667066683776090 
  2.439501060343009  10.212945406802673   1.663478918065170 
  1.220161306170533  12.329918214563371   1.665362976217890 
  2.504402472551352  14.464928104823358   1.665527710821120 
 10.026006459170805   1.439173699282023   1.664708256992415 
  8.790113891494412   3.593926152038852   1.663888813527240 
  7.565991368557759   5.751531083979160   1.663273290779145 
  6.347906249993434   7.892744521094091   1.667066683776090 
  5.033192740852899  10.146463296878649   1.664751934626210 
  3.753756906881267  12.310284826642468   1.665206805114975 
  5.015982551990771  14.460718950787916   1.665730229770890 
 12.529678130483033   1.442261948576425   1.665297964402005 
 11.284719528024562   3.604522380067944   1.664166465804495 
 10.046593312416979   5.770212347741452   1.663888813527240 
  8.816460405324968   7.942498157434952   1.664542013296110 
  7.512190937187970  10.099512731951387   1.666768579451670 
  6.272770618070014  12.299560587004580   1.666108941069135 
  8.766822791082639  13.729343736784033   1.665470654543565 
 16.282009223925890   0.719329561989743   1.665294072808170 
 15.028606106218843   2.884219694819851   1.665412006851660 
 13.775372254367642   5.051448688674913   1.664869038445725 
 12.523591169331766   7.222884701596161   1.665055860468780 
 11.270132318421551   9.395753678449466   1.666837995639405 
 10.016516023554420  11.563535166715935   1.666598078173725 
 -6.261093852434671  13.734596191496149   1.664537711234820 
  1.257413228536542   0.722664839611237   1.665470654543565 
 -0.000915906017960   2.880124231157511   1.665706117237680 
 -1.262520036478938   5.049335560974180   1.665506912085690 
 -2.533410795433123   7.224693486536898   1.665406877706345 
 -3.767516090440795   9.400213055302554   1.665500840780715 
 -5.014268545529501  11.568719983877436   1.665233389313895 
 -3.761977381731894  13.737751905444384   1.665233389313895 
  3.757905086185710   0.723303038387208   1.666598078173725 
  2.515447087658941   2.896555810763526   1.666669084117275 
  1.235274775554768   5.033970206097675   1.665198427110555 
 -0.079703605091045   7.223525193100774   1.664343972349635 
 -1.278599911206583   9.405936792591445   1.664945935771305 
 -2.518490524323621  11.573803152541268   1.665413596523040 
 -1.260619065759223  13.742286071394243   1.665500840780715 
  6.262067072311526   0.721530224567360   1.666837995639405 
  5.020593097259904   2.885658583159308   1.666560314535765 
  3.790221096181727   5.080960927582284   1.665898478384250 
  2.288672640231778   7.148272579026118   1.662354867138180 
  1.217826507582996   9.416639508392102   1.662844016428215 
 -0.021117878038953  11.583959563642969   1.664945935771305 
  1.240488794708319  13.761279319355486   1.665406877706345 
  8.770556230799107   0.722437505507264   1.665055860468780 
  7.540514161211758   2.865948059724375   1.664585583181860 
  6.326614636650019   4.999005169538803   1.663041738397560 
  3.717712959825253   9.623443018656918   1.662354867138180 
  2.468354161674041  11.636890705788979   1.664343972349635 
  3.759849400046510  13.748334599447595   1.665506912085690 
 11.276965523199276   0.724081292349932   1.664869038445725 
 10.036920315322504   2.879121990205576   1.663856161503885 
  8.806189924310113   5.035495847025776   1.663192394133705 
  7.598004134185132   7.201116375479044   1.663041738397560 
  6.258831595490180   9.356719736512813   1.665898478384250 
  5.022053593724476  11.592863516223785   1.665198427110555 
  6.269243583092829  13.740359037857324   1.665706117237680 
 13.780457813639217   0.722363436691663   1.665412006851660 
 12.532361590936945   2.884189632262131   1.664666631565950 
 11.289029659896739   5.047838991609674   1.663856161503885 
 10.052235541305730   7.216377104473905   1.664585583181860 
  8.775205195304665   9.388837499685467   1.666560314535765 
  7.513194914568063  11.552908970387133   1.666669084117275 
