 Al B N 
 1.0
 17.527899999999772   0.000000000000000   0.000000000000000
 -8.763949999999658  15.179606674993195   0.000000000000000
  0.000000000000001   0.000000000000002  15.000000000000000
 Al B N 
   2  48  48
Cartesian
  4.068766116845737   7.770655024481967   1.757981183919060 
  5.988620577680742   6.662220267762780   1.768919167977690 
  7.504356210520950  14.500909334741953   1.658294664266010 
 14.985782503326027   1.467712674989718   1.667957202330840 
 13.730904363417068   3.630718544736510   1.677282713030370 
 12.501986918011715   5.801803704035293   1.679303487197925 
 11.288812258092966   7.979783503749183   1.647468476628975 
 10.069071622177175  10.181497364203919   1.649865035183325 
  8.810695603091474  12.371352298129427   1.631924998305195 
 -7.511953970804894  14.456786884486853   1.665834360368025 
 -0.042010042940177   1.430219571223858   1.658294664266010 
 -1.309523188824000   3.608472228680106   1.656295838340990 
 -2.544632336513450   5.787878350072957   1.665419673108120 
 -3.753288462771946   7.960472839315353   1.662638932242900 
 -4.978365930000175  10.130719982755966   1.658486218616865 
 -6.229535818016161  12.302306749492027   1.658759834750175 
 -5.004910365556100  14.423420253394839   1.658759834750175 
  2.455410145859420   1.363674989599678   1.631924998305195 
  1.166367977360010   3.543123594080618   1.627415124140400 
 -0.076151862253093   5.759344220492748   1.645696503206145 
 -1.260905188692806   7.943774845189870   1.662902247590985 
 -2.478681037451982  10.112637005201629   1.666293102250410 
 -3.733164071995593  12.275101519198206   1.667246139609975 
 -2.498676115015222  14.425668729290843   1.658486218616865 
  4.981068158801889   1.368816856520968   1.649865035183325 
  3.641526084500338   3.429527122899025   1.667189892076995 
  2.342470076267342   5.673487143662147   1.683724680478275 
  1.245104317620396   7.903261973540467   1.663099955405985 
  0.035537327868616  10.099240751501357   1.663846578553080 
 -1.233173350803003  12.269919599665021   1.666293102250410 
 -0.006648222691020  14.449844092787584   1.662638932242900 
  7.497678611777944   1.413347410017190   1.647468476628975 
  6.208895489258502   3.496523710095865   1.708914509931315 
  4.688599673754215   5.464225083144344   1.831791490124595 
  2.542094230629926  10.149714399777666   1.663099955405985 
  1.254004301453454  12.299725858530293   1.662902247590985 
  2.479201860226970  14.489414427629134   1.665419673108135 
  9.990451777201075   1.451697235157020   1.679303487197925 
  8.745894087894102   3.597502562568866   1.638084031567335 
  7.607188132848979   5.727746121025913   1.244905722403200 
  6.376109816529927   8.387078388750027   1.831791490124595 
  5.021818757329871  10.314255190485351   1.683724680478275 
  3.738153378448508  12.365914692963862   1.645696503206145 
  4.984177500361035  14.509481589980080   1.656295838340990 
 12.485125401636022   1.472966087931401   1.677282713030370 
 11.238129975384020   3.631420870826335   1.687812921950700 
 10.021386148243566   5.806719615744688   1.638084031567335 
  8.840337100403611   8.054314277780200   1.708914509931315 
  7.614673144504011  10.311219696798110   1.667189892076995 
  6.278716661119096  12.397971260358775   1.627415124140400 
  8.766143003756348  13.786855823967693   1.659256034833320 
 16.236953264306624   0.745342632404597   1.667383681138470 
 14.972588486344227   2.902497362864824   1.667764614783060 
 13.736093476716453   5.071374069903769   1.676580583722930 
 12.521752901656590   7.244698074061081   1.660823166559755 
 11.296584377629612   9.424536706232603   1.650472326017655 
 10.047383690123308  11.615456259507233   1.640003292549450 
 -6.256748624677187  13.732087473080686   1.668277731645315 
  1.207266406347856   0.694497509113146   1.659256034833305 
 -0.075296947047518   2.858220399977717   1.646191838186685 
 -1.317879695212421   5.047813341762477   1.654380146044950 
 -2.518076744918485   7.229489297864150   1.665474936421350 
 -3.736585944526910   9.401529582075982   1.661444565611505 
 -4.985382215754928  11.569389887417907   1.664390032281090 
 -3.748114370328785  13.712400658267258   1.664390032281090 
  3.728373934120639   0.670610308587293   1.640003292549450 
  2.400294733846047   2.773956310064645   1.608214659115695 
  1.122454561667384   4.974506324475627   1.634362469204130 
 -0.032675063035904   7.205603386417699   1.656315746851275 
 -1.231910529704185   9.387920431222925   1.666650930723660 
 -2.484143855756570  11.553973094198344   1.667987497655640 
 -1.246294138432909  13.714841515903453   1.661444565611505 
  6.250366268657518   0.684230555419218   1.650472326017655 
  4.947274720946575   2.793992142976853   1.676806811616630 
  3.517579314795645   4.823709336486148   1.739701119263520 
  2.415555395519690   7.086999257593349   1.682873971675995 
  1.291051255336925   9.374363180564997   1.659549951630225 
  0.017829439341216  11.552533553859231   1.666650930723660 
  1.244002525524368  13.745601736403346   1.665474936421350 
  8.750746162264784   0.713122805780476   1.660823166559755 
  7.492188041187152   2.854294470632292   1.639577075238495 
  6.145222236069552   4.907276207638598   1.799797609477440 
  3.834218590404278   9.544195989991852   1.682873971675995 
  2.507389172570641  11.605123697007729   1.656315746851275 
  3.733487851187276  13.797038579861589   1.654380146044950 
 11.240070248049420   0.748135021010946   1.676580583722930 
  9.992463319282047   2.894673378622433   1.688976210511875 
  8.793825613330238   5.042634385298412   1.566041372145030 
  7.586747545163287   7.404071283385186   1.799797609477440 
  6.345297117850338   9.721460240874254   1.739701119263520 
  5.017140718873287  11.720300628321647   1.634362469204130 
  6.251022336819966  13.815726824538585   1.646191838186685 
 13.736620078853008   0.761737284540074   1.667764614783060 
 12.482687452025493   2.912869009734431   1.683837390404925 
 11.253333264443466   5.078564185348106   1.688976210511875 
 10.038164785492594   7.264055546627561   1.639577075238495 
  8.817931473020352   9.498166296228325   1.676806811616630 
  7.561793019758110  11.713933584444160   1.608214659115695 
