 B N 
 1.0
 14.936314146199660   0.000000000000000   0.000000000000000
 -7.468157073099825  12.935227489513863   0.000000000000000
  0.000000000000001   0.000000000000001  13.341276283792837
 B N 
 144 143
Cartesian
  1.245459968268910   0.722126560767255   5.002978606422314 
  4.978771382066588   7.173914572242683   5.002978606422314 
  6.224985016256355   0.719684894972664   5.002978606422314 
  9.957384179461751   7.184389879772008   5.002978606422314 
 11.202346250893243   0.718687628169169   5.002978606422314 
 -3.734016996538895   9.342144272568561  11.673616748318732 
  1.244555132290484   9.342359041697971  11.673616748318732 
  2.488985936374039   2.874160049077044  11.673616748318732 
  6.223554424243822   9.342622414413215  11.673616748318732 
  7.468556827759137   2.874160049077044  11.673616748318732 
 12.446928455166372   2.874365938991724  11.673616748318732 
 -1.243815258484131   9.341602067317226   5.002978606422314 
  0.000200742522633   2.874610896419181   5.002978606422314 
  4.978771382066535   2.867485990104628   5.002978606422314 
  3.741663414784078   9.335482723914243   5.002978606422314 
  8.711170545271932   9.342895211273847   5.002978606422314 
  9.957342021610556   2.874610896419181   5.002978606422314 
 -4.978823541426010  11.498010104899217  11.673616748318732 
  0.000052159359548  11.498010104899217  11.673616748318732 
  1.244202894196809   5.030187522528173  11.673616748318732 
  6.223785892066005   5.030180532846319  11.673616748318732 
  4.978771382066583  11.498394897499727  11.673616748318732 
 11.202461322556321   5.030213959927046  11.673616748318732 
 -1.241275760526855   5.029279188038370   5.002978606422314 
 -2.489385691033239  11.498993340897840   5.002978606422314 
  2.492035653270819  11.495564237212793   5.002978606422314 
  3.744750499991626   5.036527706887873   5.002978606422314 
  7.465507110862365  11.495564237212793   5.002978606422314 
  8.703319179141754   5.027110557942883   5.002978606422314 
 -0.000285622140561   7.186231607691014  11.673616748318732 
  1.244448105523095   0.718504419303890  11.673616748318732 
  4.978771382066596   7.186608920325781  11.673616748318732 
  6.223612136497579   0.718379336629537  11.673616748318732 
  9.957828386273649   7.186231607691014  11.673616748318732 
 -2.489385691033241   7.184349213614646   5.002978606422314 
 11.202347377743488   0.718688278756461  11.673616748318732 
  3.732557747876713   0.719684894972664   5.002978606422314 
  2.483315712426540   7.189741997956947   5.002978606422314 
  7.474227051706534   7.189741997956947   5.002978606422314 
  8.712082795864262   0.722126560767255   5.002978606422314 
  2.489067331944156   7.186421298880174  11.673616748318732 
 13.691510659439498   0.718687628169169   5.002978606422314 
 -1.244754385527570   9.342144272568561  11.673616748318732 
 -0.000359319846931   2.874287544259360  11.673616748318732 
  4.978771382066536   2.874127388258173  11.673616748318732 
  3.733988339889361   9.342622414413215  11.673616748318732 
  8.712987631842605   9.342359041697971  11.673616748318732 
  9.957902083980104   2.874287544259360  11.673616748318732 
 -3.734956123582349   9.341602067317226   5.002978606422314 
  1.246372218861143   9.342895211273847   5.002978606422314 
  2.491331552273955   2.884376704161291   5.002978606422314 
  6.215879349349115   9.335482723914243   5.002978606422314 
  7.466211211859235   2.884376704161291   5.002978606422314 
 12.446928455166372   2.874367240166306   5.002978606422314 
 -1.244918558423145   5.030213959927046  11.673616748318732 
 -2.489385691033239  11.497908930395175  11.673616748318732 
  2.489404718120350  11.498251606787496  11.673616748318732 
  3.733756872067186   5.030180532846319  11.673616748318732 
  7.468138046012833  11.498251606787496  11.673616748318732 
 -4.980406681000686  11.498924130958811   5.002978606422314 
  8.713339869936368   5.030187522528173  11.673616748318732 
  0.001635298934222  11.498924130958811   5.002978606422314 
  1.254223584991436   5.027110557942883   5.002978606422314 
  0.000158584671321   7.184389879772008   5.002978606422314 
  6.212792264141550   5.036527706887873   5.002978606422314 
  4.978771382066598  11.497748193180055   5.002978606422314 
 11.198818524660044   5.029279188038370   5.002978606422314 
 -2.489385691033233   7.186177265733848  11.673616748318732 
  3.733930627635490   0.718379336629537  11.673616748318732 
  7.468475432188919   7.186421298880174  11.673616748318732 
  8.713094658610078   0.718504419303890  11.673616748318732 
 13.691509532589256   0.718688278756461  11.673616748318732 
 -0.000126662800940   1.436884268960832   1.666328943697400 
  3.732882552623948   7.906180712029410   1.665327145013872 
  4.978771382066474   1.435274060225788   1.665729970627780 
  8.714558966584708   7.905847962896417   1.665729970627780 
  9.957669426934023   1.436884268960832   1.666328943697400 
 -4.977925148458589  10.061044999466525   8.339568320410699 
 -0.000846233607981  10.061044999466525   8.339568320410699 
  1.243802704229525   3.592604823775467   8.340373022596939 
  4.978771382066546  10.061760338467575   8.340373022596939 
  6.224008928806646   3.591423260406010   8.340630067830755 
 11.202613507348538   3.593190668820899   8.339628269147227 
 -2.489385691033300  10.060732491844131   1.666530576738701 
 -1.245070743215453   3.593190668820898   1.666328943697400 
  3.733533835326408   3.591423260406009   1.665327145013872 
  2.488399742684622  10.061578607302465   1.665925545966340 
  7.469143021448483  10.061578607302465   1.665925545966340 
  8.713740059903561   3.592604823775466   1.665584190247689 
 -6.223086531634662  12.216385677238875   8.339571685064060 
 -1.244845322780757  12.215714626483194   8.339568320410699 
 -0.001225731655814   5.749420793927092   8.340031666878287 
  4.978771382066590   5.748989995339477   8.341407152817238 
  3.733827301652032  12.216895048236776   8.339628269147227 
  9.958768495788885   5.749420793927092   8.340031666878287 
 -2.489385691033234   5.749426121054531   1.666385527780567 
 -3.733926059285827  12.215714626483194   1.666388892433916 
  1.244315149568199  12.216385677238875   1.666385527780567 
  2.487645005883821   5.749366013583099   1.665327145013872 
  6.223715462481061  12.216895048236776   1.666328943697400 
  7.469897758249250   5.749366013583099   1.665327145013872 
 -1.245386601860523   7.905437849582652   8.339568320410699 
 -0.000126662800939   1.436884268960833   8.339628269147227 
  3.732882552623949   7.906180712029411   8.340630067830755 
  4.978771382066475   1.435274060225789   8.340227242216848 
  8.714558966584708   7.905847962896418   8.340227242216848 
 -3.733384780206062   7.905437849582651   1.666388892433916 
  9.957669426934023   1.436884268960833   8.339628269147227 
  2.489145907726122   1.435970584788950   1.665925545966340 
  1.242983797548244   7.905847962896417   1.665729970627780 
  6.224660211509139   7.906180712029410   1.665327145013872 
  7.468396856406962   1.435970584788950   1.665925545966340 
  1.242983797548245   7.905847962896418   8.340227242216848 
 12.446928455166319   1.437247498834911   1.666503081575905 
 -2.489385691033300  10.060732491844131   8.339426636105927 
 -1.245070743215453   3.593190668820899   8.339628269147227 
  3.733533835326408   3.591423260406010   8.340630067830755 
  2.488399742684623  10.061578607302465   8.340031666878287 
  7.469143021448484  10.061578607302465   8.340031666878287 
  8.713740059903561   3.592604823775467   8.340373022596939 
 -4.977925148458590  10.061044999466525   1.666388892433916 
 -0.000846233607981  10.061044999466525   1.666388892433916 
  1.243802704229524   3.592604823775466   1.665584190247689 
  4.978771382066545  10.061760338467575   1.665584190247689 
  6.224008928806645   3.591423260406009   1.665327145013872 
 11.202613507348538   3.593190668820898   1.666328943697400 
 -2.489385691033234   5.749426121054531   8.339571685064060 
 -3.733926059285827  12.215714626483194   8.339568320410699 
  1.244315149568199  12.216385677238875   8.339571685064060 
  2.487645005883822   5.749366013583100   8.340630067830755 
  6.223715462481062  12.216895048236776   8.339628269147227 
 -6.223086531634663  12.216385677238875   1.666385527780567 
  7.469897758249251   5.749366013583100   8.340630067830755 
 -1.244845322780757  12.215714626483194   1.666388892433916 
 -0.001225731655815   5.749420793927091   1.665925545966340 
 -1.245386601860523   7.905437849582651   1.666388892433916 
  4.978771382066589   5.748989995339476   1.664550060027390 
  3.733827301652032  12.216895048236776   1.666328943697400 
  9.958768495788885   5.749420793927091   1.665925545966340 
 -3.733384780206062   7.905437849582652   8.339568320410699 
  2.489145907726122   1.435970584788951   8.340031666878287 
  6.224660211509140   7.906180712029411   8.340630067830755 
  7.468396856406962   1.435970584788951   8.340031666878287 
 12.446928455166319   1.437247498834912   8.339454131268722 
  1.244858184813601   0.718531261149205   1.669250072974628 
  4.978771382066587   7.186040997369759   1.675720528544144 
  6.223390223575303   0.718474489437587   1.669663613078998 
  9.957635025063478   7.186376213515120   1.669663613078998 
 11.202133059454773   0.718564542034788   1.669190471635193 
 -3.734008743789854   9.342149037295449   8.336875807291072 
  1.244526580578368   9.342119283065813   8.336293599765629 
  2.489618312478189   2.874484721982538   8.335300796787550 
  6.223589437311818   9.341912424189527   8.335300796787550 
  7.467924451655001   2.874484721982538   8.335300796787550 
 12.446928455166356   2.874613412435095   8.336766741209434 
 -1.244762638276627   9.342149037295449   1.669081405553543 
  0.000186885262301   2.874602895926198   1.669542695546964 
  4.978771382066534   2.874440644653967   1.672280174972988 
  3.733953326821377   9.341912424189527   1.670656416057077 
  8.713016183554725   9.342119283065813   1.669663613078998 
  9.957355878870889   2.874602895926198   1.669542695546964 
 -4.978651460073899  11.497910753684252   8.336787823111949 
 -0.000119921992578  11.497910753684252   8.336787823111949 
  1.244800257232963   5.030572839846366   8.335300796787550 
  6.223294056358688   5.030464494324336   8.330236684300496 
  4.978771382066600  11.497764194166020   8.336414517297664 
 11.202233037191139   5.030555678087532   8.336707139870015 
 -1.244690273057964   5.030555678087532   1.669250072974628 
 -2.489385691033239  11.497899400941396   1.669081405553543 
  2.489222924195023  11.497883046781693   1.669250072974628 
  3.734248707774488   5.030464494324335   1.675720528544144 
  7.468319839938157  11.497883046781693   1.669250072974628 
  8.712742506900213   5.030572839846365   1.670656416057077 
 -0.000092260930418   7.186376213515121   8.336293599765629 
  1.244858184813602   0.718531261149205   8.336707139870015 
  4.978771382066588   7.186040997369760   8.330236684300496 
  6.223390223575304   0.718474489437587   8.336293599765629 
  9.957635025063478   7.186376213515121   8.336293599765629 
 -2.489385691033242   7.186375968163787   1.669169389732679 
 11.202133059454773   0.718564542034788   8.336766741209434 
  3.734152540557765   0.718474489437587   1.669663613078998 
  2.489338619940811   7.186264670682276   1.672280174972988 
  7.468204144192259   7.186264670682276   1.672280174972988 
  8.712684579319571   0.718531261149205   1.669250072974628 
  2.489338619940811   7.186264670682277   8.333677037871640 
 13.691723850877953   0.718564542034788   1.669190471635193 
 -1.244762638276626   9.342149037295449   8.336875807291072 
  0.000186885262301   2.874602895926198   8.336414517297664 
  4.978771382066535   2.874440644653968   8.333677037871640 
  3.733953326821377   9.341912424189527   8.335300796787550 
  8.713016183554725   9.342119283065813   8.336293599765629 
  9.957355878870889   2.874602895926198   8.336414517297664 
 -3.734008743789855   9.342149037295449   1.669081405553543 
  1.244526580578367   9.342119283065813   1.669663613078998 
  2.489618312478189   2.874484721982537   1.670656416057077 
  6.223589437311817   9.341912424189527   1.670656416057077 
  7.467924451655000   2.874484721982537   1.670656416057077 
 12.446928455166356   2.874613412435094   1.669190471635193 
 -1.244690273057963   5.030555678087532   8.336707139870015 
 -2.489385691033239  11.497899400941396   8.336875807291072 
  2.489222924195024  11.497883046781693   8.336707139870015 
  3.734248707774488   5.030464494324336   8.330236684300496 
  7.468319839938157  11.497883046781693   8.336707139870015 
 -4.978651460073900  11.497910753684252   1.669169389732679 
  8.712742506900213   5.030572839846366   8.335300796787550 
 -0.000119921992579  11.497910753684252   1.669169389732679 
  1.244800257232963   5.030572839846365   1.670656416057077 
 -0.000092260930418   7.186376213515120   1.669663613078998 
  6.223294056358687   5.030464494324335   1.675720528544144 
  4.978771382066599  11.497764194166020   1.669542695546964 
 11.202233037191139   5.030555678087532   1.669250072974628 
 -2.489385691033241   7.186375968163788   8.336787823111949 
  3.734152540557765   0.718474489437587   8.336293599765629 
  7.468204144192260   7.186264670682277   8.333677037871640 
  8.712684579319571   0.718531261149205   8.336707139870015 
 13.691723850877953   0.718564542034788   8.336766741209434 
  0.002175571001963   1.439615839636459   5.002978606422314 
  3.751515980305862   7.866627175090659   5.002978606422314 
  4.978771382066483   1.445751080582290   5.002978606422314 
  8.705485600800001   7.900609452718161   5.002978606422314 
  9.955367193131107   1.439615839636459   5.002978606422314 
 -4.978847794753268  10.060738672104645  11.673616748318732 
  0.000076412686686  10.060738672104645  11.673616748318732 
  1.244668822597467   3.593104877448358  11.673616748318732 
  4.978771382066539  10.060760231121808  11.673616748318732 
  6.223470442963346   3.593164365485544  11.673616748318732 
 11.202257675311762   3.593094552712979  11.673616748318732 
 -2.489385691033300  10.060732491844131   5.002978606422314 
 -1.241554016716685   3.593818676441863   5.002978606422314 
  3.758471489283954   3.627337050607502   5.002978606422314 
  2.497782440068173  10.048957778318941   5.002978606422314 
  7.459760324064916  10.048957778318941   5.002978606422314 
  8.703027128996368   3.598789937318544   5.002978606422314 
 -6.223513436882177  12.216632151098455  11.673616748318732 
 -1.244649286910694  12.216666825294036  11.673616748318732 
  0.000001609110605   5.748931795320336  11.673616748318732 
  4.978771382066590   5.748989995339477  11.673616748318732 
  3.734088456661585  12.216634946707423  11.673616748318732 
  9.957541155022469   5.748931795320336  11.673616748318732 
 -2.489385691033234   5.747262268573665   5.002978606422314 
 -3.734883734269549  12.220406566602149   5.002978606422314 
  1.246189100786672  12.217467603479308   5.002978606422314 
  2.531216087523271   5.753005760320374   5.002978606422314 
  6.222500969785187  12.213535469940199   5.002978606422314 
  7.426326676609802   5.753005760320374   5.002978606422314 
 -1.244659991435914   7.904791978133706  11.673616748318732 
 -0.000031985773738   1.437240486598122  11.673616748318732 
  3.734121150931841   7.904843817069754  11.673616748318732 
  4.978771382066491   1.437340334448403  11.673616748318732 
  8.712769520616732   7.904814825785098  11.673616748318732 
 -3.736969282050252   7.902262508658702   5.002978606422314 
  9.957574749906806   1.437240486598122  11.673616748318732 
  2.495384517550897   1.450406653570916   5.002978606422314 
  1.252057163332954   7.900609452718161   5.002978606422314 
  6.206026783827229   7.866627175090659   5.002978606422314 
  7.462158246582169   1.450406653570916   5.002978606422314 
  1.244773243516237   7.904814825785098  11.673616748318732 
 12.446928455166319   1.437247498834912   5.002978606422314 
 -2.489385691033299  10.060732491844133  11.673616748318732 
 -1.244714911178691   3.593094552712979  11.673616748318732 
  3.734072321169740   3.593164365485544  11.673616748318732 
  2.489436898283675  10.060760198323038  11.673616748318732 
  7.468105865849402  10.060760198323038  11.673616748318732 
  8.712873941535603   3.593104877448358  11.673616748318732 
 -4.982467325286509  10.059528400271532   5.002978606422314 
  0.003695943219925  10.059528400271532   5.002978606422314 
  1.254515635136703   3.598789937318544   5.002978606422314 
  4.978771382066538  10.049390111381433   5.002978606422314 
  6.199071274849118   3.627337050607502   5.002978606422314 
 11.199096780849754   3.593818676441863   5.002978606422314 
 -2.489385691033241   5.748933173335410  11.673616748318732 
 -3.734122095155888  12.216666825294036  11.673616748318732 
  1.244742054815686  12.216632151098455  11.673616748318732 
  2.489422090035037   5.748961803463211  11.673616748318732 
  6.223454307471494  12.216634946707423  11.673616748318732 
 -6.224960482853136  12.217467603479308   5.002978606422314 
  7.468120674098052   5.748961803463211  11.673616748318732 
 -1.243887647797034  12.220406566602149   5.002978606422314 
  0.014395575552543   5.747605554128651   5.002978606422314 
 -1.241802100016334   7.902262508658702   5.002978606422314 
  3.735041794347891  12.213535469940199   5.002978606422314 
  9.943147188580557   5.747605554128651   5.002978606422314 
 -3.734111390630672   7.904791978133706  11.673616748318732 
  2.489336092893467   1.437277992375147  11.673616748318732 
  6.223421613201250   7.904843817069754  11.673616748318732 
  7.468206671239603   1.437277992375147  11.673616748318732 
 12.446928455166319   1.437247498834912  11.673616748318732 
Generated by cif2cell 2.0.0.  :  Failed to get author information, No journal information. Species order: B N 
 1.0
 14.936314146199660   0.000000000000000   0.000000000000000
 -7.468157073099825  12.935227489513863   0.000000000000000
  0.000000000000001   0.000000000000001  13.341276283792837
 B N 
 144 143
Cartesian
  1.245459968268910   0.722126560767255   5.002978606422314 
  4.978771382066588   7.173914572242683   5.002978606422314 
  6.224985016256355   0.719684894972664   5.002978606422314 
  9.957384179461751   7.184389879772008   5.002978606422314 
 11.202346250893243   0.718687628169169   5.002978606422314 
 -3.734016996538895   9.342144272568561  11.673616748318732 
  1.244555132290484   9.342359041697971  11.673616748318732 
  2.488985936374039   2.874160049077044  11.673616748318732 
  6.223554424243822   9.342622414413215  11.673616748318732 
  7.468556827759137   2.874160049077044  11.673616748318732 
 12.446928455166372   2.874365938991724  11.673616748318732 
 -1.243815258484131   9.341602067317226   5.002978606422314 
  0.000200742522633   2.874610896419181   5.002978606422314 
  4.978771382066535   2.867485990104628   5.002978606422314 
  3.741663414784078   9.335482723914243   5.002978606422314 
  8.711170545271932   9.342895211273847   5.002978606422314 
  9.957342021610556   2.874610896419181   5.002978606422314 
 -4.978823541426010  11.498010104899217  11.673616748318732 
  0.000052159359548  11.498010104899217  11.673616748318732 
  1.244202894196809   5.030187522528173  11.673616748318732 
  6.223785892066005   5.030180532846319  11.673616748318732 
  4.978771382066583  11.498394897499727  11.673616748318732 
 11.202461322556321   5.030213959927046  11.673616748318732 
 -1.241275760526855   5.029279188038370   5.002978606422314 
 -2.489385691033239  11.498993340897840   5.002978606422314 
  2.492035653270819  11.495564237212793   5.002978606422314 
  3.744750499991626   5.036527706887873   5.002978606422314 
  7.465507110862365  11.495564237212793   5.002978606422314 
  8.703319179141754   5.027110557942883   5.002978606422314 
 -0.000285622140561   7.186231607691014  11.673616748318732 
  1.244448105523095   0.718504419303890  11.673616748318732 
  4.978771382066596   7.186608920325781  11.673616748318732 
  6.223612136497579   0.718379336629537  11.673616748318732 
  9.957828386273649   7.186231607691014  11.673616748318732 
 -2.489385691033241   7.184349213614646   5.002978606422314 
 11.202347377743488   0.718688278756461  11.673616748318732 
  3.732557747876713   0.719684894972664   5.002978606422314 
  2.483315712426540   7.189741997956947   5.002978606422314 
  7.474227051706534   7.189741997956947   5.002978606422314 
  8.712082795864262   0.722126560767255   5.002978606422314 
  2.489067331944156   7.186421298880174  11.673616748318732 
 13.691510659439498   0.718687628169169   5.002978606422314 
 -1.244754385527570   9.342144272568561  11.673616748318732 
 -0.000359319846931   2.874287544259360  11.673616748318732 
  4.978771382066536   2.874127388258173  11.673616748318732 
  3.733988339889361   9.342622414413215  11.673616748318732 
  8.712987631842605   9.342359041697971  11.673616748318732 
  9.957902083980104   2.874287544259360  11.673616748318732 
 -3.734956123582349   9.341602067317226   5.002978606422314 
  1.246372218861143   9.342895211273847   5.002978606422314 
  2.491331552273955   2.884376704161291   5.002978606422314 
  6.215879349349115   9.335482723914243   5.002978606422314 
  7.466211211859235   2.884376704161291   5.002978606422314 
 12.446928455166372   2.874367240166306   5.002978606422314 
 -1.244918558423145   5.030213959927046  11.673616748318732 
 -2.489385691033239  11.497908930395175  11.673616748318732 
  2.489404718120350  11.498251606787496  11.673616748318732 
  3.733756872067186   5.030180532846319  11.673616748318732 
  7.468138046012833  11.498251606787496  11.673616748318732 
 -4.980406681000686  11.498924130958811   5.002978606422314 
  8.713339869936368   5.030187522528173  11.673616748318732 
  0.001635298934222  11.498924130958811   5.002978606422314 
  1.254223584991436   5.027110557942883   5.002978606422314 
  0.000158584671321   7.184389879772008   5.002978606422314 
  6.212792264141550   5.036527706887873   5.002978606422314 
  4.978771382066598  11.497748193180055   5.002978606422314 
 11.198818524660044   5.029279188038370   5.002978606422314 
 -2.489385691033233   7.186177265733848  11.673616748318732 
  3.733930627635490   0.718379336629537  11.673616748318732 
  7.468475432188919   7.186421298880174  11.673616748318732 
  8.713094658610078   0.718504419303890  11.673616748318732 
 13.691509532589256   0.718688278756461  11.673616748318732 
 -0.000126662800940   1.436884268960832   1.666328943697400 
  3.732882552623948   7.906180712029410   1.665327145013872 
  4.978771382066474   1.435274060225788   1.665729970627780 
  8.714558966584708   7.905847962896417   1.665729970627780 
  9.957669426934023   1.436884268960832   1.666328943697400 
 -4.977925148458589  10.061044999466525   8.339568320410699 
 -0.000846233607981  10.061044999466525   8.339568320410699 
  1.243802704229525   3.592604823775467   8.340373022596939 
  4.978771382066546  10.061760338467575   8.340373022596939 
  6.224008928806646   3.591423260406010   8.340630067830755 
 11.202613507348538   3.593190668820899   8.339628269147227 
 -2.489385691033300  10.060732491844131   1.666530576738701 
 -1.245070743215453   3.593190668820898   1.666328943697400 
  3.733533835326408   3.591423260406009   1.665327145013872 
  2.488399742684622  10.061578607302465   1.665925545966340 
  7.469143021448483  10.061578607302465   1.665925545966340 
  8.713740059903561   3.592604823775466   1.665584190247689 
 -6.223086531634662  12.216385677238875   8.339571685064060 
 -1.244845322780757  12.215714626483194   8.339568320410699 
 -0.001225731655814   5.749420793927092   8.340031666878287 
  4.978771382066590   5.748989995339477   8.341407152817238 
  3.733827301652032  12.216895048236776   8.339628269147227 
  9.958768495788885   5.749420793927092   8.340031666878287 
 -2.489385691033234   5.749426121054531   1.666385527780567 
 -3.733926059285827  12.215714626483194   1.666388892433916 
  1.244315149568199  12.216385677238875   1.666385527780567 
  2.487645005883821   5.749366013583099   1.665327145013872 
  6.223715462481061  12.216895048236776   1.666328943697400 
  7.469897758249250   5.749366013583099   1.665327145013872 
 -1.245386601860523   7.905437849582652   8.339568320410699 
 -0.000126662800939   1.436884268960833   8.339628269147227 
  3.732882552623949   7.906180712029411   8.340630067830755 
  4.978771382066475   1.435274060225789   8.340227242216848 
  8.714558966584708   7.905847962896418   8.340227242216848 
 -3.733384780206062   7.905437849582651   1.666388892433916 
  9.957669426934023   1.436884268960833   8.339628269147227 
  2.489145907726122   1.435970584788950   1.665925545966340 
  1.242983797548244   7.905847962896417   1.665729970627780 
  6.224660211509139   7.906180712029410   1.665327145013872 
  7.468396856406962   1.435970584788950   1.665925545966340 
  1.242983797548245   7.905847962896418   8.340227242216848 
 12.446928455166319   1.437247498834911   1.666503081575905 
 -2.489385691033300  10.060732491844131   8.339426636105927 
 -1.245070743215453   3.593190668820899   8.339628269147227 
  3.733533835326408   3.591423260406010   8.340630067830755 
  2.488399742684623  10.061578607302465   8.340031666878287 
  7.469143021448484  10.061578607302465   8.340031666878287 
  8.713740059903561   3.592604823775467   8.340373022596939 
 -4.977925148458590  10.061044999466525   1.666388892433916 
 -0.000846233607981  10.061044999466525   1.666388892433916 
  1.243802704229524   3.592604823775466   1.665584190247689 
  4.978771382066545  10.061760338467575   1.665584190247689 
  6.224008928806645   3.591423260406009   1.665327145013872 
 11.202613507348538   3.593190668820898   1.666328943697400 
 -2.489385691033234   5.749426121054531   8.339571685064060 
 -3.733926059285827  12.215714626483194   8.339568320410699 
  1.244315149568199  12.216385677238875   8.339571685064060 
  2.487645005883822   5.749366013583100   8.340630067830755 
  6.223715462481062  12.216895048236776   8.339628269147227 
 -6.223086531634663  12.216385677238875   1.666385527780567 
  7.469897758249251   5.749366013583100   8.340630067830755 
 -1.244845322780757  12.215714626483194   1.666388892433916 
 -0.001225731655815   5.749420793927091   1.665925545966340 
 -1.245386601860523   7.905437849582651   1.666388892433916 
  4.978771382066589   5.748989995339476   1.664550060027390 
  3.733827301652032  12.216895048236776   1.666328943697400 
  9.958768495788885   5.749420793927091   1.665925545966340 
 -3.733384780206062   7.905437849582652   8.339568320410699 
  2.489145907726122   1.435970584788951   8.340031666878287 
  6.224660211509140   7.906180712029411   8.340630067830755 
  7.468396856406962   1.435970584788951   8.340031666878287 
 12.446928455166319   1.437247498834912   8.339454131268722 
  1.244858184813601   0.718531261149205   1.669250072974628 
  4.978771382066587   7.186040997369759   1.675720528544144 
  6.223390223575303   0.718474489437587   1.669663613078998 
  9.957635025063478   7.186376213515120   1.669663613078998 
 11.202133059454773   0.718564542034788   1.669190471635193 
 -3.734008743789854   9.342149037295449   8.336875807291072 
  1.244526580578368   9.342119283065813   8.336293599765629 
  2.489618312478189   2.874484721982538   8.335300796787550 
  6.223589437311818   9.341912424189527   8.335300796787550 
  7.467924451655001   2.874484721982538   8.335300796787550 
 12.446928455166356   2.874613412435095   8.336766741209434 
 -1.244762638276627   9.342149037295449   1.669081405553543 
  0.000186885262301   2.874602895926198   1.669542695546964 
  4.978771382066534   2.874440644653967   1.672280174972988 
  3.733953326821377   9.341912424189527   1.670656416057077 
  8.713016183554725   9.342119283065813   1.669663613078998 
  9.957355878870889   2.874602895926198   1.669542695546964 
 -4.978651460073899  11.497910753684252   8.336787823111949 
 -0.000119921992578  11.497910753684252   8.336787823111949 
  1.244800257232963   5.030572839846366   8.335300796787550 
  6.223294056358688   5.030464494324336   8.330236684300496 
  4.978771382066600  11.497764194166020   8.336414517297664 
 11.202233037191139   5.030555678087532   8.336707139870015 
 -1.244690273057964   5.030555678087532   1.669250072974628 
 -2.489385691033239  11.497899400941396   1.669081405553543 
  2.489222924195023  11.497883046781693   1.669250072974628 
  3.734248707774488   5.030464494324335   1.675720528544144 
  7.468319839938157  11.497883046781693   1.669250072974628 
  8.712742506900213   5.030572839846365   1.670656416057077 
 -0.000092260930418   7.186376213515121   8.336293599765629 
  1.244858184813602   0.718531261149205   8.336707139870015 
  4.978771382066588   7.186040997369760   8.330236684300496 
  6.223390223575304   0.718474489437587   8.336293599765629 
  9.957635025063478   7.186376213515121   8.336293599765629 
 -2.489385691033242   7.186375968163787   1.669169389732679 
 11.202133059454773   0.718564542034788   8.336766741209434 
  3.734152540557765   0.718474489437587   1.669663613078998 
  2.489338619940811   7.186264670682276   1.672280174972988 
  7.468204144192259   7.186264670682276   1.672280174972988 
  8.712684579319571   0.718531261149205   1.669250072974628 
  2.489338619940811   7.186264670682277   8.333677037871640 
 13.691723850877953   0.718564542034788   1.669190471635193 
 -1.244762638276626   9.342149037295449   8.336875807291072 
  0.000186885262301   2.874602895926198   8.336414517297664 
  4.978771382066535   2.874440644653968   8.333677037871640 
  3.733953326821377   9.341912424189527   8.335300796787550 
  8.713016183554725   9.342119283065813   8.336293599765629 
  9.957355878870889   2.874602895926198   8.336414517297664 
 -3.734008743789855   9.342149037295449   1.669081405553543 
  1.244526580578367   9.342119283065813   1.669663613078998 
  2.489618312478189   2.874484721982537   1.670656416057077 
  6.223589437311817   9.341912424189527   1.670656416057077 