Species order: N B                      
   2.51242800000000     
     5.9449720136058266    0.0000000000000000    0.0000000000000000
    -2.9724860068029120    5.1484967885702053   -0.0000000000000001
     0.0000000000000000    0.0000000000000009    5.3101128803662583
   N    B 
   143   144
Direct
  0.1111186056756542  0.0555484054479669  0.1251192192910695
  0.6111035156975513  0.5555403647284308  0.1256042145367926
  0.4444337202928315  0.0555440165254167  0.1251502163333003
  0.9444559834745835  0.5555662797071688  0.1251502163333003
  0.7777686233376696  0.0555509783355026  0.1251147518519606
  0.1111173413639352  0.7222253373486316  0.6248934232340895
  0.4444337202928315  0.7222230371007504  0.6248497836666997
  0.2777929548001618  0.2222214278266677  0.6247753677744746
  0.7777785721733322  0.7222070451998380  0.6247753677744746
  0.6110951396931776  0.2222214278266677  0.6247753677744746
  0.9444490216644974  0.2222313766623306  0.6248852481480394
  0.2777746626513681  0.7222253373486316  0.1251065767659102
  0.1111277939652121  0.2222305636492703  0.1251411529176672
  0.4444423434757582  0.2222180202848518  0.1253463416393298
  0.6110951396931776  0.7222070451998380  0.1252246322255252
  0.9444559834745835  0.7222230371007504  0.1251502163333003
  0.7777694363507297  0.2222305636492703  0.1251411529176672
  0.1111164637030772  0.8888835362969230  0.6248868283493679
  0.4444337392605170  0.8888835362969230  0.6248868283493679
  0.2777929548001618  0.3889048603068227  0.6247753677744746
  0.6111035156975513  0.3888964843024489  0.6243957854632077
  0.7777694363507297  0.8888722060347880  0.6248588470823329
  0.9444515945520331  0.3889035335610161  0.6248807807089308
  0.1111186056756542  0.3889035335610161  0.1251192192910695
  0.2777746626513681  0.8888826586360649  0.1251065767659102
  0.6110964664389841  0.8888813943243457  0.1251192192910695
  0.4444596352715690  0.3888964843024489  0.1256042145367926
  0.9444515945520331  0.8888813943243457  0.1251192192910695
  0.7777785721733322  0.3889048603068227  0.1252246322255252
  0.2777769628992493  0.5555662797071688  0.6248497836666997
  0.1111186056756542  0.0555484054479669  0.6248807807089308
  0.6111035156975513  0.5555403647284308  0.6243957854632077
  0.4444337202928315  0.0555440165254167  0.6248497836666997
  0.9444559834745835  0.5555662797071688  0.6248497836666997
  0.1111164637030772  0.5555662607394831  0.1251131716506325
  0.7777686233376696  0.0555509783355026  0.6248852481480394
  0.2777769628992493  0.0555440165254167  0.1251502163333003
  0.4444423434757582  0.5555576565242419  0.1253463416393298
  0.7777819797151478  0.5555576565242419  0.1253463416393298
  0.6110964664389841  0.0555484054479669  0.1251192192910695
  0.4444423434757582  0.5555576565242419  0.6246536583606702
  0.9444490216644974  0.0555509783355026  0.1251147518519606
  0.2777746626513681  0.7222253373486316  0.6248934232340895
  0.1111277939652121  0.2222305636492703  0.6248588470823329
  0.4444423434757582  0.2222180202848518  0.6246536583606702
  0.6110951396931776  0.7222070451998380  0.6247753677744746
  0.9444559834745835  0.7222230371007504  0.6248497836666997
  0.7777694363507297  0.2222305636492703  0.6248588470823329
  0.1111173413639352  0.7222253373486316  0.1251065767659102
  0.4444337202928315  0.7222230371007504  0.1251502163333003
  0.2777929548001618  0.2222214278266677  0.1252246322255252
  0.7777785721733322  0.7222070451998380  0.1252246322255252
  0.6110951396931776  0.2222214278266677  0.1252246322255252
  0.9444490216644974  0.2222313766623306  0.1251147518519606
  0.1111186056756542  0.3889035335610161  0.6248807807089308
  0.2777746626513681  0.8888826586360649  0.6248934232340895
  0.6110964664389841  0.8888813943243457  0.6248807807089308
  0.4444596352715690  0.3888964843024489  0.6243957854632077
  0.9444515945520331  0.8888813943243457  0.6248807807089308
  0.1111164637030772  0.8888835362969230  0.1251131716506325
  0.7777785721733322  0.3889048603068227  0.6247753677744746
  0.4444337392605170  0.8888835362969230  0.1251131716506325
  0.2777929548001618  0.3889048603068227  0.1252246322255252
  0.2777769628992493  0.5555662797071688  0.1251502163333003
  0.6111035156975513  0.3888964843024489  0.1256042145367926
  0.7777694363507297  0.8888722060347880  0.1251411529176672
  0.9444515945520331  0.3889035335610161  0.1251192192910695
  0.1111164637030772  0.5555662607394831  0.6248868283493679
  0.2777769628992493  0.0555440165254167  0.6248497836666997
  0.7777819797151478  0.5555576565242419  0.6246536583606702
  0.6110964664389841  0.0555484054479669  0.6248807807089308
  0.9444490216644974  0.0555509783355026  0.6248852481480394
  0.0557927581991668  0.1112942034304002  0.3750000000000000
  0.5552451037305586  0.6081553015954189  0.3750000000000000
  0.3892175874662504  0.1117685082658433  0.3750000000000000
  0.8882314917341564  0.6107824125337499  0.3750000000000000
  0.7221681118978974  0.1112942034304002  0.3750000000000000
  0.0555506785483555  0.7777782555629988  0.8750000000000000
  0.3888942436813078  0.7777782555629988  0.8750000000000000
  0.2222200777467805  0.2777767055400580  0.8750000000000000
  0.7222232944599419  0.7777799222532198  0.8750000000000000
  0.5555577350206099  0.2777813044570262  0.8750000000000000
  0.8888894309927489  0.2777759073526749  0.8750000000000000
  0.2222222222222214  0.7777777777777786  0.3750000000000000
  0.0557927581991668  0.2778318881021025  0.3750000000000000
  0.3918446984045812  0.2804231354684755  0.3750000000000000
  0.5556625843041382  0.7768674950993540  0.3750000000000000
  0.8878715774618805  0.7768674950993540  0.3750000000000000
  0.7217837923425811  0.2782162076574187  0.3750000000000000
  0.0555533591502710  0.9444466408497295  0.8750000000000000
  0.3888942436813078  0.9444493214516448  0.8750000000000000
  0.2222200802823961  0.4444399451019163  0.8750000000000000
  0.5555555555555571  0.4444444444444429  0.8750000000000000
  0.7222240926473251  0.9444468569734099  0.8750000000000000
  0.8888865314861845  0.4444399451019163  0.8750000000000000
  0.0554887717758667  0.4443108768850619  0.3750000000000000
  0.2223153084531031  0.9447384343652870  0.3750000000000000
  0.5556891231149381  0.9445112282241330  0.3750000000000000
  0.3918446984045812  0.4447548962694416  0.3750000000000000
  0.8887057965695997  0.9442072418008329  0.3750000000000000
  0.7195768645315247  0.4447548962694416  0.3750000000000000
  0.2222217444370010  0.6111057563186921  0.8750000000000000
  0.0555531430265900  0.1111105690072509  0.8750000000000000
  0.5555577350206099  0.6111097638969192  0.8750000000000000
  0.3888924773690099  0.1111182880713623  0.8750000000000000
  0.8888817119286374  0.6111075226309903  0.8750000000000000
  0.0552615656347129  0.6109102074211519  0.3750000000000000
  0.7222240926473251  0.1111105690072509  0.8750000000000000
  0.2231325049006458  0.1121284225381198  0.3750000000000000
  0.3892175874662504  0.6107824125337499  0.3750000000000000
  0.7195768645315247  0.6081553015954189  0.3750000000000000
  0.5556625843041382  0.1121284225381198  0.3750000000000000
  0.3888924773690099  0.6111075226309903  0.8750000000000000
  0.8888888888888857  0.1111111111111143  0.3750000000000000
  0.2222222222222214  0.7777777777777786  0.8750000000000000
  0.0555531430265900  0.2777759073526749  0.8750000000000000
  0.3888902361030806  0.2777813044570262  0.8750000000000000
  0.5555600548980837  0.7777799197176040  0.8750000000000000
  0.8888865314861845  0.7777799197176040  0.8750000000000000
  0.7222232944599419  0.2777767055400580  0.8750000000000000
  0.0552615656347129  0.7776846915468973  0.3750000000000000
  0.3890897925788482  0.7776846915468973  0.3750000000000000
  0.2230990819815016  0.2782162076574187  0.3750000000000000
  0.7217837923425811  0.7769009180184984  0.3750000000000000
  0.5552451037305586  0.2804231354684755  0.3750000000000000
  0.8887057965695997  0.2778318881021025  0.3750000000000000
  0.0555533591502710  0.4444400516338706  0.8750000000000000
  0.2222217444370010  0.9444493214516448  0.8750000000000000
  0.5555599483661294  0.9444466408497295  0.8750000000000000
  0.3888902361030806  0.4444422649793900  0.8750000000000000
  0.8888894309927489  0.9444468569734099  0.8750000000000000
  0.0554887717758667  0.9445112282241330  0.3750000000000000
  0.7222186955429737  0.4444422649793900  0.8750000000000000
  0.3890897925788482  0.9447384343652870  0.3750000000000000
  0.2231325049006458  0.4443374156958615  0.3750000000000000
  0.2223153084531031  0.6109102074211519  0.3750000000000000
  0.7221681118978974  0.9442072418008329  0.3750000000000000
  0.8878715774618805  0.4443374156958615  0.3750000000000000
  0.0555506785483555  0.6111057563186921  0.8750000000000000
  0.2222200802823961  0.1111134685138156  0.8750000000000000
  0.7222186955429737  0.6111097638969192  0.8750000000000000
  0.5555600548980837  0.1111134685138156  0.8750000000000000
  0.8888888888888857  0.1111111111111143  0.8750000000000000
  0.1112978688212600  0.0558263518250962  0.3750000000000000
  0.6106347792514043  0.5546028918361369  0.3750000000000000
  0.4445872803090523  0.0556375908777860  0.3750000000000000
  0.9443624091222138  0.5554127196909481  0.3750000000000000
  0.7777876544887630  0.0555604939110492  0.3750000000000000
  0.1111166046583935  0.7222249689958611  0.8750000000000000
  0.4444448995182621  0.7222415724247212  0.8750000000000000
  0.2777380666875050  0.2221963279275159  0.8750000000000000
  0.7778036720724844  0.7222619333124946  0.8750000000000000
  0.6111249279066823  0.2221963279275159  0.8750000000000000
  0.9444394557931759  0.2222122449196871  0.8750000000000000
  0.2778169479516202  0.7221830520483798  0.3750000000000000
  0.1111290309736823  0.2222311821535054  0.3750000000000000
  0.4441735173358630  0.2216803680050616  0.3750000000000000
  0.6113628027015232  0.7217099762243995  0.3750000000000000
  0.9443624091222138  0.7222830227646021  0.3750000000000000
  0.7777688178464945  0.2222311821535054  0.3750000000000000
  0.1111087830329807  0.8888912169670193  0.8750000000000000
  0.4444491006007099  0.8888912169670193  0.8750000000000000
  0.2777380666875050  0.3888750720933182  0.8750000000000000
  0.6111254682668615  0.3888745317331384  0.8750000000000000
  0.7777938156410903  0.8889209646155095  0.8750000000000000
  0.9444536696485348  0.3888771159227667  0.8750000000000000
  0.1112978688212600  0.3888048503294922  0.3750000000000000
  0.2778169479516202  0.8889672292365690  0.3750000000000000
  0.6111951496705075  0.8887021311787398  0.3750000000000000
  0.4453971081638626  0.3893652207485959  0.3750000000000000
  0.9441736481749039  0.8887021311787398  0.3750000000000000
  0.7770138401895476  0.3886371972984766  0.3750000000000000
  0.2777584275752788  0.5555551004817375  0.8750000000000000
  0.1110901129409031  0.0555463303514650  0.8750000000000000
  0.6111254682668615  0.5555842698670519  0.8750000000000000
  0.4444448995182621  0.0555366604268768  0.8750000000000000
  0.9444633395731236  0.5555551004817375  0.8750000000000000
  0.1110381212637664  0.5554095758608614  0.3750000000000000
  0.7777877550803129  0.0555605442068243  0.8750000000000000
  0.2777169772353979  0.0556375908777860  0.3750000000000000
  0.4441735173358630  0.5558264826641368  0.3750000000000000
  0.7783196319949384  0.5558264826641368  0.3750000000000000
  0.6111951496705075  0.0558263518250962  0.3750000000000000
  0.4444302348214631  0.5555697651785370  0.8750000000000000
  0.9444395060889507  0.0555604939110492  0.3750000000000000
  0.2777750310041390  0.7222249689958611  0.8750000000000000
  0.1110790353844906  0.2222061843589097  0.8750000000000000
  0.4444302348214631  0.2221938029762620  0.8750000000000000
  0.6111249279066823  0.7222619333124946  0.8750000000000000
  0.9444633395731236  0.7222415724247212  0.8750000000000000
  0.7777938156410903  0.2222061843589097  0.8750000000000000
  0.1110327707634312  0.7221830520483798  0.3750000000000000
  0.4445872803090523  0.7222830227646021  0.3750000000000000
  0.2782900237756005  0.2229861598104521  0.3750000000000000
  0.7770138401895476  0.7217099762243995  0.3750000000000000
  0.6113628027015232  0.2229861598104521  0.3750000000000000
  0.9444395060889507  0.2222123455112372  0.3750000000000000
  0.1110901129409031  0.3888771159227667  0.8750000000000000
  0.2777750310041390  0.8888833953416067  0.8750000000000000
  0.6111228840772333  0.8889098870590970  0.8750000000000000
  0.4444157301329482  0.3888745317331384  0.8750000000000000
  0.9444536696485348  0.8889098870590970  0.8750000000000000
  0.1110381212637664  0.8889618787362334  0.3750000000000000
  0.7778036720724844  0.3888750720933182  0.8750000000000000
  0.4445904241391386  0.8889618787362334  0.3750000000000000
  0.2782900237756005  0.3886371972984766  0.3750000000000000
  0.2777169772353979  0.5554127196909481  0.3750000000000000
  0.6106347792514043  0.3893652207485959  0.3750000000000000
  0.7777688178464945  0.8888709690263176  0.3750000000000000
  0.9441736481749039  0.3888048503294922  0.3750000000000000
  0.1111087830329807  0.5555508993992900  0.8750000000000000
  0.2777584275752788  0.0555366604268768  0.8750000000000000
  0.7778061970237381  0.5555697651785370  0.8750000000000000
  0.6111228840772333  0.0555463303514650  0.8750000000000000
  0.9444394557931759  0.0555605442068243  0.8750000000000000
  0.0555330350285227  0.1110830304396012  0.1249002650309912
  0.5555264862373774  0.6112131169272964  0.1248251748625377
  0.3888126073309955  0.1109585479953339  0.1248553687964116
  0.8890414520046661  0.6111873926690047  0.1248553687964116
  0.7222166620777430  0.1110830304396012  0.1249002650309912
  0.0556242913867540  0.7778019371999965  0.6250952414906304
  0.3888443124799070  0.7778019371999965  0.6250952414906304
  0.2221427611826465  0.2777380472579912  0.6251555582226367
  0.7222619527420092  0.7778572388173532  0.6251555582226367
  0.5555264862373774  0.2776467026434167  0.6251748251374624
  0.8889169695603986  0.2777833379222574  0.6250997349690091
  0.2222222222222214  0.7777777777777786  0.1249153785056703
  0.0555330350285227  0.2777833379222574  0.1249002650309912
  0.3887868830727035  0.2776467026434167  0.1248251748625377
  0.5555222512640047  0.7778431894962065  0.1248700282138770
  0.8889876048988665  0.7778431894962065  0.1248700282138770
  0.7222619527420092  0.2777380472579912  0.1248444417773635
  0.0555724136168249  0.9444275863831747  0.6250954936893920
  0.3888443124799070  0.9443757086132462  0.6250952414906304
  0.2221568105037934  0.4444777487359958  0.6251299717861231
  0.5555555555555571  0.4444444444444429  0.6252330718126641
  0.7222166620777430  0.9444669649714771  0.6250997349690091
  0.8889876048988665  0.4444777487359958  0.6251299717861231
  0.0555724136168249  0.4444781605669784  0.1249045063106079
  0.2221980628000033  0.9443757086132462  0.1249047585093691
  0.5555218394330219  0.9444275863831747  0.1249045063106079
  0.3887868830727035  0.4444735137626227  0.1248251748625377
  0.8889169695603986  0.9444669649714771  0.1249002650309912
  0.7223532973565836  0.4444735137626227  0.1248251748625377
  0.2221980628000033  0.6111556875200930  0.6250952414906304
  0.0555330350285227  0.1110830304396012  0.6250997349690091
  0.5555264862373774  0.6112131169272964  0.6251748251374624
  0.3888126073309955  0.1109585479953339  0.6251446312035883
  0.8890414520046661  0.6111873926690047  0.6251446312035883
  0.0556242913867540  0.6111556875200930  0.1249047585093691
  0.7222166620777430  0.1110830304396012  0.6250997349690091
  0.2221568105037934  0.1110123951011332  0.1248700282138770
  0.3888126073309955  0.6111873926690047  0.1248553687964116
  0.7223532973565836  0.6112131169272964  0.1248251748625377
  0.5555222512640047  0.1110123951011332  0.1248700282138770
  0.3888126073309955  0.6111873926690047  0.6251446312035883
  0.8888888888888857  0.1111111111111143  0.1249133175961881
  0.2222222222222214  0.7777777777777786  0.6250846214943298
  0.0555330350285227  0.2777833379222574  0.6250997349690091
  0.3887868830727035  0.2776467026434167  0.6251748251374624
  0.5555222512640047  0.7778431894962065  0.6251299717861231
  0.8889876048988665  0.7778431894962065  0.6251299717861231
  0.7222619527420092  0.2777380472579912  0.6251555582226367
  0.0556242913867540  0.7778019371999965  0.1249047585093691
  0.3888443124799070  0.7778019371999965  0.1249047585093691
  0.2221427611826465  0.2777380472579912  0.1248444417773635
  0.7222619527420092  0.7778572388173532  0.1248444417773635
  0.5555264862373774  0.2776467026434167  0.1248251748625377
  0.8889169695603986  0.2777833379222574  0.1249002650309912
  0.0555724136168249  0.4444781605669784  0.6250954936893920
  0.2221980628000033  0.9443757086132462  0.6250952414906304
  0.5555218394330219  0.9444275863831747  0.6250954936893920
  0.3887868830727035  0.4444735137626227  0.6251748251374624
  0.8889169695603986  0.9444669649714771  0.6250997349690091
  0.0555724136168249  0.9444275863831747  0.1249045063106079
  0.7223532973565836  0.4444735137626227  0.6251748251374624
  0.3888443124799070  0.9443757086132462  0.1249047585093691
  0.2221568105037934  0.4444777487359958  0.1248700282138770
  0.2221980628000033  0.6111556875200930  0.1249047585093691
  0.5555555555555571  0.4444444444444429  0.1247669281873361
  0.7222166620777430  0.9444669649714771  0.1249002650309912
  0.8889876048988665  0.4444777487359958  0.1248700282138770
  0.0556242913867540  0.6111556875200930  0.6250952414906304
  0.2221568105037934  0.1110123951011332  0.6251299717861231
  0.7223532973565836  0.6112131169272964  0.6251748251374624
  0.5555222512640047  0.1110123951011332  0.6251299717861231
  0.8888888888888857  0.1111111111111143  0.6250866824038122
 
  0.00000000E+00  0.00000000E+00  0.00000000E+00
  0.00000000E+00  0.00000000E+00  0.00000000E+00
  0.00000000E+00  0.00000000E+00  0.00000000E+00
  0.00000000E+00  0.00000000E+00  0.00000000E+00
  0.00000000E+00  0.00000000E+00  0.00000000E+00
  0.00000000E+00  0.00000000E+00  0.00000000E+00
  0.00000000E+00  0.00000000E+00  0.00000000E+00
  0.00000000E+00  0.00000000E+00  0.00000000E+00
  0.00000000E+00  0.00000000E+00  0.00000000E+00
  0.00000000E+00  0.00000000E+00  0.00000000E+00
  0.00000000E+00  0.00000000E+00  0.00000000E+00
  0.00000000E+00  0.00000000E+00  0.00000000E+00
  0.00000000E+00  0.00000000E+00  0.00000000E+00
  0.00000000E+00  0.00000000E+00  0.00000000E+00
  0.00000000E+00  0.00000000E+00  0.00000000E+00
  0.00000000E+00  0.00000000E+00  0.00000000E+00
  0.00000000E+00  0.00000000E+00  0.00000000E+00
  0.00000000E+00  0.00000000E+00  0.00000000E+00
  0.00000000E+00  0.00000000E+00  0.00000000E+00
  0.00000000E+00  0.00000000E+00  0.00000000E+00
  0.00000000E+00  0.00000000E+00  0.00000000E+00
  0.00000000E+00  0.00000000E+00  0.00000000E+00
  0.00000000E+00  0.00000000E+00  0.00000000E+00
  0.00000000E+00  0.00000000E+00  0.00000000E+00
  0.00000000E+00  0.00000000E+00  0.00000000E+00
  0.00000000E+00  0.00000000E+00  0.00000000E+00
  0.00000000E+00  0.00000000E+00  0.00000000E+00
  0.00000000E+00  0.00000000E+00  0.00000000E+00
  0.00000000E+00  0.00000000E+00  0.00000000E+00
  0.00000000E+00  0.00000000E+00  0.00000000E+00
  0.00000000E+00  0.00000000E+00  0.00000000E+00
  0.00000000E+00  0.00000000E+00  0.00000000E+00
  0.00000000E+00  0.00000000E+00  0.00000000E+00
  0.00000000E+00  0.00000000E+00  0.00000000E+00
  0.00000000E+00  0.00000000E+00  0.00000000E+00
  0.00000000E+00  0.00000000E+00  0.00000000E+00
  0.00000000E+00  0.00000000E+00  0.00000000E+00
  0.00000000E+00  0.00000000E+00  0.00000000E+00
  0.00000000E+00  0.00000000E+00  0.00000000E+00
  0.00000000E+00  0.00000000E+00  0.00000000E+00
  0.00000000E+00  0.00000000E+00  0.00000000E+00
  0.00000000E+00  0.00000000E+00  0.00000000E+00
  0.00000000E+00  0.00000000E+00  0.00000000E+00
  0.00000000E+00  0.00000000E+00  0.00000000E+00
  0.00000000E+00  0.00000000E+00  0.00000000E+00
  0.00000000E+00  0.00000000E+00  0.00000000E+00
  0.00000000E+00  0.00000000E+00  0.00000000E+00
  0.00000000E+00  0.00000000E+00  0.00000000E+00
  0.00000000E+00  0.00000000E+00  0.00000000E+00
  0.00000000E+00  0.00000000E+00  0.00000000E+00
  0.00000000E+00  0.00000000E+00  0.00000000E+00
  0.00000000E+00  0.00000000E+00  0.00000000E+00
  0.00000000E+00  0.00000000E+00  0.00000000E+00
  0.00000000E+00  0.00000000E+00  0.00000000E+00
  0.00000000E+00  0.00000000E+00  0.00000000E+00
  0.00000000E+00  0.00000000E+00  0.00000000E+00
  0.00000000E+00  0.00000000E+00  0.00000000E+00
  0.00000000E+00  0.00000000E+00  0.00000000E+00
  0.00000000E+00  0.00000000E+00  0.00000000E+00
  0.00000000E+00  0.00000000E+00  0.00000000E+00
  0.00000000E+00  0.00000000E+00  0.00000000E+00
  0.00000000E+00  0.00000000E+00  0.00000000E+00
  0.00000000E+00  0.00000000E+00  0.00000000E+00
  0.00000000E+00  0.00000000E+00  0.00000000E+00
  0.00000000E+00  0.00000000E+00  0.00000000E+00
  0.00000000E+00  0.00000000E+00  0.00000000E+00
  0.00000000E+00  0.00000000E+00  0.00000000E+00
  0.00000000E+00  0.00000000E+00  0.00000000E+00
  0.00000000E+00  0.00000000E+00  0.00000000E+00
  0.00000000E+00  0.00000000E+00  0.00000000E+00
  0.00000000E+00  0.00000000E+00  0.00000000E+00
  0.00000000E+00  0.00000000E+00  0.00000000E+00
  0.00000000E+00  0.00000000E+00  0.00000000E+00
  0.00000000E+00  0.00000000E+00  0.00000000E+00
  0.00000000E+00  0.00000000E+00  0.00000000E+00
  0.00000000E+00  0.00000000E+00  0.00000000E+00
  0.00000000E+00  0.00000000E+00  0.00000000E+00
  0.00000000E+00  0.00000000E+00  0.00000000E+00
  0.00000000E+00  0.00000000E+00  0.00000000E+00
  0.00000000E+00  0.00000000E+00  0.00000000E+00
  0.00000000E+00  0.00000000E+00  0.00000000E+00
  0.00000000E+00  0.00000000E+00  0.00000000E+00
  0.00000000E+00  0.00000000E+00  0.00000000E+00
  0.00000000E+00  0.00000000E+00  0.00000000E+00
  0.00000000E+00  0.00000000E+00  0.00000000E+00
  0.00000000E+00  0.00000000E+00  0.00000000E+00
  0.00000000E+00  0.00000000E+00  0.00000000E+00
  0.00000000E+00  0.00000000E+00  0.00000000E+00
  0.00000000E+00  0.00000000E+00  0.00000000E+00
  0.00000000E+00  0.00000000E+00  0.00000000E+00
  0.00000000E+00  0.00000000E+00  0.00000000E+00
  0.00000000E+00  0.00000000E+00  0.00000000E+00
  0.00000000E+00  0.00000000E+00  0.00000000E+00
  0.00000000E+00  0.00000000E+00  0.00000000E+00
  0.00000000E+00  0.00000000E+00  0.00000000E+00
  0.00000000E+00  0.00000000E+00  0.00000000E+00
  0.00000000E+00  0.00000000E+00  0.00000000E+00
  0.00000000E+00  0.00000000E+00  0.00000000E+00
  0.00000000E+00  0.00000000E+00  0.00000000E+00
  0.00000000E+00  0.00000000E+00  0.00000000E+00
  0.00000000E+00  0.00000000E+00  0.00000000E+00
  0.00000000E+00  0.00000000E+00  0.00000000E+00
  0.00000000E+00  0.00000000E+00  0.00000000E+00
  0.00000000E+00  0.00000000E+00  0.00000000E+00
  0.00000000E+00  0.00000000E+00  0.00000000E+00
  0.00000000E+00  0.00000000E+00  0.00000000E+00
  0.00000000E+00  0.00000000E+00  0.00000000E+00
  0.00000000E+00  0.00000000E+00  0.00000000E+00
  0.00000000E+00  0.00000000E+00  0.00000000E+00
  0.00000000E+00  0.00000000E+00  0.00000000E+00
  0.00000000E+00  0.00000000E+00  0.00000000E+00
  0.00000000E+00  0.00000000E+00  0.00000000E+00
  0.00000000E+00  0.00000000E+00  0.00000000E+00
  0.00000000E+00  0.00000000E+00  0.00000000E+00
  0.00000000E+00  0.00000000E+00  0.00000000E+00
  0.00000000E+00  0.00000000E+00  0.00000000E+00
  0.00000000E+00  0.00000000E+00  0.00000000E+00
  0.00000000E+00  0.00000000E+00  0.00000000E+00
  0.00000000E+00  0.00000000E+00  0.00000000E+00
  0.00000000E+00  0.00000000E+00  0.00000000E+00
  0.00000000E+00  0.00000000E+00  0.00000000E+00
  0.00000000E+00  0.00000000E+00  0.00000000E+00
  0.00000000E+00  0.00000000E+00  0.00000000E+00
  0.00000000E+00  0.00000000E+00  0.00000000E+00
  0.00000000E+00  0.00000000E+00  0.00000000E+00
  0.00000000E+00  0.00000000E+00  0.00000000E+00
  0.00000000E+00  0.00000000E+00  0.00000000E+00
  0.00000000E+00  0.00000000E+00  0.00000000E+00
  0.00000000E+00  0.00000000E+00  0.00000000E+00
  0.00000000E+00  0.00000000E+00  0.00000000E+00
  0.00000000E+00  0.00000000E+00  0.00000000E+00
  0.00000000E+00  0.00000000E+00  0.00000000E+00
  0.00000000E+00  0.00000000E+00  0.00000000E+00
  0.00000000E+00  0.00000000E+00  0.00000000E+00
  0.00000000E+00  0.00000000E+00  0.00000000E+00
  0.00000000E+00  0.00000000E+00  0.00000000E+00
  0.00000000E+00  0.00000000E+00  0.00000000E+00
  0.00000000E+00  0.00000000E+00  0.00000000E+00
  0.00000000E+00  0.00000000E+00  0.00000000E+00
  0.00000000E+00  0.00000000E+00  0.00000000E+00
  0.00000000E+00  0.00000000E+00  0.00000000E+00
  0.00000000E+00  0.00000000E+00  0.00000000E+00
  0.00000000E+00  0.00000000E+00  0.00000000E+00
  0.00000000E+00  0.00000000E+00  0.00000000E+00
  0.00000000E+00  0.00000000E+00  0.00000000E+00
  0.00000000E+00  0.00000000E+00  0.00000000E+00
  0.00000000E+00  0.00000000E+00  0.00000000E+00
  0.00000000E+00  0.00000000E+00  0.00000000E+00
  0.00000000E+00  0.00000000E+00  0.00000000E+00
  0.00000000E+00  0.00000000E+00  0.00000000E+00
  0.00000000E+00  0.00000000E+00  0.00000000E+00
  0.00000000E+00  0.00000000E+00  0.00000000E+00
  0.00000000E+00  0.00000000E+00  0.00000000E+00
  0.00000000E+00  0.00000000E+00  0.00000000E+00
  0.00000000E+00  0.00000000E+00  0.00000000E+00
  0.00000000E+00  0.00000000E+00  0.00000000E+00
  0.00000000E+00  0.00000000E+00  0.00000000E+00
  0.00000000E+00  0.00000000E+00  0.00000000E+00
  0.00000000E+00  0.00000000E+00  0.00000000E+00
  0.00000000E+00  0.00000000E+00  0.00000000E+00
  0.00000000E+00  0.00000000E+00  0.00000000E+00
  0.00000000E+00  0.00000000E+00  0.00000000E+00
  0.00000000E+00  0.00000000E+00  0.00000000E+00
  0.00000000E+00  0.00000000E+00  0.00000000E+00
  0.00000000E+00  0.00000000E+00  0.00000000E+00
  0.00000000E+00  0.00000000E+00  0.00000000E+00
  0.00000000E+00  0.00000000E+00  0.00000000E+00
  0.00000000E+00  0.00000000E+00  0.00000000E+00
  0.00000000E+00  0.00000000E+00  0.00000000E+00
  0.00000000E+00  0.00000000E+00  0.00000000E+00
  0.00000000E+00  0.00000000E+00  0.00000000E+00
  0.00000000E+00  0.00000000E+00  0.00000000E+00
  0.00000000E+00  0.00000000E+00  0.00000000E+00
  0.00000000E+00  0.00000000E+00  0.00000000E+00
  0.00000000E+00  0.00000000E+00  0.00000000E+00
  0.00000000E+00  0.00000000E+00  0.00000000E+00
  0.00000000E+00  0.00000000E+00  0.00000000E+00
  0.00000000E+00  0.00000000E+00  0.00000000E+00
  0.00000000E+00  0.00000000E+00  0.00000000E+00
  0.00000000E+00  0.00000000E+00  0.00000000E+00
  0.00000000E+00  0.00000000E+00  0.00000000E+00
  0.00000000E+00  0.00000000E+00  0.00000000E+00
  0.00000000E+00  0.00000000E+00  0.00000000E+00
  0.00000000E+00  0.00000000E+00  0.00000000E+00
  0.00000000E+00  0.00000000E+00  0.00000000E+00
  0.00000000E+00  0.00000000E+00  0.00000000E+00
  0.00000000E+00  0.00000000E+00  0.00000000E+00
  0.00000000E+00  0.00000000E+00  0.00000000E+00
  0.00000000E+00  0.00000000E+00  0.00000000E+00
  0.00000000E+00  0.00000000E+00  0.00000000E+00
  0.00000000E+00  0.00000000E+00  0.00000000E+00
  0.00000000E+00  0.00000000E+00  0.00000000E+00
  0.00000000E+00  0.00000000E+00  0.00000000E+00
  0.00000000E+00  0.00000000E+00  0.00000000E+00
  0.00000000E+00  0.00000000E+00  0.00000000E+00
  0.00000000E+00  0.00000000E+00  0.00000000E+00
  0.00000000E+00  0.00000000E+00  0.00000000E+00
  0.00000000E+00  0.00000000E+00  0.00000000E+00
  0.00000000E+00  0.00000000E+00  0.00000000E+00
  0.00000000E+00  0.00000000E+00  0.00000000E+00
  0.00000000E+00  0.00000000E+00  0.00000000E+00
  0.00000000E+00  0.00000000E+00  0.00000000E+00
  0.00000000E+00  0.00000000E+00  0.00000000E+00
  0.00000000E+00  0.00000000E+00  0.00000000E+00
  0.00000000E+00  0.00000000E+00  0.00000000E+00
  0.00000000E+00  0.00000000E+00  0.00000000E+00
  0.00000000E+00  0.00000000E+00  0.00000000E+00
  0.00000000E+00  0.00000000E+00  0.00000000E+00
  0.00000000E+00  0.00000000E+00  0.00000000E+00
  0.00000000E+00  0.00000000E+00  0.00000000E+00
  0.00000000E+00  0.00000000E+00  0.00000000E+00
  0.00000000E+00  0.00000000E+00  0.00000000E+00
  0.00000000E+00  0.00000000E+00  0.00000000E+00
  0.00000000E+00  0.00000000E+00  0.00000000E+00
  0.00000000E+00  0.00000000E+00  0.00000000E+00
  0.00000000E+00  0.00000000E+00  0.00000000E+00
  0.00000000E+00  0.00000000E+00  0.00000000E+00
  0.00000000E+00  0.00000000E+00  0.00000000E+00
  0.00000000E+00  0.00000000E+00  0.00000000E+00
  0.00000000E+00  0.00000000E+00  0.00000000E+00
  0.00000000E+00  0.00000000E+00  0.00000000E+00
  0.00000000E+00  0.00000000E+00  0.00000000E+00
  0.00000000E+00  0.00000000E+00  0.00000000E+00
  0.00000000E+00  0.00000000E+00  0.00000000E+00
  0.00000000E+00  0.00000000E+00  0.00000000E+00
  0.00000000E+00  0.00000000E+00  0.00000000E+00
  0.00000000E+00  0.00000000E+00  0.00000000E+00
  0.00000000E+00  0.00000000E+00  0.00000000E+00
  0.00000000E+00  0.00000000E+00  0.00000000E+00
  0.00000000E+00  0.00000000E+00  0.00000000E+00
  0.00000000E+00  0.00000000E+00  0.00000000E+00
  0.00000000E+00  0.00000000E+00  0.00000000E+00
  0.00000000E+00  0.00000000E+00  0.00000000E+00
  0.00000000E+00  0.00000000E+00  0.00000000E+00
  0.00000000E+00  0.00000000E+00  0.00000000E+00
  0.00000000E+00  0.00000000E+00  0.00000000E+00
  0.00000000E+00  0.00000000E+00  0.00000000E+00
  0.00000000E+00  0.00000000E+00  0.00000000E+00
  0.00000000E+00  0.00000000E+00  0.00000000E+00
  0.00000000E+00  0.00000000E+00  0.00000000E+00
  0.00000000E+00  0.00000000E+00  0.00000000E+00
  0.00000000E+00  0.00000000E+00  0.00000000E+00
  0.00000000E+00  0.00000000E+00  0.00000000E+00
  0.00000000E+00  0.00000000E+00  0.00000000E+00
  0.00000000E+00  0.00000000E+00  0.00000000E+00
  0.00000000E+00  0.00000000E+00  0.00000000E+00
  0.00000000E+00  0.00000000E+00  0.00000000E+00
  0.00000000E+00  0.00000000E+00  0.00000000E+00