Species order:X N B                     
   2.51242800000000     
     5.9449720136058266    0.0000000000000000    0.0000000000000000
    -2.9724860068029120    5.1484967885702053   -0.0000000000000001
     0.0000000000000000    0.0000000000000009    5.3101128803662583
   Al   N    B 
     2   143   143
Direct
  0.4642939398344187  0.3988136365838770  0.3750000000000000
  0.6337950511902848  0.4835641922618031  0.3750000000000000
  0.1111725273406312  0.0555663579573094  0.1251451410991615
  0.6112203359477681  0.5557206135205031  0.1207604565107862
  0.4445096704769062  0.0555490254071806  0.1248983133428180
  0.9444577732766117  0.5555721910442285  0.1255275048196513
  0.7778642688944414  0.0555988011138884  0.1249738334431395
  0.1111457870034419  0.7222395601683910  0.6246527655652168
  0.4445096704769062  0.7222939784030659  0.6251016866571817
  0.2778405549600703  0.2222286771752927  0.6248523114731036
  0.7778196381036900  0.7222808969969218  0.6256976537873957
  0.6111774124081413  0.2222026526485845  0.6258926404837305
  0.9445293671753714  0.2222651420095522  0.6249762792716422
  0.2778304005325608  0.7222634694249441  0.1251493544976802
  0.1111969172670306  0.2222651253001787  0.1251519610194998
  0.4445208886222725  0.2221988198700384  0.1240839484004821
  0.6111774124081413  0.7223080930928957  0.1241073595162645
  0.9444577732766117  0.7222189155657199  0.1255275048196513
  0.7778532678522601  0.2222279988768489  0.1248467476274112
  0.1111530172569228  0.8888915817621740  0.6247695511231873
  0.4445085837125512  0.8889209585229336  0.6248881361872921
  0.2778405549600703  0.3889452111181048  0.6248523114731036
  0.6112203359477681  0.3888330557605901  0.6292395434892171
  0.7778532678522601  0.8889586023087296  0.6251532523725992
  0.9444977104942127  0.3889214716121221  0.6248183867756120
  0.1111725273406312  0.3889395027166495  0.1251451410991615
  0.2778304005325608  0.8889002644409475  0.1251493544976802
  0.6111838708038128  0.8889483604394389  0.1250119912445224
  0.4444947417992148  0.3889140375662751  0.1253071370188517
  0.9444977104942127  0.8889095722154207  0.1251816132243772
  0.7778196381036900  0.3888720744400976  0.1243023462126048
  0.2778353391738402  0.5556165391774429  0.6248942557625137
  0.1111725273406312  0.0555663579573094  0.6248548589008339
  0.6112203359477681  0.5557206135205031  0.6292395434892171
  0.4445096704769062  0.0555490254071806  0.6251016866571817
  0.9444577732766117  0.5555721910442285  0.6244724951803510
  0.1111530172569228  0.5555947688280766  0.1252304488768072
  0.7778642688944414  0.0555988011138884  0.6250261665568605
  0.2778353391738402  0.0555521333297354  0.1251057442374894
  0.4445208886222725  0.5556554020855703  0.1240839484004821
  0.7777218418347466  0.5555275875840388  0.1248487557078860
  0.6111838708038128  0.0555688436976947  0.1250119912445224
  0.4445208886222725  0.5556554020855703  0.6259160515995261
  0.9445293671753714  0.0555975584991564  0.1250237207283629
  0.2778304005325608  0.7222634694249441  0.6248506455023228
  0.1111969172670306  0.2222651253001787  0.6248480389805033
  0.4445208886222725  0.2221988198700384  0.6259160515995261
  0.6111774124081413  0.7223080930928957  0.6258926404837305
  0.9444577732766117  0.7222189155657199  0.6244724951803510
  0.7778532678522601  0.2222279988768489  0.6251532523725992
  0.1111457870034419  0.7222395601683910  0.1253472344347762
  0.4445096704769062  0.7222939784030659  0.1248983133428180
  0.2778405549600703  0.2222286771752927  0.1251476885268974
  0.7778196381036900  0.7222808969969218  0.1243023462126048
  0.6111774124081413  0.2222026526485845  0.1241073595162645
  0.9445293671753714  0.2222651420095522  0.1250237207283629
  0.1111725273406312  0.3889395027166495  0.6248548589008339
  0.2778304005325608  0.8889002644409475  0.6248506455023228
  0.6111838708038128  0.8889483604394389  0.6249880087554794
  0.4444947417992148  0.3889140375662751  0.6246928629811530
  0.9444977104942127  0.8889095722154207  0.6248183867756120
  0.1111530172569228  0.8888915817621740  0.1252304488768072
  0.7778196381036900  0.3888720744400976  0.6256976537873957
  0.4445085837125512  0.8889209585229336  0.1251118638127057
  0.2778405549600703  0.3889452111181048  0.1251476885268974
  0.2778353391738402  0.5556165391774429  0.1251057442374894
  0.6112203359477681  0.3888330557605901  0.1207604565107862
  0.7778532678522601  0.8889586023087296  0.1248467476274112
  0.9444977104942127  0.3889214716121221  0.1251816132243772
  0.1111530172569228  0.5555947688280766  0.6247695511231873
  0.2778353391738402  0.0555521333297354  0.6248942557625137
  0.7777218418347466  0.5555275875840388  0.6251512442921133
  0.6111838708038128  0.0555688436976947  0.6249880087554794
  0.9445293671753714  0.0555975584991564  0.6249762792716422
  0.0564353137161156  0.1119446297535970  0.3750000000000000
  0.5475662042677601  0.6267955442080984  0.3750000000000000
  0.3828254013819475  0.0994704595861095  0.3750000000000000
  0.8914607207973156  0.6123970270653285  0.3750000000000000
  0.7223616926158231  0.1095613572181688  0.3750000000000000
  0.0555371437043980  0.7777696276216673  0.8750000000000000
  0.3888732919609057  0.7777712035324033  0.8750000000000000
  0.2222033249666951  0.2777683291500156  0.8750000000000000
  0.7222111759206666  0.7777683421581344  0.8750000000000000
  0.5555294299950299  0.2777591912970935  0.8750000000000000
  0.8888806518347496  0.2777762451230695  0.8750000000000000
  0.2181972492172950  0.7757652912753162  0.3750000000000000
  0.0564353137161156  0.2778240172958547  0.3750000000000000
  0.3864845260484484  0.2646582226884299  0.3750000000000000
  0.5529504766668834  0.7843400207704513  0.3750000000000000
  0.8888858857466732  0.7794540339021993  0.3750000000000000
  0.7217582845255487  0.2734116478381855  0.3750000000000000
  0.0555400314195469  0.9444363434727745  0.8750000000000000
  0.3888732919609057  0.9444354217618317  0.8750000000000000
  0.2222028624641168  0.4444346405758114  0.8750000000000000
  0.5555198223224580  0.4444265778278933  0.8750000000000000
  0.7222116164621716  0.9444373959062872  0.8750000000000000
  0.8888806412516745  0.4444415396750533  0.8750000000000000
  0.0541998540219091  0.4435983872790148  0.3750000000000000
  0.2179703626901811  0.9402967315884594  0.3750000000000000
  0.5534486144675798  0.9433909739004526  0.3750000000000000
  0.3864845260484484  0.4551596366933529  0.3750000000000000
  0.8893279604949343  0.9460679808132051  0.3750000000000000
  0.7246939094184637  0.4407165289531751  0.3750000000000000
  0.2222019521866946  0.6111011208797754  0.8750000000000000
  0.0555406536816589  0.1111025007413247  0.8750000000000000
  0.5555294299950299  0.6111035720312806  0.8750000000000000
  0.3888679351864416  0.1110977504222612  0.8750000000000000
  0.8888784499925252  0.6111058916629307  0.8750000000000000
  0.0534195376343287  0.6098824774475120  0.3750000000000000
  0.7222116164621716  0.1111075538892112  0.8750000000000000
  0.2199013970567248  0.1078592858439341  0.3750000000000000
  0.3828254013819475  0.6166882751291808  0.3750000000000000
  0.7246939094184637  0.6173107137986195  0.3750000000000000
  0.5529504766668834  0.1019437892297661  0.3750000000000000
  0.3888679351864416  0.6111035180975239  0.8750000000000000
  0.8898484707754951  0.1115909020544230  0.3750000000000000
  0.2222016550795623  0.7777674942064479  0.8750000000000000
  0.0555406536816589  0.2777714862736626  0.8750000000000000
  0.3888696804087646  0.2777703144702426  0.8750000000000000
  0.5555399100456838  0.7777701996753557  0.8750000000000000
  0.8888806412516745  0.7777724349099580  0.8750000000000000
  0.7222111759206666  0.2777761670958705  0.8750000000000000
  0.0534195376343287  0.7768703935201487  0.3750000000000000
  0.3847749407046845  0.7784223528097637  0.3750000000000000
  0.2246542336186814  0.2789937834760042  0.3750000000000000
  0.7217582845255487  0.7816799700206984  0.3750000000000000
  0.5475662042677601  0.2541039933929921  0.3750000000000000
  0.8893279604949343  0.2765933130150656  0.3750000000000000
  0.0555400314195469  0.4444370212801071  0.8750000000000000
  0.2222019521866946  0.9444341646402570  0.8750000000000000
  0.5555431569188560  0.9444382451260913  0.8750000000000000
  0.3888696804087646  0.4444326992718624  0.8750000000000000
  0.8888806518347496  0.9444377400450212  0.8750000000000000
  0.0541998540219091  0.9439348000762204  0.3750000000000000
  0.7222181737881364  0.4444474971256168  0.8750000000000000
  0.3847749407046845  0.9396859212282537  0.3750000000000000
  0.2199013970567248  0.4453754445461262  0.3750000000000000
  0.2179703626901811  0.6110069644350633  0.3750000000000000
  0.7223616926158231  0.9461336687309885  0.3750000000000000
  0.8888858857466732  0.4427651851778203  0.3750000000000000
  0.0555371437043980  0.6111008494160570  0.8750000000000000
  0.2222028624641168  0.1111015552216341  0.8750000000000000
  0.7222181737881364  0.6111040099958562  0.8750000000000000
  0.5555399100456838  0.1111030437036618  0.8750000000000000
  0.8888796190222348  0.1111064761777932  0.8750000000000000
  0.1100136065294943  0.0548170424620571  0.3750000000000000
  0.6048590140108828  0.5822535076228192  0.3750000000000000
  0.4411466767672909  0.0482420987063263  0.3750000000000000
  0.9446306976943052  0.5538728446550558  0.3750000000000000
  0.7791716347022437  0.0562524840177886  0.3750000000000000
  0.1111213073716259  0.7222273203524834  0.8750000000000000
  0.4444098973077737  0.7222099353244723  0.8750000000000000
  0.2777304817803958  0.2222026465417472  0.8750000000000000
  0.7777801190202182  0.7222507287060902  0.8750000000000000
  0.6110761669094094  0.2221873640466085  0.8750000000000000
  0.9444541021549898  0.2222123247132947  0.8750000000000000
  0.2739656291605320  0.7214851717650896  0.3750000000000000
  0.1132747352260662  0.2233040342796971  0.3750000000000000
  0.4365509124826706  0.2068107471711988  0.3750000000000000
  0.6104227119001466  0.7345705608323607  0.3750000000000000
  0.9446306976943052  0.7240911863725829  0.3750000000000000
  0.7788600439068468  0.2196155177957354  0.3750000000000000
  0.1111164576111857  0.8889107408060377  0.8750000000000000
  0.4444239110191210  0.8888786221762233  0.8750000000000000
  0.2777304817803958  0.3888611685719778  0.8750000000000000
  0.6110444085904967  0.3888539006340084  0.8750000000000000
  0.7777857236376710  0.8889181242950185  0.8750000000000000
  0.9444624200057438  0.3888658231453947  0.8750000000000000
  0.1100136065294943  0.3885298974007667  0.3750000000000000
  0.2739656291605320  0.8858137907287791  0.3750000000000000
  0.6111689101939344  0.8927502041029127  0.3750000000000000
  0.9445402017393237  0.8908379975079820  0.3750000000000000
  0.7799712626831715  0.3838618759124197  0.3750000000000000
  0.2777462571124671  0.5555323231589947  0.8750000000000000
  0.1111033619527385  0.0555692328073919  0.8750000000000000
  0.6110444085904967  0.5555238412898265  0.8750000000000000
  0.4444098973077737  0.0555332953166360  0.8750000000000000
  0.9444690170034420  0.5555484580661816  0.8750000000000000
  0.1084060249361411  0.5543258222281290  0.3750000000000000
  0.7777844924044653  0.0555589128689038  0.8750000000000000
  0.2729433681011514  0.0498934796639262  0.3750000000000000
  0.4365509124826706  0.5630734986448087  0.3750000000000000
  0.7860186719864540  0.5596760026598956  0.3750000000000000
  0.6111689101939344  0.0517520394243617  0.3750000000000000
  0.4443861205733211  0.5555333160345648  0.8750000000000000
  0.9458341284691186  0.0571047747516872  0.3750000000000000
  0.2777631143729730  0.7222105555125646  0.8750000000000000
  0.1110955330172821  0.2222144331753092  0.8750000000000000
  0.4443861205733211  0.2221861378720925  0.8750000000000000
  0.6110761669094094  0.7222221361961322  0.8750000000000000
  0.9444690170034420  0.7222538922705949  0.8750000000000000
  0.7777857236376710  0.2222009326759735  0.8750000000000000
  0.1082680669204457  0.7208007001268897  0.3750000000000000
  0.4411466767672909  0.7262379113942924  0.3750000000000000
  0.2771623979846810  0.2189383083738916  0.3750000000000000
  0.7799712626831715  0.7294427201040757  0.3750000000000000
  0.6104227119001466  0.2091854844011271  0.3750000000000000
  0.9458341284691186  0.2220626870507749  0.3750000000000000
  0.1111033619527385  0.3888674624786758  0.8750000000000000
  0.2777631143729730  0.8888858921937319  0.8750000000000000
  0.6110985744464541  0.8888919485637292  0.8750000000000000
  0.4443855066637565  0.3888594199985384  0.8750000000000000
  0.9444624200057438  0.8889299301936746  0.8750000000000000
  0.1084060249361411  0.8874135360413532  0.3750000000000000
  0.7777801190202182  0.3888627236474679  0.8750000000000000
  0.4419960152305750  0.8876646742819545  0.3750000000000000
  0.2771623979846810  0.3915574229441167  0.3750000000000000
  0.2729433681011514  0.5563832217705689  0.3750000000000000
  0.6048590140108828  0.3559388397214010  0.3750000000000000
  0.7788600439068468  0.8925778594444369  0.3750000000000000
  0.9445402017393237  0.3870355375646762  0.3750000000000000
  0.1111164576111857  0.5555390501384738  0.8750000000000000
  0.2777462571124671  0.0555472672868055  0.8750000000000000
  0.7777741162639933  0.5555537247986666  0.8750000000000000
  0.6110985744464541  0.0555399592160548  0.8750000000000000
  0.9444541021549898  0.0555751107750284  0.8750000000000000
  0.0556733797544254  0.1111880965580298  0.1249565045521636
  0.5554995505437167  0.6112090713249090  0.1224134660786821
  0.3888841147329845  0.1110299232995865  0.1245137945433740
  0.8890791783289707  0.6112062558311570  0.1247908121753154
  0.7222825043213333  0.1110681738706041  0.1246871534308544
  0.0557375249355783  0.7778872441190917  0.6249449195717270
  0.3889280123002202  0.7778359179763551  0.6251420222341508
  0.2222766099154853  0.2778049716244149  0.6249018700339813
  0.7222573951774932  0.7779792171936921  0.6261457816163112
  0.5554995505437167  0.2776238125521619  0.6275865339213108
  0.8890089526427187  0.2777541535646306  0.6252592397083687
  0.2223381034930591  0.7778357184131999  0.1249718086064916
  0.0556733797544254  0.2778186165297334  0.1249565045521636
  0.3888014613648536  0.2775928576440328  0.1246864729840862
  0.5555502895835054  0.7778937260302282  0.1244164452409983
  0.8890433625673499  0.7779550779093413  0.1245999712028178
  0.7222573951774932  0.2776115113171435  0.1238542183836846
  0.0556928363702668  0.9445488500754982  0.6250354554807008
  0.3889280123002202  0.9444254276572096  0.6251420222341508
  0.2222755980873759  0.4444942434385504  0.6250043060387345
  0.5556237008816334  0.4444785171074810  0.6274603534716006
  0.7222825043213333  0.9445476637840639  0.6253128465691552
  0.8890433625673499  0.4444216179913438  0.6254000287971834
  0.0556928363702668  0.4444773196280987  0.1249645445192984
  0.2223164005363654  0.9444803753983659  0.1249634614172121
  0.5555817305014962  0.9444575319174160  0.1248439129311354
  0.3888014613648536  0.4445419370541642  0.1246864729840862
  0.8890089526427187  0.9445881324114211  0.1247407602916323
  0.7221899794076149  0.4442540151539643  0.1220999126845315
  0.2223164005363654  0.6111693584713355  0.6250365385827887
  0.0556733797544254  0.1111880965580298  0.6250434954478380
  0.5554995505437167  0.6112090713249090  0.6275865339213108
  0.3888841147329845  0.1110299232995865  0.6254862054566235
  0.8890791783289707  0.6112062558311570  0.6252091878246792
  0.0557375249355783  0.6111836141498256  0.1250550804282747
  0.7222825043213333  0.1110681738706041  0.6253128465691552
  0.2222755980873759  0.1111146879821598  0.1249956939612642
  0.3888841147329845  0.6111875247667459  0.1245137945433740
  0.7221899794076149  0.6112692975869970  0.1220999126845315
  0.5555502895835054  0.1109898968866188  0.1244164452409983
  0.3888841147329845  0.6111875247667459  0.6254862054566235
  0.8890004070213616  0.1111668701773563  0.1247964696805214
  0.2223381034930591  0.7778357184131999  0.6250281913935076
  0.0556733797544254  0.2778186165297334  0.6250434954478380
  0.3888014613648536  0.2775928576440328  0.6253135270159115
  0.5555502895835054  0.7778937260302282  0.6255835547590104
  0.8890433625673499  0.7779550779093413  0.6254000287971834
  0.7222573951774932  0.2776115113171435  0.6261457816163112
  0.0557375249355783  0.7778872441190917  0.1250550804282747
  0.3889280123002202  0.7778359179763551  0.1248579777658506
  0.2222766099154853  0.2778049716244149  0.1250981299660167
  0.7222573951774932  0.7779792171936921  0.1238542183836846
  0.5554995505437167  0.2776238125521619  0.1224134660786821
  0.8890089526427187  0.2777541535646306  0.1247407602916323
  0.0556928363702668  0.4444773196280987  0.6250354554807008
  0.2223164005363654  0.9444803753983659  0.6250365385827887
  0.5555817305014962  0.9444575319174160  0.6251560870688642
  0.3888014613648536  0.4445419370541642  0.6253135270159115
  0.8890089526427187  0.9445881324114211  0.6252592397083687
  0.0556928363702668  0.9445488500754982  0.1249645445192984
  0.7221899794076149  0.4442540151539643  0.6279000873154694
  0.3889280123002202  0.9444254276572096  0.1248579777658506
  0.2222755980873759  0.4444942434385504  0.1249956939612642
  0.2223164005363654  0.6111693584713355  0.1249634614172121
  0.5556237008816334  0.4444785171074810  0.1225396465284048
  0.7222825043213333  0.9445476637840639  0.1246871534308544
  0.8890433625673499  0.4444216179913438  0.1245999712028178
  0.0557375249355783  0.6111836141498256  0.6249449195717270
  0.2222755980873759  0.1111146879821598  0.6250043060387345
  0.7221899794076149  0.6112692975869970  0.6279000873154694
  0.5555502895835054  0.1109898968866188  0.6255835547590104
  0.8890004070213616  0.1111668701773563  0.6252035303194823
 
  0.00000000E+00  0.00000000E+00  0.00000000E+00
  0.00000000E+00  0.00000000E+00  0.00000000E+00
  0.00000000E+00  0.00000000E+00  0.00000000E+00
  0.00000000E+00  0.00000000E+00  0.00000000E+00
  0.00000000E+00  0.00000000E+00  0.00000000E+00
  0.00000000E+00  0.00000000E+00  0.00000000E+00
  0.00000000E+00  0.00000000E+00  0.00000000E+00
  0.00000000E+00  0.00000000E+00  0.00000000E+00
  0.00000000E+00  0.00000000E+00  0.00000000E+00
  0.00000000E+00  0.00000000E+00  0.00000000E+00
  0.00000000E+00  0.00000000E+00  0.00000000E+00
  0.00000000E+00  0.00000000E+00  0.00000000E+00
  0.00000000E+00  0.00000000E+00  0.00000000E+00
  0.00000000E+00  0.00000000E+00  0.00000000E+00
  0.00000000E+00  0.00000000E+00  0.00000000E+00
  0.00000000E+00  0.00000000E+00  0.00000000E+00
  0.00000000E+00  0.00000000E+00  0.00000000E+00
  0.00000000E+00  0.00000000E+00  0.00000000E+00
  0.00000000E+00  0.00000000E+00  0.00000000E+00
  0.00000000E+00  0.00000000E+00  0.00000000E+00
  0.00000000E+00  0.00000000E+00  0.00000000E+00
  0.00000000E+00  0.00000000E+00  0.00000000E+00
  0.00000000E+00  0.00000000E+00  0.00000000E+00
  0.00000000E+00  0.00000000E+00  0.00000000E+00
  0.00000000E+00  0.00000000E+00  0.00000000E+00
  0.00000000E+00  0.00000000E+00  0.00000000E+00
  0.00000000E+00  0.00000000E+00  0.00000000E+00
  0.00000000E+00  0.00000000E+00  0.00000000E+00
  0.00000000E+00  0.00000000E+00  0.00000000E+00
  0.00000000E+00  0.00000000E+00  0.00000000E+00
  0.00000000E+00  0.00000000E+00  0.00000000E+00
  0.00000000E+00  0.00000000E+00  0.00000000E+00
  0.00000000E+00  0.00000000E+00  0.00000000E+00
  0.00000000E+00  0.00000000E+00  0.00000000E+00
  0.00000000E+00  0.00000000E+00  0.00000000E+00
  0.00000000E+00  0.00000000E+00  0.00000000E+00
  0.00000000E+00  0.00000000E+00  0.00000000E+00
  0.00000000E+00  0.00000000E+00  0.00000000E+00
  0.00000000E+00  0.00000000E+00  0.00000000E+00
  0.00000000E+00  0.00000000E+00  0.00000000E+00
  0.00000000E+00  0.00000000E+00  0.00000000E+00
  0.00000000E+00  0.00000000E+00  0.00000000E+00
  0.00000000E+00  0.00000000E+00  0.00000000E+00
  0.00000000E+00  0.00000000E+00  0.00000000E+00
  0.00000000E+00  0.00000000E+00  0.00000000E+00
  0.00000000E+00  0.00000000E+00  0.00000000E+00
  0.00000000E+00  0.00000000E+00  0.00000000E+00
  0.00000000E+00  0.00000000E+00  0.00000000E+00
  0.00000000E+00  0.00000000E+00  0.00000000E+00
  0.00000000E+00  0.00000000E+00  0.00000000E+00
  0.00000000E+00  0.00000000E+00  0.00000000E+00
  0.00000000E+00  0.00000000E+00  0.00000000E+00
  0.00000000E+00  0.00000000E+00  0.00000000E+00
  0.00000000E+00  0.00000000E+00  0.00000000E+00
  0.00000000E+00  0.00000000E+00  0.00000000E+00
  0.00000000E+00  0.00000000E+00  0.00000000E+00
  0.00000000E+00  0.00000000E+00  0.00000000E+00
  0.00000000E+00  0.00000000E+00  0.00000000E+00
  0.00000000E+00  0.00000000E+00  0.00000000E+00
  0.00000000E+00  0.00000000E+00  0.00000000E+00
  0.00000000E+00  0.00000000E+00  0.00000000E+00
  0.00000000E+00  0.00000000E+00  0.00000000E+00
  0.00000000E+00  0.00000000E+00  0.00000000E+00
  0.00000000E+00  0.00000000E+00  0.00000000E+00
  0.00000000E+00  0.00000000E+00  0.00000000E+00
  0.00000000E+00  0.00000000E+00  0.00000000E+00
  0.00000000E+00  0.00000000E+00  0.00000000E+00
  0.00000000E+00  0.00000000E+00  0.00000000E+00
  0.00000000E+00  0.00000000E+00  0.00000000E+00
  0.00000000E+00  0.00000000E+00  0.00000000E+00
  0.00000000E+00  0.00000000E+00  0.00000000E+00
  0.00000000E+00  0.00000000E+00  0.00000000E+00
  0.00000000E+00  0.00000000E+00  0.00000000E+00
  0.00000000E+00  0.00000000E+00  0.00000000E+00
  0.00000000E+00  0.00000000E+00  0.00000000E+00
  0.00000000E+00  0.00000000E+00  0.00000000E+00
  0.00000000E+00  0.00000000E+00  0.00000000E+00
  0.00000000E+00  0.00000000E+00  0.00000000E+00
  0.00000000E+00  0.00000000E+00  0.00000000E+00
  0.00000000E+00  0.00000000E+00  0.00000000E+00
  0.00000000E+00  0.00000000E+00  0.00000000E+00
  0.00000000E+00  0.00000000E+00  0.00000000E+00
  0.00000000E+00  0.00000000E+00  0.00000000E+00
  0.00000000E+00  0.00000000E+00  0.00000000E+00
  0.00000000E+00  0.00000000E+00  0.00000000E+00
  0.00000000E+00  0.00000000E+00  0.00000000E+00
  0.00000000E+00  0.00000000E+00  0.00000000E+00
  0.00000000E+00  0.00000000E+00  0.00000000E+00
  0.00000000E+00  0.00000000E+00  0.00000000E+00
  0.00000000E+00  0.00000000E+00  0.00000000E+00
  0.00000000E+00  0.00000000E+00  0.00000000E+00
  0.00000000E+00  0.00000000E+00  0.00000000E+00
  0.00000000E+00  0.00000000E+00  0.00000000E+00
  0.00000000E+00  0.00000000E+00  0.00000000E+00
  0.00000000E+00  0.00000000E+00  0.00000000E+00
  0.00000000E+00  0.00000000E+00  0.00000000E+00
  0.00000000E+00  0.00000000E+00  0.00000000E+00
  0.00000000E+00  0.00000000E+00  0.00000000E+00
  0.00000000E+00  0.00000000E+00  0.00000000E+00
  0.00000000E+00  0.00000000E+00  0.00000000E+00
  0.00000000E+00  0.00000000E+00  0.00000000E+00
  0.00000000E+00  0.00000000E+00  0.00000000E+00
  0.00000000E+00  0.00000000E+00  0.00000000E+00
  0.00000000E+00  0.00000000E+00  0.00000000E+00
  0.00000000E+00  0.00000000E+00  0.00000000E+00
  0.00000000E+00  0.00000000E+00  0.00000000E+00
  0.00000000E+00  0.00000000E+00  0.00000000E+00
  0.00000000E+00  0.00000000E+00  0.00000000E+00
  0.00000000E+00  0.00000000E+00  0.00000000E+00
  0.00000000E+00  0.00000000E+00  0.00000000E+00
  0.00000000E+00  0.00000000E+00  0.00000000E+00
  0.00000000E+00  0.00000000E+00  0.00000000E+00
  0.00000000E+00  0.00000000E+00  0.00000000E+00
  0.00000000E+00  0.00000000E+00  0.00000000E+00
  0.00000000E+00  0.00000000E+00  0.00000000E+00
  0.00000000E+00  0.00000000E+00  0.00000000E+00
  0.00000000E+00  0.00000000E+00  0.00000000E+00
  0.00000000E+00  0.00000000E+00  0.00000000E+00
  0.00000000E+00  0.00000000E+00  0.00000000E+00
  0.00000000E+00  0.00000000E+00  0.00000000E+00
  0.00000000E+00  0.00000000E+00  0.00000000E+00
  0.00000000E+00  0.00000000E+00  0.00000000E+00
  0.00000000E+00  0.00000000E+00  0.00000000E+00
  0.00000000E+00  0.00000000E+00  0.00000000E+00
  0.00000000E+00  0.00000000E+00  0.00000000E+00
  0.00000000E+00  0.00000000E+00  0.00000000E+00
  0.00000000E+00  0.00000000E+00  0.00000000E+00
  0.00000000E+00  0.00000000E+00  0.00000000E+00
  0.00000000E+00  0.00000000E+00  0.00000000E+00
  0.00000000E+00  0.00000000E+00  0.00000000E+00
  0.00000000E+00  0.00000000E+00  0.00000000E+00
  0.00000000E+00  0.00000000E+00  0.00000000E+00
  0.00000000E+00  0.00000000E+00  0.00000000E+00
  0.00000000E+00  0.00000000E+00  0.00000000E+00
  0.00000000E+00  0.00000000E+00  0.00000000E+00
  0.00000000E+00  0.00000000E+00  0.00000000E+00
  0.00000000E+00  0.00000000E+00  0.00000000E+00
  0.00000000E+00  0.00000000E+00  0.00000000E+00
  0.00000000E+00  0.00000000E+00  0.00000000E+00
  0.00000000E+00  0.00000000E+00  0.00000000E+00
  0.00000000E+00  0.00000000E+00  0.00000000E+00
  0.00000000E+00  0.00000000E+00  0.00000000E+00
  0.00000000E+00  0.00000000E+00  0.00000000E+00
  0.00000000E+00  0.00000000E+00  0.00000000E+00
  0.00000000E+00  0.00000000E+00  0.00000000E+00
  0.00000000E+00  0.00000000E+00  0.00000000E+00
  0.00000000E+00  0.00000000E+00  0.00000000E+00
  0.00000000E+00  0.00000000E+00  0.00000000E+00
  0.00000000E+00  0.00000000E+00  0.00000000E+00
  0.00000000E+00  0.00000000E+00  0.00000000E+00
  0.00000000E+00  0.00000000E+00  0.00000000E+00
  0.00000000E+00  0.00000000E+00  0.00000000E+00
  0.00000000E+00  0.00000000E+00  0.00000000E+00
  0.00000000E+00  0.00000000E+00  0.00000000E+00
  0.00000000E+00  0.00000000E+00  0.00000000E+00
  0.00000000E+00  0.00000000E+00  0.00000000E+00
  0.00000000E+00  0.00000000E+00  0.00000000E+00
  0.00000000E+00  0.00000000E+00  0.00000000E+00
  0.00000000E+00  0.00000000E+00  0.00000000E+00
  0.00000000E+00  0.00000000E+00  0.00000000E+00
  0.00000000E+00  0.00000000E+00  0.00000000E+00
  0.00000000E+00  0.00000000E+00  0.00000000E+00
  0.00000000E+00  0.00000000E+00  0.00000000E+00
  0.00000000E+00  0.00000000E+00  0.00000000E+00
  0.00000000E+00  0.00000000E+00  0.00000000E+00
  0.00000000E+00  0.00000000E+00  0.00000000E+00
  0.00000000E+00  0.00000000E+00  0.00000000E+00
  0.00000000E+00  0.00000000E+00  0.00000000E+00
  0.00000000E+00  0.00000000E+00  0.00000000E+00
  0.00000000E+00  0.00000000E+00  0.00000000E+00
  0.00000000E+00  0.00000000E+00  0.00000000E+00
  0.00000000E+00  0.00000000E+00  0.00000000E+00
  0.00000000E+00  0.00000000E+00  0.00000000E+00
  0.00000000E+00  0.00000000E+00  0.00000000E+00
  0.00000000E+00  0.00000000E+00  0.00000000E+00
  0.00000000E+00  0.00000000E+00  0.00000000E+00
  0.00000000E+00  0.00000000E+00  0.00000000E+00
  0.00000000E+00  0.00000000E+00  0.00000000E+00
  0.00000000E+00  0.00000000E+00  0.00000000E+00
  0.00000000E+00  0.00000000E+00  0.00000000E+00
  0.00000000E+00  0.00000000E+00  0.00000000E+00
  0.00000000E+00  0.00000000E+00  0.00000000E+00
  0.00000000E+00  0.00000000E+00  0.00000000E+00
  0.00000000E+00  0.00000000E+00  0.00000000E+00
  0.00000000E+00  0.00000000E+00  0.00000000E+00
  0.00000000E+00  0.00000000E+00  0.00000000E+00
  0.00000000E+00  0.00000000E+00  0.00000000E+00
  0.00000000E+00  0.00000000E+00  0.00000000E+00
  0.00000000E+00  0.00000000E+00  0.00000000E+00
  0.00000000E+00  0.00000000E+00  0.00000000E+00
  0.00000000E+00  0.00000000E+00  0.00000000E+00
  0.00000000E+00  0.00000000E+00  0.00000000E+00
  0.00000000E+00  0.00000000E+00  0.00000000E+00
  0.00000000E+00  0.00000000E+00  0.00000000E+00
  0.00000000E+00  0.00000000E+00  0.00000000E+00
  0.00000000E+00  0.00000000E+00  0.00000000E+00
  0.00000000E+00  0.00000000E+00  0.00000000E+00
  0.00000000E+00  0.00000000E+00  0.00000000E+00
  0.00000000E+00  0.00000000E+00  0.00000000E+00
  0.00000000E+00  0.00000000E+00  0.00000000E+00
  0.00000000E+00  0.00000000E+00  0.00000000E+00
  0.00000000E+00  0.00000000E+00  0.00000000E+00
  0.00000000E+00  0.00000000E+00  0.00000000E+00
  0.00000000E+00  0.00000000E+00  0.00000000E+00
  0.00000000E+00  0.00000000E+00  0.00000000E+00
  0.00000000E+00  0.00000000E+00  0.00000000E+00
  0.00000000E+00  0.00000000E+00  0.00000000E+00
  0.00000000E+00  0.00000000E+00  0.00000000E+00
  0.00000000E+00  0.00000000E+00  0.00000000E+00
  0.00000000E+00  0.00000000E+00  0.00000000E+00
  0.00000000E+00  0.00000000E+00  0.00000000E+00
  0.00000000E+00  0.00000000E+00  0.00000000E+00
  0.00000000E+00  0.00000000E+00  0.00000000E+00
  0.00000000E+00  0.00000000E+00  0.00000000E+00
  0.00000000E+00  0.00000000E+00  0.00000000E+00
  0.00000000E+00  0.00000000E+00  0.00000000E+00
  0.00000000E+00  0.00000000E+00  0.00000000E+00
  0.00000000E+00  0.00000000E+00  0.00000000E+00
  0.00000000E+00  0.00000000E+00  0.00000000E+00
  0.00000000E+00  0.00000000E+00  0.00000000E+00
  0.00000000E+00  0.00000000E+00  0.00000000E+00
  0.00000000E+00  0.00000000E+00  0.00000000E+00
  0.00000000E+00  0.00000000E+00  0.00000000E+00
  0.00000000E+00  0.00000000E+00  0.00000000E+00
  0.00000000E+00  0.00000000E+00  0.00000000E+00
  0.00000000E+00  0.00000000E+00  0.00000000E+00
  0.00000000E+00  0.00000000E+00  0.00000000E+00
  0.00000000E+00  0.00000000E+00  0.00000000E+00
  0.00000000E+00  0.00000000E+00  0.00000000E+00
  0.00000000E+00  0.00000000E+00  0.00000000E+00
  0.00000000E+00  0.00000000E+00  0.00000000E+00
  0.00000000E+00  0.00000000E+00  0.00000000E+00
  0.00000000E+00  0.00000000E+00  0.00000000E+00
  0.00000000E+00  0.00000000E+00  0.00000000E+00
  0.00000000E+00  0.00000000E+00  0.00000000E+00
  0.00000000E+00  0.00000000E+00  0.00000000E+00
  0.00000000E+00  0.00000000E+00  0.00000000E+00
  0.00000000E+00  0.00000000E+00  0.00000000E+00
  0.00000000E+00  0.00000000E+00  0.00000000E+00
  0.00000000E+00  0.00000000E+00  0.00000000E+00
  0.00000000E+00  0.00000000E+00  0.00000000E+00
  0.00000000E+00  0.00000000E+00  0.00000000E+00
  0.00000000E+00  0.00000000E+00  0.00000000E+00
  0.00000000E+00  0.00000000E+00  0.00000000E+00
  0.00000000E+00  0.00000000E+00  0.00000000E+00
  0.00000000E+00  0.00000000E+00  0.00000000E+00
  0.00000000E+00  0.00000000E+00  0.00000000E+00