 N Si B 
 1.0
 17.527899999999772   0.000000000000000   0.000000000000000
 -8.763949999999658  15.179606674993195   0.000000000000000
  0.000000000000001   0.000000000000002  15.000000000000000
 N Si B 
  49   1  48
Cartesian
  8.766126164574853  13.735807037062070   1.619875702929330 
 16.275379450407851   0.723160455199398   1.591940593249245 
 15.020521450092701   2.889357738509575   1.585077105704145 
 13.767206561220789   5.059868891664398   1.596776710163220 
 12.519831100178440   7.227785610890537   1.614082691841780 
 11.270652164158609   9.398042099790736   1.634252810307435 
 10.018696816889753  11.567157950668543   1.631786490701430 
 -6.259446257577366  13.733648499635382   1.597150933271595 
  1.251470075847311   0.720041296096421   1.619875800384285 
 -0.009129383355963   2.879601268461367   1.668057743747265 
 -1.265540650148510   5.051870936639423   1.700594864821860 
 -2.519015240512663   7.226268417983787   1.684381425848685 
 -3.759020904976778   9.398130241267836   1.636654183524810 
 -5.008212293672825  11.566309062034568   1.603478755486530 
 -3.756858604991280  13.733717186476262   1.603478768866545 
  3.755860582814519   0.719608595594908   1.631786379356460 
  2.501328761994203   2.882842210500359   1.712318227796820 
  1.225687403485617   5.028775251161597   1.807644373557780 
 -0.039838890378037   7.220756566938049   1.813499024791095 
 -1.261051982235923   9.399066123505117   1.726711131245880 
 -2.507397422493366  11.567400897793650   1.641373991567070 
 -1.254564946856089  13.735973830173752   1.636654245774855 
  6.260347806807804   0.719941111997084   1.634252926527435 
  5.010694346703268   2.882816005363962   1.718625934953975 
  3.756214724733000   5.051725630956065   1.727411288071365 
  2.396204106913275   7.166141378074295   1.624204971392310 
  1.245012656445065   9.400947585858740   1.734371894578920 
 -0.006390512875417  11.572202575117798   1.726711200560880 
  1.246326734498567  13.748027876112010   1.684381632518685 
  8.764434101746073   0.723247310566245   1.614082698516870 
  7.521495576908751   2.879573717247270   1.685097251545800 
  6.286566489440405   5.028985043315059   1.813064585972115 
  5.116136989821477   7.165950872469566   1.622172491018550 
  3.756005914499590   9.521387890926656   1.624204995062340 
  2.490686909997174  11.603758060978780   1.813498982551080 
  3.756147178055705  13.749688085179667   1.700594831626860 
 11.265563782855180   0.726946718844432   1.596776688143280 
 10.017162994676633   2.889240312178783   1.601869337823345 
  8.777972374864934   5.051791392042927   1.711271391064605 
  7.552018571672708   7.220813919258219   1.813064279987130 
  6.267148363864561   9.400792208353401   1.727411327596440 
  5.021760391388749  11.603769298567107   1.807644266592885 
  6.265592443406151  13.747738352210433   1.668057749387340 
 13.771968785127788   0.726800594923989   1.585077251009145 
 12.520009540413009   2.891323649964062   1.555281255614340 
 11.270406454739284   5.059868891664398   1.601869248723420 
 10.030931576321667   7.226040204175052   1.685096943880755 
  8.772720516033212   9.398835944233470   1.718626165249020 
  7.518014097912793  11.571996999252919   1.712318397236745 
  3.755639284283083   7.951435185270070   0.992657898877935 
  7.516640487068853  14.461798622233758   1.622039140016295 
 15.023465042261780   1.445953873082982   1.582148478574785 
 13.769760436831382   3.613136544799023   1.574305026653730 
 12.519840310370647   5.782147582545477   1.600869864042450 
 11.274702672828925   7.952744288524158   1.640978022169350 
 10.022834327228253  10.119737783328796   1.661108507430345 
  8.768991100186824  12.291465775716448   1.653597440933370 
 -7.509634310348334  14.455444613925790   1.607213071498365 
 -0.001999759526207   1.439131867051993   1.622039132921280 
 -1.258723707119464   3.607573558690465   1.650242230853925 
 -2.513394046854028   5.779986228018740   1.660237103035110 
 -3.762994480404935   7.952809431018261   1.641284229307185 
 -5.006475211220492  10.119737783328796   1.620063420730650 
 -6.258540389645336  12.289521145453849   1.605773566064700 
 -5.008342490347768  14.454927833369478   1.605773543174745 
  2.503738744079491   1.439730727048671   1.653597379073400 
  1.239861890858807   3.592073042798694   1.737509467098675 
 -0.020301889901171   5.770739830829545   1.779779795140920 
 -1.277396087289464   7.951934492567097   1.749850656252660 
 -2.507802540344647  10.119737783328796   1.667860978774770 
 -3.758000986514288  12.289437812817670   1.611087189917685 
 -2.503252713203873  14.455498666782958   1.620063456940605 
  5.011401915042171   1.439735049327749   1.661108441775345 
  3.756166333441821   3.604584622687755   1.727558310910620 
  2.469654778677697   5.741296170100417   1.735547094964170 
  1.199162714884527   7.941736918863404   1.739960874025200 
 -0.008608111190767  10.124724910268259   1.737510527588670 
 -1.253915545271772  12.291583216140276   1.667861031769815 
 -0.004866517199657  14.462074771712000   1.641284308972215 
  7.514037303849825   1.439083263451985   1.640978152564350 
  6.272240939917424   3.592093147959509   1.747212638528595 
  5.042960863569570   5.741426192469662   1.736586649503555 
  2.485800435260960  10.170261034892363   1.739960881735290 
  1.238689965380936  12.309922500025300   1.749850742307660 
  2.501653787963294  14.466302224069791   1.660237134640125 
 10.016397950705477   1.446058735892254   1.600869880332465 
  8.771481939355244   3.607362390995839   1.665993486306330 
  7.532669419825784   5.770766615817355   1.785178645122135 
  6.313222384622112   7.941586668102365   1.736586570633630 
  5.026682860305690  10.170200978359752   1.735547090659125 
  3.756206809895670  12.311845570819001   1.779779729920875 
  5.010353236544660  14.465932704103681   1.650242264243865 
 12.519777213348933   1.448101509396467   1.574305062698700 
 11.270202499451475   3.612900592422887   1.582395115358490 
 10.025640056473073   5.779625937928815   1.665993360201330 
  8.789242514996866   7.951665652736795   1.747212519068640 
  7.520385659943753  10.124404408062107   1.727558440330620 
  6.273068689755498  12.309844317482964   1.737509504208630 
