B Si N                                  
   1.0000000000000000     
     8.7639499999999995  -15.1796066749929999    0.0000000000000000
     8.7639499999999995   15.1796066749929999    0.0000000000000000
     0.0000000000000000    0.0000000000000000   15.0000000000000000
   B    Si   N 
    48     1    49
Selective dynamics
Direct
  0.9051947931344647  0.9527123417537589  0.1081359426677528   T   T   T
  0.9047454001975255  0.0952563464944745  0.1054765652383186   T   T   T
  0.9046038483554852  0.2380257026521825  0.1049536684435816   T   T   T
  0.9047384326500899  0.3809155076508637  0.1067246576028305   T   T   T
  0.9051980972395238  0.5239097730790002  0.1093985348112902   T   T   T
  0.9051550762248509  0.6668653926999202  0.1107405671620230   T   T   T
  0.9051553337554273  0.8097354588222196  0.1102398293955576   T   T   T
  0.0477079700795403  0.9522937532854269  0.1071475380998914   T   T   T
  0.0472893735881434  0.0948069273377692  0.1081359421947516   T   T   T
  0.0470170333075719  0.2376592250333842  0.1100161487235955   T   T   T
  0.0469926550131401  0.3807731222404241  0.1106824735356738   T   T   T
  0.0472710470396971  0.5239140645270920  0.1094189486204792   T   T   T
  0.0477044096618895  0.6668454949451621  0.1080042280487095   T   T   T
  0.0477420542046568  0.8096073507424628  0.1070515710709804   T   T   T
  0.1903943989505001  0.9522597088884032  0.1070515695449833   T   T   T
  0.1902662422139348  0.0948463789526564  0.1102398252715605   T   T   T
  0.1890555188623509  0.2366380842210004  0.1158339644732455   T   T   T
  0.1889237332967151  0.3801639893829550  0.1186519863427275   T   T   T
  0.1890503387497822  0.5238564254544934  0.1166567104168441   T   T   T
  0.1902584332971153  0.6668649509687683  0.1111907319183179   T   T   T
  0.1903998335741852  0.8096018609667420  0.1074058126611787   T   T   T
  0.3331562407599357  0.9522973141719722  0.1080042304627074   T   T   T
  0.3331363212769584  0.0948466636951509  0.1107405627850229   T   T   T
  0.3330275866285972  0.2374623203265162  0.1151705540607081   T   T   T
  0.3300106497630915  0.3782243040301298  0.1157031396642776   T   T   T
  0.3300068269914485  0.5231846311239793  0.1159973916016798   T   T   T
  0.3330064948581055  0.6669952079158731  0.1158340351725779   T   T   T
  0.3331367023511803  0.8097431955459932  0.1111907354513212   T   T   T
  0.4760876228919941  0.9527305338903636  0.1094189539314806   T   T   T
  0.4760919684269187  0.0948037254366230  0.1093985435042903   T   T   T
  0.4761629679451671  0.2366394087059651  0.1164808425685730   T   T   T
  0.4768269342775970  0.3782328696255393  0.1157724433002372   T   T   T
  0.4768171533089954  0.6699950303486324  0.1159973921156864   T   T   T
  0.4761452903356265  0.8109513483181752  0.1166567161538443   T   T   T
  0.6192286167315147  0.9530090294040026  0.1106824756426746   T   T   T
  0.6190861626970141  0.0952632546319186  0.1067246586888311   T   T   T
  0.6192523683305636  0.2376453137576079  0.1110662324204218   T   T   T
  0.6198359802884806  0.3801657539206262  0.1190119096748093   T   T   T
  0.6217686993446874  0.5231747329254115  0.1157724380422423   T   T   T
  0.6217773454249635  0.6699910739527984  0.1157031393772751   T   T   T
  0.6198377537770648  0.8110780361062628  0.1186519819947246   T   T   T
  0.7623425154946006  0.9529846862194911  0.1100161509495909   T   T   T
  0.7619759931088744  0.0953978281783847  0.1049536708465803   T   T   T
  0.7619915465653208  0.2380101586146337  0.1054930076905658   T   T   T
  0.7623565086263426  0.3807493871004012  0.1110662240134223   T   T   T
  0.7633623434701458  0.5238387148618502  0.1164808346045755   T   T   T
  0.7625393384445954  0.6669740939164783  0.1151705626887077   T   T   T
  0.7633635872030654  0.8109461978196139  0.1158339669472416   T   T   T
  0.4761781233885729  0.5238235321583942  0.0661771932585292   T   T   T
  0.9525669392773433  0.9048855699067859  0.1079917135286218   T   T   T
  0.9523614542463569  0.0476402630636494  0.1061293728832833   T   T   T
  0.9521216413949475  0.1903447039421307  0.1056718070469432   T   T   T
  0.9521119602398211  0.3332050131277088  0.1064517806775478   T   T   T
  0.9523556768506822  0.4761510469699822  0.1076055127894518   T   T   T
  0.9525735712965185  0.6191228996251285  0.1089501873538290   T   T   T
  0.9525954948092554  0.7620196094885793  0.1087857660467615   T   T   T
  0.0952583823870841  0.9047433700808680  0.1064767288847730   T   T   T
  0.0951161355311383  0.0474347795376422  0.1079917200256185   T   T   T
  0.0943301356208650  0.1897019685763804  0.1112038495831510   T   T   T
  0.0942017238249551  0.3328064451736976  0.1133729909881237   T   T   T
  0.0943109428880038  0.4760510975484165  0.1122920950565794   T   T   T
  0.0951050679030692  0.6191287061969968  0.1091102789016540   T   T   T
  0.0952538157350872  0.7619636865221837  0.1068985836991021   T   T   T
  0.2380380256388248  0.9047478950229404  0.1068985845911032   T   T   T
  0.2379821198884322  0.0474062741546782  0.1087857586237642   T   T   T
  0.2376632961311848  0.1899154749015688  0.1141545485197877   T   T   T
  0.2355702707362458  0.3312849508443440  0.1205096249038518   T   T   T
  0.2355711099045700  0.4756879885981155  0.1208999349860734   T   T   T
  0.2376497683293901  0.6191903601157922  0.1151140754163919   T   T   T
  0.2379660198695756  0.7620356143252198  0.1094249327711381   T   T   T
  0.3808729649060176  0.9048965578800089  0.1091102830516570   T   T   T
  0.3808788275617770  0.0474281796235942  0.1089501951018286   T   T   T
  0.3808265076491962  0.1899137485632675  0.1145750623302653   T   T   T
  0.3806976236535806  0.3327968727462652  0.1151607525380906   T   T   T
  0.3727530257814866  0.4720900568444736  0.1082803314261542   T   T   T
  0.3806874911300313  0.6193143068288989  0.1156247929719280   T   T   T
  0.3808113783730842  0.7623519385506730  0.1151140800373923   T   T   T
  0.5239506346794628  0.9056906526280710  0.1122921088345786   T   T   T
  0.5238506113791308  0.0476459849093274  0.1076055132344576   T   T   T
  0.5239656911388640  0.1897001535613612  0.1123398167697196   T   T   T
  0.5243099491638462  0.3312987715024123  0.1208709723981414   T   T   T
  0.5279240898819245  0.4720775067429593  0.1081448327345696   T   T   T
  0.5279116024386764  0.6272486563576205  0.1082803330041559   T   T   T
  0.5243137940149389  0.7644307464234067  0.1208999321700718   T   T   T
  0.6671953454382704  0.9058000236482296  0.1133729887751242   T   T   T
  0.6667966566031551  0.0478896940091336  0.1064517792095523   T   T   T
  0.6668106082112358  0.1903369681467765  0.1067912891882228   T   T   T
  0.6672006056031129  0.3328012049459239  0.1140847594043068   T   T   T
  0.6687028926297300  0.4756917668462220  0.1208709519991416   T   T   T
  0.6672047578975856  0.6193040708913895  0.1151607551730957   T   T   T
  0.6687167156094400  0.7644314867316747  0.1205096177728592   T   T   T
  0.8102997439398499  0.9056715794130811  0.1112038499591560   T   T   T
  0.8096570213348147  0.0478800676779925  0.1056718167339428   T   T   T
  0.8095274407107645  0.1904742139812635  0.1036854170409558   T   T   T
  0.8096647699613769  0.3331910769497599  0.1067912832482276   T   T   T
  0.8103017379935551  0.4760360633111259  0.1123397962587170   T   T   T
  0.8100879728036748  0.6191751963980111  0.1145750776832678   T   T   T
  0.8100861871925877  0.7623383956526731  0.1141545598157829   T   T   T

  0.00000000E+00  0.00000000E+00  0.00000000E+00
  0.00000000E+00  0.00000000E+00  0.00000000E+00
  0.00000000E+00  0.00000000E+00  0.00000000E+00
  0.00000000E+00  0.00000000E+00  0.00000000E+00
  0.00000000E+00  0.00000000E+00  0.00000000E+00
  0.00000000E+00  0.00000000E+00  0.00000000E+00
  0.00000000E+00  0.00000000E+00  0.00000000E+00
  0.00000000E+00  0.00000000E+00  0.00000000E+00
  0.00000000E+00  0.00000000E+00  0.00000000E+00
  0.00000000E+00  0.00000000E+00  0.00000000E+00
  0.00000000E+00  0.00000000E+00  0.00000000E+00
  0.00000000E+00  0.00000000E+00  0.00000000E+00
  0.00000000E+00  0.00000000E+00  0.00000000E+00
  0.00000000E+00  0.00000000E+00  0.00000000E+00
  0.00000000E+00  0.00000000E+00  0.00000000E+00
  0.00000000E+00  0.00000000E+00  0.00000000E+00
  0.00000000E+00  0.00000000E+00  0.00000000E+00
  0.00000000E+00  0.00000000E+00  0.00000000E+00
  0.00000000E+00  0.00000000E+00  0.00000000E+00
  0.00000000E+00  0.00000000E+00  0.00000000E+00
  0.00000000E+00  0.00000000E+00  0.00000000E+00
  0.00000000E+00  0.00000000E+00  0.00000000E+00
  0.00000000E+00  0.00000000E+00  0.00000000E+00
  0.00000000E+00  0.00000000E+00  0.00000000E+00
  0.00000000E+00  0.00000000E+00  0.00000000E+00
  0.00000000E+00  0.00000000E+00  0.00000000E+00
  0.00000000E+00  0.00000000E+00  0.00000000E+00
  0.00000000E+00  0.00000000E+00  0.00000000E+00
  0.00000000E+00  0.00000000E+00  0.00000000E+00
  0.00000000E+00  0.00000000E+00  0.00000000E+00
  0.00000000E+00  0.00000000E+00  0.00000000E+00
  0.00000000E+00  0.00000000E+00  0.00000000E+00
  0.00000000E+00  0.00000000E+00  0.00000000E+00
  0.00000000E+00  0.00000000E+00  0.00000000E+00
  0.00000000E+00  0.00000000E+00  0.00000000E+00
  0.00000000E+00  0.00000000E+00  0.00000000E+00
  0.00000000E+00  0.00000000E+00  0.00000000E+00
  0.00000000E+00  0.00000000E+00  0.00000000E+00
  0.00000000E+00  0.00000000E+00  0.00000000E+00
  0.00000000E+00  0.00000000E+00  0.00000000E+00
  0.00000000E+00  0.00000000E+00  0.00000000E+00
  0.00000000E+00  0.00000000E+00  0.00000000E+00
  0.00000000E+00  0.00000000E+00  0.00000000E+00
  0.00000000E+00  0.00000000E+00  0.00000000E+00
  0.00000000E+00  0.00000000E+00  0.00000000E+00
  0.00000000E+00  0.00000000E+00  0.00000000E+00
  0.00000000E+00  0.00000000E+00  0.00000000E+00
  0.00000000E+00  0.00000000E+00  0.00000000E+00
  0.00000000E+00  0.00000000E+00  0.00000000E+00
  0.00000000E+00  0.00000000E+00  0.00000000E+00
  0.00000000E+00  0.00000000E+00  0.00000000E+00
  0.00000000E+00  0.00000000E+00  0.00000000E+00
  0.00000000E+00  0.00000000E+00  0.00000000E+00
  0.00000000E+00  0.00000000E+00  0.00000000E+00
  0.00000000E+00  0.00000000E+00  0.00000000E+00
  0.00000000E+00  0.00000000E+00  0.00000000E+00
  0.00000000E+00  0.00000000E+00  0.00000000E+00
  0.00000000E+00  0.00000000E+00  0.00000000E+00
  0.00000000E+00  0.00000000E+00  0.00000000E+00
  0.00000000E+00  0.00000000E+00  0.00000000E+00
  0.00000000E+00  0.00000000E+00  0.00000000E+00
  0.00000000E+00  0.00000000E+00  0.00000000E+00
  0.00000000E+00  0.00000000E+00  0.00000000E+00
  0.00000000E+00  0.00000000E+00  0.00000000E+00
  0.00000000E+00  0.00000000E+00  0.00000000E+00
  0.00000000E+00  0.00000000E+00  0.00000000E+00
  0.00000000E+00  0.00000000E+00  0.00000000E+00
  0.00000000E+00  0.00000000E+00  0.00000000E+00
  0.00000000E+00  0.00000000E+00  0.00000000E+00
  0.00000000E+00  0.00000000E+00  0.00000000E+00
  0.00000000E+00  0.00000000E+00  0.00000000E+00
  0.00000000E+00  0.00000000E+00  0.00000000E+00
  0.00000000E+00  0.00000000E+00  0.00000000E+00
  0.00000000E+00  0.00000000E+00  0.00000000E+00
  0.00000000E+00  0.00000000E+00  0.00000000E+00
  0.00000000E+00  0.00000000E+00  0.00000000E+00
  0.00000000E+00  0.00000000E+00  0.00000000E+00
  0.00000000E+00  0.00000000E+00  0.00000000E+00
  0.00000000E+00  0.00000000E+00  0.00000000E+00
  0.00000000E+00  0.00000000E+00  0.00000000E+00
  0.00000000E+00  0.00000000E+00  0.00000000E+00
  0.00000000E+00  0.00000000E+00  0.00000000E+00
  0.00000000E+00  0.00000000E+00  0.00000000E+00
  0.00000000E+00  0.00000000E+00  0.00000000E+00
  0.00000000E+00  0.00000000E+00  0.00000000E+00
  0.00000000E+00  0.00000000E+00  0.00000000E+00
  0.00000000E+00  0.00000000E+00  0.00000000E+00
  0.00000000E+00  0.00000000E+00  0.00000000E+00
  0.00000000E+00  0.00000000E+00  0.00000000E+00
  0.00000000E+00  0.00000000E+00  0.00000000E+00
  0.00000000E+00  0.00000000E+00  0.00000000E+00
  0.00000000E+00  0.00000000E+00  0.00000000E+00
  0.00000000E+00  0.00000000E+00  0.00000000E+00
  0.00000000E+00  0.00000000E+00  0.00000000E+00
  0.00000000E+00  0.00000000E+00  0.00000000E+00
  0.00000000E+00  0.00000000E+00  0.00000000E+00
  0.00000000E+00  0.00000000E+00  0.00000000E+00
  0.00000000E+00  0.00000000E+00  0.00000000E+00
