B C N                                   
   1.0000000000000000     
     8.7639499999999995  -15.1796066749929999    0.0000000000000000
     8.7639499999999995   15.1796066749929999    0.0000000000000000
     0.0000000000000000    0.0000000000000000   15.0000000000000000
   B    C    N 
    46     3    48
Selective dynamics
Direct
  0.9045809222125787  0.9522983077844379  0.1110254240628388   T   T   T
  0.9050575033209328  0.0953859298413578  0.1110342786996314   T   T   T
  0.9050526693554312  0.2382058164684433  0.1110418961606158   T   T   T
  0.9045717976291782  0.3808350771508462  0.1109366761180992   T   T   T
  0.9037490318082290  0.5234125940050847  0.1109678916212203   T   T   T
  0.9037911736859410  0.6661789066210078  0.1110439107163141   T   T   T
  0.9037215741438018  0.8088721989627410  0.1110083357569471   T   T   T
  0.0474308950517114  0.9523986840162357  0.1110302294732709   T   T   T
  0.0481939568896169  0.0957312964997374  0.1110154868845224   T   T   T
  0.0484180371320540  0.2384687355218051  0.1109691574627615   T   T   T
  0.0481832212448446  0.3809981808760046  0.1109446443843168   T   T   T
  0.0474225406498191  0.5235866521676714  0.1109091555749582   T   T   T
  0.0469474617992024  0.6663095278605422  0.1110018641890370   T   T   T
  0.0469618743596923  0.8092050959579121  0.1109464659120191   T   T   T
  0.1900989242366699  0.9521910340376565  0.1109688118962267   T   T   T
  0.1911167981501058  0.0959012742904422  0.1107926792604521   T   T   T
  0.1921049994035482  0.2392494817981795  0.1105229710077119   T   T   T
  0.1920958175798541  0.3814054901951959  0.1114354898598513   T   T   T
  0.1910846112490110  0.5237588430111890  0.1112522367545724   T   T   T
  0.1900805245082099  0.6664710202647701  0.1110446954800347   T   T   T
  0.1900070764647258  0.8092946012202719  0.1109716435507774   T   T   T
  0.3330670117806444  0.9521931857815802  0.1110439977938201   T   T   T
  0.3330565837978728  0.0948660191945651  0.1109341002139935   T   T   T
  0.3351653826604802  0.2390952513705060  0.1088524267198129   T   T   T
  0.3371512300280395  0.3828816246942000  0.1111093829926348   T   T   T
  0.3351170953593087  0.5246394184164386  0.1134134006876709   T   T   T
  0.3330219236703725  0.6667466302197159  0.1112332452042235   T   T   T
  0.3330699265309183  0.8094618837775401  0.1110130510477523   T   T   T
  0.4760383698697667  0.9523153785033974  0.1109782595550925   T   T   T
  0.4759846355564246  0.0953520967729704  0.1110807396764974   T   T   T
  0.4753867504541820  0.2380265912035609  0.1117396981218133   T   T   T
  0.4753522664582268  0.6659586925884020  0.1104451160116295   T   T   T
  0.4759831376218267  0.8092198642257892  0.1109346942577007   T   T   T
  0.6189504141740283  0.9523472036782423  0.1110362891208078   T   T   T
  0.6189413602843075  0.0951717641128292  0.1109171535418959   T   T   T
  0.6186991241018549  0.2378164556583156  0.1113017806526654   T   T   T
  0.6170752495768069  0.3801567856302714  0.1119276893615270   T   T   T
  0.6170759242208189  0.6654807185317512  0.1101076964367317   T   T   T
  0.6187032409249962  0.8094611025460429  0.1106510843952061   T   T   T
  0.7618398798608704  0.9522966478268517  0.1110300781013014   T   T   T
  0.7619888403745627  0.0952723702816153  0.1110416603596470   T   T   T
  0.7618295700692082  0.2380889143262541  0.1109953561939830   T   T   T
  0.7609696174947803  0.3806728667562665  0.1110509976042562   T   T   T
  0.7599244248232313  0.5239662570574435  0.1107463443577019   T   T   T
  0.7598596479807083  0.6644507443308539  0.1113202208199091   T   T   T
  0.7609715402112615  0.8088621394772452  0.1109319550641543   T   T   T
  0.4793696968993665  0.3827580829641021  0.1105111934052818   T   T   T
  0.4793169902900627  0.5253145464936453  0.1120664987891046   T   T   T
  0.5200545395184306  0.4744113686029728  0.1115317916431414   T   T   T
  0.9520341311696461  0.9045625030814964  0.1109668536368398   T   T   T
  0.9527909675342424  0.0478752719561850  0.1110035278074578   T   T   T
  0.9530207476032559  0.1907776025034420  0.1110062338415900   T   T   T
  0.9527791471627686  0.3334536109499017  0.1109745326901661   T   T   T
  0.9520383098523217  0.4760242320718437  0.1109376371405445   T   T   T
  0.9517115569070143  0.6187010935088596  0.1109870137680078   T   T   T
  0.9517132930125554  0.7615738324757582  0.1109913880130155   T   T   T
  0.0949103867897832  0.9046413282871032  0.1109277530916968   T   T   T
  0.0957561610815265  0.0481065734599129  0.1111065251451725   T   T   T
  0.0965991295856144  0.1913527586785289  0.1109065505965946   T   T   T
  0.0965888471142866  0.3337762218503091  0.1109721858556667   T   T   T
  0.0957349972397597  0.4761881451816703  0.1108276116225767   T   T   T
  0.0948956902148716  0.6188253326295912  0.1109935242782331   T   T   T
  0.0947615486240945  0.7616638441479358  0.1109419877906434   T   T   T
  0.2377917032333010  0.9046219606357672  0.1109499349066434   T   T   T
  0.2379790584123521  0.0476222369604380  0.1109534662297218   T   T   T
  0.2397671469083298  0.1918873750021021  0.1099750073656211   T   T   T
  0.2413653445796387  0.3349679093240547  0.1109600688593269   T   T   T
  0.2397333860725653  0.4764284311909848  0.1120683623909295   T   T   T
  0.2379441043940320  0.6189063964063585  0.1111160983873706   T   T   T
  0.2377836915402380  0.7617417065840917  0.1110191044601516   T   T   T
  0.3807504502611226  0.9046699452227522  0.1109967486838059   T   T   T
  0.3807299983015244  0.0474600658411140  0.1111193733492238   T   T   T
  0.3807065047964279  0.1900554463177642  0.1104739247652642   T   T   T
  0.3852022014975839  0.3353372043333031  0.1071001528902169   T   T   T
  0.3851695122964232  0.4784841793375683  0.1152876879034206   T   T   T
  0.3806707525659917  0.6192201801175506  0.1117352961705588   T   T   T
  0.3807161903961957  0.7618431107033017  0.1109526801706393   T   T   T
  0.5236136822393523  0.9045442135924997  0.1110470909981674   T   T   T
  0.5236108747587734  0.0476574667282455  0.1108584251714580   T   T   T
  0.5234098722522291  0.1908027652568321  0.1114338313481453   T   T   T
  0.5215806412153833  0.3333207965968860  0.1131111465630223   T   T   T
  0.5215682565432487  0.6169132601237957  0.1091269504194675   T   T   T
  0.5234047737996642  0.7612022881445004  0.1105410350019695   T   T   T
  0.6664800728199682  0.9047339309841764  0.1109913824607157   T   T   T
  0.6666126492716029  0.0475923611831683  0.1109883254084838   T   T   T
  0.6664709240508331  0.1903113134509696  0.1109436855216965   T   T   T
  0.6655196240889583  0.3325079245559679  0.1114867850066612   T   T   T
  0.6663324580953108  0.4719007184337924  0.1099631335342441   T   T   T
  0.6662297777607767  0.6228746822828831  0.1118828718407345   T   T   T
  0.6655243724647937  0.7615812351123499  0.1104473500788787   T   T   T
  0.8092107245752875  0.9045362364538940  0.1110392208335454   T   T   T
  0.8096972403651447  0.0477001107935074  0.1110274464971656   T   T   T
  0.8096921674559135  0.1905478830201161  0.1110371277026587   T   T   T
  0.8092004892493446  0.3332267034305787  0.1109173095210936   T   T   T
  0.8082783369403662  0.4756983311901678  0.1109134947567959   T   T   T
  0.8087150966714792  0.6186324043592812  0.1110586893456671   T   T   T
  0.8082418333175739  0.7610973326507934  0.1110597214472278   T   T   T

  0.00000000E+00  0.00000000E+00  0.00000000E+00
  0.00000000E+00  0.00000000E+00  0.00000000E+00
  0.00000000E+00  0.00000000E+00  0.00000000E+00
  0.00000000E+00  0.00000000E+00  0.00000000E+00
  0.00000000E+00  0.00000000E+00  0.00000000E+00
  0.00000000E+00  0.00000000E+00  0.00000000E+00
  0.00000000E+00  0.00000000E+00  0.00000000E+00
  0.00000000E+00  0.00000000E+00  0.00000000E+00
  0.00000000E+00  0.00000000E+00  0.00000000E+00
  0.00000000E+00  0.00000000E+00  0.00000000E+00
  0.00000000E+00  0.00000000E+00  0.00000000E+00
  0.00000000E+00  0.00000000E+00  0.00000000E+00
  0.00000000E+00  0.00000000E+00  0.00000000E+00
  0.00000000E+00  0.00000000E+00  0.00000000E+00
  0.00000000E+00  0.00000000E+00  0.00000000E+00
  0.00000000E+00  0.00000000E+00  0.00000000E+00
  0.00000000E+00  0.00000000E+00  0.00000000E+00
  0.00000000E+00  0.00000000E+00  0.00000000E+00
  0.00000000E+00  0.00000000E+00  0.00000000E+00
  0.00000000E+00  0.00000000E+00  0.00000000E+00
  0.00000000E+00  0.00000000E+00  0.00000000E+00
  0.00000000E+00  0.00000000E+00  0.00000000E+00
  0.00000000E+00  0.00000000E+00  0.00000000E+00
  0.00000000E+00  0.00000000E+00  0.00000000E+00
  0.00000000E+00  0.00000000E+00  0.00000000E+00
  0.00000000E+00  0.00000000E+00  0.00000000E+00
  0.00000000E+00  0.00000000E+00  0.00000000E+00
  0.00000000E+00  0.00000000E+00  0.00000000E+00
  0.00000000E+00  0.00000000E+00  0.00000000E+00
  0.00000000E+00  0.00000000E+00  0.00000000E+00
  0.00000000E+00  0.00000000E+00  0.00000000E+00
  0.00000000E+00  0.00000000E+00  0.00000000E+00
  0.00000000E+00  0.00000000E+00  0.00000000E+00
  0.00000000E+00  0.00000000E+00  0.00000000E+00
  0.00000000E+00  0.00000000E+00  0.00000000E+00
  0.00000000E+00  0.00000000E+00  0.00000000E+00
  0.00000000E+00  0.00000000E+00  0.00000000E+00
  0.00000000E+00  0.00000000E+00  0.00000000E+00
  0.00000000E+00  0.00000000E+00  0.00000000E+00
  0.00000000E+00  0.00000000E+00  0.00000000E+00
  0.00000000E+00  0.00000000E+00  0.00000000E+00
  0.00000000E+00  0.00000000E+00  0.00000000E+00
  0.00000000E+00  0.00000000E+00  0.00000000E+00
  0.00000000E+00  0.00000000E+00  0.00000000E+00
  0.00000000E+00  0.00000000E+00  0.00000000E+00
  0.00000000E+00  0.00000000E+00  0.00000000E+00
  0.00000000E+00  0.00000000E+00  0.00000000E+00
  0.00000000E+00  0.00000000E+00  0.00000000E+00
  0.00000000E+00  0.00000000E+00  0.00000000E+00
  0.00000000E+00  0.00000000E+00  0.00000000E+00
  0.00000000E+00  0.00000000E+00  0.00000000E+00
  0.00000000E+00  0.00000000E+00  0.00000000E+00
  0.00000000E+00  0.00000000E+00  0.00000000E+00
  0.00000000E+00  0.00000000E+00  0.00000000E+00
  0.00000000E+00  0.00000000E+00  0.00000000E+00
  0.00000000E+00  0.00000000E+00  0.00000000E+00
  0.00000000E+00  0.00000000E+00  0.00000000E+00
  0.00000000E+00  0.00000000E+00  0.00000000E+00
  0.00000000E+00  0.00000000E+00  0.00000000E+00
  0.00000000E+00  0.00000000E+00  0.00000000E+00
  0.00000000E+00  0.00000000E+00  0.00000000E+00
  0.00000000E+00  0.00000000E+00  0.00000000E+00
  0.00000000E+00  0.00000000E+00  0.00000000E+00
  0.00000000E+00  0.00000000E+00  0.00000000E+00
  0.00000000E+00  0.00000000E+00  0.00000000E+00
  0.00000000E+00  0.00000000E+00  0.00000000E+00
  0.00000000E+00  0.00000000E+00  0.00000000E+00
  0.00000000E+00  0.00000000E+00  0.00000000E+00
  0.00000000E+00  0.00000000E+00  0.00000000E+00
  0.00000000E+00  0.00000000E+00  0.00000000E+00
  0.00000000E+00  0.00000000E+00  0.00000000E+00
  0.00000000E+00  0.00000000E+00  0.00000000E+00
  0.00000000E+00  0.00000000E+00  0.00000000E+00
  0.00000000E+00  0.00000000E+00  0.00000000E+00
  0.00000000E+00  0.00000000E+00  0.00000000E+00
  0.00000000E+00  0.00000000E+00  0.00000000E+00
  0.00000000E+00  0.00000000E+00  0.00000000E+00
  0.00000000E+00  0.00000000E+00  0.00000000E+00
  0.00000000E+00  0.00000000E+00  0.00000000E+00
  0.00000000E+00  0.00000000E+00  0.00000000E+00
  0.00000000E+00  0.00000000E+00  0.00000000E+00
  0.00000000E+00  0.00000000E+00  0.00000000E+00
  0.00000000E+00  0.00000000E+00  0.00000000E+00
  0.00000000E+00  0.00000000E+00  0.00000000E+00
  0.00000000E+00  0.00000000E+00  0.00000000E+00
  0.00000000E+00  0.00000000E+00  0.00000000E+00
  0.00000000E+00  0.00000000E+00  0.00000000E+00
  0.00000000E+00  0.00000000E+00  0.00000000E+00
  0.00000000E+00  0.00000000E+00  0.00000000E+00
  0.00000000E+00  0.00000000E+00  0.00000000E+00
  0.00000000E+00  0.00000000E+00  0.00000000E+00
  0.00000000E+00  0.00000000E+00  0.00000000E+00
  0.00000000E+00  0.00000000E+00  0.00000000E+00
  0.00000000E+00  0.00000000E+00  0.00000000E+00
  0.00000000E+00  0.00000000E+00  0.00000000E+00
  0.00000000E+00  0.00000000E+00  0.00000000E+00
  0.00000000E+00  0.00000000E+00  0.00000000E+00
