O B N                                   
   1.0000000000000000     
     8.7639499999999995  -15.1796066749929999    0.0000000000000000
     8.7639499999999995   15.1796066749929999    0.0000000000000000
     0.0000000000000000    0.0000000000000000   15.0000000000000000
   O    B    N 
     1    48    48
Selective dynamics
Direct
  0.3700332700370029  0.4683893998599508  0.1090621058804130   T   T   T
  0.9093129852568772  0.9552398016505860  0.1105240145532308   T   T   T
  0.9061975562802015  0.0962367642941675  0.1106851557815024   T   T   T
  0.9048072035562484  0.2386832184205536  0.1109304272662416   T   T   T
  0.9043062240567468  0.3816781726470433  0.1108687333994508   T   T   T
  0.9046732396641719  0.5247723356015389  0.1106413023785448   T   T   T
  0.9093087911394367  0.6685156081689485  0.1104376868385210   T   T   T
  0.9118446557120923  0.8136914847188459  0.1104500692747655   T   T   T
  0.0519473611659367  0.9540457362829335  0.1108041316668184   T   T   T
  0.0496017361994980  0.0958119182550796  0.1110402208170977   T   T   T
  0.0475055796779116  0.2377312671846357  0.1110815981061528   T   T   T
  0.0470245679221637  0.3806625178517461  0.1109836223785307   T   T   T
  0.0479149448615833  0.5237201209642450  0.1107467165138610   T   T   T
  0.0507632704749001  0.6668659634014970  0.1105971909377590   T   T   T
  0.0519779951095208  0.8104750442903298  0.1106400025478377   T   T   T
  0.1937078769366633  0.9522439925653071  0.1111436404473983   T   T   T
  0.1925167792879716  0.0950214915959586  0.1114200195466519   T   T   T
  0.1900098465947669  0.2365158593406935  0.1108532189545286   T   T   T
  0.1887976674522915  0.3789367872636891  0.1107103893008373   T   T   T
  0.1902754012147589  0.5225009350613429  0.1109873470085999   T   T   T
  0.1935919052627775  0.6655793701559510  0.1107732068424001   T   T   T
  0.1940115520287679  0.8089089053396178  0.1107805790610516   T   T   T
  0.3361057789227321  0.9511836274215556  0.1112835657614748   T   T   T
  0.3350666033610037  0.0945590481373130  0.1115451689258201   T   T   T
  0.3332325538165582  0.2371963096115802  0.1106763753710842   T   T   T
  0.3303309712801722  0.3789651695050272  0.1081514260906253   T   T   T
  0.3308097618245540  0.5182051123808900  0.1105777949097912   T   T   T
  0.3372740803502164  0.6631449882537089  0.1112549196831534   T   T   T
  0.3367255984528055  0.8072646961890991  0.1109666719442298   T   T   T
  0.4785831445792544  0.9502854391415808  0.1111326264713221   T   T   T
  0.4777729872198118  0.0943526696313342  0.1116655098694910   T   T   T
  0.4763624597007553  0.2371206271718522  0.1118322718788742   T   T   T
  0.4724672598478308  0.3756723931921382  0.0951794291388280   T   T   T
  0.4811247334405522  0.6574888972366111  0.1125454509493982   T   T   T
  0.4796003116361470  0.8051430241748880  0.1113608051483488   T   T   T
  0.6210655142582083  0.9523340910515241  0.1109266059354546   T   T   T
  0.6202019447635934  0.0957296077897882  0.1111611612796086   T   T   T
  0.6194019467657449  0.2398529124245105  0.1113658717031682   T   T   T
  0.6174707402439416  0.3844098725252950  0.1098044993567754   T   T   T
  0.6216975688887849  0.5391410390096316  0.1108192005034391   T   T   T
  0.6330688614268858  0.6762044328172819  0.1122553804600185   T   T   T
  0.6229691479294861  0.8103957941109005  0.1113277022080118   T   T   T
  0.7647279709876056  0.9540984794607141  0.1106907472024518   T   T   T
  0.7629125246337890  0.0961525066325346  0.1107717077624135   T   T   T
  0.7620199730848919  0.2393145533726557  0.1110729074373083   T   T   T
  0.7612085514567092  0.3828651873081571  0.1109357684158672   T   T   T
  0.7605084435609143  0.5266597944989209  0.1104500873494472   T   T   T
  0.7729352012578017  0.6742479328085347  0.1105928517798978   T   T   T
  0.7697459904357922  0.8149712827047645  0.1106336902542780   T   T   T
  0.9575864285381106  0.9080451999209975  0.1104454203449978   T   T   T
  0.9549472201261271  0.0495248140614341  0.1106167050255876   T   T   T
  0.9526216231554612  0.1910376294925460  0.1108984811702106   T   T   T
  0.9519063444345597  0.3337897541073760  0.1109113036020188   T   T   T
  0.9522775497980791  0.4768503720759976  0.1107022846693587   T   T   T
  0.9554145757820299  0.6199514892888245  0.1105482407210944   T   T   T
  0.9572679161294980  0.7638778293690799  0.1104807548546873   T   T   T
  0.0989410203724783  0.9055352862044410  0.1108348684645474   T   T   T
  0.0978932661754847  0.0485821887702030  0.1111257699901147   T   T   T
  0.0954662791455251  0.1902493028690216  0.1112276914201731   T   T   T
  0.0941570945762352  0.3325304070049673  0.1110558891674859   T   T   T
  0.0950724091806884  0.4757710359987231  0.1109087786827813   T   T   T
  0.0979079404327104  0.6188455531834001  0.1106355098834424   T   T   T
  0.0989027446754753  0.7620604142614811  0.1105973946882655   T   T   T
  0.2411345689391236  0.9040879057997496  0.1110643834432512   T   T   T
  0.2402357559649581  0.0472471128274869  0.1114212386032695   T   T   T
  0.2385071880922426  0.1896780046635378  0.1114011281536032   T   T   T
  0.2358273101914720  0.3308380391882751  0.1101446569236978   T   T   T
  0.2362501994375471  0.4739523798053821  0.1107885486640321   T   T   T
  0.2411915443425616  0.6175358512439070  0.1110020926105954   T   T   T
  0.2414822464332010  0.7607254253308084  0.1107138199652558   T   T   T
  0.3835609670884816  0.9027846372391918  0.1110863656147460   T   T   T
  0.3827826749448304  0.0466068829280255  0.1115976806645263   T   T   T
  0.3813875252355133  0.1897348780066818  0.1113602091399039   T   T   T
  0.3793305961044477  0.3324509876296734  0.1065761153182725   T   T   T
  0.3848614721562795  0.6136090859959323  0.1115744490905455   T   T   T
  0.3843668803607705  0.7586047523733782  0.1111872299687101   T   T   T
  0.5259799580274993  0.9017202419986862  0.1110381371131643   T   T   T
  0.5252115800828598  0.0462424246878693  0.1112849080705115   T   T   T
  0.5244066509745101  0.1899505217108846  0.1119906097425251   T   T   T
  0.5224051920166470  0.3323728366347591  0.1091155448172223   T   T   T
  0.5299333533950424  0.5310609263143479  0.1126451921181213   T   T   T
  0.5395486942859014  0.6161238353108549  0.1141125198761427   T   T   T
  0.5273896396007333  0.7558829045586019  0.1118318232746459   T   T   T
  0.6692669861654313  0.9055268727096820  0.1109252891977760   T   T   T
  0.6677934818343296  0.0478903680552514  0.1108380553600919   T   T   T
  0.6669433139594623  0.1915716109820409  0.1112445995254255   T   T   T
  0.6658540388518072  0.3361558186612947  0.1109795777335481   T   T   T
  0.6625743964385563  0.4814426248665793  0.1103428380156744   T   T   T
  0.6808144594777396  0.6308103451941721  0.1111907190855851   T   T   T
  0.6751890827470636  0.7684999641237856  0.1110330124139912   T   T   T
  0.8146981705588028  0.9088302396705613  0.1106085856493966   T   T   T
  0.8110984276124237  0.0489583099823068  0.1105600698821891   T   T   T
  0.8097034525927788  0.1914127622368131  0.1109029601456146   T   T   T
  0.8089701703716813  0.3347429776383860  0.1109864703984387   T   T   T
  0.8084621649286349  0.4782287878819978  0.1106480462243620   T   T   T
  0.8145271630725147  0.6220145431507904  0.1103224857551572   T   T   T
  0.8180782290837875  0.7682696796223599  0.1104980976704691   T   T   T

  0.00000000E+00  0.00000000E+00  0.00000000E+00
  0.00000000E+00  0.00000000E+00  0.00000000E+00
  0.00000000E+00  0.00000000E+00  0.00000000E+00
  0.00000000E+00  0.00000000E+00  0.00000000E+00
  0.00000000E+00  0.00000000E+00  0.00000000E+00
  0.00000000E+00  0.00000000E+00  0.00000000E+00
  0.00000000E+00  0.00000000E+00  0.00000000E+00
  0.00000000E+00  0.00000000E+00  0.00000000E+00
  0.00000000E+00  0.00000000E+00  0.00000000E+00
  0.00000000E+00  0.00000000E+00  0.00000000E+00
  0.00000000E+00  0.00000000E+00  0.00000000E+00
  0.00000000E+00  0.00000000E+00  0.00000000E+00
  0.00000000E+00  0.00000000E+00  0.00000000E+00
  0.00000000E+00  0.00000000E+00  0.00000000E+00
  0.00000000E+00  0.00000000E+00  0.00000000E+00
  0.00000000E+00  0.00000000E+00  0.00000000E+00
  0.00000000E+00  0.00000000E+00  0.00000000E+00
  0.00000000E+00  0.00000000E+00  0.00000000E+00
  0.00000000E+00  0.00000000E+00  0.00000000E+00
  0.00000000E+00  0.00000000E+00  0.00000000E+00
  0.00000000E+00  0.00000000E+00  0.00000000E+00
  0.00000000E+00  0.00000000E+00  0.00000000E+00
  0.00000000E+00  0.00000000E+00  0.00000000E+00
  0.00000000E+00  0.00000000E+00  0.00000000E+00
  0.00000000E+00  0.00000000E+00  0.00000000E+00
  0.00000000E+00  0.00000000E+00  0.00000000E+00
  0.00000000E+00  0.00000000E+00  0.00000000E+00
  0.00000000E+00  0.00000000E+00  0.00000000E+00
  0.00000000E+00  0.00000000E+00  0.00000000E+00
  0.00000000E+00  0.00000000E+00  0.00000000E+00
  0.00000000E+00  0.00000000E+00  0.00000000E+00
  0.00000000E+00  0.00000000E+00  0.00000000E+00
  0.00000000E+00  0.00000000E+00  0.00000000E+00
  0.00000000E+00  0.00000000E+00  0.00000000E+00
  0.00000000E+00  0.00000000E+00  0.00000000E+00
  0.00000000E+00  0.00000000E+00  0.00000000E+00
  0.00000000E+00  0.00000000E+00  0.00000000E+00
  0.00000000E+00  0.00000000E+00  0.00000000E+00
  0.00000000E+00  0.00000000E+00  0.00000000E+00
  0.00000000E+00  0.00000000E+00  0.00000000E+00
  0.00000000E+00  0.00000000E+00  0.00000000E+00
  0.00000000E+00  0.00000000E+00  0.00000000E+00
  0.00000000E+00  0.00000000E+00  0.00000000E+00
  0.00000000E+00  0.00000000E+00  0.00000000E+00
  0.00000000E+00  0.00000000E+00  0.00000000E+00
  0.00000000E+00  0.00000000E+00  0.00000000E+00
  0.00000000E+00  0.00000000E+00  0.00000000E+00
  0.00000000E+00  0.00000000E+00  0.00000000E+00
  0.00000000E+00  0.00000000E+00  0.00000000E+00
  0.00000000E+00  0.00000000E+00  0.00000000E+00
  0.00000000E+00  0.00000000E+00  0.00000000E+00
  0.00000000E+00  0.00000000E+00  0.00000000E+00
  0.00000000E+00  0.00000000E+00  0.00000000E+00
  0.00000000E+00  0.00000000E+00  0.00000000E+00
  0.00000000E+00  0.00000000E+00  0.00000000E+00
  0.00000000E+00  0.00000000E+00  0.00000000E+00
  0.00000000E+00  0.00000000E+00  0.00000000E+00
  0.00000000E+00  0.00000000E+00  0.00000000E+00
  0.00000000E+00  0.00000000E+00  0.00000000E+00
  0.00000000E+00  0.00000000E+00  0.00000000E+00
  0.00000000E+00  0.00000000E+00  0.00000000E+00
  0.00000000E+00  0.00000000E+00  0.00000000E+00
  0.00000000E+00  0.00000000E+00  0.00000000E+00
  0.00000000E+00  0.00000000E+00  0.00000000E+00
  0.00000000E+00  0.00000000E+00  0.00000000E+00
  0.00000000E+00  0.00000000E+00  0.00000000E+00
  0.00000000E+00  0.00000000E+00  0.00000000E+00
  0.00000000E+00  0.00000000E+00  0.00000000E+00
  0.00000000E+00  0.00000000E+00  0.00000000E+00
  0.00000000E+00  0.00000000E+00  0.00000000E+00
  0.00000000E+00  0.00000000E+00  0.00000000E+00
  0.00000000E+00  0.00000000E+00  0.00000000E+00
  0.00000000E+00  0.00000000E+00  0.00000000E+00
  0.00000000E+00  0.00000000E+00  0.00000000E+00
  0.00000000E+00  0.00000000E+00  0.00000000E+00
  0.00000000E+00  0.00000000E+00  0.00000000E+00
  0.00000000E+00  0.00000000E+00  0.00000000E+00
  0.00000000E+00  0.00000000E+00  0.00000000E+00
  0.00000000E+00  0.00000000E+00  0.00000000E+00
  0.00000000E+00  0.00000000E+00  0.00000000E+00
  0.00000000E+00  0.00000000E+00  0.00000000E+00
  0.00000000E+00  0.00000000E+00  0.00000000E+00
  0.00000000E+00  0.00000000E+00  0.00000000E+00
  0.00000000E+00  0.00000000E+00  0.00000000E+00
  0.00000000E+00  0.00000000E+00  0.00000000E+00
  0.00000000E+00  0.00000000E+00  0.00000000E+00
  0.00000000E+00  0.00000000E+00  0.00000000E+00
  0.00000000E+00  0.00000000E+00  0.00000000E+00
  0.00000000E+00  0.00000000E+00  0.00000000E+00
  0.00000000E+00  0.00000000E+00  0.00000000E+00
  0.00000000E+00  0.00000000E+00  0.00000000E+00
  0.00000000E+00  0.00000000E+00  0.00000000E+00
  0.00000000E+00  0.00000000E+00  0.00000000E+00
  0.00000000E+00  0.00000000E+00  0.00000000E+00
  0.00000000E+00  0.00000000E+00  0.00000000E+00
  0.00000000E+00  0.00000000E+00  0.00000000E+00
  0.00000000E+00  0.00000000E+00  0.00000000E+00
