 In N B 
 1.0
 17.527899999999772   0.000000000000000   0.000000000000000
 -8.763949999999658  15.179606674993195   0.000000000000000
  0.000000000000001   0.000000000000002  15.000000000000000
 In N B 
   1  48  48
Cartesian
  3.214363335126690   7.638539399339831   1.669462707726720 
  8.757340498911027  13.724186165245341   1.665020110734930 
 16.283744054718994   0.724796687920231   1.664525037526020 
 15.049474695159549   2.908390878241800   1.665658616849460 
 13.799470232339063   5.073462117534799   1.665658616849460 
 12.525556871744259   7.234167833186850   1.664525037526020 
 11.256191614892007   9.396049071815947   1.665020110734930 
 10.001821373764955  11.557262804390854   1.665625132751220 
 -6.269622070561617  13.719349743653591   1.664586203729250 
  1.251317842715430   0.699927750443751   1.664417960020455 
  0.009437113444855   2.873773633637155   1.664143359178185 
 -1.217381812397710   5.079852824756593   1.664750618981805 
 -2.514492971746012   7.245348775939533   1.664143359178185 
 -3.776158365877140   9.407771977570130   1.664417960020455 
 -5.025443133797329  11.564368611470744   1.664586203729250 
 -3.764730458127219  13.728895502261402   1.664792938980915 
  3.761050254392596   0.691858091436502   1.665337985224545 
  2.518442812027495   2.839551248120589   1.664616618930825 
  1.273535884373967   5.013743326005553   1.664659548152310 
 -0.029175469361553   7.270105578272385   1.664659548152310 
 -1.289627577698829   9.435322641925428   1.664616618930825 
 -2.528280689738628  11.585298832287293   1.665337985224545 
 -1.261173110174809  13.760039593753563   1.665190088931510 
  6.277984790249715   0.701835063933533   1.665190088931510 
  5.055194210487055   2.817411573539148   1.665107363574135 
  3.838100104189803   4.918523710103888   1.664724446455440 
  1.170644034228118   9.538693150235687   1.664724446455440 
 -0.040425399088118  11.643283633367938   1.665107363574135 
  1.245426164625456  13.791901896959393   1.664521235507400 
  8.783397475528863   0.734050334930573   1.664305087782525 
  7.558877991649211   2.856682561415316   1.664521235507400 
  6.345890561597155   4.969600869779623   1.665024326241195 
  5.156719609617452   7.070163095021442   1.665003846773490 
  3.693328154063752   9.604831447402711   1.665003846773490 
  2.468773380764159  11.684964813880818   1.665024326241195 
  3.764490598245931  13.782418809874157   1.664658041762100 
 11.288389415992997   0.750343664693167   1.664600443344600 
 10.050003883247667   2.895290326766404   1.664600443344600 
  8.810197614137182   5.042997898243462   1.664658041762100 
  7.557854040572392   7.203432190746224   1.665595230367905 
  6.232389196932929   9.380980122414897   1.666219435989870 
  5.009309791978169  11.617640314649019   1.665595230367905 
  6.265745869574798  13.754495399024403   1.665148279708080 
 13.791155617011400   0.748131216097567   1.665065459374830 
 12.548912071683834   2.908071200647910   1.665715760564865 
 11.299470947077326   5.063855660864022   1.665065459374830 
 10.036642866654358   7.223110209973473   1.665148279708080 
  8.752606541420642   9.388681400499308   1.666650582841605 
  7.499167371648117  11.559701726742350   1.666650582841605 
  7.515769159786910  14.460573539749801   1.665154771716030 
 15.042747058736687   1.461280165586671   1.665702272706420 
 13.798071980892232   3.629291331160193   1.666733822998140 
 12.542856774739533   5.791217150817680   1.665702272706420 
 11.273121118536462   7.952649045276909   1.665154771716030 
  9.998607441080393  10.112818488599794   1.666201136047485 
  8.749273935455317  12.276727595940637   1.666201136047485 
 -7.519370261030550  14.437586912896183   1.665033057703650 
  0.006488014611128   1.430054156183874   1.664816490937845 
 -1.227202382667425   3.623851155739482   1.665432761364030 
 -2.483241530994063   5.799374776936833   1.665432761364030 
 -3.766280264724676   7.964680501177923   1.664816490937845 
 -5.028320594665898  10.122962326574957   1.665033057703650 
 -6.277135637571589  12.278375016266084   1.665102264464460 
 -5.016358723412029  14.435778080720274   1.665328313056275 
  2.507985946020404   1.402950573552662   1.665415957672125 
  1.263901853879094   3.562936931060693   1.664627399474910 
  0.032799757526526   5.801662811358337   1.665262719609330 
 -1.290442678753346   7.987191441616010   1.664627399474910 
 -2.539003690112213  10.144593048608218   1.665415957672125 
 -3.778381320472117  12.291538320206103   1.665328313056275 
 -2.511202725793097  14.452637396621267   1.665537265229280 
  5.026820798206379   1.393876250256100   1.665955796074200 
  3.804655617204127   3.499341857114172   1.665286104175575 
  2.581147721513615   5.545958756460336   1.667072903717100 
  1.085527532127871   8.136448913302321   1.667072903717100 
 -0.075140746675189  10.219346282374367   1.665286104175575 
 -1.287444858507388  12.330505180171984   1.665955796074200 
 -0.005513943547184  14.484407494556972   1.665042097933740 
  7.533120377213821   1.427109831315966   1.665042097933740 
  6.311713131562583   3.546700263076026   1.665217848655365 
  5.118142035545953   5.675925285216403   1.665756866158125 
  2.466579004688445  10.268567174133088   1.665756866158125 
  1.219401593149781  12.366842575576536   1.665217848655365 
  2.511878073631971  14.493636044593284   1.664896315726185 
 10.036737048563223   1.457683595467707   1.664789023953150 
  8.799808544575097   3.602620994458915   1.664896315726185 
  7.561383774971517   5.755176721925721   1.665375642734370 
  6.285303473386099   7.908591702852368   1.665896150559315 
  4.983705559448966  10.163025420817224   1.665896150559315 
  3.756833631877827  12.344850869707665   1.665375642734370 
  5.021103775934865  14.485474710019714   1.665074659056030 
 12.541808785284282   1.466745739170614   1.665579845318070 
 11.297120963583247   3.622608285919111   1.665579845318070 
 10.047353472657081   5.779754863768874   1.665074659056030 
  8.782809421862368   7.940921589456678   1.666200826170180 
  7.484387329258615  10.103838901797847   1.667221521767835 
  6.260457036787753  12.309764074998601   1.666200826170180 
