In B N                                  
   1.0000000000000000     
     8.7639499999999995  -15.1796066749929999    0.0000000000000000
     8.7639499999999995   15.1796066749929999    0.0000000000000000
     0.0000000000000000    0.0000000000000000   15.0000000000000000
   In   B    N 
     1    48    48
Selective dynamics
Direct
  0.4349908496483346  0.5032106274481751  0.1112975138484476   T   T   T
  0.9051047293513634  0.9526316359416661  0.1110103181144024   T   T   T
  0.9063503075496658  0.0962660098429281  0.1110468181804276   T   T   T
  0.9067511971146159  0.2390899454028064  0.1111155881998760   T   T   T
  0.9063503075496658  0.3815129913977348  0.1110468181804276   T   T   T
  0.9051047293513634  0.5239034986577131  0.1110103181144024   T   T   T
  0.9035449721723257  0.6662108383387556  0.1110800757364988   T   T   T
  0.9035449721723257  0.8087645390815860  0.1110800757364988   T   T   T
  0.0465643020315268  0.9511173261610646  0.1110022038469099   T   T   T
  0.0474746071485808  0.0942089071741064  0.1109877660625229   T   T   T
  0.0493515513896038  0.2387315582892805  0.1110288507576017   T   T   T
  0.0493515513896038  0.3820503983473230  0.1110288507576017   T   T   T
  0.0474746071485808  0.5246961052224689  0.1109877660625229   T   T   T
  0.0465643020315268  0.6668790926744812  0.1110022038469099   T   T   T
  0.0463140184095403  0.8088730676067795  0.1110068176309640   T   T   T
  0.1893062852625401  0.9509981641686215  0.1110218875370845   T   T   T
  0.1892970542575434  0.0924233811580821  0.1110277305114752   T   T   T
  0.1894673320895613  0.2347186595374874  0.1109751599649940   T   T   T
  0.1929718530691996  0.3822011291581066  0.1110175146406225   T   T   T
  0.1894673320895613  0.5261790778000897  0.1109751599649940   T   T   T
  0.1892970542575434  0.6683040783474561  0.1110277305114752   T   T   T
  0.1893062852625401  0.8097402378979374  0.1110218875370845   T   T   T
  0.3327855228319441  0.9521088198174769  0.1110358176819521   T   T   T
  0.3327024701480961  0.0918255841603828  0.1110637197382801   T   T   T
  0.3323274083258990  0.2305291521735517  0.1110190736117049   T   T   T
  0.3299373286286726  0.3653558932852136  0.1111381935811397   T   T   T
  0.3299373286286726  0.5360118405904589  0.1111381935811397   T   T   T
  0.3323274083258991  0.6732286613993540  0.1110190736117049   T   T   T
  0.3327024701480961  0.8123072912347061  0.1110637197382801   T   T   T
  0.4767863019806898  0.9542017658743759  0.1110028065289164   T   T   T
  0.4767863019806898  0.0940149413533212  0.1110028065289164   T   T   T
  0.4769197384275626  0.2336490226007535  0.1110145232436912   T   T   T
  0.4789586331999747  0.3739178100422646  0.1110504577438753   T   T   T
  0.4789586331999747  0.6764712284047173  0.1110504577438753   T   T   T
  0.4769197384275626  0.8147011210738161  0.1110145232436912   T   T   T
  0.6207122784540200  0.9548097229996099  0.1109930877150794   T   T   T
  0.6206294573109108  0.0960290755009540  0.1109859349302096   T   T   T
  0.6207122784540200  0.2373329607014027  0.1109930877150794   T   T   T
  0.6209606743882166  0.3791387250769004  0.1110250428489576   T   T   T
  0.6190890535625344  0.5210010952313374  0.1110597433706211   T   T   T
  0.6190890535625344  0.6695183635791916  0.1110597433706211   T   T   T
  0.6209606743882166  0.8132523545583371  0.1110250428489576   T   T   T
  0.7635995469568029  0.9542720717449821  0.1110049772704025   T   T   T
  0.7638470571276259  0.0966260701330903  0.1110386563545383   T   T   T
  0.7638470571276259  0.2386496806855329  0.1110386563545383   T   T   T
  0.7635995469568029  0.3807578804588139  0.1110049772704025   T   T   T
  0.7626414253361158  0.5231309189676505  0.1110800550780120   T   T   T
  0.7598081595091359  0.6656192823785653  0.1111481014511890   T   T   T
  0.7626414253361158  0.8109409116164806  0.1110800550780120   T   T   T
  0.9516829212754465  0.9041200117427614  0.1110013407156622   T   T   T
  0.9528925665708777  0.0477480545733939  0.1109683358350684   T   T   T
  0.9544004102956584  0.1915985664525202  0.1110439077899640   T   T   T
  0.9544004102956584  0.3342288259611362  0.1110439077899640   T   T   T
  0.9528925665708777  0.4765714941154822  0.1109683358350684   T   T   T
  0.9516829212754465  0.6189916032076739  0.1110013407156622   T   T   T
  0.9513067831842520  0.7613677384296276  0.1110416755167478   T   T   T
  0.0942068472003575  0.9038013986393193  0.1109724135819502   T   T   T
  0.0944449316716449  0.0461097421975245  0.1109611973346973   T   T   T
  0.0951974334869141  0.1893180564666011  0.1109428906118787   T   T   T
  0.0978709704767318  0.3346498320753665  0.1109833745987873   T   T   T
  0.0951974334869141  0.4773080706943140  0.1109428906118787   T   T   T
  0.0944449316716449  0.6197638831491233  0.1109611973346973   T   T   T
  0.0942068472003575  0.7618358537920368  0.1109724135819502   T   T   T
  0.2374301003417077  0.9044302527863457  0.1109861959320613   T   T   T
  0.2373641286020868  0.0455781303329986  0.1110225323483027   T   T   T
  0.2372137272295971  0.1870635589523179  0.1109744412620553   T   T   T
  0.2378049819596708  0.3302946797867415  0.1109773032101542   T   T   T
  0.2378049819596708  0.4789389958469160  0.1109773032101542   T   T   T
  0.2372137272295971  0.6215788619522749  0.1109744412620553   T   T   T
  0.2373641286020868  0.7632146919440839  0.1110225323483027   T   T   T
  0.3812886571316891  0.9064819588785376  0.1110126725954337   T   T   T
  0.3812886571316891  0.0462353919281543  0.1110126725954337   T   T   T
  0.3812109574385908  0.1856050445747408  0.1110071575716091   T   T   T
  0.3809818114111687  0.3240218152823842  0.1109816297636961   T   T   T
  0.3809818114111687  0.6283886898037800  0.1109816297636961   T   T   T
  0.3812109574385908  0.7670346065388522  0.1110071575716091   T   T   T
  0.5253444187536283  0.9085809792212930  0.1109680823671595   T   T   T
  0.5252883479481206  0.0483576650335638  0.1109536725188349   T   T   T
  0.5253444187536283  0.1881921332073380  0.1109680823671595   T   T   T
  0.5257384490743012  0.3273866692452918  0.1110016217494132   T   T   T
  0.5270842585673479  0.4657672129719141  0.1110002564515656   T   T   T
  0.5270842585673479  0.6327457392704159  0.1110002564515656   T   T   T
  0.5257384490743012  0.7697804735040051  0.1110016217494132   T   T   T
  0.6687494684594738  0.9079562537400416  0.1109772027841396   T   T   T
  0.6687395827673858  0.0494310347269590  0.1109733628896403   T   T   T
  0.6687395827673858  0.1907355301594270  0.1109733628896403   T   T   T
  0.6687494684594738  0.3322219083944564  0.1109772027841396   T   T   T
  0.6684632816817156  0.4745466957726326  0.1110396820245271   T   T   T
  0.6645690924681031  0.6179988930720499  0.1110812957326581   T   T   T
  0.6684632816817156  0.7653452795840791  0.1110396820245271   T   T   T
  0.8105310670855557  0.9061167191955957  0.1110098853138717   T   T   T
  0.8114542743862445  0.0492852833486146  0.1110043639583223   T   T   T
  0.8117280314356328  0.1915775067768155  0.1110477173709909   T   T   T
  0.8114542743862445  0.3335959731556283  0.1110043639583223   T   T   T
  0.8105310670855557  0.4758430415639677  0.1110098853138717   T   T   T
  0.8086059525290851  0.6185062367897963  0.1111100388561072   T   T   T
  0.8086059525290851  0.7615284094143059  0.1111100388561072   T   T   T

  0.00000000E+00  0.00000000E+00  0.00000000E+00
  0.00000000E+00  0.00000000E+00  0.00000000E+00
  0.00000000E+00  0.00000000E+00  0.00000000E+00
  0.00000000E+00  0.00000000E+00  0.00000000E+00
  0.00000000E+00  0.00000000E+00  0.00000000E+00
  0.00000000E+00  0.00000000E+00  0.00000000E+00
  0.00000000E+00  0.00000000E+00  0.00000000E+00
  0.00000000E+00  0.00000000E+00  0.00000000E+00
  0.00000000E+00  0.00000000E+00  0.00000000E+00
  0.00000000E+00  0.00000000E+00  0.00000000E+00
  0.00000000E+00  0.00000000E+00  0.00000000E+00
  0.00000000E+00  0.00000000E+00  0.00000000E+00
  0.00000000E+00  0.00000000E+00  0.00000000E+00
  0.00000000E+00  0.00000000E+00  0.00000000E+00
  0.00000000E+00  0.00000000E+00  0.00000000E+00
  0.00000000E+00  0.00000000E+00  0.00000000E+00
  0.00000000E+00  0.00000000E+00  0.00000000E+00
  0.00000000E+00  0.00000000E+00  0.00000000E+00
  0.00000000E+00  0.00000000E+00  0.00000000E+00
  0.00000000E+00  0.00000000E+00  0.00000000E+00
  0.00000000E+00  0.00000000E+00  0.00000000E+00
  0.00000000E+00  0.00000000E+00  0.00000000E+00
  0.00000000E+00  0.00000000E+00  0.00000000E+00
  0.00000000E+00  0.00000000E+00  0.00000000E+00
  0.00000000E+00  0.00000000E+00  0.00000000E+00
  0.00000000E+00  0.00000000E+00  0.00000000E+00
  0.00000000E+00  0.00000000E+00  0.00000000E+00
  0.00000000E+00  0.00000000E+00  0.00000000E+00
  0.00000000E+00  0.00000000E+00  0.00000000E+00
  0.00000000E+00  0.00000000E+00  0.00000000E+00
  0.00000000E+00  0.00000000E+00  0.00000000E+00
  0.00000000E+00  0.00000000E+00  0.00000000E+00
  0.00000000E+00  0.00000000E+00  0.00000000E+00
  0.00000000E+00  0.00000000E+00  0.00000000E+00
  0.00000000E+00  0.00000000E+00  0.00000000E+00
  0.00000000E+00  0.00000000E+00  0.00000000E+00
  0.00000000E+00  0.00000000E+00  0.00000000E+00
  0.00000000E+00  0.00000000E+00  0.00000000E+00
  0.00000000E+00  0.00000000E+00  0.00000000E+00
  0.00000000E+00  0.00000000E+00  0.00000000E+00
  0.00000000E+00  0.00000000E+00  0.00000000E+00
  0.00000000E+00  0.00000000E+00  0.00000000E+00
  0.00000000E+00  0.00000000E+00  0.00000000E+00
  0.00000000E+00  0.00000000E+00  0.00000000E+00
  0.00000000E+00  0.00000000E+00  0.00000000E+00
  0.00000000E+00  0.00000000E+00  0.00000000E+00
  0.00000000E+00  0.00000000E+00  0.00000000E+00
  0.00000000E+00  0.00000000E+00  0.00000000E+00
  0.00000000E+00  0.00000000E+00  0.00000000E+00
  0.00000000E+00  0.00000000E+00  0.00000000E+00
  0.00000000E+00  0.00000000E+00  0.00000000E+00
  0.00000000E+00  0.00000000E+00  0.00000000E+00
  0.00000000E+00  0.00000000E+00  0.00000000E+00
  0.00000000E+00  0.00000000E+00  0.00000000E+00
  0.00000000E+00  0.00000000E+00  0.00000000E+00
  0.00000000E+00  0.00000000E+00  0.00000000E+00
  0.00000000E+00  0.00000000E+00  0.00000000E+00
  0.00000000E+00  0.00000000E+00  0.00000000E+00
  0.00000000E+00  0.00000000E+00  0.00000000E+00
  0.00000000E+00  0.00000000E+00  0.00000000E+00
  0.00000000E+00  0.00000000E+00  0.00000000E+00
  0.00000000E+00  0.00000000E+00  0.00000000E+00
  0.00000000E+00  0.00000000E+00  0.00000000E+00
  0.00000000E+00  0.00000000E+00  0.00000000E+00
  0.00000000E+00  0.00000000E+00  0.00000000E+00
  0.00000000E+00  0.00000000E+00  0.00000000E+00
  0.00000000E+00  0.00000000E+00  0.00000000E+00
  0.00000000E+00  0.00000000E+00  0.00000000E+00
  0.00000000E+00  0.00000000E+00  0.00000000E+00
  0.00000000E+00  0.00000000E+00  0.00000000E+00
  0.00000000E+00  0.00000000E+00  0.00000000E+00
  0.00000000E+00  0.00000000E+00  0.00000000E+00
  0.00000000E+00  0.00000000E+00  0.00000000E+00
  0.00000000E+00  0.00000000E+00  0.00000000E+00
  0.00000000E+00  0.00000000E+00  0.00000000E+00
  0.00000000E+00  0.00000000E+00  0.00000000E+00
  0.00000000E+00  0.00000000E+00  0.00000000E+00
  0.00000000E+00  0.00000000E+00  0.00000000E+00
  0.00000000E+00  0.00000000E+00  0.00000000E+00
  0.00000000E+00  0.00000000E+00  0.00000000E+00
  0.00000000E+00  0.00000000E+00  0.00000000E+00
  0.00000000E+00  0.00000000E+00  0.00000000E+00
  0.00000000E+00  0.00000000E+00  0.00000000E+00
  0.00000000E+00  0.00000000E+00  0.00000000E+00
  0.00000000E+00  0.00000000E+00  0.00000000E+00
  0.00000000E+00  0.00000000E+00  0.00000000E+00
  0.00000000E+00  0.00000000E+00  0.00000000E+00
  0.00000000E+00  0.00000000E+00  0.00000000E+00
  0.00000000E+00  0.00000000E+00  0.00000000E+00
  0.00000000E+00  0.00000000E+00  0.00000000E+00
  0.00000000E+00  0.00000000E+00  0.00000000E+00
  0.00000000E+00  0.00000000E+00  0.00000000E+00
  0.00000000E+00  0.00000000E+00  0.00000000E+00
  0.00000000E+00  0.00000000E+00  0.00000000E+00
  0.00000000E+00  0.00000000E+00  0.00000000E+00
  0.00000000E+00  0.00000000E+00  0.00000000E+00
  0.00000000E+00  0.00000000E+00  0.00000000E+00
