 B N 
 1.0
 14.936314146199660   0.000000000000000   0.000000000000000
 -7.468157073099825  12.935227489513863   0.000000000000000
  0.000000000000001   0.000000000000001  13.341276283792837
 B N 
 144 143
Cartesian
  1.252656668506117   0.727384465279829   5.002978606422314 
  4.978771382066589   7.062250799168177   5.002978606422314 
  6.221409707802857   0.723601823383801   5.002978606422314 
  9.952204365726153   7.185527723513536   5.002978606422314 
 11.199816909317708   0.717227312129678   5.002978606422314 
 -3.734086831299121   9.342103953450946  11.673616748318732 
  1.244697152681384   9.342035805238170  11.673616748318732 
  2.489557924215276   2.874592213692462  11.673616748318732 
  6.223466152628862   9.341910976104353  11.673616748318732 
  7.467984839917914   2.874592213692462  11.673616748318732 
 12.446928455166358   2.874549131461888  11.673616748318732 
 -1.243066698236949   9.341169885857010   5.002978606422314 
  0.011639514988278   2.881215074781420   5.002978606422314 
  4.978771382066534   2.876473327713775   5.002978606422314 
  3.748050183244076   9.302725480376616   5.002978606422314 
  8.709566039989831   9.337840439121184   5.002978606422314 
  9.945903249144910   2.881215074781420   5.002978606422314 
 -4.978739108754029  11.497961357673320  11.673616748318732 
 -0.000032273312448  11.497961357673320  11.673616748318732 
  1.244863153653004   5.030466796221617  11.673616748318732 
  6.223275070909858   5.030475455578329  11.673616748318732 
  4.978771382066590  11.497845893030805  11.673616748318732 
 11.202184164129227   5.030450717812171  11.673616748318732 
 -1.233123931529696   5.032882761010938   5.002978606422314 
 -2.489385691033239  11.499857703818270   5.002978606422314 
  2.492990782030784  11.486702759727651   5.002978606422314 
  3.841454164156570   5.092359593425128   5.002978606422314 
  7.464551982102412  11.486702759727651   5.002978606422314 
  8.671757189850217   5.037958075977249   5.002978606422314 
  0.000065319040506   7.186270232654540  11.673616748318732 
  1.244791723079714   0.718626066600051  11.673616748318732 
  4.978771382066597   7.186019074861760  11.673616748318732 
  6.223403215707420   0.718663948125799  11.673616748318732 
  9.957477445092582   7.186270232654540  11.673616748318732 
 -2.489385691033241   7.185113129664072   5.002978606422314 
 11.202188728410542   0.718596682521379  11.673616748318732 
  3.736133056330210   0.723601823383801   5.002978606422314 
  2.491098975108447   7.185248329152373   5.002978606422314 
  7.466443789024627   7.185248329152373   5.002978606422314 
  8.704886095627057   0.727384465279829   5.002978606422314 
  2.489500030517987   7.186171480242094  11.673616748318732 
 13.694040001015004   0.717227312129678   5.002978606422314 
 -1.244684550767359   9.342103953450946  11.673616748318732 
  0.000116131969943   2.874562046493801  11.673616748318732 
  4.978771382066535   2.874627025534332  11.673616748318732 
  3.734076611504316   9.341910976104353  11.673616748318732 
  8.712845611451705   9.342035805238170  11.673616748318732 
  9.957426632163246   2.874562046493801  11.673616748318732 
 -3.735704683829530   9.341169885857010   5.002978606422314 
  1.247976724143243   9.337840439121184   5.002978606422314 
  2.516506773105494   2.906286429664552   5.002978606422314 
  6.209492580889117   9.302725480376616   5.002978606422314 
  7.441035991027695   2.906286429664552   5.002978606422314 
 12.446928455166363   2.877287872245302   5.002978606422314 
 -1.244641399996051   5.030450717812171  11.673616748318732 
 -2.489385691033238  11.497989568630381  11.673616748318732 
  2.489338258990846  11.497893201606200  11.673616748318732 
  3.734267693223334   5.030475455578329  11.673616748318732 
  7.468204505142350  11.497893201606200  11.673616748318732 
 -4.979745110295532  11.498542172934110   5.002978606422314 
  8.712679610480187   5.030466796221617  11.673616748318732 
  0.000973728229053  11.498542172934110   5.002978606422314 
  1.285785574282973   5.037958075977249   5.002978606422314 
  0.005338398406918   7.185527723513536   5.002978606422314 
  6.116088599976607   5.092359593425128   5.002978606422314 
  4.978771382066597  11.484539836455577   5.002978606422314 
 11.190666695662872   5.032882761010938   5.002978606422314 
 -2.489385691033241   7.186274760185654  11.673616748318732 
  3.734139548425664   0.718663948125799  11.673616748318732 
  7.468042733615102   7.186171480242094  11.673616748318732 
  8.712751041053487   0.718626066600051  11.673616748318732 
 13.691668181922184   0.718596682521379  11.673616748318732 
  0.000087308182810   1.437270294934338   1.667719483979096 
  3.734696419094029   7.904286389544700   1.665451518277320 
  4.978771382066490   1.437743479168563   1.667676923412930 
  8.712420387047686   7.904613253425016   1.667676923412930 
  9.957455455950260   1.437270294934338   1.667719483979096 
 -4.978884800472739  10.060670727284375   8.338304984997666 
  0.000113418406156  10.060670727284375   8.338304984997666 
  1.244925201949022   3.593252898135992   8.338343906651573 
  4.978771382066538  10.060464189746538   8.338343906651573 
  6.223275330646977   3.593941276090514   8.340505694567307 
 11.202172213557077   3.593182960141759   8.338237728865531 
 -2.489385691033300  10.060732491844131   1.667677254952971 
 -1.244629449424009   3.593182960141758   1.667719483979096 
  3.734267433486110   3.593941276090513   1.665451518277320 
  2.489515355921750  10.060538319056359   1.667763930030204 
  7.468027408211338  10.060538319056359   1.667763930030204 
  8.712617562184047   3.593252898135991   1.667613306193054 
 -6.223437382196654  12.216588240905287   8.338217504377706 
 -1.244689625991366  12.216732845597315   8.338304984997666 
  0.000232991011158   5.748974788645980   8.338193282814423 
  4.978771382066590   5.748989995339477   8.335501335731688 
  3.734054624459720  12.216516730942423   8.338237728865531 
  9.957309773121928   5.748974788645980   8.338193282814423 
 -2.489385691033242   5.749020993721720   1.667739708466907 
 -3.734081756075218  12.216732845597315   1.667652227846961 
  1.244666000130176  12.216588240905287   1.667739708466907 
  2.490192470513595   5.748742320383292   1.665451518277320 
  6.223488139673357  12.216516730942423   1.667719483979096 
  7.467350293619491   5.748742320383292   1.665451518277320 
 -1.244582646635771   7.904793902650693   8.338304984997666 
  0.000087308182810   1.437270294934339   8.338237728865531 
  3.734696419094030   7.904286389544701   8.340505694567307 
  4.978771382066491   1.437743479168564   8.338280289431699 
  8.712420387047686   7.904613253425017   8.338280289431699 
 -3.734188735430815   7.904793902650693   1.667652227846961 
  9.957455455950260   1.437270294934339   8.338237728865531 
  2.489489017155942   1.437456878316180   1.667763930030204 
  1.245122377085297   7.904613253425016   1.667676923412930 
  6.222846345039060   7.904286389544700   1.665451518277320 
  7.468053746977125   1.437456878316180   1.667763930030204 
  1.245122377085298   7.904613253425017   8.338280289431699 
 12.446928455166319   1.437247498834911   1.667657865752782 
 -2.489385691033300  10.060732491844131   8.338279957891658 
 -1.244629449424009   3.593182960141759   8.338237728865531 
  3.734267433486110   3.593941276090514   8.340505694567307 
  2.489515355921750  10.060538319056359   8.338193282814423 
  7.468027408211339  10.060538319056359   8.338193282814423 
  8.712617562184047   3.593252898135992   8.338343906651573 
 -4.978884800472740  10.060670727284375   1.667652227846961 
  0.000113418406156  10.060670727284375   1.667652227846961 
  1.244925201949021   3.593252898135991   1.667613306193054 
  4.978771382066537  10.060464189746538   1.667613306193054 
  6.223275330646976   3.593941276090513   1.665451518277320 
 11.202172213557077   3.593182960141758   1.667719483979096 
 -2.489385691033241   5.749020993721721   8.338217504377706 
 -3.734081756075218  12.216732845597315   8.338304984997666 
  1.244666000130177  12.216588240905287   8.338217504377706 
  2.490192470513596   5.748742320383293   8.340505694567307 
  6.223488139673358  12.216516730942423   8.338237728865531 
 -6.223437382196654  12.216588240905287   1.667739708466907 
  7.467350293619492   5.748742320383293   8.340505694567307 
 -1.244689625991366  12.216732845597315   1.667652227846961 
  0.000232991011158   5.748974788645979   1.667763930030204 
 -1.244582646635772   7.904793902650693   1.667652227846961 
  4.978771382066589   5.748989995339476   1.670455877112939 
  3.734054624459720  12.216516730942423   1.667719483979096 
  9.957309773121928   5.748974788645979   1.667763930030204 
 -3.734188735430815   7.904793902650693   8.338304984997666 
  2.489489017155943   1.437456878316181   8.338193282814423 
  6.222846345039061   7.904286389544701   8.340505694567307 
  7.468053746977126   1.437456878316181   8.338193282814423 
 12.446928455166319   1.437247498834912   8.338299347091858 
  1.244674630183608   0.718617608405813   1.668160335367534 
  4.978771382066596   7.186785492093007   1.659586442555913 
  6.223495889486615   0.718655214140818   1.667893956642442 
  9.957531345835065   7.186194341799981   1.667893956642442 
 11.202238708320698   0.718625538435968   1.668134946381166 
 -3.734103784967254   9.342094165246074   8.338112834139649 
  1.244735925718106   9.342120430077719   8.338063256202187 
  2.489337374616926   2.874487879295985   8.337893985475301 
  6.223446234067533   9.342154144857542   8.337893985475301 
  7.468205389516265   2.874487879295985   8.337893985475301 
 12.446928455166365   2.874491419632720   8.337822266463462 
 -1.244667597099212   9.342094165246074   1.667844378704979 
 -0.000036301989525   2.874474038706285   1.668341466893517 
  4.978771382066535   2.874506319453376   1.667081115157027 
  3.734096530065663   9.342154144857542   1.668063227369327 
  8.712806838414984   9.342120430077719   1.667893956642442 
  9.957579066122697   2.874474038706285   1.668341466893517 
 -4.978812481558784  11.498003719481895   8.338172029969629 
  0.000041099492321  11.498003719481895   8.338172029969629 
  1.244662522615992   5.030327961864890   8.337893985475301 
  6.223938807702015   5.030092246962706   8.346370770288715 
  4.978771382066591  11.498021908605859   8.337615745951112 
 11.202250035588387   5.030353541486659   8.337796877477095 
 -1.244707271455183   5.030353541486658   1.668160335367534 
 -2.489385691033240  11.498009145040117   1.667844378704979 
  2.489389480427805  11.497998836125944   1.668160335367534 
  3.733603956431177   5.030092246962705   1.659586442555913 
  7.468153283705405  11.497998836125944   1.668160335367534 
  8.712880241517199   5.030327961864889   1.668063227369327 
  0.000011418298008   7.186194341799982   8.338063256202187 
  1.244674630183608   0.718617608405814   8.337796877477095 
  4.978771382066597   7.186785492093008   8.346370770288715 
  6.223495889486616   0.718655214140819   8.338063256202187 
  9.957531345835065   7.186194341799982   8.338063256202187 
 -2.489385691033242   7.186190036568501   1.667785182874985 
 11.202238708320698   0.718625538435969   8.337822266463462 
  3.734046874646436   0.718655214140818   1.667893956642442 
  2.489395495985489   7.186231833282571   1.667081115157027 
  7.468147268147601   7.186231833282571   1.667081115157027 
  8.712868133949579   0.718617608405813   1.668160335367534 
  2.489395495985490   7.186231833282572   8.338876097687601 
 13.691618202012030   0.718625538435968   1.668134946381166 
 -1.244667597099211   9.342094165246074   8.338112834139649 
 -0.000036301989524   2.874474038706286   8.337615745951112 
  4.978771382066536   2.874506319453377   8.338876097687601 
  3.734096530065663   9.342154144857542   8.337893985475301 
  8.712806838414984   9.342120430077719   8.338063256202187 
  9.957579066122697   2.874474038706286   8.337615745951112 
 -3.734103784967255   9.342094165246074   1.667844378704979 
  1.244735925718105   9.342120430077719   1.667893956642442 
  2.489337374616925   2.874487879295984   1.668063227369327 
  6.223446234067532   9.342154144857542   1.668063227369327 
  7.468205389516264   2.874487879295984   1.668063227369327 
 12.446928455166365   2.874491419632720   1.668134946381166 
 -1.244707271455183   5.030353541486659   8.337796877477095 
 -2.489385691033239  11.498009145040117   8.338112834139649 
  2.489389480427806  11.497998836125944   8.337796877477095 
  3.733603956431177   5.030092246962706   8.346370770288715 
  7.468153283705406  11.497998836125944   8.337796877477095 
 -4.978812481558784  11.498003719481895   1.667785182874985 
  8.712880241517199   5.030327961864890   8.337893985475301 
  0.000041099492321  11.498003719481895   1.667785182874985 
  1.244662522615992   5.030327961864889   1.668063227369327 
  0.000011418298008   7.186194341799981   1.667893956642442 
  6.223938807702014   5.030092246962705   1.659586442555913 
  4.978771382066590  11.498021908605859   1.668341466893517 
 11.202250035588387   5.030353541486658   1.668160335367534 
 -2.489385691033241   7.186190036568502   8.338172029969629 
  3.734046874646437   0.718655214140819   8.338063256202187 
  7.468147268147602   7.186231833282572   8.338876097687601 
  8.712868133949579   0.718617608405814   8.337796877477095 
 13.691618202012030   0.718625538435969   8.337822266463462 
  0.005121209940580   1.441667792172226   5.002978606422314 
  3.756189159284992   7.844629398449616   5.002978606422314 
  4.978771382066482   1.441680170833652   5.002978606422314 
  8.709011112058835   7.902644907592481   5.002978606422314 
  9.952421554192489   1.441667792172226   5.002978606422314 
 -4.978753161323756  10.060754003029567  11.673616748318732 
 -0.000018220742842  10.060754003029567  11.673616748318732 
  1.244690707369621   3.593117512627451  11.673616748318732 
  4.978771382066538  10.060734960763620  11.673616748318732 
  6.223454987127368   3.593064764749951  11.673616748318732 
 11.202245641993240   3.593138082000227  11.673616748318732 
 -2.489385691033300  10.060732491844131   5.002978606422314 
 -1.238304154224033   3.595343698325185   5.002978606422314 
  3.775185533192300   3.642383030640368   5.002978606422314 
  2.501656560025395  10.039642403346649   5.002978606422314 
  7.455886204107681  10.039642403346649   5.002978606422314 
  8.693544198910971   3.604264909556055   5.002978606422314 
 -6.223452397296377  12.216596909877154  11.673616748318732 
 -1.244683326655010  12.216577204877556  11.673616748318732 
 -0.000038683656344   5.749012925842049  11.673616748318732 
  4.978771382066590   5.748989995339477  11.673616748318732 
  3.734056775852273  12.216602760904280  11.673616748318732 
  9.957581447789432   5.749012925842049  11.673616748318732 
 -2.489385691033241   5.747194403227047   5.002978606422314 
 -3.735108504779247  12.219729976271255   5.002978606422314 
  1.246247873900876  12.217501536152623   5.002978606422314 
  2.552603310410748   5.759957556928525   5.002978606422314 
  6.222196746231161  12.209958495521095   5.002978606422314 
  7.404939453722309   5.759957556928525   5.002978606422314 
 -1.244720585121100   7.904866267625249  11.673616748318732 
  0.000011728354088   1.437229143114029  11.673616748318732 
  3.734027166246593   7.904880232290957  11.673616748318732 
  4.978771382066483   1.437186065747165  11.673616748318732 
  8.712903121231026   7.904891960135723  11.673616748318732 
 -3.736270952380909   7.902406146852730   5.002978606422314 
  9.957531035778981   1.437229143114029  11.673616748318732 
  2.501514808944084   1.458419427357323   5.002978606422314 
  1.248531652074118   7.902644907592481   5.002978606422314 
  6.201353604848082   7.844629398449616   5.002978606422314 
  7.456027955188999   1.458419427357323   5.002978606422314 
  1.244639642901945   7.904891960135723  11.673616748318732 
 12.446928455166319   1.437247498834912   5.002978606422314 
 -2.489385691033299  10.060732491844133  11.673616748318732 
 -1.244702877860171   3.593138082000227  11.673616748318732 
  3.734087777005703   3.593064764749951  11.673616748318732 
  2.489346490807377  10.060754527621949  11.673616748318732 
  7.468196273325717  10.060754527621949  11.673616748318732 
  8.712852056763449   3.593117512627451  11.673616748318732 
 -4.981993766126856  10.060061352408386   5.002978606422314 
  0.003222384060271  10.060061352408386   5.002978606422314 
  1.263998565222085   3.604264909556055   5.002978606422314 
  4.978771382066530  10.038440166906422   5.002978606422314 
  6.182357230940771   3.642383030640368   5.002978606422314 
 11.195846918357120   3.595343698325185   5.002978606422314 
 -2.489385691033249   5.749003655778000  11.673616748318732 
 -3.734088055411555  12.216577204877556  11.673616748318732 
  1.244681015229901  12.216596909877154  11.673616748318732 
  2.489343561185745   5.749024988977614  11.673616748318732 
  6.223485988280792  12.216602760904280  11.673616748318732 
 -6.225019255967354  12.217501536152623   5.002978606422314 
  7.468199202947313   5.749024988977614  11.673616748318732 
 -1.243662877287335  12.219729976271255   5.002978606422314 
  0.024399986902943   5.748908155314548   5.002978606422314 
 -1.242500429685693   7.902406146852730   5.002978606422314 
  3.735346017901917  12.209958495521095   5.002978606422314 
  9.933142777230143   5.748908155314548   5.002978606422314 
 -3.734050796945469   7.904866267625249  11.673616748318732 
  2.489386207602825   1.437202532554513  11.673616748318732 
  6.223515597886497   7.904880232290957  11.673616748318732 
  7.468156556530261   1.437202532554513  11.673616748318732 
 12.446928455166319   1.437247498834912  11.673616748318732 
Generated by cif2cell 2.0.0.  :  Failed to get author information, No journal information. Species order: B N 
 1.0
 14.936314146199660   0.000000000000000   0.000000000000000
 -7.468157073099825  12.935227489513863   0.000000000000000
  0.000000000000001   0.000000000000001  13.341276283792837
 B N 
 144 143
Cartesian
  1.252656668506117   0.727384465279829   5.002978606422314 
  4.978771382066589   7.062250799168177   5.002978606422314 
  6.221409707802857   0.723601823383801   5.002978606422314 
  9.952204365726153   7.185527723513536   5.002978606422314 
 11.199816909317708   0.717227312129678   5.002978606422314 
 -3.734086831299121   9.342103953450946  11.673616748318732 
  1.244697152681384   9.342035805238170  11.673616748318732 
  2.489557924215276   2.874592213692462  11.673616748318732 
  6.223466152628862   9.341910976104353  11.673616748318732 
  7.467984839917914   2.874592213692462  11.673616748318732 
 12.446928455166358   2.874549131461888  11.673616748318732 
 -1.243066698236949   9.341169885857010   5.002978606422314 
  0.011639514988278   2.881215074781420   5.002978606422314 
  4.978771382066534   2.876473327713775   5.002978606422314 
  3.748050183244076   9.302725480376616   5.002978606422314 
  8.709566039989831   9.337840439121184   5.002978606422314 
  9.945903249144910   2.881215074781420   5.002978606422314 
 -4.978739108754029  11.497961357673320  11.673616748318732 
 -0.000032273312448  11.497961357673320  11.673616748318732 
  1.244863153653004   5.030466796221617  11.673616748318732 
  6.223275070909858   5.030475455578329  11.673616748318732 
  4.978771382066590  11.497845893030805  11.673616748318732 
 11.202184164129227   5.030450717812171  11.673616748318732 
 -1.233123931529696   5.032882761010938   5.002978606422314 
 -2.489385691033239  11.499857703818270   5.002978606422314 
  2.492990782030784  11.486702759727651   5.002978606422314 
  3.841454164156570   5.092359593425128   5.002978606422314 
  7.464551982102412  11.486702759727651   5.002978606422314 
  8.671757189850217   5.037958075977249   5.002978606422314 
  0.000065319040506   7.186270232654540  11.673616748318732 
  1.244791723079714   0.718626066600051  11.673616748318732 
  4.978771382066597   7.186019074861760  11.673616748318732 
  6.223403215707420   0.718663948125799  11.673616748318732 
  9.957477445092582   7.186270232654540  11.673616748318732 
 -2.489385691033241   7.185113129664072   5.002978606422314 
 11.202188728410542   0.718596682521379  11.673616748318732 
  3.736133056330210   0.723601823383801   5.002978606422314 
  2.491098975108447   7.185248329152373   5.002978606422314 
  7.466443789024627   7.185248329152373   5.002978606422314 
  8.704886095627057   0.727384465279829   5.002978606422314 
  2.489500030517987   7.186171480242094  11.673616748318732 
 13.694040001015004   0.717227312129678   5.002978606422314 
 -1.244684550767359   9.342103953450946  11.673616748318732 
  0.000116131969943   2.874562046493801  11.673616748318732 
  4.978771382066535   2.874627025534332  11.673616748318732 
  3.734076611504316   9.341910976104353  11.673616748318732 
  8.712845611451705   9.342035805238170  11.673616748318732 
  9.957426632163246   2.874562046493801  11.673616748318732 
 -3.735704683829530   9.341169885857010   5.002978606422314 
  1.247976724143243   9.337840439121184   5.002978606422314 
  2.516506773105494   2.906286429664552   5.002978606422314 
  6.209492580889117   9.302725480376616   5.002978606422314 
  7.441035991027695   2.906286429664552   5.002978606422314 
 12.446928455166363   2.877287872245302   5.002978606422314 
 -1.244641399996051   5.030450717812171  11.673616748318732 
 -2.489385691033238  11.497989568630381  11.673616748318732 
  2.489338258990846  11.497893201606200  11.673616748318732 
  3.734267693223334   5.030475455578329  11.673616748318732 
  7.468204505142350  11.497893201606200  11.673616748318732 
 -4.979745110295532  11.498542172934110   5.002978606422314 
  8.712679610480187   5.030466796221617  11.673616748318732 
  0.000973728229053  11.498542172934110   5.002978606422314 
  1.285785574282973   5.037958075977249   5.002978606422314 
  0.005338398406918   7.185527723513536   5.002978606422314 
  6.116088599976607   5.092359593425128   5.002978606422314 
  4.978771382066597  11.484539836455577   5.002978606422314 
 11.190666695662872   5.032882761010938   5.002978606422314 
 -2.489385691033241   7.186274760185654  11.673616748318732 
  3.734139548425664   0.718663948125799  11.673616748318732 
  7.468042733615102   7.186171480242094  11.673616748318732 
  8.712751041053487   0.718626066600051  11.673616748318732 
 13.691668181922184   0.718596682521379  11.673616748318732 
  0.000087308182810   1.437270294934338   1.667719483979096 
  3.734696419094029   7.904286389544700   1.665451518277320 
  4.978771382066490   1.437743479168563   1.667676923412930 
  8.712420387047686   7.904613253425016   1.667676923412930 
  9.957455455950260   1.437270294934338   1.667719483979096 
 -4.978884800472739  10.060670727284375   8.338304984997666 
  0.000113418406156  10.060670727284375   8.338304984997666 
  1.244925201949022   3.593252898135992   8.338343906651573 
  4.978771382066538  10.060464189746538   8.338343906651573 
  6.223275330646977   3.593941276090514   8.340505694567307 
 11.202172213557077   3.593182960141759   8.338237728865531 
 -2.489385691033300  10.060732491844131   1.667677254952971 
 -1.244629449424009   3.593182960141758   1.667719483979096 
  3.734267433486110   3.593941276090513   1.665451518277320 
  2.489515355921750  10.060538319056359   1.667763930030204 
  7.468027408211338  10.060538319056359   1.667763930030204 
  8.712617562184047   3.593252898135991   1.667613306193054 
 -6.223437382196654  12.216588240905287   8.338217504377706 
 -1.244689625991366  12.216732845597315   8.338304984997666 
  0.000232991011158   5.748974788645980   8.338193282814423 
  4.978771382066590   5.748989995339477   8.335501335731688 
  3.734054624459720  12.216516730942423   8.338237728865531 
  9.957309773121928   5.748974788645980   8.338193282814423 
 -2.489385691033242   5.749020993721720   1.667739708466907 
 -3.734081756075218  12.216732845597315   1.667652227846961 
  1.244666000130176  12.216588240905287   1.667739708466907 
  2.490192470513595   5.748742320383292   1.665451518277320 
  6.223488139673357  12.216516730942423   1.667719483979096 
  7.467350293619491   5.748742320383292   1.665451518277320 
 -1.244582646635771   7.904793902650693   8.338304984997666 
  0.000087308182810   1.437270294934339   8.338237728865531 
  3.734696419094030   7.904286389544701   8.340505694567307 
  4.978771382066491   1.437743479168564   8.338280289431699 
  8.712420387047686   7.904613253425017   8.338280289431699 
 -3.734188735430815   7.904793902650693   1.667652227846961 
  9.957455455950260   1.437270294934339   8.338237728865531 
  2.489489017155942   1.437456878316180   1.667763930030204 
  1.245122377085297   7.904613253425016   1.667676923412930 
  6.222846345039060   7.904286389544700   1.665451518277320 
  7.468053746977125   1.437456878316180   1.667763930030204 
  1.245122377085298   7.904613253425017   8.338280289431699 
 12.446928455166319   1.437247498834911   1.667657865752782 
 -2.489385691033300  10.060732491844131   8.338279957891658 
 -1.244629449424009   3.593182960141759   8.338237728865531 
  3.734267433486110   3.593941276090514   8.340505694567307 
  2.489515355921750  10.060538319056359   8.338193282814423 
  7.468027408211339  10.060538319056359   8.338193282814423 
  8.712617562184047   3.593252898135992   8.338343906651573 
 -4.978884800472740  10.060670727284375   1.667652227846961 
  0.000113418406156  10.060670727284375   1.667652227846961 
  1.244925201949021   3.593252898135991   1.667613306193054 
  4.978771382066537  10.060464189746538   1.667613306193054 
  6.223275330646976   3.593941276090513   1.665451518277320 
 11.202172213557077   3.593182960141758   1.667719483979096 
 -2.489385691033241   5.749020993721721   8.338217504377706 
 -3.734081756075218  12.216732845597315   8.338304984997666 
  1.244666000130177  12.216588240905287   8.338217504377706 
  2.490192470513596   5.748742320383293   8.340505694567307 
  6.223488139673358  12.216516730942423   8.338237728865531 
 -6.223437382196654  12.216588240905287   1.667739708466907 
  7.467350293619492   5.748742320383293   8.340505694567307 
 -1.244689625991366  12.216732845597315   1.667652227846961 
  0.000232991011158   5.748974788645979   1.667763930030204 
 -1.244582646635772   7.904793902650693   1.667652227846961 
  4.978771382066589   5.748989995339476   1.670455877112939 
  3.734054624459720  12.216516730942423   1.667719483979096 
  9.957309773121928   5.748974788645979   1.667763930030204 
 -3.734188735430815   7.904793902650693   8.338304984997666 
  2.489489017155943   1.437456878316181   8.338193282814423 
  6.222846345039061   7.904286389544701   8.340505694567307 
  7.468053746977126   1.437456878316181   8.338193282814423 
 12.446928455166319   1.437247498834912   8.338299347091858 
  1.244674630183608   0.718617608405813   1.668160335367534 
  4.978771382066596   7.186785492093007   1.659586442555913 
  6.223495889486615   0.718655214140818   1.667893956642442 
  9.957531345835065   7.186194341799981   1.667893956642442 
 11.202238708320698   0.718625538435968   1.668134946381166 
 -3.734103784967254   9.342094165246074   8.338112834139649 
  1.244735925718106   9.342120430077719   8.338063256202187 
  2.489337374616926   2.874487879295985   8.337893985475301 
  6.223446234067533   9.342154144857542   8.337893985475301 
  7.468205389516265   2.874487879295985   8.337893985475301 
 12.446928455166365   2.874491419632720   8.337822266463462 
 -1.244667597099212   9.342094165246074   1.667844378704979 
 -0.000036301989525   2.874474038706285   1.668341466893517 
  4.978771382066535   2.874506319453376   1.667081115157027 
  3.734096530065663   9.342154144857542   1.668063227369327 
  8.712806838414984   9.342120430077719   1.667893956642442 
  9.957579066122697   2.874474038706285   1.668341466893517 
 -4.978812481558784  11.498003719481895   8.338172029969629 
  0.000041099492321  11.498003719481895   8.338172029969629 
  1.244662522615992   5.030327961864890   8.337893985475301 
  6.223938807702015   5.030092246962706   8.346370770288715 
  4.978771382066591  11.498021908605859   8.337615745951112 
 11.202250035588387   5.030353541486659   8.337796877477095 
 -1.244707271455183   5.030353541486658   1.668160335367534 
 -2.489385691033240  11.498009145040117   1.667844378704979 
  2.489389480427805  11.497998836125944   1.668160335367534 
  3.733603956431177   5.030092246962705   1.659586442555913 
  7.468153283705405  11.497998836125944   1.668160335367534 
  8.712880241517199   5.030327961864889   1.668063227369327 
  0.000011418298008   7.186194341799982   8.338063256202187 
  1.244674630183608   0.718617608405814   8.337796877477095 
  4.978771382066597   7.186785492093008   8.346370770288715 
  6.223495889486616   0.718655214140819   8.338063256202187 
  9.957531345835065   7.186194341799982   8.338063256202187 
 -2.489385691033242   7.186190036568501   1.667785182874985 
 11.202238708320698   0.718625538435969   8.337822266463462 
  3.734046874646436   0.718655214140818   1.667893956642442 
  2.489395495985489   7.186231833282571   1.667081115157027 
  7.468147268147601   7.186231833282571   1.667081115157027 
  8.712868133949579   0.718617608405813   1.668160335367534 
  2.489395495985490   7.186231833282572   8.338876097687601 
 13.691618202012030   0.718625538435968   1.668134946381166 
 -1.244667597099211   9.342094165246074   8.338112834139649 
 -0.000036301989524   2.874474038706286   8.337615745951112 
  4.978771382066536   2.874506319453377   8.338876097687601 
  3.734096530065663   9.342154144857542   8.337893985475301 
  8.712806838414984   9.342120430077719   8.338063256202187 
  9.957579066122697   2.874474038706286   8.337615745951112 
 -3.734103784967255   9.342094165246074   1.667844378704979 
  1.244735925718105   9.342120430077719   1.667893956642442 
  2.489337374616925   2.874487879295984   1.668063227369327 
  6.223446234067532   9.342154144857542   1.668063227369327 