 Se N B Al 
 1.0
 17.527899999999772   0.000000000000000   0.000000000000000
 -8.763949999999658  15.179606674993195   0.000000000000000
  0.000000000000001   0.000000000000002  15.000000000000000
 Se N B Al 
   1  47  49   1
Cartesian
  4.996667094031365   7.292815866204434   1.664431193701755 
  8.822019886486906  13.793724174351039   1.663914435907260 
 16.279821722167238   0.740877174206906   1.664502269708040 
 14.990732537041927   2.869120567397872   1.664975809551150 
 13.736946310065433   5.030761708491520   1.664596712047185 
 12.520979071496937   7.208236279251619   1.664547885393255 
 11.339446743050686   9.401127106801953   1.665172832106810 
 10.099303809424029  11.605937457460190   1.664924894997615 
 -6.222720473588912  13.755180227411026   1.666015850602470 
  1.259643818372617   0.725744303444182   1.665565592742990 
 -0.047863390164884   2.848229039105408   1.664949860279730 
 -1.326822054536839   5.010522234613478   1.664348622791415 
 -2.575723957428824   7.195456152029205   1.664663969521275 
 -3.772101994148268   9.389109624394571   1.665130416211815 
 -4.975171863203615  11.579693724225391   1.665678876619455 
 -3.741229880762602  13.741993608597708   1.665438962794380 
  3.766562521248392   0.715976073051214   1.666268431492770 
  2.468557926562378   2.837812128299326   1.665587528998695 
  1.132181496434783   4.943887923193171   1.664853629103660 
 -0.161670894596784   7.168196854434214   1.666105418211045 
 -1.360666135658708   9.379714468455603   1.667605880920800 
 -2.516911261825435  11.572657703922797   1.666082321014185 
 -1.256717092840521  13.741813634536147   1.664683045967790 
  6.268906895095901   0.714580519199378   1.665861191962080 
  5.008218654900840   2.855160373862746   1.665588614403975 
  3.677226785629311   4.947135611145669   1.663654319645145 
  2.178716941628175   7.018546491385408   1.662079453637100 
  1.029373037405961   9.363534030079286   1.666631975078355 
 -0.046467414037710  11.577122562124584   1.667192025608115 
  1.234510051260025  13.765174791584654   1.664753455403940 
  8.767926348675603   0.718860387667949   1.664522316402960 
  7.537020373178425   2.853102211058950   1.665071326703370 
  6.310093523340071   4.966147611909829   1.663935611082165 
  2.449569024036353  11.639488934399065   1.667336047907280 
  3.767766320506681  13.748528565940047   1.665171812071230 
 11.266202268341980   0.718492067628845   1.665561025031295 
 10.017915079306853   2.878342055988615   1.664773485767580 
  8.784395731025139   5.047168612679518   1.664007082292055 
  7.655633403615923   7.239370318261562   1.664441028781635 
  6.613072597409516   9.584112167980905   1.666256941251780 
  5.145856161253695  11.712302990847734   1.666432697285490 
  6.316251848461250  13.816456753543701   1.663098926949765 
 13.766778547538141   0.725939804560394   1.665447767150460 
 12.504630101797634   2.874738118558317   1.666224983912910 
 11.267288174562736   5.039786059973286   1.664660124571545 
 10.087314887190079   7.218269253946073   1.664523141334995 
  8.941846052811350   9.431804888707857   1.664501001702525 
  7.650340564102704  11.688463926194126   1.664293349176980 
  7.565783796217838  14.505360330949193   1.663803339562095 
 15.017179612416763   1.438900202407639   1.665285100341915 
 13.747028821858009   3.592502091259449   1.665588886289325 
 12.507287480667635   5.765656595113581   1.664774703191265 
 11.314602888311466   7.956582681860863   1.665139594579680 
 10.144394606071888  10.161351112717750   1.664972258449500 
  8.879957575499876  12.373491024577353   1.664328331887390 
 -7.465152036298517  14.482714610223068   1.665398850987525 
 -0.002780888844605   1.428540838719752   1.665328406165190 
 -1.296509661884547   3.573337374325697   1.664721907419660 
 -2.560715969126676   5.750823625322564   1.664637214504920 
 -3.788662583731814   7.943832448485785   1.664880344278935 
 -4.977781648374082  10.137359586760846   1.665482530395360 
 -6.201497302091227  12.319809357407358   1.666204196047815 
 -4.983679365475357  14.461942995692052   1.666224206237730 
  2.505020004993229   1.413289480419964   1.666329065040255 
  1.191317270655806   3.527916314887996   1.665460077259560 
 -0.100538678991551   5.712077929082589   1.665300147404430 
 -1.371278548930920   7.929853091806178   1.666453272499860 
 -2.563437627282518  10.130039171545706   1.666836335827665 
 -3.746581157722118  12.304874150411219   1.665737547535050 
 -2.501254209298001  14.458298804112987   1.665515297223060 
  5.015340690069751   1.417938841758878   1.666518382439955 
  3.716760390359817   3.512180697735642   1.665170980194165 
  2.358277632227876   5.618199644223836   1.663371710926305 
  1.029308691659685   7.884307289729890   1.665113690695620 
 -0.166277088058456  10.127704835357395   1.668045271417965 
 -1.284229747337769  12.305752662880618   1.666277363657565 
 -0.015727393856341  14.470634548297044   1.664603876957100 
  7.522155227663060   1.420507703752767   1.665661209206970 
  6.290706957374474   3.528909837427464   1.665054898599255 
  4.994173478642315   5.455427708914734   1.664229361890600 
  3.273307924042596   7.770445931506594   1.664844634888320 
  2.090359612642170  10.264123671207683   1.666985799023355 
  1.186479686682981  12.350632858081307   1.666514143713195 
  2.501680790568484  14.466435790908541   1.665380230889745 
 10.016289171219777   1.437772148082545   1.665133756240785 
  8.777150198370139   3.595203191016746   1.664630863761300 
  7.559806264170941   5.772883869749038   1.664139982920210 
  6.608875912498966   8.177622426345470   1.667558721202620 
  5.444841549040357  10.337400600251051   1.668414518895975 
  3.795451471172191  12.328286010692441   1.666879212101640 
  5.030896202121149  14.480085668677788   1.664527515146550 
 12.514187260414634   1.439635503020322   1.666524465271395 
 11.264351868821281   3.598912142234976   1.665525298869450 
 10.042173035214939   5.773106818254193   1.664458083785625 
  8.901329068087252   7.979251182991256   1.664654547833160 
  7.794727421162731  10.267823658140355   1.665276999175395 
  6.395875805572858  12.414565017525872   1.664524722780885 
  3.807660644154973   9.546478912046027   1.664913998586795 
