Se B N                                  
   1.0000000000000000     
     8.7639499999999995  -15.1796066749929999    0.0000000000000000
     8.7639499999999995   15.1796066749929999    0.0000000000000000
     0.0000000000000000    0.0000000000000000   15.0000000000000000
   Se   B    N 
     1    48    48
Selective dynamics
Direct
  0.5085430046565721  0.4914583972604143  0.1112393259613383   T   T   T
  0.9060128060184182  0.9534381579216539  0.1110161741009224   T   T   T
  0.9044809609460267  0.0955210602500101  0.1110145169282998   T   T   T
  0.9040554701088707  0.2382082250638966  0.1109770825243472   T   T   T
  0.9043389188913594  0.3810568947302342  0.1109308385175144   T   T   T
  0.9057808649609250  0.5241243863094291  0.1110625069442267   T   T   T
  0.9073157451956242  0.6675816906560609  0.1111667890147629   T   T   T
  0.9078562519570681  0.8114491263542665  0.1110780408288243   T   T   T
  0.0481627125829202  0.9518393086131214  0.1110202225528286   T   T   T
  0.0465638632743292  0.0939892151775683  0.1110161741009224   T   T   T
  0.0461369377338924  0.2371989694613952  0.1109679465734387   T   T   T
  0.0465992130592452  0.3804590743946745  0.1109834607275668   T   T   T
  0.0477975863459413  0.5235427711934328  0.1110300570225537   T   T   T
  0.0489263659781523  0.6664896606785760  0.1111339440756172   T   T   T
  0.0490399949800947  0.8093734684111958  0.1111126390355720   T   T   T
  0.1906285527848231  0.9509620262158879  0.1111126390355720   T   T   T
  0.1885528948417252  0.0921457692389460  0.1110780408288243   T   T   T
  0.1868922776749836  0.2342930482973315  0.1109721601535986   T   T   T
  0.1881041111265685  0.3791544037656057  0.1109971059094671   T   T   T
  0.1898499337631158  0.5230356908749383  0.1110826692673559   T   T   T
  0.1912945571743336  0.6660378690644894  0.1111068740100845   T   T   T
  0.1912993834232164  0.8087026377727764  0.1110822200676819   T   T   T
  0.3335123605184164  0.9510756552178392  0.1111339440756172   T   T   T
  0.3324203305409367  0.0926862760003749  0.1111667890147677   T   T   T
  0.3283518799190592  0.2314346082992584  0.1110222145347822   T   T   T
  0.3268100346201559  0.3737603459460437  0.1109217886389995   T   T   T
  0.3320805518453684  0.5226496025524007  0.1110273058647975   T   T   T
  0.3341527626143540  0.6658492585826556  0.1111391610408816   T   T   T
  0.3339641521324918  0.8087074640216758  0.1111068740100845   T   T   T
  0.4764592500035460  0.9522044348500538  0.1110300570225537   T   T   T
  0.4758776348875822  0.0942211562350829  0.1110625069442267   T   T   T
  0.4747479677394620  0.2355019324004774  0.1110481424857306   T   T   T
  0.4666736854011966  0.3689593881677683  0.1110052114513221   T   T   T
  0.4773524186445701  0.6679214693516751  0.1110273058647975   T   T   T
  0.4769663303220594  0.8101520874329075  0.1110826692673559   T   T   T
  0.6195429468013479  0.9534028081367502  0.1109834607275668   T   T   T
  0.6189451264657625  0.0956631023046341  0.1109308385175144   T   T   T
  0.6185888972517788  0.2383188780727550  0.1109581377864587   T   T   T
  0.6183896681018817  0.3816123530941182  0.1109739403366982   T   T   T
  0.6310426330282580  0.5333283357957820  0.1110052114513221   T   T   T
  0.6262416752499339  0.6731919865767929  0.1109217886389995   T   T   T
  0.6208476174303840  0.8118979100694543  0.1109971059094671   T   T   T
  0.7628030517346083  0.9538650834621359  0.1109679465734387   T   T   T
  0.7617937961321214  0.0959465510871403  0.1109770825243472   T   T   T
  0.7614811614463711  0.2385208597496122  0.1109434925575308   T   T   T
  0.7616831431232575  0.3814131239442050  0.1109581377864587   T   T   T
  0.7645000887955121  0.5252540534575525  0.1110481424857306   T   T   T
  0.7685674128967072  0.6716501412779452  0.1110222145347822   T   T   T
  0.7657089728986732  0.8131097435210336  0.1109721601535986   T   T   T
  0.9538103904525448  0.9058074830252237  0.1110088245424246   T   T   T
  0.9521379349196605  0.0478634669983637  0.1110125951161442   T   T   T
  0.9513575074020577  0.1903708723536962  0.1109771591765267   T   T   T
  0.9515159474694815  0.3332376045289094  0.1109290817705065   T   T   T
  0.9526009841763009  0.4761539861355794  0.1109631473393317   T   T   T
  0.9538741421821142  0.6192259700154346  0.1111403271692980   T   T   T
  0.9543151530538442  0.7625923923299791  0.1111274620753002   T   T   T
  0.0958241056368422  0.9041772962811985  0.1110367954421959   T   T   T
  0.0941939188927181  0.0461910114654517  0.1110088245424246   T   T   T
  0.0927030299170665  0.1884628096345312  0.1109673513143143   T   T   T
  0.0932830003661252  0.3321884080010208  0.1109616378778063   T   T   T
  0.0946831771404867  0.4755975235435535  0.1110118026317647   T   T   T
  0.0960419291424170  0.6186520604859140  0.1110786173322427   T   T   T
  0.0963076860818697  0.7615073373891466  0.1110919898809461   T   T   T
  0.2384940645288095  0.9036937158361137  0.1110919898809461   T   T   T
  0.2374090095880237  0.0456862488641590  0.1111274620753002   T   T   T
  0.2343123444061119  0.1862002321796210  0.1110065264380873   T   T   T
  0.2326095112525272  0.3285233670345700  0.1109349266050160   T   T   T
  0.2360600491969267  0.4745790979376429  0.1110380957464903   T   T   T
  0.2386337698527298  0.6183397000927173  0.1111051569097365   T   T   T
  0.2388257109831760  0.7611756909348294  0.1110804850972744   T   T   T
  0.3813493414321033  0.9039594727756252  0.1110786173322427   T   T   T
  0.3807754319025530  0.0461272597358874  0.1111403271692980   T   T   T
  0.3793658107845649  0.1874101252134264  0.1110995222450161   T   T   T
  0.3735378086617019  0.3248683122728854  0.1109307779855786   T   T   T
  0.3668881037820895  0.4658394621843506  0.1108419812185700   T   T   T
  0.3817784284670568  0.6182229734509486  0.1110866053789729   T   T   T
  0.3816617018252535  0.7613676320652827  0.1111051569097365   T   T   T
  0.5244038783733972  0.9053182247775334  0.1110118026317647   T   T   T
  0.5238474157814195  0.0474004177416936  0.1109631473393317   T   T   T
  0.5233117258224205  0.1894841755468688  0.1110124557039904   T   T   T
  0.5221888630922599  0.3311471449205147  0.1109726495237340   T   T   T
  0.5341619397326564  0.6331132981359108  0.1108419812185700   T   T   T
  0.5254223039793887  0.7639413527210822  0.1110380957464903   T   T   T
  0.6678129939160238  0.9067184015518613  0.1109616378778063   T   T   T
  0.6667637973880615  0.0484854544485469  0.1109290817705065   T   T   T
  0.6663072181049292  0.1909896547773807  0.1109071046525089   T   T   T
  0.6660114281837237  0.3339899737332628  0.1109382690395399   T   T   T
  0.6688542569965220  0.4778125388247382  0.1109726495237340   T   T   T
  0.6751330896441000  0.6264635932563308  0.1109307779855786   T   T   T
  0.6714780348823931  0.7673918906654564  0.1109349266050160   T   T   T
  0.8115385922835198  0.9072983720009333  0.1109673513143143   T   T   T
  0.8096305295642913  0.0486438945160159  0.1109771591765267   T   T   T
  0.8090172146900496  0.1909841872279695  0.1109528415883486   T   T   T
  0.8090117471406502  0.3336941838120473  0.1109071046525089   T   T   T
  0.8105172263711462  0.4766896760945651  0.1110124557039904   T   T   T
  0.8125912767046143  0.6206355911333936  0.1110995222450161   T   T   T
  0.8138011697384021  0.7656890575119191  0.1110065264380873   T   T   T

  0.00000000E+00  0.00000000E+00  0.00000000E+00
  0.00000000E+00  0.00000000E+00  0.00000000E+00
  0.00000000E+00  0.00000000E+00  0.00000000E+00
  0.00000000E+00  0.00000000E+00  0.00000000E+00
  0.00000000E+00  0.00000000E+00  0.00000000E+00
  0.00000000E+00  0.00000000E+00  0.00000000E+00
  0.00000000E+00  0.00000000E+00  0.00000000E+00
  0.00000000E+00  0.00000000E+00  0.00000000E+00
  0.00000000E+00  0.00000000E+00  0.00000000E+00
  0.00000000E+00  0.00000000E+00  0.00000000E+00
  0.00000000E+00  0.00000000E+00  0.00000000E+00
  0.00000000E+00  0.00000000E+00  0.00000000E+00
  0.00000000E+00  0.00000000E+00  0.00000000E+00
  0.00000000E+00  0.00000000E+00  0.00000000E+00
  0.00000000E+00  0.00000000E+00  0.00000000E+00
  0.00000000E+00  0.00000000E+00  0.00000000E+00
  0.00000000E+00  0.00000000E+00  0.00000000E+00
  0.00000000E+00  0.00000000E+00  0.00000000E+00
  0.00000000E+00  0.00000000E+00  0.00000000E+00
  0.00000000E+00  0.00000000E+00  0.00000000E+00
  0.00000000E+00  0.00000000E+00  0.00000000E+00
  0.00000000E+00  0.00000000E+00  0.00000000E+00
  0.00000000E+00  0.00000000E+00  0.00000000E+00
  0.00000000E+00  0.00000000E+00  0.00000000E+00
  0.00000000E+00  0.00000000E+00  0.00000000E+00
  0.00000000E+00  0.00000000E+00  0.00000000E+00
  0.00000000E+00  0.00000000E+00  0.00000000E+00
  0.00000000E+00  0.00000000E+00  0.00000000E+00
  0.00000000E+00  0.00000000E+00  0.00000000E+00
  0.00000000E+00  0.00000000E+00  0.00000000E+00
  0.00000000E+00  0.00000000E+00  0.00000000E+00
  0.00000000E+00  0.00000000E+00  0.00000000E+00
  0.00000000E+00  0.00000000E+00  0.00000000E+00
  0.00000000E+00  0.00000000E+00  0.00000000E+00
  0.00000000E+00  0.00000000E+00  0.00000000E+00
  0.00000000E+00  0.00000000E+00  0.00000000E+00
  0.00000000E+00  0.00000000E+00  0.00000000E+00
  0.00000000E+00  0.00000000E+00  0.00000000E+00
  0.00000000E+00  0.00000000E+00  0.00000000E+00
  0.00000000E+00  0.00000000E+00  0.00000000E+00
  0.00000000E+00  0.00000000E+00  0.00000000E+00
  0.00000000E+00  0.00000000E+00  0.00000000E+00
  0.00000000E+00  0.00000000E+00  0.00000000E+00
  0.00000000E+00  0.00000000E+00  0.00000000E+00
  0.00000000E+00  0.00000000E+00  0.00000000E+00
  0.00000000E+00  0.00000000E+00  0.00000000E+00
  0.00000000E+00  0.00000000E+00  0.00000000E+00
  0.00000000E+00  0.00000000E+00  0.00000000E+00
  0.00000000E+00  0.00000000E+00  0.00000000E+00
  0.00000000E+00  0.00000000E+00  0.00000000E+00
  0.00000000E+00  0.00000000E+00  0.00000000E+00
  0.00000000E+00  0.00000000E+00  0.00000000E+00
  0.00000000E+00  0.00000000E+00  0.00000000E+00
  0.00000000E+00  0.00000000E+00  0.00000000E+00
  0.00000000E+00  0.00000000E+00  0.00000000E+00
  0.00000000E+00  0.00000000E+00  0.00000000E+00
  0.00000000E+00  0.00000000E+00  0.00000000E+00
  0.00000000E+00  0.00000000E+00  0.00000000E+00
  0.00000000E+00  0.00000000E+00  0.00000000E+00
  0.00000000E+00  0.00000000E+00  0.00000000E+00
  0.00000000E+00  0.00000000E+00  0.00000000E+00
  0.00000000E+00  0.00000000E+00  0.00000000E+00
  0.00000000E+00  0.00000000E+00  0.00000000E+00
  0.00000000E+00  0.00000000E+00  0.00000000E+00
  0.00000000E+00  0.00000000E+00  0.00000000E+00
  0.00000000E+00  0.00000000E+00  0.00000000E+00
  0.00000000E+00  0.00000000E+00  0.00000000E+00
  0.00000000E+00  0.00000000E+00  0.00000000E+00
  0.00000000E+00  0.00000000E+00  0.00000000E+00
  0.00000000E+00  0.00000000E+00  0.00000000E+00
  0.00000000E+00  0.00000000E+00  0.00000000E+00
  0.00000000E+00  0.00000000E+00  0.00000000E+00
  0.00000000E+00  0.00000000E+00  0.00000000E+00
  0.00000000E+00  0.00000000E+00  0.00000000E+00
  0.00000000E+00  0.00000000E+00  0.00000000E+00
  0.00000000E+00  0.00000000E+00  0.00000000E+00
  0.00000000E+00  0.00000000E+00  0.00000000E+00
  0.00000000E+00  0.00000000E+00  0.00000000E+00
  0.00000000E+00  0.00000000E+00  0.00000000E+00
  0.00000000E+00  0.00000000E+00  0.00000000E+00
  0.00000000E+00  0.00000000E+00  0.00000000E+00
  0.00000000E+00  0.00000000E+00  0.00000000E+00
  0.00000000E+00  0.00000000E+00  0.00000000E+00
  0.00000000E+00  0.00000000E+00  0.00000000E+00
  0.00000000E+00  0.00000000E+00  0.00000000E+00
  0.00000000E+00  0.00000000E+00  0.00000000E+00
  0.00000000E+00  0.00000000E+00  0.00000000E+00
  0.00000000E+00  0.00000000E+00  0.00000000E+00
  0.00000000E+00  0.00000000E+00  0.00000000E+00
  0.00000000E+00  0.00000000E+00  0.00000000E+00
  0.00000000E+00  0.00000000E+00  0.00000000E+00
  0.00000000E+00  0.00000000E+00  0.00000000E+00
  0.00000000E+00  0.00000000E+00  0.00000000E+00
  0.00000000E+00  0.00000000E+00  0.00000000E+00
  0.00000000E+00  0.00000000E+00  0.00000000E+00
  0.00000000E+00  0.00000000E+00  0.00000000E+00
  0.00000000E+00  0.00000000E+00  0.00000000E+00
