Species order: X N B                    
   2.51242800000000     
     5.9449720136058266    0.0000000000000000    0.0000000000000000
    -2.9724860068029120    5.1484967885702053   -0.0000000000000001
     0.0000000000000000    0.0000000000000009    5.3101128803662583
   Pb   N    B 
     1   143   143
Direct
  0.5119621421473020  0.4226477377403152  0.3750000000000000
  0.1110358219692933  0.0555235449835941  0.1249298789300972
  0.6114443187068316  0.5560464299144897  0.1228551960557752
  0.4445140236173551  0.0555886346750323  0.1249338525249621
  0.9444726327341531  0.5555448659792700  0.1248544990274251
  0.7778436256178238  0.0555884794755801  0.1247923911245565
  0.1111433838043546  0.7222383585688411  0.6251473460200899
  0.4445140236173551  0.7222587222756591  0.6250661474750384
  0.2775229098650256  0.2220766429692740  0.6260608034264965
  0.7778983498719904  0.7224318126290237  0.6257957927799725
  0.6112321374631418  0.2221427743780902  0.6258048131170036
  0.9444299548287940  0.2221899574067173  0.6251547769435427
  0.2778300271245500  0.7222394174713503  0.1248907344763090
  0.1109614742973470  0.2221474038153378  0.1248848497691700
  0.4445029608778886  0.2222591751262753  0.1242692442575104
  0.6112321374631418  0.7224226964183803  0.1241951868829964
  0.9444726327341531  0.7222611000882183  0.1248544990274251
  0.7778629821749048  0.2221638577747038  0.1248373634835688
  0.1111319675368143  0.8889185195545264  0.6251436393249614
  0.4445162087262267  0.8889247710297776  0.6251608863639116
  0.2775229098650256  0.3887796002290800  0.6260608034264965
  0.6114443187068316  0.3887312221256708  0.6271448039442248
  0.7778629821749048  0.8890324577335287  0.6251626365164310
  0.9444740508670297  0.3888529523534417  0.6250770000567837
  0.1110358219692933  0.3888456103190276  0.1249298789300972
  0.2778300271245500  0.8889239429865285  0.1248907344763090
  0.6111954892904771  0.8889750961136530  0.1248448113438825
  0.4437879332239432  0.3885606332786357  0.1226713140739009
  0.9444740508670297  0.8889544318469158  0.1249229999432157
  0.7778983498719904  0.3887998705762948  0.1242042072200272
  0.2778009702552567  0.5555480346194245  0.6250681532121490
  0.1110358219692933  0.0555235449835941  0.6250701210699022
  0.6114443187068316  0.5560464299144897  0.6271448039442248
  0.4445140236173551  0.0555886346750323  0.6250661474750384
  0.9444726327341531  0.5555448659792700  0.6251455009725756
  0.1111319675368143  0.5555467813156169  0.1248563606750383
  0.7778436256178238  0.0555884794755801  0.6252076088754427
  0.2778009702552567  0.0555862689691687  0.1249318467878511
  0.4445029608778886  0.5555771190849490  0.1242692442575104
  0.7778475575477142  0.5555904454405238  0.1242500400761251
  0.6111954892904771  0.0555537265101521  0.1248448113438825
  0.4445029608778886  0.5555771190849490  0.6257307557424895
  0.9444299548287940  0.0555733307554125  0.1248452230564568
  0.2778300271245500  0.7222394174713503  0.6251092655236915
  0.1109614742973470  0.2221474038153378  0.6251151502308303
  0.4445029608778886  0.2222591751262753  0.6257307557424895
  0.6112321374631418  0.7224226964183803  0.6258048131170036
  0.9444726327341531  0.7222611000882183  0.6251455009725756
  0.7778629821749048  0.2221638577747038  0.6251626365164310
  0.1111433838043546  0.7222383585688411  0.1248526539799106
  0.4445140236173551  0.7222587222756591  0.1249338525249621
  0.2775229098650256  0.2220766429692740  0.1239391965735026
  0.7778983498719904  0.7224318126290237  0.1242042072200272
  0.6112321374631418  0.2221427743780902  0.1241951868829964
  0.9444299548287940  0.2221899574067173  0.1248452230564568
  0.1110358219692933  0.3888456103190276  0.6250701210699022
  0.2778300271245500  0.8889239429865285  0.6251092655236915
  0.6111954892904771  0.8889750961136530  0.6251551886561172
  0.4437879332239434  0.3885606332786357  0.6273286859260999
  0.9444740508670297  0.8889544318469158  0.6250770000567837
  0.1111319675368143  0.8889185195545264  0.1248563606750383
  0.7778983498719904  0.3887998705762948  0.6257957927799725
  0.4445162087262267  0.8889247710297776  0.1248391136360876
  0.2775229098650256  0.3887796002290800  0.1239391965735026
  0.2778009702552567  0.5555480346194245  0.1249318467878511
  0.6114443187068316  0.3887312221256708  0.1228551960557752
  0.7778629821749048  0.8890324577335287  0.1248373634835688
  0.9444740508670297  0.3888529523534417  0.1249229999432157
  0.1111319675368143  0.5555467813156169  0.6251436393249614
  0.2778009702552567  0.0555862689691687  0.6250681532121490
  0.7778475575477142  0.5555904454405238  0.6257499599238753
  0.6111954892904771  0.0555537265101521  0.6251551886561172
  0.9444299548287940  0.0555733307554125  0.6251547769435427
  0.0570020906117346  0.1119654926425916  0.3750000000000000
  0.5540803644347597  0.6265356202076495  0.3750000000000000
  0.3852085134521863  0.1010229761132421  0.3750000000000000
  0.8845546568092619  0.6089439950713023  0.3750000000000000
  0.7232636940178774  0.1100659999740227  0.3750000000000000
  0.0555833737073619  0.7777883101537258  0.8750000000000000
  0.3888749596698491  0.7777849057234303  0.8750000000000000
  0.2222374093095789  0.2777853713214573  0.8750000000000000
  0.7222136194647534  0.7777549373009170  0.8750000000000000
  0.5555197726904142  0.2777472122844678  0.8750000000000000
  0.8888900496117225  0.2777905895149603  0.8750000000000000
  0.2182330443360031  0.7757831888346689  0.3750000000000000
  0.0570020906117346  0.2783699313024786  0.3750000000000000
  0.3853215882470238  0.2625024680788492  0.3750000000000000
  0.5542209013038498  0.7843365238759757  0.3750000000000000
  0.8886395649649034  0.7790037726082482  0.3750000000000000
  0.7232763709692398  0.2741184904089781  0.3750000000000000
  0.0555589151378543  0.9444370502760424  0.8750000000000000
  0.3888749596698491  0.9444233872797543  0.8750000000000000
  0.2222180930948844  0.4444607626653012  0.8750000000000000
  0.5555482289734934  0.4444407811534110  0.8750000000000000
  0.7222136018529384  0.9444325588335852  0.8750000000000000
  0.8889105519583843  0.4444681063561062  0.8750000000000000
  0.0543185482465579  0.4443546735147275  0.3750000000000000
  0.2184711665907025  0.9403124922847780  0.3750000000000000
  0.5543979778871129  0.9438656556102216  0.3750000000000000
  0.3853215882470239  0.4561524535015097  0.3750000000000000
  0.8902391116797841  0.9463170696923454  0.3750000000000000
  0.7225154424184508  0.4401153336258505  0.3750000000000000
  0.2222112265786608  0.6111239874495480  0.8750000000000000
  0.0555640716277927  0.1111112566410873  0.8750000000000000
  0.5555197726904142  0.6111058937392817  0.8750000000000000
  0.3888602400893987  0.1110630698227558  0.8750000000000000
  0.8889548141961875  0.6111440737647638  0.8750000000000000
  0.0518781254843286  0.6097926265685324  0.3750000000000000
  0.7222136018529384  0.1111143763526885  0.8750000000000000
  0.2198656321826093  0.1071174796989468  0.3750000000000000
  0.3852085134521863  0.6175188706722878  0.3750000000000000
  0.7225154424184508  0.6157334421259374  0.3750000000000000
  0.5542209013038498  0.1032177107612103  0.3750000000000000
  0.3888602400893987  0.6111305035999854  0.8750000000000000
  0.8906238056552628  0.1119785694943023  0.3750000000000000
  0.2222252961920241  0.7777793147626797  0.8750000000000000
  0.0555640716277927  0.2777861483200411  0.8750000000000000
  0.3888851728161739  0.2777369351308187  0.8750000000000000
  0.5555337603567883  0.7777700494443538  0.8750000000000000
  0.8889105519583843  0.7777757789356131  0.8750000000000000
  0.7222136194647534  0.2777920154971724  0.8750000000000000
  0.0518781254843286  0.7754188322491306  0.3750000000000000
  0.3856038110525542  0.7788108044331584  0.3750000000000000
  0.2248238359300826  0.2790785846317093  0.3750000000000000
  0.7232763709692398  0.7824912138935978  0.3750000000000000
  0.5540803644347597  0.2608780775604453  0.3750000000000000
  0.8902391116797841  0.2772553753207759  0.3750000000000000
  0.0555589151378543  0.4444551981951404  0.8750000000000000
  0.2222112265786608  0.9444205724624473  0.8750000000000000
  0.5555426992200996  0.9444380162767151  0.8750000000000000
  0.3888851728161739  0.4444815710186905  0.8750000000000000
  0.8888900496117225  0.9444327934300970  0.8750000000000000
  0.0543185482465579  0.9432972080651594  0.3750000000000000
  0.7222645626694348  0.4444857960803580  0.8750000000000000
  0.3856038110525542  0.9401263399527326  0.3750000000000000
  0.2198656321826093  0.4460814858169982  0.3750000000000000
  0.2184711665907025  0.6114920076392605  0.3750000000000000
  0.7232636940178773  0.9465310273771907  0.3750000000000000
  0.8886395649649034  0.4429691256899909  0.3750000000000000
  0.0555833737073619  0.6111283968869720  0.8750000000000000
  0.2222180930948844  0.1110906637629198  0.8750000000000000
  0.7222645626694348  0.6111120999224126  0.8750000000000000
  0.5555337603567883  0.1110970442457700  0.8750000000000000
  0.8888919989015701  0.1111126661174557  0.8750000000000000
  0.1106936403725351  0.0544219129427385  0.3750000000000000
  0.6127143981451996  0.5767848107797557  0.3750000000000000
  0.4426456774733810  0.0496431299325385  0.3750000000000000
  0.9408098043884587  0.5539481224911318  0.3750000000000000
  0.7796994265767629  0.0565163799550494  0.3750000000000000
  0.1111083835371820  0.7222208584352554  0.8750000000000000
  0.4444225081403301  0.7221393055153504  0.8750000000000000
  0.2779465382275579  0.2223281772542934  0.8750000000000000
  0.7776779148870544  0.7220532339179945  0.8750000000000000
  0.6110262598002383  0.2223240237766309  0.8750000000000000
  0.9444753600774906  0.2222597107056156  0.8750000000000000
  0.2746107206781560  0.7218343402758239  0.3750000000000000
  0.1147174417908102  0.2240253875620694  0.3750000000000000
  0.4408462561602400  0.2109644683587095  0.3750000000000000
  0.6114296648029905  0.7323925835834869  0.3750000000000000
  0.9408098043884587  0.7201950152306621  0.3750000000000000
  0.7793510776074334  0.2208542921276948  0.3750000000000000
  0.1111299107628072  0.8888935843356881  0.8750000000000000
  0.4444225083604211  0.8888779208468746  0.8750000000000000
  0.2779465382275579  0.3889516943065928  0.8750000000000000
  0.6110123108812309  0.3889617262883513  0.8750000000000000
  0.7777201538777476  0.8887715916826345  0.8750000000000000
  0.9444295285972258  0.3889322139261453  0.8750000000000000
  0.1106936403725351  0.3896050607631252  0.3750000000000000
  0.2746107206781560  0.8861097137356593  0.3750000000000000
  0.6117718864492582  0.8923114799582498  0.3750000000000000
  0.9442388914464217  0.8894041219454241  0.3750000000000000
  0.7781324893992116  0.3861017969776858  0.3750000000000000
  0.2778400321880373  0.5555515003818641  0.8750000000000000
  0.1111948664713254  0.0555981656812900  0.8750000000000000
  0.6110123108812309  0.5553839179262084  0.8750000000000000
  0.4444225081403301  0.0556165359583153  0.8750000000000000
  0.9444073636396165  0.5555720695894799  0.8750000000000000
  0.1080943821430680  0.5551131234626515  0.3750000000000000
  0.7777499639828275  0.0555416486580819  0.8750000000000000
  0.2748963458933779  0.0511487991087599  0.3750000000000000
  0.4408462561602400  0.5632151211348656  0.3750000000000000
  0.7718897798798627  0.5526115566065987  0.3750000000000000
  0.6117718864492582  0.0527937398243378  0.3750000000000000
  0.4444778404361218  0.5554789379184498  0.8750000000000000
  0.9465965056079942  0.0571227454818225  0.3750000000000000
  0.2777877201727229  0.7222093326607650  0.8750000000000000
  0.1112484053752833  0.2222908693543060  0.8750000000000000
  0.4444778404361218  0.2223322358510071  0.8750000000000000
  0.6110262598002383  0.7220355693569368  0.8750000000000000
  0.9444073636396165  0.7221686273834722  0.8750000000000000
  0.7777201538777476  0.2222818955284412  0.8750000000000000
  0.1074152531350753  0.7203742932342023  0.3750000000000000
  0.4426456774733810  0.7263358808741794  0.3750000000000000
  0.2795712321465013  0.2200115728015109  0.3750000000000000
  0.7781324893992116  0.7253640257548543  0.3750000000000000
  0.6114296648029905  0.2123704145528321  0.3750000000000000
  0.9465965056079942  0.2228070934595069  0.3750000000000000
  0.1111948664713254  0.3889300341233643  0.8750000000000000
  0.2777877201727229  0.8889117208452859  0.8750000000000000
  0.6110602444560363  0.8888108482841764  0.8750000000000000
  0.4445734430246343  0.3889533881789815  0.8750000000000000
  0.9444295285972258  0.8888306480044095  0.8750000000000000
  0.1080943821430680  0.8863145920137447  0.3750000000000000
  0.7776779148870544  0.3889580143023892  0.8750000000000000
  0.4428571485756211  0.8880952409544740  0.3750000000000000
  0.2795712321465013  0.3928929926783188  0.3750000000000000
  0.2748963458933779  0.5570808801179522  0.3750000000000000
  0.6127143981451996  0.3692629206987739  0.3750000000000000
  0.7793510776074334  0.8918301188130671  0.3750000000000000
  0.9442388914464217  0.3881681028343260  0.3750000000000000
  0.1111299107628072  0.5555696597604478  0.8750000000000000
  0.2778400321880373  0.0556218651395076  0.8750000000000000
  0.7776809509429703  0.5555071421381522  0.8750000000000000
  0.6110602444560363  0.0555827295051883  0.8750000000000000
  0.9444753600774906  0.0555489827052107  0.8750000000000000
  0.0556192169099938  0.1111921867606291  0.1253026646514392
  0.5557602206123985  0.6108619504791934  0.1246390599121108
  0.3891363430556828  0.1116004522204502  0.1253794237974932
  0.8885021149937289  0.6109177241635354  0.1250960271162117
  0.7222675109527754  0.1111464016140664  0.1251383993502837
  0.0554712367656510  0.7777753356621648  0.6248657439399177
  0.3890415320143623  0.7777309511625604  0.6247885560611435
  0.2223496142787635  0.2778414738060496  0.6249522244793703
  0.7221655352877336  0.7777067075606473  0.6251039568406848
  0.5557602206123985  0.2782316034665410  0.6253609400878888
  0.8888800352666845  0.2777433122892247  0.6248176078352145
  0.2222981902789352  0.7778157618061355  0.1251135637015690
  0.0556192169099938  0.2777603634827006  0.1253026646514392
  0.3889645406206783  0.2781474699502482  0.1247748349322851
  0.5556702086271429  0.7776800214467969  0.1251039781031630
  0.8887189324879081  0.7777194391155284  0.1250286992282492
  0.7221655352877336  0.2777921610604219  0.1248960431593159
  0.0555762985636431  0.9445429673944836  0.6247492297297669
  0.3890415320143623  0.9446439141851375  0.6247885560611435
  0.2223571896892782  0.4443168710024271  0.6247580614520918
  0.5553667007944694  0.4443500170638990  0.6180611755936390
  0.7222675109527754  0.9444544426720455  0.6248616006497163
  0.8887189324879081  0.4443328267057150  0.6249713007717506
  0.0555762985636431  0.4443666645024876  0.1252507702702326
  0.2223567307790022  0.9446821764346203  0.1252432393732161
  0.5556620187674174  0.9444976760503725  0.1251599773844699
  0.3889645406206783  0.4441504040037656  0.1247748349322851
  0.8888800352666845  0.9444700563107953  0.1251823921647865
  0.7217270835862069  0.4441606285765436  0.1242324404021236
  0.2223567307790022  0.6110078876777171  0.6247567606267835
  0.0556192169099938  0.1111921867606291  0.6246973353485602
  0.5557602206123985  0.6108619504791934  0.6253609400878888
  0.3891363430556828  0.1116004522204502  0.6246205762025062
  0.8885021149937289  0.6109177241635354  0.6249039728837879
  0.0554712367656510  0.6110292344368217  0.1251342560600824
  0.7222675109527754  0.1111464016140664  0.6248616006497163
  0.2223571896892782  0.1113736520201868  0.1252419385479083
  0.3891363430556828  0.6108692241685761  0.1253794237974932
  0.7217270835862069  0.6108997883429986  0.1242324404021236
  0.5556702086271429  0.1113235205136817  0.1251039781031630
  0.3891363430556828  0.6108692241685761  0.6246205762025062
  0.8889232454037428  0.1111282893685428  0.1251130476971659
  0.2222981902789352  0.7778157618061355  0.6248864362984308
  0.0556192169099938  0.2777603634827006  0.6246973353485602
  0.3889645406206783  0.2781474699502482  0.6252251650677150
  0.5556702086271429  0.7776800214467969  0.6248960218968370
  0.8887189324879081  0.7777194391155284  0.6249713007717506
  0.7221655352877336  0.2777921610604219  0.6251039568406848
  0.0554712367656510  0.7777753356621648  0.1251342560600824
  0.3890415320143623  0.7777309511625604  0.1252114439388562
  0.2223496142787635  0.2778414738060496  0.1250477755206296
  0.7221655352877336  0.7777067075606473  0.1248960431593159
  0.5557602206123985  0.2782316034665410  0.1246390599121108
  0.8888800352666845  0.2777433122892247  0.1251823921647865
  0.0555762985636431  0.4443666645024876  0.6247492297297669
  0.2223567307790022  0.9446821764346203  0.6247567606267835
  0.5556620187674174  0.9444976760503725  0.6248400226155311
  0.3889645406206783  0.4441504040037656  0.6252251650677150
  0.8888800352666845  0.9444700563107953  0.6248176078352145
  0.0555762985636431  0.9445429673944836  0.1252507702702326
  0.7217270835862069  0.4441606285765436  0.6257675595978761
  0.3890415320143623  0.9446439141851375  0.1252114439388562
  0.2223571896892782  0.4443168710024271  0.1252419385479083
  0.2223567307790022  0.6110078876777171  0.1252432393732161
  0.5553667007944694  0.4443500170638990  0.1319388244063604
  0.7222675109527754  0.9444544426720455  0.1251383993502837
  0.8887189324879081  0.4443328267057150  0.1250286992282492
  0.0554712367656510  0.6110292344368217  0.6248657439399177
  0.2223571896892782  0.1113736520201868  0.6247580614520918
  0.7217270835862069  0.6108997883429986  0.6257675595978761
  0.5556702086271429  0.1113235205136817  0.6248960218968370
  0.8889232454037428  0.1111282893685428  0.6248869523028346
 
  0.00000000E+00  0.00000000E+00  0.00000000E+00
  0.00000000E+00  0.00000000E+00  0.00000000E+00
  0.00000000E+00  0.00000000E+00  0.00000000E+00
  0.00000000E+00  0.00000000E+00  0.00000000E+00
  0.00000000E+00  0.00000000E+00  0.00000000E+00
  0.00000000E+00  0.00000000E+00  0.00000000E+00
  0.00000000E+00  0.00000000E+00  0.00000000E+00
  0.00000000E+00  0.00000000E+00  0.00000000E+00
  0.00000000E+00  0.00000000E+00  0.00000000E+00
  0.00000000E+00  0.00000000E+00  0.00000000E+00
  0.00000000E+00  0.00000000E+00  0.00000000E+00
  0.00000000E+00  0.00000000E+00  0.00000000E+00
  0.00000000E+00  0.00000000E+00  0.00000000E+00
  0.00000000E+00  0.00000000E+00  0.00000000E+00
  0.00000000E+00  0.00000000E+00  0.00000000E+00
  0.00000000E+00  0.00000000E+00  0.00000000E+00
  0.00000000E+00  0.00000000E+00  0.00000000E+00
  0.00000000E+00  0.00000000E+00  0.00000000E+00
  0.00000000E+00  0.00000000E+00  0.00000000E+00
  0.00000000E+00  0.00000000E+00  0.00000000E+00
  0.00000000E+00  0.00000000E+00  0.00000000E+00
  0.00000000E+00  0.00000000E+00  0.00000000E+00
  0.00000000E+00  0.00000000E+00  0.00000000E+00
  0.00000000E+00  0.00000000E+00  0.00000000E+00
  0.00000000E+00  0.00000000E+00  0.00000000E+00
  0.00000000E+00  0.00000000E+00  0.00000000E+00
  0.00000000E+00  0.00000000E+00  0.00000000E+00
  0.00000000E+00  0.00000000E+00  0.00000000E+00
  0.00000000E+00  0.00000000E+00  0.00000000E+00
  0.00000000E+00  0.00000000E+00  0.00000000E+00
  0.00000000E+00  0.00000000E+00  0.00000000E+00
  0.00000000E+00  0.00000000E+00  0.00000000E+00
  0.00000000E+00  0.00000000E+00  0.00000000E+00
  0.00000000E+00  0.00000000E+00  0.00000000E+00
  0.00000000E+00  0.00000000E+00  0.00000000E+00
  0.00000000E+00  0.00000000E+00  0.00000000E+00
  0.00000000E+00  0.00000000E+00  0.00000000E+00
  0.00000000E+00  0.00000000E+00  0.00000000E+00
  0.00000000E+00  0.00000000E+00  0.00000000E+00
  0.00000000E+00  0.00000000E+00  0.00000000E+00
  0.00000000E+00  0.00000000E+00  0.00000000E+00
  0.00000000E+00  0.00000000E+00  0.00000000E+00
  0.00000000E+00  0.00000000E+00  0.00000000E+00
  0.00000000E+00  0.00000000E+00  0.00000000E+00
  0.00000000E+00  0.00000000E+00  0.00000000E+00
  0.00000000E+00  0.00000000E+00  0.00000000E+00
  0.00000000E+00  0.00000000E+00  0.00000000E+00
  0.00000000E+00  0.00000000E+00  0.00000000E+00
  0.00000000E+00  0.00000000E+00  0.00000000E+00
  0.00000000E+00  0.00000000E+00  0.00000000E+00
  0.00000000E+00  0.00000000E+00  0.00000000E+00
  0.00000000E+00  0.00000000E+00  0.00000000E+00
  0.00000000E+00  0.00000000E+00  0.00000000E+00
  0.00000000E+00  0.00000000E+00  0.00000000E+00
  0.00000000E+00  0.00000000E+00  0.00000000E+00
  0.00000000E+00  0.00000000E+00  0.00000000E+00
  0.00000000E+00  0.00000000E+00  0.00000000E+00
  0.00000000E+00  0.00000000E+00  0.00000000E+00
  0.00000000E+00  0.00000000E+00  0.00000000E+00
  0.00000000E+00  0.00000000E+00  0.00000000E+00
  0.00000000E+00  0.00000000E+00  0.00000000E+00
  0.00000000E+00  0.00000000E+00  0.00000000E+00
  0.00000000E+00  0.00000000E+00  0.00000000E+00
  0.00000000E+00  0.00000000E+00  0.00000000E+00
  0.00000000E+00  0.00000000E+00  0.00000000E+00
  0.00000000E+00  0.00000000E+00  0.00000000E+00
  0.00000000E+00  0.00000000E+00  0.00000000E+00
  0.00000000E+00  0.00000000E+00  0.00000000E+00
  0.00000000E+00  0.00000000E+00  0.00000000E+00
  0.00000000E+00  0.00000000E+00  0.00000000E+00
  0.00000000E+00  0.00000000E+00  0.00000000E+00
  0.00000000E+00  0.00000000E+00  0.00000000E+00
  0.00000000E+00  0.00000000E+00  0.00000000E+00
  0.00000000E+00  0.00000000E+00  0.00000000E+00
  0.00000000E+00  0.00000000E+00  0.00000000E+00
  0.00000000E+00  0.00000000E+00  0.00000000E+00
  0.00000000E+00  0.00000000E+00  0.00000000E+00
  0.00000000E+00  0.00000000E+00  0.00000000E+00
  0.00000000E+00  0.00000000E+00  0.00000000E+00
  0.00000000E+00  0.00000000E+00  0.00000000E+00
  0.00000000E+00  0.00000000E+00  0.00000000E+00
  0.00000000E+00  0.00000000E+00  0.00000000E+00
  0.00000000E+00  0.00000000E+00  0.00000000E+00
  0.00000000E+00  0.00000000E+00  0.00000000E+00
  0.00000000E+00  0.00000000E+00  0.00000000E+00
  0.00000000E+00  0.00000000E+00  0.00000000E+00
  0.00000000E+00  0.00000000E+00  0.00000000E+00
  0.00000000E+00  0.00000000E+00  0.00000000E+00
  0.00000000E+00  0.00000000E+00  0.00000000E+00
  0.00000000E+00  0.00000000E+00  0.00000000E+00
  0.00000000E+00  0.00000000E+00  0.00000000E+00
  0.00000000E+00  0.00000000E+00  0.00000000E+00
  0.00000000E+00  0.00000000E+00  0.00000000E+00
  0.00000000E+00  0.00000000E+00  0.00000000E+00
  0.00000000E+00  0.00000000E+00  0.00000000E+00
  0.00000000E+00  0.00000000E+00  0.00000000E+00
  0.00000000E+00  0.00000000E+00  0.00000000E+00
  0.00000000E+00  0.00000000E+00  0.00000000E+00
  0.00000000E+00  0.00000000E+00  0.00000000E+00
  0.00000000E+00  0.00000000E+00  0.00000000E+00
  0.00000000E+00  0.00000000E+00  0.00000000E+00
  0.00000000E+00  0.00000000E+00  0.00000000E+00
  0.00000000E+00  0.00000000E+00  0.00000000E+00
  0.00000000E+00  0.00000000E+00  0.00000000E+00
  0.00000000E+00  0.00000000E+00  0.00000000E+00
  0.00000000E+00  0.00000000E+00  0.00000000E+00
  0.00000000E+00  0.00000000E+00  0.00000000E+00
  0.00000000E+00  0.00000000E+00  0.00000000E+00
  0.00000000E+00  0.00000000E+00  0.00000000E+00
  0.00000000E+00  0.00000000E+00  0.00000000E+00
  0.00000000E+00  0.00000000E+00  0.00000000E+00
  0.00000000E+00  0.00000000E+00  0.00000000E+00
  0.00000000E+00  0.00000000E+00  0.00000000E+00
  0.00000000E+00  0.00000000E+00  0.00000000E+00
  0.00000000E+00  0.00000000E+00  0.00000000E+00
  0.00000000E+00  0.00000000E+00  0.00000000E+00
  0.00000000E+00  0.00000000E+00  0.00000000E+00
  0.00000000E+00  0.00000000E+00  0.00000000E+00
  0.00000000E+00  0.00000000E+00  0.00000000E+00
  0.00000000E+00  0.00000000E+00  0.00000000E+00
  0.00000000E+00  0.00000000E+00  0.00000000E+00
  0.00000000E+00  0.00000000E+00  0.00000000E+00
  0.00000000E+00  0.00000000E+00  0.00000000E+00
  0.00000000E+00  0.00000000E+00  0.00000000E+00
  0.00000000E+00  0.00000000E+00  0.00000000E+00
  0.00000000E+00  0.00000000E+00  0.00000000E+00
  0.00000000E+00  0.00000000E+00  0.00000000E+00
  0.00000000E+00  0.00000000E+00  0.00000000E+00
  0.00000000E+00  0.00000000E+00  0.00000000E+00
  0.00000000E+00  0.00000000E+00  0.00000000E+00
  0.00000000E+00  0.00000000E+00  0.00000000E+00
  0.00000000E+00  0.00000000E+00  0.00000000E+00
  0.00000000E+00  0.00000000E+00  0.00000000E+00
  0.00000000E+00  0.00000000E+00  0.00000000E+00
  0.00000000E+00  0.00000000E+00  0.00000000E+00
  0.00000000E+00  0.00000000E+00  0.00000000E+00
  0.00000000E+00  0.00000000E+00  0.00000000E+00
  0.00000000E+00  0.00000000E+00  0.00000000E+00
  0.00000000E+00  0.00000000E+00  0.00000000E+00
  0.00000000E+00  0.00000000E+00  0.00000000E+00
  0.00000000E+00  0.00000000E+00  0.00000000E+00
  0.00000000E+00  0.00000000E+00  0.00000000E+00
  0.00000000E+00  0.00000000E+00  0.00000000E+00
  0.00000000E+00  0.00000000E+00  0.00000000E+00
  0.00000000E+00  0.00000000E+00  0.00000000E+00
  0.00000000E+00  0.00000000E+00  0.00000000E+00
  0.00000000E+00  0.00000000E+00  0.00000000E+00
  0.00000000E+00  0.00000000E+00  0.00000000E+00
  0.00000000E+00  0.00000000E+00  0.00000000E+00
  0.00000000E+00  0.00000000E+00  0.00000000E+00
  0.00000000E+00  0.00000000E+00  0.00000000E+00
  0.00000000E+00  0.00000000E+00  0.00000000E+00
  0.00000000E+00  0.00000000E+00  0.00000000E+00
  0.00000000E+00  0.00000000E+00  0.00000000E+00
  0.00000000E+00  0.00000000E+00  0.00000000E+00
  0.00000000E+00  0.00000000E+00  0.00000000E+00
  0.00000000E+00  0.00000000E+00  0.00000000E+00
  0.00000000E+00  0.00000000E+00  0.00000000E+00
  0.00000000E+00  0.00000000E+00  0.00000000E+00
  0.00000000E+00  0.00000000E+00  0.00000000E+00
  0.00000000E+00  0.00000000E+00  0.00000000E+00
  0.00000000E+00  0.00000000E+00  0.00000000E+00
  0.00000000E+00  0.00000000E+00  0.00000000E+00
  0.00000000E+00  0.00000000E+00  0.00000000E+00
  0.00000000E+00  0.00000000E+00  0.00000000E+00
  0.00000000E+00  0.00000000E+00  0.00000000E+00
  0.00000000E+00  0.00000000E+00  0.00000000E+00
  0.00000000E+00  0.00000000E+00  0.00000000E+00
  0.00000000E+00  0.00000000E+00  0.00000000E+00
  0.00000000E+00  0.00000000E+00  0.00000000E+00
  0.00000000E+00  0.00000000E+00  0.00000000E+00
  0.00000000E+00  0.00000000E+00  0.00000000E+00
  0.00000000E+00  0.00000000E+00  0.00000000E+00
  0.00000000E+00  0.00000000E+00  0.00000000E+00
  0.00000000E+00  0.00000000E+00  0.00000000E+00
  0.00000000E+00  0.00000000E+00  0.00000000E+00
  0.00000000E+00  0.00000000E+00  0.00000000E+00
  0.00000000E+00  0.00000000E+00  0.00000000E+00
  0.00000000E+00  0.00000000E+00  0.00000000E+00
  0.00000000E+00  0.00000000E+00  0.00000000E+00
  0.00000000E+00  0.00000000E+00  0.00000000E+00
  0.00000000E+00  0.00000000E+00  0.00000000E+00
  0.00000000E+00  0.00000000E+00  0.00000000E+00
  0.00000000E+00  0.00000000E+00  0.00000000E+00
  0.00000000E+00  0.00000000E+00  0.00000000E+00
  0.00000000E+00  0.00000000E+00  0.00000000E+00
  0.00000000E+00  0.00000000E+00  0.00000000E+00
  0.00000000E+00  0.00000000E+00  0.00000000E+00
  0.00000000E+00  0.00000000E+00  0.00000000E+00
  0.00000000E+00  0.00000000E+00  0.00000000E+00
  0.00000000E+00  0.00000000E+00  0.00000000E+00
  0.00000000E+00  0.00000000E+00  0.00000000E+00
  0.00000000E+00  0.00000000E+00  0.00000000E+00
  0.00000000E+00  0.00000000E+00  0.00000000E+00
  0.00000000E+00  0.00000000E+00  0.00000000E+00
  0.00000000E+00  0.00000000E+00  0.00000000E+00
  0.00000000E+00  0.00000000E+00  0.00000000E+00
  0.00000000E+00  0.00000000E+00  0.00000000E+00
  0.00000000E+00  0.00000000E+00  0.00000000E+00
  0.00000000E+00  0.00000000E+00  0.00000000E+00
  0.00000000E+00  0.00000000E+00  0.00000000E+00
  0.00000000E+00  0.00000000E+00  0.00000000E+00
  0.00000000E+00  0.00000000E+00  0.00000000E+00
  0.00000000E+00  0.00000000E+00  0.00000000E+00
  0.00000000E+00  0.00000000E+00  0.00000000E+00
  0.00000000E+00  0.00000000E+00  0.00000000E+00
  0.00000000E+00  0.00000000E+00  0.00000000E+00
  0.00000000E+00  0.00000000E+00  0.00000000E+00
  0.00000000E+00  0.00000000E+00  0.00000000E+00
  0.00000000E+00  0.00000000E+00  0.00000000E+00
  0.00000000E+00  0.00000000E+00  0.00000000E+00
  0.00000000E+00  0.00000000E+00  0.00000000E+00
  0.00000000E+00  0.00000000E+00  0.00000000E+00
  0.00000000E+00  0.00000000E+00  0.00000000E+00
  0.00000000E+00  0.00000000E+00  0.00000000E+00
  0.00000000E+00  0.00000000E+00  0.00000000E+00
  0.00000000E+00  0.00000000E+00  0.00000000E+00
  0.00000000E+00  0.00000000E+00  0.00000000E+00
  0.00000000E+00  0.00000000E+00  0.00000000E+00
  0.00000000E+00  0.00000000E+00  0.00000000E+00
  0.00000000E+00  0.00000000E+00  0.00000000E+00
  0.00000000E+00  0.00000000E+00  0.00000000E+00
  0.00000000E+00  0.00000000E+00  0.00000000E+00
  0.00000000E+00  0.00000000E+00  0.00000000E+00
  0.00000000E+00  0.00000000E+00  0.00000000E+00
  0.00000000E+00  0.00000000E+00  0.00000000E+00
  0.00000000E+00  0.00000000E+00  0.00000000E+00
  0.00000000E+00  0.00000000E+00  0.00000000E+00
  0.00000000E+00  0.00000000E+00  0.00000000E+00
  0.00000000E+00  0.00000000E+00  0.00000000E+00
  0.00000000E+00  0.00000000E+00  0.00000000E+00
  0.00000000E+00  0.00000000E+00  0.00000000E+00
  0.00000000E+00  0.00000000E+00  0.00000000E+00
  0.00000000E+00  0.00000000E+00  0.00000000E+00
  0.00000000E+00  0.00000000E+00  0.00000000E+00
  0.00000000E+00  0.00000000E+00  0.00000000E+00
  0.00000000E+00  0.00000000E+00  0.00000000E+00
  0.00000000E+00  0.00000000E+00  0.00000000E+00
  0.00000000E+00  0.00000000E+00  0.00000000E+00
  0.00000000E+00  0.00000000E+00  0.00000000E+00
  0.00000000E+00  0.00000000E+00  0.00000000E+00
  0.00000000E+00  0.00000000E+00  0.00000000E+00
  0.00000000E+00  0.00000000E+00  0.00000000E+00
  0.00000000E+00  0.00000000E+00  0.00000000E+00
  0.00000000E+00  0.00000000E+00  0.00000000E+00
  0.00000000E+00  0.00000000E+00  0.00000000E+00
  0.00000000E+00  0.00000000E+00  0.00000000E+00
  0.00000000E+00  0.00000000E+00  0.00000000E+00