Species order:X N B                     
   2.51242800000000     
     5.9449720136058266    0.0000000000000000    0.0000000000000000
    -2.9724860068029120    5.1484967885702053   -0.0000000000000001
     0.0000000000000000    0.0000000000000009    5.3101128803662583
   C    N    B 
     3   142   143
Direct
  0.3889824746120357  0.4411868893600334  0.3750000000000000
  0.4424832267676040  0.3849664535352080  0.3750000000000000
  0.5522044147479978  0.4411868893600334  0.3750000000000000
  0.1111292072566940  0.0555652546392420  0.1251709786186469
  0.6111176248955615  0.5555680667291090  0.1252236210104526
  0.4444360473825480  0.0555652546392420  0.1251709786186469
  0.9444520389055436  0.5555605562996599  0.1251160291618753
  0.7777788082838809  0.0555576165677620  0.1250918270128774
  0.1111091439706425  0.7222182879412781  0.6249011170912481
  0.4444339364544165  0.7222234558104453  0.6248711186703705
  0.2778190519871634  0.2222743128790418  0.6244038859816204
  0.7777895193560290  0.7222234558104453  0.6248711186703705
  0.6111150743299802  0.2222346947145087  0.6248407385492604
  0.9444500311987953  0.2222312408439692  0.6249012216827226
  0.2777653946310516  0.7222204656502660  0.1251172396487416
  0.1111196203845357  0.2222346947145087  0.1251592614507399
  0.4444552608918785  0.2222743128790418  0.1255961140183796
  0.6111083849071353  0.7222167698142633  0.1251552461009941
  0.9444550710192142  0.7222204656502660  0.1251172396487416
  0.7777812096451744  0.2222312408439692  0.1250987783172778
  0.1111211123632803  0.8888924915081622  0.6248693658735373
  0.4444309667773269  0.8888907282705215  0.6248961213156328
  0.2777724643096077  0.3889054767733694  0.6247240070951696
  0.6111330124637686  0.3889054767733694  0.6247240070951696
  0.7777861837318824  0.8888870296403313  0.6248983583198185
  0.9444508024934248  0.3889016049868494  0.6249046389219932
  0.1111079870034484  0.3889020472196397  0.1251379365994783
  0.2777713791448884  0.8888924915081622  0.1251306341264625
  0.6111008459084563  0.8888870296403313  0.1251016416801811
  0.4444574486514346  0.3889148973028692  0.1252853679087684
  0.9444597614931948  0.8888907282705215  0.1251038786843673
  0.7777940602161981  0.3889020472196397  0.1251379365994783
  0.2777738127274139  0.5555593985935328  0.6247861705707930
  0.1111292072566940  0.0555652546392420  0.6248290213813527
  0.6111176248955615  0.5555680667291090  0.6247763789895473
  0.4444360473825480  0.0555652546392420  0.6248290213813527
  0.9444520389055436  0.5555605562996599  0.6248839708381251
  0.1111085173941161  0.5555605562996599  0.1251160291618753
  0.7777788082838809  0.0555576165677620  0.6249081729871228
  0.2777938918552911  0.0555877837105823  0.1252912838584336
  0.4444504418335474  0.5555680667291090  0.1252236210104526
  0.7777855858661188  0.5555593985935328  0.1252138294292067
  0.6110996575171745  0.0555601585882207  0.1251054810996617
  0.4444504418335474  0.5555680667291090  0.6247763789895473
  0.9444605010710464  0.0555601585882207  0.1251054810996617
  0.2777653946310516  0.7222204656502660  0.6248827603512584
  0.1111196203845357  0.2222346947145087  0.6248407385492604
  0.4444552608918785  0.2222743128790418  0.6244038859816204
  0.6111083849071353  0.7222167698142633  0.6248447538990060
  0.9444550710192142  0.7222204656502660  0.6248827603512584
  0.7777812096451744  0.2222312408439692  0.6249012216827226
  0.1111091439706425  0.7222182879412781  0.1250988829087518
  0.4444339364544165  0.7222234558104453  0.1251288813296294
  0.2778190519871634  0.2222743128790418  0.1255961140183796
  0.7777895193560290  0.7222234558104453  0.1251288813296294
  0.6111150743299802  0.2222346947145087  0.1251592614507399
  0.9444500311987953  0.2222312408439692  0.1250987783172778
  0.1111079870034484  0.3889020472196397  0.6248620634005216
  0.2777713791448884  0.8888924915081622  0.6248693658735373
  0.6111008459084563  0.8888870296403313  0.6248983583198185
  0.4444574486514346  0.3889148973028692  0.6247146320912316
  0.9444597614931948  0.8888907282705215  0.6248961213156328
  0.1111211123632803  0.8888924915081622  0.1251306341264625
  0.7777940602161981  0.3889020472196397  0.6248620634005216
  0.4444309667773269  0.8888907282705215  0.1251038786843673
  0.2777724643096077  0.3889054767733694  0.1252759929048304
  0.2777738127274139  0.5555593985935328  0.1252138294292067
  0.6111330124637686  0.3889054767733694  0.1252759929048304
  0.7777861837318824  0.8888870296403313  0.1251016416801811
  0.9444508024934248  0.3889016049868494  0.1250953610780068
  0.1111085173941161  0.5555605562996599  0.6248839708381251
  0.2777938918552911  0.0555877837105823  0.6247087161415664
  0.7777855858661188  0.5555593985935328  0.6247861705707930
  0.6110996575171745  0.0555601585882207  0.6248945189003382
  0.9444605010710464  0.0555601585882207  0.6248945189003382
  0.0544927191720744  0.1101030719331531  0.3750000000000000
  0.5576641739843941  0.6153283479687878  0.3750000000000000
  0.3892903198602117  0.1119706576095187  0.3750000000000000
  0.8886092820772187  0.6110161939735067  0.3750000000000000
  0.7222841349447143  0.1109145451035666  0.3750000000000000
  0.0555543180688608  0.7777798184276186  0.8750000000000000
  0.3888927940017857  0.7777780173466268  0.8750000000000000
  0.2222196711485104  0.2777710320169163  0.8750000000000000
  0.7222199045459320  0.7777769127733232  0.8750000000000000
  0.5555513608684060  0.2777710320169163  0.8750000000000000
  0.8888872670772876  0.2777745341545821  0.8750000000000000
  0.2222838503504839  0.7779870798112895  0.3750000000000000
  0.0544612770450463  0.2772675748956779  0.3750000000000000
  0.3903231504905259  0.2806463009810590  0.3750000000000000
  0.5558911859844023  0.7792301138749915  0.3750000000000000
  0.8894161339265610  0.7782911001059347  0.3750000000000000
  0.7228062978506314  0.2772675748956779  0.3750000000000000
  0.0555523134617938  0.9444468983396191  0.8750000000000000
  0.3888945848778255  0.9444468983396191  0.8750000000000000
  0.2222216340660963  0.4444379156859067  0.8750000000000000
  0.5555508155531038  0.4444387024890788  0.8750000000000000
  0.7222220166406172  0.9444440332812351  0.8750000000000000
  0.8888859891261469  0.4444394058427417  0.8750000000000000
  0.0551133079648679  0.4444259918479141  0.3750000000000000
  0.2225504212908604  0.9451008425817211  0.3750000000000000
  0.5555100746241775  0.9445878932931173  0.3750000000000000
  0.8890778186689394  0.9445878932931173  0.3750000000000000
  0.7231127298658329  0.4436459020126410  0.3750000000000000
  0.2222228400479940  0.6111055671105026  0.8750000000000000
  0.0555508092977405  0.1111058251558671  0.8750000000000000
  0.5555528431542121  0.6111056863084239  0.8750000000000000
  0.3888917454490523  0.1111113877366201  0.8750000000000000
  0.8888827270625015  0.6111055671105026  0.8750000000000000
  0.0556095346277277  0.6112190692554553  0.3750000000000000
  0.7222191939132739  0.1111066735829589  0.8750000000000000
  0.2226803377492999  0.1119706576095187  0.3750000000000000
  0.3895112511912436  0.6120884460486483  0.3750000000000000
  0.7225771948573972  0.6120884460486483  0.3750000000000000
  0.5556103527610787  0.1101030719331531  0.3750000000000000
  0.3888919588765437  0.6111057537895616  0.8750000000000000
  0.8886304101588450  0.1109145451035666  0.3750000000000000
  0.2222255003587574  0.7777798184276186  0.8750000000000000
  0.0555526299900348  0.2777713803605495  0.8750000000000000
  0.3888866651211350  0.2777733302422772  0.8750000000000000
  0.5555570082273914  0.7777769127733232  0.8750000000000000
  0.8888852233448341  0.7777780173466268  0.8750000000000000
  0.7222187503705148  0.2777713803605495  0.8750000000000000
  0.0557032294608055  0.7779870798112895  0.3750000000000000
  0.3888749661793668  0.7782911001059347  0.3750000000000000
  0.2187675136372546  0.2753761607860556  0.3750000000000000
  0.7233389278905890  0.7792301138749915  0.3750000000000000
  0.5566086471488011  0.2753761607860556  0.3750000000000000
  0.8888176916049505  0.2776353832099082  0.3750000000000000
  0.0555534167165948  0.4444394058427417  0.8750000000000000
  0.2222255591656188  0.9444511183312376  0.8750000000000000
  0.5555560986575316  0.9444439419181117  0.8750000000000000
  0.3888878869359748  0.4444387024890788  0.8750000000000000
  0.8888878432605800  0.9444439419181117  0.8750000000000000
  0.0558946713555311  0.9447528233670074  0.3750000000000000
  0.7222162816198103  0.4444379156859067  0.8750000000000000
  0.3888581520114762  0.9447528233670074  0.3750000000000000
  0.2205331721468079  0.4436459020126410  0.3750000000000000
  0.2224069118962809  0.6110161939735067  0.3750000000000000
  0.7224162506773539  0.9448325013547083  0.3750000000000000
  0.8893126838830460  0.4444259918479141  0.3750000000000000
  0.0555530509759004  0.6111061019518008  0.8750000000000000
  0.2222196422875606  0.1111113877366201  0.8750000000000000
  0.7222137949130112  0.6111057537895616  0.8750000000000000
  0.5555550158581263  0.1111058251558671  0.8750000000000000
  0.8888874796696775  0.1111066735829589  0.8750000000000000
  0.1104662993210598  0.0553069344372010  0.3750000000000000
  0.6123643515061620  0.5599187015193118  0.3750000000000000
  0.4448406351161411  0.0553069344372010  0.3750000000000000
  0.9445285756825088  0.5555590927851920  0.3750000000000000
  0.7778051824316530  0.0556103648633051  0.3750000000000000
  0.1111076345756954  0.7222152691513838  0.8750000000000000
  0.4444559744984311  0.7222456206632326  0.8750000000000000
  0.2777397726461996  0.2221961693899250  0.8750000000000000
  0.7777896461648016  0.7222456206632326  0.8750000000000000
  0.6111385992985753  0.2221995573432198  0.8750000000000000
  0.9444208611260207  0.2222065641300460  0.8750000000000000
  0.2778302956630986  0.7224156820884170  0.3750000000000000
  0.1078455085324707  0.2201989729721340  0.3750000000000000
  0.4470281354175832  0.2215201778584803  0.3750000000000000
  0.6130598987005406  0.7261197974010742  0.3750000000000000
  0.9445853864253185  0.7224156820884170  0.3750000000000000
  0.7781372559597491  0.2217389031713183  0.3750000000000000
  0.1110928074370910  0.8888730670765670  0.8750000000000000
  0.4444575213136575  0.8888853264315664  0.8750000000000000
  0.2777424963699329  0.3888884164344362  0.8750000000000000
  0.6111459200645101  0.3888884164344362  0.8750000000000000
  0.7777786058539257  0.8889011513763072  0.8750000000000000
  0.9444397934493634  0.3888795868987261  0.8750000000000000
  0.1094058109803325  0.3883343137439311  0.3750000000000000
  0.2778549542393065  0.8889557513058907  0.3750000000000000
  0.6115073933014052  0.8899443940295688  0.3750000000000000
  0.9447101267409115  0.8892492864235715  0.3750000000000000
  0.7789285027636056  0.3883343137439311  0.3750000000000000
  0.2777686039865266  0.5555677836441727  0.8750000000000000
  0.1110679347094556  0.0555273173386842  0.8750000000000000
  0.6111398242332536  0.5555960596852442  0.8750000000000000
  0.4444593826292284  0.0555273173386842  0.8750000000000000
  0.9444491585292606  0.5555518978816093  0.8750000000000000
  0.1110305171026832  0.5555590927851920  0.3750000000000000
  0.7777748676218080  0.0555497352436159  0.8750000000000000
  0.2777621035783531  0.0555242071567064  0.3750000000000000
  0.4475543500131499  0.5599187015193118  0.3750000000000000
  0.7778004614696363  0.5556169762689229  0.3750000000000000
  0.6114422417674300  0.0550373347722948  0.3750000000000000
  0.4444562354519906  0.5555960596852442  0.8750000000000000
  0.9435950930048651  0.0550373347722948  0.3750000000000000
  0.2777786629593522  0.7222237533229593  0.8750000000000000
  0.1110609580446512  0.2221995573432198  0.8750000000000000
  0.4444563967437254  0.2221961693899250  0.8750000000000000
  0.6111293420427291  0.7222586840854507  0.8750000000000000
  0.9444450903636076  0.7222237533229593  0.8750000000000000
  0.7777857030040249  0.2222065641300460  0.8750000000000000
  0.1111728199826399  0.7223456399652727  0.3750000000000000
  0.4447600046323166  0.7234719109384861  0.3750000000000000
  0.2744920424408970  0.2215201778584803  0.3750000000000000
  0.7787119063061694  0.7234719109384861  0.3750000000000000
  0.6123534644396703  0.2201989729721340  0.3750000000000000
  0.9436016472115695  0.2217389031713183  0.3750000000000000
  0.1110814604779929  0.3888802232046759  0.8750000000000000
  0.2777802596394828  0.8888730670765670  0.8750000000000000
  0.6111225455223888  0.8889011513763072  0.8750000000000000
  0.4444482952756393  0.3888965905512790  0.8750000000000000
  0.9444278051179094  0.8888853264315664  0.8750000000000000
  0.1111007970665910  0.8889557513058907  0.3750000000000000
  0.7777987627266900  0.3888802232046759  0.8750000000000000
  0.4445391596826601  0.8892492864235715  0.3750000000000000
  0.2717714989452880  0.3852930431097698  0.3750000000000000
  0.2778165147992866  0.5556169762689229  0.3750000000000000
  0.6135215441644888  0.3852930431097698  0.3750000000000000
  0.7784370007281705  0.8899443940295688  0.3750000000000000
  0.9443415721212866  0.3886831442425728  0.3750000000000000
  0.1111027393523488  0.5555518978816093  0.8750000000000000
  0.2777624442116033  0.0555248884232064  0.8750000000000000
  0.7777991796576459  0.5555677836441727  0.8750000000000000
  0.6111272279180086  0.0555407551434230  0.8750000000000000
  0.9444135272254144  0.0555407551434230  0.8750000000000000
  0.0554727159138879  0.1110650644673198  0.1248585850948093
  0.5556143651654569  0.6112287303309136  0.1247925131233559
  0.3888714191041052  0.1109806778889361  0.1248862408515415
  0.8889789454560140  0.6111488948124821  0.1249205216477354
  0.7222425884735252  0.1111085723782084  0.1249060990489813
  0.0555516747778249  0.7777345271625163  0.6250899151132842
  0.3888579778211682  0.7777919589531842  0.6250940931183535
  0.2220797425486264  0.2777921689699512  0.6251511172640567
  0.7222755445730981  0.7778314683751718  0.6251171222516057
  0.5557124264213247  0.2777921689699512  0.6251511172640567
  0.8888987211834584  0.2777974423669236  0.6250995895681183
  0.2221828523846915  0.7777345271625163  0.1249100848867157
  0.0554788360926966  0.2777929708111677  0.1248719122472895
  0.3888993670364582  0.2777987340729233  0.1245477488666329
  0.5555559238020744  0.7778314683751718  0.1248828777483945
  0.8889339811320089  0.7777919589531842  0.1249059068816467
  0.7223141347184711  0.2777929708111677  0.1248719122472895
  0.0555080500156198  0.9443707144067086  0.6251106226838845
  0.3888626643910889  0.9443707144067086  0.6251106226838845
  0.2221214071585121  0.4445137828926724  0.6251227884841135
  0.5557135253662241  0.4445633427304369  0.6253050923668162
  0.7222300534104827  0.9444601068209658  0.6250978935395552
  0.8889575364939059  0.4444796497914894  0.6250944339733955
  0.0555221132975834  0.4444796497914894  0.1249055660266046
  0.2221557600061816  0.9443115200123632  0.1248829121030080
  0.5555491994560776  0.9444332380130247  0.1249041682656491
  0.3888498173642126  0.4445633427304369  0.1246949076331838
  0.8888840385569473  0.9444332380130247  0.1249041682656491
  0.7223923757341606  0.4445137828926724  0.1248772115158864
  0.2221699493564612  0.6111488948124821  0.6250794783522650
  0.0554727159138879  0.1110650644673199  0.6251414149051907
  0.5556143651654569  0.6112287303309136  0.6252074868766440
  0.3888714191041052  0.1109806778889361  0.6251137591484586
  0.8889789454560140  0.6111488948124821  0.6250794783522650
  0.0555608216819419  0.6111216433638839  0.1249093411510581
  0.7222425884735252  0.1111085723782084  0.6250939009510188
  0.2221092587848237  0.1109806778889361  0.1248862408515415
  0.3888499626892639  0.6112077112113640  0.1248984641721989
  0.7223577485220927  0.6112077112113640  0.1248984641721989
  0.5555923485534316  0.1110650644673198  0.1248585850948093
  0.3888499626892639  0.6112077112113640  0.6251015358278009
  0.8888659839046762  0.1111085723782084  0.1249060990489813
  0.2221828523846915  0.7777345271625163  0.6250899151132842
  0.0554788360926966  0.2777929708111677  0.6251280877527107
  0.3888993670364582  0.2777987340729233  0.6254522511333672
  0.5555559238020744  0.7778314683751718  0.6251171222516057
  0.8889339811320089  0.7777919589531842  0.6250940931183535
  0.7223141347184711  0.2777929708111677  0.6251280877527107
  0.0555516747778249  0.7777345271625163  0.1249100848867157
  0.3888579778211682  0.7777919589531842  0.1249059068816467
  0.2220797425486264  0.2777921689699512  0.1248488827359433
  0.7222755445730981  0.7778314683751718  0.1248828777483945
  0.5557124264213247  0.2777921689699512  0.1248488827359433
  0.8888987211834584  0.2777974423669236  0.1249004104318816
  0.0555221132975834  0.4444796497914894  0.6250944339733955
  0.2221557600061816  0.9443115200123632  0.6251170878969921
  0.5555491994560776  0.9444332380130247  0.6250958317343508
  0.3888498173642126  0.4445633427304369  0.6253050923668162
  0.8888840385569473  0.9444332380130247  0.6250958317343508
  0.0555080500156198  0.9443707144067086  0.1248893773161159
  0.7223923757341606  0.4445137828926724  0.6251227884841135
  0.3888626643910889  0.9443707144067086  0.1248893773161159
  0.2221214071585121  0.4445137828926724  0.1248772115158864
  0.2221699493564612  0.6111488948124821  0.1249205216477354
  0.5557135253662241  0.4445633427304369  0.1246949076331838
  0.7222300534104827  0.9444601068209658  0.1249021064604446
  0.8889575364939059  0.4444796497914894  0.1249055660266046
  0.0555608216819419  0.6111216433638839  0.6250906588489418
  0.2221092587848237  0.1109806778889361  0.6251137591484586
  0.7223577485220927  0.6112077112113640  0.6251015358278009
  0.5555923485534316  0.1110650644673198  0.6251414149051907
  0.8888659839046762  0.1111085723782084  0.6250939009510188
 
  0.00000000E+00  0.00000000E+00  0.00000000E+00
  0.00000000E+00  0.00000000E+00  0.00000000E+00
  0.00000000E+00  0.00000000E+00  0.00000000E+00
  0.00000000E+00  0.00000000E+00  0.00000000E+00
  0.00000000E+00  0.00000000E+00  0.00000000E+00
  0.00000000E+00  0.00000000E+00  0.00000000E+00
  0.00000000E+00  0.00000000E+00  0.00000000E+00
  0.00000000E+00  0.00000000E+00  0.00000000E+00
  0.00000000E+00  0.00000000E+00  0.00000000E+00
  0.00000000E+00  0.00000000E+00  0.00000000E+00
  0.00000000E+00  0.00000000E+00  0.00000000E+00
  0.00000000E+00  0.00000000E+00  0.00000000E+00
  0.00000000E+00  0.00000000E+00  0.00000000E+00
  0.00000000E+00  0.00000000E+00  0.00000000E+00
  0.00000000E+00  0.00000000E+00  0.00000000E+00
  0.00000000E+00  0.00000000E+00  0.00000000E+00
  0.00000000E+00  0.00000000E+00  0.00000000E+00
  0.00000000E+00  0.00000000E+00  0.00000000E+00
  0.00000000E+00  0.00000000E+00  0.00000000E+00
  0.00000000E+00  0.00000000E+00  0.00000000E+00
  0.00000000E+00  0.00000000E+00  0.00000000E+00
  0.00000000E+00  0.00000000E+00  0.00000000E+00
  0.00000000E+00  0.00000000E+00  0.00000000E+00
  0.00000000E+00  0.00000000E+00  0.00000000E+00
  0.00000000E+00  0.00000000E+00  0.00000000E+00
  0.00000000E+00  0.00000000E+00  0.00000000E+00
  0.00000000E+00  0.00000000E+00  0.00000000E+00
  0.00000000E+00  0.00000000E+00  0.00000000E+00
  0.00000000E+00  0.00000000E+00  0.00000000E+00
  0.00000000E+00  0.00000000E+00  0.00000000E+00
  0.00000000E+00  0.00000000E+00  0.00000000E+00
  0.00000000E+00  0.00000000E+00  0.00000000E+00
  0.00000000E+00  0.00000000E+00  0.00000000E+00
  0.00000000E+00  0.00000000E+00  0.00000000E+00
  0.00000000E+00  0.00000000E+00  0.00000000E+00
  0.00000000E+00  0.00000000E+00  0.00000000E+00
  0.00000000E+00  0.00000000E+00  0.00000000E+00
  0.00000000E+00  0.00000000E+00  0.00000000E+00
  0.00000000E+00  0.00000000E+00  0.00000000E+00
  0.00000000E+00  0.00000000E+00  0.00000000E+00
  0.00000000E+00  0.00000000E+00  0.00000000E+00
  0.00000000E+00  0.00000000E+00  0.00000000E+00
  0.00000000E+00  0.00000000E+00  0.00000000E+00
  0.00000000E+00  0.00000000E+00  0.00000000E+00
  0.00000000E+00  0.00000000E+00  0.00000000E+00
  0.00000000E+00  0.00000000E+00  0.00000000E+00
  0.00000000E+00  0.00000000E+00  0.00000000E+00
  0.00000000E+00  0.00000000E+00  0.00000000E+00
  0.00000000E+00  0.00000000E+00  0.00000000E+00
  0.00000000E+00  0.00000000E+00  0.00000000E+00
  0.00000000E+00  0.00000000E+00  0.00000000E+00
  0.00000000E+00  0.00000000E+00  0.00000000E+00
  0.00000000E+00  0.00000000E+00  0.00000000E+00
  0.00000000E+00  0.00000000E+00  0.00000000E+00
  0.00000000E+00  0.00000000E+00  0.00000000E+00
  0.00000000E+00  0.00000000E+00  0.00000000E+00
  0.00000000E+00  0.00000000E+00  0.00000000E+00
  0.00000000E+00  0.00000000E+00  0.00000000E+00
  0.00000000E+00  0.00000000E+00  0.00000000E+00
  0.00000000E+00  0.00000000E+00  0.00000000E+00
  0.00000000E+00  0.00000000E+00  0.00000000E+00
  0.00000000E+00  0.00000000E+00  0.00000000E+00
  0.00000000E+00  0.00000000E+00  0.00000000E+00
  0.00000000E+00  0.00000000E+00  0.00000000E+00
  0.00000000E+00  0.00000000E+00  0.00000000E+00
  0.00000000E+00  0.00000000E+00  0.00000000E+00
  0.00000000E+00  0.00000000E+00  0.00000000E+00
  0.00000000E+00  0.00000000E+00  0.00000000E+00
  0.00000000E+00  0.00000000E+00  0.00000000E+00
  0.00000000E+00  0.00000000E+00  0.00000000E+00
  0.00000000E+00  0.00000000E+00  0.00000000E+00
  0.00000000E+00  0.00000000E+00  0.00000000E+00
  0.00000000E+00  0.00000000E+00  0.00000000E+00
  0.00000000E+00  0.00000000E+00  0.00000000E+00
  0.00000000E+00  0.00000000E+00  0.00000000E+00
  0.00000000E+00  0.00000000E+00  0.00000000E+00
  0.00000000E+00  0.00000000E+00  0.00000000E+00
  0.00000000E+00  0.00000000E+00  0.00000000E+00
  0.00000000E+00  0.00000000E+00  0.00000000E+00
  0.00000000E+00  0.00000000E+00  0.00000000E+00
  0.00000000E+00  0.00000000E+00  0.00000000E+00
  0.00000000E+00  0.00000000E+00  0.00000000E+00
  0.00000000E+00  0.00000000E+00  0.00000000E+00
  0.00000000E+00  0.00000000E+00  0.00000000E+00
  0.00000000E+00  0.00000000E+00  0.00000000E+00
  0.00000000E+00  0.00000000E+00  0.00000000E+00
  0.00000000E+00  0.00000000E+00  0.00000000E+00
  0.00000000E+00  0.00000000E+00  0.00000000E+00
  0.00000000E+00  0.00000000E+00  0.00000000E+00
  0.00000000E+00  0.00000000E+00  0.00000000E+00
  0.00000000E+00  0.00000000E+00  0.00000000E+00
  0.00000000E+00  0.00000000E+00  0.00000000E+00
  0.00000000E+00  0.00000000E+00  0.00000000E+00
  0.00000000E+00  0.00000000E+00  0.00000000E+00
  0.00000000E+00  0.00000000E+00  0.00000000E+00
  0.00000000E+00  0.00000000E+00  0.00000000E+00
  0.00000000E+00  0.00000000E+00  0.00000000E+00
  0.00000000E+00  0.00000000E+00  0.00000000E+00
  0.00000000E+00  0.00000000E+00  0.00000000E+00
  0.00000000E+00  0.00000000E+00  0.00000000E+00
  0.00000000E+00  0.00000000E+00  0.00000000E+00
  0.00000000E+00  0.00000000E+00  0.00000000E+00
  0.00000000E+00  0.00000000E+00  0.00000000E+00
  0.00000000E+00  0.00000000E+00  0.00000000E+00
  0.00000000E+00  0.00000000E+00  0.00000000E+00
  0.00000000E+00  0.00000000E+00  0.00000000E+00
  0.00000000E+00  0.00000000E+00  0.00000000E+00
  0.00000000E+00  0.00000000E+00  0.00000000E+00
  0.00000000E+00  0.00000000E+00  0.00000000E+00
  0.00000000E+00  0.00000000E+00  0.00000000E+00
  0.00000000E+00  0.00000000E+00  0.00000000E+00
  0.00000000E+00  0.00000000E+00  0.00000000E+00
  0.00000000E+00  0.00000000E+00  0.00000000E+00
  0.00000000E+00  0.00000000E+00  0.00000000E+00
  0.00000000E+00  0.00000000E+00  0.00000000E+00
  0.00000000E+00  0.00000000E+00  0.00000000E+00
  0.00000000E+00  0.00000000E+00  0.00000000E+00
  0.00000000E+00  0.00000000E+00  0.00000000E+00
  0.00000000E+00  0.00000000E+00  0.00000000E+00
  0.00000000E+00  0.00000000E+00  0.00000000E+00
  0.00000000E+00  0.00000000E+00  0.00000000E+00
  0.00000000E+00  0.00000000E+00  0.00000000E+00
  0.00000000E+00  0.00000000E+00  0.00000000E+00
  0.00000000E+00  0.00000000E+00  0.00000000E+00
  0.00000000E+00  0.00000000E+00  0.00000000E+00
  0.00000000E+00  0.00000000E+00  0.00000000E+00
  0.00000000E+00  0.00000000E+00  0.00000000E+00
  0.00000000E+00  0.00000000E+00  0.00000000E+00
  0.00000000E+00  0.00000000E+00  0.00000000E+00
  0.00000000E+00  0.00000000E+00  0.00000000E+00
  0.00000000E+00  0.00000000E+00  0.00000000E+00
  0.00000000E+00  0.00000000E+00  0.00000000E+00
  0.00000000E+00  0.00000000E+00  0.00000000E+00
  0.00000000E+00  0.00000000E+00  0.00000000E+00
  0.00000000E+00  0.00000000E+00  0.00000000E+00
  0.00000000E+00  0.00000000E+00  0.00000000E+00
  0.00000000E+00  0.00000000E+00  0.00000000E+00
  0.00000000E+00  0.00000000E+00  0.00000000E+00
  0.00000000E+00  0.00000000E+00  0.00000000E+00
  0.00000000E+00  0.00000000E+00  0.00000000E+00
  0.00000000E+00  0.00000000E+00  0.00000000E+00
  0.00000000E+00  0.00000000E+00  0.00000000E+00
  0.00000000E+00  0.00000000E+00  0.00000000E+00
  0.00000000E+00  0.00000000E+00  0.00000000E+00
  0.00000000E+00  0.00000000E+00  0.00000000E+00
  0.00000000E+00  0.00000000E+00  0.00000000E+00
  0.00000000E+00  0.00000000E+00  0.00000000E+00
  0.00000000E+00  0.00000000E+00  0.00000000E+00
  0.00000000E+00  0.00000000E+00  0.00000000E+00
  0.00000000E+00  0.00000000E+00  0.00000000E+00
  0.00000000E+00  0.00000000E+00  0.00000000E+00
  0.00000000E+00  0.00000000E+00  0.00000000E+00
  0.00000000E+00  0.00000000E+00  0.00000000E+00
  0.00000000E+00  0.00000000E+00  0.00000000E+00
  0.00000000E+00  0.00000000E+00  0.00000000E+00
  0.00000000E+00  0.00000000E+00  0.00000000E+00
  0.00000000E+00  0.00000000E+00  0.00000000E+00
  0.00000000E+00  0.00000000E+00  0.00000000E+00
  0.00000000E+00  0.00000000E+00  0.00000000E+00
  0.00000000E+00  0.00000000E+00  0.00000000E+00
  0.00000000E+00  0.00000000E+00  0.00000000E+00
  0.00000000E+00  0.00000000E+00  0.00000000E+00
  0.00000000E+00  0.00000000E+00  0.00000000E+00
  0.00000000E+00  0.00000000E+00  0.00000000E+00
  0.00000000E+00  0.00000000E+00  0.00000000E+00
  0.00000000E+00  0.00000000E+00  0.00000000E+00
  0.00000000E+00  0.00000000E+00  0.00000000E+00
  0.00000000E+00  0.00000000E+00  0.00000000E+00
  0.00000000E+00  0.00000000E+00  0.00000000E+00
  0.00000000E+00  0.00000000E+00  0.00000000E+00
  0.00000000E+00  0.00000000E+00  0.00000000E+00
  0.00000000E+00  0.00000000E+00  0.00000000E+00
  0.00000000E+00  0.00000000E+00  0.00000000E+00
  0.00000000E+00  0.00000000E+00  0.00000000E+00
  0.00000000E+00  0.00000000E+00  0.00000000E+00
  0.00000000E+00  0.00000000E+00  0.00000000E+00
  0.00000000E+00  0.00000000E+00  0.00000000E+00
  0.00000000E+00  0.00000000E+00  0.00000000E+00
  0.00000000E+00  0.00000000E+00  0.00000000E+00
  0.00000000E+00  0.00000000E+00  0.00000000E+00
  0.00000000E+00  0.00000000E+00  0.00000000E+00
  0.00000000E+00  0.00000000E+00  0.00000000E+00
  0.00000000E+00  0.00000000E+00  0.00000000E+00
  0.00000000E+00  0.00000000E+00  0.00000000E+00
  0.00000000E+00  0.00000000E+00  0.00000000E+00
  0.00000000E+00  0.00000000E+00  0.00000000E+00
  0.00000000E+00  0.00000000E+00  0.00000000E+00
  0.00000000E+00  0.00000000E+00  0.00000000E+00
  0.00000000E+00  0.00000000E+00  0.00000000E+00
  0.00000000E+00  0.00000000E+00  0.00000000E+00
  0.00000000E+00  0.00000000E+00  0.00000000E+00
  0.00000000E+00  0.00000000E+00  0.00000000E+00
  0.00000000E+00  0.00000000E+00  0.00000000E+00
  0.00000000E+00  0.00000000E+00  0.00000000E+00
  0.00000000E+00  0.00000000E+00  0.00000000E+00
  0.00000000E+00  0.00000000E+00  0.00000000E+00
  0.00000000E+00  0.00000000E+00  0.00000000E+00
  0.00000000E+00  0.00000000E+00  0.00000000E+00
  0.00000000E+00  0.00000000E+00  0.00000000E+00
  0.00000000E+00  0.00000000E+00  0.00000000E+00
  0.00000000E+00  0.00000000E+00  0.00000000E+00
  0.00000000E+00  0.00000000E+00  0.00000000E+00
  0.00000000E+00  0.00000000E+00  0.00000000E+00
  0.00000000E+00  0.00000000E+00  0.00000000E+00
  0.00000000E+00  0.00000000E+00  0.00000000E+00
  0.00000000E+00  0.00000000E+00  0.00000000E+00
  0.00000000E+00  0.00000000E+00  0.00000000E+00
  0.00000000E+00  0.00000000E+00  0.00000000E+00
  0.00000000E+00  0.00000000E+00  0.00000000E+00
  0.00000000E+00  0.00000000E+00  0.00000000E+00
  0.00000000E+00  0.00000000E+00  0.00000000E+00
  0.00000000E+00  0.00000000E+00  0.00000000E+00
  0.00000000E+00  0.00000000E+00  0.00000000E+00
  0.00000000E+00  0.00000000E+00  0.00000000E+00
  0.00000000E+00  0.00000000E+00  0.00000000E+00
  0.00000000E+00  0.00000000E+00  0.00000000E+00
  0.00000000E+00  0.00000000E+00  0.00000000E+00
  0.00000000E+00  0.00000000E+00  0.00000000E+00
  0.00000000E+00  0.00000000E+00  0.00000000E+00
  0.00000000E+00  0.00000000E+00  0.00000000E+00
  0.00000000E+00  0.00000000E+00  0.00000000E+00
  0.00000000E+00  0.00000000E+00  0.00000000E+00
  0.00000000E+00  0.00000000E+00  0.00000000E+00
  0.00000000E+00  0.00000000E+00  0.00000000E+00
  0.00000000E+00  0.00000000E+00  0.00000000E+00
  0.00000000E+00  0.00000000E+00  0.00000000E+00
  0.00000000E+00  0.00000000E+00  0.00000000E+00
  0.00000000E+00  0.00000000E+00  0.00000000E+00
  0.00000000E+00  0.00000000E+00  0.00000000E+00
  0.00000000E+00  0.00000000E+00  0.00000000E+00
  0.00000000E+00  0.00000000E+00  0.00000000E+00
  0.00000000E+00  0.00000000E+00  0.00000000E+00
  0.00000000E+00  0.00000000E+00  0.00000000E+00
  0.00000000E+00  0.00000000E+00  0.00000000E+00
  0.00000000E+00  0.00000000E+00  0.00000000E+00
  0.00000000E+00  0.00000000E+00  0.00000000E+00
  0.00000000E+00  0.00000000E+00  0.00000000E+00
  0.00000000E+00  0.00000000E+00  0.00000000E+00
  0.00000000E+00  0.00000000E+00  0.00000000E+00
  0.00000000E+00  0.00000000E+00  0.00000000E+00
  0.00000000E+00  0.00000000E+00  0.00000000E+00
  0.00000000E+00  0.00000000E+00  0.00000000E+00
  0.00000000E+00  0.00000000E+00  0.00000000E+00
  0.00000000E+00  0.00000000E+00  0.00000000E+00
  0.00000000E+00  0.00000000E+00  0.00000000E+00
  0.00000000E+00  0.00000000E+00  0.00000000E+00
  0.00000000E+00  0.00000000E+00  0.00000000E+00