B N P                                   
   1.0000000000000000     
     8.7639499999999995  -15.1796066749929999    0.0000000000000000
     8.7639499999999995   15.1796066749929999    0.0000000000000000
     0.0000000000000000    0.0000000000000000   15.0000000000000000
   B    N    P 
    48    48     1
Selective dynamics
Direct
  0.9050132895231061  0.9519970709771901  0.1177092421147589   T   T   T
  0.9052222834311463  0.0949209468511641  0.1180842573005491   T   T   T
  0.9053250408814753  0.2378694740929446  0.1172416789736125   T   T   T
  0.9053770349431283  0.3808030700085134  0.1162323532730824   T   T   T
  0.9050905833794649  0.5236451001472698  0.1148091773935977   T   T   T
  0.9047156257883672  0.6663561373003489  0.1145480442757536   T   T   T
  0.9043457499774158  0.8087116737287648  0.1156704536622077   T   T   T
  0.0478720501978288  0.9522705222285167  0.1180101648842967   T   T   T
  0.0481388309798439  0.0951221813365156  0.1177184841522080   T   T   T
  0.0481665907636314  0.2380246271901835  0.1156882397046933   T   T   T
  0.0480623112456239  0.3809899997969531  0.1143691597165533   T   T   T
  0.0478789451982106  0.5238788657837046  0.1147805479537041   T   T   T
  0.0476625125795960  0.6666732358874735  0.1158390700999637   T   T   T
  0.0476416462715693  0.8094340050542271  0.1171343201864768   T   T   T
  0.1907161177485898  0.9525078221820292  0.1171271291049602   T   T   T
  0.1914305932918929  0.0957942450998714  0.1156609540742543   T   T   T
  0.1909559795031625  0.2380986461095086  0.1123819995462357   T   T   T
  0.1906055930106647  0.3810124481055998  0.1078492174857818   T   T   T
  0.1905525542571644  0.5240901266228618  0.1085860645033391   T   T   T
  0.1904264889989300  0.6668847376356573  0.1118202227415722   T   T   T
  0.1904912396140572  0.8096579240304866  0.1155920364936198   T   T   T
  0.3334809856699619  0.9524913281542411  0.1158235019413720   T   T   T
  0.3337986338890534  0.0954416478381050  0.1145212327763564   T   T   T
  0.3351319772373827  0.2393611559863941  0.1100692678414981   T   T   T
  0.3324432969985733  0.3804747570703659  0.0986448350934971   T   T   T
  0.3327223454351126  0.5244679536266528  0.0949139649258222   T   T   T
  0.3330513726988530  0.6671039567663850  0.1030782540816621   T   T   T
  0.3332689618652066  0.8097300643140112  0.1118094618599168   T   T   T
  0.4762743551066421  0.9522774581953192  0.1147651325784455   T   T   T
  0.4765076402687357  0.0950648739861345  0.1147891968249058   T   T   T
  0.4767137464595869  0.2377638564330521  0.1098509289384206   T   T   T
  0.4792565776246607  0.3814742129835688  0.1062952482415262   T   T   T
  0.4756845953319875  0.6674297327370703  0.0949168108595322   T   T   T
  0.4760564564712314  0.8095959751851211  0.1085844194926113   T   T   T
  0.6191562015081392  0.9520865587259379  0.1143663662374304   T   T   T
  0.6193541032432973  0.0947829683828365  0.1162188435840788   T   T   T
  0.6196191095432911  0.2373583834422068  0.1128753194779450   T   T   T
  0.6204226482371101  0.3797397779865138  0.1080019767075523   T   T   T
  0.6186895013942619  0.5208979373387197  0.1062913026036694   T   T   T
  0.6196584561908119  0.6676935985435457  0.0986383334140102   T   T   T
  0.6191345096218916  0.8095427903914963  0.1078459280175296   T   T   T
  0.7621192632724723  0.9519748394311296  0.1156889665446898   T   T   T
  0.7622872143997504  0.0948309836552725  0.1172454152633054   T   T   T
  0.7624782049663539  0.2376861950130065  0.1162765444031611   T   T   T
  0.7628043756151246  0.3805394650319148  0.1128888877528803   T   T   T
  0.7624017768375581  0.5234424549842589  0.1098622630135238   T   T   T
  0.7607896598522651  0.6650130993254881  0.1100818384025827   T   T   T
  0.7620331926862135  0.8091832155489389  0.1123783950802654   T   T   T
  0.9522241252066493  0.9040373173037114  0.1176694416549511   T   T   T
  0.9528619396011735  0.0472762839605877  0.1185530978901578   T   T   T
  0.9530295438716909  0.1902871304497770  0.1175555051754371   T   T   T
  0.9529559739825834  0.3332258379428306  0.1166154593790633   T   T   T
  0.9525797300579807  0.4760670623457977  0.1159723600538953   T   T   T
  0.9521056401890398  0.6187602259278799  0.1155372051714635   T   T   T
  0.9519648807650973  0.7613196301608793  0.1161731049243518   T   T   T
  0.0954128892655108  0.9047366712642844  0.1178227805593166   T   T   T
  0.0961030473293913  0.0479165562257375  0.1176773099556488   T   T   T
  0.0961326809872080  0.1906035393422711  0.1160065968410813   T   T   T
  0.0959482747924104  0.3334483752821833  0.1129558105154886   T   T   T
  0.0956719931606684  0.4762756086524104  0.1130774298961245   T   T   T
  0.0952781610463464  0.6190626048238413  0.1145724073076929   T   T   T
  0.0951668189109651  0.7618534271447595  0.1165419082146050   T   T   T
  0.2382980298027483  0.9049839666693610  0.1165359152582965   T   T   T
  0.2388303942367439  0.0481839488410314  0.1161544603730478   T   T   T
  0.2401100198607597  0.1919925915939778  0.1125663923875059   T   T   T
  0.2387235129760014  0.3334695861630175  0.1069096582815674   T   T   T
  0.2386781163055823  0.4763904999479765  0.1047193541685481   T   T   T
  0.2382029141368726  0.6191950594049925  0.1074371321759310   T   T   T
  0.2381198154481060  0.7620347500657514  0.1129150416186089   T   T   T
  0.3810910956855006  0.9048773370812523  0.1145567706735367   T   T   T
  0.3813918887256660  0.0480491416249672  0.1155074526172157   T   T   T
  0.3820895338796795  0.1916530212326125  0.1113987404034538   T   T   T
  0.3850863616459158  0.3376672621095866  0.1055218052604658   T   T   T
  0.3790702607066069  0.4745428665157720  0.0837611521351521   T   T   T
  0.3809209191209668  0.6192295234459408  0.0945170055234220   T   T   T
  0.3809532161996458  0.7619467480665907  0.1074375892543503   T   T   T
  0.5238723340418687  0.9044790644298086  0.1130702508318153   T   T   T
  0.5240897148202668  0.0475784050461336  0.1159498256351372   T   T   T
  0.5243640530137912  0.1907667244291811  0.1123233545287309   T   T   T
  0.5252582988859313  0.3345854597397852  0.1067119131720089   T   T   T
  0.5255939229823273  0.6210613856899748  0.0837702671872141   T   T   T
  0.5237574762113120  0.7614704333974782  0.1047172974464336   T   T   T
  0.6666975795226386  0.9041997484122011  0.1129595128524571   T   T   T
  0.6669255324277129  0.0471967906835964  0.1166127649666464   T   T   T
  0.6670881288124683  0.1901352260470427  0.1155798408094810   T   T   T
  0.6673012435193459  0.3328613494062015  0.1108136125237515   T   T   T
  0.6655781023504180  0.4749020834575967  0.1067036501158017   T   T   T
  0.6624850451397227  0.6150649599565255  0.1055212589596750   T   T   T
  0.6666666868836482  0.7614150788556420  0.1069069361383216   T   T   T
  0.8095352744233014  0.9040068153678764  0.1159990864538494   T   T   T
  0.8098587819601887  0.0471158122970160  0.1175609584373243   T   T   T
  0.8100074163041410  0.1901466164180508  0.1173920699017909   T   T   T
  0.8100269111516625  0.3330722267700267  0.1155932733300868   T   T   T
  0.8093931829360087  0.4757916457286629  0.1123383741080622   T   T   T
  0.8085063370072417  0.6180636815903708  0.1114161256692926   T   T   T
  0.8081476525470784  0.7600320697767224  0.1125778895448455   T   T   T
  0.4806663955810136  0.5194776683558242  0.0404829145115074   T   T   T

  0.00000000E+00  0.00000000E+00  0.00000000E+00
  0.00000000E+00  0.00000000E+00  0.00000000E+00
  0.00000000E+00  0.00000000E+00  0.00000000E+00
  0.00000000E+00  0.00000000E+00  0.00000000E+00
  0.00000000E+00  0.00000000E+00  0.00000000E+00
  0.00000000E+00  0.00000000E+00  0.00000000E+00
  0.00000000E+00  0.00000000E+00  0.00000000E+00
  0.00000000E+00  0.00000000E+00  0.00000000E+00
  0.00000000E+00  0.00000000E+00  0.00000000E+00
  0.00000000E+00  0.00000000E+00  0.00000000E+00
  0.00000000E+00  0.00000000E+00  0.00000000E+00
  0.00000000E+00  0.00000000E+00  0.00000000E+00
  0.00000000E+00  0.00000000E+00  0.00000000E+00
  0.00000000E+00  0.00000000E+00  0.00000000E+00
  0.00000000E+00  0.00000000E+00  0.00000000E+00
  0.00000000E+00  0.00000000E+00  0.00000000E+00
  0.00000000E+00  0.00000000E+00  0.00000000E+00
  0.00000000E+00  0.00000000E+00  0.00000000E+00
  0.00000000E+00  0.00000000E+00  0.00000000E+00
  0.00000000E+00  0.00000000E+00  0.00000000E+00
  0.00000000E+00  0.00000000E+00  0.00000000E+00
  0.00000000E+00  0.00000000E+00  0.00000000E+00
  0.00000000E+00  0.00000000E+00  0.00000000E+00
  0.00000000E+00  0.00000000E+00  0.00000000E+00
  0.00000000E+00  0.00000000E+00  0.00000000E+00
  0.00000000E+00  0.00000000E+00  0.00000000E+00
  0.00000000E+00  0.00000000E+00  0.00000000E+00
  0.00000000E+00  0.00000000E+00  0.00000000E+00
  0.00000000E+00  0.00000000E+00  0.00000000E+00
  0.00000000E+00  0.00000000E+00  0.00000000E+00
  0.00000000E+00  0.00000000E+00  0.00000000E+00
  0.00000000E+00  0.00000000E+00  0.00000000E+00
  0.00000000E+00  0.00000000E+00  0.00000000E+00
  0.00000000E+00  0.00000000E+00  0.00000000E+00
  0.00000000E+00  0.00000000E+00  0.00000000E+00
  0.00000000E+00  0.00000000E+00  0.00000000E+00
  0.00000000E+00  0.00000000E+00  0.00000000E+00
  0.00000000E+00  0.00000000E+00  0.00000000E+00
  0.00000000E+00  0.00000000E+00  0.00000000E+00
  0.00000000E+00  0.00000000E+00  0.00000000E+00
  0.00000000E+00  0.00000000E+00  0.00000000E+00
  0.00000000E+00  0.00000000E+00  0.00000000E+00
  0.00000000E+00  0.00000000E+00  0.00000000E+00
  0.00000000E+00  0.00000000E+00  0.00000000E+00
  0.00000000E+00  0.00000000E+00  0.00000000E+00
  0.00000000E+00  0.00000000E+00  0.00000000E+00
  0.00000000E+00  0.00000000E+00  0.00000000E+00
  0.00000000E+00  0.00000000E+00  0.00000000E+00
  0.00000000E+00  0.00000000E+00  0.00000000E+00
  0.00000000E+00  0.00000000E+00  0.00000000E+00
  0.00000000E+00  0.00000000E+00  0.00000000E+00
  0.00000000E+00  0.00000000E+00  0.00000000E+00
  0.00000000E+00  0.00000000E+00  0.00000000E+00
  0.00000000E+00  0.00000000E+00  0.00000000E+00
  0.00000000E+00  0.00000000E+00  0.00000000E+00
  0.00000000E+00  0.00000000E+00  0.00000000E+00
  0.00000000E+00  0.00000000E+00  0.00000000E+00
  0.00000000E+00  0.00000000E+00  0.00000000E+00
  0.00000000E+00  0.00000000E+00  0.00000000E+00
  0.00000000E+00  0.00000000E+00  0.00000000E+00
  0.00000000E+00  0.00000000E+00  0.00000000E+00
  0.00000000E+00  0.00000000E+00  0.00000000E+00
  0.00000000E+00  0.00000000E+00  0.00000000E+00
  0.00000000E+00  0.00000000E+00  0.00000000E+00
  0.00000000E+00  0.00000000E+00  0.00000000E+00
  0.00000000E+00  0.00000000E+00  0.00000000E+00
  0.00000000E+00  0.00000000E+00  0.00000000E+00
  0.00000000E+00  0.00000000E+00  0.00000000E+00
  0.00000000E+00  0.00000000E+00  0.00000000E+00
  0.00000000E+00  0.00000000E+00  0.00000000E+00
  0.00000000E+00  0.00000000E+00  0.00000000E+00
  0.00000000E+00  0.00000000E+00  0.00000000E+00
  0.00000000E+00  0.00000000E+00  0.00000000E+00
  0.00000000E+00  0.00000000E+00  0.00000000E+00
  0.00000000E+00  0.00000000E+00  0.00000000E+00
  0.00000000E+00  0.00000000E+00  0.00000000E+00
  0.00000000E+00  0.00000000E+00  0.00000000E+00
  0.00000000E+00  0.00000000E+00  0.00000000E+00
  0.00000000E+00  0.00000000E+00  0.00000000E+00
  0.00000000E+00  0.00000000E+00  0.00000000E+00
  0.00000000E+00  0.00000000E+00  0.00000000E+00
  0.00000000E+00  0.00000000E+00  0.00000000E+00
  0.00000000E+00  0.00000000E+00  0.00000000E+00
  0.00000000E+00  0.00000000E+00  0.00000000E+00
  0.00000000E+00  0.00000000E+00  0.00000000E+00
  0.00000000E+00  0.00000000E+00  0.00000000E+00
  0.00000000E+00  0.00000000E+00  0.00000000E+00
  0.00000000E+00  0.00000000E+00  0.00000000E+00
  0.00000000E+00  0.00000000E+00  0.00000000E+00
  0.00000000E+00  0.00000000E+00  0.00000000E+00
  0.00000000E+00  0.00000000E+00  0.00000000E+00
  0.00000000E+00  0.00000000E+00  0.00000000E+00
  0.00000000E+00  0.00000000E+00  0.00000000E+00
  0.00000000E+00  0.00000000E+00  0.00000000E+00
  0.00000000E+00  0.00000000E+00  0.00000000E+00
  0.00000000E+00  0.00000000E+00  0.00000000E+00
  0.00000000E+00  0.00000000E+00  0.00000000E+00
