B N P                                   
   1.0000000000000000     
     8.7639499999999995  -15.1796066749929999    0.0000000000000000
     8.7639499999999995   15.1796066749929999    0.0000000000000000
     0.0000000000000000    0.0000000000000000   15.0000000000000000
   B    N    P 
    49    48     1
Selective dynamics
Direct
  0.9053048383270108  0.9531901928118574  0.1081445511002472   T   T   T
  0.9051419029663536  0.0958880595889690  0.1089784534177369   T   T   T
  0.9049734574824515  0.2385239889920135  0.1088026873297282   T   T   T
  0.9045554914205960  0.3810721788726845  0.1080555022053023   T   T   T
  0.9042906714661084  0.5236861116295787  0.1083205892603080   T   T   T
  0.9047812522770284  0.6667570605789549  0.1084223688516297   T   T   T
  0.9054557816897455  0.8103578642037843  0.1074465719744539   T   T   T
  0.0477135413626589  0.9523694208295576  0.1074339581077001   T   T   T
  0.0478136709030869  0.0954294139456589  0.1069422401471359   T   T   T
  0.0478919076531954  0.2382912868949507  0.1073694845948002   T   T   T
  0.0479122643754452  0.3810546909795893  0.1078917822703861   T   T   T
  0.0475399399223677  0.5236642248855521  0.1085407628651863   T   T   T
  0.0474328358814104  0.6664002057995267  0.1091221886104211   T   T   T
  0.0475386833118452  0.8093248638462629  0.1085251003726176   T   T   T
  0.1901368051056945  0.9517225289454733  0.1075912489578257   T   T   T
  0.1899726838526836  0.0943482992700071  0.1056452144541826   T   T   T
  0.1904474758975411  0.2376975492606741  0.1068624610192111   T   T   T
  0.1910896200834886  0.3806463767024110  0.1078820540636734   T   T   T
  0.1908127014801366  0.5236628786037384  0.1084200425227201   T   T   T
  0.1904021584631445  0.6663921569210581  0.1094034951741686   T   T   T
  0.1902536641490152  0.8090812129010150  0.1092457557936784   T   T   T
  0.3330013050994466  0.9517062907743349  0.1079448812843164   T   T   T
  0.3327345196912726  0.0940050702775889  0.1079120247594594   T   T   T
  0.3317662432478635  0.2357844036559035  0.1131416628747851   T   T   T
  0.3338298303731889  0.3786219213202699  0.1164704204806138   T   T   T
  0.3337972258566321  0.5238450573305242  0.1114193195263340   T   T   T
  0.3334376877582175  0.6667225227908151  0.1088530562117377   T   T   T
  0.3332127457810528  0.8093089584365168  0.1091068181173340   T   T   T
  0.4760916962603677  0.9523812170508195  0.1080819622547390   T   T   T
  0.4758197133780694  0.0943838253682515  0.1065117405454761   T   T   T
  0.4754424898508000  0.2358603123442118  0.1139021397240659   T   T   T
  0.4679273100925140  0.3649259077079543  0.1597679401105744   T   T   T
  0.4757979326145057  0.5303252892308103  0.1261929229218833   T   T   T
  0.4766184363840609  0.6686941286249980  0.1075598376430691   T   T   T
  0.4763270098284950  0.8103198585732945  0.1081494028130794   T   T   T
  0.6192970064639117  0.9532078987891562  0.1086145979936333   T   T   T
  0.6190332368646740  0.0954599431472473  0.1076186772831126   T   T   T
  0.6186784351066835  0.2377642585094090  0.1079974469319276   T   T   T
  0.6162897975085853  0.3787900936905978  0.1177589163597065   T   T   T
  0.6262388843591394  0.5306752038291370  0.1275158732502651   T   T   T
  0.6206372940349276  0.6697214611939794  0.1078236548074488   T   T   T
  0.6196886957441038  0.8111593443942130  0.1070785404906594   T   T   T
  0.7624437071923866  0.9534728146822063  0.1086150700080674   T   T   T
  0.7621698537053251  0.0959076693931076  0.1092306958429925   T   T   T
  0.7618333475624883  0.2383249098522951  0.1079765914169218   T   T   T
  0.7609899066408807  0.3806976828364534  0.1086246989175320   T   T   T
  0.7615244963578326  0.5239235029139916  0.1117431939284931   T   T   T
  0.7636289295515374  0.6687651083731946  0.1072908183190185   T   T   T
  0.7629132088114957  0.8111533561151603  0.1067803465391908   T   T   T
  0.9526264637503596  0.9052327004956797  0.1078730780650578   T   T   T
  0.9526559376139953  0.0481742210607487  0.1083288086603261   T   T   T
  0.9526805278871782  0.1910008793770567  0.1086698699527248   T   T   T
  0.9525574143811790  0.3337053982454675  0.1083043271677893   T   T   T
  0.9521675026567039  0.4762680242269302  0.1081555300114522   T   T   T
  0.9520569627410476  0.6189334675838400  0.1087343293929341   T   T   T
  0.9522576451978958  0.7619150301823595  0.1080564235702979   T   T   T
  0.0949400816025771  0.9043456199417099  0.1079231140327716   T   T   T
  0.0949442217152019  0.0473205832109674  0.1063367861247716   T   T   T
  0.0952980623622213  0.1905684617068412  0.1064749204071016   T   T   T
  0.0957820270850977  0.3335511069042963  0.1072255861338636   T   T   T
  0.0955219398208882  0.4762592244774165  0.1081962004444725   T   T   T
  0.0951527130302864  0.6188584654853674  0.1091353277669473   T   T   T
  0.0949781118765702  0.7615200322448759  0.1092361134449263   T   T   T
  0.2377520537859803  0.9040823265985211  0.1085398885591990   T   T   T
  0.2375089284534246  0.0466470612269124  0.1064771869580285   T   T   T
  0.2371577988147072  0.1892551094318056  0.1054924270913063   T   T   T
  0.2387207140922363  0.3330829043914939  0.1084011495429441   T   T   T
  0.2388206932453533  0.4761715549640257  0.1086391773962158   T   T   T
  0.2383303249146521  0.6189142794535633  0.1091200340863879   T   T   T
  0.2379751694834860  0.7615104725289561  0.1095919696125997   T   T   T
  0.3808318773346724  0.9043321380277378  0.1084956107178135   T   T   T
  0.3805789277283630  0.0466380408063268  0.1069594807830410   T   T   T
  0.3800251109823053  0.1886303857474105  0.1118467181738794   T   T   T
  0.3781642985018495  0.3293565113458153  0.1269766669104931   T   T   T
  0.3822558914911776  0.4757777674713347  0.1169189015744119   T   T   T
  0.3815350294073789  0.6192089680904090  0.1091938984967871   T   T   T
  0.3810897418864052  0.7618749402991244  0.1087539330297606   T   T   T
  0.5240200384961256  0.9052111332704708  0.1085151192397682   T   T   T
  0.5237997174050937  0.0473328854458450  0.1070867407017009   T   T   T
  0.5235279232663634  0.1892999097546613  0.1066395705262380   T   T   T
  0.5225871817669191  0.3294551857503334  0.1278794614185981   T   T   T
  0.5252365693696408  0.6218704639276333  0.1088887319237632   T   T   T
  0.5243734202242241  0.7632823254353116  0.1069724328426925   T   T   T
  0.6671932929103707  0.9059294103172623  0.1082955166225489   T   T   T
  0.6669340569054498  0.0481925490568623  0.1087559648272585   T   T   T
  0.6666915559368933  0.1906067308677117  0.1073279574438478   T   T   T
  0.6657945213389226  0.3331546239561612  0.1096745271319822   T   T   T
  0.6650751128109176  0.4759318570948757  0.1179968115583952   T   T   T
  0.6682641788458918  0.6220011694912215  0.1091287727245646   T   T   T
  0.6676874338407102  0.7639359454803093  0.1061047344619277   T   T   T
  0.8101445794623865  0.9059266458912417  0.1080228182758714   T   T   T
  0.8099207376045230  0.0484334066418267  0.1094429006692452   T   T   T
  0.8097444404154284  0.1910173015852253  0.1089559229826535   T   T   T
  0.8091913383177781  0.3335790064883012  0.1077531502347141   T   T   T
  0.8088042922637185  0.4762142581004499  0.1089050669593978   T   T   T
  0.8092125140616017  0.6192779550846431  0.1090106711313114   T   T   T
  0.8104035479956300  0.7633422298086032  0.1063602655072902   T   T   T
  0.5244789470237120  0.4774846196523736  0.2114556402613929   T   T   T

  0.00000000E+00  0.00000000E+00  0.00000000E+00
  0.00000000E+00  0.00000000E+00  0.00000000E+00
  0.00000000E+00  0.00000000E+00  0.00000000E+00
  0.00000000E+00  0.00000000E+00  0.00000000E+00
  0.00000000E+00  0.00000000E+00  0.00000000E+00
  0.00000000E+00  0.00000000E+00  0.00000000E+00
  0.00000000E+00  0.00000000E+00  0.00000000E+00
  0.00000000E+00  0.00000000E+00  0.00000000E+00
  0.00000000E+00  0.00000000E+00  0.00000000E+00
  0.00000000E+00  0.00000000E+00  0.00000000E+00
  0.00000000E+00  0.00000000E+00  0.00000000E+00
  0.00000000E+00  0.00000000E+00  0.00000000E+00
  0.00000000E+00  0.00000000E+00  0.00000000E+00
  0.00000000E+00  0.00000000E+00  0.00000000E+00
  0.00000000E+00  0.00000000E+00  0.00000000E+00
  0.00000000E+00  0.00000000E+00  0.00000000E+00
  0.00000000E+00  0.00000000E+00  0.00000000E+00
  0.00000000E+00  0.00000000E+00  0.00000000E+00
  0.00000000E+00  0.00000000E+00  0.00000000E+00
  0.00000000E+00  0.00000000E+00  0.00000000E+00
  0.00000000E+00  0.00000000E+00  0.00000000E+00
  0.00000000E+00  0.00000000E+00  0.00000000E+00
  0.00000000E+00  0.00000000E+00  0.00000000E+00
  0.00000000E+00  0.00000000E+00  0.00000000E+00
  0.00000000E+00  0.00000000E+00  0.00000000E+00
  0.00000000E+00  0.00000000E+00  0.00000000E+00
  0.00000000E+00  0.00000000E+00  0.00000000E+00
  0.00000000E+00  0.00000000E+00  0.00000000E+00
  0.00000000E+00  0.00000000E+00  0.00000000E+00
  0.00000000E+00  0.00000000E+00  0.00000000E+00
  0.00000000E+00  0.00000000E+00  0.00000000E+00
  0.00000000E+00  0.00000000E+00  0.00000000E+00
  0.00000000E+00  0.00000000E+00  0.00000000E+00
  0.00000000E+00  0.00000000E+00  0.00000000E+00
  0.00000000E+00  0.00000000E+00  0.00000000E+00
  0.00000000E+00  0.00000000E+00  0.00000000E+00
  0.00000000E+00  0.00000000E+00  0.00000000E+00
  0.00000000E+00  0.00000000E+00  0.00000000E+00
  0.00000000E+00  0.00000000E+00  0.00000000E+00
  0.00000000E+00  0.00000000E+00  0.00000000E+00
  0.00000000E+00  0.00000000E+00  0.00000000E+00
  0.00000000E+00  0.00000000E+00  0.00000000E+00
  0.00000000E+00  0.00000000E+00  0.00000000E+00
  0.00000000E+00  0.00000000E+00  0.00000000E+00
  0.00000000E+00  0.00000000E+00  0.00000000E+00
  0.00000000E+00  0.00000000E+00  0.00000000E+00
  0.00000000E+00  0.00000000E+00  0.00000000E+00
  0.00000000E+00  0.00000000E+00  0.00000000E+00
  0.00000000E+00  0.00000000E+00  0.00000000E+00
  0.00000000E+00  0.00000000E+00  0.00000000E+00
  0.00000000E+00  0.00000000E+00  0.00000000E+00
  0.00000000E+00  0.00000000E+00  0.00000000E+00
  0.00000000E+00  0.00000000E+00  0.00000000E+00
  0.00000000E+00  0.00000000E+00  0.00000000E+00
  0.00000000E+00  0.00000000E+00  0.00000000E+00
  0.00000000E+00  0.00000000E+00  0.00000000E+00
  0.00000000E+00  0.00000000E+00  0.00000000E+00
  0.00000000E+00  0.00000000E+00  0.00000000E+00
  0.00000000E+00  0.00000000E+00  0.00000000E+00
  0.00000000E+00  0.00000000E+00  0.00000000E+00
  0.00000000E+00  0.00000000E+00  0.00000000E+00
  0.00000000E+00  0.00000000E+00  0.00000000E+00
  0.00000000E+00  0.00000000E+00  0.00000000E+00
  0.00000000E+00  0.00000000E+00  0.00000000E+00
  0.00000000E+00  0.00000000E+00  0.00000000E+00
  0.00000000E+00  0.00000000E+00  0.00000000E+00
  0.00000000E+00  0.00000000E+00  0.00000000E+00
  0.00000000E+00  0.00000000E+00  0.00000000E+00
  0.00000000E+00  0.00000000E+00  0.00000000E+00
  0.00000000E+00  0.00000000E+00  0.00000000E+00
  0.00000000E+00  0.00000000E+00  0.00000000E+00
  0.00000000E+00  0.00000000E+00  0.00000000E+00
  0.00000000E+00  0.00000000E+00  0.00000000E+00
  0.00000000E+00  0.00000000E+00  0.00000000E+00
  0.00000000E+00  0.00000000E+00  0.00000000E+00
  0.00000000E+00  0.00000000E+00  0.00000000E+00
  0.00000000E+00  0.00000000E+00  0.00000000E+00
  0.00000000E+00  0.00000000E+00  0.00000000E+00
  0.00000000E+00  0.00000000E+00  0.00000000E+00
  0.00000000E+00  0.00000000E+00  0.00000000E+00
  0.00000000E+00  0.00000000E+00  0.00000000E+00
  0.00000000E+00  0.00000000E+00  0.00000000E+00
  0.00000000E+00  0.00000000E+00  0.00000000E+00
  0.00000000E+00  0.00000000E+00  0.00000000E+00
  0.00000000E+00  0.00000000E+00  0.00000000E+00
  0.00000000E+00  0.00000000E+00  0.00000000E+00
  0.00000000E+00  0.00000000E+00  0.00000000E+00
  0.00000000E+00  0.00000000E+00  0.00000000E+00
  0.00000000E+00  0.00000000E+00  0.00000000E+00
  0.00000000E+00  0.00000000E+00  0.00000000E+00
  0.00000000E+00  0.00000000E+00  0.00000000E+00
  0.00000000E+00  0.00000000E+00  0.00000000E+00
  0.00000000E+00  0.00000000E+00  0.00000000E+00
  0.00000000E+00  0.00000000E+00  0.00000000E+00
  0.00000000E+00  0.00000000E+00  0.00000000E+00
  0.00000000E+00  0.00000000E+00  0.00000000E+00
  0.00000000E+00  0.00000000E+00  0.00000000E+00
  0.00000000E+00  0.00000000E+00  0.00000000E+00
