 B N Sb 
 1.0
 17.527899999999772   0.000000000000000   0.000000000000000
 -8.763949999999658  15.179606674993195   0.000000000000000
  0.000000000000001   0.000000000000002  15.000000000000000
 B N Sb 
  48  48   1
Cartesian
  7.509790915990530  14.469455509156074   1.461593288003505 
 15.010116505952602   1.453644039696311   1.488676020498525 
 13.753643379030919   3.621663546756288   1.557220826360415 
 12.502834339194433   5.789701729144367   1.620867734389590 
 11.263850780554355   7.958588202274457   1.643420089559310 
 10.026965442793202  10.130189397713123   1.591756675066950 
  8.774894408080772  12.305380293346889   1.503087919406445 
 -7.511127223269140  14.456282262124793   1.483348145259480 
 -0.012009005223469   1.441207169641262   1.461484910108175 
 -1.270528243689653   3.614253502587064   1.510664433743355 
 -2.519387870871878   5.784730859816535   1.592171957759865 
 -3.756156984761394   7.952474990215226   1.626847991847780 
 -4.997357669042443  10.119737783328796   1.606696473048360 
 -6.251249900924999  12.289615886607070   1.546911107464395 
 -5.004787819812397  14.448562085294499   1.548097316727900 
  2.494698099880671   1.427615314495745   1.504448191312425 
  1.226978113815286   3.591925085454465   1.514807609141160 
 -0.020188434272820   5.774084261101430   1.637797428187320 
 -1.245706833470850   7.944412371729746   1.708178406490350 
 -2.487930571377063  10.113604388436407   1.673907651381825 
 -3.745858389349954  12.282410653286615   1.604554145867595 
 -2.498709518103864  14.447629622041045   1.609220709123405 
  5.004526710523447   1.430937529576153   1.594407248788890 
  3.731939154261654   3.570043455739260   1.613850292480740 
  2.442402085716806   5.732468940845968   1.810256133936750 
  1.272637289798551   7.915465337791135   1.962906582008445 
  0.029409177715645  10.102699828348308   1.831083097919025 
 -1.238667539522787  12.277502270794891   1.675467743782935 
 -0.001202518211595  14.456429861469518   1.630401581858835 
  7.503615504060269   1.445535659676439   1.647396833689395 
  6.240845699551143   3.606087587560713   1.744059433531890 
  4.934908540785659   5.670581865337321   2.008874965496265 
  2.545179374399027  10.119737783328796   1.963707833009160 
  1.260945427150835  12.286233423354522   1.710818092448250 
  2.494499035238343  14.469113650083111   1.595400213558030 
 10.001389770531363   1.457060768687069   1.624210204997400 
  8.742181102889539   3.626723595621083   1.722047179449390 
  7.480957316028970   5.800694961798285   1.885931133293295 
  6.320644739308862   8.070646518859474   2.008477599180480 
  5.020628838034930  10.198190773017780   1.810384132233900 
  3.753252454085722  12.310151419322667   1.639818013699965 
  4.998563314897144  14.472786158450099   1.512567590641830 
 12.504359350812839   1.457770484004363   1.558964591359065 
 11.247971780918025   3.625775523511428   1.633070414107290 
  9.994265495305077   5.795391781921140   1.719825667025985 
  8.761351120518210   7.971907999145619   1.741381978122720 
  7.538101111614499  10.162692612095457   1.612439341889400 
  6.266605696261703  12.321102123625655   1.514936222506335 
  8.764509555562253  13.744811919117987   1.469157091235970 
 16.263932836994595   0.729751084393561   1.458486066541290 
 15.004590705062038   2.896988594981739   1.509686022836565 
 13.752769200241090   5.065998396110090   1.584025274606475 
 12.512327268673811   7.234107263689882   1.625380041405360 
 11.272921488333006   9.402394264443229   1.612425055622040 
 10.022840424207530  11.573034587836622   1.541466185101935 
 -6.257635176293608  13.732618255120228   1.520512505996340 
  1.242916522905518   0.716870843180341   1.469673063707925 
 -0.022206303978682   2.881090839758654   1.473648508880805 
 -1.274615273811637   5.059868891664398   1.565722367222325 
 -2.506434600527436   7.228758073016890   1.630524089865255 
 -3.747236882380834   9.396867201389810   1.630985967762645 
 -5.000276054267056  11.564790509300989   1.585008737813295 
 -3.751589985030414  13.727612819837239   1.586397142824120 
  3.752888077485406   0.713030647936436   1.543453499178780 
  2.483970662145016   2.866720220751455   1.516626807511890 
  1.212958203784971   5.024153332863412   1.597363641268530 
 -0.000301397274851   7.216226069210999   1.752541437373515 
 -1.235758489805568   9.390438396203850   1.747849341966885 
 -2.493541141948477  11.559433282218015   1.651357050986040 
 -1.247608778296327  13.726492315534651   1.633789698710640 
  6.257762779110847   0.715771175454605   1.615633926788370 
  4.997491737802213   2.877448107639828   1.638732931632360 
  3.712082691988901   5.005220846743197   1.752979956538710 
  2.447474903300108   7.111240910294259   2.104679741028630 
  1.281353032259940   9.379878313837658   1.986480220484100 
  0.013628393952342  11.554615578732715   1.749537144286845 
  1.250394624884086  13.735946338145183   1.634050214003595 
  8.755284875214389   0.726592041527877   1.629420101249745 
  7.494900859354530   2.896109338345391   1.705064868001470 
  6.224984140330422   5.059868891664398   1.905665544851820 
  3.829178339910407   9.504330216437236   2.104844002306455 
  2.514299801219669  11.571847452058453   1.754650742736765 
  3.744615801004684  13.753610744492553   1.568386834901925 
 11.253098685379770   0.736388755261839   1.587071632770570 
  9.993861204437691   2.905912065088813   1.657259367774705 
  8.730429550208925   5.079348612958644   1.785090454670370 
  7.494378109851179   7.258831909263420   1.904592741192435 
  6.285289701960432   9.462303617394484   1.752397944216210 
  5.019277016755290  11.617156999481633   1.598155361308860 
  6.257634614659684  13.758335605188215   1.474422758713170 
 13.757367794799777   0.736724447262717   1.511508782004435 
 12.499567961912657   2.903120104837469   1.580320339054590 
 11.244305315549518   5.071831248708136   1.655097664625145 
 10.003195349488134   7.240855963571896   1.700822560894155 
  8.770616181253956   9.412998368586509   1.636408047644205 
  7.523133496963593  11.595125903349420   1.515411864631665 
  4.231973578106576   7.676407234580025   3.050953806616080 
