Species order: X N B                    
   2.51242800000000     
     5.9449720136058266    0.0000000000000000    0.0000000000000000
    -2.9724860068029120    5.1484967885702053   -0.0000000000000001
     0.0000000000000000    0.0000000000000009    5.3101128803662583
   Se   N    B 
     1   143   143
Direct
  0.5244714523407413  0.4289023928370350  0.3750000000000000
  0.1109953541023766  0.0555026398571738  0.1249479896448230
  0.6110472016756220  0.5555839470758382  0.1245608883084423
  0.4444378256812049  0.0555393013337729  0.1249222061463710
  0.9443657744037537  0.5555077985464699  0.1248734671374896
  0.7777246626902045  0.0555289980117695  0.1247908317332151
  0.1110641384552464  0.7221987358942877  0.6251347875974748
  0.4444378256812049  0.7222318576807673  0.6250777938536257
  0.2775853100081910  0.2221234501321362  0.6249447409760082
  0.7776972397291402  0.7222098794928263  0.6252289899957748
  0.6110779121737273  0.2221542722290605  0.6252995936321039
  0.9443387957661944  0.2221630183342716  0.6251829854488206
  0.2777617638490144  0.7222102197525486  0.1248951294450297
  0.1109468067298883  0.2221400700316080  0.1249322527882712
  0.4444086073488608  0.2221815836982678  0.1249634061797658
  0.6110779121737273  0.7222569732779921  0.1247004063678944
  0.9443657744037537  0.7221913091906176  0.1248734671374896
  0.7777226857438994  0.2221651950207988  0.1247829558922472
  0.1110546494174268  0.8888721446300262  0.6251124238964696
  0.4444437395936252  0.8888885364634791  0.6251359672982069
  0.2775853100081910  0.3887951932093843  0.6249447409760082
  0.6110472016756220  0.3887965879331101  0.6254391116915579
  0.7777226857438994  0.8888908240564292  0.6252170441077509
  0.9443589578025521  0.3888328949326498  0.6251509136778012
  0.1109953541023766  0.3888260475785308  0.1249479896448230
  0.2777617638490144  0.8888848774297944  0.1248951294450297
  0.6110951241701456  0.8889032071201213  0.1248095894958587
  0.4441430350828329  0.3887381842080789  0.1237457274297971
  0.9443589578025521  0.8888593962032281  0.1248490863221986
  0.7776972397291402  0.3888206935696427  0.1247710100042252
  0.2777336276120697  0.5555278072026092  0.6249325011615289
  0.1109953541023766  0.0555026398571738  0.6250520103551761
  0.6110472016756220  0.5555839470758382  0.6254391116915579
  0.4444378256812049  0.0555393013337729  0.6250777938536257
  0.9443657744037537  0.5555077985464699  0.6251265328625112
  0.1110546494174268  0.5555158381207312  0.1248875761035313
  0.7777246626902045  0.0555289980117695  0.6252091682667853
  0.2777336276120697  0.0555391537427938  0.1250674988384704
  0.4444086073488606  0.5555603569839254  0.1249634061797658
  0.7776859715137570  0.5555096524235476  0.1248989236456929
  0.6110951241701456  0.0555252503833523  0.1248095894958587
  0.4444086073488606  0.5555603569839254  0.6250365938202329
  0.9443387957661944  0.0555091107652580  0.1248170145511809
  0.2777617638490144  0.7222102197525486  0.6251048705549701
  0.1109468067298883  0.2221400700316080  0.6250677472117281
  0.4444086073488608  0.2221815836982678  0.6250365938202329
  0.6110779121737273  0.7222569732779921  0.6252995936321039
  0.9443657744037537  0.7221913091906176  0.6251265328625112
  0.7777226857438994  0.2221651950207988  0.6252170441077509
  0.1110641384552464  0.7221987358942877  0.1248652124025242
  0.4444378256812049  0.7222318576807673  0.1249222061463710
  0.2775853100081910  0.2221234501321362  0.1250552590239918
  0.7776972397291402  0.7222098794928263  0.1247710100042252
  0.6110779121737273  0.2221542722290605  0.1247004063678944
  0.9443387957661944  0.2221630183342716  0.1248170145511809
  0.1109953541023766  0.3888260475785308  0.6250520103551761
  0.2777617638490144  0.8888848774297944  0.6251048705549701
  0.6110951241701456  0.8889032071201213  0.6251904105041410
  0.4441430350828329  0.3887381842080789  0.6262542725702024
  0.9443589578025521  0.8888593962032281  0.6251509136778012
  0.1110546494174268  0.8888721446300262  0.1248875761035313
  0.7776972397291402  0.3888206935696427  0.6252289899957748
  0.4444437395936252  0.8888885364634791  0.1248640327017927
  0.2775853100081910  0.3887951932093843  0.1250552590239918
  0.2777336276120697  0.5555278072026092  0.1250674988384704
  0.6110472016756220  0.3887965879331101  0.1245608883084423
  0.7777226857438994  0.8888908240564292  0.1247829558922472
  0.9443589578025521  0.3888328949326498  0.1248490863221986
  0.1110546494174268  0.5555158381207312  0.6251124238964696
  0.2777336276120697  0.0555391537427938  0.6249325011615289
  0.7776859715137570  0.5555096524235476  0.6251010763543090
  0.6110951241701456  0.0555252503833523  0.6251904105041410
  0.9443387957661944  0.0555091107652580  0.6251829854488206
  0.0549337732171123  0.1107002380790467  0.3750000000000000
  0.5556020117887366  0.6191735366244595  0.3750000000000000
  0.3863403139784828  0.1035596621083245  0.3750000000000000
  0.8874788830022962  0.6104061081678214  0.3750000000000000
  0.7221891452806152  0.1102200857572787  0.3750000000000000
  0.0555612775377511  0.7777773166268296  0.8750000000000000
  0.3888838450021686  0.7777778717546344  0.8750000000000000
  0.2222296828848735  0.2777815081091037  0.8750000000000000
  0.7222263551840032  0.7777713274380816  0.8750000000000000
  0.5555538683483078  0.2777813163573005  0.8750000000000000
  0.8888986980790786  0.2777905988896257  0.8750000000000000
  0.2195859854795232  0.7764596594064302  0.3750000000000000
  0.0549337732171124  0.2775668684714022  0.3750000000000000
  0.3823134879264185  0.2624869199998547  0.3750000000000000
  0.5546519227210961  0.7810923287021972  0.3750000000000000
  0.8892322753270863  0.7788563252303029  0.3750000000000000
  0.7228360188312429  0.2757311560943240  0.3750000000000000
  0.0555597628076153  0.9444380876870114  0.8750000000000000
  0.3888838450021686  0.9444393065808697  0.8750000000000000
  0.2222234978770375  0.4444539420023488  0.8750000000000000
  0.5555614344740826  0.4444473839037056  0.8750000000000000
  0.7222232849768891  0.9444414301606928  0.8750000000000000
  0.8889002155146444  0.4444575155007981  0.8750000000000000
  0.0537332036449343  0.4443156125214101  0.3750000000000000
  0.2194481693756987  0.9413108461059710  0.3750000000000000
  0.5545116769283850  0.9439225051308554  0.3750000000000000
  0.3823134879264185  0.4531599012599004  0.3750000000000000
  0.8889147461569755  0.9451241983917871  0.3750000000000000
  0.7252456061240968  0.4429721440289571  0.3750000000000000
  0.2222180055465139  0.6111170303873118  0.8750000000000000
  0.0555655151538356  0.1111109928721701  0.8750000000000000
  0.5555538683483078  0.6111058853243392  0.8750000000000000
  0.3888828816716911  0.1111029578318705  0.8750000000000000
  0.8889060453369590  0.6111196893351509  0.8750000000000000
  0.0534395071515542  0.6104464971591793  0.3750000000000000
  0.7222232849768891  0.1111151881495317  0.8750000000000000
  0.2180425703719020  0.1061211120149270  0.3750000000000000
  0.3863403139784828  0.6161139852034995  0.3750000000000000
  0.7252456061240968  0.6156067954284812  0.3750000000000000
  0.5546519227210961  0.1068929273522348  0.3750000000000000
  0.3888828816716911  0.6111132571731647  0.8750000000000000
  0.8888504950668288  0.1110919142000854  0.3750000000000000
  0.2222195185025045  0.7777764259179225  0.8750000000000000
  0.0555655151538356  0.2777878556150016  0.8750000000000000
  0.3888884380898266  0.2777705600291512  0.8750000000000000
  0.5555502024105715  0.7777724878365858  0.8750000000000000
  0.8889002155146444  0.7777760333471819  0.8750000000000000
  0.7222263551840032  0.2777883610792574  0.8750000000000000
  0.0534395071515542  0.7763263433257135  0.3750000000000000
  0.3866080628879371  0.7785657521948126  0.3750000000000000
  0.2216580756296363  0.2774957044814853  0.3750000000000000
  0.7228360188312429  0.7804381960702559  0.3750000000000000
  0.5556020117887366  0.2697618084976130  0.3750000000000000
  0.8889147461569755  0.2771238810985256  0.3750000000000000
  0.0555597628076153  0.4444550084539349  0.8750000000000000
  0.2222180055465139  0.9444343084925388  0.8750000000000000
  0.5555498467903093  0.9444415900618196  0.8750000000000000
  0.3888884380898266  0.4444512113940138  0.8750000000000000
  0.8888986980790786  0.9444414325227867  0.8750000000000000
  0.0537332036449344  0.9427509244568530  0.3750000000000000
  0.7222340284266686  0.4444566540573246  0.8750000000000000
  0.3866080628879372  0.9413756440264643  0.3750000000000000
  0.2180425703719020  0.4452547916903118  0.3750000000000000
  0.2194481693756987  0.6114706566030601  0.3750000000000000
  0.7221891452806152  0.9453023928566719  0.3750000000000000
  0.8892322753270863  0.4437092834301170  0.3750000000000000
  0.0555612775377511  0.6111172942442553  0.8750000000000000
  0.2222234978770375  0.1111028892080239  0.8750000000000000
  0.7222340284266686  0.6111107077026811  0.8750000000000000
  0.5555502024105715  0.1111110479073243  0.8750000000000000
  0.8888989348557694  0.1111161340945558  0.8750000000000000
  0.1094797106809778  0.0538150837725225  0.3750000000000000
  0.6151461085788325  0.5682714705100305  0.3750000000000000
  0.4428436240843613  0.0516586171097251  0.3750000000000000
  0.9428031595123587  0.5546921496341795  0.3750000000000000
  0.7781367547043790  0.0557350440188569  0.3750000000000000
  0.1111197159487210  0.7222265246410253  0.8750000000000000
  0.4444160989404551  0.7221359068252605  0.8750000000000000
  0.2778742875034799  0.2223056921128752  0.8750000000000000
  0.7777250450233173  0.7221442195120624  0.8750000000000000
  0.6110478530250840  0.2222802046762417  0.8750000000000000
  0.9445146377225154  0.2222630200907482  0.8750000000000000
  0.2755778260646425  0.7218379822902291  0.3750000000000000
  0.1127265404737327  0.2230299369035306  0.3750000000000000
  0.4398269922699503  0.2154478214903969  0.3750000000000000
  0.6108032616982292  0.7267687726672394  0.3750000000000000
  0.9428031595123587  0.7214443432115137  0.3750000000000000
  0.7781296619425506  0.2211424417466859  0.3750000000000000
  0.1111411366881630  0.8889240222983664  0.8750000000000000
  0.4444197687461025  0.8888765510397153  0.8750000000000000
  0.2778742875034799  0.3889019287239329  0.8750000000000000
  0.6110162563044648  0.3889066259478746  0.8750000000000000
  0.7777682461880997  0.8888419790564969  0.8750000000000000
  0.9444683189240940  0.3889141315494432  0.8750000000000000
  0.1094797106809778  0.3889979602417838  0.3750000000000000
  0.2755778260646425  0.8870731771077424  0.3750000000000000
  0.6108368008929120  0.8902120048761808  0.3750000000000000
  0.9439678870079937  0.8891391842026531  0.3750000000000000
  0.7789929355121719  0.3871700977442823  0.3750000000000000
  0.2778135910238130  0.5555124139140578  0.8750000000000000
  0.1112005748281273  0.0556222397305554  0.8750000000000000
  0.6110162563044648  0.5554429636899180  0.8750000000000000
  0.4444160989404551  0.0556135254485277  0.8750000000000000
  0.9444320695713297  0.5555567802281879  0.8750000000000000
  0.1090973452453240  0.5551531071274681  0.3750000000000000
  0.7777895040096456  0.0555614186714905  0.8750000000000000
  0.2755381248679980  0.0527438784703943  0.3750000000000000
  0.4398269922699503  0.5577125041128893  0.3750000000000000
  0.7760152025639124  0.5546742679486250  0.3750000000000000
  0.6108368008929120  0.0539581293500584  0.3750000000000000
  0.4444181985135183  0.5554488964692789  0.8750000000000000
  0.9449706638800356  0.0561591845047907  0.3750000000000000
  0.2777825848288918  0.7221980576288346  0.8750000000000000
  0.1112386989568004  0.2222860161450645  0.8750000000000000
  0.4444181985135183  0.2223026353775761  0.8750000000000000
  0.6110478530250840  0.7221009816821700  0.8750000000000000
  0.9444320695713297  0.7222086226764795  0.8750000000000000
  0.7777682461880997  0.2222596004649307  0.8750000000000000
  0.1089344929995556  0.7211339131664416  0.3750000000000000
  0.4428436240843613  0.7245183403079711  0.3750000000000000
  0.2781693943424219  0.2196775623359614  0.3750000000000000
  0.7789929355121719  0.7251561711012192  0.3750000000000000
  0.6108032616982292  0.2173678223643176  0.3750000000000000
  0.9449706638800356  0.2221448127085810  0.3750000000000000
  0.1112005748281273  0.3889116684309005  0.8750000000000000
  0.2777825848288918  0.8889178605333861  0.8750000000000000
  0.6110772602571329  0.8888353056852203  0.8750000000000000
  0.4444388091310987  0.3888860712322139  0.8750000000000000
  0.9444683189240940  0.8888875207079752  0.8750000000000000
  0.1090973452453240  0.8872775714511866  0.3750000000000000
  0.7777250450233173  0.3889141588445863  0.8750000000000000
  0.4430565443539525  0.8881949388436444  0.3750000000000000
  0.2781693943424220  0.3918251653397924  0.3750000000000000
  0.2755381248679980  0.5561275797309377  0.3750000000000000
  0.6151461085788325  0.3802079714021329  0.3750000000000000
  0.7781296619425506  0.8903205535291939  0.3750000000000000
  0.9439678870079937  0.3881620361386705  0.3750000000000000
  0.1111411366881630  0.5555504477231238  0.8750000000000000
  0.2778135910238130  0.0556345104430926  0.8750000000000000
  0.7777078127345883  0.5555205730339599  0.8750000000000000
  0.6110772602571329  0.0555752879052421  0.8750000000000000
  0.9445146377225154  0.0555849509651004  0.8750000000000000
  0.0556278990235212  0.1112182459638368  0.1254628217030498
  0.5553069555133335  0.6107970038490427  0.1256905651504091
  0.3889581130498644  0.1114471936285233  0.1258776347679511
  0.8885990005011334  0.6109661669172378  0.1252239537043710
  0.7221553236814175  0.1110897515623560  0.1251534612123499
  0.0554965919870259  0.7778088236563327  0.6248079040353763
  0.3889439554578162  0.7776983475458575  0.6246820564338452
  0.2223847101137321  0.2778590217235337  0.6237568261646655
  0.7220133170225437  0.7776375447538214  0.6248126409163637
  0.5553069555133335  0.2778432849976259  0.6243094348495913
  0.8888238045890287  0.2777050606972097  0.6248112209709784
  0.2222712007381353  0.7778022670357329  0.1252193681778524
  0.0556278990235212  0.2777429863930200  0.1254628217030498
  0.3888576867777955  0.2780230749065560  0.1269779840101646
  0.5554913879187657  0.7776303498124396  0.1253152517228976
  0.8886871599338518  0.7777094525089455  0.1251792745243660
  0.7220133170225437  0.2777091056020575  0.1251873590836362
  0.0555699953624503  0.9445829357740049  0.6246817401006728
  0.3889439554578162  0.9445789412452950  0.6246820564338452
  0.2223660789409226  0.4442687153452788  0.6240369163272148
  0.5549539718520365  0.4441436525926826  0.6226515028105425
  0.7221553236814175  0.9443989054523944  0.6248465387876490
  0.8886871599338518  0.4443110407582387  0.6248207254756359
  0.0555699953624503  0.4443203929217736  0.1253182598993277
  0.2223108967077866  0.9446788649301533  0.1254049289400464
  0.5555430963623259  0.9444382148478249  0.1252092280310847
  0.3888576867777955  0.4441679452045745  0.1269779840101646
  0.8888238045890287  0.9444520772251551  0.1251887790290193
  0.7217359881015014  0.4442322534996416  0.1253594403207264
  0.2223108967077866  0.6109653651109710  0.6245950710599578
  0.0556278990235212  0.1112182459638368  0.6245371782969481
  0.5553069555133335  0.6107970038490427  0.6243094348495913
  0.3889581130498644  0.1114471936285233  0.6241223652320481
  0.8885990005011334  0.6109661669172378  0.6247760462956282
  0.0554965919870259  0.6110211016640285  0.1251920959646231
  0.7221553236814175  0.1110897515623560  0.6248465387876490
  0.2223660789409226  0.1114306969289793  0.1259630836727844
  0.3889581130498644  0.6108442527546838  0.1258776347679511
  0.7217359881015014  0.6108370679351939  0.1253594403207264
  0.5554913879187657  0.1111943714396633  0.1253152517228976
  0.3889581130498644  0.6108442527546838  0.6241223652320481
  0.8888766361947967  0.1111049847640691  0.1251891908383586
  0.2222712007381353  0.7778022670357329  0.6247806318221480
  0.0556278990235212  0.2777429863930200  0.6245371782969481
  0.3888576867777955  0.2780230749065560  0.6230220159898351
  0.5554913879187657  0.7776303498124396  0.6246847482771022
  0.8886871599338518  0.7777094525089455  0.6248207254756359
  0.7220133170225437  0.2777091056020575  0.6248126409163637
  0.0554965919870259  0.7778088236563327  0.1251920959646231
  0.3889439554578162  0.7776983475458575  0.1253179435661554
  0.2223847101137321  0.2778590217235337  0.1262431738353344
  0.7220133170225437  0.7776375447538214  0.1251873590836362
  0.5553069555133335  0.2778432849976259  0.1256905651504091
  0.8888238045890287  0.2777050606972097  0.1251887790290193
  0.0555699953624503  0.4443203929217736  0.6246817401006728
  0.2223108967077866  0.9446788649301533  0.6245950710599578
  0.5555430963623259  0.9444382148478249  0.6247907719689166
  0.3888576867777955  0.4441679452045745  0.6230220159898351
  0.8888238045890287  0.9444520772251551  0.6248112209709784
  0.0555699953624503  0.9445829357740049  0.1253182598993277
  0.7217359881015014  0.4442322534996416  0.6246405596792755
  0.3889439554578162  0.9445789412452950  0.1253179435661554
  0.2223660789409226  0.4442687153452788  0.1259630836727844
  0.2223108967077866  0.6109653651109710  0.1254049289400464
  0.5549539718520365  0.4441436525926826  0.1273484971894583
  0.7221553236814175  0.9443989054523944  0.1251534612123499
  0.8886871599338518  0.4443110407582387  0.1251792745243660
  0.0554965919870259  0.6110211016640285  0.6248079040353763
  0.2223660789409226  0.1114306969289793  0.6240369163272148
  0.7217359881015014  0.6108370679351939  0.6246405596792755
  0.5554913879187657  0.1111943714396633  0.6246847482771022
  0.8888766361947967  0.1111049847640691  0.6248108091616408
 
  0.00000000E+00  0.00000000E+00  0.00000000E+00
  0.00000000E+00  0.00000000E+00  0.00000000E+00
  0.00000000E+00  0.00000000E+00  0.00000000E+00
  0.00000000E+00  0.00000000E+00  0.00000000E+00
  0.00000000E+00  0.00000000E+00  0.00000000E+00
  0.00000000E+00  0.00000000E+00  0.00000000E+00
  0.00000000E+00  0.00000000E+00  0.00000000E+00
  0.00000000E+00  0.00000000E+00  0.00000000E+00
  0.00000000E+00  0.00000000E+00  0.00000000E+00
  0.00000000E+00  0.00000000E+00  0.00000000E+00
  0.00000000E+00  0.00000000E+00  0.00000000E+00
  0.00000000E+00  0.00000000E+00  0.00000000E+00
  0.00000000E+00  0.00000000E+00  0.00000000E+00
  0.00000000E+00  0.00000000E+00  0.00000000E+00
  0.00000000E+00  0.00000000E+00  0.00000000E+00
  0.00000000E+00  0.00000000E+00  0.00000000E+00
  0.00000000E+00  0.00000000E+00  0.00000000E+00
  0.00000000E+00  0.00000000E+00  0.00000000E+00
  0.00000000E+00  0.00000000E+00  0.00000000E+00
  0.00000000E+00  0.00000000E+00  0.00000000E+00
  0.00000000E+00  0.00000000E+00  0.00000000E+00
  0.00000000E+00  0.00000000E+00  0.00000000E+00
  0.00000000E+00  0.00000000E+00  0.00000000E+00
  0.00000000E+00  0.00000000E+00  0.00000000E+00
  0.00000000E+00  0.00000000E+00  0.00000000E+00
  0.00000000E+00  0.00000000E+00  0.00000000E+00
  0.00000000E+00  0.00000000E+00  0.00000000E+00
  0.00000000E+00  0.00000000E+00  0.00000000E+00
  0.00000000E+00  0.00000000E+00  0.00000000E+00
  0.00000000E+00  0.00000000E+00  0.00000000E+00
  0.00000000E+00  0.00000000E+00  0.00000000E+00
  0.00000000E+00  0.00000000E+00  0.00000000E+00
  0.00000000E+00  0.00000000E+00  0.00000000E+00
  0.00000000E+00  0.00000000E+00  0.00000000E+00
  0.00000000E+00  0.00000000E+00  0.00000000E+00
  0.00000000E+00  0.00000000E+00  0.00000000E+00
  0.00000000E+00  0.00000000E+00  0.00000000E+00
  0.00000000E+00  0.00000000E+00  0.00000000E+00
  0.00000000E+00  0.00000000E+00  0.00000000E+00
  0.00000000E+00  0.00000000E+00  0.00000000E+00
  0.00000000E+00  0.00000000E+00  0.00000000E+00
  0.00000000E+00  0.00000000E+00  0.00000000E+00
  0.00000000E+00  0.00000000E+00  0.00000000E+00
  0.00000000E+00  0.00000000E+00  0.00000000E+00
  0.00000000E+00  0.00000000E+00  0.00000000E+00
  0.00000000E+00  0.00000000E+00  0.00000000E+00
  0.00000000E+00  0.00000000E+00  0.00000000E+00
  0.00000000E+00  0.00000000E+00  0.00000000E+00
  0.00000000E+00  0.00000000E+00  0.00000000E+00
  0.00000000E+00  0.00000000E+00  0.00000000E+00
  0.00000000E+00  0.00000000E+00  0.00000000E+00
  0.00000000E+00  0.00000000E+00  0.00000000E+00
  0.00000000E+00  0.00000000E+00  0.00000000E+00
  0.00000000E+00  0.00000000E+00  0.00000000E+00
  0.00000000E+00  0.00000000E+00  0.00000000E+00
  0.00000000E+00  0.00000000E+00  0.00000000E+00
  0.00000000E+00  0.00000000E+00  0.00000000E+00
  0.00000000E+00  0.00000000E+00  0.00000000E+00
  0.00000000E+00  0.00000000E+00  0.00000000E+00
  0.00000000E+00  0.00000000E+00  0.00000000E+00
  0.00000000E+00  0.00000000E+00  0.00000000E+00
  0.00000000E+00  0.00000000E+00  0.00000000E+00
  0.00000000E+00  0.00000000E+00  0.00000000E+00
  0.00000000E+00  0.00000000E+00  0.00000000E+00
  0.00000000E+00  0.00000000E+00  0.00000000E+00
  0.00000000E+00  0.00000000E+00  0.00000000E+00
  0.00000000E+00  0.00000000E+00  0.00000000E+00
  0.00000000E+00  0.00000000E+00  0.00000000E+00
  0.00000000E+00  0.00000000E+00  0.00000000E+00
  0.00000000E+00  0.00000000E+00  0.00000000E+00
  0.00000000E+00  0.00000000E+00  0.00000000E+00
  0.00000000E+00  0.00000000E+00  0.00000000E+00
  0.00000000E+00  0.00000000E+00  0.00000000E+00
  0.00000000E+00  0.00000000E+00  0.00000000E+00
  0.00000000E+00  0.00000000E+00  0.00000000E+00
  0.00000000E+00  0.00000000E+00  0.00000000E+00
  0.00000000E+00  0.00000000E+00  0.00000000E+00
  0.00000000E+00  0.00000000E+00  0.00000000E+00
  0.00000000E+00  0.00000000E+00  0.00000000E+00
  0.00000000E+00  0.00000000E+00  0.00000000E+00
  0.00000000E+00  0.00000000E+00  0.00000000E+00
  0.00000000E+00  0.00000000E+00  0.00000000E+00
  0.00000000E+00  0.00000000E+00  0.00000000E+00
  0.00000000E+00  0.00000000E+00  0.00000000E+00
  0.00000000E+00  0.00000000E+00  0.00000000E+00
  0.00000000E+00  0.00000000E+00  0.00000000E+00
  0.00000000E+00  0.00000000E+00  0.00000000E+00
  0.00000000E+00  0.00000000E+00  0.00000000E+00
  0.00000000E+00  0.00000000E+00  0.00000000E+00
  0.00000000E+00  0.00000000E+00  0.00000000E+00
  0.00000000E+00  0.00000000E+00  0.00000000E+00
  0.00000000E+00  0.00000000E+00  0.00000000E+00
  0.00000000E+00  0.00000000E+00  0.00000000E+00
  0.00000000E+00  0.00000000E+00  0.00000000E+00
  0.00000000E+00  0.00000000E+00  0.00000000E+00
  0.00000000E+00  0.00000000E+00  0.00000000E+00
  0.00000000E+00  0.00000000E+00  0.00000000E+00
  0.00000000E+00  0.00000000E+00  0.00000000E+00
  0.00000000E+00  0.00000000E+00  0.00000000E+00
  0.00000000E+00  0.00000000E+00  0.00000000E+00
  0.00000000E+00  0.00000000E+00  0.00000000E+00
  0.00000000E+00  0.00000000E+00  0.00000000E+00
  0.00000000E+00  0.00000000E+00  0.00000000E+00
  0.00000000E+00  0.00000000E+00  0.00000000E+00
  0.00000000E+00  0.00000000E+00  0.00000000E+00
  0.00000000E+00  0.00000000E+00  0.00000000E+00
  0.00000000E+00  0.00000000E+00  0.00000000E+00
  0.00000000E+00  0.00000000E+00  0.00000000E+00
  0.00000000E+00  0.00000000E+00  0.00000000E+00
  0.00000000E+00  0.00000000E+00  0.00000000E+00
  0.00000000E+00  0.00000000E+00  0.00000000E+00
  0.00000000E+00  0.00000000E+00  0.00000000E+00
  0.00000000E+00  0.00000000E+00  0.00000000E+00
  0.00000000E+00  0.00000000E+00  0.00000000E+00
  0.00000000E+00  0.00000000E+00  0.00000000E+00
  0.00000000E+00  0.00000000E+00  0.00000000E+00
  0.00000000E+00  0.00000000E+00  0.00000000E+00
  0.00000000E+00  0.00000000E+00  0.00000000E+00
  0.00000000E+00  0.00000000E+00  0.00000000E+00
  0.00000000E+00  0.00000000E+00  0.00000000E+00
  0.00000000E+00  0.00000000E+00  0.00000000E+00
  0.00000000E+00  0.00000000E+00  0.00000000E+00
  0.00000000E+00  0.00000000E+00  0.00000000E+00
  0.00000000E+00  0.00000000E+00  0.00000000E+00
  0.00000000E+00  0.00000000E+00  0.00000000E+00
  0.00000000E+00  0.00000000E+00  0.00000000E+00
  0.00000000E+00  0.00000000E+00  0.00000000E+00
  0.00000000E+00  0.00000000E+00  0.00000000E+00
  0.00000000E+00  0.00000000E+00  0.00000000E+00
  0.00000000E+00  0.00000000E+00  0.00000000E+00
  0.00000000E+00  0.00000000E+00  0.00000000E+00
  0.00000000E+00  0.00000000E+00  0.00000000E+00
  0.00000000E+00  0.00000000E+00  0.00000000E+00
  0.00000000E+00  0.00000000E+00  0.00000000E+00
  0.00000000E+00  0.00000000E+00  0.00000000E+00
  0.00000000E+00  0.00000000E+00  0.00000000E+00
  0.00000000E+00  0.00000000E+00  0.00000000E+00
  0.00000000E+00  0.00000000E+00  0.00000000E+00
  0.00000000E+00  0.00000000E+00  0.00000000E+00
  0.00000000E+00  0.00000000E+00  0.00000000E+00
  0.00000000E+00  0.00000000E+00  0.00000000E+00
  0.00000000E+00  0.00000000E+00  0.00000000E+00
  0.00000000E+00  0.00000000E+00  0.00000000E+00
  0.00000000E+00  0.00000000E+00  0.00000000E+00
  0.00000000E+00  0.00000000E+00  0.00000000E+00
  0.00000000E+00  0.00000000E+00  0.00000000E+00
  0.00000000E+00  0.00000000E+00  0.00000000E+00
  0.00000000E+00  0.00000000E+00  0.00000000E+00
  0.00000000E+00  0.00000000E+00  0.00000000E+00
  0.00000000E+00  0.00000000E+00  0.00000000E+00
  0.00000000E+00  0.00000000E+00  0.00000000E+00
  0.00000000E+00  0.00000000E+00  0.00000000E+00
  0.00000000E+00  0.00000000E+00  0.00000000E+00
  0.00000000E+00  0.00000000E+00  0.00000000E+00
  0.00000000E+00  0.00000000E+00  0.00000000E+00
  0.00000000E+00  0.00000000E+00  0.00000000E+00
  0.00000000E+00  0.00000000E+00  0.00000000E+00
  0.00000000E+00  0.00000000E+00  0.00000000E+00
  0.00000000E+00  0.00000000E+00  0.00000000E+00
  0.00000000E+00  0.00000000E+00  0.00000000E+00
  0.00000000E+00  0.00000000E+00  0.00000000E+00
  0.00000000E+00  0.00000000E+00  0.00000000E+00
  0.00000000E+00  0.00000000E+00  0.00000000E+00
  0.00000000E+00  0.00000000E+00  0.00000000E+00
  0.00000000E+00  0.00000000E+00  0.00000000E+00
  0.00000000E+00  0.00000000E+00  0.00000000E+00
  0.00000000E+00  0.00000000E+00  0.00000000E+00
  0.00000000E+00  0.00000000E+00  0.00000000E+00
  0.00000000E+00  0.00000000E+00  0.00000000E+00
  0.00000000E+00  0.00000000E+00  0.00000000E+00
  0.00000000E+00  0.00000000E+00  0.00000000E+00
  0.00000000E+00  0.00000000E+00  0.00000000E+00
  0.00000000E+00  0.00000000E+00  0.00000000E+00
  0.00000000E+00  0.00000000E+00  0.00000000E+00
  0.00000000E+00  0.00000000E+00  0.00000000E+00
  0.00000000E+00  0.00000000E+00  0.00000000E+00
  0.00000000E+00  0.00000000E+00  0.00000000E+00
  0.00000000E+00  0.00000000E+00  0.00000000E+00
  0.00000000E+00  0.00000000E+00  0.00000000E+00
  0.00000000E+00  0.00000000E+00  0.00000000E+00
  0.00000000E+00  0.00000000E+00  0.00000000E+00
  0.00000000E+00  0.00000000E+00  0.00000000E+00
  0.00000000E+00  0.00000000E+00  0.00000000E+00
  0.00000000E+00  0.00000000E+00  0.00000000E+00
  0.00000000E+00  0.00000000E+00  0.00000000E+00
  0.00000000E+00  0.00000000E+00  0.00000000E+00
  0.00000000E+00  0.00000000E+00  0.00000000E+00
  0.00000000E+00  0.00000000E+00  0.00000000E+00
  0.00000000E+00  0.00000000E+00  0.00000000E+00
  0.00000000E+00  0.00000000E+00  0.00000000E+00
  0.00000000E+00  0.00000000E+00  0.00000000E+00
  0.00000000E+00  0.00000000E+00  0.00000000E+00
  0.00000000E+00  0.00000000E+00  0.00000000E+00
  0.00000000E+00  0.00000000E+00  0.00000000E+00
  0.00000000E+00  0.00000000E+00  0.00000000E+00
  0.00000000E+00  0.00000000E+00  0.00000000E+00
  0.00000000E+00  0.00000000E+00  0.00000000E+00
  0.00000000E+00  0.00000000E+00  0.00000000E+00
  0.00000000E+00  0.00000000E+00  0.00000000E+00
  0.00000000E+00  0.00000000E+00  0.00000000E+00
  0.00000000E+00  0.00000000E+00  0.00000000E+00
  0.00000000E+00  0.00000000E+00  0.00000000E+00
  0.00000000E+00  0.00000000E+00  0.00000000E+00
  0.00000000E+00  0.00000000E+00  0.00000000E+00
  0.00000000E+00  0.00000000E+00  0.00000000E+00
  0.00000000E+00  0.00000000E+00  0.00000000E+00
  0.00000000E+00  0.00000000E+00  0.00000000E+00
  0.00000000E+00  0.00000000E+00  0.00000000E+00
  0.00000000E+00  0.00000000E+00  0.00000000E+00
  0.00000000E+00  0.00000000E+00  0.00000000E+00
  0.00000000E+00  0.00000000E+00  0.00000000E+00
  0.00000000E+00  0.00000000E+00  0.00000000E+00
  0.00000000E+00  0.00000000E+00  0.00000000E+00
  0.00000000E+00  0.00000000E+00  0.00000000E+00
  0.00000000E+00  0.00000000E+00  0.00000000E+00
  0.00000000E+00  0.00000000E+00  0.00000000E+00
  0.00000000E+00  0.00000000E+00  0.00000000E+00
  0.00000000E+00  0.00000000E+00  0.00000000E+00
  0.00000000E+00  0.00000000E+00  0.00000000E+00
  0.00000000E+00  0.00000000E+00  0.00000000E+00
  0.00000000E+00  0.00000000E+00  0.00000000E+00
  0.00000000E+00  0.00000000E+00  0.00000000E+00
  0.00000000E+00  0.00000000E+00  0.00000000E+00
  0.00000000E+00  0.00000000E+00  0.00000000E+00
  0.00000000E+00  0.00000000E+00  0.00000000E+00
  0.00000000E+00  0.00000000E+00  0.00000000E+00
  0.00000000E+00  0.00000000E+00  0.00000000E+00
  0.00000000E+00  0.00000000E+00  0.00000000E+00
  0.00000000E+00  0.00000000E+00  0.00000000E+00
  0.00000000E+00  0.00000000E+00  0.00000000E+00
  0.00000000E+00  0.00000000E+00  0.00000000E+00
  0.00000000E+00  0.00000000E+00  0.00000000E+00
  0.00000000E+00  0.00000000E+00  0.00000000E+00
  0.00000000E+00  0.00000000E+00  0.00000000E+00
  0.00000000E+00  0.00000000E+00  0.00000000E+00
  0.00000000E+00  0.00000000E+00  0.00000000E+00
  0.00000000E+00  0.00000000E+00  0.00000000E+00
  0.00000000E+00  0.00000000E+00  0.00000000E+00
  0.00000000E+00  0.00000000E+00  0.00000000E+00
  0.00000000E+00  0.00000000E+00  0.00000000E+00
  0.00000000E+00  0.00000000E+00  0.00000000E+00
  0.00000000E+00  0.00000000E+00  0.00000000E+00
  0.00000000E+00  0.00000000E+00  0.00000000E+00
  0.00000000E+00  0.00000000E+00  0.00000000E+00
  0.00000000E+00  0.00000000E+00  0.00000000E+00
  0.00000000E+00  0.00000000E+00  0.00000000E+00
  0.00000000E+00  0.00000000E+00  0.00000000E+00
  0.00000000E+00  0.00000000E+00  0.00000000E+00