 N S B 
 1.0
 14.936314146199660   0.000000000000000   0.000000000000000
 -7.468157073099825  12.935227489513863   0.000000000000000
  0.000000000000001   0.000000000000001  13.341276283792837
 N S B 
 143   1 143
Cartesian
  1.244484766826770   0.718533459296403   1.666425942555215 
  4.978235559567552   7.186284206535873   1.661951379746702 
  6.223896378167098   0.718591321728043   1.666080321518616 
  9.957269761210501   7.186043745481954   1.666541176111427 
 11.202366209719861   0.718699151403097   1.665801933949979 
 -3.734123819793877   9.342082598133540   8.339742293964584 
  1.244880837605774   9.342499209655333   8.339876891325998 
  2.488917233906797   2.874170892469679   8.339329273836322 
  6.223057781681229   9.341989397256336   8.339477779476969 
  7.468439286351409   2.874137445102545   8.340740756567881 
 12.446819104466732   2.874403321806088   8.339987603882973 
 -1.244486842972490   9.342215371154245   1.666228717139681 
 -0.000357109472854   2.874288820419436   1.666404876106528 
  4.979200316330715   2.874199379825968   1.664080459564260 
  3.733909993569368   9.342531922555349   1.665216456276747 
  8.712545625865573   9.341969189306623   1.666541176111427 
  9.957664724614622   2.874339871176411   1.665918938749343 
 -4.978863433189397  11.498018272970310   8.339839677099691 
  0.000341103664164  11.498176926971285   8.339849441098742 
  1.244177933616682   5.030122602749908   8.339329273836322 
  6.223236770425458   5.029878853845194   8.344005833097926 
  4.978698018823319  11.498163174800851   8.340038274095283 
 11.202072006334870   5.030219726513653   8.339728022602051 
 -1.244875078400065   5.030231189551107   1.666425942555215 
 -2.489190346574316  11.498105079751612   1.666228717139681 
  2.489553106961064  11.498344575936617   1.665744858522135 
  3.732924908423874   5.029700198412913   1.648658198835729 
  7.467948381912609  11.497911565756295   1.666229190242590 
  8.712543339716191   5.030073926030792   1.666479433367658 
  0.000086612843895   7.186320737046107   8.339357443486204 
  1.244484766826770   0.718533459296403   8.339531270289413 
  4.978235559567553   7.186284206535873   8.344005833097926 
  6.223896378167098   0.718591321728044   8.339876891325998 
  9.957269761210501   7.186043745481955   8.339416036733201 
 -2.489398563157876   7.186138634417831   1.666117535744937 
 11.202366209719861   0.718699151403098   8.340155278894635 
  3.734193933413450   0.718657136904706   1.666599769358436 
  2.489344145602815   7.186756771065610   1.664080459564260 
  7.467622726217081   7.185928988857769   1.667001898839103 
  8.713249366675335   0.718586443235039   1.665744858522135 
  2.489344145602816   7.186756771065610   8.341876753280367 
 13.691487231706333   0.718574886865482   1.665969608961656 
 -1.244486842972490   9.342215371154245   8.339728495704946 
 -0.000357109472853   2.874288820419437   8.339552336738100 
  4.979200316330716   2.874199379825968   8.341876753280367 
  3.733909993569368   9.342531922555349   8.340740756567881 
  8.712545625865573   9.341969189306623   8.339416036733201 
  9.957664724614622   2.874339871176411   8.340038274095283 
 -3.734123819793878   9.342082598133540   1.666214918880058 
  1.244880837605773   9.342499209655333   1.666080321518616 
  2.488917233906797   2.874170892469678   1.666627939008305 
  6.223057781681228   9.341989397256336   1.666479433367658 
  7.468439286351408   2.874137445102544   1.665216456276747 
 12.446819104466732   2.874403321806088   1.665969608961656 
 -1.244875078400065   5.030231189551108   8.339531270289413 
 -2.489190346574315  11.498105079751612   8.339728495704946 
  2.489553106961064  11.498344575936617   8.340212354322507 
  3.732924908423874   5.029700198412914   8.357299014008913 
  7.467948381912610  11.497911565756295   8.339728022602051 
 -4.978863433189398  11.498018272970310   1.666117535744937 
  8.712543339716191   5.030073926030793   8.339477779476969 
  0.000341103664163  11.498176926971285   1.666107771745885 
  1.244177933616682   5.030122602749907   1.666627939008305 
  0.000086612843894   7.186320737046106   1.666599769358436 
  6.223236770425457   5.029878853845193   1.661951379746702 
  4.978698018823318  11.498163174800851   1.665918938749343 
 11.202072006334870   5.030219726513653   1.666229190242590 
 -2.489398563157875   7.186138634417832   8.339839677099691 
  3.734193933413450   0.718657136904707   8.339357443486204 
  7.467622726217082   7.185928988857770   8.338955314005526 
  8.713249366675335   0.718586443235040   8.340212354322507 
 13.691487231706333   0.718574886865482   8.339987603882973 
  0.029845866144919   1.456646152854720   5.002978606422314 
  3.687712646216020   8.002783612771466   5.002978606422314 
  5.010817654188422   1.365898857168127   5.002978606422314 
  8.682765064300684   7.887491744854139   5.002978606422314 
  9.983837890642809   1.439730708629121   5.002978606422314 
 -4.978846614185430  10.060668120075615  11.673616748318732 
 -0.000143575150273  10.060686763312653  11.673616748318732 
  1.244594374422836   3.593061894774693  11.673616748318732 
  4.978736085697625  10.060667020330685  11.673616748318732 
  6.223358257481578   3.593082397513818  11.673616748318732 
 11.202182997102897   3.593157698085878  11.673616748318732 
 -2.506341446750902  10.050943081716261   5.002978606422314 
 -1.212970185263778   3.609266698356733   5.002978606422314 
  3.820964584008814   3.493810752053757   5.002978606422314 
  2.472575716080538  10.107649545488076   5.002978606422314 
  7.460587999820557  10.062031730277681   5.002978606422314 
  8.742576582050376   3.577902387766300   5.002978606422314 
 -6.223511243386604  12.216499634951061  11.673616748318732 
 -1.244804235161712  12.216502264634691  11.673616748318732 
 -0.000166994120857   5.748987251239258  11.673616748318732 
  4.978736463519048   5.748969835106654  11.673616748318732 
  3.734002000522676  12.216540726051912  11.673616748318732 
  9.957512174844480   5.749014663630451  11.673616748318732 
 -2.488287452842485   5.754665922001344   5.002978606422314 
 -3.737395949967135  12.191702831417661   5.002978606422314 
  1.252244282817623  12.220963564454879   5.002978606422314 
  2.446825468264861   5.873889517190070   5.002978606422314 
  6.240666805111395  12.236618022941347   5.002978606422314 
  7.456607763585265   5.720189783139993   5.002978606422314 
 -1.244872985927999   7.904846078542652  11.673616748318732 
 -0.000046306316571   1.437170016486154  11.673616748318732 
  3.733994071845137   7.904787645578485  11.673616748318732 
  4.978660157174627   1.437115000511433  11.673616748318732 
  8.712856581870529   7.904865090623405  11.673616748318732 
 -3.755556143112408   7.897931569192680   5.002978606422314 
  9.957449924356119   1.437212723713268  11.673616748318732 
  2.510882579117883   1.426838973832100   5.002978606422314 
  1.198926245368580   7.968288450179445   5.002978606422314 
  6.192747857426724   7.909259354255834   5.002978606422314 
  7.500383445949826   1.399231106666872   5.002978606422314 
  1.244522486156547   7.904831169171709  11.673616748318732 
 12.475111611933984   1.453519051981337   5.002978606422314 
 -2.489523816891881  10.060652744842480  11.673616748318732 
 -1.244783100357272   3.593117385815060  11.673616748318732 
  3.733986215526873   3.592986663128626  11.673616748318732 
  2.489261462112234  10.060662466940578  11.673616748318732 
  7.468163141822142  10.060693666597626  11.673616748318732 
  8.712775570438119   3.593120915291792  11.673616748318732 
 -4.995511459417416  10.045597176148103   5.002978606422314 
 -0.019891121944732  10.077087834276101   5.002978606422314 
  1.292913964243640   3.620959222964857   5.002978606422314 
  4.980456960058485  10.094084717208117   5.002978606422314 
  6.285084541724576   3.504003523599136   5.002978606422314 
 11.228169775796054   3.598009474814750   5.002978606422314 
 -2.489499356635503   5.749001331031983  11.673616748318732 
 -3.734181740073421  12.216455316448537  11.673616748318732 
  1.244560632424207  12.216527406831874  11.673616748318732 
  2.489225142458185   5.748976084967563  11.673616748318732 
  6.223471653864124  12.216538700794986  11.673616748318732 
 -6.217999611808567  12.214716878938050   5.002978606422314 
  7.468131950778580   5.749007839671277  11.673616748318732 
 -1.240474264455336  12.191199851966566   5.002978606422314 
  0.001734396973965   5.772811109024484   5.002978606422314 
 -1.267916371718395   7.914438733637051   5.002978606422314 
  3.749376622569502  12.238134382752452   5.002978606422314 
  9.954883400982499   5.741785366379775   5.002978606422314 
 -3.734171900196189   7.904828276549972  11.673616748318732 
  2.489299817512320   1.437104249734067  11.673616748318732 
  6.223467120067179   7.904830564857556  11.673616748318732 
  7.468034315293924   1.437174925885168  11.673616748318732 
 12.446889745734779   1.437225149934201  11.673616748318732 
  4.587092639143492   5.522854167676972   5.002978606422314 
  1.270086570224241   0.725914965266436   5.002978606422314 
  4.896268774503775   7.275914289508119   5.002978606422314 
  6.246827847536323   0.682193909039501   5.002978606422314 
  9.936659714554809   7.177555838312766   5.002978606422314 
 11.230652821610255   0.735030434392471   5.002978606422314 
 -3.734117286980677   9.342086369854991  11.673616748318732 
  1.244663882991529   9.341437949971827  11.673616748318732 
  2.489685189322741   2.875001958206037  11.673616748318732 
  6.223266451972214   9.341606458236184  11.673616748318732 
  7.467321946592286   2.874779368021405  11.673616748318732 
 12.447261928310180   2.874719347114029  11.673616748318732 
 -1.259067831289993   9.345294436359710   5.002978606422314 
  0.055047953245143   2.906276948294131   5.002978606422314 
  5.005194652711966   2.800381546834140   5.002978606422314 
  3.715095689139779   9.407480138205297   5.002978606422314 
  8.694889859304247   9.328364318914204   5.002978606422314 
  9.988559089194707   2.874578839278569   5.002978606422314 
 -4.978749626095163  11.498194499315881  11.673616748318732 
 -0.000270594919420  11.497823762629382  11.673616748318732 
  1.245281635364547   5.030372138780923  11.673616748318732 
  6.222526651139457   5.030364675488791  11.673616748318732 
  4.978791125427699  11.497675416080886  11.673616748318732 
 11.202311139475363   5.030489241011636  11.673616748318732 
 -1.225681605013094   5.048712248690995   5.002978606422314 
 -2.493814292045233  11.483938040853651   5.002978606422314 
  2.496524919224761  11.526001574074600   5.002978606422314 
  7.474639322059018  11.503266691889772   5.002978606422314 
  8.714972446776127   5.014878340813080   5.002978606422314 
  0.000336788468681   7.185864045238121  11.673616748318732 
  1.245042372283963   0.719048038922527  11.673616748318732 
  4.978301233809616   7.185426314372681  11.673616748318732 
  6.222868823014045   0.718934063362393  11.673616748318732 
  9.957394717291701   7.186196935165684  11.673616748318732 
 -2.502940874371143   7.188824549742715   5.002978606422314 
 11.202226904657101   0.718618723587607  11.673616748318732 
  3.744906619112362   0.696566328556108   5.002978606422314 
  2.438413195170200   7.246177443222208   5.002978606422314 
  7.429483600184278   7.163909354176091   5.002978606422314 
  8.740686935787103   0.710795710696812   5.002978606422314 
  2.489412011414167   7.185370763645281  11.673616748318732 
 13.724142537553730   0.741934494858916   5.002978606422314 
 -1.244675270754051   9.341882645554778  11.673616748318732 
  0.000668494448604   2.874880953119564  11.673616748318732 
  4.978033931600552   2.874951157052813  11.673616748318732 
  3.733907245244803   9.341243316479874  11.673616748318732 
  8.712740770063881   9.342000809605434  11.673616748318732 
  9.957288866474403   2.874664383221048  11.673616748318732 
 -3.750344710419050   9.332717462564601   5.002978606422314 
  1.224825488270083   9.380557151019460   5.002978606422314 
  2.560299445037246   2.897645723846717   5.002978606422314 
  6.211112572387285   9.351690858287611   5.002978606422314 
  7.515278938819916   2.825369671687051   5.002978606422314 
 12.483376771335198   2.891003842241555   5.002978606422314 
 -1.244150636642975   5.030456800229263  11.673616748318732 
 -2.489572709286724  11.498108259305736  11.673616748318732 
  2.489202194930562  11.497571475999207  11.673616748318732 
  3.733807760168995   5.030209913105606  11.673616748318732 
  7.468301354884789  11.497983903881874  11.673616748318732 
 -4.983308517892262  11.484947329771209   5.002978606422314 
  8.712316039942129   5.030446109313880  11.673616748318732 
  0.002717633646382  11.499549017196237   5.002978606422314 
  1.300198839503969   5.080203995278675   5.002978606422314 
 -0.013688245526669   7.206643599178421   5.002978606422314 
  6.259875306690853   4.914078494227275   5.002978606422314 
  4.994352153560516  11.524798995309917   5.002978606422314 
 11.210055151680127   5.033336687588921   5.002978606422314 
 -2.489189043118670   7.186149081079772  11.673616748318732 
  3.733923514518435   0.719102141255161  11.673616748318732 
  7.467683038137434   7.185963809961237  11.673616748318732 
  8.712404386474637   0.718669094470810  11.673616748318732 
 13.691982329572971   0.718800370909340  11.673616748318732 
  0.000809480272574   1.438442386554338   1.670012489429142 
  3.732955820877917   7.902811199096506   1.669520385330045 
  4.978277530303949   1.439647500265484   1.671809241027254 
  8.711495576576851   7.904079313850731   1.668757152491376 
  9.957476089637552   1.437222759982414   1.668014028017383 
 -4.978953599287654  10.061213462359884   8.337655615295480 
  0.000970382659162  10.060385310821754   8.337063510766521 
  1.246501740123346   3.594163112875317   8.330950538017472 
  4.977784192795736  10.060026383875392   8.337646905769946 
  6.221127479135355   3.593171469041690   8.336436827514595 
 11.202519348808513   3.592841697167180   8.337611647595820 
 -2.488758671106839  10.061094501967471   1.668450912638566 
 -1.243253302260644   3.593222333707398   1.670012489429142 
  3.733473171714836   3.595318660293540   1.677991659196519 
  2.489523303813315  10.059999540643265   1.668772529136304 
  7.467194853258545  10.060524036523656   1.668488787791474 
  8.711744816542316   3.592616870084692   1.668310307074694 
 -6.223420337315669  12.217931396166934   8.336949845709020 
 -1.244508321772151  12.217617706641866   8.337063510766521 
  0.002549231574628   5.748036938485598   8.332762127920603 
  4.974670236622299   5.746622197913231   8.333113916439487 
  3.734023774827433  12.216558367715757   8.337943184827232 
  9.956881126609366   5.748260916173190   8.337468425053167 
 -2.488213962014927   5.748364177390820   1.669007367135608 
 -3.733946313637836  12.218510066794728   1.669415649136172 
  1.244868715975810  12.216705278953341   1.668252199361008 
  2.490988189338544   5.747365777410613   1.677991659196519 
  6.223366164893728  12.216987990375992   1.668345565248807 
  7.465247947025978   5.747530046142791   1.668370473511462 
 -1.242975806711975   7.904022588643508   8.336541563708455 
  0.000809480272575   1.438442386554339   8.335944723415485 
  3.732955820877918   7.902811199096507   8.336436827514595 
  4.978277530303949   1.439647500265485   8.334147971817375 
  8.711495576576851   7.904079313850731   8.337200060353238 
 -3.733753112475350   7.904462953591459   1.668301597549147 
  9.957476089637552   1.437222759982415   8.337943184827232 
  2.489834935373844   1.439931726565611   1.673195084924026 
  1.246524381843294   7.903233554704506   1.671809241027254 
  6.220745311453660   7.903071841107436   1.668370473511462 
  7.467591125130164   1.437733150598718   1.668772529136304 
  1.246524381843294   7.903233554704507   8.334147971817375 
 12.447388939482112   1.437513359578609   1.668349762924790 
 -2.488758671106838  10.061094501967471   8.337506300206062 
 -1.243253302260643   3.593222333707399   8.335944723415485 
  3.733473171714836   3.595318660293541   8.327965553648095 
  2.489523303813316  10.059999540643265   8.337184683708312 
  7.467194853258546  10.060524036523656   8.337468425053167 
  8.711744816542316   3.592616870084693   8.337646905769946 
 -4.978953599287655  10.061213462359884   1.668301597549147 
  0.000970382659162  10.060385310821754   1.668893702078094 
  1.246501740123345   3.594163112875316   1.675006674827155 
  4.977784192795735  10.060026383875392   1.668310307074694 
  6.221127479135355   3.593171469041689   1.669520385330045 
 11.202519348808513   3.592841697167179   1.668345565248807 
 -2.488213962014927   5.748364177390821   8.336949845709020 
 -3.733946313637836  12.218510066794728   8.336541563708455 
  1.244868715975810  12.216705278953341   8.337705013483619 
  2.490988189338544   5.747365777410614   8.327965553648095 
  6.223366164893728  12.216987990375992   8.337611647595820 
 -6.223420337315670  12.217931396166934   1.669007367135608 
  7.465247947025979   5.747530046142792   8.337586739333165 
 -1.244508321772152  12.217617706641866   1.668893702078094 
  0.002549231574627   5.748036938485598   1.673195084924026 
 -1.242975806711976   7.904022588643507   1.669415649136172 
  4.974670236622298   5.746622197913230   1.672843296405127 
  3.734023774827432  12.216558367715757   1.668014028017383 
  9.956881126609366   5.748260916173189   1.668488787791474 
 -3.733753112475350   7.904462953591460   8.337655615295480 
  2.489834935373844   1.439931726565612   8.332762127920603 
  6.220745311453661   7.903071841107437   8.337586739333165 
  7.467591125130165   1.437733150598718   8.337184683708312 
 12.447388939482112   1.437513359578610   8.337607449919851 
Generated by cif2cell 2.0.0.  :  Failed to get author information, No journal information. Species order: N S B 
 1.0
 14.936314146199660   0.000000000000000   0.000000000000000
 -7.468157073099825  12.935227489513863   0.000000000000000
  0.000000000000001   0.000000000000001  13.341276283792837
 N S B 
 143   1 143
Cartesian
  1.244484766826770   0.718533459296403   1.666425942555215 
  4.978235559567552   7.186284206535873   1.661951379746702 
  6.223896378167098   0.718591321728043   1.666080321518616 
  9.957269761210501   7.186043745481954   1.666541176111427 
 11.202366209719861   0.718699151403097   1.665801933949979 
 -3.734123819793877   9.342082598133540   8.339742293964584 
  1.244880837605774   9.342499209655333   8.339876891325998 
  2.488917233906797   2.874170892469679   8.339329273836322 
  6.223057781681229   9.341989397256336   8.339477779476969 
  7.468439286351409   2.874137445102545   8.340740756567881 
 12.446819104466732   2.874403321806088   8.339987603882973 
 -1.244486842972490   9.342215371154245   1.666228717139681 
 -0.000357109472854   2.874288820419436   1.666404876106528 
  4.979200316330715   2.874199379825968   1.664080459564260 
  3.733909993569368   9.342531922555349   1.665216456276747 
  8.712545625865573   9.341969189306623   1.666541176111427 
  9.957664724614622   2.874339871176411   1.665918938749343 
 -4.978863433189397  11.498018272970310   8.339839677099691 
  0.000341103664164  11.498176926971285   8.339849441098742 
  1.244177933616682   5.030122602749908   8.339329273836322 
  6.223236770425458   5.029878853845194   8.344005833097926 
  4.978698018823319  11.498163174800851   8.340038274095283 
 11.202072006334870   5.030219726513653   8.339728022602051 
 -1.244875078400065   5.030231189551107   1.666425942555215 
 -2.489190346574316  11.498105079751612   1.666228717139681 
  2.489553106961064  11.498344575936617   1.665744858522135 
  3.732924908423874   5.029700198412913   1.648658198835729 
  7.467948381912609  11.497911565756295   1.666229190242590 
  8.712543339716191   5.030073926030792   1.666479433367658 
  0.000086612843895   7.186320737046107   8.339357443486204 
  1.244484766826770   0.718533459296403   8.339531270289413 
  4.978235559567553   7.186284206535873   8.344005833097926 
  6.223896378167098   0.718591321728044   8.339876891325998 
  9.957269761210501   7.186043745481955   8.339416036733201 
 -2.489398563157876   7.186138634417831   1.666117535744937 
 11.202366209719861   0.718699151403098   8.340155278894635 
  3.734193933413450   0.718657136904706   1.666599769358436 
  2.489344145602815   7.186756771065610   1.664080459564260 
  7.467622726217081   7.185928988857769   1.667001898839103 
  8.713249366675335   0.718586443235039   1.665744858522135 
  2.489344145602816   7.186756771065610   8.341876753280367 
 13.691487231706333   0.718574886865482   1.665969608961656 
 -1.244486842972490   9.342215371154245   8.339728495704946 
 -0.000357109472853   2.874288820419437   8.339552336738100 
  4.979200316330716   2.874199379825968   8.341876753280367 
  3.733909993569368   9.342531922555349   8.340740756567881 
  8.712545625865573   9.341969189306623   8.339416036733201 
  9.957664724614622   2.874339871176411   8.340038274095283 
 -3.734123819793878   9.342082598133540   1.666214918880058 
  1.244880837605773   9.342499209655333   1.666080321518616 
  2.488917233906797   2.874170892469678   1.666627939008305 
  6.223057781681228   9.341989397256336   1.666479433367658 
  7.468439286351408   2.874137445102544   1.665216456276747 
 12.446819104466732   2.874403321806088   1.665969608961656 
 -1.244875078400065   5.030231189551108   8.339531270289413 
 -2.489190346574315  11.498105079751612   8.339728495704946 
  2.489553106961064  11.498344575936617   8.340212354322507 
  3.732924908423874   5.029700198412914   8.357299014008913 
  7.467948381912610  11.497911565756295   8.339728022602051 
 -4.978863433189398  11.498018272970310   1.666117535744937 
  8.712543339716191   5.030073926030793   8.339477779476969 
  0.000341103664163  11.498176926971285   1.666107771745885 
  1.244177933616682   5.030122602749907   1.666627939008305 
  0.000086612843894   7.186320737046106   1.666599769358436 
  6.223236770425457   5.029878853845193   1.661951379746702 
  4.978698018823318  11.498163174800851   1.665918938749343 
 11.202072006334870   5.030219726513653   1.666229190242590 
 -2.489398563157875   7.186138634417832   8.339839677099691 
  3.734193933413450   0.718657136904707   8.339357443486204 
  7.467622726217082   7.185928988857770   8.338955314005526 
  8.713249366675335   0.718586443235040   8.340212354322507 
 13.691487231706333   0.718574886865482   8.339987603882973 
  0.029845866144919   1.456646152854720   5.002978606422314 
  3.687712646216020   8.002783612771466   5.002978606422314 
  5.010817654188422   1.365898857168127   5.002978606422314 
  8.682765064300684   7.887491744854139   5.002978606422314 
  9.983837890642809   1.439730708629121   5.002978606422314 
 -4.978846614185430  10.060668120075615  11.673616748318732 
 -0.000143575150273  10.060686763312653  11.673616748318732 
  1.244594374422836   3.593061894774693  11.673616748318732 
  4.978736085697625  10.060667020330685  11.673616748318732 
  6.223358257481578   3.593082397513818  11.673616748318732 
 11.202182997102897   3.593157698085878  11.673616748318732 
 -2.506341446750902  10.050943081716261   5.002978606422314 
 -1.212970185263778   3.609266698356733   5.002978606422314 
  3.820964584008814   3.493810752053757   5.002978606422314 
  2.472575716080538  10.107649545488076   5.002978606422314 
  7.460587999820557  10.062031730277681   5.002978606422314 
  8.742576582050376   3.577902387766300   5.002978606422314 
 -6.223511243386604  12.216499634951061  11.673616748318732 
 -1.244804235161712  12.216502264634691  11.673616748318732 
 -0.000166994120857   5.748987251239258  11.673616748318732 
  4.978736463519048   5.748969835106654  11.673616748318732 
  3.734002000522676  12.216540726051912  11.673616748318732 
  9.957512174844480   5.749014663630451  11.673616748318732 
 -2.488287452842485   5.754665922001344   5.002978606422314 
 -3.737395949967135  12.191702831417661   5.002978606422314 
  1.252244282817623  12.220963564454879   5.002978606422314 
  2.446825468264861   5.873889517190070   5.002978606422314 
  6.240666805111395  12.236618022941347   5.002978606422314 
  7.456607763585265   5.720189783139993   5.002978606422314 
 -1.244872985927999   7.904846078542652  11.673616748318732 
 -0.000046306316571   1.437170016486154  11.673616748318732 
  3.733994071845137   7.904787645578485  11.673616748318732 
  4.978660157174627   1.437115000511433  11.673616748318732 
  8.712856581870529   7.904865090623405  11.673616748318732 
 -3.755556143112408   7.897931569192680   5.002978606422314 
  9.957449924356119   1.437212723713268  11.673616748318732 
  2.510882579117883   1.426838973832100   5.002978606422314 
  1.198926245368580   7.968288450179445   5.002978606422314 
  6.192747857426724   7.909259354255834   5.002978606422314 
  7.500383445949826   1.399231106666872   5.002978606422314 
  1.244522486156547   7.904831169171709  11.673616748318732 
 12.475111611933984   1.453519051981337   5.002978606422314 
 -2.489523816891881  10.060652744842480  11.673616748318732 
 -1.244783100357272   3.593117385815060  11.673616748318732 
  3.733986215526873   3.592986663128626  11.673616748318732 
  2.489261462112234  10.060662466940578  11.673616748318732 
  7.468163141822142  10.060693666597626  11.673616748318732 
  8.712775570438119   3.593120915291792  11.673616748318732 
 -4.995511459417416  10.045597176148103   5.002978606422314 
 -0.019891121944732  10.077087834276101   5.002978606422314 
  1.292913964243640   3.620959222964857   5.002978606422314 
  4.980456960058485  10.094084717208117   5.002978606422314 
  6.285084541724576   3.504003523599136   5.002978606422314 
 11.228169775796054   3.598009474814750   5.002978606422314 
 -2.489499356635503   5.749001331031983  11.673616748318732 
 -3.734181740073421  12.216455316448537  11.673616748318732 
  1.244560632424207  12.216527406831874  11.673616748318732 
  2.489225142458185   5.748976084967563  11.673616748318732 
  6.223471653864124  12.216538700794986  11.673616748318732 
 -6.217999611808567  12.214716878938050   5.002978606422314 
  7.468131950778580   5.749007839671277  11.673616748318732 
 -1.240474264455336  12.191199851966566   5.002978606422314 
  0.001734396973965   5.772811109024484   5.002978606422314 
 -1.267916371718395   7.914438733637051   5.002978606422314 
  3.749376622569502  12.238134382752452   5.002978606422314 
  9.954883400982499   5.741785366379775   5.002978606422314 
 -3.734171900196189   7.904828276549972  11.673616748318732 
  2.489299817512320   1.437104249734067  11.673616748318732 
  6.223467120067179   7.904830564857556  11.673616748318732 
  7.468034315293924   1.437174925885168  11.673616748318732 
 12.446889745734779   1.437225149934201  11.673616748318732 
  4.587092639143492   5.522854167676972   5.002978606422314 
  1.270086570224241   0.725914965266436   5.002978606422314 
  4.896268774503775   7.275914289508119   5.002978606422314 
  6.246827847536323   0.682193909039501   5.002978606422314 
  9.936659714554809   7.177555838312766   5.002978606422314 
 11.230652821610255   0.735030434392471   5.002978606422314 
 -3.734117286980677   9.342086369854991  11.673616748318732 
  1.244663882991529   9.341437949971827  11.673616748318732 
  2.489685189322741   2.875001958206037  11.673616748318732 
  6.223266451972214   9.341606458236184  11.673616748318732 
  7.467321946592286   2.874779368021405  11.673616748318732 
 12.447261928310180   2.874719347114029  11.673616748318732 
 -1.259067831289993   9.345294436359710   5.002978606422314 
  0.055047953245143   2.906276948294131   5.002978606422314 
  5.005194652711966   2.800381546834140   5.002978606422314 
  3.715095689139779   9.407480138205297   5.002978606422314 
  8.694889859304247   9.328364318914204   5.002978606422314 
  9.988559089194707   2.874578839278569   5.002978606422314 
 -4.978749626095163  11.498194499315881  11.673616748318732 
 -0.000270594919420  11.497823762629382  11.673616748318732 
  1.245281635364547   5.030372138780923  11.673616748318732 
  6.222526651139457   5.030364675488791  11.673616748318732 
  4.978791125427699  11.497675416080886  11.673616748318732 
 11.202311139475363   5.030489241011636  11.673616748318732 
 -1.225681605013094   5.048712248690995   5.002978606422314 
 -2.493814292045233  11.483938040853651   5.002978606422314 
  2.496524919224761  11.526001574074600   5.002978606422314 
  7.474639322059018  11.503266691889772   5.002978606422314 
  8.714972446776127   5.014878340813080   5.002978606422314 
  0.000336788468681   7.185864045238121  11.673616748318732 
  1.245042372283963   0.719048038922527  11.673616748318732 
  4.978301233809616   7.185426314372681  11.673616748318732 
  6.222868823014045   0.718934063362393  11.673616748318732 
  9.957394717291701   7.186196935165684  11.673616748318732 
 -2.502940874371143   7.188824549742715   5.002978606422314 
 11.202226904657101   0.718618723587607  11.673616748318732 
  3.744906619112362   0.696566328556108   5.002978606422314 
  2.438413195170200   7.246177443222208   5.002978606422314 
  7.429483600184278   7.163909354176091   5.002978606422314 
  8.740686935787103   0.710795710696812   5.002978606422314 
  2.489412011414167   7.185370763645281  11.673616748318732 
 13.724142537553730   0.741934494858916   5.002978606422314 
 -1.244675270754051   9.341882645554778  11.673616748318732 
  0.000668494448604   2.874880953119564  11.673616748318732 
  4.978033931600552   2.874951157052813  11.673616748318732 
  3.733907245244803   9.341243316479874  11.673616748318732 
  8.712740770063881   9.342000809605434  11.673616748318732 
  9.957288866474403   2.874664383221048  11.673616748318732 
 -3.750344710419050   9.332717462564601   5.002978606422314 
  1.224825488270083   9.380557151019460   5.002978606422314 
  2.560299445037246   2.897645723846717   5.002978606422314 
  6.211112572387285   9.351690858287611   5.002978606422314 