Species order: X N B                    
   2.51242800000000     
     5.9449720136058266    0.0000000000000000    0.0000000000000000
    -2.9724860068029120    5.1484967885702053   -0.0000000000000001
     0.0000000000000000    0.0000000000000009    5.3101128803662583
   S    N    B 
     1   143   143
Direct
  0.5205912183847075  0.4269622758590180  0.3750000000000000
  0.1110936899647021  0.0555485753829142  0.1249075356140860
  0.6110770429267165  0.5555591668071967  0.1245721432038452
  0.4444721238601728  0.0555530486271365  0.1248816294691827
  0.9444186774594600  0.5555405771802183  0.1249161729853357
  0.7777894361712161  0.0555613847522760  0.1248607628322352
  0.1111070687712098  0.7222202010522691  0.6251082817388177
  0.4444721238601728  0.7222524085663717  0.6251183705308164
  0.2777338861359328  0.2221971662113924  0.6250773236715778
  0.7777459526659367  0.7222129958541172  0.6250884549634792
  0.6111161846640577  0.2221945804534562  0.6251831218502183
  0.9444335796633061  0.2222151349202219  0.6251266690289966
  0.2777956914789821  0.7222304655041938  0.1248927525145282
  0.1110792326999341  0.2222062830166315  0.1249059565711038
  0.4444617351374458  0.2221993685194929  0.1247317291214343
  0.6111161846640577  0.7222549375439293  0.1248168781497822
  0.9444186774594600  0.7222114336125773  0.1249161729853357
  0.7777799468643750  0.2222102296621017  0.1248695329676306
  0.1111064279723546  0.8888918484264271  0.6251155811255514
  0.4444748940507584  0.8889041136920443  0.6251163129894931
  0.2777338861359328  0.3888700532578688  0.6250773236715778
  0.6110770429267165  0.3888512094528479  0.6254278567961546
  0.7777799468643750  0.8889030505356025  0.6251304670323694
  0.9444278274710510  0.3888775617275748  0.6251072120238795
  0.1110936899647021  0.3888784479151167  0.1249075356140860
  0.2777956914789821  0.8888985593081165  0.1248927525145282
  0.6111364124887275  0.8889170743427528  0.1248564847237066
  0.4443414624892122  0.3888373979112709  0.1235757482092279
  0.9444278274710510  0.8888835990768039  0.1248927879761213
  0.7777459526659367  0.3888662901451483  0.1249115450365210
  0.2777867942685253  0.5555619909175783  0.6250794351374735
  0.1110936899647021  0.0555485753829142  0.6250924643859139
  0.6110770429267165  0.5555591668071967  0.6254278567961546
  0.4444721238601728  0.0555530486271365  0.6251183705308164
  0.9444186774594600  0.5555405771802183  0.6250838270146637
  0.1111064279723546  0.5555479128792575  0.1248844188744491
  0.7777894361712161  0.0555613847522760  0.6251392371677644
  0.2777867942685253  0.0555581366842832  0.1249205648625265
  0.4444617351374458  0.5555956999512893  0.1247317291214343
  0.7777300777559807  0.5555317055446573  0.1249507066174922
  0.6111364124887275  0.0555526714793046  0.1248564847237066
  0.4444617351374458  0.5555956999512893  0.6252682708785657
  0.9444335796633061  0.0555517780764202  0.1248733309710033
  0.2777956914789821  0.7222304655041938  0.6251072474854721
  0.1110792326999341  0.2222062830166315  0.6250940434288961
  0.4444617351374458  0.2221993685194929  0.6252682708785657
  0.6111161846640577  0.7222549375439293  0.6251831218502183
  0.9444186774594600  0.7222114336125773  0.6250838270146637
  0.7777799468643750  0.2222102296621017  0.6251304670323694
  0.1111070687712098  0.7222202010522691  0.1248917182611827
  0.4444721238601728  0.7222524085663717  0.1248816294691827
  0.2777338861359328  0.2221971662113924  0.1249226763284225
  0.7777459526659367  0.7222129958541172  0.1249115450365210
  0.6111161846640577  0.2221945804534562  0.1248168781497822
  0.9444335796633061  0.2222151349202219  0.1248733309710033
  0.1110936899647021  0.3888784479151167  0.6250924643859139
  0.2777956914789821  0.8888985593081165  0.6251072474854721
  0.6111364124887275  0.8889170743427528  0.6251435152762939
  0.4443414624892122  0.3888373979112709  0.6264242517907725
  0.9444278274710510  0.8888835990768039  0.6251072120238795
  0.1111064279723546  0.8888918484264271  0.1248844188744491
  0.7777459526659367  0.3888662901451483  0.6250884549634792
  0.4444748940507584  0.8889041136920443  0.1248836870105073
  0.2777338861359328  0.3888700532578688  0.1249226763284225
  0.2777867942685253  0.5555619909175783  0.1249205648625265
  0.6110770429267165  0.3888512094528479  0.1245721432038452
  0.7777799468643750  0.8889030505356025  0.1248695329676306
  0.9444278274710510  0.3888775617275748  0.1248927879761213
  0.1111064279723546  0.5555479128792575  0.6251155811255514
  0.2777867942685253  0.0555581366842832  0.6250794351374735
  0.7777300777559807  0.5555317055446573  0.6250492933825083
  0.6111364124887275  0.0555526714793046  0.6251435152762939
  0.9444335796633061  0.0555517780764202  0.6251266690289966
  0.0583036019519709  0.1126107874048272  0.3750000000000000
  0.5562364207122547  0.6186813196180003  0.3750000000000000
  0.3882764964832920  0.1055952713839329  0.3750000000000000
  0.8862032772517048  0.6097683052925240  0.3750000000000000
  0.7240786915011520  0.1113030837529725  0.3750000000000000
  0.0555480304609672  0.7777728013080127  0.8750000000000000
  0.3888775088035103  0.7777742425843303  0.8750000000000000
  0.2222134319148920  0.2777733826241137  0.8750000000000000
  0.7222173283532179  0.7777727162886395  0.8750000000000000
  0.5555470556983391  0.2777749676553119  0.8750000000000000
  0.8888868720474531  0.2777807890119228  0.8750000000000000
  0.2207086175893208  0.7770209754613291  0.3750000000000000
  0.0583036019519709  0.2790261478804792  0.3750000000000000
  0.3908673254365146  0.2701004489396161  0.3750000000000000
  0.5562436502553308  0.7814048538135099  0.3750000000000000
  0.8884323533906947  0.7778782196474411  0.3750000000000000
  0.7236242745678635  0.2766014274327053  0.3750000000000000
  0.0555483837100742  0.9444363962562348  0.8750000000000000
  0.3888775088035103  0.9444365995525155  0.8750000000000000
  0.2222109357410851  0.4444442323028149  0.8750000000000000
  0.5555524384502970  0.4444428858918128  0.8750000000000000
  0.7222146623114096  0.9444395729379659  0.8750000000000000
  0.8888877944392112  0.4444463515072293  0.8750000000000000
  0.0558484816371895  0.4448832404893115  0.3750000000000000
  0.2210375953073904  0.9425193983871597  0.3750000000000000
  0.5562296564729171  0.9447814949031227  0.3750000000000000
  0.3908673254365146  0.4541002098302346  0.3750000000000000
  0.8908142520564588  0.9459917139347679  0.3750000000000000
  0.7203357380799590  0.4422179499956338  0.3750000000000000
  0.2222095754638098  0.6111099387274661  0.8750000000000000
  0.0555494602919868  0.1111051210851310  0.8750000000000000
  0.5555470556983391  0.6111054213763635  0.8750000000000000
  0.3888763206720723  0.1111008678955547  0.8750000000000000
  0.8888894837035597  0.6111114085184506  0.8750000000000000
  0.0538497494448346  0.6105753900034037  0.3750000000000000
  0.7222146623114096  0.1111084227067804  0.8750000000000000
  0.2232591261880056  0.1103064460975884  0.3750000000000000
  0.3882764964832920  0.6160145584327026  0.3750000000000000
  0.7203357380799594  0.6114511214176626  0.3750000000000000
  0.5562436502553308  0.1081721297751565  0.3750000000000000
  0.3888763206720723  0.6111087861098603  0.8750000000000000
  0.8914047399876958  0.1123690366605191  0.3750000000000000
  0.2222098920174829  0.7777716126754092  0.8750000000000000
  0.0555494602919868  0.2777776725401915  0.8750000000000000
  0.3888776023204341  0.2777675665960521  0.8750000000000000
  0.5555445315628663  0.7777723642739488  0.8750000000000000
  0.8888877944392112  0.7777747762653172  0.8750000000000000
  0.7222173283532179  0.2777779453979153  0.8750000000000000
  0.0538497494448346  0.7766076927747674  0.3750000000000000
  0.3881893615164282  0.7790421809315098  0.3750000000000000
  0.2265268200192430  0.2799300766762893  0.3750000000000000
  0.7236242745678635  0.7803561804684945  0.3750000000000000
  0.5562364207122547  0.2708884344275899  0.3750000000000000
  0.8908142520564588  0.2781558714550271  0.3750000000000000
  0.0555483837100742  0.4444453207871682  0.8750000000000000
  0.2222095754638098  0.9444329700696794  0.8750000000000000
  0.5555437531710082  0.9444385432521681  0.8750000000000000
  0.3888776023204341  0.4444433690577187  0.8750000000000000
  0.8888868720474531  0.9444394163688664  0.8750000000000000
  0.0558484816371895  0.9442985744812060  0.3750000000000000
  0.7222212300168263  0.4444458239587817  0.8750000000000000
  0.3881893615164282  0.9424805139182547  0.3750000000000000
  0.2232591261880056  0.4462860134237528  0.3750000000000000
  0.2210375953073904  0.6118515302535662  0.3750000000000000
  0.7240786915011520  0.9461089410815143  0.3750000000000000
  0.8884323533906947  0.4438874670765894  0.3750000000000000
  0.0555480304609672  0.6111085624862908  0.8750000000000000
  0.2222109357410851  0.1111000367716054  0.8750000000000000
  0.7222212300168263  0.6111087393913810  0.8750000000000000
  0.5555445315628663  0.1111055006222533  0.8750000000000000
  0.8888854333793887  0.1111093833563660  0.8750000000000000
  0.1130930800126073  0.0561192268056293  0.3750000000000000
  0.6090538642337345  0.5624883130510421  0.3750000000000000
  0.4446004964517595  0.0527392277864868  0.3750000000000000
  0.9427107231479087  0.5548843917999401  0.3750000000000000
  0.7803145224911305  0.0568239279122332  0.3750000000000000
  0.1111076519416969  0.7222204926375119  0.8750000000000000
  0.4444165764761208  0.7221703644210817  0.8750000000000000
  0.2778174255841746  0.2222614144619180  0.8750000000000000
  0.7777451211585609  0.7221833915027076  0.8750000000000000
  0.6110661907109437  0.2222442064008448  0.8750000000000000
  0.9444754428120015  0.2222395662886068  0.8750000000000000
  0.2769384994658149  0.7224685026943369  0.3750000000000000
  0.1160251260598509  0.2246792296965900  0.3750000000000000
  0.4433487156063323  0.2164926398939884  0.3750000000000000
  0.6123670665868950  0.7272759714378125  0.3750000000000000
  0.9427107231479086  0.7211596646813042  0.3750000000000000
  0.7798575901553804  0.2222287038715695  0.3750000000000000
  0.1111208593387672  0.8889054721795238  0.8750000000000000
  0.4444202890053995  0.8888768111693645  0.8750000000000000
  0.2778174255841746  0.3888893444555859  0.8750000000000000
  0.6110482788002328  0.3888887674814170  0.8750000000000000
  0.7777673265470703  0.8888653427550194  0.8750000000000000
  0.9444542555044062  0.3888983974259186  0.8750000000000000
  0.1130930800126074  0.3903071865403069  0.3750000000000000
  0.2769384994658149  0.8878033301048066  0.3750000000000000
  0.6126722390225767  0.8910551888954658  0.3750000000000000
  0.9450827898376273  0.8892975945892767  0.3750000000000000
  0.7773212114550927  0.3876915458099566  0.3750000000000000
  0.2777858907314567  0.5555266848660720  0.8750000000000000
  0.1111509127932054  0.0555883566412289  0.8750000000000000
  0.6110482788002328  0.5554928446521453  0.8750000000000000
  0.4444165764761208  0.0555795453883750  0.8750000000000000
  0.9444329647986416  0.5555524200089473  0.8750000000000000
  0.1103035794810835  0.5557555563340838  0.3750000000000000
  0.7777770007014033  0.0555551670173691  0.8750000000000000
  0.2776501174131920  0.0538503346091736  0.3750000000000000
  0.4433487156063323  0.5601894090456799  0.3750000000000000
  0.7743254782312271  0.5538294057822811  0.3750000000000000
  0.6126722390225767  0.0549503834604397  0.3750000000000000
  0.4444127039013118  0.5554885501217666  0.8750000000000000
  0.9475228278780209  0.0573576688512342  0.3750000000000000
  0.2777702148458413  0.7222047430652390  0.8750000000000000
  0.1111707862038234  0.2222520597685759  0.8750000000000000
  0.4444127039013118  0.2222574871128811  0.8750000000000000
  0.6110661907109437  0.7221553176434273  0.8750000000000000
  0.9444329647986416  0.7222138781230295  0.8750000000000000
  0.7777673265470703  0.2222353171253802  0.8750000000000000
  0.1096590639987341  0.7214961986660314  0.3750000000000000
  0.4446004964517595  0.7251946019986077  0.3750000000000000
  0.2834203902167794  0.2240119647061283  0.3750000000000000
  0.7773212114550927  0.7229629989784638  0.3750000000000000
  0.6123670665868950  0.2184244284824123  0.3750000000000000
  0.9475228278780209  0.2234984923601224  0.3750000000000000
  0.1111509127932054  0.3888958894853048  0.8750000000000000
  0.2777702148458413  0.8888988051139302  0.8750000000000000
  0.6110830350972456  0.8888573073275966  0.8750000000000000
  0.4444202728067131  0.3888768030700206  0.8750000000000000
  0.9444542555044062  0.8888891914118158  0.8750000000000000
  0.1103035794810835  0.8878813564803287  0.3750000000000000
  0.7777451211585609  0.3888950629891811  0.8750000000000000
  0.4446870418813361  0.8890101876073316  0.3750000000000000
  0.2834203902167794  0.3927417588439798  0.3750000000000000
  0.2776501174131920  0.5571331161373538  0.3750000000000000
  0.6090538642337345  0.3798988845160202  0.3750000000000000
  0.7798575901553804  0.8909622196171398  0.3750000000000000
  0.9450827898376273  0.3891185285816792  0.3750000000000000
  0.1111208593387672  0.5555487204925720  0.8750000000000000
  0.2777858907314567  0.0555925391987204  0.8750000000000000
  0.7777354616741972  0.5555343975037658  0.8750000000000000
  0.6110830350972456  0.0555590611029767  0.8750000000000000
  0.9444754428120015  0.0555692098567299  0.8750000000000000
  0.0556559383544431  0.1112034858080719  0.1251763664813610
  0.5554011460144445  0.6109526257271499  0.1251394806476048
  0.3889485950319627  0.1112966510587116  0.1253110426217760
  0.8887679896249580  0.6110506614791501  0.1250822722649563
  0.7222168020443996  0.1111091985933391  0.1250265711117690
  0.0555619474427850  0.7778149607740686  0.6249518740140459
  0.3889404369210812  0.7777509378151526  0.6249074926133191
  0.2223836984373047  0.2778585158853203  0.6244492926166308
  0.7221288349994451  0.7777231897955177  0.6249512211885329
  0.5554011460144445  0.2777818536206302  0.6248605193523955
  0.8888971763627367  0.2777563595290282  0.6249485783998388
  0.2222781949716183  0.7778057641524777  0.1250593179503688
  0.0556559383544431  0.2777857858797069  0.1251763664813610
  0.3889333948921968  0.2779478492518305  0.1257744479240690
  0.5555364372650400  0.7777211145918042  0.1250834248267201
  0.8888164097239444  0.7777616624585356  0.1250621568956166
  0.7221288349994451  0.2777389785372619  0.1250487788114678
  0.0556098134433637  0.9445470832323269  0.6248989728094347
  0.3889404369210812  0.9445228324392640  0.6249074926133191
  0.2223560560398502  0.4443707652722254  0.6245850809673550
  0.5551894549317886  0.4442613941325586  0.6246114493980365
  0.7222168020443996  0.9444409367843974  0.6249734288882304
  0.8888164097239444  0.4443880805987445  0.6249378431043842
  0.0556098134433637  0.4443960635443650  0.1251010271905653
  0.2223047620732482  0.9445918192548100  0.1251316301097970
  0.5555712551413599  0.9444522942373446  0.1250444233275960
  0.3889333948921968  0.4443188789737021  0.1257744479240690
  0.8888971763627367  0.9444741501670441  0.1250514216001614
  0.7219710204800225  0.4443315783044487  0.1250532886076439
  0.2223047620732482  0.6110462761517736  0.6248683698902031
  0.0556559383544431  0.1112034858080719  0.6248236335186392
  0.5554011460144445  0.6109526257271499  0.6248605193523955
  0.3889485950319627  0.1112966510587116  0.6246889573782243
  0.8887679896249580  0.6110506614791501  0.6249177277350434
  0.0555619474427850  0.6110803200020515  0.1250481259859536
  0.7222168020443996  0.1111091985933391  0.6249734288882304
  0.2223560560398502  0.1113186241009610  0.1254149190326447
  0.3889485950319627  0.6109852773065938  0.1253110426217760
  0.7219710204800225  0.6109727755089099  0.1250532886076439
  0.5555364372650400  0.1111486560065713  0.1250834248267201
  0.3889485950319627  0.6109852773065938  0.6246889573782243
  0.8889299953547604  0.1111316643440517  0.1250517362384226
  0.2222781949716183  0.7778057641524777  0.6249406820496310
  0.0556559383544431  0.2777857858797069  0.6248236335186392
  0.3889333948921968  0.2779478492518305  0.6242255520759304
  0.5555364372650400  0.7777211145918042  0.6249165751732791
  0.8888164097239444  0.7777616624585356  0.6249378431043842
  0.7221288349994451  0.2777389785372619  0.6249512211885329
  0.0555619474427850  0.7778149607740686  0.1250481259859536
  0.3889404369210812  0.7777509378151526  0.1250925073866802
  0.2223836984373047  0.2778585158853203  0.1255507073833692
  0.7221288349994451  0.7777231897955177  0.1250487788114678
  0.5554011460144445  0.2777818536206302  0.1251394806476048
  0.8888971763627367  0.2777563595290282  0.1250514216001614
  0.0556098134433637  0.4443960635443650  0.6248989728094347
  0.2223047620732482  0.9445918192548100  0.6248683698902031
  0.5555712551413599  0.9444522942373446  0.6249555766724040
  0.3889333948921968  0.4443188789737021  0.6242255520759304
  0.8888971763627367  0.9444741501670441  0.6249485783998388
  0.0556098134433637  0.9445470832323269  0.1251010271905653
  0.7219710204800225  0.4443315783044487  0.6249467113923560
  0.3889404369210812  0.9445228324392640  0.1250925073866802
  0.2223560560398502  0.4443707652722254  0.1254149190326447
  0.2223047620732482  0.6110462761517736  0.1251316301097970
  0.5551894549317886  0.4442613941325586  0.1253885506019635
  0.7222168020443996  0.9444409367843974  0.1250265711117690
  0.8888164097239444  0.4443880805987445  0.1250621568956166
  0.0555619474427850  0.6110803200020515  0.6249518740140459
  0.2223560560398502  0.1113186241009610  0.6245850809673550
  0.7219710204800225  0.6109727755089099  0.6249467113923561
  0.5555364372650400  0.1111486560065713  0.6249165751732791
  0.8889299953547604  0.1111316643440517  0.6249482637615782
 
  0.00000000E+00  0.00000000E+00  0.00000000E+00
  0.00000000E+00  0.00000000E+00  0.00000000E+00
  0.00000000E+00  0.00000000E+00  0.00000000E+00
  0.00000000E+00  0.00000000E+00  0.00000000E+00
  0.00000000E+00  0.00000000E+00  0.00000000E+00
  0.00000000E+00  0.00000000E+00  0.00000000E+00
  0.00000000E+00  0.00000000E+00  0.00000000E+00
  0.00000000E+00  0.00000000E+00  0.00000000E+00
  0.00000000E+00  0.00000000E+00  0.00000000E+00
  0.00000000E+00  0.00000000E+00  0.00000000E+00
  0.00000000E+00  0.00000000E+00  0.00000000E+00
  0.00000000E+00  0.00000000E+00  0.00000000E+00
  0.00000000E+00  0.00000000E+00  0.00000000E+00
  0.00000000E+00  0.00000000E+00  0.00000000E+00
  0.00000000E+00  0.00000000E+00  0.00000000E+00
  0.00000000E+00  0.00000000E+00  0.00000000E+00
  0.00000000E+00  0.00000000E+00  0.00000000E+00
  0.00000000E+00  0.00000000E+00  0.00000000E+00
  0.00000000E+00  0.00000000E+00  0.00000000E+00
  0.00000000E+00  0.00000000E+00  0.00000000E+00
  0.00000000E+00  0.00000000E+00  0.00000000E+00
  0.00000000E+00  0.00000000E+00  0.00000000E+00
  0.00000000E+00  0.00000000E+00  0.00000000E+00
  0.00000000E+00  0.00000000E+00  0.00000000E+00
  0.00000000E+00  0.00000000E+00  0.00000000E+00
  0.00000000E+00  0.00000000E+00  0.00000000E+00
  0.00000000E+00  0.00000000E+00  0.00000000E+00
  0.00000000E+00  0.00000000E+00  0.00000000E+00
  0.00000000E+00  0.00000000E+00  0.00000000E+00
  0.00000000E+00  0.00000000E+00  0.00000000E+00
  0.00000000E+00  0.00000000E+00  0.00000000E+00
  0.00000000E+00  0.00000000E+00  0.00000000E+00
  0.00000000E+00  0.00000000E+00  0.00000000E+00
  0.00000000E+00  0.00000000E+00  0.00000000E+00
  0.00000000E+00  0.00000000E+00  0.00000000E+00
  0.00000000E+00  0.00000000E+00  0.00000000E+00
  0.00000000E+00  0.00000000E+00  0.00000000E+00
  0.00000000E+00  0.00000000E+00  0.00000000E+00
  0.00000000E+00  0.00000000E+00  0.00000000E+00
  0.00000000E+00  0.00000000E+00  0.00000000E+00
  0.00000000E+00  0.00000000E+00  0.00000000E+00
  0.00000000E+00  0.00000000E+00  0.00000000E+00
  0.00000000E+00  0.00000000E+00  0.00000000E+00
  0.00000000E+00  0.00000000E+00  0.00000000E+00
  0.00000000E+00  0.00000000E+00  0.00000000E+00
  0.00000000E+00  0.00000000E+00  0.00000000E+00
  0.00000000E+00  0.00000000E+00  0.00000000E+00
  0.00000000E+00  0.00000000E+00  0.00000000E+00
  0.00000000E+00  0.00000000E+00  0.00000000E+00
  0.00000000E+00  0.00000000E+00  0.00000000E+00
  0.00000000E+00  0.00000000E+00  0.00000000E+00
  0.00000000E+00  0.00000000E+00  0.00000000E+00
  0.00000000E+00  0.00000000E+00  0.00000000E+00
  0.00000000E+00  0.00000000E+00  0.00000000E+00
  0.00000000E+00  0.00000000E+00  0.00000000E+00
  0.00000000E+00  0.00000000E+00  0.00000000E+00
  0.00000000E+00  0.00000000E+00  0.00000000E+00
  0.00000000E+00  0.00000000E+00  0.00000000E+00
  0.00000000E+00  0.00000000E+00  0.00000000E+00
  0.00000000E+00  0.00000000E+00  0.00000000E+00
  0.00000000E+00  0.00000000E+00  0.00000000E+00
  0.00000000E+00  0.00000000E+00  0.00000000E+00
  0.00000000E+00  0.00000000E+00  0.00000000E+00
  0.00000000E+00  0.00000000E+00  0.00000000E+00
  0.00000000E+00  0.00000000E+00  0.00000000E+00
  0.00000000E+00  0.00000000E+00  0.00000000E+00
  0.00000000E+00  0.00000000E+00  0.00000000E+00
  0.00000000E+00  0.00000000E+00  0.00000000E+00
  0.00000000E+00  0.00000000E+00  0.00000000E+00
  0.00000000E+00  0.00000000E+00  0.00000000E+00
  0.00000000E+00  0.00000000E+00  0.00000000E+00
  0.00000000E+00  0.00000000E+00  0.00000000E+00
  0.00000000E+00  0.00000000E+00  0.00000000E+00
  0.00000000E+00  0.00000000E+00  0.00000000E+00
  0.00000000E+00  0.00000000E+00  0.00000000E+00
  0.00000000E+00  0.00000000E+00  0.00000000E+00
  0.00000000E+00  0.00000000E+00  0.00000000E+00
  0.00000000E+00  0.00000000E+00  0.00000000E+00
  0.00000000E+00  0.00000000E+00  0.00000000E+00
  0.00000000E+00  0.00000000E+00  0.00000000E+00
  0.00000000E+00  0.00000000E+00  0.00000000E+00
  0.00000000E+00  0.00000000E+00  0.00000000E+00
  0.00000000E+00  0.00000000E+00  0.00000000E+00
  0.00000000E+00  0.00000000E+00  0.00000000E+00
  0.00000000E+00  0.00000000E+00  0.00000000E+00
  0.00000000E+00  0.00000000E+00  0.00000000E+00
  0.00000000E+00  0.00000000E+00  0.00000000E+00
  0.00000000E+00  0.00000000E+00  0.00000000E+00
  0.00000000E+00  0.00000000E+00  0.00000000E+00
  0.00000000E+00  0.00000000E+00  0.00000000E+00
  0.00000000E+00  0.00000000E+00  0.00000000E+00
  0.00000000E+00  0.00000000E+00  0.00000000E+00
  0.00000000E+00  0.00000000E+00  0.00000000E+00
  0.00000000E+00  0.00000000E+00  0.00000000E+00
  0.00000000E+00  0.00000000E+00  0.00000000E+00
  0.00000000E+00  0.00000000E+00  0.00000000E+00
  0.00000000E+00  0.00000000E+00  0.00000000E+00
  0.00000000E+00  0.00000000E+00  0.00000000E+00
  0.00000000E+00  0.00000000E+00  0.00000000E+00
  0.00000000E+00  0.00000000E+00  0.00000000E+00
  0.00000000E+00  0.00000000E+00  0.00000000E+00
  0.00000000E+00  0.00000000E+00  0.00000000E+00
  0.00000000E+00  0.00000000E+00  0.00000000E+00
  0.00000000E+00  0.00000000E+00  0.00000000E+00
  0.00000000E+00  0.00000000E+00  0.00000000E+00
  0.00000000E+00  0.00000000E+00  0.00000000E+00
  0.00000000E+00  0.00000000E+00  0.00000000E+00
  0.00000000E+00  0.00000000E+00  0.00000000E+00
  0.00000000E+00  0.00000000E+00  0.00000000E+00
  0.00000000E+00  0.00000000E+00  0.00000000E+00
  0.00000000E+00  0.00000000E+00  0.00000000E+00
  0.00000000E+00  0.00000000E+00  0.00000000E+00
  0.00000000E+00  0.00000000E+00  0.00000000E+00
  0.00000000E+00  0.00000000E+00  0.00000000E+00
  0.00000000E+00  0.00000000E+00  0.00000000E+00
  0.00000000E+00  0.00000000E+00  0.00000000E+00
  0.00000000E+00  0.00000000E+00  0.00000000E+00
  0.00000000E+00  0.00000000E+00  0.00000000E+00
  0.00000000E+00  0.00000000E+00  0.00000000E+00
  0.00000000E+00  0.00000000E+00  0.00000000E+00
  0.00000000E+00  0.00000000E+00  0.00000000E+00
  0.00000000E+00  0.00000000E+00  0.00000000E+00
  0.00000000E+00  0.00000000E+00  0.00000000E+00
  0.00000000E+00  0.00000000E+00  0.00000000E+00
  0.00000000E+00  0.00000000E+00  0.00000000E+00
  0.00000000E+00  0.00000000E+00  0.00000000E+00
  0.00000000E+00  0.00000000E+00  0.00000000E+00
  0.00000000E+00  0.00000000E+00  0.00000000E+00
  0.00000000E+00  0.00000000E+00  0.00000000E+00
  0.00000000E+00  0.00000000E+00  0.00000000E+00
  0.00000000E+00  0.00000000E+00  0.00000000E+00
  0.00000000E+00  0.00000000E+00  0.00000000E+00
  0.00000000E+00  0.00000000E+00  0.00000000E+00
  0.00000000E+00  0.00000000E+00  0.00000000E+00
  0.00000000E+00  0.00000000E+00  0.00000000E+00
  0.00000000E+00  0.00000000E+00  0.00000000E+00
  0.00000000E+00  0.00000000E+00  0.00000000E+00
  0.00000000E+00  0.00000000E+00  0.00000000E+00
  0.00000000E+00  0.00000000E+00  0.00000000E+00
  0.00000000E+00  0.00000000E+00  0.00000000E+00
  0.00000000E+00  0.00000000E+00  0.00000000E+00
  0.00000000E+00  0.00000000E+00  0.00000000E+00
  0.00000000E+00  0.00000000E+00  0.00000000E+00
  0.00000000E+00  0.00000000E+00  0.00000000E+00
  0.00000000E+00  0.00000000E+00  0.00000000E+00
  0.00000000E+00  0.00000000E+00  0.00000000E+00
  0.00000000E+00  0.00000000E+00  0.00000000E+00
  0.00000000E+00  0.00000000E+00  0.00000000E+00
  0.00000000E+00  0.00000000E+00  0.00000000E+00
  0.00000000E+00  0.00000000E+00  0.00000000E+00
  0.00000000E+00  0.00000000E+00  0.00000000E+00
  0.00000000E+00  0.00000000E+00  0.00000000E+00
  0.00000000E+00  0.00000000E+00  0.00000000E+00
  0.00000000E+00  0.00000000E+00  0.00000000E+00
  0.00000000E+00  0.00000000E+00  0.00000000E+00
  0.00000000E+00  0.00000000E+00  0.00000000E+00
  0.00000000E+00  0.00000000E+00  0.00000000E+00
  0.00000000E+00  0.00000000E+00  0.00000000E+00
  0.00000000E+00  0.00000000E+00  0.00000000E+00
  0.00000000E+00  0.00000000E+00  0.00000000E+00
  0.00000000E+00  0.00000000E+00  0.00000000E+00
  0.00000000E+00  0.00000000E+00  0.00000000E+00
  0.00000000E+00  0.00000000E+00  0.00000000E+00
  0.00000000E+00  0.00000000E+00  0.00000000E+00
  0.00000000E+00  0.00000000E+00  0.00000000E+00
  0.00000000E+00  0.00000000E+00  0.00000000E+00
  0.00000000E+00  0.00000000E+00  0.00000000E+00
  0.00000000E+00  0.00000000E+00  0.00000000E+00
  0.00000000E+00  0.00000000E+00  0.00000000E+00
  0.00000000E+00  0.00000000E+00  0.00000000E+00
  0.00000000E+00  0.00000000E+00  0.00000000E+00
  0.00000000E+00  0.00000000E+00  0.00000000E+00
  0.00000000E+00  0.00000000E+00  0.00000000E+00
  0.00000000E+00  0.00000000E+00  0.00000000E+00
  0.00000000E+00  0.00000000E+00  0.00000000E+00
  0.00000000E+00  0.00000000E+00  0.00000000E+00
  0.00000000E+00  0.00000000E+00  0.00000000E+00
  0.00000000E+00  0.00000000E+00  0.00000000E+00
  0.00000000E+00  0.00000000E+00  0.00000000E+00
  0.00000000E+00  0.00000000E+00  0.00000000E+00
  0.00000000E+00  0.00000000E+00  0.00000000E+00
  0.00000000E+00  0.00000000E+00  0.00000000E+00
  0.00000000E+00  0.00000000E+00  0.00000000E+00
  0.00000000E+00  0.00000000E+00  0.00000000E+00
  0.00000000E+00  0.00000000E+00  0.00000000E+00
  0.00000000E+00  0.00000000E+00  0.00000000E+00
  0.00000000E+00  0.00000000E+00  0.00000000E+00
  0.00000000E+00  0.00000000E+00  0.00000000E+00
  0.00000000E+00  0.00000000E+00  0.00000000E+00
  0.00000000E+00  0.00000000E+00  0.00000000E+00
  0.00000000E+00  0.00000000E+00  0.00000000E+00
  0.00000000E+00  0.00000000E+00  0.00000000E+00
  0.00000000E+00  0.00000000E+00  0.00000000E+00
  0.00000000E+00  0.00000000E+00  0.00000000E+00
  0.00000000E+00  0.00000000E+00  0.00000000E+00
  0.00000000E+00  0.00000000E+00  0.00000000E+00
  0.00000000E+00  0.00000000E+00  0.00000000E+00
  0.00000000E+00  0.00000000E+00  0.00000000E+00
  0.00000000E+00  0.00000000E+00  0.00000000E+00
  0.00000000E+00  0.00000000E+00  0.00000000E+00
  0.00000000E+00  0.00000000E+00  0.00000000E+00
  0.00000000E+00  0.00000000E+00  0.00000000E+00
  0.00000000E+00  0.00000000E+00  0.00000000E+00
  0.00000000E+00  0.00000000E+00  0.00000000E+00
  0.00000000E+00  0.00000000E+00  0.00000000E+00
  0.00000000E+00  0.00000000E+00  0.00000000E+00
  0.00000000E+00  0.00000000E+00  0.00000000E+00
  0.00000000E+00  0.00000000E+00  0.00000000E+00
  0.00000000E+00  0.00000000E+00  0.00000000E+00
  0.00000000E+00  0.00000000E+00  0.00000000E+00
  0.00000000E+00  0.00000000E+00  0.00000000E+00
  0.00000000E+00  0.00000000E+00  0.00000000E+00
  0.00000000E+00  0.00000000E+00  0.00000000E+00
  0.00000000E+00  0.00000000E+00  0.00000000E+00
  0.00000000E+00  0.00000000E+00  0.00000000E+00
  0.00000000E+00  0.00000000E+00  0.00000000E+00
  0.00000000E+00  0.00000000E+00  0.00000000E+00
  0.00000000E+00  0.00000000E+00  0.00000000E+00
  0.00000000E+00  0.00000000E+00  0.00000000E+00
  0.00000000E+00  0.00000000E+00  0.00000000E+00
  0.00000000E+00  0.00000000E+00  0.00000000E+00
  0.00000000E+00  0.00000000E+00  0.00000000E+00
  0.00000000E+00  0.00000000E+00  0.00000000E+00
  0.00000000E+00  0.00000000E+00  0.00000000E+00
  0.00000000E+00  0.00000000E+00  0.00000000E+00
  0.00000000E+00  0.00000000E+00  0.00000000E+00
  0.00000000E+00  0.00000000E+00  0.00000000E+00
  0.00000000E+00  0.00000000E+00  0.00000000E+00
  0.00000000E+00  0.00000000E+00  0.00000000E+00
  0.00000000E+00  0.00000000E+00  0.00000000E+00
  0.00000000E+00  0.00000000E+00  0.00000000E+00
  0.00000000E+00  0.00000000E+00  0.00000000E+00
  0.00000000E+00  0.00000000E+00  0.00000000E+00
  0.00000000E+00  0.00000000E+00  0.00000000E+00
  0.00000000E+00  0.00000000E+00  0.00000000E+00
  0.00000000E+00  0.00000000E+00  0.00000000E+00
  0.00000000E+00  0.00000000E+00  0.00000000E+00
  0.00000000E+00  0.00000000E+00  0.00000000E+00
  0.00000000E+00  0.00000000E+00  0.00000000E+00
  0.00000000E+00  0.00000000E+00  0.00000000E+00
  0.00000000E+00  0.00000000E+00  0.00000000E+00
  0.00000000E+00  0.00000000E+00  0.00000000E+00
  0.00000000E+00  0.00000000E+00  0.00000000E+00
  0.00000000E+00  0.00000000E+00  0.00000000E+00
  0.00000000E+00  0.00000000E+00  0.00000000E+00
  0.00000000E+00  0.00000000E+00  0.00000000E+00
  0.00000000E+00  0.00000000E+00  0.00000000E+00
  0.00000000E+00  0.00000000E+00  0.00000000E+00