B Sn N                                  
   1.0000000000000000     
     8.7639499999999995  -15.1796066749929999    0.0000000000000000
     8.7639499999999995   15.1796066749929999    0.0000000000000000
     0.0000000000000000    0.0000000000000000   15.0000000000000000
   B    Sn   N 
    47     1    49
Selective dynamics
Direct
  0.9048179206791762  0.9542677184949098  0.1145231751790986   T   T   T
  0.9043493314945342  0.0966799504250889  0.1153518491933984   T   T   T
  0.9040120721363223  0.2389757130158554  0.1099430719926026   T   T   T
  0.9037307359627015  0.3812250950046868  0.1047988734170593   T   T   T
  0.9027551647350156  0.5235185824678387  0.1041988557110043   T   T   T
  0.9004387455170924  0.6655254292663582  0.1058453843831124   T   T   T
  0.9020127014971441  0.8091842639148078  0.1082220745555743   T   T   T
  0.0453783916046405  0.9513419801626032  0.1134729209495514   T   T   T
  0.0465550529160761  0.0953656284827074  0.1167463940830655   T   T   T
  0.0468341971076770  0.2386908393502433  0.1147225907432370   T   T   T
  0.0468355419487514  0.3813461195496704  0.1106420441848923   T   T   T
  0.0463485795685717  0.5235917633926782  0.1081666973855513   T   T   T
  0.0449869459560997  0.6656928390771846  0.1081580428422427   T   T   T
  0.0445342059687788  0.8079852943246523  0.1089015658392412   T   T   T
  0.1877163525770831  0.9503434416975508  0.1115937750074714   T   T   T
  0.1878773545130977  0.0931863806897796  0.1124028047104678   T   T   T
  0.1884183041588386  0.2368914381675240  0.1113558366802934   T   T   T
  0.1896465400668242  0.3809682377509545  0.1107519200115750   T   T   T
  0.1901371803106743  0.5235029578534509  0.1127801676136312   T   T   T
  0.1889785547706504  0.6657719819197082  0.1134968096823666   T   T   T
  0.1880129512670598  0.8079649512674921  0.1121835119841152   T   T   T
  0.3308759033946527  0.9504683753176077  0.1110440469909050   T   T   T
  0.3303821752273473  0.0923318603752489  0.1064910163043633   T   T   T
  0.3294702729985969  0.2339511620680657  0.1030312438620359   T   T   T
  0.3301286147834553  0.3797343342088156  0.1018366340487955   T   T   T
  0.3347373333742385  0.5226133218755505  0.1111866925879137   T   T   T
  0.3329414366841950  0.6659420612864512  0.1189217645069818   T   T   T
  0.3315531541343578  0.8084425489452833  0.1168209405437035   T   T   T
  0.4743277049585595  0.9520287957014002  0.1126220901642338   T   T   T
  0.4737128981784071  0.0931486902194225  0.1037209581870036   T   T   T
  0.4730008256762538  0.2340111086860424  0.1004595879025349   T   T   T
  0.4697721265416174  0.3711773670148993  0.0964385431892832   T   T   T
  0.4768713866962319  0.6695613013494696  0.1228373877719451   T   T   T
  0.4752036314678258  0.8108656614420406  0.1215247044456888   T   T   T
  0.6180888263763558  0.9544438584088077  0.1161135474719271   T   T   T
  0.6174247901947465  0.0951046315582625  0.1046939880618523   T   T   T
  0.6169572060649678  0.2360720516513195  0.0977889789608231   T   T   T
  0.6163338576104106  0.3755053108119703  0.1123761156144647   T   T   T
  0.6249433097083306  0.6790754897509075  0.1086724919439066   T   T   T
  0.6193771177674445  0.8143933106813531  0.1219977335850564   T   T   T
  0.7619394625742892  0.9551597400606642  0.1164372166378602   T   T   T
  0.7611252639866938  0.0965785550330733  0.1103124165966131   T   T   T
  0.7607219402805082  0.2382342488486789  0.1022630943135384   T   T   T
  0.7605135622956324  0.3803193270630448  0.1024745581917036   T   T   T
  0.7606103519970334  0.5238551619521878  0.1157135928563585   T   T   T
  0.7549159265507925  0.6659914408350630  0.0994161925139038   T   T   T
  0.7637408335914665  0.8143341417900802  0.1120195423475344   T   T   T
  0.5180440971440731  0.5152145544414621  0.1007422472265662   T   T   T
  0.9506578122553568  0.9047654706124760  0.1124052389771947   T   T   T
  0.9520149256970467  0.0491042024074751  0.1168638543752029   T   T   T
  0.9517165328920888  0.1916508518061650  0.1143105937129700   T   T   T
  0.9514347233842750  0.3339759789138977  0.1083491042094444   T   T   T
  0.9507458209550116  0.4762177217407624  0.1046107756652070   T   T   T
  0.9492013697145115  0.6183484296363354  0.1058419824734892   T   T   T
  0.9492197768500110  0.7607726301112853  0.1062426460443034   T   T   T
  0.0926281280174456  0.9032724410743229  0.1115654930180076   T   T   T
  0.0932108767755127  0.0466150387325432  0.1157812502684170   T   T   T
  0.0938713352147994  0.1903147296918473  0.1161044303361084   T   T   T
  0.0942990516721607  0.3336597398835814  0.1127626420991685   T   T   T
  0.0943802395395634  0.4763321877276792  0.1104423770014828   T   T   T
  0.0933600640459858  0.6185585166927398  0.1096441730681834   T   T   T
  0.0926287045980769  0.7607001581475414  0.1095249104835885   T   T   T
  0.2356662896994595  0.9031464403919738  0.1118955248861288   T   T   T
  0.2355567274462941  0.0456039143805912  0.1106549167675386   T   T   T
  0.2353708736763527  0.1881685780602537  0.1095780027862960   T   T   T
  0.2355666445974160  0.3314104640589449  0.1078620961916019   T   T   T
  0.2379740452610052  0.4760521817090620  0.1115029511308923   T   T   T
  0.2372683021408135  0.6186838555613882  0.1153676205324315   T   T   T
  0.2361547062886651  0.7609148433758363  0.1147125646241153   T   T   T
  0.3790289494201685  0.9037777493106230  0.1139104958253328   T   T   T
  0.3785998473335931  0.0456804858191995  0.1069530730801814   T   T   T
  0.3782185612975872  0.1875774541522359  0.1021329566665926   T   T   T
  0.3773719739698712  0.3289765329196112  0.0973053811172968   T   T   T
  0.3787457561518248  0.4723337294625291  0.1029901916873300   T   T   T
  0.3812967676744717  0.6188237393831527  0.1190942763959662   T   T   T
  0.3797150767295115  0.7616387576615813  0.1205702092872315   T   T   T
  0.5227161549496339  0.9060336276417287  0.1175172663130005   T   T   T
  0.5220839233178739  0.0470197099418775  0.1061752443484388   T   T   T
  0.5216052392342119  0.1883162443866808  0.0992883292758153   T   T   T
  0.5215292992732050  0.3300815526920389  0.1026659016974746   T   T   T
  0.6233011558266179  0.4951026625459420  0.1926243948388136   T   T   T
  0.5318268263551009  0.6318022838154620  0.1214859156701217   T   T   T
  0.5238037003365008  0.7653246847711194  0.1245359130602482   T   T   T
  0.6667868286545362  0.9088993377572346  0.1198444056288590   T   T   T
  0.6657964323225866  0.0491222018724007  0.1098155888668139   T   T   T
  0.6652740829261540  0.1900848014820919  0.0993539989565487   T   T   T
  0.6648279446579405  0.3313909646254838  0.0995214338246096   T   T   T
  0.6653254271911568  0.4681906389634248  0.1402347347165731   T   T   T
  0.6623939453122332  0.6259435435661244  0.0873719324637870   T   T   T
  0.6704006300501034  0.7715880105332115  0.1174608581893122   T   T   T
  0.8106597144803364  0.9087904794330846  0.1144371958801656   T   T   T
  0.8093174260538978  0.0499693939525789  0.1143326242445423   T   T   T
  0.8087081233992659  0.1915339301698369  0.1069318196663683   T   T   T
  0.8082357398029002  0.3334454629221975  0.1018780381811509   T   T   T
  0.8068506297978458  0.4754952177360907  0.1050354193154625   T   T   T
  0.8041025650215693  0.6175510605538371  0.1071498221674948   T   T   T
  0.8074947592694293  0.7629314070383455  0.1060795833278056   T   T   T

  0.00000000E+00  0.00000000E+00  0.00000000E+00
  0.00000000E+00  0.00000000E+00  0.00000000E+00
  0.00000000E+00  0.00000000E+00  0.00000000E+00
  0.00000000E+00  0.00000000E+00  0.00000000E+00
  0.00000000E+00  0.00000000E+00  0.00000000E+00
  0.00000000E+00  0.00000000E+00  0.00000000E+00
  0.00000000E+00  0.00000000E+00  0.00000000E+00
  0.00000000E+00  0.00000000E+00  0.00000000E+00
  0.00000000E+00  0.00000000E+00  0.00000000E+00
  0.00000000E+00  0.00000000E+00  0.00000000E+00
  0.00000000E+00  0.00000000E+00  0.00000000E+00
  0.00000000E+00  0.00000000E+00  0.00000000E+00
  0.00000000E+00  0.00000000E+00  0.00000000E+00
  0.00000000E+00  0.00000000E+00  0.00000000E+00
  0.00000000E+00  0.00000000E+00  0.00000000E+00
  0.00000000E+00  0.00000000E+00  0.00000000E+00
  0.00000000E+00  0.00000000E+00  0.00000000E+00
  0.00000000E+00  0.00000000E+00  0.00000000E+00
  0.00000000E+00  0.00000000E+00  0.00000000E+00
  0.00000000E+00  0.00000000E+00  0.00000000E+00
  0.00000000E+00  0.00000000E+00  0.00000000E+00
  0.00000000E+00  0.00000000E+00  0.00000000E+00
  0.00000000E+00  0.00000000E+00  0.00000000E+00
  0.00000000E+00  0.00000000E+00  0.00000000E+00
  0.00000000E+00  0.00000000E+00  0.00000000E+00
  0.00000000E+00  0.00000000E+00  0.00000000E+00
  0.00000000E+00  0.00000000E+00  0.00000000E+00
  0.00000000E+00  0.00000000E+00  0.00000000E+00
  0.00000000E+00  0.00000000E+00  0.00000000E+00
  0.00000000E+00  0.00000000E+00  0.00000000E+00
  0.00000000E+00  0.00000000E+00  0.00000000E+00
  0.00000000E+00  0.00000000E+00  0.00000000E+00
  0.00000000E+00  0.00000000E+00  0.00000000E+00
  0.00000000E+00  0.00000000E+00  0.00000000E+00
  0.00000000E+00  0.00000000E+00  0.00000000E+00
  0.00000000E+00  0.00000000E+00  0.00000000E+00
  0.00000000E+00  0.00000000E+00  0.00000000E+00
  0.00000000E+00  0.00000000E+00  0.00000000E+00
  0.00000000E+00  0.00000000E+00  0.00000000E+00
  0.00000000E+00  0.00000000E+00  0.00000000E+00
  0.00000000E+00  0.00000000E+00  0.00000000E+00
  0.00000000E+00  0.00000000E+00  0.00000000E+00
  0.00000000E+00  0.00000000E+00  0.00000000E+00
  0.00000000E+00  0.00000000E+00  0.00000000E+00
  0.00000000E+00  0.00000000E+00  0.00000000E+00
  0.00000000E+00  0.00000000E+00  0.00000000E+00
  0.00000000E+00  0.00000000E+00  0.00000000E+00
  0.00000000E+00  0.00000000E+00  0.00000000E+00
  0.00000000E+00  0.00000000E+00  0.00000000E+00
  0.00000000E+00  0.00000000E+00  0.00000000E+00
  0.00000000E+00  0.00000000E+00  0.00000000E+00
  0.00000000E+00  0.00000000E+00  0.00000000E+00
  0.00000000E+00  0.00000000E+00  0.00000000E+00
  0.00000000E+00  0.00000000E+00  0.00000000E+00
  0.00000000E+00  0.00000000E+00  0.00000000E+00
  0.00000000E+00  0.00000000E+00  0.00000000E+00
  0.00000000E+00  0.00000000E+00  0.00000000E+00
  0.00000000E+00  0.00000000E+00  0.00000000E+00
  0.00000000E+00  0.00000000E+00  0.00000000E+00
  0.00000000E+00  0.00000000E+00  0.00000000E+00
  0.00000000E+00  0.00000000E+00  0.00000000E+00
  0.00000000E+00  0.00000000E+00  0.00000000E+00
  0.00000000E+00  0.00000000E+00  0.00000000E+00
  0.00000000E+00  0.00000000E+00  0.00000000E+00
  0.00000000E+00  0.00000000E+00  0.00000000E+00
  0.00000000E+00  0.00000000E+00  0.00000000E+00
  0.00000000E+00  0.00000000E+00  0.00000000E+00
  0.00000000E+00  0.00000000E+00  0.00000000E+00
  0.00000000E+00  0.00000000E+00  0.00000000E+00
  0.00000000E+00  0.00000000E+00  0.00000000E+00
  0.00000000E+00  0.00000000E+00  0.00000000E+00
  0.00000000E+00  0.00000000E+00  0.00000000E+00
  0.00000000E+00  0.00000000E+00  0.00000000E+00
  0.00000000E+00  0.00000000E+00  0.00000000E+00
  0.00000000E+00  0.00000000E+00  0.00000000E+00
  0.00000000E+00  0.00000000E+00  0.00000000E+00
  0.00000000E+00  0.00000000E+00  0.00000000E+00
  0.00000000E+00  0.00000000E+00  0.00000000E+00
  0.00000000E+00  0.00000000E+00  0.00000000E+00
  0.00000000E+00  0.00000000E+00  0.00000000E+00
  0.00000000E+00  0.00000000E+00  0.00000000E+00
  0.00000000E+00  0.00000000E+00  0.00000000E+00
  0.00000000E+00  0.00000000E+00  0.00000000E+00
  0.00000000E+00  0.00000000E+00  0.00000000E+00
  0.00000000E+00  0.00000000E+00  0.00000000E+00
  0.00000000E+00  0.00000000E+00  0.00000000E+00
  0.00000000E+00  0.00000000E+00  0.00000000E+00
  0.00000000E+00  0.00000000E+00  0.00000000E+00
  0.00000000E+00  0.00000000E+00  0.00000000E+00
  0.00000000E+00  0.00000000E+00  0.00000000E+00
  0.00000000E+00  0.00000000E+00  0.00000000E+00
  0.00000000E+00  0.00000000E+00  0.00000000E+00
  0.00000000E+00  0.00000000E+00  0.00000000E+00
  0.00000000E+00  0.00000000E+00  0.00000000E+00
  0.00000000E+00  0.00000000E+00  0.00000000E+00
  0.00000000E+00  0.00000000E+00  0.00000000E+00
  0.00000000E+00  0.00000000E+00  0.00000000E+00
