Species order:X N B                     
   2.51242800000000     
     5.9449720136058266    0.0000000000000000    0.0000000000000000
    -2.9724860068029120    5.1484967885702053   -0.0000000000000001
     0.0000000000000000    0.0000000000000009    5.3101128803662583
   C    N    B 
     2   143   143
Direct
  0.4432583983837026  0.3882958658585122  0.3750000000000000
  0.5512166631061350  0.4422749982197318  0.3750000000000000
  0.1110289507827766  0.0555265097037772  0.1248937363401292
  0.6110593585287553  0.5556281659656224  0.1243317083730307
  0.4443798069624766  0.0555264064779118  0.1248904271008158
  0.9443387203425165  0.5554999334446182  0.1249392597834430
  0.7777185074089371  0.0555259203711294  0.1248404451072859
  0.1110169041860564  0.7221751187596730  0.6251233474982602
  0.4443798069624766  0.7221867338178840  0.6251095728991728
  0.2776930864713331  0.2221992043414744  0.6251044090328507
  0.7777058663929289  0.7222250745635501  0.6251724531639201
  0.6110787035086086  0.2221424295106281  0.6252513643004355
  0.9443647321746167  0.2221730301263224  0.6250751143885722
  0.2776985582558052  0.7221767530460985  0.1249302123403935
  0.1109890938488433  0.2221612135910867  0.1248464166360265
  0.4443996996983063  0.2222032483978983  0.1249177317686121
  0.6110787035086086  0.7222696073313185  0.1247486356995903
  0.9443387203425165  0.7221721202312056  0.1249392597834430
  0.7777251810686833  0.2221593020075271  0.1249160788461073
  0.1110185263153990  0.8888507330836311  0.6250662742067851
  0.4443644734550555  0.8888489033942273  0.6250844074050617
  0.2776930864713331  0.3888272154632076  0.6251044090328507
  0.6110593585287553  0.3887645258964608  0.6256682916270140
  0.7777251810686833  0.8888992123945298  0.6250839211539335
  0.9443720077717959  0.3888458377355902  0.6250508374472016
  0.1110289507827766  0.3888357744123205  0.1248937363401292
  0.2776985582558045  0.8888551385430107  0.1249302123403935
  0.6110536942345467  0.8888769869438677  0.1249167647810965
  0.4443488840849572  0.3888411087091395  0.1247849071648127
  0.9443720077717959  0.8888595033695478  0.1249491625527863
  0.7777058663929289  0.3888141251626835  0.1248275468361248
  0.2777153320543439  0.5554951417779893  0.6250660484621672
  0.1110289507827766  0.0555265097037772  0.6251062636598965
  0.6110593585287553  0.5556281659656224  0.6256682916270140
  0.4443798069624766  0.0555264064779118  0.6251095728991728
  0.9443387203425165  0.5554999334446182  0.6250607402165489
  0.1110185263153990  0.5555011265651290  0.1249337257932271
  0.7777185074089371  0.0555259203711294  0.6251595548927135
  0.2777153320543439  0.0555535236097083  0.1249339515378548
  0.4443996996983063  0.5555297846337522  0.1249177317686121
  0.7776450692935142  0.5554892013134238  0.1248579691962838
  0.6110536942345467  0.0555100406240167  0.1249167647810965
  0.4443996996983063  0.5555297846337522  0.6250822682313701
  0.9443647321746167  0.0555250353816271  0.1249248856114158
  0.2776985582558045  0.7221767530460985  0.6250697876595971
  0.1109890938488433  0.2221612135910867  0.6251535833639799
  0.4443996996983063  0.2222032483978983  0.6250822682313701
  0.6110787035086086  0.7222696073313185  0.6252513643004355
  0.9443387203425165  0.7221721202312056  0.6250607402165489
  0.7777251810686833  0.2221593020075271  0.6250839211539335
  0.1110169041860565  0.7221751187596730  0.1248766525017333
  0.4443798069624766  0.7221867338178840  0.1248904271008158
  0.2776930864713331  0.2221992043414744  0.1248955909671598
  0.7777058663929289  0.7222250745635501  0.1248275468361248
  0.6110787035086086  0.2221424295106281  0.1247486356995902
  0.9443647321746167  0.2221730301263224  0.1249248856114158
  0.1110289507827766  0.3888357744123205  0.6251062636598965
  0.2776985582558045  0.8888551385430107  0.6250697876595971
  0.6110536942345467  0.8888769869438677  0.6250832352188798
  0.4443488840849548  0.3888411087091395  0.6252150928351802
  0.9443720077717959  0.8888595033695478  0.6250508374472016
  0.1110185263153990  0.8888507330836311  0.1249337257932271
  0.7777058663929289  0.3888141251626835  0.6251724531639201
  0.4443644734550555  0.8888489033942273  0.1249155925949333
  0.2776930864713331  0.3888272154632069  0.1248955909671598
  0.2777153320543439  0.5554951417779893  0.1249339515378548
  0.6110593585287553  0.3887645258964608  0.1243317083730307
  0.7777251810686833  0.8888992123945298  0.1249160788461073
  0.9443720077717959  0.3888458377355902  0.1249491625527863
  0.1110185263153990  0.5555011265651290  0.6250662742067851
  0.2777153320543439  0.0555535236097083  0.6250660484621672
  0.7776450692935142  0.5554892013134238  0.6251420308037290
  0.6110536942345467  0.0555100406240167  0.6250832352188798
  0.9443647321746167  0.0555250353816271  0.6250751143885722
  0.0555737132605205  0.1110863748647325  0.3750000000000000
  0.5555609565392960  0.6131054458396823  0.3750000000000000
  0.3886586310541228  0.1116337815441826  0.3750000000000000
  0.8894411050380118  0.6113872191856871  0.3750000000000000
  0.7222959555815680  0.1110240857012723  0.3750000000000000
  0.0556499975657114  0.7778409320775712  0.8750000000000000
  0.3889846043379389  0.7778399907273790  0.8750000000000000
  0.2223249149688908  0.2778291241511036  0.8750000000000000
  0.7223220546577290  0.7778350197005297  0.8750000000000000
  0.5556542136912020  0.2778183305842392  0.8750000000000000
  0.8889999284996677  0.2778381384991923  0.8750000000000000
  0.2223919651990018  0.7778626492661782  0.3750000000000000
  0.0555737132605205  0.2778206717291234  0.3750000000000000
  0.3884124782217644  0.2794083021043937  0.3750000000000000
  0.5554188929774350  0.7784035815585247  0.3750000000000000
  0.8895396686569790  0.7782683013698874  0.3750000000000000
  0.7225056446986722  0.2775353770765915  0.3750000000000000
  0.0556536438571581  0.9444779703685863  0.8750000000000000
  0.3889846043379389  0.9444779469438858  0.8750000000000000
  0.2223502486048296  0.4445084829960646  0.8750000000000000
  0.5556783565645884  0.4445058449489585  0.8750000000000000
  0.7223182935278464  0.9444762830477805  0.8750000000000000
  0.8890070484726557  0.4445066335433163  0.8750000000000000
  0.0559476497192959  0.4445706078002203  0.3750000000000000
  0.2223445515484367  0.9444808372650286  0.3750000000000000
  0.5554348433720067  0.9443840883526643  0.3750000000000000
  0.3884124782217644  0.4423375094506730  0.3750000000000000
  0.8891335592383357  0.9446302089113191  0.3750000000000000
  0.7232346852230399  0.4444297592220209  0.3750000000000000
  0.2223260772036040  0.6111634757245379  0.8750000000000000
  0.0556566153214492  0.1111693651842618  0.8750000000000000
  0.5556542136912020  0.6111692164403516  0.8750000000000000
  0.3889849384939167  0.1111717208122441  0.8750000000000000
  0.8889967308959710  0.6111650321146223  0.8750000000000000
  0.0559439574747150  0.6113209084499692  0.3750000000000000
  0.7223182935278464  0.1111753438133668  0.8750000000000000
  0.2225031099645942  0.1112841126470596  0.3750000000000000
  0.3886586310541228  0.6103581828433134  0.3750000000000000
  0.7232346852230399  0.6121382593343490  0.3750000000000000
  0.5554188929774350  0.1103486447522644  0.3750000000000000
  0.3889849384939167  0.6111465510149670  0.8750000000000000
  0.8890195901406834  0.1111764617370181  0.3750000000000000
  0.2223429994252392  0.7778381663793080  0.8750000000000000
  0.0556566153214492  0.2778205834705325  0.8750000000000000
  0.3889902089665856  0.2778157756856048  0.8750000000000000
  0.5556712794426675  0.7778387830547108  0.8750000000000000
  0.8890070484726557  0.7778337482626555  0.8750000000000000
  0.7223220546577290  0.2778203682905107  0.8750000000000000
  0.0559439574747150  0.7779563823581318  0.3750000000000000
  0.3888385881920327  0.7776170347867115  0.3750000000000000
  0.2215972124429434  0.2774652728881314  0.3750000000000000
  0.7225056446986722  0.7783036009554397  0.3750000000000000
  0.5555609565392960  0.2757888440329702  0.3750000000000000
  0.8891335592383357  0.2778366836603406  0.3750000000000000
  0.0556536438571581  0.4445090068219067  0.8750000000000000
  0.2223260772036040  0.9444959348123767  0.8750000000000000
  0.5556554697360188  0.9444944015346792  0.8750000000000000
  0.3889902089665861  0.4445077666142974  0.8750000000000000
  0.8889999284996677  0.9444951233338258  0.8750000000000000
  0.0559476497192959  0.9447103752523861  0.3750000000000000
  0.7223149694823189  0.4445092698513395  0.8750000000000000
  0.3888385881920327  0.9445548867387428  0.3750000000000000
  0.2225031099645942  0.4445523306508625  0.3750000000000000
  0.2223445515484367  0.6111970476167419  0.3750000000000000
  0.7222959555815680  0.9446052032136375  0.3750000000000000
  0.8895396686569790  0.4446047006204413  0.3750000000000000
  0.0556499975657114  0.6111423988214664  0.8750000000000000
  0.2223502486048296  0.1111750989420894  0.8750000000000000
  0.7223149694823189  0.6111390329643297  0.8750000000000000
  0.5556712794426675  0.1111658297212989  0.8750000000000000
  0.8890157503842123  0.1111745418587829  0.8750000000000000
  0.1115730173380762  0.0558770269766719  0.3750000000000000
  0.6105925705049468  0.5557895241994387  0.3750000000000000
  0.4443505437453965  0.0560355156367588  0.3750000000000000
  0.9446336295175949  0.5557033699370387  0.3750000000000000
  0.7778303491380126  0.0555818412356619  0.3750000000000000
  0.1112123202564928  0.7222728267949164  0.8750000000000000
  0.4445637097434209  0.7222578929538045  0.8750000000000000
  0.2779843206774682  0.2222624144357823  0.8750000000000000
  0.7778494851103377  0.7222240390249941  0.8750000000000000
  0.6112497692312677  0.2222552623379397  0.8750000000000000
  0.9446134108135792  0.2222355922552338  0.8750000000000000
  0.2778854372487704  0.7222615016919707  0.3750000000000000
  0.1112228230235017  0.2222780781784147  0.3750000000000000
  0.4448017051527112  0.2237150114558476  0.3750000000000000
  0.6108828023818470  0.7226078808761373  0.3750000000000000
  0.9446336295175949  0.7222635929138764  0.3750000000000000
  0.7777395999392024  0.2223052382903988  0.3750000000000000
  0.1111194494387360  0.8888942724993203  0.8750000000000000
  0.4444540656511807  0.8888936994922805  0.8750000000000000
  0.2779843206774682  0.3890552395750232  0.8750000000000000
  0.6112365258997244  0.3890530818950687  0.8750000000000000
  0.7777760347079475  0.8888611759684995  0.8750000000000000
  0.9445929417415894  0.3890584871806668  0.8750000000000000
  0.1115730173380762  0.3890293236947345  0.3750000000000000
  0.2778854372487704  0.8889572688900994  0.3750000000000000
  0.6110802377203286  0.8889661664556443  0.3750000000000000
  0.9447584763088255  0.8890332588599882  0.3750000000000000
  0.7779741779514205  0.3892416402465558  0.3750000000000000
  0.2779649310061121  0.5555498413723508  0.8750000000000000
  0.1112451723106725  0.0556253032677022  0.8750000000000000
  0.6112365258997244  0.5555167773380010  0.8750000000000000
  0.4445637097434209  0.0556391501229562  0.8750000000000000
  0.9445712484341052  0.5555552477372845  0.8750000000000000
  0.1112891073716704  0.5556529123607888  0.3750000000000000
  0.7778862939055623  0.0556098136194484  0.8750000000000000
  0.2779686195682919  0.0558048063282155  0.3750000000000000
  0.4448017051527112  0.5544200270301920  0.3750000000000000
  0.7773992109542327  0.5553662721437632  0.3750000000000000
  0.6110802377203286  0.0554474045980694  0.3750000000000000
  0.4444865453560468  0.5555478964992885  0.8750000000000000
  0.9446261459215314  0.0556624912607282  0.3750000000000000
  0.2779419105411147  0.7223732581928126  0.8750000000000000
  0.1111489489067134  0.2222411411200220  0.8750000000000000
  0.4444865453560468  0.2222719821901011  0.8750000000000000
  0.6112497692312677  0.7223278402266641  0.8750000000000000
  0.9445712484341052  0.7223493340301685  0.8750000000000000
  0.7777760347079475  0.2222481920727133  0.8750000000000000
  0.1113181146441663  0.7223257239887219  0.3750000000000000
  0.4443505437453965  0.7216483614419178  0.3750000000000000
  0.2781797608828860  0.2227016652406795  0.3750000000000000
  0.7779741779514205  0.7220658710381660  0.3750000000000000
  0.6108828023818470  0.2216082548390120  0.3750000000000000
  0.9446261459215314  0.2222969879941439  0.3750000000000000
  0.1112451723106725  0.3889532023763047  0.8750000000000000
  0.2779419105411312  0.8889019856816206  0.8750000000000000
  0.6112603081830942  0.8888680970181349  0.8750000000000000
  0.4446051684191590  0.3889692508762441  0.8750000000000000
  0.9445929417415894  0.8888677878943516  0.8750000000000000
  0.1112891073716704  0.8889695283442586  0.3750000000000000
  0.7778494851103377  0.3889587794187305  0.8750000000000000
  0.4443594115879335  0.8888463724606499  0.3750000000000000
  0.2781797608828860  0.3888114289755348  0.3750000000000000
  0.2779686195682919  0.5554971465734664  0.3750000000000000
  0.6105925705049468  0.3881363796388993  0.3750000000000000
  0.7777395999392024  0.8887676949821272  0.3750000000000000
  0.9447584763088255  0.3890585507821539  0.3750000000000000
  0.1111194494387357  0.5555585102727267  0.8750000000000000
  0.2779649310061121  0.0557484229670853  0.8750000000000000
  0.7777370557899236  0.5555351945616344  0.8750000000000000
  0.6112603081830942  0.0557255444983065  0.8750000000000000
  0.9446134108135792  0.0557111518916603  0.8750000000000000
  0.0554575981039175  0.1111328538452824  0.1249825290584796
  0.5555669498791609  0.6109772152180772  0.1250810874346923
  0.3888839518986464  0.1112999173925969  0.1251006729420601
  0.8885974275647580  0.6109653804490915  0.1251283384978381
  0.7221220152973038  0.1111248181037687  0.1249986550387333
  0.0553612234398684  0.7777377074459304  0.6249935124867589
  0.3888206305087675  0.7777463269284689  0.6250148791574219
  0.2222234947922883  0.2777784140628138  0.6249659159085116
  0.7220767590337082  0.7777204774434527  0.6249587361269362
  0.5555669498791609  0.2779230679944405  0.6249189125652942
  0.8887819285510098  0.2777224695466970  0.6249628351713465
  0.2221977624337482  0.7777655478835274  0.1249828495088852
  0.0554575981039175  0.2776580775919761  0.1249825290584796
  0.3889562939344325  0.2779055410762037  0.1253890434046968
  0.5555959087633662  0.7777283297629852  0.1250099290179285
  0.8887492271863057  0.7777018766402755  0.1250624890613357
  0.7220767590337082  0.2776896149235603  0.1250412638730436
  0.0554247539574914  0.9443569766656347  0.6249923817425710
  0.3888206305087675  0.9444076369136143  0.6250148791574219
  0.2222898067776983  0.4443891897393388  0.6249533189902607
  0.5555836128438166  0.4444584730885726  0.6233940741119006
  0.7221220152973038  0.9443305305268940  0.6250013449612615
  0.8887492271863057  0.4443806838793764  0.6249375109386499
  0.0554247539574914  0.4444011106251908  0.1250076182574308
  0.2221653430056043  0.9444786294657893  0.1250121049690926
  0.5555097940318985  0.9444215636826574  0.1250095115069123
  0.3889562939344325  0.4443840861915446  0.1253890434046968
  0.8887819285510098  0.9443927923376371  0.1250371648286463
  0.7219003013656013  0.4443492638696874  0.1251785974880256
  0.2221653430056043  0.6110200468731072  0.6249878950308808
  0.0554575981039175  0.1111328538452824  0.6250174709415672
  0.5555669498791609  0.6109772152180772  0.6249189125652942
  0.3888839518986464  0.1112999173925969  0.6248993270579225
  0.8885974275647593  0.6109653804490915  0.6248716615021824
  0.0553612234398683  0.6109568493272506  0.1250064875132068
  0.7221220152973038  0.1111248181037687  0.6250013449612615
  0.2222898067776983  0.1112339503716911  0.1250466810097564
  0.3888839518986464  0.6109173678393974  0.1251006729420601
  0.7219003013656012  0.6108843708292693  0.1251785974880256
  0.5555959087633662  0.1112009123336964  0.1250099290179285
  0.3888839518986464  0.6109173678393974  0.6248993270579225
  0.8888735033323756  0.1111034183328643  0.1249873784778790
  0.2221977624337482  0.7777655478835274  0.6250171504911053
  0.0554575981039175  0.2776580775919761  0.6250174709415672
  0.3889562939344325  0.2779055410762037  0.6246109565952687
  0.5555959087633662  0.7777283297629852  0.6249900709820764
  0.8887492271863057  0.7777018766402755  0.6249375109386499
  0.7220767590337083  0.2776896149235603  0.6249587361269362
  0.0553612234398683  0.7777377074459304  0.1250064875132068
  0.3888206305087675  0.7777463269284689  0.1249851208426028
  0.2222234947922883  0.2777784140628138  0.1250340840914739
  0.7220767590337082  0.7777204774434527  0.1250412638730436
  0.5555669498791609  0.2779230679944405  0.1250810874346923
  0.8887819285510098  0.2777224695466970  0.1250371648286463
  0.0554247539574914  0.4444011106251908  0.6249923817425710
  0.2221653430056043  0.9444786294657893  0.6249878950308808
  0.5555097940318985  0.9444215636826574  0.6249904884930885
  0.3889562939344325  0.4443840861915446  0.6246109565952687
  0.8887819285510098  0.9443927923376371  0.6249628351713465
  0.0554247539574914  0.9443569766656347  0.1250076182574308
  0.7219003013656013  0.4443492638696874  0.6248214025119787
  0.3888206305087675  0.9444076369136143  0.1249851208426028
  0.2222898067776983  0.4443891897393388  0.1250466810097564
  0.2221653430056043  0.6110200468731072  0.1250121049690926
  0.5555836128438166  0.4444584730885726  0.1266059258880570
  0.7221220152973038  0.9443305305268940  0.1249986550387333
  0.8887492271863057  0.4443806838793764  0.1250624890613357
  0.0553612234398683  0.6109568493272506  0.6249935124867589
  0.2222898067776983  0.1112339503716911  0.6249533189902607
  0.7219003013656012  0.6108843708292693  0.6248214025119787
  0.5555959087633662  0.1112009123336964  0.6249900709820764
  0.8888735033323756  0.1111034183328643  0.6250126215221568
 
  0.00000000E+00  0.00000000E+00  0.00000000E+00
  0.00000000E+00  0.00000000E+00  0.00000000E+00
  0.00000000E+00  0.00000000E+00  0.00000000E+00
  0.00000000E+00  0.00000000E+00  0.00000000E+00
  0.00000000E+00  0.00000000E+00  0.00000000E+00
  0.00000000E+00  0.00000000E+00  0.00000000E+00
  0.00000000E+00  0.00000000E+00  0.00000000E+00
  0.00000000E+00  0.00000000E+00  0.00000000E+00
  0.00000000E+00  0.00000000E+00  0.00000000E+00
  0.00000000E+00  0.00000000E+00  0.00000000E+00
  0.00000000E+00  0.00000000E+00  0.00000000E+00
  0.00000000E+00  0.00000000E+00  0.00000000E+00
  0.00000000E+00  0.00000000E+00  0.00000000E+00
  0.00000000E+00  0.00000000E+00  0.00000000E+00
  0.00000000E+00  0.00000000E+00  0.00000000E+00
  0.00000000E+00  0.00000000E+00  0.00000000E+00
  0.00000000E+00  0.00000000E+00  0.00000000E+00
  0.00000000E+00  0.00000000E+00  0.00000000E+00
  0.00000000E+00  0.00000000E+00  0.00000000E+00
  0.00000000E+00  0.00000000E+00  0.00000000E+00
  0.00000000E+00  0.00000000E+00  0.00000000E+00
  0.00000000E+00  0.00000000E+00  0.00000000E+00
  0.00000000E+00  0.00000000E+00  0.00000000E+00
  0.00000000E+00  0.00000000E+00  0.00000000E+00
  0.00000000E+00  0.00000000E+00  0.00000000E+00
  0.00000000E+00  0.00000000E+00  0.00000000E+00
  0.00000000E+00  0.00000000E+00  0.00000000E+00
  0.00000000E+00  0.00000000E+00  0.00000000E+00
  0.00000000E+00  0.00000000E+00  0.00000000E+00
  0.00000000E+00  0.00000000E+00  0.00000000E+00
  0.00000000E+00  0.00000000E+00  0.00000000E+00
  0.00000000E+00  0.00000000E+00  0.00000000E+00
  0.00000000E+00  0.00000000E+00  0.00000000E+00
  0.00000000E+00  0.00000000E+00  0.00000000E+00
  0.00000000E+00  0.00000000E+00  0.00000000E+00
  0.00000000E+00  0.00000000E+00  0.00000000E+00
  0.00000000E+00  0.00000000E+00  0.00000000E+00
  0.00000000E+00  0.00000000E+00  0.00000000E+00
  0.00000000E+00  0.00000000E+00  0.00000000E+00
  0.00000000E+00  0.00000000E+00  0.00000000E+00
  0.00000000E+00  0.00000000E+00  0.00000000E+00
  0.00000000E+00  0.00000000E+00  0.00000000E+00
  0.00000000E+00  0.00000000E+00  0.00000000E+00
  0.00000000E+00  0.00000000E+00  0.00000000E+00
  0.00000000E+00  0.00000000E+00  0.00000000E+00
  0.00000000E+00  0.00000000E+00  0.00000000E+00
  0.00000000E+00  0.00000000E+00  0.00000000E+00
  0.00000000E+00  0.00000000E+00  0.00000000E+00
  0.00000000E+00  0.00000000E+00  0.00000000E+00
  0.00000000E+00  0.00000000E+00  0.00000000E+00
  0.00000000E+00  0.00000000E+00  0.00000000E+00
  0.00000000E+00  0.00000000E+00  0.00000000E+00
  0.00000000E+00  0.00000000E+00  0.00000000E+00
  0.00000000E+00  0.00000000E+00  0.00000000E+00
  0.00000000E+00  0.00000000E+00  0.00000000E+00
  0.00000000E+00  0.00000000E+00  0.00000000E+00
  0.00000000E+00  0.00000000E+00  0.00000000E+00
  0.00000000E+00  0.00000000E+00  0.00000000E+00
  0.00000000E+00  0.00000000E+00  0.00000000E+00
  0.00000000E+00  0.00000000E+00  0.00000000E+00
  0.00000000E+00  0.00000000E+00  0.00000000E+00
  0.00000000E+00  0.00000000E+00  0.00000000E+00
  0.00000000E+00  0.00000000E+00  0.00000000E+00
  0.00000000E+00  0.00000000E+00  0.00000000E+00
  0.00000000E+00  0.00000000E+00  0.00000000E+00
  0.00000000E+00  0.00000000E+00  0.00000000E+00
  0.00000000E+00  0.00000000E+00  0.00000000E+00
  0.00000000E+00  0.00000000E+00  0.00000000E+00
  0.00000000E+00  0.00000000E+00  0.00000000E+00
  0.00000000E+00  0.00000000E+00  0.00000000E+00
  0.00000000E+00  0.00000000E+00  0.00000000E+00
  0.00000000E+00  0.00000000E+00  0.00000000E+00
  0.00000000E+00  0.00000000E+00  0.00000000E+00
  0.00000000E+00  0.00000000E+00  0.00000000E+00
  0.00000000E+00  0.00000000E+00  0.00000000E+00
  0.00000000E+00  0.00000000E+00  0.00000000E+00
  0.00000000E+00  0.00000000E+00  0.00000000E+00
  0.00000000E+00  0.00000000E+00  0.00000000E+00
  0.00000000E+00  0.00000000E+00  0.00000000E+00
  0.00000000E+00  0.00000000E+00  0.00000000E+00
  0.00000000E+00  0.00000000E+00  0.00000000E+00
  0.00000000E+00  0.00000000E+00  0.00000000E+00
  0.00000000E+00  0.00000000E+00  0.00000000E+00
  0.00000000E+00  0.00000000E+00  0.00000000E+00
  0.00000000E+00  0.00000000E+00  0.00000000E+00
  0.00000000E+00  0.00000000E+00  0.00000000E+00
  0.00000000E+00  0.00000000E+00  0.00000000E+00
  0.00000000E+00  0.00000000E+00  0.00000000E+00
  0.00000000E+00  0.00000000E+00  0.00000000E+00
  0.00000000E+00  0.00000000E+00  0.00000000E+00
  0.00000000E+00  0.00000000E+00  0.00000000E+00
  0.00000000E+00  0.00000000E+00  0.00000000E+00
  0.00000000E+00  0.00000000E+00  0.00000000E+00
  0.00000000E+00  0.00000000E+00  0.00000000E+00
  0.00000000E+00  0.00000000E+00  0.00000000E+00
  0.00000000E+00  0.00000000E+00  0.00000000E+00
  0.00000000E+00  0.00000000E+00  0.00000000E+00
  0.00000000E+00  0.00000000E+00  0.00000000E+00
  0.00000000E+00  0.00000000E+00  0.00000000E+00
  0.00000000E+00  0.00000000E+00  0.00000000E+00
  0.00000000E+00  0.00000000E+00  0.00000000E+00
  0.00000000E+00  0.00000000E+00  0.00000000E+00
  0.00000000E+00  0.00000000E+00  0.00000000E+00
  0.00000000E+00  0.00000000E+00  0.00000000E+00
  0.00000000E+00  0.00000000E+00  0.00000000E+00
  0.00000000E+00  0.00000000E+00  0.00000000E+00
  0.00000000E+00  0.00000000E+00  0.00000000E+00
  0.00000000E+00  0.00000000E+00  0.00000000E+00
  0.00000000E+00  0.00000000E+00  0.00000000E+00
  0.00000000E+00  0.00000000E+00  0.00000000E+00
  0.00000000E+00  0.00000000E+00  0.00000000E+00
  0.00000000E+00  0.00000000E+00  0.00000000E+00
  0.00000000E+00  0.00000000E+00  0.00000000E+00
  0.00000000E+00  0.00000000E+00  0.00000000E+00
  0.00000000E+00  0.00000000E+00  0.00000000E+00
  0.00000000E+00  0.00000000E+00  0.00000000E+00
  0.00000000E+00  0.00000000E+00  0.00000000E+00
  0.00000000E+00  0.00000000E+00  0.00000000E+00
  0.00000000E+00  0.00000000E+00  0.00000000E+00
  0.00000000E+00  0.00000000E+00  0.00000000E+00
  0.00000000E+00  0.00000000E+00  0.00000000E+00
  0.00000000E+00  0.00000000E+00  0.00000000E+00
  0.00000000E+00  0.00000000E+00  0.00000000E+00
  0.00000000E+00  0.00000000E+00  0.00000000E+00
  0.00000000E+00  0.00000000E+00  0.00000000E+00
  0.00000000E+00  0.00000000E+00  0.00000000E+00
  0.00000000E+00  0.00000000E+00  0.00000000E+00
  0.00000000E+00  0.00000000E+00  0.00000000E+00
  0.00000000E+00  0.00000000E+00  0.00000000E+00
  0.00000000E+00  0.00000000E+00  0.00000000E+00
  0.00000000E+00  0.00000000E+00  0.00000000E+00
  0.00000000E+00  0.00000000E+00  0.00000000E+00
  0.00000000E+00  0.00000000E+00  0.00000000E+00
  0.00000000E+00  0.00000000E+00  0.00000000E+00
  0.00000000E+00  0.00000000E+00  0.00000000E+00
  0.00000000E+00  0.00000000E+00  0.00000000E+00
  0.00000000E+00  0.00000000E+00  0.00000000E+00
  0.00000000E+00  0.00000000E+00  0.00000000E+00
  0.00000000E+00  0.00000000E+00  0.00000000E+00
  0.00000000E+00  0.00000000E+00  0.00000000E+00
  0.00000000E+00  0.00000000E+00  0.00000000E+00
  0.00000000E+00  0.00000000E+00  0.00000000E+00
  0.00000000E+00  0.00000000E+00  0.00000000E+00
  0.00000000E+00  0.00000000E+00  0.00000000E+00
  0.00000000E+00  0.00000000E+00  0.00000000E+00
  0.00000000E+00  0.00000000E+00  0.00000000E+00
  0.00000000E+00  0.00000000E+00  0.00000000E+00
  0.00000000E+00  0.00000000E+00  0.00000000E+00
  0.00000000E+00  0.00000000E+00  0.00000000E+00
  0.00000000E+00  0.00000000E+00  0.00000000E+00
  0.00000000E+00  0.00000000E+00  0.00000000E+00
  0.00000000E+00  0.00000000E+00  0.00000000E+00
  0.00000000E+00  0.00000000E+00  0.00000000E+00
  0.00000000E+00  0.00000000E+00  0.00000000E+00
  0.00000000E+00  0.00000000E+00  0.00000000E+00
  0.00000000E+00  0.00000000E+00  0.00000000E+00
  0.00000000E+00  0.00000000E+00  0.00000000E+00
  0.00000000E+00  0.00000000E+00  0.00000000E+00
  0.00000000E+00  0.00000000E+00  0.00000000E+00
  0.00000000E+00  0.00000000E+00  0.00000000E+00
  0.00000000E+00  0.00000000E+00  0.00000000E+00
  0.00000000E+00  0.00000000E+00  0.00000000E+00
  0.00000000E+00  0.00000000E+00  0.00000000E+00
  0.00000000E+00  0.00000000E+00  0.00000000E+00
  0.00000000E+00  0.00000000E+00  0.00000000E+00
  0.00000000E+00  0.00000000E+00  0.00000000E+00
  0.00000000E+00  0.00000000E+00  0.00000000E+00
  0.00000000E+00  0.00000000E+00  0.00000000E+00
  0.00000000E+00  0.00000000E+00  0.00000000E+00
  0.00000000E+00  0.00000000E+00  0.00000000E+00
  0.00000000E+00  0.00000000E+00  0.00000000E+00
  0.00000000E+00  0.00000000E+00  0.00000000E+00
  0.00000000E+00  0.00000000E+00  0.00000000E+00
  0.00000000E+00  0.00000000E+00  0.00000000E+00
  0.00000000E+00  0.00000000E+00  0.00000000E+00
  0.00000000E+00  0.00000000E+00  0.00000000E+00
  0.00000000E+00  0.00000000E+00  0.00000000E+00
  0.00000000E+00  0.00000000E+00  0.00000000E+00
  0.00000000E+00  0.00000000E+00  0.00000000E+00
  0.00000000E+00  0.00000000E+00  0.00000000E+00
  0.00000000E+00  0.00000000E+00  0.00000000E+00
  0.00000000E+00  0.00000000E+00  0.00000000E+00
  0.00000000E+00  0.00000000E+00  0.00000000E+00
  0.00000000E+00  0.00000000E+00  0.00000000E+00
  0.00000000E+00  0.00000000E+00  0.00000000E+00
  0.00000000E+00  0.00000000E+00  0.00000000E+00
  0.00000000E+00  0.00000000E+00  0.00000000E+00
  0.00000000E+00  0.00000000E+00  0.00000000E+00
  0.00000000E+00  0.00000000E+00  0.00000000E+00
  0.00000000E+00  0.00000000E+00  0.00000000E+00
  0.00000000E+00  0.00000000E+00  0.00000000E+00
  0.00000000E+00  0.00000000E+00  0.00000000E+00
  0.00000000E+00  0.00000000E+00  0.00000000E+00
  0.00000000E+00  0.00000000E+00  0.00000000E+00
  0.00000000E+00  0.00000000E+00  0.00000000E+00
  0.00000000E+00  0.00000000E+00  0.00000000E+00
  0.00000000E+00  0.00000000E+00  0.00000000E+00
  0.00000000E+00  0.00000000E+00  0.00000000E+00
  0.00000000E+00  0.00000000E+00  0.00000000E+00
  0.00000000E+00  0.00000000E+00  0.00000000E+00
  0.00000000E+00  0.00000000E+00  0.00000000E+00
  0.00000000E+00  0.00000000E+00  0.00000000E+00
  0.00000000E+00  0.00000000E+00  0.00000000E+00
  0.00000000E+00  0.00000000E+00  0.00000000E+00
  0.00000000E+00  0.00000000E+00  0.00000000E+00
  0.00000000E+00  0.00000000E+00  0.00000000E+00
  0.00000000E+00  0.00000000E+00  0.00000000E+00
  0.00000000E+00  0.00000000E+00  0.00000000E+00
  0.00000000E+00  0.00000000E+00  0.00000000E+00
  0.00000000E+00  0.00000000E+00  0.00000000E+00
  0.00000000E+00  0.00000000E+00  0.00000000E+00
  0.00000000E+00  0.00000000E+00  0.00000000E+00
  0.00000000E+00  0.00000000E+00  0.00000000E+00
  0.00000000E+00  0.00000000E+00  0.00000000E+00
  0.00000000E+00  0.00000000E+00  0.00000000E+00
  0.00000000E+00  0.00000000E+00  0.00000000E+00
  0.00000000E+00  0.00000000E+00  0.00000000E+00
  0.00000000E+00  0.00000000E+00  0.00000000E+00
  0.00000000E+00  0.00000000E+00  0.00000000E+00
  0.00000000E+00  0.00000000E+00  0.00000000E+00
  0.00000000E+00  0.00000000E+00  0.00000000E+00
  0.00000000E+00  0.00000000E+00  0.00000000E+00
  0.00000000E+00  0.00000000E+00  0.00000000E+00
  0.00000000E+00  0.00000000E+00  0.00000000E+00
  0.00000000E+00  0.00000000E+00  0.00000000E+00
  0.00000000E+00  0.00000000E+00  0.00000000E+00
  0.00000000E+00  0.00000000E+00  0.00000000E+00
  0.00000000E+00  0.00000000E+00  0.00000000E+00
  0.00000000E+00  0.00000000E+00  0.00000000E+00
  0.00000000E+00  0.00000000E+00  0.00000000E+00
  0.00000000E+00  0.00000000E+00  0.00000000E+00
  0.00000000E+00  0.00000000E+00  0.00000000E+00
  0.00000000E+00  0.00000000E+00  0.00000000E+00
  0.00000000E+00  0.00000000E+00  0.00000000E+00
  0.00000000E+00  0.00000000E+00  0.00000000E+00
  0.00000000E+00  0.00000000E+00  0.00000000E+00
  0.00000000E+00  0.00000000E+00  0.00000000E+00
  0.00000000E+00  0.00000000E+00  0.00000000E+00
  0.00000000E+00  0.00000000E+00  0.00000000E+00
  0.00000000E+00  0.00000000E+00  0.00000000E+00
  0.00000000E+00  0.00000000E+00  0.00000000E+00
  0.00000000E+00  0.00000000E+00  0.00000000E+00
  0.00000000E+00  0.00000000E+00  0.00000000E+00
  0.00000000E+00  0.00000000E+00  0.00000000E+00
  0.00000000E+00  0.00000000E+00  0.00000000E+00
  0.00000000E+00  0.00000000E+00  0.00000000E+00
  0.00000000E+00  0.00000000E+00  0.00000000E+00