 N Sb B 
 1.0
 17.527899999999772   0.000000000000000   0.000000000000000
 -8.763949999999658  15.179606674993195   0.000000000000000
  0.000000000000001   0.000000000000002  15.000000000000000
 N Sb B 
  47   1  49
Cartesian
  8.795978582062716  13.772028194309646   1.665432455561955 
 16.271798007881024   0.721735563299719   1.665501705974310 
 15.001024958406701   2.861101822818981   1.665947814715620 
 13.751660075252989   5.024444452709715   1.665874314563670 
 12.536554988106953   7.203480226828526   1.666748543785740 
 11.321860336275421   9.398729046419563   1.667565361221975 
 10.072363768073121  11.596413052269488   1.667032338033045 
 -6.238605301077374  13.749604317840976   1.665477924407490 
  1.245551610365292   0.720695768565642   1.665719602107090 
 -0.027995267572370   2.877341280634550   1.665359476908075 
 -1.302468075717062   5.023154019235067   1.665021323875215 
 -2.554493182188919   7.197680910073090   1.665575042823465 
 -3.768307821139863   9.387574983524530   1.666285606146300 
 -4.985532393429238  11.575418831487681   1.665533824105365 
 -3.745609969268991  13.738095897260417   1.662992569435260 
  3.757644946884224   0.717686160920537   1.664744277971205 
  2.456577015090486   2.845302057008483   1.664872270146570 
  1.190958530258273   5.044965721384674   1.665002062143375 
 -0.125286040092296   7.189298532659796   1.664085426075435 
 -1.335285907538847   9.381574458299923   1.666091155188015 
 -2.512643939206557  11.567284807370585   1.664732903113215 
 -1.250177662957879  13.728372748555820   1.660121913851745 
  6.268434087181078   0.710574585111633   1.662711351466230 
  5.002193199239707   2.863906446129186   1.664894631740145 
  3.651401198665855   4.947876197213164   1.667937736134480 
  2.321822919810757   7.262845907079522   1.667472820001970 
  1.072113413792436   9.382276140179703   1.663703022399945 
 -0.030569871384712  11.562783775509908   1.664049019290780 
  1.258059743388881  13.695815359763387   1.659733314849405 
  8.777074895750019   0.690639770081981   1.660239212485530 
  7.534914870476483   2.851546416936229   1.664403957900810 
  6.294919330288856   4.994192526084221   1.666522660101315 
  2.496636231742722  11.498562712897380   1.664613775510230 
  3.759164346714476  13.688983680797861   1.663873515489600 
 11.270669124249808   0.685219776147653   1.663396637631150 
 10.024570777906995   2.859708942671825   1.664913152577270 
  8.789682389660857   5.036986701446502   1.665615350611515 
  7.702897278531077   7.234679726908783   1.666326179108985 
  6.497644283263152   9.560003092725204   1.667285739009090 
  5.063277487669001  11.579193111344253   1.664710382852670 
  6.279989867168396  13.747566694260641   1.664500760175390 
 13.764344204151241   0.693684913067456   1.665753180278130 
 12.512837340937676   2.856122464225789   1.666140511506510 
 11.277775218569621   5.027258188959412   1.665935420654640 
 10.108644837085942   7.211300587282350   1.666617586655640 
  8.891380232892812   9.428663954359935   1.666005017612895 
  7.603868220251625  11.655650279755525   1.664445404967690 
  4.813507039432439   7.482680572636337   1.666206754631505 
  7.526848875308726  14.466329486977740   1.665407658353640 
 15.010761423736090   1.421645913490472   1.666192001309805 
 13.756096825477059   3.582807724677760   1.666441228840665 
 12.518835250680478   5.757499667110276   1.666324851009975 
 11.324293619001780   7.948984231858249   1.667538056861445 
 10.103249803771821  10.149144866708953   1.667008812998280 
  8.834436589129124  12.345703301218592   1.665885653207580 
 -7.489930806551380  14.473169719243325   1.665847838810850 
 -0.008432670224364   1.441649235964056   1.665808142113140 
 -1.282581783981984   3.588330427531426   1.665559469705970 
 -2.537641075098839   5.754750536088853   1.665619039854090 
 -3.767896371006553   7.939607319801009   1.666482371357805 
 -4.983994945259260  10.129279109162807   1.666803845645565 
 -6.221309757139318  12.310135430660321   1.666394965229985 
 -4.992022572067656  14.462438539420852   1.664600687514705 
  2.491627932248289   1.424576095030241   1.665405893665110 
  1.218939547254061   3.606158971806922   1.665370303356765 
 -0.063554534105121   5.756990089630198   1.664735215066950 
 -1.329418504853861   7.934508939887444   1.665437030484885 
 -2.539073610436715  10.119737783328796   1.666481944440285 
 -3.744023303671604  12.296326355044901   1.664258688293505 
 -2.494083541915490  14.451743408517849   1.662149234449305 
  5.015553323837954   1.432544598370463   1.664548079257530 
  3.700482051646552   3.542728346528265   1.665993687908340 
  2.428093923623083   5.819693636243270   1.667318518771710 
  1.094109115311000   7.931571739437626   1.665321380979240 
 -0.104482654391113  10.119737783328796   1.664927336056665 
 -1.258805736154514  12.286448140515340   1.663212170761470 
  0.013203199636205  14.424675710310130   1.659586481714280 
  7.528703353311821   1.414072302403432   1.662661452169680 
  6.282064390559779   3.563906956934524   1.665373065218100 
  4.946160928179941   5.521959661068165   1.668457998700230 
  3.336175705011788   8.767483842324948   1.670306398984725 
  2.371279433612511  10.022710347719000   1.666197787779135 
  1.255957749725776  12.239119487282881   1.662747449388630 
  2.509561339999777  14.412543533026478   1.662333837674925 
 10.024220833715320   1.412528777017183   1.663027393512525 
  8.778256882067815   3.589235215449584   1.665098896396455 
  7.544316843469872   5.778825198375908   1.666423692293430 
  6.632361602505592   8.149538223578176   1.668034997716815 
  5.184371980591340  10.158980762495636   1.668279929502870 
  3.757058083027866  12.224412673179270   1.664694366461535 
  5.004756694069403  14.426564912425210   1.665077006096400 
 12.514910824273084   1.411263356911587   1.665877312799790 
 11.270286921963802   3.583052478939824   1.666015188967290 
 10.043273340687280   5.762668437331098   1.666269763144980 
  8.909958185147669   7.967656045933924   1.666545268527600 
  7.695420186257866  10.238304376793664   1.665962978744415 
  6.308598570742569  12.312875245508570   1.664391925275300 
