 B Se N 
 1.0
 14.936314146199660   0.000000000000000   0.000000000000000
 -7.468157073099825  12.935227489513863   0.000000000000000
  0.000000000000001   0.000000000000001  13.341276283792837
 B Se N 
 143   1 143
Cartesian
  1.273717628418371   0.736426144213300   5.002978606422314 
  4.888422205356741   7.367415454717822   5.002978606422314 
  6.253048817261222   0.680869644748876   5.002978606422314 
  9.942938380962062   7.178863783240548   5.002978606422314 
 11.236265506319663   0.738270919420273   5.002978606422314 
 -3.734627674067596   9.341791697732925  11.673616748318732 
  1.243920347445174   9.341905426503574  11.673616748318732 
  2.488411754492637   2.873832016582032  11.673616748318732 
  6.222906606476082   9.342092442006637  11.673616748318732 
  7.467760973366233   2.873889086090683  11.673616748318732 
 12.446281747130621   2.874030585043361  11.673616748318732 
 -1.256892379422843   9.346878198199391   5.002978606422314 
  0.045831794318366   2.900955996456802   5.002978606422314 
  5.033003412035824   2.785668235178852   5.002978606422314 
  3.713466881979506   9.440429946876996   5.002978606422314 
  8.699161906042129   9.333147831060803   5.002978606422314 
  9.999552028490525   2.872950756529801   5.002978606422314 
 -4.979449819476218  11.497627545524214  11.673616748318732 
 -0.000578938389852  11.497645740443778  11.673616748318732 
  1.243631718782169   5.029854282679979  11.673616748318732 
  6.222948726615300   5.029919124499077  11.673616748318732 
  4.978145814749592  11.497876318822552  11.673616748318732 
 11.201747793725001   5.029891907490707  11.673616748318732 
 -1.214763127924269   5.046601247856210   5.002978606422314 
 -2.491354988124939  11.485030156515457   5.002978606422314 
  2.499639494003943  11.536279624198219   5.002978606422314 
  7.479074560494245  11.511965407819432   5.002978606422314 
  8.729495727148816   5.010030103781386   5.002978606422314 
 -0.000900626828805   7.185875443483809  11.673616748318732 
  1.243843756644818   0.718123881831926  11.673616748318732 
  4.978126413071771   7.186014617951919  11.673616748318732 
  6.222901901793033   0.718056404424759  11.673616748318732 
  9.957136041794874   7.185916269177918  11.673616748318732 
 -2.498707602248146   7.188822111024630   5.002978606422314 
 11.201693367182653   0.718310685583051  11.673616748318732 
  3.746410760906232   0.695434681137619   5.002978606422314 
  2.439575473164852   7.277617191072038   5.002978606422314 
  7.441600884030567   7.170905271266540   5.002978606422314 
  8.751145275685170   0.708353986515670   5.002978606422314 
  2.488445540632899   7.185949207959692  11.673616748318732 
 13.725638665357010   0.744255365950902   5.002978606422314 
 -1.245363477542403   9.341794083952264  11.673616748318732 
 -0.000917272415797   2.873965410193521  11.673616748318732 
  4.978051643680821   2.873824946647103  11.673616748318732 
  3.733355751863234   9.342068665784430  11.673616748318732 
  8.712368368440032   9.341917123047820  11.673616748318732 
  9.957140198013375   2.874005076409551  11.673616748318732 
 -3.747555564008733   9.334327776995456   5.002978606422314 
  1.226789126615475   9.386606800982797   5.002978606422314 
  2.540287262416425   2.905801203583159   5.002978606422314 
  6.214175516140659   9.366692506552413   5.002978606422314 
  7.542999906599322   2.807484178972514   5.002978606422314 
 12.486134768561453   2.891139091380434   5.002978606422314 
 -1.245550287980088   5.029880847181678  11.673616748318732 
 -2.489993509278484  11.497556535545236  11.673616748318732 
  2.488775798923653  11.497812431527393  11.673616748318732 
  3.733209139080409   5.029864299059028  11.673616748318732 
  7.467502376006005  11.497794698911321  11.673616748318732 
 -4.981193993822577  11.488614670329900   5.002978606422314 
  8.712556991485155   5.029891482087474  11.673616748318732 
  0.006334163338107  11.501637021587289   5.002978606422314 
  1.297255600825314   5.058795196875559   5.002978606422314 
 -0.013916210042280   7.208512047892065   5.002978606422314 
  6.335194355664750   4.861532583408657   5.002978606422314 
  4.998438662188551  11.535133201376702   5.002978606422314 
 11.219806079873138   5.032828358780823   5.002978606422314 
 -2.490030136195555   7.185826172720050  11.673616748318732 
  3.733314678040002   0.718024809049687  11.673616748318732 
  7.467781786396126   7.186020822294992  11.673616748318732 
  8.712399862079767   0.718179346932673  11.673616748318732 
 13.690895753532837   0.718295890142850  11.673616748318732 
 -0.000880608076012   1.436443668801032   1.667046789007290 
  3.731951824391796   7.905225022489248   1.659672812624195 
  4.977872161266799   1.435399527123740   1.664240688781493 
  8.712774589671833   7.904817752405346   1.667030223270670 
  9.957007426050914   1.436528484408374   1.666232028658795 
 -4.979139732002615  10.060329286355850   8.339026952628437 
 -0.001397280649621  10.060567791441164   8.338955792941174 
  1.243137954688264   3.592221030448885   8.344564680042938 
  4.977684801317372  10.061038621892699   8.339680505434316 
  6.222715913270615   3.591095070883106   8.346284400220526 
 11.201681973742932   3.592748093622489   8.338961968070601 
 -2.490271131884828  10.060221282330073   1.666823727337846 
 -1.245829286784288   3.592758033139522   1.667046789007290 
  3.732299576756206   3.591448941246024   1.650516218680362 
  2.487761677528141  10.061079543905421   1.666288903098911 
  7.467814733657030  10.060631320002702   1.667414755063501 
  8.712571744640790   3.592024675530869   1.666276707410312 
 -6.224070484523293  12.215793730794756   8.338552689513731 
 -1.245534120574375  12.215476009759040   8.338955792941174 
 -0.001861765199467   5.748800849883944   8.340638966381055 
  4.976491275920659   5.747673575442343   8.356007480497635 
  3.733188182749768  12.216499630930921   8.339725184185832 
  9.957283977026876   5.748744106606051   8.338542457781127 
 -2.490390308135896   5.748869966079011   1.667404523330802 
 -3.734809255747614  12.215444104605099   1.666867104245502 
  1.243731986726445  12.216048988015137   1.666485698358065 
  2.487050116858571   5.748284273886445   1.650516218680362 
  6.222866414313350  12.216309604069050   1.666995244774028 
  7.467713144804249   5.748425705920677   1.663546310814662 
 -1.246062478910065   7.904808239949157   8.339090108599033 
 -0.000880608076011   1.436443668801033   8.338910423837339 
  3.731951824391797   7.905225022489249   8.346284400220526 
  4.977872161266800   1.435399527123740   8.341716524063134 
  8.712774589671833   7.904817752405346   8.338926989573958 
 -3.734611897713792   7.904743845933934   1.666930260216098 
  9.957007426050914   1.436528484408375   8.339725184185832 
  2.488291003664004   1.435729735604062   1.665318246463559 
  1.242642844669314   7.905006481391402   1.664240688781493 
  6.222753574463661   7.904758935119712   1.663546310814662 
  7.467645622248827   1.435667535852612   1.666288903098911 
  1.242642844669315   7.905006481391402   8.341716524063134 
 12.446213070616350   1.436834471372370   1.666577551011161 
 -2.490271131884827  10.060221282330073   8.339133485506874 
 -1.245829286784287   3.592758033139523   8.338910423837339 
  3.732299576756206   3.591448941246024   8.355440994164267 
  2.487761677528141  10.061079543905421   8.339668309745610 
  7.467814733657031  10.060631320002702   8.338542457781127 
  8.712571744640790   3.592024675530870   8.339680505434316 
 -4.979139732002616  10.060329286355850   1.666930260216098 
 -0.001397280649622  10.060567791441164   1.667001419903454 
  1.243137954688264   3.592221030448884   1.661392532801677 
  4.977684801317371  10.061038621892699   1.666276707410312 
  6.222715913270614   3.591095070883105   1.659672812624195 
 11.201681973742932   3.592748093622488   1.666995244774028 
 -2.490390308135896   5.748869966079011   8.338552689513731 
 -3.734809255747613  12.215444104605099   8.339090108599033 
  1.243731986726445  12.216048988015137   8.339471514486563 
  2.487050116858572   5.748284273886446   8.355440994164267 
  6.222866414313351  12.216309604069050   8.338961968070601 
 -6.224070484523294  12.215793730794756   1.667404523330802 
  7.467713144804250   5.748425705920678   8.342410902029965 
 -1.245534120574376  12.215476009759040   1.667001419903454 
 -0.001861765199468   5.748800849883943   1.665318246463559 
 -1.246062478910066   7.904808239949156   1.666867104245502 
  4.976491275920658   5.747673575442342   1.649949732346899 
  3.733188182749767  12.216499630930921   1.666232028658795 
  9.957283977026876   5.748744106606050   1.667414755063501 
 -3.734611897713791   7.904743845933935   8.339026952628437 
  2.488291003664004   1.435729735604063   8.340638966381055 
  6.222753574463542   7.904758935119713   8.342410902029965 
  7.467645622248828   1.435667535852613   8.339668309745610 
 12.446213070616350   1.436834471372371   8.339379661833373 
  4.338092346252839   5.379093781548188   5.002978606422314 
  1.243959603091751   0.717852246760960   1.670311565299396 
  4.977300220990542   7.185196083684903   1.664892282382474 
  6.222677211356639   0.718094058296453   1.670217634394111 
  9.956380620113221   7.185745434320264   1.670638271203664 
 11.201560069475303   0.718233726115898   1.668688375133513 
 -3.734983720950959   9.341586133968892   8.336695751457427 
  1.243840611436415   9.341692011941820   8.335739578450516 
  2.488408802214293   2.873793010376335   8.342040588495225 
  6.222331415771968   9.341032494550641   8.333707583428778 
  7.467094247793173   2.873909388203367   8.335469442901482 
 12.446095411310614   2.874211745860335   8.336360609180478 
 -1.245550819890821   9.341702543106898   1.669621093503489 
 -0.000816571474156   2.874023549909301   1.669564356098079 
  4.977888205702605   2.873878529428097   1.663890307533089 
  3.733039971222039   9.341481113444463   1.670487769943145 
  8.711842710272670   9.341348326109687   1.670638271203664 
  9.956575755928519   2.874179396358189   1.669815193710178 
 -4.979552584679902  11.497256168324157   8.336346202060987 
 -0.000729690778579  11.497558703511443   8.336350816403305 
  1.243596462277949   5.029871229034796   8.342040588495225 
  6.221826759105583   5.029612888301834   8.341064930462153 
  4.978014559211072  11.497300337663779   8.336142019134556 
 11.201101203248436   5.030135265271835   8.335685677853753 
 -1.245727607628592   5.030116990683065   1.670311565299396 
 -2.490166457150256  11.497440062734968   1.669621093503489 
  2.488616395429552  11.497591823562024   1.669275868197188 
  3.732012186049745   5.029173237904566   1.640233460283707 
  7.467389834788284  11.497113056242386   1.670271534990781 
  8.711351454709417   5.029923326053881   1.672249629415850 
 -0.000937177865276   7.185933713843320   8.336791294617074 
  1.243959603091751   0.717852246760960   8.335645647545325 
  4.977300220990543   7.185196083684904   8.341064930462153 
  6.222677211356640   0.718094058296453   8.335739578450516 
  9.956380620113221   7.185745434320265   8.335318941640963 
 -2.490403140887084   7.185922864043151   1.669611010783641 
 11.201560069475303   0.718233726115898   8.337268837711020 
  3.733346866133404   0.717964019743788   1.669165918227541 
  2.488410225693390   7.185780875128025   1.663890307533089 
  7.466791726872338   7.185449211162402   1.672353625522726 
  8.712129108230437   0.718151603440002   1.669275868197188 
  2.488410225693391   7.185780875128025   8.342066905311539 
 13.690959475492505   0.718043938180602   1.669596603664150 
 -1.245550819890820   9.341702543106898   8.336336119341045 
 -0.000816571474156   2.874023549909302   8.336392856746535 
  4.977888205702606   2.873878529428098   8.342066905311539 
  3.733039971222039   9.341481113444463   8.335469442901482 
  8.711842710272723   9.341348326109596   8.335318941640963 
  9.956575755928519   2.874179396358190   8.336142019134556 
 -3.734983720950959   9.341586133968892   1.669261461387201 
  1.243840611436415   9.341692011941820   1.670217634394111 
  2.488408802214292   2.873793010376334   1.663916624349403 
  6.222331415771967   9.341032494550641   1.672249629415850 
  7.467094247793172   2.873909388203366   1.670487769943145 
 12.446095411310614   2.874211745860334   1.669596603664150 
 -1.245727607628592   5.030116990683066   8.335645647545325 
 -2.490166457150255  11.497440062734968   8.336336119341045 
  2.488616395429552  11.497591823562024   8.336681344647426 
  3.732012186049745   5.029173237904567   8.365723752560919 
  7.467389834788285  11.497113056242386   8.335685677853753 
 -4.979552584679903  11.497256168324157   1.669611010783641 
  8.711351454709417   5.029923326053882   8.333707583428778 
 -0.000729690778580  11.497558703511443   1.669606396441229 
  1.243596462277949   5.029871229034795   1.663916624349403 
 -0.000937177865277   7.185933713843319   1.669165918227541 
  6.221826759105582   5.029612888301833   1.664892282382474 
  4.978014559211071  11.497300337663779   1.669815193710178 
 11.201101203248436   5.030135265271834   1.670271534990781 
 -2.490403140887083   7.185922864043152   8.336346202060987 
  3.733346866133404   0.717964019743788   8.336791294617074 
  7.466791726872339   7.185449211162402   8.333603587321994 
  8.712129108230437   0.718151603440002   8.336681344647426 
 13.690959475492505   0.718043938180602   8.336360609180478 
  0.037196564916825   1.463495870428897   5.002978606422314 
  3.669503624164478   8.011387260928448   5.002978606422314 
  5.005525584539413   1.378415086159021   5.002978606422314 
  8.681697011694780   7.886875104394670   5.002978606422314 
  9.988196078504572   1.441728328889816   5.002978606422314 
 -4.979433635851935  10.060353792876983  11.673616748318732 
 -0.000584279430536  10.060430680809080  11.673616748318732 
  1.243939601991812   3.592683861735444  11.673616748318732 
  4.978156353198695  10.060386068268773  11.673616748318732 
  6.222833386165252   3.592758934179867  11.673616748318732 
 11.201615664436522   3.592768204333170  11.673616748318732 
 -2.502921273834448  10.052917719470191   5.002978606422314 
 -1.203362806449847   3.612207731441694   5.002978606422314 
  3.839469990442812   3.544333514467886   5.002978606422314 
  2.470737645379133  10.111561045761281   5.002978606422314 
  7.461913221997198  10.063312234612438   5.002978606422314 
  8.745383597655872   3.578126792834843   5.002978606422314 
 -6.224155198667508  12.216194855245208  11.673616748318732 
 -1.245246361255356  12.216248644784136  11.673616748318732 
 -0.000770674001706   5.748586612755449  11.673616748318732 
  4.978166459103169   5.748640742903777  11.673616748318732 
  3.733446569338565  12.216266281162712  11.673616748318732 
  9.956928329298734   5.748619404624394  11.673616748318732 
 -2.473461203464278   5.754416115332010   5.002978606422314 
 -3.735193389160692  12.200403068868951   5.002978606422314 
  1.254265457990687  12.222130490485057   5.002978606422314 
  2.499832167201906   5.864654288062127   5.002978606422314 
  6.245422821379116  12.240846114619501   5.002978606422314 
  7.441895513935325   5.724193502732457   5.002978606422314 
 -1.245377947327096   7.904479089847192  11.673616748318732 
 -0.000707303562914   1.436828293958541  11.673616748318732 
  3.733451508722581   7.904494825351803  11.673616748318732 
  4.978138370863391   1.436851797933351  11.673616748318732 
  8.712227299545896   7.904501774303951  11.673616748318732 
 -3.751573096620725   7.897687227424735   5.002978606422314 
  9.956934532518130   1.436868928642284  11.673616748318732 
  2.527474554281656   1.456966309266822   5.002978606422314 
  1.207119582809781   7.957447268929347   5.002978606422314 
  6.188859055478419   7.894516312516001   5.002978606422314 
  7.502851869202636   1.395683540608889   5.002978606422314 
  1.244033652881968   7.904510890259874  11.673616748318732 
 12.481143415711090   1.457001515515808   5.002978606422314 
 -2.490003342556378  10.060375890570880  11.673616748318732 
 -1.245409539370409   3.592715806671715  11.673616748318732 
  3.733387408811237   3.592662104288386  11.673616748318732 
  2.488766800872907  10.060415328498696  11.673616748318732 
  7.467528914708950  10.060385671026152  11.673616748318732 
  8.712242392565852   3.592759328251172  11.673616748318732 
 -4.993731542349821  10.049168766478330   5.002978606422314 
 -0.015224444189856  10.075075485753585   5.002978606422314 
  1.301764212623769   3.626068916249589   5.002978606422314 
  4.982054808351337  10.096403461497012   5.002978606422314 
  6.283431008568071   3.483932223845952   5.002978606422314 
 11.234209418732785   3.600014259884409   5.002978606422314 
 -2.490085281243729   5.748596039252655  11.673616748318732 
 -3.734752042306140  12.216201501396720  11.673616748318732 
  1.244117553540051  12.216271595118842  11.673616748318732 
  2.488644662899712   5.748619782559960  11.673616748318732 
  6.222850676046482  12.216242123169851  11.673616748318732 
 -6.210802826041157  12.227681690877112   5.002978606422314 
  7.467548272960705   5.748647136066284  11.673616748318732 
 -1.239883670519599  12.196247487714706   5.002978606422314 
  0.036121422390603   5.772116513297821   5.002978606422314 
 -1.259280464663338   7.911996088523061   5.002978606422314 
  3.753285706393261  12.240909874024856   5.002978606422314 
  9.956654961354365   5.742292790283040   5.002978606422314 
 -3.734737626368550   7.904477064473512  11.673616748318732 
  2.488651014467175   1.436781766863417  11.673616748318732 
  6.222862902673095   7.904505436842121  11.673616748318732 
  7.467572956505285   1.436870105906675  11.673616748318732 
 12.446305758202811   1.436887984575476  11.673616748318732 
Generated by cif2cell 2.0.0.  :  Failed to get author information, No journal information. Species order: B Se N 
 1.0
 14.936314146199660   0.000000000000000   0.000000000000000
 -7.468157073099825  12.935227489513863   0.000000000000000
  0.000000000000001   0.000000000000001  13.341276283792837
 B Se N 
 143   1 143
Cartesian
  1.273717628418371   0.736426144213300   5.002978606422314 
  4.888422205356741   7.367415454717822   5.002978606422314 
  6.253048817261222   0.680869644748876   5.002978606422314 
  9.942938380962062   7.178863783240548   5.002978606422314 
 11.236265506319663   0.738270919420273   5.002978606422314 
 -3.734627674067596   9.341791697732925  11.673616748318732 
  1.243920347445174   9.341905426503574  11.673616748318732 
  2.488411754492637   2.873832016582032  11.673616748318732 
  6.222906606476082   9.342092442006637  11.673616748318732 
  7.467760973366233   2.873889086090683  11.673616748318732 
 12.446281747130621   2.874030585043361  11.673616748318732 
 -1.256892379422843   9.346878198199391   5.002978606422314 
  0.045831794318366   2.900955996456802   5.002978606422314 
  5.033003412035824   2.785668235178852   5.002978606422314 
  3.713466881979506   9.440429946876996   5.002978606422314 
  8.699161906042129   9.333147831060803   5.002978606422314 
  9.999552028490525   2.872950756529801   5.002978606422314 
 -4.979449819476218  11.497627545524214  11.673616748318732 
 -0.000578938389852  11.497645740443778  11.673616748318732 
  1.243631718782169   5.029854282679979  11.673616748318732 
  6.222948726615300   5.029919124499077  11.673616748318732 
  4.978145814749592  11.497876318822552  11.673616748318732 
 11.201747793725001   5.029891907490707  11.673616748318732 
 -1.214763127924269   5.046601247856210   5.002978606422314 
 -2.491354988124939  11.485030156515457   5.002978606422314 
  2.499639494003943  11.536279624198219   5.002978606422314 
  7.479074560494245  11.511965407819432   5.002978606422314 
  8.729495727148816   5.010030103781386   5.002978606422314 
 -0.000900626828805   7.185875443483809  11.673616748318732 
  1.243843756644818   0.718123881831926  11.673616748318732 
  4.978126413071771   7.186014617951919  11.673616748318732 
  6.222901901793033   0.718056404424759  11.673616748318732 
  9.957136041794874   7.185916269177918  11.673616748318732 
 -2.498707602248146   7.188822111024630   5.002978606422314 
 11.201693367182653   0.718310685583051  11.673616748318732 
  3.746410760906232   0.695434681137619   5.002978606422314 
  2.439575473164852   7.277617191072038   5.002978606422314 
  7.441600884030567   7.170905271266540   5.002978606422314 
  8.751145275685170   0.708353986515670   5.002978606422314 
  2.488445540632899   7.185949207959692  11.673616748318732 
 13.725638665357010   0.744255365950902   5.002978606422314 
 -1.245363477542403   9.341794083952264  11.673616748318732 
 -0.000917272415797   2.873965410193521  11.673616748318732 
  4.978051643680821   2.873824946647103  11.673616748318732 
  3.733355751863234   9.342068665784430  11.673616748318732 
  8.712368368440032   9.341917123047820  11.673616748318732 
  9.957140198013375   2.874005076409551  11.673616748318732 
 -3.747555564008733   9.334327776995456   5.002978606422314 
  1.226789126615475   9.386606800982797   5.002978606422314 
  2.540287262416425   2.905801203583159   5.002978606422314 
  6.214175516140659   9.366692506552413   5.002978606422314 
  7.542999906599322   2.807484178972514   5.002978606422314 
 12.486134768561453   2.891139091380434   5.002978606422314 
 -1.245550287980088   5.029880847181678  11.673616748318732 
 -2.489993509278484  11.497556535545236  11.673616748318732 
  2.488775798923653  11.497812431527393  11.673616748318732 
  3.733209139080409   5.029864299059028  11.673616748318732 
  7.467502376006005  11.497794698911321  11.673616748318732 
 -4.981193993822577  11.488614670329900   5.002978606422314 
  8.712556991485155   5.029891482087474  11.673616748318732 
  0.006334163338107  11.501637021587289   5.002978606422314 
  1.297255600825314   5.058795196875559   5.002978606422314 
 -0.013916210042280   7.208512047892065   5.002978606422314 
  6.335194355664750   4.861532583408657   5.002978606422314 
  4.998438662188551  11.535133201376702   5.002978606422314 
 11.219806079873138   5.032828358780823   5.002978606422314 
 -2.490030136195555   7.185826172720050  11.673616748318732 
  3.733314678040002   0.718024809049687  11.673616748318732 
  7.467781786396126   7.186020822294992  11.673616748318732 
  8.712399862079767   0.718179346932673  11.673616748318732 
 13.690895753532837   0.718295890142850  11.673616748318732 
 -0.000880608076012   1.436443668801032   1.667046789007290 
  3.731951824391796   7.905225022489248   1.659672812624195 
  4.977872161266799   1.435399527123740   1.664240688781493 
  8.712774589671833   7.904817752405346   1.667030223270670 
  9.957007426050914   1.436528484408374   1.666232028658795 
 -4.979139732002615  10.060329286355850   8.339026952628437 
 -0.001397280649621  10.060567791441164   8.338955792941174 
  1.243137954688264   3.592221030448885   8.344564680042938 
  4.977684801317372  10.061038621892699   8.339680505434316 
  6.222715913270615   3.591095070883106   8.346284400220526 
 11.201681973742932   3.592748093622489   8.338961968070601 
 -2.490271131884828  10.060221282330073   1.666823727337846 
 -1.245829286784288   3.592758033139522   1.667046789007290 
  3.732299576756206   3.591448941246024   1.650516218680362 
  2.487761677528141  10.061079543905421   1.666288903098911 
  7.467814733657030  10.060631320002702   1.667414755063501 
  8.712571744640790   3.592024675530869   1.666276707410312 
 -6.224070484523293  12.215793730794756   8.338552689513731 
 -1.245534120574375  12.215476009759040   8.338955792941174 
 -0.001861765199467   5.748800849883944   8.340638966381055 
  4.976491275920659   5.747673575442343   8.356007480497635 
  3.733188182749768  12.216499630930921   8.339725184185832 
  9.957283977026876   5.748744106606051   8.338542457781127 
 -2.490390308135896   5.748869966079011   1.667404523330802 
 -3.734809255747614  12.215444104605099   1.666867104245502 
  1.243731986726445  12.216048988015137   1.666485698358065 
  2.487050116858571   5.748284273886445   1.650516218680362 
  6.222866414313350  12.216309604069050   1.666995244774028 
  7.467713144804249   5.748425705920677   1.663546310814662 
 -1.246062478910065   7.904808239949157   8.339090108599033 
 -0.000880608076011   1.436443668801033   8.338910423837339 
  3.731951824391797   7.905225022489249   8.346284400220526 
  4.977872161266800   1.435399527123740   8.341716524063134 
  8.712774589671833   7.904817752405346   8.338926989573958 
 -3.734611897713792   7.904743845933934   1.666930260216098 
  9.957007426050914   1.436528484408375   8.339725184185832 
  2.488291003664004   1.435729735604062   1.665318246463559 
  1.242642844669314   7.905006481391402   1.664240688781493 
  6.222753574463661   7.904758935119712   1.663546310814662 
  7.467645622248827   1.435667535852612   1.666288903098911 
  1.242642844669315   7.905006481391402   8.341716524063134 
 12.446213070616350   1.436834471372370   1.666577551011161 
 -2.490271131884827  10.060221282330073   8.339133485506874 
 -1.245829286784287   3.592758033139523   8.338910423837339 
  3.732299576756206   3.591448941246024   8.355440994164267 
  2.487761677528141  10.061079543905421   8.339668309745610 
  7.467814733657031  10.060631320002702   8.338542457781127 
  8.712571744640790   3.592024675530870   8.339680505434316 
 -4.979139732002616  10.060329286355850   1.666930260216098 
 -0.001397280649622  10.060567791441164   1.667001419903454 
  1.243137954688264   3.592221030448884   1.661392532801677 
  4.977684801317371  10.061038621892699   1.666276707410312 
  6.222715913270614   3.591095070883105   1.659672812624195 
 11.201681973742932   3.592748093622488   1.666995244774028 
 -2.490390308135896   5.748869966079011   8.338552689513731 
 -3.734809255747613  12.215444104605099   8.339090108599033 
  1.243731986726445  12.216048988015137   8.339471514486563 
  2.487050116858572   5.748284273886446   8.355440994164267 
  6.222866414313351  12.216309604069050   8.338961968070601 
 -6.224070484523294  12.215793730794756   1.667404523330802 
  7.467713144804250   5.748425705920678   8.342410902029965 
 -1.245534120574376  12.215476009759040   1.667001419903454 
 -0.001861765199468   5.748800849883943   1.665318246463559 
 -1.246062478910066   7.904808239949156   1.666867104245502 
  4.976491275920658   5.747673575442342   1.649949732346899 
  3.733188182749767  12.216499630930921   1.666232028658795 
  9.957283977026876   5.748744106606050   1.667414755063501 
 -3.734611897713791   7.904743845933935   8.339026952628437 
  2.488291003664004   1.435729735604063   8.340638966381055 
  6.222753574463542   7.904758935119713   8.342410902029965 
  7.467645622248828   1.435667535852613   8.339668309745610 
 12.446213070616350   1.436834471372371   8.339379661833373 
  4.338092346252839   5.379093781548188   5.002978606422314 
  1.243959603091751   0.717852246760960   1.670311565299396 
  4.977300220990542   7.185196083684903   1.664892282382474 
  6.222677211356639   0.718094058296453   1.670217634394111 
  9.956380620113221   7.185745434320264   1.670638271203664 
 11.201560069475303   0.718233726115898   1.668688375133513 
 -3.734983720950959   9.341586133968892   8.336695751457427 
  1.243840611436415   9.341692011941820   8.335739578450516 
  2.488408802214293   2.873793010376335   8.342040588495225 
  6.222331415771968   9.341032494550641   8.333707583428778 
  7.467094247793173   2.873909388203367   8.335469442901482 
 12.446095411310614   2.874211745860335   8.336360609180478 
 -1.245550819890821   9.341702543106898   1.669621093503489 
 -0.000816571474156   2.874023549909301   1.669564356098079 
  4.977888205702605   2.873878529428097   1.663890307533089 
  3.733039971222039   9.341481113444463   1.670487769943145 
  8.711842710272670   9.341348326109687   1.670638271203664 
  9.956575755928519   2.874179396358189   1.669815193710178 
 -4.979552584679902  11.497256168324157   8.336346202060987 
 -0.000729690778579  11.497558703511443   8.336350816403305 
  1.243596462277949   5.029871229034796   8.342040588495225 
  6.221826759105583   5.029612888301834   8.341064930462153 
  4.978014559211072  11.497300337663779   8.336142019134556 
 11.201101203248436   5.030135265271835   8.335685677853753 
 -1.245727607628592   5.030116990683065   1.670311565299396 
 -2.490166457150256  11.497440062734968   1.669621093503489 
  2.488616395429552  11.497591823562024   1.669275868197188 
  3.732012186049745   5.029173237904566   1.640233460283707 
  7.467389834788284  11.497113056242386   1.670271534990781 
  8.711351454709417   5.029923326053881   1.672249629415850 
 -0.000937177865276   7.185933713843320   8.336791294617074 
  1.243959603091751   0.717852246760960   8.335645647545325 
  4.977300220990543   7.185196083684904   8.341064930462153 
  6.222677211356640   0.718094058296453   8.335739578450516 
  9.956380620113221   7.185745434320265   8.335318941640963 
 -2.490403140887084   7.185922864043151   1.669611010783641 
 11.201560069475303   0.718233726115898   8.337268837711020 
  3.733346866133404   0.717964019743788   1.669165918227541 
  2.488410225693390   7.185780875128025   1.663890307533089 
  7.466791726872338   7.185449211162402   1.672353625522726 
  8.712129108230437   0.718151603440002   1.669275868197188 
  2.488410225693391   7.185780875128025   8.342066905311539 
 13.690959475492505   0.718043938180602   1.669596603664150 
 -1.245550819890820   9.341702543106898   8.336336119341045 
 -0.000816571474156   2.874023549909302   8.336392856746535 
  4.977888205702606   2.873878529428098   8.342066905311539 
  3.733039971222039   9.341481113444463   8.335469442901482 
  8.711842710272723   9.341348326109596   8.335318941640963 
  9.956575755928519   2.874179396358190   8.336142019134556 
 -3.734983720950959   9.341586133968892   1.669261461387201 
  1.243840611436415   9.341692011941820   1.670217634394111 
  2.488408802214292   2.873793010376334   1.663916624349403 