Species order: X N B                    
   2.51242800000000     
     5.9449720136058266    0.0000000000000000    0.0000000000000000
    -2.9724860068029120    5.1484967885702053   -0.0000000000000001
     0.0000000000000000    0.0000000000000009    5.3101128803662583
   Se   N    B 
     1   143   143
Direct
  0.4983634862098733  0.4158484097715974  0.3750000000000000
  0.1110321980888123  0.0554959120234182  0.1251987838171462
  0.6109723607017289  0.5554750459170271  0.1247925795828852
  0.4443712782317400  0.0555146060537851  0.1251917431934994
  0.9443476176841772  0.5555175152617527  0.1252232721717319
  0.7777174737279462  0.0555254035306408  0.1250771170341969
  0.1110303072044027  0.7221818202688582  0.6248799270865080
  0.4443712782317400  0.7221900055112905  0.6248082568065010
  0.2776852394608763  0.2221679528022226  0.6252805512040293
  0.7776603335545911  0.7221390193657657  0.6246559479135197
  0.6110173177511163  0.2221769497701635  0.6247880087025496
  0.9443777225373912  0.2222003245161604  0.6248548063806758
  0.2777046343201541  0.7221908196573964  0.1251470292637421
  0.1110382174939245  0.2221857754136266  0.1251427764918035
  0.4443614859275652  0.2221745641317748  0.1247174762098590
  0.6110173177511163  0.7221737013142812  0.1252119912974499
  0.9443476176841772  0.7221634357557601  0.1252232721717319
  0.7777008363921368  0.2221978236322615  0.1251615781121848
  0.1110308301506934  0.8888329314381660  0.6248537264900280
  0.4443793064841255  0.8888563199087232  0.6248540723596596
  0.2776852394608763  0.3888506199919823  0.6252805512040293
  0.6109723607017289  0.3888306481180301  0.6252074204171146
  0.7777008363921368  0.8888363460931967  0.6248384218878226
  0.9443595665335034  0.3888710321754751  0.6248042166685398
  0.1110321980888123  0.3888696193987157  0.1251987838171462
  0.2777046343201541  0.8888471479960857  0.1251470292637421
  0.6110446017980719  0.8888588803623845  0.1251211527809415
  0.4442599856835181  0.3887966595084270  0.1229442690034302
  0.9443595665335034  0.8888218676913642  0.1251957833314532
  0.7776603335545911  0.3888546475221608  0.1253440520864802
  0.2777032904905999  0.5555320708250944  0.6248870885572414
  0.1110321980888123  0.0554959120234182  0.6248012161828609
  0.6109723607017289  0.5554750459170271  0.6252074204171146
  0.4443712782317400  0.0555146060537851  0.6248082568065010
  0.9443476176841772  0.5555175152617527  0.6247767278282681
  0.1110308301506934  0.5555312320458633  0.1251462735099720
  0.7777174737279462  0.0555254035306408  0.6249228829657958
  0.2777032904905999  0.0555045529988414  0.1251129114427585
  0.4443614859275652  0.5555202551291260  0.1247174762098590
  0.7776558961931486  0.5554946147632422  0.1253518471508103
  0.6110446017980719  0.0555190547690159  0.1251211527809415
  0.4443614859275652  0.5555202551291260  0.6252825237901410
  0.9443777225373912  0.0555107313545663  0.1251451936193244
  0.2777046343201541  0.7221908196573964  0.6248529707362508
  0.1110382174939245  0.2221857754136266  0.6248572235081963
  0.4443614859275652  0.2221745641317748  0.6252825237901410
  0.6110173177511163  0.7221737013142812  0.6247880087025496
  0.9443476176841772  0.7221634357557530  0.6247767278282681
  0.7777008363921368  0.2221978236322615  0.6248384218878226
  0.1110303072044027  0.7221818202688582  0.1251200729134923
  0.4443712782317400  0.7221900055112905  0.1251917431934994
  0.2776852394608763  0.2221679528022226  0.1247194487959706
  0.7776603335545911  0.7221390193657657  0.1253440520864802
  0.6110173177511163  0.2221769497701635  0.1252119912974499
  0.9443777225373912  0.2222003245161604  0.1251451936193244
  0.1110321980888123  0.3888696193987157  0.6248012161828609
  0.2777046343201541  0.8888471479960857  0.6248529707362508
  0.6110446017980719  0.8888588803623845  0.6248788472190582
  0.4442599856835181  0.3887966595084270  0.6270557309965696
  0.9443595665335034  0.8888218676913642  0.6248042166685398
  0.1110308301506934  0.8888329314381660  0.1251462735099720
  0.7776603335545911  0.3888546475221608  0.6246559479135197
  0.4443793064841255  0.8888563199087232  0.1251459276403332
  0.2776852394608763  0.3888506199919823  0.1247194487959706
  0.2777032904905999  0.5555320708250944  0.1251129114427585
  0.6109723607017289  0.3888306481180301  0.1247925795828852
  0.7777008363921368  0.8888363460931967  0.1251615781121848
  0.9443595665335034  0.3888710321754751  0.1251957833314532
  0.1110308301506934  0.5555312320458633  0.6248537264900280
  0.2777032904905999  0.0555045529988414  0.6248870885572414
  0.7776558961931486  0.5554946147632422  0.6246481528491966
  0.6110446017980719  0.0555190547690159  0.6248788472190582
  0.9443777225373912  0.0555107313545663  0.6248548063806758
  0.0590605079025668  0.1131403271890888  0.3750000000000000
  0.5553498764589353  0.6193464527332821  0.3750000000000000
  0.3884059915186262  0.1065628793367921  0.3750000000000000
  0.8861079344430822  0.6097206338882163  0.3750000000000000
  0.7244476924744218  0.1114575163102911  0.3750000000000000
  0.0554965787740433  0.7777485012175130  0.8750000000000000
  0.3888381045986390  0.7777544452901747  0.8750000000000000
  0.2221549817578148  0.2777441575455787  0.8750000000000000
  0.7221676547697461  0.7777509963720679  0.8750000000000000
  0.5554994118852612  0.2777499612660376  0.8750000000000000
  0.8888338330592801  0.2777506779255104  0.8750000000000000
  0.2210139292284982  0.7771736312809137  0.3750000000000000
  0.0590605079025668  0.2792535140468138  0.3750000000000000
  0.3940591930182593  0.2740062760659716  0.3750000000000000
  0.5562717853782365  0.7817072451148126  0.3750000000000000
  0.8885705750214670  0.7779772132164210  0.3750000000000000
  0.7238208810333864  0.2766187757993052  0.3750000000000000
  0.0554934893152389  0.9444128342658409  0.8750000000000000
  0.3888381045986390  0.9444169926417935  0.8750000000000000
  0.2221550324834840  0.4444132596365716  0.8750000000000000
  0.5555015553555553  0.4444174443444455  0.8750000000000000
  0.7221668672524828  0.9444183560796287  0.8750000000000000
  0.8888334270476745  0.4444157947190801  0.8750000000000000
  0.0568314566393704  0.4448639283690152  0.3750000000000000
  0.2215213589166870  0.9431919986532434  0.3750000000000000
  0.5564100825274526  0.9448717079303871  0.3750000000000000
  0.3940591930182593  0.4533862502856165  0.3750000000000000
  0.8912961049463899  0.9463185803684343  0.3750000000000000
  0.7195054997129773  0.4425274706125468  0.3750000000000000
  0.2221615822029429  0.6110815674679922  0.8750000000000000
  0.0554919969291218  0.1110787031092669  0.8750000000000000
  0.5554994118852612  0.6110827839525593  0.8750000000000000
  0.3888312127301834  0.1110805201607897  0.8750000000000000
  0.8888333089946422  0.6110833211639963  0.8750000000000000
  0.0541069732597989  0.6105565003651545  0.3750000000000000
  0.7221668672524828  0.1110818445061827  0.8750000000000000
  0.2255345202413387  0.1126355381417094  0.3750000000000000
  0.3884059915186262  0.6151764455151768  0.3750000000000000
  0.7195054997129773  0.6103113624337733  0.3750000000000000
  0.5562717853782365  0.1078978735967593  0.3750000000000000
  0.3888312127301834  0.6110840259027364  0.8750000000000000
  0.8919431864181506  0.1126382598757503  0.3750000000000000
  0.2221670857704746  0.7777502095518979  0.8750000000000000
  0.0554919969291218  0.2777466271531906  0.8750000000000000
  0.3888249661183747  0.2777424755150870  0.8750000000000000
  0.5555018606147971  0.7777532584296893  0.8750000000000000
  0.8888334270476745  0.7777509656619302  0.8750000000000000
  0.7221676547697461  0.2777499917310071  0.8750000000000000
  0.0541069732597989  0.7768838062279804  0.3750000000000000
  0.3884240143068947  0.7788866097578183  0.3750000000000000
  0.2273168630685547  0.2803250982009489  0.3750000000000000
  0.7238208810333864  0.7805354385674170  0.3750000000000000
  0.5553498764589424  0.2693367570589890  0.3750000000000000
  0.8912961049463970  0.2783108579112981  0.3750000000000000
  0.0554934893152389  0.4444139883827196  0.8750000000000000
  0.2221615822029429  0.9444133480682864  0.8750000000000000
  0.5555042004513913  0.9444187668923596  0.8750000000000000
  0.3888249661183747  0.4444158239366235  0.8750000000000000
  0.8888338330592801  0.9444164884671051  0.8750000000000000
  0.0568314566393704  0.9453008616036837  0.3750000000000000
  0.7221682095638835  0.4444179385887503  0.8750000000000000
  0.3884240143068947  0.9428707378824052  0.3750000000000000
  0.2255345202413316  0.4462323154329578  0.3750000000000000
  0.2215213589166870  0.6116626935967725  0.3750000000000000
  0.7244476924744218  0.9463235094974662  0.3750000000000000
  0.8885705750214670  0.4439266951383818  0.3750000000000000
  0.0554965787740433  0.6110814108898660  0.8750000000000000
  0.2221550324834840  0.1110751061802479  0.8750000000000000
  0.7221682095638835  0.6110836043084691  0.8750000000000000
  0.5555018606147971  0.1110819355184509  0.8750000000000000
  0.8888333020412981  0.1110833176873240  0.8750000000000000
  0.1137424832116604  0.0569318278175084  0.3750000000000000
  0.6120654273796130  0.5695621094171188  0.3750000000000000
  0.4449658078215400  0.0526368512112237  0.3750000000000000
  0.9431816431282027  0.5549855067535687  0.3750000000000000
  0.7808155550443612  0.0570744441888450  0.3750000000000000
  0.1110620907604539  0.7221977120468877  0.8750000000000000
  0.4443848659858174  0.7222065042208753  0.8750000000000000
  0.2776869448696839  0.2221709683043264  0.8750000000000000
  0.7777398144520559  0.7222209620650233  0.8750000000000000
  0.6110611708822452  0.2221753802490480  0.8750000000000000
  0.9443831952780386  0.2221863192876378  0.8750000000000000
  0.2771453669139272  0.7225909405749982  0.3750000000000000
  0.1152024189460265  0.2242678761396740  0.3750000000000000
  0.4446418073751550  0.2153551792913646  0.3750000000000000
  0.6135316627232520  0.7298232639920732  0.3750000000000000
  0.9431816431282027  0.7215294697079628  0.3750000000000000
  0.7805306454476126  0.2221028396183062  0.3750000000000000
  0.1110520656393824  0.8888616419653176  0.8750000000000000
  0.4443927638326428  0.8888630485829894  0.8750000000000000
  0.2776869448696839  0.3888493098986862  0.8750000000000000
  0.6110593147553138  0.3888543227072470  0.8750000000000000
  0.7777318881235784  0.8888808741974947  0.8750000000000000
  0.9443934495779525  0.3888522186075403  0.8750000000000000
  0.1137424832116604  0.3901439887274735  0.3750000000000000
  0.2771453669139272  0.8878877596722574  0.3750000000000000
  0.6132780517884461  0.8918497671224008  0.3750000000000000
  0.9457159744590967  0.8899700772291618  0.3750000000000000
  0.7781061540656053  0.3873167370147018  0.3750000000000000
  0.2777034852259745  0.5555275660446747  0.8750000000000000
  0.1110349418804869  0.0555169116595812  0.8750000000000000
  0.6110593147553138  0.5555383253813950  0.8750000000000000
  0.4443848659858174  0.0555116950982777  0.8750000000000000
  0.9444047973353510  0.5555307222082712  0.8750000000000000
  0.1105869066853082  0.5557553678010185  0.3750000000000000
  0.7777293729337803  0.0555313531335543  0.8750000000000000
  0.2777070782432774  0.0537628489101856  0.3750000000000000
  0.4446418073751550  0.5626199614171261  0.3750000000000000
  0.7754071626617728  0.5543702479975505  0.3750000000000000
  0.6132780517884461  0.0547616179993666  0.3750000000000000
  0.4443703570549319  0.5555332686483548  0.8750000000000000
  0.9477127062727334  0.0575370913696139  0.3750000000000000
  0.2777207154950533  0.7221978965213658  0.8750000000000000
  0.1110292281327676  0.2221812807330482  0.8750000000000000
  0.4443703570549319  0.2221704217399198  0.8750000000000000
  0.6110611708822452  0.7222191239665258  0.8750000000000000
  0.9444047973353510  0.7222074084604223  0.8750000000000000
  0.7777318881235784  0.2221843472594049  0.8750000000000000
  0.1099080452295815  0.7216206892814583  0.3750000000000000
  0.4449658078215400  0.7256622899436589  0.3750000000000000
  0.2823957991396353  0.2246424506982032  0.3750000000000000
  0.7781061540656053  0.7241227503842251  0.3750000000000000
  0.6135316627232520  0.2170417320645069  0.3750000000000000
  0.9477127062727334  0.2235089482364484  0.3750000000000000
  0.1110349418804869  0.3888513635542343  0.8750000000000000
  0.2777207154950533  0.8888561523070162  0.8750000000000000
  0.6110638014185064  0.8888759351815240  0.8750000000000000
  0.4443668351618161  0.3888500842475759  0.8750000000000000
  0.9443934495779525  0.8888745643037337  0.8750000000000000
  0.1105869066853082  0.8881648722176179  0.3750000000000000
  0.7777398144520559  0.3888521857203544  0.8750000000000000
  0.4450098818766501  0.8891716076049888  0.3750000000000000
  0.2823957991396282  0.3910866817747536  0.3750000000000000
  0.2777070782432774  0.5572775626664276  0.3750000000000000
  0.6120654273796130  0.3758366512958302  0.3750000000000000
  0.7805306454476126  0.8917611391626342  0.3750000000000000
  0.9457159744590967  0.3890792305632634  0.3750000000000000
  0.1110520656393824  0.5555237570073930  0.8750000000000000
  0.2777034852259745  0.0555092525146356  0.8750000000000000
  0.7777442767234555  0.5555388050283957  0.8750000000000000
  0.6110638014185064  0.0555211995703111  0.8750000000000000
  0.9443831952780386  0.0555302093237363  0.8750000000000000
  0.0554655266803405  0.1110489684055042  0.1249540713756481
  0.5554272317739989  0.6111392342266679  0.1244013524133660
  0.3887572534837023  0.1109682476235816  0.1247437391580919
  0.8888821644325159  0.6111077488829253  0.1249528296851029
  0.7221585879650967  0.1110555253529880  0.1248930007305941
  0.0555153086293481  0.7777466066608734  0.6250546630803830
  0.3887889733101859  0.7777650450753124  0.6250493292812958
  0.2220834203899322  0.2777083768616339  0.6254697453631204
  0.7221613078310060  0.7778014441608260  0.6251036503580596
  0.5554272317739989  0.2776213308806733  0.6255986475866413
  0.8888374951663865  0.2777491232013514  0.6250497921402682
  0.2221431807806360  0.7777382570569820  0.1249373517106995
  0.0554655266803405  0.2777498916081720  0.1249540713756481
  0.3887052409943179  0.2776486879846131  0.1237150167323525
  0.5554602413508468  0.7778046077706470  0.1248972637740171
  0.8888620582378491  0.7777699563582088  0.1249816523992612
  0.7221613078310060  0.2776931970035155  0.1248963496419402
  0.0554836558875410  0.9443818240303599  0.6250191145238123
  0.3887889733101859  0.9443572615682018  0.6250493292812958
  0.2220902640724505  0.4444298219373637  0.6251754921313923
  0.5553520152779385  0.4443426743056336  0.6263274444476225
  0.7221585879650967  0.9444363959454448  0.6251069992694062
  0.8888620582378491  0.4444254352129755  0.6250183476007389
  0.0554836558875410  0.4444351651905170  0.1249808854761807
  0.2221284751942021  0.9443547950360931  0.1249406030418873
  0.5554697817132859  0.9444015575233035  0.1249120146310539
  0.3887052409943179  0.4443898863430408  0.1237150167323525
  0.8888374951663865  0.9444217052983713  0.1249502078597320
  0.7221706886955496  0.4444008202082822  0.1246916918162890
  0.2221284751942021  0.6111070134914375  0.6250593969581056
  0.0554655266803405  0.1110489684055042  0.6250459286243519
  0.5554272317739989  0.6111392342266679  0.6255986475866413
  0.3887572534837023  0.1109682476235816  0.6252562608419084
  0.8888821644325159  0.6111077488829253  0.6250471703148970
  0.0555153086293481  0.6111020353018174  0.1249453369196096
  0.7221585879650967  0.1110555253529880  0.6251069992694062
  0.2220902640724505  0.1109937754684225  0.1248245078686074
  0.3887572534837023  0.6111223391934707  0.1247437391580919
  0.7221706886955496  0.6111032018205961  0.1246916918162890
  0.5554602413508468  0.1109889669135284  0.1248972637740171
  0.3887572534837023  0.6111223391934707  0.6252562608419084
  0.8888250280154930  0.1110791806744146  0.1249188994785861
  0.2221431807806360  0.7777382570569820  0.6250626482893074
  0.0554655266803405  0.2777498916081720  0.6250459286243519
  0.3887052409943179  0.2776486879846131  0.6262849832676478
  0.5554602413508468  0.7778046077706470  0.6251027362259755
  0.8888620582378491  0.7777699563582088  0.6250183476007389
  0.7221613078310060  0.2776931970035155  0.6251036503580596
  0.0555153086293481  0.7777466066608734  0.1249453369196096
  0.3887889733101859  0.7777650450753124  0.1249506707187043
  0.2220834203899322  0.2777083768616339  0.1245302546368794
  0.7221613078310060  0.7778014441608260  0.1248963496419402
  0.5554272317739989  0.2776213308806733  0.1244013524133660
  0.8888374951663865  0.2777491232013514  0.1249502078597320
  0.0554836558875410  0.4444351651905170  0.6250191145238123
  0.2221284751942021  0.9443547950360931  0.6250593969581056
  0.5554697817132859  0.9444015575233035  0.6250879853689463
  0.3887052409943179  0.4443898863430408  0.6262849832676478
  0.8888374951663865  0.9444217052983713  0.6250497921402682
  0.0554836558875410  0.9443818240303599  0.1249808854761807
  0.7221706886955496  0.4444008202082822  0.6253083081837112
  0.3887889733101859  0.9443572615682018  0.1249506707187043
  0.2220902640724505  0.4444298219373637  0.1248245078686074
  0.2221284751942021  0.6111070134914375  0.1249406030418873
  0.5553520152779385  0.4443426743056336  0.1236725555523706
  0.7221585879650967  0.9444363959454448  0.1248930007305941
  0.8888620582378491  0.4444254352129755  0.1249816523992612
  0.0555153086293481  0.6111020353018174  0.6250546630803830
  0.2220902640724505  0.1109937754684225  0.6251754921313923
  0.7221706886955425  0.6111032018205961  0.6253083081837112
  0.5554602413508468  0.1109889669135284  0.6251027362259755
  0.8888250280154930  0.1110791806744146  0.6250811005214069
 
  0.00000000E+00  0.00000000E+00  0.00000000E+00
  0.00000000E+00  0.00000000E+00  0.00000000E+00
  0.00000000E+00  0.00000000E+00  0.00000000E+00
  0.00000000E+00  0.00000000E+00  0.00000000E+00
  0.00000000E+00  0.00000000E+00  0.00000000E+00
  0.00000000E+00  0.00000000E+00  0.00000000E+00
  0.00000000E+00  0.00000000E+00  0.00000000E+00
  0.00000000E+00  0.00000000E+00  0.00000000E+00
  0.00000000E+00  0.00000000E+00  0.00000000E+00
  0.00000000E+00  0.00000000E+00  0.00000000E+00
  0.00000000E+00  0.00000000E+00  0.00000000E+00
  0.00000000E+00  0.00000000E+00  0.00000000E+00
  0.00000000E+00  0.00000000E+00  0.00000000E+00
  0.00000000E+00  0.00000000E+00  0.00000000E+00
  0.00000000E+00  0.00000000E+00  0.00000000E+00
  0.00000000E+00  0.00000000E+00  0.00000000E+00
  0.00000000E+00  0.00000000E+00  0.00000000E+00
  0.00000000E+00  0.00000000E+00  0.00000000E+00
  0.00000000E+00  0.00000000E+00  0.00000000E+00
  0.00000000E+00  0.00000000E+00  0.00000000E+00
  0.00000000E+00  0.00000000E+00  0.00000000E+00
  0.00000000E+00  0.00000000E+00  0.00000000E+00
  0.00000000E+00  0.00000000E+00  0.00000000E+00
  0.00000000E+00  0.00000000E+00  0.00000000E+00
  0.00000000E+00  0.00000000E+00  0.00000000E+00
  0.00000000E+00  0.00000000E+00  0.00000000E+00
  0.00000000E+00  0.00000000E+00  0.00000000E+00
  0.00000000E+00  0.00000000E+00  0.00000000E+00
  0.00000000E+00  0.00000000E+00  0.00000000E+00
  0.00000000E+00  0.00000000E+00  0.00000000E+00
  0.00000000E+00  0.00000000E+00  0.00000000E+00
  0.00000000E+00  0.00000000E+00  0.00000000E+00
  0.00000000E+00  0.00000000E+00  0.00000000E+00
  0.00000000E+00  0.00000000E+00  0.00000000E+00
  0.00000000E+00  0.00000000E+00  0.00000000E+00
  0.00000000E+00  0.00000000E+00  0.00000000E+00
  0.00000000E+00  0.00000000E+00  0.00000000E+00
  0.00000000E+00  0.00000000E+00  0.00000000E+00
  0.00000000E+00  0.00000000E+00  0.00000000E+00
  0.00000000E+00  0.00000000E+00  0.00000000E+00
  0.00000000E+00  0.00000000E+00  0.00000000E+00
  0.00000000E+00  0.00000000E+00  0.00000000E+00
  0.00000000E+00  0.00000000E+00  0.00000000E+00
  0.00000000E+00  0.00000000E+00  0.00000000E+00
  0.00000000E+00  0.00000000E+00  0.00000000E+00
  0.00000000E+00  0.00000000E+00  0.00000000E+00
  0.00000000E+00  0.00000000E+00  0.00000000E+00
  0.00000000E+00  0.00000000E+00  0.00000000E+00
  0.00000000E+00  0.00000000E+00  0.00000000E+00
  0.00000000E+00  0.00000000E+00  0.00000000E+00
  0.00000000E+00  0.00000000E+00  0.00000000E+00
  0.00000000E+00  0.00000000E+00  0.00000000E+00
  0.00000000E+00  0.00000000E+00  0.00000000E+00
  0.00000000E+00  0.00000000E+00  0.00000000E+00
  0.00000000E+00  0.00000000E+00  0.00000000E+00
  0.00000000E+00  0.00000000E+00  0.00000000E+00
  0.00000000E+00  0.00000000E+00  0.00000000E+00
  0.00000000E+00  0.00000000E+00  0.00000000E+00
  0.00000000E+00  0.00000000E+00  0.00000000E+00
  0.00000000E+00  0.00000000E+00  0.00000000E+00
  0.00000000E+00  0.00000000E+00  0.00000000E+00
  0.00000000E+00  0.00000000E+00  0.00000000E+00
  0.00000000E+00  0.00000000E+00  0.00000000E+00
  0.00000000E+00  0.00000000E+00  0.00000000E+00
  0.00000000E+00  0.00000000E+00  0.00000000E+00
  0.00000000E+00  0.00000000E+00  0.00000000E+00
  0.00000000E+00  0.00000000E+00  0.00000000E+00
  0.00000000E+00  0.00000000E+00  0.00000000E+00
  0.00000000E+00  0.00000000E+00  0.00000000E+00
  0.00000000E+00  0.00000000E+00  0.00000000E+00
  0.00000000E+00  0.00000000E+00  0.00000000E+00
  0.00000000E+00  0.00000000E+00  0.00000000E+00
  0.00000000E+00  0.00000000E+00  0.00000000E+00
  0.00000000E+00  0.00000000E+00  0.00000000E+00
  0.00000000E+00  0.00000000E+00  0.00000000E+00
  0.00000000E+00  0.00000000E+00  0.00000000E+00
  0.00000000E+00  0.00000000E+00  0.00000000E+00
  0.00000000E+00  0.00000000E+00  0.00000000E+00
  0.00000000E+00  0.00000000E+00  0.00000000E+00
  0.00000000E+00  0.00000000E+00  0.00000000E+00
  0.00000000E+00  0.00000000E+00  0.00000000E+00
  0.00000000E+00  0.00000000E+00  0.00000000E+00
  0.00000000E+00  0.00000000E+00  0.00000000E+00
  0.00000000E+00  0.00000000E+00  0.00000000E+00
  0.00000000E+00  0.00000000E+00  0.00000000E+00
  0.00000000E+00  0.00000000E+00  0.00000000E+00
  0.00000000E+00  0.00000000E+00  0.00000000E+00
  0.00000000E+00  0.00000000E+00  0.00000000E+00
  0.00000000E+00  0.00000000E+00  0.00000000E+00
  0.00000000E+00  0.00000000E+00  0.00000000E+00
  0.00000000E+00  0.00000000E+00  0.00000000E+00
  0.00000000E+00  0.00000000E+00  0.00000000E+00
  0.00000000E+00  0.00000000E+00  0.00000000E+00
  0.00000000E+00  0.00000000E+00  0.00000000E+00
  0.00000000E+00  0.00000000E+00  0.00000000E+00
  0.00000000E+00  0.00000000E+00  0.00000000E+00
  0.00000000E+00  0.00000000E+00  0.00000000E+00
  0.00000000E+00  0.00000000E+00  0.00000000E+00
  0.00000000E+00  0.00000000E+00  0.00000000E+00
  0.00000000E+00  0.00000000E+00  0.00000000E+00
  0.00000000E+00  0.00000000E+00  0.00000000E+00
  0.00000000E+00  0.00000000E+00  0.00000000E+00
  0.00000000E+00  0.00000000E+00  0.00000000E+00
  0.00000000E+00  0.00000000E+00  0.00000000E+00
  0.00000000E+00  0.00000000E+00  0.00000000E+00
  0.00000000E+00  0.00000000E+00  0.00000000E+00
  0.00000000E+00  0.00000000E+00  0.00000000E+00
  0.00000000E+00  0.00000000E+00  0.00000000E+00
  0.00000000E+00  0.00000000E+00  0.00000000E+00
  0.00000000E+00  0.00000000E+00  0.00000000E+00
  0.00000000E+00  0.00000000E+00  0.00000000E+00
  0.00000000E+00  0.00000000E+00  0.00000000E+00
  0.00000000E+00  0.00000000E+00  0.00000000E+00
  0.00000000E+00  0.00000000E+00  0.00000000E+00
  0.00000000E+00  0.00000000E+00  0.00000000E+00
  0.00000000E+00  0.00000000E+00  0.00000000E+00
  0.00000000E+00  0.00000000E+00  0.00000000E+00
  0.00000000E+00  0.00000000E+00  0.00000000E+00
  0.00000000E+00  0.00000000E+00  0.00000000E+00
  0.00000000E+00  0.00000000E+00  0.00000000E+00
  0.00000000E+00  0.00000000E+00  0.00000000E+00
  0.00000000E+00  0.00000000E+00  0.00000000E+00
  0.00000000E+00  0.00000000E+00  0.00000000E+00
  0.00000000E+00  0.00000000E+00  0.00000000E+00
  0.00000000E+00  0.00000000E+00  0.00000000E+00
  0.00000000E+00  0.00000000E+00  0.00000000E+00
  0.00000000E+00  0.00000000E+00  0.00000000E+00
  0.00000000E+00  0.00000000E+00  0.00000000E+00
  0.00000000E+00  0.00000000E+00  0.00000000E+00
  0.00000000E+00  0.00000000E+00  0.00000000E+00
  0.00000000E+00  0.00000000E+00  0.00000000E+00
  0.00000000E+00  0.00000000E+00  0.00000000E+00
  0.00000000E+00  0.00000000E+00  0.00000000E+00
  0.00000000E+00  0.00000000E+00  0.00000000E+00
  0.00000000E+00  0.00000000E+00  0.00000000E+00
  0.00000000E+00  0.00000000E+00  0.00000000E+00
  0.00000000E+00  0.00000000E+00  0.00000000E+00
  0.00000000E+00  0.00000000E+00  0.00000000E+00
  0.00000000E+00  0.00000000E+00  0.00000000E+00
  0.00000000E+00  0.00000000E+00  0.00000000E+00
  0.00000000E+00  0.00000000E+00  0.00000000E+00
  0.00000000E+00  0.00000000E+00  0.00000000E+00
  0.00000000E+00  0.00000000E+00  0.00000000E+00
  0.00000000E+00  0.00000000E+00  0.00000000E+00
  0.00000000E+00  0.00000000E+00  0.00000000E+00
  0.00000000E+00  0.00000000E+00  0.00000000E+00
  0.00000000E+00  0.00000000E+00  0.00000000E+00
  0.00000000E+00  0.00000000E+00  0.00000000E+00
  0.00000000E+00  0.00000000E+00  0.00000000E+00
  0.00000000E+00  0.00000000E+00  0.00000000E+00
  0.00000000E+00  0.00000000E+00  0.00000000E+00
  0.00000000E+00  0.00000000E+00  0.00000000E+00
  0.00000000E+00  0.00000000E+00  0.00000000E+00
  0.00000000E+00  0.00000000E+00  0.00000000E+00
  0.00000000E+00  0.00000000E+00  0.00000000E+00
  0.00000000E+00  0.00000000E+00  0.00000000E+00
  0.00000000E+00  0.00000000E+00  0.00000000E+00
  0.00000000E+00  0.00000000E+00  0.00000000E+00
  0.00000000E+00  0.00000000E+00  0.00000000E+00
  0.00000000E+00  0.00000000E+00  0.00000000E+00
  0.00000000E+00  0.00000000E+00  0.00000000E+00
  0.00000000E+00  0.00000000E+00  0.00000000E+00
  0.00000000E+00  0.00000000E+00  0.00000000E+00
  0.00000000E+00  0.00000000E+00  0.00000000E+00
  0.00000000E+00  0.00000000E+00  0.00000000E+00
  0.00000000E+00  0.00000000E+00  0.00000000E+00
  0.00000000E+00  0.00000000E+00  0.00000000E+00
  0.00000000E+00  0.00000000E+00  0.00000000E+00
  0.00000000E+00  0.00000000E+00  0.00000000E+00
  0.00000000E+00  0.00000000E+00  0.00000000E+00
  0.00000000E+00  0.00000000E+00  0.00000000E+00
  0.00000000E+00  0.00000000E+00  0.00000000E+00
  0.00000000E+00  0.00000000E+00  0.00000000E+00
  0.00000000E+00  0.00000000E+00  0.00000000E+00
  0.00000000E+00  0.00000000E+00  0.00000000E+00
  0.00000000E+00  0.00000000E+00  0.00000000E+00
  0.00000000E+00  0.00000000E+00  0.00000000E+00
  0.00000000E+00  0.00000000E+00  0.00000000E+00
  0.00000000E+00  0.00000000E+00  0.00000000E+00
  0.00000000E+00  0.00000000E+00  0.00000000E+00
  0.00000000E+00  0.00000000E+00  0.00000000E+00
  0.00000000E+00  0.00000000E+00  0.00000000E+00
  0.00000000E+00  0.00000000E+00  0.00000000E+00
  0.00000000E+00  0.00000000E+00  0.00000000E+00
  0.00000000E+00  0.00000000E+00  0.00000000E+00
  0.00000000E+00  0.00000000E+00  0.00000000E+00
  0.00000000E+00  0.00000000E+00  0.00000000E+00
  0.00000000E+00  0.00000000E+00  0.00000000E+00
  0.00000000E+00  0.00000000E+00  0.00000000E+00
  0.00000000E+00  0.00000000E+00  0.00000000E+00
  0.00000000E+00  0.00000000E+00  0.00000000E+00
  0.00000000E+00  0.00000000E+00  0.00000000E+00
  0.00000000E+00  0.00000000E+00  0.00000000E+00
  0.00000000E+00  0.00000000E+00  0.00000000E+00
  0.00000000E+00  0.00000000E+00  0.00000000E+00
  0.00000000E+00  0.00000000E+00  0.00000000E+00
  0.00000000E+00  0.00000000E+00  0.00000000E+00
  0.00000000E+00  0.00000000E+00  0.00000000E+00
  0.00000000E+00  0.00000000E+00  0.00000000E+00
  0.00000000E+00  0.00000000E+00  0.00000000E+00
  0.00000000E+00  0.00000000E+00  0.00000000E+00
  0.00000000E+00  0.00000000E+00  0.00000000E+00
  0.00000000E+00  0.00000000E+00  0.00000000E+00
  0.00000000E+00  0.00000000E+00  0.00000000E+00
  0.00000000E+00  0.00000000E+00  0.00000000E+00
  0.00000000E+00  0.00000000E+00  0.00000000E+00
  0.00000000E+00  0.00000000E+00  0.00000000E+00
  0.00000000E+00  0.00000000E+00  0.00000000E+00
  0.00000000E+00  0.00000000E+00  0.00000000E+00
  0.00000000E+00  0.00000000E+00  0.00000000E+00
  0.00000000E+00  0.00000000E+00  0.00000000E+00
  0.00000000E+00  0.00000000E+00  0.00000000E+00
  0.00000000E+00  0.00000000E+00  0.00000000E+00
  0.00000000E+00  0.00000000E+00  0.00000000E+00
  0.00000000E+00  0.00000000E+00  0.00000000E+00
  0.00000000E+00  0.00000000E+00  0.00000000E+00
  0.00000000E+00  0.00000000E+00  0.00000000E+00
  0.00000000E+00  0.00000000E+00  0.00000000E+00
  0.00000000E+00  0.00000000E+00  0.00000000E+00
  0.00000000E+00  0.00000000E+00  0.00000000E+00
  0.00000000E+00  0.00000000E+00  0.00000000E+00
  0.00000000E+00  0.00000000E+00  0.00000000E+00
  0.00000000E+00  0.00000000E+00  0.00000000E+00
  0.00000000E+00  0.00000000E+00  0.00000000E+00
  0.00000000E+00  0.00000000E+00  0.00000000E+00
  0.00000000E+00  0.00000000E+00  0.00000000E+00
  0.00000000E+00  0.00000000E+00  0.00000000E+00
  0.00000000E+00  0.00000000E+00  0.00000000E+00
  0.00000000E+00  0.00000000E+00  0.00000000E+00
  0.00000000E+00  0.00000000E+00  0.00000000E+00
  0.00000000E+00  0.00000000E+00  0.00000000E+00
  0.00000000E+00  0.00000000E+00  0.00000000E+00
  0.00000000E+00  0.00000000E+00  0.00000000E+00
  0.00000000E+00  0.00000000E+00  0.00000000E+00
  0.00000000E+00  0.00000000E+00  0.00000000E+00
  0.00000000E+00  0.00000000E+00  0.00000000E+00
  0.00000000E+00  0.00000000E+00  0.00000000E+00
  0.00000000E+00  0.00000000E+00  0.00000000E+00
  0.00000000E+00  0.00000000E+00  0.00000000E+00
  0.00000000E+00  0.00000000E+00  0.00000000E+00
  0.00000000E+00  0.00000000E+00  0.00000000E+00
  0.00000000E+00  0.00000000E+00  0.00000000E+00
  0.00000000E+00  0.00000000E+00  0.00000000E+00
  0.00000000E+00  0.00000000E+00  0.00000000E+00
  0.00000000E+00  0.00000000E+00  0.00000000E+00
  0.00000000E+00  0.00000000E+00  0.00000000E+00
  0.00000000E+00  0.00000000E+00  0.00000000E+00
  0.00000000E+00  0.00000000E+00  0.00000000E+00