Species order: X N B                    
   2.51242800000000     
     5.9449720136058266    0.0000000000000000    0.0000000000000000
    -2.9724860068029120    5.1484967885702053   -0.0000000000000001
     0.0000000000000000    0.0000000000000009    5.3101128803662583
   C    N    B 
     1   144   143
Direct
  0.4444444444444429  0.3888888888888857  0.3750000000000000
  0.1111121719021126  0.0555548368008526  0.1250824178099506
  0.6110993602917392  0.5555369695976399  0.1253139187336138
  0.4444426648987400  0.0555548368008526  0.1250824178099506
  0.9444438646657078  0.5555546463632770  0.1250577935165740
  0.7777777777777786  0.0555555555555571  0.1250316110835588
  0.1111111111111143  0.7222222222222214  0.6249705040112655
  0.4444426648987400  0.7222211614312233  0.6249175821900493
  0.2777963637356958  0.2222339730415964  0.6246860812663861
  0.7777784965324830  0.7222211614312233  0.6249175821900493
  0.6111033604707589  0.2222299728625768  0.6248747548891010
  0.9444503648854661  0.2222263558603683  0.6249411456172494
  0.2777786869700588  0.7222225516357662  0.1250577935165740
  0.1111266123918180  0.2222299728625768  0.1251252451108989
  0.4444376093059006  0.2222339730415964  0.1253139187336138
  0.6111033604707589  0.7222067209415176  0.1251252451108989
  0.9444438646657078  0.7222225516357662  0.1250577935165740
  0.7777759909748954  0.2222263558603683  0.1250588543827505
  0.1111107816975691  0.8888894686676208  0.6249422064834259
  0.4444438298912069  0.8888885816122679  0.6249407763731627
  0.2777963637356958  0.3888957240274280  0.6246860812663861
  0.6110993602917392  0.3888957240274280  0.6246860812663861
  0.7777759909748954  0.8888829684478625  0.6249411456172494
  0.9444447517210607  0.3888895034421217  0.6249407763731627
  0.1111121719021126  0.3888906684345886  0.1250824178099506
  0.2777786869700588  0.8888894686676208  0.1250577935165740
  0.6111069774729675  0.8888829684478625  0.1250588543827505
  0.4444444444444429  0.3888888888888857  0.1253169986999444
  0.9444447517210607  0.8888885816122679  0.1250592236268373
  0.7777784965324830  0.3888906684345886  0.1250824178099506
  0.2777785967237572  0.5555547366095785  0.6248736176723293
  0.1111121719021126  0.0555548368008526  0.6249175821900493
  0.6110993602917392  0.5555369695976399  0.6246860812663861
  0.4444426648987400  0.0555548368008526  0.6249175821900493
  0.9444438646657078  0.5555546463632770  0.6249422064834259
  0.1111107816975691  0.5555546463632770  0.1250577935165740
  0.7777777777777786  0.0555555555555571  0.6249683889164412
  0.2777785967237572  0.0555571934475215  0.1251263823276708
  0.4444376093059006  0.5555369695976399  0.1253139187336138
  0.7777761398858142  0.5555547366095785  0.1251263823276708
  0.6111069774729675  0.0555573423584404  0.1250588543827505
  0.4444376093059006  0.5555369695976399  0.6246860812663861
  0.9444503648854661  0.0555573423584404  0.1250588543827505
  0.2777786869700588  0.7222225516357662  0.6249422064834259
  0.1111266123918180  0.2222299728625768  0.6248747548891010
  0.4444376093059006  0.2222339730415964  0.6246860812663861
  0.6111033604707589  0.7222067209415176  0.6248747548891010
  0.9444438646657078  0.7222225516357662  0.6249422064834259
  0.7777759909748954  0.2222263558603683  0.6249411456172494
  0.1111111111111143  0.7222222222222214  0.1250294959887343
  0.4444426648987400  0.7222211614312233  0.1250824178099506
  0.2777963637356958  0.2222339730415964  0.1253139187336138
  0.7777784965324830  0.7222211614312233  0.1250824178099506
  0.6111033604707589  0.2222299728625768  0.1251252451108989
  0.9444503648854661  0.2222263558603683  0.1250588543827505
  0.1111121719021126  0.3888906684345886  0.6249175821900493
  0.2777786869700588  0.8888894686676208  0.6249422064834259
  0.6111069774729675  0.8888829684478625  0.6249411456172494
  0.4444444444444429  0.3888888888888857  0.6246830013000557
  0.9444447517210607  0.8888885816122679  0.6249407763731627
  0.1111107816975691  0.8888894686676208  0.1250577935165740
  0.7777784965324830  0.3888906684345886  0.6249175821900493
  0.4444438298912069  0.8888885816122679  0.1250592236268373
  0.2777963637356958  0.3888957240274280  0.1253139187336138
  0.2777785967237572  0.5555547366095785  0.1251263823276708
  0.6110993602917392  0.3888957240274280  0.1253139187336138
  0.7777759909748954  0.8888829684478625  0.1250588543827505
  0.9444447517210607  0.3888895034421217  0.1250592236268373
  0.1111107816975691  0.5555546463632770  0.6249422064834259
  0.2777785967237572  0.0555571934475215  0.6248736176723293
  0.7777761398858142  0.5555547366095785  0.6248736176723293
  0.6111069774729675  0.0555573423584404  0.6249411456172494
  0.9444503648854661  0.0555573423584404  0.6249411456172494
  0.0557305478793461  0.1111984222875988  0.3750000000000000
  0.5555705393147290  0.6111410786294503  0.3750000000000000
  0.3892341060508101  0.1128884698432780  0.3750000000000000
  0.8882650426684138  0.6107991880008783  0.3750000000000000
  0.7221945969867145  0.1111387363466211  0.3750000000000000
  0.0555539332198126  0.7777794001135229  0.8750000000000000
  0.3888904449980575  0.7777785795945741  0.8750000000000000
  0.2222241187832226  0.2777787260582756  0.8750000000000000
  0.7222206206945628  0.7777795440060381  0.8750000000000000
  0.5555546072750599  0.2777787260582756  0.8750000000000000
  0.8888895706707273  0.2777791413414617  0.8750000000000000
  0.2223401485978911  0.7778367409656100  0.3750000000000000
  0.0557305478793461  0.2778654589250829  0.3750000000000000
  0.3918908006804333  0.2837816013608738  0.3750000000000000
  0.5554678744082597  0.7776027854539898  0.3750000000000000
  0.8884107586329463  0.7774108274330881  0.3750000000000000
  0.7221349110457370  0.2778654589250829  0.3750000000000000
  0.0555547537387618  0.9444451987368193  0.8750000000000000
  0.3888904449980575  0.9444451987368193  0.8750000000000000
  0.2222254274521089  0.4444415802427100  0.8750000000000000
  0.5555551028300229  0.4444442180816757  0.8750000000000000
  0.7222216690797947  0.9444433381595888  0.8750000000000000
  0.8888881345965093  0.4444428883352711  0.8750000000000000
  0.0559225059002480  0.4443332645331942  0.3750000000000000
  0.2225341453324573  0.9450682906649148  0.3750000000000000
  0.5555051893087579  0.9444192613210395  0.3750000000000000
  0.3918908006804333  0.4414425326528953  0.3750000000000000
  0.8889140720122891  0.9444192613210395  0.3750000000000000
  0.7204448634900578  0.4440992272825185  0.3750000000000000
  0.2222243608557179  0.6111089724776180  0.8750000000000000
  0.0555537893272974  0.1111127126387731  0.8750000000000000
  0.5555546072750599  0.6111092145501130  0.8750000000000000
  0.3888917530906186  0.1111171805427347  0.8750000000000000
  0.8888846116218857  0.6111089724776180  0.8750000000000000
  0.0554965923677188  0.6109931847354447  0.3750000000000000
  0.7222216690797947  0.1111116642535413  0.8750000000000000
  0.2236543637924608  0.1128884698432780  0.3750000000000000
  0.3892341060508101  0.6096789695408751  0.3750000000000000
  0.7204448634900578  0.6096789695408751  0.3750000000000000
  0.5554678744082597  0.1111984222875988  0.3750000000000000
  0.3888917530906186  0.6111079058812269  0.8750000000000000
  0.8889441393598995  0.1111387363466211  0.3750000000000000
  0.2222254668937175  0.7777794001135229  0.8750000000000000
  0.0555537893272974  0.2777744100218601  0.8750000000000000
  0.3888891152516529  0.2777782305033131  0.8750000000000000
  0.5555589233114759  0.7777795440060381  0.8750000000000000
  0.8888881345965093  0.7777785795945741  0.8750000000000000
  0.7222206206945628  0.2777744100218601  0.8750000000000000
  0.0554965923677188  0.7778367409656100  0.3750000000000000
  0.3890000688001344  0.7774108274330881  0.3750000000000000
  0.2221922547038853  0.2777627940186070  0.3750000000000000
  0.7221349110457369  0.7776027854539898  0.3750000000000000
  0.5555705393147290  0.2777627940186070  0.3750000000000000
  0.8889140720122891  0.2778281440245777  0.3750000000000000
  0.0555547537387618  0.4444428883352711  0.8750000000000000
  0.2222243608557179  0.9444487217114429  0.8750000000000000
  0.5555541919918738  0.9444437626626013  0.8750000000000000
  0.3888891152516529  0.4444442180816757  0.8750000000000000
  0.8888895706707273  0.9444437626626013  0.8750000000000000
  0.0559225059002480  0.9449225747003823  0.3750000000000000
  0.7222161527906009  0.4444415802427100  0.8750000000000000
  0.3890000688001344  0.9449225747003823  0.3750000000000000
  0.2236543637924608  0.4440992272825185  0.3750000000000000
  0.2225341453324573  0.6107991880008783  0.3750000000000000
  0.5495517319724620  0.4414425326528953  0.3750000000000000
  0.7221945969867145  0.9443891939734291  0.3750000000000000
  0.8884107586329463  0.4443332645331942  0.3750000000000000
  0.0555539332198126  0.6111078664396178  0.8750000000000000
  0.2222254274521089  0.1111171805427347  0.8750000000000000
  0.7222161527906009  0.6111079058812269  0.8750000000000000
  0.5555589233114759  0.1111127126387731  0.8750000000000000
  0.8888899951737398  0.1111116642535413  0.8750000000000000
  0.1115423396110452  0.0560408505984910  0.3750000000000000
  0.6099620571043529  0.5559525536200802  0.3750000000000000
  0.4444985109874459  0.0560408505984910  0.3750000000000000
  0.9442700782294307  0.5555549432805338  0.3750000000000000
  0.7777777777777786  0.0555555555555571  0.3750000000000000
  0.1111111111111143  0.7222222222222214  0.8750000000000000
  0.4444503263396098  0.7222431002459087  0.8750000000000000
  0.2777520489970405  0.2222061301354935  0.8750000000000000
  0.7777927739063057  0.7222431002459087  0.8750000000000000
  0.6111224183492667  0.2222109149840688  0.8750000000000000
  0.9444278870131798  0.2222171385741677  0.8750000000000000
  0.2777783900528018  0.7220484682822322  0.3750000000000000
  0.1103638824382130  0.2218486078857744  0.3750000000000000
  0.4459904965157271  0.2233712762289826  0.3750000000000000
  0.6114847254475613  0.7229694508951228  0.3750000000000000
  0.9442700782294307  0.7220484682822322  0.3750000000000000
  0.7779283570019385  0.2222397067623637  0.3750000000000000
  0.1111121250915715  0.8888863922422161  0.8750000000000000
  0.4444551193998517  0.8888942263665865  0.8750000000000000
  0.2777520489970405  0.3888792521948756  0.8750000000000000
  0.6111272031978421  0.3888792521948756  0.8750000000000000
  0.7777892515609879  0.8889054463201488  0.8750000000000000
  0.9444391069667420  0.3888782139334769  0.8750000000000000
  0.1115423396110452  0.3888348223458827  0.3750000000000000
  0.2777783900528018  0.8890632551038979  0.3750000000000000
  0.6110936265709721  0.8890219835729034  0.3750000000000000
  0.9444437038311401  0.8888896295021885  0.3750000000000000
  0.7772924827348447  0.3888348223458827  0.3750000000000000
  0.2777657301604918  0.5555676031728441  0.8750000000000000
  0.1110902330874270  0.0555405594270298  0.8750000000000000
  0.6111272031978421  0.5555812843362953  0.8750000000000000
  0.4444503263396098  0.0555405594270298  0.8750000000000000
  0.9444469410911125  0.5555590661826840  0.8750000000000000
  0.1112848650511034  0.5555549432805338  0.3750000000000000
  0.7777777777777786  0.0555555555555571  0.8750000000000000
  0.2779858045528751  0.0559716091057431  0.3750000000000000
  0.4459904965157271  0.5559525536200802  0.3750000000000000
  0.7773617242275925  0.5553475287804606  0.3750000000000000
  0.6110936265709721  0.0554049763313972  0.3750000000000000
  0.4444540811384530  0.5555812843362953  0.8750000000000000
  0.9443113497604252  0.0554049763313972  0.3750000000000000
  0.2777742671506517  0.7222212082417643  0.8750000000000000
  0.1110884966348160  0.2222109149840688  0.8750000000000000
  0.4444540811384530  0.2222061301354935  0.8750000000000000
  0.6111224183492667  0.7222448366985198  0.8750000000000000
  0.9444469410911125  0.7222212082417643  0.8750000000000000
  0.7777892515609879  0.2222171385741677  0.8750000000000000
  0.1111111111111143  0.7222222222222214  0.3750000000000000
  0.4444985109874459  0.7217909937222906  0.3750000000000000
  0.2773807797132556  0.2233712762289826  0.3750000000000000
  0.7772924827348447  0.7217909937222906  0.3750000000000000
  0.6114847254475613  0.2218486078857744  0.3750000000000000
  0.9443113497604252  0.2222397067623637  0.3750000000000000
  0.1110902330874270  0.3888830069937187  0.8750000000000000
  0.2777742671506517  0.8888863922422161  0.8750000000000000
  0.6111161947591679  0.8889054463201488  0.8750000000000000
  0.4444444444444429  0.3888888888888857  0.8750000000000000
  0.9444391069667420  0.8888942263665865  0.8750000000000000
  0.1112848650511034  0.8890632551038979  0.3750000000000000
  0.7777927739063057  0.3888830069937187  0.8750000000000000
  0.4444459256710488  0.8888896295021885  0.3750000000000000
  0.2773807797132556  0.3873428368176015  0.3750000000000000
  0.2779858045528751  0.5553475287804606  0.3750000000000000
  0.6099620571043530  0.3873428368176015  0.3750000000000000
  0.7779283570019385  0.8890219835729034  0.3750000000000000
  0.9444437038311401  0.3888874076622798  0.3750000000000000
  0.1111121250915715  0.5555590661826840  0.8750000000000000
  0.2777657301604918  0.0555314603209836  0.8750000000000000
  0.7778018730123522  0.5555676031728441  0.8750000000000000
  0.6111161947591679  0.0555440817723479  0.8750000000000000
  0.9444278870131798  0.0555440817723479  0.8750000000000000
  0.0555212256765238  0.1110553041021363  0.1249915189518001
  0.5556003631608525  0.6112007263217054  0.1249674239422238
  0.3888590605139644  0.1109906350628583  0.1250033286544918
  0.8889565810855812  0.6111449572094584  0.1250236800817466
  0.7222364423433597  0.1110968909899760  0.1249982147936934
  0.0555717324759980  0.7777616008573376  0.6249821266400097
  0.3888797661915004  0.7777896348605303  0.6249938808838861
  0.2221326070116304  0.2777329701724830  0.6250325760577763
  0.7222780292311994  0.7778121076568120  0.6250084810481998
  0.5556003631608525  0.2777329701724830  0.6250325760577763
  0.8888905863224157  0.2777811726448309  0.6249897462274357
  0.2221898683813468  0.7777616008573376  0.1250178733599904
  0.0555212256765238  0.2777992549077162  0.1249915189518001
  0.3888657939636905  0.2777315879273811  0.1246832506776514
  0.5555340784256199  0.7778121076568120  0.1249915189518001
  0.8889098686690228  0.7777896348605303  0.1250061191161138
  0.7222780292311994  0.2777992549077162  0.1249915189518001
  0.0555436984728053  0.9444234646643058  0.6249938808838861
  0.3888797661915004  0.9444234646643058  0.6249938808838861
  0.2221315745488867  0.4444742728193642  0.6249966713455083
  0.5556017454059548  0.4444675393696381  0.6253167493223484
  0.7222364423433597  0.9444728846867125  0.6250017852063064
  0.8889098686690228  0.4444535671418282  0.6249938808838861
  0.0555436984728053  0.4444535671418282  0.1250061191161138
  0.2221883761238773  0.9443767522477474  0.1250236800817466
  0.5555521606885051  0.9444427470109129  0.1250102537725643
  0.3888657939636905  0.4444675393696381  0.1246832506776514
  0.8888905863224157  0.9444427470109129  0.1250102537725643
  0.7223426982704773  0.4444742728193642  0.1250033286544918
  0.2221883761238773  0.6111449572094584  0.6249763199182535
  0.0555212256765238  0.1110553041021363  0.6250084810481998
  0.5556003631608525  0.6112007263217054  0.6250325760577763
  0.3888590605139644  0.1109906350628583  0.6249966713455083
  0.8889565810855812  0.6111449572094584  0.6249763199182535
  0.0555717324759980  0.6111434649519889  0.1250178733599904
  0.7222364423433597  0.1110968909899760  0.6250017852063064
  0.2221315745488867  0.1109906350628583  0.1250033286544918
  0.3888590605139644  0.6112017587844489  0.1250033286544918
  0.7223426982704773  0.6112017587844489  0.1250033286544918
  0.5555340784256199  0.1110553041021363  0.1249915189518001
  0.3888590605139644  0.6112017587844489  0.6249966713455083
  0.8888604486466161  0.1110968909899760  0.1249982147936934
  0.2221898683813468  0.7777616008573376  0.6249821266400097
  0.0555212256765238  0.2777992549077162  0.6250084810481998
  0.3888657939636905  0.2777315879273811  0.6253167493223484
  0.5555340784256199  0.7778121076568120  0.6250084810481998
  0.8889098686690228  0.7777896348605303  0.6249938808838861
  0.7222780292311994  0.2777992549077162  0.6250084810481998
  0.0555717324759980  0.7777616008573376  0.1250178733599904
  0.3888797661915004  0.7777896348605303  0.1250061191161138
  0.2221326070116304  0.2777329701724830  0.1249674239422238
  0.7222780292311994  0.7778121076568120  0.1249915189518001
  0.5556003631608525  0.2777329701724830  0.1249674239422238
  0.8888905863224157  0.2777811726448309  0.1250102537725643
  0.0555436984728053  0.4444535671418282  0.6249938808838861
  0.2221883761238773  0.9443767522477474  0.6249763199182535
  0.5555521606885051  0.9444427470109129  0.6249897462274357
  0.3888657939636905  0.4444675393696381  0.6253167493223484
  0.8888905863224157  0.9444427470109129  0.6249897462274357
  0.0555436984728053  0.9444234646643058  0.1250061191161138
  0.7223426982704773  0.4444742728193642  0.6249966713455083
  0.3888797661915004  0.9444234646643058  0.1250061191161138
  0.2221315745488867  0.4444742728193642  0.1250033286544918
  0.2221883761238773  0.6111449572094584  0.1250236800817466
  0.5556017454059548  0.4444675393696381  0.1246832506776514
  0.7222364423433597  0.9444728846867125  0.1249982147936934
  0.8889098686690228  0.4444535671418282  0.1250061191161138
  0.0555717324759980  0.6111434649519889  0.6249821266400097
  0.2221315745488867  0.1109906350628583  0.6249966713455083
  0.7223426982704773  0.6112017587844489  0.6249966713455083
  0.5555340784256199  0.1110553041021363  0.6250084810481998
  0.8888604486466161  0.1110968909899760  0.6250017852063064
 
  0.00000000E+00  0.00000000E+00  0.00000000E+00
  0.00000000E+00  0.00000000E+00  0.00000000E+00
  0.00000000E+00  0.00000000E+00  0.00000000E+00
  0.00000000E+00  0.00000000E+00  0.00000000E+00
  0.00000000E+00  0.00000000E+00  0.00000000E+00
  0.00000000E+00  0.00000000E+00  0.00000000E+00
  0.00000000E+00  0.00000000E+00  0.00000000E+00
  0.00000000E+00  0.00000000E+00  0.00000000E+00
  0.00000000E+00  0.00000000E+00  0.00000000E+00
  0.00000000E+00  0.00000000E+00  0.00000000E+00
  0.00000000E+00  0.00000000E+00  0.00000000E+00
  0.00000000E+00  0.00000000E+00  0.00000000E+00
  0.00000000E+00  0.00000000E+00  0.00000000E+00
  0.00000000E+00  0.00000000E+00  0.00000000E+00
  0.00000000E+00  0.00000000E+00  0.00000000E+00
  0.00000000E+00  0.00000000E+00  0.00000000E+00
  0.00000000E+00  0.00000000E+00  0.00000000E+00
  0.00000000E+00  0.00000000E+00  0.00000000E+00
  0.00000000E+00  0.00000000E+00  0.00000000E+00
  0.00000000E+00  0.00000000E+00  0.00000000E+00
  0.00000000E+00  0.00000000E+00  0.00000000E+00
  0.00000000E+00  0.00000000E+00  0.00000000E+00
  0.00000000E+00  0.00000000E+00  0.00000000E+00
  0.00000000E+00  0.00000000E+00  0.00000000E+00
  0.00000000E+00  0.00000000E+00  0.00000000E+00
  0.00000000E+00  0.00000000E+00  0.00000000E+00
  0.00000000E+00  0.00000000E+00  0.00000000E+00
  0.00000000E+00  0.00000000E+00  0.00000000E+00
  0.00000000E+00  0.00000000E+00  0.00000000E+00
  0.00000000E+00  0.00000000E+00  0.00000000E+00
  0.00000000E+00  0.00000000E+00  0.00000000E+00
  0.00000000E+00  0.00000000E+00  0.00000000E+00
  0.00000000E+00  0.00000000E+00  0.00000000E+00
  0.00000000E+00  0.00000000E+00  0.00000000E+00
  0.00000000E+00  0.00000000E+00  0.00000000E+00
  0.00000000E+00  0.00000000E+00  0.00000000E+00
  0.00000000E+00  0.00000000E+00  0.00000000E+00
  0.00000000E+00  0.00000000E+00  0.00000000E+00
  0.00000000E+00  0.00000000E+00  0.00000000E+00
  0.00000000E+00  0.00000000E+00  0.00000000E+00
  0.00000000E+00  0.00000000E+00  0.00000000E+00
  0.00000000E+00  0.00000000E+00  0.00000000E+00
  0.00000000E+00  0.00000000E+00  0.00000000E+00
  0.00000000E+00  0.00000000E+00  0.00000000E+00
  0.00000000E+00  0.00000000E+00  0.00000000E+00
  0.00000000E+00  0.00000000E+00  0.00000000E+00
  0.00000000E+00  0.00000000E+00  0.00000000E+00
  0.00000000E+00  0.00000000E+00  0.00000000E+00
  0.00000000E+00  0.00000000E+00  0.00000000E+00
  0.00000000E+00  0.00000000E+00  0.00000000E+00
  0.00000000E+00  0.00000000E+00  0.00000000E+00
  0.00000000E+00  0.00000000E+00  0.00000000E+00
  0.00000000E+00  0.00000000E+00  0.00000000E+00
  0.00000000E+00  0.00000000E+00  0.00000000E+00
  0.00000000E+00  0.00000000E+00  0.00000000E+00
  0.00000000E+00  0.00000000E+00  0.00000000E+00
  0.00000000E+00  0.00000000E+00  0.00000000E+00
  0.00000000E+00  0.00000000E+00  0.00000000E+00
  0.00000000E+00  0.00000000E+00  0.00000000E+00
  0.00000000E+00  0.00000000E+00  0.00000000E+00
  0.00000000E+00  0.00000000E+00  0.00000000E+00
  0.00000000E+00  0.00000000E+00  0.00000000E+00
  0.00000000E+00  0.00000000E+00  0.00000000E+00
  0.00000000E+00  0.00000000E+00  0.00000000E+00
  0.00000000E+00  0.00000000E+00  0.00000000E+00
  0.00000000E+00  0.00000000E+00  0.00000000E+00
  0.00000000E+00  0.00000000E+00  0.00000000E+00
  0.00000000E+00  0.00000000E+00  0.00000000E+00
  0.00000000E+00  0.00000000E+00  0.00000000E+00
  0.00000000E+00  0.00000000E+00  0.00000000E+00
  0.00000000E+00  0.00000000E+00  0.00000000E+00
  0.00000000E+00  0.00000000E+00  0.00000000E+00
  0.00000000E+00  0.00000000E+00  0.00000000E+00
  0.00000000E+00  0.00000000E+00  0.00000000E+00
  0.00000000E+00  0.00000000E+00  0.00000000E+00
  0.00000000E+00  0.00000000E+00  0.00000000E+00
  0.00000000E+00  0.00000000E+00  0.00000000E+00
  0.00000000E+00  0.00000000E+00  0.00000000E+00
  0.00000000E+00  0.00000000E+00  0.00000000E+00
  0.00000000E+00  0.00000000E+00  0.00000000E+00
  0.00000000E+00  0.00000000E+00  0.00000000E+00
  0.00000000E+00  0.00000000E+00  0.00000000E+00
  0.00000000E+00  0.00000000E+00  0.00000000E+00
  0.00000000E+00  0.00000000E+00  0.00000000E+00
  0.00000000E+00  0.00000000E+00  0.00000000E+00
  0.00000000E+00  0.00000000E+00  0.00000000E+00
  0.00000000E+00  0.00000000E+00  0.00000000E+00
  0.00000000E+00  0.00000000E+00  0.00000000E+00
  0.00000000E+00  0.00000000E+00  0.00000000E+00
  0.00000000E+00  0.00000000E+00  0.00000000E+00
  0.00000000E+00  0.00000000E+00  0.00000000E+00
  0.00000000E+00  0.00000000E+00  0.00000000E+00
  0.00000000E+00  0.00000000E+00  0.00000000E+00
  0.00000000E+00  0.00000000E+00  0.00000000E+00
  0.00000000E+00  0.00000000E+00  0.00000000E+00
  0.00000000E+00  0.00000000E+00  0.00000000E+00
  0.00000000E+00  0.00000000E+00  0.00000000E+00
  0.00000000E+00  0.00000000E+00  0.00000000E+00
  0.00000000E+00  0.00000000E+00  0.00000000E+00
  0.00000000E+00  0.00000000E+00  0.00000000E+00
  0.00000000E+00  0.00000000E+00  0.00000000E+00
  0.00000000E+00  0.00000000E+00  0.00000000E+00
  0.00000000E+00  0.00000000E+00  0.00000000E+00
  0.00000000E+00  0.00000000E+00  0.00000000E+00
  0.00000000E+00  0.00000000E+00  0.00000000E+00
  0.00000000E+00  0.00000000E+00  0.00000000E+00
  0.00000000E+00  0.00000000E+00  0.00000000E+00
  0.00000000E+00  0.00000000E+00  0.00000000E+00
  0.00000000E+00  0.00000000E+00  0.00000000E+00
  0.00000000E+00  0.00000000E+00  0.00000000E+00
  0.00000000E+00  0.00000000E+00  0.00000000E+00
  0.00000000E+00  0.00000000E+00  0.00000000E+00
  0.00000000E+00  0.00000000E+00  0.00000000E+00
  0.00000000E+00  0.00000000E+00  0.00000000E+00
  0.00000000E+00  0.00000000E+00  0.00000000E+00
  0.00000000E+00  0.00000000E+00  0.00000000E+00
  0.00000000E+00  0.00000000E+00  0.00000000E+00
  0.00000000E+00  0.00000000E+00  0.00000000E+00
  0.00000000E+00  0.00000000E+00  0.00000000E+00
  0.00000000E+00  0.00000000E+00  0.00000000E+00
  0.00000000E+00  0.00000000E+00  0.00000000E+00
  0.00000000E+00  0.00000000E+00  0.00000000E+00
  0.00000000E+00  0.00000000E+00  0.00000000E+00
  0.00000000E+00  0.00000000E+00  0.00000000E+00
  0.00000000E+00  0.00000000E+00  0.00000000E+00
  0.00000000E+00  0.00000000E+00  0.00000000E+00
  0.00000000E+00  0.00000000E+00  0.00000000E+00
  0.00000000E+00  0.00000000E+00  0.00000000E+00
  0.00000000E+00  0.00000000E+00  0.00000000E+00
  0.00000000E+00  0.00000000E+00  0.00000000E+00
  0.00000000E+00  0.00000000E+00  0.00000000E+00
  0.00000000E+00  0.00000000E+00  0.00000000E+00
  0.00000000E+00  0.00000000E+00  0.00000000E+00
  0.00000000E+00  0.00000000E+00  0.00000000E+00
  0.00000000E+00  0.00000000E+00  0.00000000E+00
  0.00000000E+00  0.00000000E+00  0.00000000E+00
  0.00000000E+00  0.00000000E+00  0.00000000E+00
  0.00000000E+00  0.00000000E+00  0.00000000E+00
  0.00000000E+00  0.00000000E+00  0.00000000E+00
  0.00000000E+00  0.00000000E+00  0.00000000E+00
  0.00000000E+00  0.00000000E+00  0.00000000E+00
  0.00000000E+00  0.00000000E+00  0.00000000E+00
  0.00000000E+00  0.00000000E+00  0.00000000E+00
  0.00000000E+00  0.00000000E+00  0.00000000E+00
  0.00000000E+00  0.00000000E+00  0.00000000E+00
  0.00000000E+00  0.00000000E+00  0.00000000E+00
  0.00000000E+00  0.00000000E+00  0.00000000E+00
  0.00000000E+00  0.00000000E+00  0.00000000E+00
  0.00000000E+00  0.00000000E+00  0.00000000E+00
  0.00000000E+00  0.00000000E+00  0.00000000E+00
  0.00000000E+00  0.00000000E+00  0.00000000E+00
  0.00000000E+00  0.00000000E+00  0.00000000E+00
  0.00000000E+00  0.00000000E+00  0.00000000E+00
  0.00000000E+00  0.00000000E+00  0.00000000E+00
  0.00000000E+00  0.00000000E+00  0.00000000E+00
  0.00000000E+00  0.00000000E+00  0.00000000E+00
  0.00000000E+00  0.00000000E+00  0.00000000E+00
  0.00000000E+00  0.00000000E+00  0.00000000E+00
  0.00000000E+00  0.00000000E+00  0.00000000E+00
  0.00000000E+00  0.00000000E+00  0.00000000E+00
  0.00000000E+00  0.00000000E+00  0.00000000E+00
  0.00000000E+00  0.00000000E+00  0.00000000E+00
  0.00000000E+00  0.00000000E+00  0.00000000E+00
  0.00000000E+00  0.00000000E+00  0.00000000E+00
  0.00000000E+00  0.00000000E+00  0.00000000E+00
  0.00000000E+00  0.00000000E+00  0.00000000E+00
  0.00000000E+00  0.00000000E+00  0.00000000E+00
  0.00000000E+00  0.00000000E+00  0.00000000E+00
  0.00000000E+00  0.00000000E+00  0.00000000E+00
  0.00000000E+00  0.00000000E+00  0.00000000E+00
  0.00000000E+00  0.00000000E+00  0.00000000E+00
  0.00000000E+00  0.00000000E+00  0.00000000E+00
  0.00000000E+00  0.00000000E+00  0.00000000E+00
  0.00000000E+00  0.00000000E+00  0.00000000E+00
  0.00000000E+00  0.00000000E+00  0.00000000E+00
  0.00000000E+00  0.00000000E+00  0.00000000E+00
  0.00000000E+00  0.00000000E+00  0.00000000E+00
  0.00000000E+00  0.00000000E+00  0.00000000E+00
  0.00000000E+00  0.00000000E+00  0.00000000E+00
  0.00000000E+00  0.00000000E+00  0.00000000E+00
  0.00000000E+00  0.00000000E+00  0.00000000E+00
  0.00000000E+00  0.00000000E+00  0.00000000E+00
  0.00000000E+00  0.00000000E+00  0.00000000E+00
  0.00000000E+00  0.00000000E+00  0.00000000E+00
  0.00000000E+00  0.00000000E+00  0.00000000E+00
  0.00000000E+00  0.00000000E+00  0.00000000E+00
  0.00000000E+00  0.00000000E+00  0.00000000E+00
  0.00000000E+00  0.00000000E+00  0.00000000E+00
  0.00000000E+00  0.00000000E+00  0.00000000E+00
  0.00000000E+00  0.00000000E+00  0.00000000E+00
  0.00000000E+00  0.00000000E+00  0.00000000E+00
  0.00000000E+00  0.00000000E+00  0.00000000E+00
  0.00000000E+00  0.00000000E+00  0.00000000E+00
  0.00000000E+00  0.00000000E+00  0.00000000E+00
  0.00000000E+00  0.00000000E+00  0.00000000E+00
  0.00000000E+00  0.00000000E+00  0.00000000E+00
  0.00000000E+00  0.00000000E+00  0.00000000E+00
  0.00000000E+00  0.00000000E+00  0.00000000E+00
  0.00000000E+00  0.00000000E+00  0.00000000E+00
  0.00000000E+00  0.00000000E+00  0.00000000E+00
  0.00000000E+00  0.00000000E+00  0.00000000E+00
  0.00000000E+00  0.00000000E+00  0.00000000E+00
  0.00000000E+00  0.00000000E+00  0.00000000E+00
  0.00000000E+00  0.00000000E+00  0.00000000E+00
  0.00000000E+00  0.00000000E+00  0.00000000E+00
  0.00000000E+00  0.00000000E+00  0.00000000E+00
  0.00000000E+00  0.00000000E+00  0.00000000E+00
  0.00000000E+00  0.00000000E+00  0.00000000E+00
  0.00000000E+00  0.00000000E+00  0.00000000E+00
  0.00000000E+00  0.00000000E+00  0.00000000E+00
  0.00000000E+00  0.00000000E+00  0.00000000E+00
  0.00000000E+00  0.00000000E+00  0.00000000E+00
  0.00000000E+00  0.00000000E+00  0.00000000E+00
  0.00000000E+00  0.00000000E+00  0.00000000E+00
  0.00000000E+00  0.00000000E+00  0.00000000E+00
  0.00000000E+00  0.00000000E+00  0.00000000E+00
  0.00000000E+00  0.00000000E+00  0.00000000E+00
  0.00000000E+00  0.00000000E+00  0.00000000E+00
  0.00000000E+00  0.00000000E+00  0.00000000E+00
  0.00000000E+00  0.00000000E+00  0.00000000E+00
  0.00000000E+00  0.00000000E+00  0.00000000E+00
  0.00000000E+00  0.00000000E+00  0.00000000E+00
  0.00000000E+00  0.00000000E+00  0.00000000E+00
  0.00000000E+00  0.00000000E+00  0.00000000E+00
  0.00000000E+00  0.00000000E+00  0.00000000E+00
  0.00000000E+00  0.00000000E+00  0.00000000E+00
  0.00000000E+00  0.00000000E+00  0.00000000E+00
  0.00000000E+00  0.00000000E+00  0.00000000E+00
  0.00000000E+00  0.00000000E+00  0.00000000E+00
  0.00000000E+00  0.00000000E+00  0.00000000E+00
  0.00000000E+00  0.00000000E+00  0.00000000E+00
  0.00000000E+00  0.00000000E+00  0.00000000E+00
  0.00000000E+00  0.00000000E+00  0.00000000E+00
  0.00000000E+00  0.00000000E+00  0.00000000E+00
  0.00000000E+00  0.00000000E+00  0.00000000E+00
  0.00000000E+00  0.00000000E+00  0.00000000E+00
  0.00000000E+00  0.00000000E+00  0.00000000E+00
  0.00000000E+00  0.00000000E+00  0.00000000E+00
  0.00000000E+00  0.00000000E+00  0.00000000E+00
  0.00000000E+00  0.00000000E+00  0.00000000E+00
  0.00000000E+00  0.00000000E+00  0.00000000E+00
  0.00000000E+00  0.00000000E+00  0.00000000E+00
  0.00000000E+00  0.00000000E+00  0.00000000E+00
  0.00000000E+00  0.00000000E+00  0.00000000E+00
  0.00000000E+00  0.00000000E+00  0.00000000E+00
  0.00000000E+00  0.00000000E+00  0.00000000E+00
  0.00000000E+00  0.00000000E+00  0.00000000E+00