 B C N 
 1.0
 14.936314146199660   0.000000000000000   0.000000000000000
 -7.468157073099825  12.935227489513863   0.000000000000000
  0.000000000000001   0.000000000000001  13.341276283792837
 B C N 
 143   1 144
Cartesian
  1.247509550253007   0.724901151197341   5.002978606422314 
  4.958643906547083   7.191372754451890   5.002978606422314 
  6.220647522846823   0.724901151197341   5.002978606422314 
  9.954942948135217   7.186229574257680   5.002978606422314 
 11.202235609649751   0.718623749417456   5.002978606422314 
 -3.734078536549858   9.342108742426666  11.673616748318732 
  1.244624778990342   9.342378804412601  11.673616748318732 
  2.489121576112901   2.874286842867138  11.673616748318732 
  6.223532294109601   9.342378804412601  11.673616748318732 
  7.468410405791643   2.874348735971959  11.673616748318732 
 12.446719113653737   2.874429239525691  11.673616748318732 
 -1.243386078668612   9.339861195685707   5.002978606422314 
 -0.008370631648095   2.869662211234446   5.002978606422314 
  4.993282385681648   2.889358272644936   5.002978606422314 
  3.734078536549914   9.351774315297337   5.002978606422314 
  8.711543151768463   9.339861195685707   5.002978606422314 
  9.959661285436940   2.874721164174031   5.002978606422314 
 -4.978737591586337  11.497947695986317  11.673616748318732 
  0.000119583365646  11.498049032167236  11.673616748318732 
  1.244380520709496   5.030241593092756  11.673616748318732 
  6.223776552390428   5.030241593092756  11.673616748318732 
  4.978819104599656  11.498194164818983  11.673616748318732 
 11.202235609649801   5.030228162945366  11.673616748318732 
 -1.237848103737262   5.029666882888706   5.002978606422314 
 -2.490678740183097  11.500235457336618   5.002978606422314 
  2.488130564443250  11.499701600694356   5.002978606422314 
  7.468140480050403  11.497989570680508   5.002978606422314 
  8.706005176837200   5.029666882888706   5.002978606422314 
 -0.000269920494757   7.186393332844703  11.673616748318732 
  1.244492998239459   0.718429771083498  11.673616748318732 
  4.978819591953377   7.186570301806261  11.673616748318732 
  6.223664074860478   0.718429771083498  11.673616748318732 
  9.957553836917228   7.186282904934907  11.673616748318732 
 -2.486785875035381   7.186229574257680   5.002978606422314 
 11.202235609649751   0.718623749417457  11.673616748318732 
  3.734078536549969   0.724005496736932   5.002978606422314 
  2.509513166552753   7.191372754451890   5.002978606422314 
  7.463496343204447   7.183546620514612   5.002978606422314 
  8.713713313330210   0.716675972897752   5.002978606422314 
  2.489337481146462   7.186570301806261  11.673616748318732 
 13.690757905969280   0.716675972897752   5.002978606422314 
 -1.244737708780902   9.342095626358784  11.673616748318732 
 -0.000253332691602   2.874348735971959  11.673616748318732 
  4.979035496986918   2.874286842867138  11.673616748318732 
  3.734078536550022   9.342401265822149  11.673616748318732 
  8.712894781880744   9.342095626358784  11.673616748318732 
  9.957752105645755   2.874429239525691  11.673616748318732 
 -3.734078536549858   9.342108742426664   5.002978606422314 
  1.248720882559596   9.336530703680108   5.002978606422314 
  2.474874687418183   2.889358272644936   5.002978606422314 
  6.219436190540241   9.336530703680108   5.002978606422314 
  7.476527704747929   2.869662211234446   5.002978606422314 
 12.444809933862551   2.874721164174031   5.002978606422314 
 -1.244960759320117   5.030290162269967  11.673616748318732 
 -2.489419481513362  11.497947695986317  11.673616748318732 
  2.489337968500291  11.498194164818983  11.673616748318732 
  3.734078536549918   5.030366245922021  11.673616748318732 
  7.468037489734301  11.498049032167236  11.673616748318732 
 -4.977478332916620  11.500235457336618   5.002978606422314 
  8.713117832420160   5.030290162269967  11.673616748318732 
  0.000016593049437  11.497989570680508   5.002978606422314 
  1.250309317421072   5.010367710669329   5.002978606422314 
  0.004660729895493   7.183546620514612   5.002978606422314 
  6.217847755678867   5.010367710669329   5.002978606422314 
  4.980026508656708  11.499701600694356   5.002978606422314 
 11.202235609649748   5.030347085918910   5.002978606422314 
 -2.489396763817391   7.186282904934907  11.673616748318732 
  3.734078536549916   0.718312072076842  11.673616748318732 
  7.468426993594595   7.186393332844703  11.673616748318732 
  8.713011537596072   0.718475333421483  11.673616748318732 
 13.691459681703419   0.718475333421483  11.673616748318732 
 -0.000095986349010   1.436525622478272   1.667546387466892 
  3.734078536549911   7.906020436727358   1.667224929287078 
  4.979225590140106   1.435689113743682   1.667703943973336 
  8.713608222552743   7.905299050573555   1.667975457987114 
  9.957861358427854   1.437063558333063   1.667635718543539 
 -4.978408946718099  10.060523239698147   8.338059223936776 
 -0.000224810030479  10.060885865906878   8.338216040551833 
  1.243688954813368   3.592539150519437   8.338732283557549 
  4.979348552155267  10.061176556639111   8.338410825377736 
  6.224468118286452   3.592539150519437   8.338732283557549 
 11.202235609649755   3.593162660464815   8.338160878957796 
 -2.489748126381618  10.060523239698147   1.667897988907851 
 -1.245366001954311   3.593396558648757   1.667546387466892 
  3.734078536549909   3.592521270864595   1.663433695251942 
  2.488808520944676  10.061176556639111   1.667546387466892 
  7.468381883130212  10.060885865906878   1.667741172292794 
  8.713523075054249   3.593396558648757   1.667546387466892 
 -6.223484648402573  12.216332361867657   8.338216040551833 
 -1.244672424697261  12.216332361867657   8.338216040551833 
 -0.001576705114689   5.749375832154723   8.338253268871291 
  4.979288811653551   5.749288733450728   8.342523517592673 
  3.734078536549974  12.216971621100027   8.338321494301075 
  9.957787994982919   5.749107999505470   8.338216040551833 
 -2.489630921883085   5.749107999505469   1.667741172292794 
 -3.734078536549857  12.215728126132881   1.667975457987114 
  1.244654815416125  12.216581783407550   1.667796333886832 
  2.488868261446388   5.749288733450727   1.663433695251942 
  6.223502257683834  12.216581783407550   1.667796333886832 
  7.469733778214524   5.749375832154723   1.667703943973336 
 -1.245451149452908   7.905299050573556   8.337981754857527 
 -0.000095986349009   1.436525622478272   8.338410825377736 
  3.734078536549911   7.906020436727359   8.338732283557549 
  4.979225590140107   1.435689113743683   8.338253268871291 
  8.713608222552743   7.905299050573556   8.337981754857527 
 -3.734078536549859   7.905279747883720   1.667897988907851 
  9.957861358427854   1.437063558333063   8.338321494301075 
  2.488931482959621   1.435689113743682   1.667703943973336 
  1.243570348475495   7.906033791867827   1.667703943973336 
  6.224586724624222   7.906033791867827   1.667703943973336 
  7.468253059448959   1.436525622478272   1.667546387466892 
  1.243570348475495   7.906033791867828   8.338253268871291 
 12.446609860871636   1.437063558333063   1.667635718543539 
 -2.489748126381618  10.060523239698147   8.338059223936776 
 -1.245366001954311   3.593396558648758   8.338410825377736 
  3.734078536549909   3.592521270864596   8.342523517592673 
  2.488808520944676  10.061176556639111   8.338410825377736 
  7.468381883130213  10.060885865906878   8.338216040551833 
  8.713523075054249   3.593396558648758   8.338410825377736 
 -4.978408946718099  10.060523239698147   1.667897988907851 
 -0.000224810030479  10.060885865906878   1.667741172292794 
  1.243688954813368   3.592539150519436   1.667224929287078 
  4.979348552155266  10.061176556639111   1.667546387466892 
  6.224468118286451   3.592539150519436   1.667224929287078 
 11.202235609649755   3.593162660464814   1.667796333886832 
 -2.489630921883084   5.749107999505470   8.338216040551833 
 -3.734078536549857  12.215728126132881   8.337981754857527 
  1.244654815416126  12.216581783407550   8.338160878957796 
  2.488868261446389   5.749288733450728   8.342523517592673 
  6.223502257683835  12.216581783407550   8.338160878957796 
 -6.223484648402573  12.216332361867657   1.667741172292794 
  7.469733778214525   5.749375832154723   8.338253268871291 
 -1.244672424697262  12.216332361867657   1.667741172292794 
 -0.001576705114690   5.749375832154723   1.667703943973336 
 -1.245451149452909   7.905299050573555   1.667975457987114 
  4.979288811653550   5.749288733450727   1.663433695251942 
  3.734078536549974  12.216971621100027   1.667635718543539 
  9.957787994982919   5.749107999505469   1.667741172292794 
 -3.734078536549859   7.905279747883721   8.338059223936776 
  2.488931482959621   1.435689113743683   8.338253268871291 
  6.224586724624223   7.906033791867828   8.338253268871291 
  7.468253059448960   1.436525622478272   8.338410825377736 
 12.446609860871636   1.437063558333063   8.338321494301075 
  3.734078536549917   5.030366245922021   5.002978606422314 
  1.244714057597302   0.718614452161850   1.668759094247366 
  4.978734670990005   7.185997080580620   1.671847612029907 
  6.223443015502529   0.718614452161850   1.668759094247366 
  9.957540894366513   7.186225733565414   1.668430574746130 
 11.202235609649751   0.718623749417456   1.668081267673495 
 -3.734078536549858   9.342108742426664   8.337904163235558 
  1.244674187816769   9.342095020853785   8.337198118597263 
  2.489575539774632   2.874646997191536   8.334109600814720 
  6.223482885283072   9.342095020853785   8.337198118597263 
  7.467983424101111   2.874595253965927   8.336626747742827 
 12.446986014074410   2.874548467219523   8.337512484789730 
 -1.244681725647190   9.342113003465807   1.668430574746130 
  0.000173648998721   2.874595253965926   1.669330465101803 
  4.978581533325216   2.874646997191535   1.671847612029907 
  3.734078536549918   9.341908229834392   1.669330465101803 
  8.712838798747043   9.342113003465807   1.668430574746130 
  9.957485205224978   2.874548467219523   1.668444728054884 
 -4.978780632169335  11.497987490248782   8.337526638098497 
 -0.000006884370139  11.497976015985996   8.337507558602363 
  1.244919405334589   5.030454659993985   8.334109600814720 
  6.223237667765350   5.030454659993985   8.334109600814720 
  4.978788908600909  11.497903408427481   8.337512484789730 
 11.202235609649748   5.030374195307934   8.337507558602363 
 -1.244690291135796   5.030389264750517   1.668759094247366 
 -2.489376440930379  11.497987490248782   1.668430574746130 
  2.489368164498918  11.497903408427481   1.668444728054884 
  3.734078536549917   5.030366245922020   1.671888702711661 
  7.468163957469979  11.497976015985996   1.668449654242265 
  8.712847364235735   5.030389264750517   1.668759094247366 
  0.000018348051606   7.186226900921861   8.336611575819674 
  1.244714057597303   0.718614452161851   8.337198118597263 
  4.978734670990006   7.185997080580621   8.334109600814720 
  6.223443015502530   0.718614452161851   8.337198118597263 
  9.957540894366513   7.186225733565415   8.337526638098497 
 -2.489383821266677   7.186225733565414   1.668430574746130 
 11.202235609649751   0.718623749417456   8.337875945171133 
  3.734078536549863   0.718644935922613   1.669345637024952 
  2.489422402109829   7.185997080580620   1.671847612029907 
  7.468138725048111   7.186226900921860   1.669345637024952 
  8.712774833173983   0.718646862119226   1.668444728054884 
  2.489422402109830   7.185997080580621   8.334109600814720 
 13.691696386125404   0.718646862119226   1.668444728054884 
 -1.244681725647190   9.342113003465807   8.337526638098497 
  0.000173648998721   2.874595253965927   8.336626747742827 
  4.978581533325217   2.874646997191536   8.334109600814720 
  3.734078536549918   9.341908229834392   8.336626747742827 
  8.712838798747043   9.342113003465807   8.337526638098497 
  9.957485205224978   2.874548467219523   8.337512484789730 
 -3.734078536549859   9.342108742426664   1.668053049609069 
  1.244674187816768   9.342095020853785   1.668759094247366 
  2.489575539774632   2.874646997191535   1.671847612029907 
  6.223482885283071   9.342095020853785   1.668759094247366 
  7.467983424101110   2.874595253965926   1.669330465101803 
 12.446986014074410   2.874548467219523   1.668444728054884 
 -1.244690291135795   5.030389264750518   8.337198118597263 
 -2.489376440930379  11.497987490248782   8.337526638098497 
  2.489368164498919  11.497903408427481   8.337512484789730 
  3.734078536549917   5.030366245922021   8.334068510132967 
  7.468163957469979  11.497976015985996   8.337507558602363 
 -4.978780632169336  11.497987490248782   1.668430574746130 
  8.712847364235735   5.030389264750518   8.337198118597263 
 -0.000006884370140  11.497976015985996   1.668449654242265 
  1.244919405334588   5.030454659993984   1.671847612029907 
  0.000018348051605   7.186226900921860   1.669345637024952 
  6.223237667765349   5.030454659993984   1.671847612029907 
  4.978788908600908  11.497903408427481   1.668444728054884 
 11.202235609649748   5.030374195307933   1.668449654242265 
 -2.489383821266677   7.186225733565415   8.337526638098497 
  3.734078536549863   0.718644935922614   8.336611575819674 
  7.468138725048112   7.186226900921861   8.336611575819674 
  8.712774833173983   0.718646862119227   8.337512484789730 
 13.691696386125404   0.718646862119227   8.337512484789730 
  0.001961686741060   1.438376888765122   5.002978606422314 
  3.734078536549978   7.905248880258816   5.002978606422314 
  4.970654059858600   1.460238038365927   5.002978606422314 
  8.705861446270491   7.900826447201704   5.002978606422314 
  9.956923835339239   1.437604837540646   5.002978606422314 
 -4.978807729641020  10.060753477126047  11.673616748318732 
  0.000017254441623  10.060742863526782  11.673616748318732 
  1.244714091239836   3.593131013311154  11.673616748318732 
  4.978734270676253  10.060755338408462  11.673616748318732 
  6.223442981860104   3.593131013311154  11.673616748318732 
 11.202235609649687   3.593136385093637  11.673616748318732 
 -2.488064651988422  10.061495194092233   5.002978606422314 
 -1.242733921775754   3.594252922674120   5.002978606422314 
  3.734078536549857   3.670779570941443   5.002978606422314 
  2.489382928033210  10.058468926327002   5.002978606422314 
  7.463756012206441  10.055985905658199   5.002978606422314 
  8.710890994875587   3.594252922674120   5.002978606422314 
 -6.223481836944633  12.216613497039887  11.673616748318732 
 -1.244675236155169  12.216613497039887  11.673616748318732 
  0.000069264628945   5.748952946238485  11.673616748318732 
  4.978766310528489   5.748987067285591  11.673616748318732 
  3.734078536549928  12.216589430050155  11.673616748318732 
  9.957543119052895   5.748969866713339  11.673616748318732 
 -2.483074496368300   5.747551857895207   5.002978606422314 
 -3.734078536549917  12.224673332876687   5.002978606422314 
  1.244128630953293  12.216277990666281   5.002978606422314 
  2.556641937369845   5.710159583412350   5.002978606422314 
  6.224028442146667  12.216277990666281   5.002978606422314 
  7.444188020715333   5.744524532816693   5.002978606422314 
 -1.244644930564049   7.904833579881056  11.673616748318732 
 -0.000038341400258   1.437268214959512  11.673616748318732 
  3.734078536549972   7.904836711143848  11.673616748318732 
  4.978768835214662   1.437326008313662  11.673616748318732 
  8.712802003663679   7.904833579881056  11.673616748318732 
 -3.734078536549963   7.903335839095551   5.002978606422314 
  9.957530371269495   1.437254653858040  11.673616748318732 
  2.497503013241128   1.460238038365927   5.002978606422314 
  1.260544575693194   7.886336166583613   5.002978606422314 
  6.207612497406538   7.886336166583613   5.002978606422314 
  7.466195386358876   1.438376888765122   5.002978606422314 
  1.244759563293692   7.904819783214099  11.673616748318732 
 12.447547383960147   1.437604837540646   5.002978606422314 
 -2.489349343458695  10.060753477126047  11.673616748318732 
 -1.244694075526582   3.593075184398260  11.673616748318732 
  3.734078536549865   3.593124603194974  11.673616748318732 
  2.489422802423603  10.060755338408462  11.673616748318732 
  7.468139818658113  10.060742863526782  11.673616748318732 
  8.712851148626417   3.593075184398260  11.673616748318732 
 -4.980092421111398  10.061495194092233   5.002978606422314 
  0.004401060893280  10.055985905658199   5.002978606422314 
  1.244357142315607   3.592924928753662   5.002978606422314 
  4.978774145066734  10.058468926327002   5.002978606422314 
  6.223799930784331   3.592924928753662   5.002978606422314 
 11.202235609649748   3.593770245947339   5.002978606422314 
 -2.489386045953060   5.748969866713339  11.673616748318732 
 -3.734078536549961  12.216659067518089  11.673616748318732 
  1.244677570555033  12.216594921093185  11.673616748318732 
  2.489390762571346   5.748987067285591  11.673616748318732 
  6.223479502544809  12.216594921093185  11.673616748318732 
 -6.221554093811547  12.222788463726598   5.002978606422314 
  7.468087808470893   5.748952946238485  11.673616748318732 
 -1.246602979288273  12.222788463726598   5.002978606422314 
  0.023969052384517   5.744524532816693   5.002978606422314 
 -1.237704373170757   7.900826447201704   5.002978606422314 
  4.911515135729990   5.710159583412350   5.002978606422314 
  3.734078536549928  12.215889062684939   5.002978606422314 
  9.951231569468137   5.747551857895207   5.002978606422314 
 -3.734078536549851   7.904819273027915  11.673616748318732 
  2.489388237885066   1.437326008313662  11.673616748318732 
  6.223397509806043   7.904819783214099  11.673616748318732 
  7.468195414500092   1.437268214959512  11.673616748318732 
 12.446940848029904   1.437254653858040  11.673616748318732 
Generated by cif2cell 2.0.0.  :  Failed to get author information, No journal information. Species order: B C N 
 1.0
 14.936314146199660   0.000000000000000   0.000000000000000
 -7.468157073099825  12.935227489513863   0.000000000000000
  0.000000000000001   0.000000000000001  13.341276283792837
 B C N 
 143   1 144
Cartesian
  1.247509550253007   0.724901151197341   5.002978606422314 
  4.958643906547083   7.191372754451890   5.002978606422314 
  6.220647522846823   0.724901151197341   5.002978606422314 
  9.954942948135217   7.186229574257680   5.002978606422314 
 11.202235609649751   0.718623749417456   5.002978606422314 
 -3.734078536549858   9.342108742426666  11.673616748318732 
  1.244624778990342   9.342378804412601  11.673616748318732 
  2.489121576112901   2.874286842867138  11.673616748318732 
  6.223532294109601   9.342378804412601  11.673616748318732 
  7.468410405791643   2.874348735971959  11.673616748318732 
 12.446719113653737   2.874429239525691  11.673616748318732 
 -1.243386078668612   9.339861195685707   5.002978606422314 
 -0.008370631648095   2.869662211234446   5.002978606422314 
  4.993282385681648   2.889358272644936   5.002978606422314 
  3.734078536549914   9.351774315297337   5.002978606422314 
  8.711543151768463   9.339861195685707   5.002978606422314 
  9.959661285436940   2.874721164174031   5.002978606422314 
 -4.978737591586337  11.497947695986317  11.673616748318732 
  0.000119583365646  11.498049032167236  11.673616748318732 
  1.244380520709496   5.030241593092756  11.673616748318732 
  6.223776552390428   5.030241593092756  11.673616748318732 
  4.978819104599656  11.498194164818983  11.673616748318732 
 11.202235609649801   5.030228162945366  11.673616748318732 
 -1.237848103737262   5.029666882888706   5.002978606422314 
 -2.490678740183097  11.500235457336618   5.002978606422314 
  2.488130564443250  11.499701600694356   5.002978606422314 
  7.468140480050403  11.497989570680508   5.002978606422314 
  8.706005176837200   5.029666882888706   5.002978606422314 
 -0.000269920494757   7.186393332844703  11.673616748318732 
  1.244492998239459   0.718429771083498  11.673616748318732 
  4.978819591953377   7.186570301806261  11.673616748318732 
  6.223664074860478   0.718429771083498  11.673616748318732 
  9.957553836917228   7.186282904934907  11.673616748318732 
 -2.486785875035381   7.186229574257680   5.002978606422314 
 11.202235609649751   0.718623749417457  11.673616748318732 
  3.734078536549969   0.724005496736932   5.002978606422314 
  2.509513166552753   7.191372754451890   5.002978606422314 
  7.463496343204447   7.183546620514612   5.002978606422314 
  8.713713313330210   0.716675972897752   5.002978606422314 
  2.489337481146462   7.186570301806261  11.673616748318732 
 13.690757905969280   0.716675972897752   5.002978606422314 
 -1.244737708780902   9.342095626358784  11.673616748318732 
 -0.000253332691602   2.874348735971959  11.673616748318732 
  4.979035496986918   2.874286842867138  11.673616748318732 
  3.734078536550022   9.342401265822149  11.673616748318732 
  8.712894781880744   9.342095626358784  11.673616748318732 
  9.957752105645755   2.874429239525691  11.673616748318732 
 -3.734078536549858   9.342108742426664   5.002978606422314 
  1.248720882559596   9.336530703680108   5.002978606422314 
  2.474874687418183   2.889358272644936   5.002978606422314 
  6.219436190540241   9.336530703680108   5.002978606422314 
  7.476527704747929   2.869662211234446   5.002978606422314 
 12.444809933862551   2.874721164174031   5.002978606422314 
 -1.244960759320117   5.030290162269967  11.673616748318732 
 -2.489419481513362  11.497947695986317  11.673616748318732 
  2.489337968500291  11.498194164818983  11.673616748318732 
  3.734078536549918   5.030366245922021  11.673616748318732 
  7.468037489734301  11.498049032167236  11.673616748318732 
 -4.977478332916620  11.500235457336618   5.002978606422314 
  8.713117832420160   5.030290162269967  11.673616748318732 
  0.000016593049437  11.497989570680508   5.002978606422314 
  1.250309317421072   5.010367710669329   5.002978606422314 
  0.004660729895493   7.183546620514612   5.002978606422314 
  6.217847755678867   5.010367710669329   5.002978606422314 
  4.980026508656708  11.499701600694356   5.002978606422314 
 11.202235609649748   5.030347085918910   5.002978606422314 
 -2.489396763817391   7.186282904934907  11.673616748318732 
  3.734078536549916   0.718312072076842  11.673616748318732 
  7.468426993594595   7.186393332844703  11.673616748318732 
  8.713011537596072   0.718475333421483  11.673616748318732 
 13.691459681703419   0.718475333421483  11.673616748318732 
 -0.000095986349010   1.436525622478272   1.667546387466892 
  3.734078536549911   7.906020436727358   1.667224929287078 
  4.979225590140106   1.435689113743682   1.667703943973336 
  8.713608222552743   7.905299050573555   1.667975457987114 
  9.957861358427854   1.437063558333063   1.667635718543539 
 -4.978408946718099  10.060523239698147   8.338059223936776 
 -0.000224810030479  10.060885865906878   8.338216040551833 
  1.243688954813368   3.592539150519437   8.338732283557549 
  4.979348552155267  10.061176556639111   8.338410825377736 
  6.224468118286452   3.592539150519437   8.338732283557549 
 11.202235609649755   3.593162660464815   8.338160878957796 
 -2.489748126381618  10.060523239698147   1.667897988907851 
 -1.245366001954311   3.593396558648757   1.667546387466892 
  3.734078536549909   3.592521270864595   1.663433695251942 
  2.488808520944676  10.061176556639111   1.667546387466892 
  7.468381883130212  10.060885865906878   1.667741172292794 
  8.713523075054249   3.593396558648757   1.667546387466892 
 -6.223484648402573  12.216332361867657   8.338216040551833 
 -1.244672424697261  12.216332361867657   8.338216040551833 
 -0.001576705114689   5.749375832154723   8.338253268871291 
  4.979288811653551   5.749288733450728   8.342523517592673 
  3.734078536549974  12.216971621100027   8.338321494301075 
  9.957787994982919   5.749107999505470   8.338216040551833 
 -2.489630921883085   5.749107999505469   1.667741172292794 
 -3.734078536549857  12.215728126132881   1.667975457987114 
  1.244654815416125  12.216581783407550   1.667796333886832 
  2.488868261446388   5.749288733450727   1.663433695251942 
  6.223502257683834  12.216581783407550   1.667796333886832 
  7.469733778214524   5.749375832154723   1.667703943973336 
 -1.245451149452908   7.905299050573556   8.337981754857527 
 -0.000095986349009   1.436525622478272   8.338410825377736 
  3.734078536549911   7.906020436727359   8.338732283557549 
  4.979225590140107   1.435689113743683   8.338253268871291 
  8.713608222552743   7.905299050573556   8.337981754857527 
 -3.734078536549859   7.905279747883720   1.667897988907851 
  9.957861358427854   1.437063558333063   8.338321494301075 
  2.488931482959621   1.435689113743682   1.667703943973336 
  1.243570348475495   7.906033791867827   1.667703943973336 
  6.224586724624222   7.906033791867827   1.667703943973336 
  7.468253059448959   1.436525622478272   1.667546387466892 
  1.243570348475495   7.906033791867828   8.338253268871291 
 12.446609860871636   1.437063558333063   1.667635718543539 
 -2.489748126381618  10.060523239698147   8.338059223936776 
 -1.245366001954311   3.593396558648758   8.338410825377736 
  3.734078536549909   3.592521270864596   8.342523517592673 
  2.488808520944676  10.061176556639111   8.338410825377736 
  7.468381883130213  10.060885865906878   8.338216040551833 
  8.713523075054249   3.593396558648758   8.338410825377736 
 -4.978408946718099  10.060523239698147   1.667897988907851 
 -0.000224810030479  10.060885865906878   1.667741172292794 
  1.243688954813368   3.592539150519436   1.667224929287078 
  4.979348552155266  10.061176556639111   1.667546387466892 
  6.224468118286451   3.592539150519436   1.667224929287078 
 11.202235609649755   3.593162660464814   1.667796333886832 
 -2.489630921883084   5.749107999505470   8.338216040551833 
 -3.734078536549857  12.215728126132881   8.337981754857527 
  1.244654815416126  12.216581783407550   8.338160878957796 
  2.488868261446389   5.749288733450728   8.342523517592673 
  6.223502257683835  12.216581783407550   8.338160878957796 
 -6.223484648402573  12.216332361867657   1.667741172292794 
  7.469733778214525   5.749375832154723   8.338253268871291 
 -1.244672424697262  12.216332361867657   1.667741172292794 
 -0.001576705114690   5.749375832154723   1.667703943973336 
 -1.245451149452909   7.905299050573555   1.667975457987114 
  4.979288811653550   5.749288733450727   1.663433695251942 
  3.734078536549974  12.216971621100027   1.667635718543539 
  9.957787994982919   5.749107999505469   1.667741172292794 
 -3.734078536549859   7.905279747883721   8.338059223936776 
  2.488931482959621   1.435689113743683   8.338253268871291 
  6.224586724624223   7.906033791867828   8.338253268871291 
  7.468253059448960   1.436525622478272   8.338410825377736 
 12.446609860871636   1.437063558333063   8.338321494301075 
  3.734078536549917   5.030366245922021   5.002978606422314 
  1.244714057597302   0.718614452161850   1.668759094247366 
  4.978734670990005   7.185997080580620   1.671847612029907 
  6.223443015502529   0.718614452161850   1.668759094247366 
  9.957540894366513   7.186225733565414   1.668430574746130 
 11.202235609649751   0.718623749417456   1.668081267673495 
 -3.734078536549858   9.342108742426664   8.337904163235558 
  1.244674187816769   9.342095020853785   8.337198118597263 
  2.489575539774632   2.874646997191536   8.334109600814720 
  6.223482885283072   9.342095020853785   8.337198118597263 
  7.467983424101111   2.874595253965927   8.336626747742827 
 12.446986014074410   2.874548467219523   8.337512484789730 
 -1.244681725647190   9.342113003465807   1.668430574746130 
  0.000173648998721   2.874595253965926   1.669330465101803 
  4.978581533325216   2.874646997191535   1.671847612029907 
  3.734078536549918   9.341908229834392   1.669330465101803 
  8.712838798747043   9.342113003465807   1.668430574746130 
  9.957485205224978   2.874548467219523   1.668444728054884 
 -4.978780632169335  11.497987490248782   8.337526638098497 
 -0.000006884370139  11.497976015985996   8.337507558602363 
  1.244919405334589   5.030454659993985   8.334109600814720 
  6.223237667765350   5.030454659993985   8.334109600814720 
  4.978788908600909  11.497903408427481   8.337512484789730 
 11.202235609649748   5.030374195307934   8.337507558602363 
 -1.244690291135796   5.030389264750517   1.668759094247366 
 -2.489376440930379  11.497987490248782   1.668430574746130 
  2.489368164498918  11.497903408427481   1.668444728054884 
  3.734078536549917   5.030366245922020   1.671888702711661 
  7.468163957469979  11.497976015985996   1.668449654242265 
  8.712847364235735   5.030389264750517   1.668759094247366 
  0.000018348051606   7.186226900921861   8.336611575819674 
  1.244714057597303   0.718614452161851   8.337198118597263 
  4.978734670990006   7.185997080580621   8.334109600814720 
  6.223443015502530   0.718614452161851   8.337198118597263 
  9.957540894366513   7.186225733565415   8.337526638098497 
 -2.489383821266677   7.186225733565414   1.668430574746130 
 11.202235609649751   0.718623749417456   8.337875945171133 
  3.734078536549863   0.718644935922613   1.669345637024952 
  2.489422402109829   7.185997080580620   1.671847612029907 
  7.468138725048111   7.186226900921860   1.669345637024952 
  8.712774833173983   0.718646862119226   1.668444728054884 
  2.489422402109830   7.185997080580621   8.334109600814720 
 13.691696386125404   0.718646862119226   1.668444728054884 
 -1.244681725647190   9.342113003465807   8.337526638098497 
  0.000173648998721   2.874595253965927   8.336626747742827 
  4.978581533325217   2.874646997191536   8.334109600814720 
  3.734078536549918   9.341908229834392   8.336626747742827 
  8.712838798747043   9.342113003465807   8.337526638098497 
  9.957485205224978   2.874548467219523   8.337512484789730 
 -3.734078536549859   9.342108742426664   1.668053049609069 
  1.244674187816768   9.342095020853785   1.668759094247366 