B C N O                                 
   1.0000000000000000     
     8.7639499999999995  -15.1796066749929999    0.0000000000000000
     8.7639499999999995   15.1796066749929999    0.0000000000000000
     0.0000000000000000    0.0000000000000000   15.0000000000000000
   B    C    N    O 
    47     1    49     1
Selective dynamics
Direct
  0.9085766286971668  0.9549329408267184  0.1110457129145439   T   T   T
  0.9048141443302492  0.0952611988697422  0.1110763551991223   T   T   T
  0.9034349752191357  0.2376177214500312  0.1110975671584467   T   T   T
  0.9031794032527909  0.3807772350786035  0.1110295261074975   T   T   T
  0.9038872078793934  0.5241825516923998  0.1110304267998369   T   T   T
  0.9073091518531792  0.6680100851829991  0.1111212390751284   T   T   T
  0.9099802391464720  0.8122318183932246  0.1109840409140637   T   T   T
  0.0505169902948206  0.9537773088909428  0.1110564187485986   T   T   T
  0.0486432990467965  0.0956847436669745  0.1110210033156677   T   T   T
  0.0462127210982579  0.2372221231539312  0.1110187738010607   T   T   T
  0.0453994768668289  0.3799628358924712  0.1110350113767035   T   T   T
  0.0460048271494369  0.5233278251463390  0.1110208409119438   T   T   T
  0.0481806149991753  0.6669973348400577  0.1110578031461732   T   T   T
  0.0504283375437170  0.8106068042798559  0.1110852304483414   T   T   T
  0.1925454703539388  0.9529624610260559  0.1110333983134957   T   T   T
  0.1916275986651279  0.0954446918683252  0.1110373907881944   T   T   T
  0.1890658007849518  0.2366134943105772  0.1110354882634451   T   T   T
  0.1873994994236356  0.3788778024237934  0.1110619832379369   T   T   T
  0.1877113076459322  0.5223850320227678  0.1111163858691638   T   T   T
  0.1892463600640661  0.6662157190411649  0.1111021786959586   T   T   T
  0.1920158369227527  0.8097449370501523  0.1110239877904059   T   T   T
  0.3348368753331646  0.9523010742917324  0.1110299816515457   T   T   T
  0.3345496537202985  0.0954709212237462  0.1110927711741540   T   T   T
  0.3330571393315777  0.2373706125088805  0.1111191073887898   T   T   T
  0.3289636509277850  0.3762706953297117  0.1109985003419372   T   T   T
  0.3286546074565153  0.5210120289462359  0.1110266776824514   T   T   T
  0.3296549772851727  0.6651996984903608  0.1111539326226566   T   T   T
  0.3342207671700150  0.8088262432922907  0.1111005569046334   T   T   T
  0.4771780539531199  0.9510601211897808  0.1110437105380522   T   T   T
  0.4770529319763075  0.0954355910662958  0.1110302985274491   T   T   T
  0.4765643316435996  0.2394739545771074  0.1111082162438052   T   T   T
  0.4745234828375885  0.3822236177956892  0.1109664827716433   T   T   T
  0.4684436235181143  0.6594451627771039  0.1109438533312215   T   T   T
  0.4771186573602984  0.8062629420775330  0.1109996400372269   T   T   T
  0.6196170259032425  0.9504499265036014  0.1110039791522416   T   T   T
  0.6191518840354193  0.0947753186297394  0.1110344404684158   T   T   T
  0.6188956995840574  0.2392999225987106  0.1110566016422505   T   T   T
  0.6185220163747968  0.3841222605291378  0.1110313458089359   T   T   T
  0.6176579545187326  0.5302864649150495  0.1111183278449480   T   T   T
  0.6207905093004532  0.8062666893774230  0.1112037621331699   T   T   T
  0.7632194172408155  0.9525529279741831  0.1109942236401928   T   T   T
  0.7615324991290751  0.0947959009319862  0.1111120523420624   T   T   T
  0.7609918188852609  0.2381671124810763  0.1111009462979785   T   T   T
  0.7608848391084185  0.3818780198122704  0.1110647360169889   T   T   T
  0.7613139688241300  0.5256422689529755  0.1110223312349489   T   T   T
  0.7688792868741697  0.6710375370733086  0.1110516186714315   T   T   T
  0.7711494833994730  0.8150702908819853  0.1110827565330541   T   T   T
  0.4658895925799131  0.5198241283871137  0.1107840274848314   T   T   T
  0.9561189766007743  0.9070840895700256  0.1111036331096947   T   T   T
  0.9541296978877355  0.0492017833137457  0.1110259196869103   T   T   T
  0.9513580184424781  0.1901900580736482  0.1110574825696743   T   T   T
  0.9504899290542022  0.3327702625366196  0.1110328458541499   T   T   T
  0.9508730999140587  0.4759790389959342  0.1109904542316455   T   T   T
  0.9532182680356511  0.6194176997818295  0.1110432233740195   T   T   T
  0.9558198165118760  0.7632638300792550  0.1111580498029194   T   T   T
  0.0977392628463366  0.9057670661036634  0.1109993050415465   T   T   T
  0.0969173247111646  0.0485804752134294  0.1110136849926814   T   T   T
  0.0945841818239672  0.1901775112412397  0.1109938412644867   T   T   T
  0.0928159447090697  0.3320772301498840  0.1110041896961202   T   T   T
  0.0928688655066748  0.4750687656343179  0.1110339830141772   T   T   T
  0.0943999147470584  0.6185940538755300  0.1110364659065797   T   T   T
  0.0969725166090408  0.7622757790724796  0.1110213223399358   T   T   T
  0.2397875337905283  0.9050067535122766  0.1110007282138719   T   T   T
  0.2395889038688681  0.0481125239010714  0.1110507986449782   T   T   T
  0.2380975225067039  0.1902866407846945  0.1110427036610433   T   T   T
  0.2349572720046995  0.3310523662328705  0.1110432439971352   T   T   T
  0.2343030316916817  0.4736448284357696  0.1110849017554338   T   T   T
  0.2351294111446888  0.6176068636458509  0.1111341652506888   T   T   T
  0.2387717341380380  0.7615127052681321  0.1110574005649865   T   T   T
  0.3820024786413099  0.9041383600234805  0.1110400487934099   T   T   T
  0.3820441440025081  0.0477076678246198  0.1110362789116878   T   T   T
  0.3814791515711028  0.1907866878604832  0.1111007905719042   T   T   T
  0.3794348659913096  0.3322410769470633  0.1110853284876066   T   T   T
  0.3746501799675873  0.4700932776926617  0.1108257630878705   T   T   T
  0.3740569881736522  0.6157647673163995  0.1110799780786851   T   T   T
  0.3810270980185504  0.7603683845551292  0.1111264501506667   T   T   T
  0.5243151670053240  0.9023526136462335  0.1110421538936590   T   T   T
  0.5241585907615072  0.0469165811209333  0.1109967126038552   T   T   T
  0.5239064146292665  0.1912969094506818  0.1110350564816440   T   T   T
  0.5232471902598627  0.3355309331847104  0.1110754985107414   T   T   T
  0.5187500386284033  0.4783653694617214  0.1107476524238611   T   T   T
  0.5001568345786259  0.6010950756004763  0.1109056114331462   T   T   T
  0.5239090665745595  0.7565812815215716  0.1108479332117482   T   T   T
  0.6676519220035582  0.9027485894617037  0.1109431565613453   T   T   T
  0.6664321754635845  0.0463970934450411  0.1110342575611300   T   T   T
  0.6659747870274535  0.1906316821431850  0.1110432991556610   T   T   T
  0.6656973541212053  0.3352380373805356  0.1110464576140386   T   T   T
  0.6650352002930281  0.4803261241447901  0.1109570820546743   T   T   T
  0.6758388116435227  0.6255846549309617  0.1115851484991729   T   T   T
  0.6792779166260597  0.7698078171827526  0.1117619294743457   T   T   T
  0.8144383106367098  0.9087262743062997  0.1110057574744334   T   T   T
  0.8096799771517352  0.0477004922902515  0.1110651940593367   T   T   T
  0.8084121223147356  0.1901679025856633  0.1111202664347844   T   T   T
  0.8080767606383981  0.3335578332281859  0.1110518760853067   T   T   T
  0.8083552236680900  0.4771011685200612  0.1110333822929305   T   T   T
  0.8124770044437523  0.6206173912561151  0.1110728461151927   T   T   T
  0.8162865425345835  0.7656520464416969  0.1106239059273597   T   T   T
  0.6348756828684499  0.6775593496252131  0.1083761997143888   T   T   T

  0.00000000E+00  0.00000000E+00  0.00000000E+00
  0.00000000E+00  0.00000000E+00  0.00000000E+00
  0.00000000E+00  0.00000000E+00  0.00000000E+00
  0.00000000E+00  0.00000000E+00  0.00000000E+00
  0.00000000E+00  0.00000000E+00  0.00000000E+00
  0.00000000E+00  0.00000000E+00  0.00000000E+00
  0.00000000E+00  0.00000000E+00  0.00000000E+00
  0.00000000E+00  0.00000000E+00  0.00000000E+00
  0.00000000E+00  0.00000000E+00  0.00000000E+00
  0.00000000E+00  0.00000000E+00  0.00000000E+00
  0.00000000E+00  0.00000000E+00  0.00000000E+00
  0.00000000E+00  0.00000000E+00  0.00000000E+00
  0.00000000E+00  0.00000000E+00  0.00000000E+00
  0.00000000E+00  0.00000000E+00  0.00000000E+00
  0.00000000E+00  0.00000000E+00  0.00000000E+00
  0.00000000E+00  0.00000000E+00  0.00000000E+00
  0.00000000E+00  0.00000000E+00  0.00000000E+00
  0.00000000E+00  0.00000000E+00  0.00000000E+00
  0.00000000E+00  0.00000000E+00  0.00000000E+00
  0.00000000E+00  0.00000000E+00  0.00000000E+00
  0.00000000E+00  0.00000000E+00  0.00000000E+00
  0.00000000E+00  0.00000000E+00  0.00000000E+00
  0.00000000E+00  0.00000000E+00  0.00000000E+00
  0.00000000E+00  0.00000000E+00  0.00000000E+00
  0.00000000E+00  0.00000000E+00  0.00000000E+00
  0.00000000E+00  0.00000000E+00  0.00000000E+00
  0.00000000E+00  0.00000000E+00  0.00000000E+00
  0.00000000E+00  0.00000000E+00  0.00000000E+00
  0.00000000E+00  0.00000000E+00  0.00000000E+00
  0.00000000E+00  0.00000000E+00  0.00000000E+00
  0.00000000E+00  0.00000000E+00  0.00000000E+00
  0.00000000E+00  0.00000000E+00  0.00000000E+00
  0.00000000E+00  0.00000000E+00  0.00000000E+00
  0.00000000E+00  0.00000000E+00  0.00000000E+00
  0.00000000E+00  0.00000000E+00  0.00000000E+00
  0.00000000E+00  0.00000000E+00  0.00000000E+00
  0.00000000E+00  0.00000000E+00  0.00000000E+00
  0.00000000E+00  0.00000000E+00  0.00000000E+00
  0.00000000E+00  0.00000000E+00  0.00000000E+00
  0.00000000E+00  0.00000000E+00  0.00000000E+00
  0.00000000E+00  0.00000000E+00  0.00000000E+00
  0.00000000E+00  0.00000000E+00  0.00000000E+00
  0.00000000E+00  0.00000000E+00  0.00000000E+00
  0.00000000E+00  0.00000000E+00  0.00000000E+00
  0.00000000E+00  0.00000000E+00  0.00000000E+00
  0.00000000E+00  0.00000000E+00  0.00000000E+00
  0.00000000E+00  0.00000000E+00  0.00000000E+00
  0.00000000E+00  0.00000000E+00  0.00000000E+00
  0.00000000E+00  0.00000000E+00  0.00000000E+00
  0.00000000E+00  0.00000000E+00  0.00000000E+00
  0.00000000E+00  0.00000000E+00  0.00000000E+00
  0.00000000E+00  0.00000000E+00  0.00000000E+00
  0.00000000E+00  0.00000000E+00  0.00000000E+00
  0.00000000E+00  0.00000000E+00  0.00000000E+00
  0.00000000E+00  0.00000000E+00  0.00000000E+00
  0.00000000E+00  0.00000000E+00  0.00000000E+00
  0.00000000E+00  0.00000000E+00  0.00000000E+00
  0.00000000E+00  0.00000000E+00  0.00000000E+00
  0.00000000E+00  0.00000000E+00  0.00000000E+00
  0.00000000E+00  0.00000000E+00  0.00000000E+00
  0.00000000E+00  0.00000000E+00  0.00000000E+00
  0.00000000E+00  0.00000000E+00  0.00000000E+00
  0.00000000E+00  0.00000000E+00  0.00000000E+00
  0.00000000E+00  0.00000000E+00  0.00000000E+00
  0.00000000E+00  0.00000000E+00  0.00000000E+00
  0.00000000E+00  0.00000000E+00  0.00000000E+00
  0.00000000E+00  0.00000000E+00  0.00000000E+00
  0.00000000E+00  0.00000000E+00  0.00000000E+00
  0.00000000E+00  0.00000000E+00  0.00000000E+00
  0.00000000E+00  0.00000000E+00  0.00000000E+00
  0.00000000E+00  0.00000000E+00  0.00000000E+00
  0.00000000E+00  0.00000000E+00  0.00000000E+00
  0.00000000E+00  0.00000000E+00  0.00000000E+00
  0.00000000E+00  0.00000000E+00  0.00000000E+00
  0.00000000E+00  0.00000000E+00  0.00000000E+00
  0.00000000E+00  0.00000000E+00  0.00000000E+00
  0.00000000E+00  0.00000000E+00  0.00000000E+00
  0.00000000E+00  0.00000000E+00  0.00000000E+00
  0.00000000E+00  0.00000000E+00  0.00000000E+00
  0.00000000E+00  0.00000000E+00  0.00000000E+00
  0.00000000E+00  0.00000000E+00  0.00000000E+00
  0.00000000E+00  0.00000000E+00  0.00000000E+00
  0.00000000E+00  0.00000000E+00  0.00000000E+00
  0.00000000E+00  0.00000000E+00  0.00000000E+00
  0.00000000E+00  0.00000000E+00  0.00000000E+00
  0.00000000E+00  0.00000000E+00  0.00000000E+00
  0.00000000E+00  0.00000000E+00  0.00000000E+00
  0.00000000E+00  0.00000000E+00  0.00000000E+00
  0.00000000E+00  0.00000000E+00  0.00000000E+00
  0.00000000E+00  0.00000000E+00  0.00000000E+00
  0.00000000E+00  0.00000000E+00  0.00000000E+00
  0.00000000E+00  0.00000000E+00  0.00000000E+00
  0.00000000E+00  0.00000000E+00  0.00000000E+00
  0.00000000E+00  0.00000000E+00  0.00000000E+00
  0.00000000E+00  0.00000000E+00  0.00000000E+00
  0.00000000E+00  0.00000000E+00  0.00000000E+00
  0.00000000E+00  0.00000000E+00  0.00000000E+00
  0.00000000E+00  0.00000000E+00  0.00000000E+00
