Species order: X N B                    
   2.51242800000000     
     5.9449720136058266    0.0000000000000000    0.0000000000000000
    -2.9724860068029120    5.1484967885702053   -0.0000000000000001
     0.0000000000000000    0.0000000000000009    5.3101128803662583
   Pb   N    B 
     1   143   143
Direct
  0.4940681430264243  0.4137007381798761  0.3750000000000000
  0.1111207897116305  0.0555405413797309  0.1251192252107441
  0.6111490211171324  0.5556260786442576  0.1237610661827996
  0.4444620094440383  0.0555348056326627  0.1251331080123286
  0.9444624965676223  0.5555673584000583  0.1252672617061606
  0.7778044644708316  0.0555688989020832  0.1250681616311886
  0.1111271794361641  0.7222302563847480  0.6248662461282263
  0.4444620094440383  0.7222605371447121  0.6248668919876718
  0.2777620994242700  0.2221916534269326  0.6254046043370105
  0.7777947657230564  0.7222351629624975  0.6248054579506637
  0.6111263940228580  0.2221976264484768  0.6250190943400339
  0.9444708776966428  0.2222406307492155  0.6248758125027080
  0.2777940208426003  0.7222417730661903  0.1251501223815968
  0.1111315936409384  0.2222324634871339  0.1250645954665454
  0.4444701679241677  0.2222006961726155  0.1245740031068735
  0.6111263940228580  0.7222621009077108  0.1249809056599655
  0.9444624965676223  0.7222284715009010  0.1252672617061606
  0.7778004273665167  0.2222287250146676  0.1251402807904400
  0.1111268051465424  0.8888834562127067  0.6248443437127359
  0.4444628114327853  0.8888980723830575  0.6248509794263483
  0.2777620994242700  0.3889037793306659  0.6254046043370105
  0.6111490211171324  0.3888562758062037  0.6262389338172009
  0.7778004273665167  0.8889050356851776  0.6248597192095595
  0.9444640534663534  0.3889077272109318  0.6247822066231501
  0.1111207897116305  0.3889135816652283  0.1251192252107441
  0.2777940208426003  0.8888855811097369  0.1251501223815968
  0.6111306302584937  0.8889133380191817  0.1251299526778953
  0.4443979131253655  0.3888656232293469  0.1242009682215901
  0.9444640534663534  0.8888896595887474  0.1252177933768506
  0.7777947657230564  0.3888929360938895  0.1251945420493357
  0.2777936425734502  0.5555891099396020  0.6249024616186756
  0.1111207897116305  0.0555405413797309  0.6248807747892564
  0.6111490211171324  0.5556260786442576  0.6262389338172009
  0.4444620094440383  0.0555348056326627  0.6248668919876718
  0.9444624965676223  0.5555673584000583  0.6247327382938415
  0.1111268051465424  0.5555766822671641  0.1251556562872668
  0.7778044644708316  0.0555688989020832  0.6249318383688114
  0.2777936425734502  0.0555378659671838  0.1250975383813232
  0.4444701679241677  0.5556028050848890  0.1245740031068735
  0.7777923599489867  0.5555628466411607  0.1250541915888219
  0.6111306302584937  0.0555506255726407  0.1251299526778953
  0.4444701679241677  0.5556028050848890  0.6254259968931261
  0.9444708776966428  0.0555635802807625  0.1251241874972922
  0.2777940208426003  0.7222417730661903  0.6248498776184030
  0.1111315936409384  0.2222324634871339  0.6249354045334551
  0.4444701679241677  0.2222006961726155  0.6254259968931261
  0.6111263940228580  0.7222621009077108  0.6250190943400339
  0.9444624965676223  0.7222284715009010  0.6247327382938415
  0.7778004273665167  0.2222287250146676  0.6248597192095595
  0.1111271794361641  0.7222302563847480  0.1251337538717744
  0.4444620094440383  0.7222605371447121  0.1251331080123286
  0.2777620994242700  0.2221916534269326  0.1245953956629884
  0.7777947657230564  0.7222351629624975  0.1251945420493357
  0.6111263940228580  0.2221976264484768  0.1249809056599655
  0.9444708776966428  0.2222406307492155  0.1251241874972922
  0.1111207897116305  0.3889135816652283  0.6248807747892564
  0.2777940208426003  0.8888855811097369  0.6248498776184030
  0.6111306302584937  0.8889133380191817  0.6248700473221058
  0.4443979131253655  0.3888656232293469  0.6257990317784111
  0.9444640534663534  0.8888896595887474  0.6247822066231501
  0.1111268051465424  0.8888834562127067  0.1251556562872668
  0.7777947657230564  0.3888929360938895  0.6248054579506637
  0.4444628114327853  0.8888980723830575  0.1251490205736535
  0.2777620994242700  0.3889037793306659  0.1245953956629884
  0.2777936425734502  0.5555891099396020  0.1250975383813232
  0.6111490211171324  0.3888562758062037  0.1237610661827996
  0.7778004273665167  0.8889050356851776  0.1251402807904400
  0.9444640534663534  0.3889077272109318  0.1252177933768506
  0.1111268051465424  0.5555766822671641  0.6248443437127359
  0.2777936425734502  0.0555378659671838  0.6249024616186756
  0.7777923599489867  0.5555628466411607  0.6249458084111761
  0.6111306302584937  0.0555506255726407  0.6248700473221058
  0.9444708776966428  0.0555635802807625  0.6248758125027080
  0.0577900830584872  0.1123377095598905  0.3750000000000000
  0.5553010347411965  0.6183653482635852  0.3750000000000000
  0.3876307334962821  0.1034519317225026  0.3750000000000000
  0.8886337276344924  0.6109835304839178  0.3750000000000000
  0.7242356616947268  0.1113746364507389  0.3750000000000000
  0.0555333188921326  0.7777683027271699  0.8750000000000000
  0.3888755279675327  0.7777702579472131  0.8750000000000000
  0.2222007933062648  0.2777670633198009  0.8750000000000000
  0.7222087979424729  0.7777701245607790  0.8750000000000000
  0.5555381516714708  0.2777690066304851  0.8750000000000000
  0.8888753381828268  0.2777714124551273  0.8750000000000000
  0.2211618763376761  0.7772476048355063  0.3750000000000000
  0.0577900830584873  0.2787857068319322  0.3750000000000000
  0.3863012060747180  0.2628611938256671  0.3750000000000000
  0.5563867384719582  0.7816083021267218  0.3750000000000000
  0.8899322034267110  0.7788565890290059  0.3750000000000000
  0.7240392992292644  0.2768477938907138  0.3750000000000000
  0.0555350488661179  0.9444353521014238  0.8750000000000000
  0.3888755279675327  0.9444386033536550  0.8750000000000000
  0.2222001575099052  0.4444321042799050  0.8750000000000000
  0.5555362720613406  0.4444348026973346  0.8750000000000000
  0.7222101304883145  0.9444378304870131  0.8750000000000000
  0.8888728821223902  0.4444348473743286  0.8750000000000000
  0.0558845422543609  0.4450045709840265  0.3750000000000000
  0.2210518945167066  0.9421693475315580  0.3750000000000000
  0.5565616672213572  0.9449475002773426  0.3750000000000000
  0.3863012060747183  0.4567733455823870  0.3750000000000000
  0.8908525343693386  0.9460719714140506  0.3750000000000000
  0.7243166321138734  0.4445337956964408  0.3750000000000000
  0.2222017406494008  0.6110984608629333  0.8750000000000000
  0.0555359018139962  0.1111009939962329  0.8750000000000000
  0.5555381516714708  0.6111024783743217  0.8750000000000000
  0.3888722498659212  0.1111048266525086  0.8750000000000000
  0.8888707206070846  0.6111020269702134  0.8750000000000000
  0.0548047684545328  0.6110309157389437  0.3750000000000000
  0.7222101304883145  0.1111056333346357  0.8750000000000000
  0.2218531202077745  0.1087709053933949  0.3750000000000000
  0.3876307334962821  0.6175121351071233  0.3750000000000000
  0.7243166321138734  0.6131161697507659  0.3750000000000000
  0.5563867384719582  0.1081117696785730  0.3750000000000000
  0.3888722498659212  0.6111007565467559  0.8750000000000000
  0.8912039775851386  0.1122686554592406  0.3750000000000000
  0.2222030465076101  0.7777681899204744  0.8750000000000000
  0.0555359018139962  0.2777682411510989  0.8750000000000000
  0.3888714369934644  0.2777696308323687  0.8750000000000000
  0.5555420271837418  0.7777701999334226  0.8750000000000000
  0.8888728821223902  0.7777713680813981  0.8750000000000000
  0.7222087979424729  0.2777720067150305  0.8750000000000000
  0.0548047684545328  0.7771071860489249  0.3750000000000000
  0.3884113926989434  0.7796082290076640  0.3750000000000000
  0.2256582308391620  0.2794957820862484  0.3750000000000000
  0.7240392992292644  0.7805248386718878  0.3750000000000000
  0.5553010347411966  0.2702690198109475  0.3750000000000000
  0.8908525343693386  0.2781138962886245  0.3750000000000000
  0.0555350488661179  0.4444330300980220  0.8750000000000000
  0.2222017406494008  0.9444366131198031  0.8750000000000000
  0.5555436664654891  0.9444384998994080  0.8750000000000000
  0.3888714369934644  0.4444351394944305  0.8750000000000000
  0.8888753381828268  0.9444372590610354  0.8750000000000000
  0.0558845422543609  0.9442133046036640  0.3750000000000000
  0.7222081991964175  0.4444377945907627  0.8750000000000000
  0.3884113926989434  0.9421364970246148  0.3750000000000000
  0.2218531202077745  0.4464155481477147  0.3750000000000000
  0.2210518945167066  0.6122158803184840  0.3750000000000000
  0.7242356616947268  0.9461943585773248  0.3750000000000000
  0.8899322034267110  0.4444089477310392  0.3750000000000000
  0.0555333188921325  0.6110983494982990  0.8750000000000000
  0.2222001575099052  0.1111013865633353  0.8750000000000000
  0.7222081991964175  0.6111037379389875  0.8750000000000000
  0.5555420271837418  0.1111051605836553  0.8750000000000000
  0.8888753614183103  0.1111043473758264  0.8750000000000000
  0.1114679528155890  0.0550463994457654  0.3750000000000000
  0.6196611694871813  0.5761884600469344  0.3750000000000000
  0.4448611795927693  0.0512282097523387  0.3750000000000000
  0.9446691571405762  0.5555026896944748  0.3750000000000000
  0.7804223694889201  0.0568778514111271  0.3750000000000000
  0.1111036034230519  0.7222184683781914  0.8750000000000000
  0.4444176742170703  0.7222271845058009  0.8750000000000000
  0.2777073111556698  0.2221822923296674  0.8750000000000000
  0.7777948008629393  0.7222598468995997  0.8750000000000000
  0.6111034633845186  0.2221829580588219  0.8750000000000000
  0.9444346230642001  0.2222083491734542  0.8750000000000000
  0.2771574897613254  0.7229149059148571  0.3750000000000000
  0.1139666153742942  0.2236499743538118  0.3750000000000000
  0.4422896878046885  0.2112030923722948  0.3750000000000000
  0.6134800670192065  0.7295823259496007  0.3750000000000000
  0.9446691571405762  0.7224998007794363  0.3750000000000000
  0.7803613881524215  0.2218611346542286  0.3750000000000000
  0.1110956242390130  0.8888877521193558  0.8750000000000000
  0.4444275274231118  0.8888804303782215  0.8750000000000000
  0.2777073111556698  0.3888583521593324  0.8750000000000000
  0.6110999277679946  0.3888629888744268  0.8750000000000000
  0.7777863183732762  0.8889200679496708  0.8750000000000000
  0.9444482106008851  0.3888693454255199  0.8750000000000000
  0.1114679528155889  0.3897548867031519  0.3750000000000000
  0.2771574897613254  0.8875759171797957  0.3750000000000000
  0.6132702653984549  0.8917863177862395  0.3750000000000000
  0.9456972912395361  0.8901956399714731  0.3750000000000000
  0.7806152361709557  0.3875883476251600  0.3750000000000000
  0.2777333108863030  0.5555394415944184  0.8750000000000000
  0.1110762519143724  0.0555439057722729  0.8750000000000000
  0.6110999277679946  0.5555702722268985  0.8750000000000000
  0.4444176742170703  0.0555238230446059  0.8750000000000000
  0.9444573969234610  0.5555505007258070  0.8750000000000000
  0.1105026317240627  0.5558944420972666  0.3750000000000000
  0.7777808754510385  0.0555571043921870  0.8750000000000000
  0.2765279353834444  0.0521918553009744  0.3750000000000000
  0.4422896878046885  0.5644199287657282  0.3750000000000000
  0.7792682156152557  0.5563007744742942  0.3750000000000000
  0.6132702653984546  0.0548172809455437  0.3750000000000000
  0.4443968668726828  0.5555550433214385  0.8750000000000000
  0.9469412207092934  0.0572356330710525  0.3750000000000000
  0.2777544351270316  0.7222123681926226  0.8750000000000000
  0.1110655841358453  0.2221994587345872  0.8750000000000000
  0.4443968668726828  0.2221751568845813  0.8750000000000000
  0.6111034633845186  0.7222538386590254  0.8750000000000000
  0.9444573969234610  0.7222402295309935  0.8750000000000000
  0.7777863183732762  0.2221995837569338  0.8750000000000000
  0.1104590173511348  0.7218961753422324  0.3750000000000000
  0.4448611795927693  0.7269663031737654  0.3750000000000000
  0.2776731530368313  0.2196893432960173  0.3750000000000000
  0.7806152361709557  0.7263602218791243  0.3750000000000000
  0.6134800670192065  0.2172310744029317  0.3750000000000000
  0.9469412207092934  0.2230389209715770  0.3750000000000000
  0.1110762519143724  0.3888656794754283  0.8750000000000000
  0.2777544351270316  0.8888754002677381  0.8750000000000000
  0.6111075098277030  0.8889025375310886  0.8750000000000000
  0.4443847238003640  0.3888590285668460  0.8750000000000000
  0.9444482106008851  0.8889121985086925  0.8750000000000000
  0.1105026317240627  0.8879415229601246  0.3750000000000000
  0.7777948008629393  0.3888682872966690  0.8750000000000000
  0.4451775910547665  0.8892554621940474  0.3750000000000000
  0.2776731530368313  0.3913171430741416  0.3750000000000000
  0.2765279353834444  0.5576694134158048  0.3750000000000000
  0.6196611694871814  0.3768060427735744  0.3750000000000000
  0.7803613881524240  0.8918335868315237  0.3750000000000000
  0.9456972912395361  0.3888349846013880  0.3750000000000000
  0.1110956242390130  0.5555412054529852  0.8750000000000000
  0.2777333108863030  0.0555272026252206  0.8750000000000000
  0.7777967921709001  0.5555650627521178  0.8750000000000000
  0.6111075098277030  0.0555383056299438  0.8750000000000000
  0.9444346230642001  0.0555596072240799  0.8750000000000000
  0.0555760827544973  0.1111156760394052  0.1249472282026319
  0.5555100448366326  0.6112611071512355  0.1237313805810045
  0.3888024104369175  0.1109299396139895  0.1246948406406548
  0.8890680690044938  0.6112007011689184  0.1248496032407844
  0.7222495717243749  0.1110767251851780  0.1248737483334609
  0.0556625252127667  0.7778298820248081  0.6250484313705363
  0.3888573115284992  0.7778164205676807  0.6250553775229022
  0.2221475551963466  0.2777404442648410  0.6254484907426580
  0.7222852561792855  0.7779209600476013  0.6253257604907174
  0.5555100448366326  0.2775822710187340  0.6262686194189949
  0.8889619145013590  0.2777771074875866  0.6250606258710550
  0.2222501479250137  0.7777917406291741  0.1249474387791118
  0.0555760827544973  0.2777937400484276  0.1249472282026319
  0.3886528961974456  0.2774848406673157  0.1239404341863468
  0.5555221974615181  0.7778873796543262  0.1247871193954685
  0.8890338633599970  0.7778915226012683  0.1249135751884050
  0.7222852561792855  0.2776976294650194  0.1246742395092842
  0.0556126031844182  0.9444649390831813  0.6250232891623571
  0.3888573115284992  0.9443742242941539  0.6250553775229022
  0.2221626252046322  0.4444832492750562  0.6252224121948383
  0.5556388609265436  0.4444860971299361  0.6268763289023251
  0.7222495717243749  0.9445061798725325  0.6251262516665385
  0.8890338633599970  0.4444756740920641  0.6250864248115946
  0.0556126031844182  0.4444809974345662  0.1249767108376428
  0.2222266219326249  0.9443994866998795  0.1249606205043605
  0.5555379532779670  0.9444356433056472  0.1249205246639417
  0.3886528961974456  0.4445013888634657  0.1239404341863468
  0.8889619145013590  0.9445181403471092  0.1249393741289446
  0.7223732864724732  0.4444602952078639  0.1239821225577811
  0.2222266219326249  0.6111604685660819  0.6250393794956401
  0.0555760827544973  0.1111156760394052  0.6250527717973696
  0.5555100448366326  0.6112611071512355  0.6262686194189949
  0.3888024104369175  0.1109299396139895  0.6253051593593461
  0.8890680690044938  0.6112007011689184  0.6251503967592148
  0.0556625252127667  0.6111659765212918  0.1249515686294645
  0.7222495717243749  0.1110767251851780  0.6251262516665385
  0.2221626252046322  0.1110127092629116  0.1247775878051618
  0.3888024104369175  0.6112058041562727  0.1246948406406548
  0.7223732864724732  0.6112463245979464  0.1239821225577811
  0.5555221974615181  0.1109681511405260  0.1247871193954685
  0.3888024104369175  0.6112058041562727  0.6253051593593461
  0.8889365408887524  0.1111349371110479  0.1249189309369179
  0.2222501479250137  0.7777917406291741  0.6250525612208874
  0.0555760827544973  0.2777937400484276  0.6250527717973696
  0.3886528961974456  0.2774848406673157  0.6260595658136522
  0.5555221974615181  0.7778873796543262  0.6252128806045313
  0.8890338633599970  0.7778915226012683  0.6250864248115946
  0.7222852561792855  0.2776976294650194  0.6253257604907174
  0.0556625252127667  0.7778298820248081  0.1249515686294645
  0.3888573115284992  0.7778164205676807  0.1249446224770970
  0.2221475551963466  0.2777404442648410  0.1245515092573415
  0.7222852561792855  0.7779209600476013  0.1246742395092842
  0.5555100448366326  0.2775822710187340  0.1237313805810045
  0.8889619145013590  0.2777771074875866  0.1249393741289446
  0.0556126031844182  0.4444809974345662  0.6250232891623571
  0.2222266219326249  0.9443994866998795  0.6250393794956401
  0.5555379532779670  0.9444356433056472  0.6250794753360579
  0.3886528961974456  0.4445013888634657  0.6260595658136522
  0.8889619145013590  0.9445181403471092  0.6250606258710550
  0.0556126031844182  0.9444649390831813  0.1249767108376428
  0.7223732864724732  0.4444602952078639  0.6260178774422203
  0.3888573115284992  0.9443742242941539  0.1249446224770970
  0.2221626252046322  0.4444832492750562  0.1247775878051618
  0.2222266219326249  0.6111604685660819  0.1249606205043605
  0.5556388609265436  0.4444860971299361  0.1231236710976747
  0.7222495717243749  0.9445061798725325  0.1248737483334609
  0.8890338633599970  0.4444756740920641  0.1249135751884050
  0.0556625252127667  0.6111659765212918  0.6250484313705363
  0.2221626252046322  0.1110127092629116  0.6252224121948383
  0.7223732864724732  0.6112463245979464  0.6260178774422203
  0.5555221974615181  0.1109681511405260  0.6252128806045313
  0.8889365408887524  0.1111349371110479  0.6250810690630819
 
  0.00000000E+00  0.00000000E+00  0.00000000E+00
  0.00000000E+00  0.00000000E+00  0.00000000E+00
  0.00000000E+00  0.00000000E+00  0.00000000E+00
  0.00000000E+00  0.00000000E+00  0.00000000E+00
  0.00000000E+00  0.00000000E+00  0.00000000E+00
  0.00000000E+00  0.00000000E+00  0.00000000E+00
  0.00000000E+00  0.00000000E+00  0.00000000E+00
  0.00000000E+00  0.00000000E+00  0.00000000E+00
  0.00000000E+00  0.00000000E+00  0.00000000E+00
  0.00000000E+00  0.00000000E+00  0.00000000E+00
  0.00000000E+00  0.00000000E+00  0.00000000E+00
  0.00000000E+00  0.00000000E+00  0.00000000E+00
  0.00000000E+00  0.00000000E+00  0.00000000E+00
  0.00000000E+00  0.00000000E+00  0.00000000E+00
  0.00000000E+00  0.00000000E+00  0.00000000E+00
  0.00000000E+00  0.00000000E+00  0.00000000E+00
  0.00000000E+00  0.00000000E+00  0.00000000E+00
  0.00000000E+00  0.00000000E+00  0.00000000E+00
  0.00000000E+00  0.00000000E+00  0.00000000E+00
  0.00000000E+00  0.00000000E+00  0.00000000E+00
  0.00000000E+00  0.00000000E+00  0.00000000E+00
  0.00000000E+00  0.00000000E+00  0.00000000E+00
  0.00000000E+00  0.00000000E+00  0.00000000E+00
  0.00000000E+00  0.00000000E+00  0.00000000E+00
  0.00000000E+00  0.00000000E+00  0.00000000E+00
  0.00000000E+00  0.00000000E+00  0.00000000E+00
  0.00000000E+00  0.00000000E+00  0.00000000E+00
  0.00000000E+00  0.00000000E+00  0.00000000E+00
  0.00000000E+00  0.00000000E+00  0.00000000E+00
  0.00000000E+00  0.00000000E+00  0.00000000E+00
  0.00000000E+00  0.00000000E+00  0.00000000E+00
  0.00000000E+00  0.00000000E+00  0.00000000E+00
  0.00000000E+00  0.00000000E+00  0.00000000E+00
  0.00000000E+00  0.00000000E+00  0.00000000E+00
  0.00000000E+00  0.00000000E+00  0.00000000E+00
  0.00000000E+00  0.00000000E+00  0.00000000E+00
  0.00000000E+00  0.00000000E+00  0.00000000E+00
  0.00000000E+00  0.00000000E+00  0.00000000E+00
  0.00000000E+00  0.00000000E+00  0.00000000E+00
  0.00000000E+00  0.00000000E+00  0.00000000E+00
  0.00000000E+00  0.00000000E+00  0.00000000E+00
  0.00000000E+00  0.00000000E+00  0.00000000E+00
  0.00000000E+00  0.00000000E+00  0.00000000E+00
  0.00000000E+00  0.00000000E+00  0.00000000E+00
  0.00000000E+00  0.00000000E+00  0.00000000E+00
  0.00000000E+00  0.00000000E+00  0.00000000E+00
  0.00000000E+00  0.00000000E+00  0.00000000E+00
  0.00000000E+00  0.00000000E+00  0.00000000E+00
  0.00000000E+00  0.00000000E+00  0.00000000E+00
  0.00000000E+00  0.00000000E+00  0.00000000E+00
  0.00000000E+00  0.00000000E+00  0.00000000E+00
  0.00000000E+00  0.00000000E+00  0.00000000E+00
  0.00000000E+00  0.00000000E+00  0.00000000E+00
  0.00000000E+00  0.00000000E+00  0.00000000E+00
  0.00000000E+00  0.00000000E+00  0.00000000E+00
  0.00000000E+00  0.00000000E+00  0.00000000E+00
  0.00000000E+00  0.00000000E+00  0.00000000E+00
  0.00000000E+00  0.00000000E+00  0.00000000E+00
  0.00000000E+00  0.00000000E+00  0.00000000E+00
  0.00000000E+00  0.00000000E+00  0.00000000E+00
  0.00000000E+00  0.00000000E+00  0.00000000E+00
  0.00000000E+00  0.00000000E+00  0.00000000E+00
  0.00000000E+00  0.00000000E+00  0.00000000E+00
  0.00000000E+00  0.00000000E+00  0.00000000E+00
  0.00000000E+00  0.00000000E+00  0.00000000E+00
  0.00000000E+00  0.00000000E+00  0.00000000E+00
  0.00000000E+00  0.00000000E+00  0.00000000E+00
  0.00000000E+00  0.00000000E+00  0.00000000E+00
  0.00000000E+00  0.00000000E+00  0.00000000E+00
  0.00000000E+00  0.00000000E+00  0.00000000E+00
  0.00000000E+00  0.00000000E+00  0.00000000E+00
  0.00000000E+00  0.00000000E+00  0.00000000E+00
  0.00000000E+00  0.00000000E+00  0.00000000E+00
  0.00000000E+00  0.00000000E+00  0.00000000E+00
  0.00000000E+00  0.00000000E+00  0.00000000E+00
  0.00000000E+00  0.00000000E+00  0.00000000E+00
  0.00000000E+00  0.00000000E+00  0.00000000E+00
  0.00000000E+00  0.00000000E+00  0.00000000E+00
  0.00000000E+00  0.00000000E+00  0.00000000E+00
  0.00000000E+00  0.00000000E+00  0.00000000E+00
  0.00000000E+00  0.00000000E+00  0.00000000E+00
  0.00000000E+00  0.00000000E+00  0.00000000E+00
  0.00000000E+00  0.00000000E+00  0.00000000E+00
  0.00000000E+00  0.00000000E+00  0.00000000E+00
  0.00000000E+00  0.00000000E+00  0.00000000E+00
  0.00000000E+00  0.00000000E+00  0.00000000E+00
  0.00000000E+00  0.00000000E+00  0.00000000E+00
  0.00000000E+00  0.00000000E+00  0.00000000E+00
  0.00000000E+00  0.00000000E+00  0.00000000E+00
  0.00000000E+00  0.00000000E+00  0.00000000E+00
  0.00000000E+00  0.00000000E+00  0.00000000E+00
  0.00000000E+00  0.00000000E+00  0.00000000E+00
  0.00000000E+00  0.00000000E+00  0.00000000E+00
  0.00000000E+00  0.00000000E+00  0.00000000E+00
  0.00000000E+00  0.00000000E+00  0.00000000E+00
  0.00000000E+00  0.00000000E+00  0.00000000E+00
  0.00000000E+00  0.00000000E+00  0.00000000E+00
  0.00000000E+00  0.00000000E+00  0.00000000E+00
  0.00000000E+00  0.00000000E+00  0.00000000E+00
  0.00000000E+00  0.00000000E+00  0.00000000E+00
  0.00000000E+00  0.00000000E+00  0.00000000E+00
  0.00000000E+00  0.00000000E+00  0.00000000E+00
  0.00000000E+00  0.00000000E+00  0.00000000E+00
  0.00000000E+00  0.00000000E+00  0.00000000E+00
  0.00000000E+00  0.00000000E+00  0.00000000E+00
  0.00000000E+00  0.00000000E+00  0.00000000E+00
  0.00000000E+00  0.00000000E+00  0.00000000E+00
  0.00000000E+00  0.00000000E+00  0.00000000E+00
  0.00000000E+00  0.00000000E+00  0.00000000E+00
  0.00000000E+00  0.00000000E+00  0.00000000E+00
  0.00000000E+00  0.00000000E+00  0.00000000E+00
  0.00000000E+00  0.00000000E+00  0.00000000E+00
  0.00000000E+00  0.00000000E+00  0.00000000E+00
  0.00000000E+00  0.00000000E+00  0.00000000E+00
  0.00000000E+00  0.00000000E+00  0.00000000E+00
  0.00000000E+00  0.00000000E+00  0.00000000E+00
  0.00000000E+00  0.00000000E+00  0.00000000E+00
  0.00000000E+00  0.00000000E+00  0.00000000E+00
  0.00000000E+00  0.00000000E+00  0.00000000E+00
  0.00000000E+00  0.00000000E+00  0.00000000E+00
  0.00000000E+00  0.00000000E+00  0.00000000E+00
  0.00000000E+00  0.00000000E+00  0.00000000E+00
  0.00000000E+00  0.00000000E+00  0.00000000E+00
  0.00000000E+00  0.00000000E+00  0.00000000E+00
  0.00000000E+00  0.00000000E+00  0.00000000E+00
  0.00000000E+00  0.00000000E+00  0.00000000E+00
  0.00000000E+00  0.00000000E+00  0.00000000E+00
  0.00000000E+00  0.00000000E+00  0.00000000E+00
  0.00000000E+00  0.00000000E+00  0.00000000E+00
  0.00000000E+00  0.00000000E+00  0.00000000E+00
  0.00000000E+00  0.00000000E+00  0.00000000E+00
  0.00000000E+00  0.00000000E+00  0.00000000E+00
  0.00000000E+00  0.00000000E+00  0.00000000E+00
  0.00000000E+00  0.00000000E+00  0.00000000E+00
  0.00000000E+00  0.00000000E+00  0.00000000E+00
  0.00000000E+00  0.00000000E+00  0.00000000E+00
  0.00000000E+00  0.00000000E+00  0.00000000E+00
  0.00000000E+00  0.00000000E+00  0.00000000E+00
  0.00000000E+00  0.00000000E+00  0.00000000E+00
  0.00000000E+00  0.00000000E+00  0.00000000E+00
  0.00000000E+00  0.00000000E+00  0.00000000E+00
  0.00000000E+00  0.00000000E+00  0.00000000E+00
  0.00000000E+00  0.00000000E+00  0.00000000E+00
  0.00000000E+00  0.00000000E+00  0.00000000E+00
  0.00000000E+00  0.00000000E+00  0.00000000E+00
  0.00000000E+00  0.00000000E+00  0.00000000E+00
  0.00000000E+00  0.00000000E+00  0.00000000E+00
  0.00000000E+00  0.00000000E+00  0.00000000E+00
  0.00000000E+00  0.00000000E+00  0.00000000E+00
  0.00000000E+00  0.00000000E+00  0.00000000E+00
  0.00000000E+00  0.00000000E+00  0.00000000E+00
  0.00000000E+00  0.00000000E+00  0.00000000E+00
  0.00000000E+00  0.00000000E+00  0.00000000E+00
  0.00000000E+00  0.00000000E+00  0.00000000E+00
  0.00000000E+00  0.00000000E+00  0.00000000E+00
  0.00000000E+00  0.00000000E+00  0.00000000E+00
  0.00000000E+00  0.00000000E+00  0.00000000E+00
  0.00000000E+00  0.00000000E+00  0.00000000E+00
  0.00000000E+00  0.00000000E+00  0.00000000E+00
  0.00000000E+00  0.00000000E+00  0.00000000E+00
  0.00000000E+00  0.00000000E+00  0.00000000E+00
  0.00000000E+00  0.00000000E+00  0.00000000E+00
  0.00000000E+00  0.00000000E+00  0.00000000E+00
  0.00000000E+00  0.00000000E+00  0.00000000E+00
  0.00000000E+00  0.00000000E+00  0.00000000E+00
  0.00000000E+00  0.00000000E+00  0.00000000E+00
  0.00000000E+00  0.00000000E+00  0.00000000E+00
  0.00000000E+00  0.00000000E+00  0.00000000E+00
  0.00000000E+00  0.00000000E+00  0.00000000E+00
  0.00000000E+00  0.00000000E+00  0.00000000E+00
  0.00000000E+00  0.00000000E+00  0.00000000E+00
  0.00000000E+00  0.00000000E+00  0.00000000E+00
  0.00000000E+00  0.00000000E+00  0.00000000E+00
  0.00000000E+00  0.00000000E+00  0.00000000E+00
  0.00000000E+00  0.00000000E+00  0.00000000E+00
  0.00000000E+00  0.00000000E+00  0.00000000E+00
  0.00000000E+00  0.00000000E+00  0.00000000E+00
  0.00000000E+00  0.00000000E+00  0.00000000E+00
  0.00000000E+00  0.00000000E+00  0.00000000E+00
  0.00000000E+00  0.00000000E+00  0.00000000E+00
  0.00000000E+00  0.00000000E+00  0.00000000E+00
  0.00000000E+00  0.00000000E+00  0.00000000E+00
  0.00000000E+00  0.00000000E+00  0.00000000E+00
  0.00000000E+00  0.00000000E+00  0.00000000E+00
  0.00000000E+00  0.00000000E+00  0.00000000E+00
  0.00000000E+00  0.00000000E+00  0.00000000E+00
  0.00000000E+00  0.00000000E+00  0.00000000E+00
  0.00000000E+00  0.00000000E+00  0.00000000E+00
  0.00000000E+00  0.00000000E+00  0.00000000E+00
  0.00000000E+00  0.00000000E+00  0.00000000E+00
  0.00000000E+00  0.00000000E+00  0.00000000E+00
  0.00000000E+00  0.00000000E+00  0.00000000E+00
  0.00000000E+00  0.00000000E+00  0.00000000E+00
  0.00000000E+00  0.00000000E+00  0.00000000E+00
  0.00000000E+00  0.00000000E+00  0.00000000E+00
  0.00000000E+00  0.00000000E+00  0.00000000E+00
  0.00000000E+00  0.00000000E+00  0.00000000E+00
  0.00000000E+00  0.00000000E+00  0.00000000E+00
  0.00000000E+00  0.00000000E+00  0.00000000E+00
  0.00000000E+00  0.00000000E+00  0.00000000E+00
  0.00000000E+00  0.00000000E+00  0.00000000E+00
  0.00000000E+00  0.00000000E+00  0.00000000E+00
  0.00000000E+00  0.00000000E+00  0.00000000E+00
  0.00000000E+00  0.00000000E+00  0.00000000E+00
  0.00000000E+00  0.00000000E+00  0.00000000E+00
  0.00000000E+00  0.00000000E+00  0.00000000E+00
  0.00000000E+00  0.00000000E+00  0.00000000E+00
  0.00000000E+00  0.00000000E+00  0.00000000E+00
  0.00000000E+00  0.00000000E+00  0.00000000E+00
  0.00000000E+00  0.00000000E+00  0.00000000E+00
  0.00000000E+00  0.00000000E+00  0.00000000E+00
  0.00000000E+00  0.00000000E+00  0.00000000E+00
  0.00000000E+00  0.00000000E+00  0.00000000E+00
  0.00000000E+00  0.00000000E+00  0.00000000E+00
  0.00000000E+00  0.00000000E+00  0.00000000E+00
  0.00000000E+00  0.00000000E+00  0.00000000E+00
  0.00000000E+00  0.00000000E+00  0.00000000E+00
  0.00000000E+00  0.00000000E+00  0.00000000E+00
  0.00000000E+00  0.00000000E+00  0.00000000E+00
  0.00000000E+00  0.00000000E+00  0.00000000E+00
  0.00000000E+00  0.00000000E+00  0.00000000E+00
  0.00000000E+00  0.00000000E+00  0.00000000E+00
  0.00000000E+00  0.00000000E+00  0.00000000E+00
  0.00000000E+00  0.00000000E+00  0.00000000E+00
  0.00000000E+00  0.00000000E+00  0.00000000E+00
  0.00000000E+00  0.00000000E+00  0.00000000E+00
  0.00000000E+00  0.00000000E+00  0.00000000E+00
  0.00000000E+00  0.00000000E+00  0.00000000E+00
  0.00000000E+00  0.00000000E+00  0.00000000E+00
  0.00000000E+00  0.00000000E+00  0.00000000E+00
  0.00000000E+00  0.00000000E+00  0.00000000E+00
  0.00000000E+00  0.00000000E+00  0.00000000E+00
  0.00000000E+00  0.00000000E+00  0.00000000E+00
  0.00000000E+00  0.00000000E+00  0.00000000E+00
  0.00000000E+00  0.00000000E+00  0.00000000E+00
  0.00000000E+00  0.00000000E+00  0.00000000E+00
  0.00000000E+00  0.00000000E+00  0.00000000E+00
  0.00000000E+00  0.00000000E+00  0.00000000E+00
  0.00000000E+00  0.00000000E+00  0.00000000E+00
  0.00000000E+00  0.00000000E+00  0.00000000E+00
  0.00000000E+00  0.00000000E+00  0.00000000E+00
  0.00000000E+00  0.00000000E+00  0.00000000E+00
  0.00000000E+00  0.00000000E+00  0.00000000E+00
  0.00000000E+00  0.00000000E+00  0.00000000E+00
  0.00000000E+00  0.00000000E+00  0.00000000E+00
  0.00000000E+00  0.00000000E+00  0.00000000E+00
  0.00000000E+00  0.00000000E+00  0.00000000E+00
  0.00000000E+00  0.00000000E+00  0.00000000E+00