 B N C 
 1.0
 17.527899999999772   0.000000000000000   0.000000000000000
 -8.763949999999658  15.179606674993195   0.000000000000000
  0.000000000000001   0.000000000000002  15.000000000000000
 B N C 
  47  47   4
Cartesian
  7.513486862057414  14.456533213932396   1.664338299273300 
 15.025636169927685   1.446173717835546   1.664858209572960 
 13.773002025245990   3.614565368116995   1.664806366891275 
 12.519143891711725   5.783560862051211   1.663952537920395 
 11.267660432096161   7.956687612639100   1.664887929995490 
 10.047531660805371  10.138088418115533   1.668666832691940 
  8.766961761128764  12.282038263361288   1.665490541584800 
 -7.511198175632269  14.459605765144568   1.664196040071720 
  0.002482670016588   1.447786449736767   1.664091145119960 
 -1.248436579532336   3.615115996727563   1.664079130824750 
 -2.501159559628511   5.782384978474580   1.664553301281960 
 -3.756176762856703   7.950893932379905   1.664816228907900 
 -4.993129623777675  10.119737783328796   1.665697058445510 
 -6.253138381981143  12.301881100256335   1.664915047390995 
 -5.006222490494051  14.460269126323483   1.664328971589990 
  2.506849417587145   1.450566966382329   1.664661251544225 
  1.257198407589683   3.615623791285012   1.664417929325700 
  0.006978158378146   5.783625635798287   1.664677295445885 
 -1.257404035803585   7.951166146561540   1.665646871087505 
 -2.500989747840111  10.119737783328796   1.666193779696815 
 -3.755132302981236  12.290120430669530   1.664910559239540 
 -2.503299075918939  14.455578969361031   1.664380793598570 
  5.007697824442904   1.436770124984560   1.665193396652160 
  3.766989374712956   3.613813521611676   1.666075823705625 
  2.518917937449586   5.789863433429814   1.666491926833350 
  1.235263974706545   7.955640262629309   1.665906418001880 
 -0.008787488960327  10.124186067437432   1.666405125899205 
 -1.253428666999449  12.290739918235511   1.665887698957830 
 -0.001661695826476  14.458805539632982   1.664031709685430 
  7.510708228788932   1.444190730987994   1.663386330973875 
  6.251453761338885   3.597335054548593   1.665110330098365 
  3.714436180242147   7.971877533025320   1.668633012991380 
  2.483423553328303  10.130322808069741   1.665823599510000 
  1.246691135342286  12.293542075851512   1.665524364370155 
  2.504472309344536  14.455532308263807   1.664389444677600 
 10.013694391530681   1.447608609086574   1.663438374095490 
  8.754749126177703   3.617172922452812   1.664252506872315 
  7.480824405705723   5.783952214435766   1.666154610898605 
  4.993062519519028  10.094331748301673   1.666117285717170 
  3.757643177361555  12.279902709039852   1.664600787333150 
  5.006505895275636  14.457742689360895   1.664356615782465 
 12.519830679131090   1.445693678935432   1.664728365061710 
 11.267024897082550   3.611935276301559   1.664549402575200 
 10.015309537601484   5.778623082965038   1.664492022436185 
  8.776246916898906   7.943897615214934   1.668762376879815 
  7.508075449060510  10.119737783328796   1.669076414281890 
  6.255987871396316  12.291996599110615   1.664688249983370 
  8.763619878503881  13.738757542178190   1.664306873486745 
 16.277981546875427   0.726331314412436   1.664185990126845 
 15.027400116541504   2.893080584710355   1.664405249687805 
 13.773996569202243   5.059868891664398   1.664162358564615 
 12.523621671881402   7.224451358739819   1.663761290979510 
 11.304091180712426   9.399397951203436   1.665764932133655 
 10.036006279908648  11.595454531853964   1.665676307700840 
 -6.253573488944213  13.749903702369830   1.663988826749790 
  1.255721354613046   0.732009960673688   1.663793811953775 
  0.007028510893494   2.896454010874189   1.663802599086615 
 -1.241904023950946   5.059868891664398   1.664019347422425 
 -2.501571232141320   7.225468851722139   1.664706756097110 
 -3.740734570911098   9.395283481860202   1.665391688231175 
 -4.997630070389848  11.572482938353589   1.664992446496395 
 -3.752926022741985  13.739049006815248   1.664107431314460 
  3.757306404938845   0.728265548926444   1.664688854547285 
  2.513181961702332   2.904551337235815   1.664621183273070 
  1.273871252275421   5.063826086216399   1.664667627282285 
 -0.003023702323052   7.227118365901992   1.665076634131785 
 -1.250077776113033   9.396132475575294   1.666058440257660 
 -2.499990157204180  11.567675503737791   1.665608047042380 
 -1.251145548025704  13.736378389047573   1.664563361609550 
  6.260477766972044   0.723070321223748   1.663993585313025 
  5.005552287395073   2.883568484346249   1.665395563537755 
  3.799340363237823   5.074285409776621   1.667218768822530 
  2.491891587792812   7.232973035779849   1.666654692250800 
  1.243038395334465   9.397832871133978   1.665851889200685 
 -0.001747556820803  11.567792830843441   1.665975684367995 
  1.249930017932781  13.736810638891063   1.664445254460720 
  8.761825175628566   0.725385383201035   1.662748621807965 
  7.505600887952451   2.892209588025603   1.663623938711100 
  6.221063165315650   5.042142885855492   1.666360882965435 
  3.729747410404916   9.396382346441253   1.666307201119125 
  2.496769655120189  11.567877168862235   1.664945854655415 
  3.755398598983709  13.728551438750415   1.664192574136860 
 11.267649903354537   0.723333452148838   1.663819039788960 
 10.007988700766456   2.895036049137854   1.663774306483995 
  8.732113800798103   5.066481061195337   1.664776899435015 
  7.472897200642399   7.231775996433681   1.667243736651570 
  6.233946579116365   9.334162019857914   1.667493443361855 
  5.004815454525335  11.543763041978822   1.664563216176015 
  6.253893751299501  13.738038332665546   1.664032934109435 
 13.771236590496956   0.724461181641218   1.664627694856305 
 12.519590931168469   2.890339741792003   1.664611757336685 
 11.264689329383577   5.051550908572884   1.663897345578795 
 10.022063254853247   7.201674723811939   1.664786168280240 
  7.489861112887930  11.575742495065192   1.665496631502030 
  5.021516025147787   5.757658065755685   1.669690518257715 
  5.054385288726581   7.197199641359861   1.671579948062745 
  6.283420222147470   7.948216409881163   1.669468523577180 
  8.773662735942839   9.401357150627714   1.672830951240300 
