 Ga N B 
 1.0
 17.527899999999772   0.000000000000000   0.000000000000000
 -8.763949999999658  15.179606674993195   0.000000000000000
  0.000000000000001   0.000000000000002  15.000000000000000
 Ga N B 
   1  49  47
Cartesian
  5.000192695213141  10.005256602392754   1.661181235563315 
  8.804850919123622  13.728668590179744   1.660384853777865 
 16.346834166671869   0.751372725459210   1.661286945475245 
 15.093023546315939   2.900202898877113   1.661301008835855 
 13.839740905688807   5.055603096077337   1.660698284788245 
 12.579350616921257   7.219200041845375   1.660584744473340 
 11.319638235255615   9.388685837467648   1.661049070988610 
 10.044499609897365  11.556747360677791   1.660824955334130 
 -6.227786644583135  13.755042701170440   1.660330763811360 
  1.315448788465931   0.760175534473286   1.660632494521815 
  0.072203756168776   2.923011052414038   1.661506668520050 
 -1.202773589837945   5.066911323616963   1.661427779407110 
 -2.486759503150746   7.231784382206411   1.660900574376165 
 -3.747773905190749   9.407910903946913   1.660844130961050 
 -4.991602568398202  11.582901761460139   1.660826453009250 
 -3.737301739200716  13.766943643752848   1.660447719995715 
  3.800346345160766   0.767489320872761   1.660260386725485 
  2.595812600721764   2.980531016327965   1.660704492019155 
  1.308708481912020   5.098993973321863   1.661007809356320 
 -0.028511004821791   7.235167244846644   1.660598942626185 
 -1.299460229620434   9.416749136585253   1.660711173104025 
 -2.505902249057095  11.596230626212606   1.661039725653630 
 -1.239592634676177  13.768500727101651   1.660965061299030 
  6.293648560585535   0.755966482282382   1.660786662730620 
  5.069309759004527   2.947443171142329   1.660870288368000 
  3.909628261652147   5.248509076464804   1.661542739270055 
  2.415465922041390   7.265837686333511   1.661027495033625 
  1.112872098873670   9.426850775152127   1.660616346025035 
 -0.018357729138001  11.607166989459294   1.661011773296970 
  1.272256659266340  13.759081458191083   1.661134371692280 
  8.809605403230098   0.732150449433240   1.661097797868195 
  7.587023585253840   2.884968842550566   1.661113108293195 
  6.388047916882926   5.048776088602037   1.661301379145055 
  3.623720819782350   7.906471108084117   1.661380286176740 
  3.433998449603846   9.256473151357264   1.661165439834240 
  2.498137767738398  11.590276025140424   1.660718690249775 
  3.771112530300853  13.799069508731570   1.660760616423585 
 11.318919073756406   0.741749149141956   1.660842765015825 
 10.102086193365162   2.869777756951703   1.660799353213695 
  8.905802590370623   4.991431374918341   1.660769763340950 
  7.687457146756884   7.094399221954785   1.661268362768025 
  6.468521324144822   9.055423252543987   1.661056691389920 
  5.023501398620524  11.775850512267629   1.659867284542740 
  6.327835768053826  13.782743977823490   1.660975580227905 
 13.834047359996294   0.741518916519290   1.660951432033605 
 12.596358286795938   2.888352116328958   1.660546488671625 
 11.365611063564085   5.035964614841135   1.660226730918480 
 10.121815465376468   7.187696096809604   1.660595566511250 
  8.864921513085001   9.340081300270226   1.661162344198740 
  7.523157754084052  11.495596226154708   1.660904921878095 
  7.574954850812757  14.487043233373422   1.660883835141450 
 15.089630642684947   1.460022122976362   1.661541836051865 
 13.843517043347370   3.614733408928241   1.661010305903250 
 12.596306020202668   5.774552099698517   1.660581950262585 
 11.337061361960725   7.938583329990445   1.661047671951105 
 10.072498609846470  10.102913946738640   1.661350235242095 
  8.774885488109177  12.254766266606961   1.660794941102625 
 -7.473493939382384  14.478810108859802   1.660489374740415 
  0.068140769743321   1.482097826411499   1.661557789172850 
 -1.185287550526406   3.629397817980557   1.661978125732050 
 -2.449570772161198   5.787926485693980   1.661195926405395 
 -3.722967306656312   7.959635011484224   1.660927807394970 
 -4.983662204726987  10.132469872896946   1.661144393111655 
 -6.241691758547228  12.302194320866171   1.660940638157190 
 -4.980728897857485  14.495907800255010   1.660478616890100 
  2.568472677369627   1.519619475644158   1.660676029132590 
  1.324007209696878   3.668548484386813   1.661236545121770 
  0.044210789479649   5.798664043442292   1.661261727083445 
 -1.258451030986623   7.968487949401322   1.661040298809135 
 -2.518614331005829  10.146349004610816   1.661198797474845 
 -3.746621448343324  12.318553353147559   1.660986225455130 
 -2.484665759218835  14.492816468959466   1.660779700601655 
  5.049496651451890   1.500841855138105   1.660840207988730 
  3.861345499177760   3.764607475040686   1.661331669413325 
  2.569084636231580   5.853990682012638   1.661541800371785 
  1.188994395732543   7.982207490553132   1.660795973116740 
 -0.072188821243717  10.156878025138298   1.660783305790305 
 -1.252930951510619  12.324675613616135   1.661403886218525 
  0.024701584295544  14.473496972154198   1.661279990836500 
  7.560509084766935   1.454911385366860   1.661332205248800 
  6.339243444581289   3.630686237504897   1.661370759265170 
  5.269339711179265   6.017462190828851   1.661993696453850 
  2.363155927746194  10.114647959560395   1.661532157537140 
  1.256181583997529  12.309539882513963   1.661234884070460 
  2.524834654248899  14.489671989662122   1.661353463686845 
 10.070805895650690   1.442113834364016   1.661090498584425 
  8.855983715567914   3.572486575529819   1.661117842819890 
  7.670708317304568   5.685562187238347   1.661674679181450 
  6.338671159598893   7.586587662282478   1.661988331921590 
  3.741532116537756  12.362840511088924   1.660472212999590 
  5.054111021869303  14.480126703944570   1.661175494150580 
 12.580658926037588   1.450702695455379   1.660857745351560 
 11.348680715884425   3.598177396163623   1.660709463283590 
 10.123473815215473   5.746788057681762   1.660588948900185 
  8.868402942532374   7.887221832372986   1.661133251851785 
  7.579573828701253   9.971785768214632   1.661540170551150 
  6.311591134319070  12.337891112900728   1.660966988846610 
