 N B Ge 
 1.0
 14.936314146199660   0.000000000000000   0.000000000000000
 -7.468157073099825  12.935227489513863   0.000000000000000
  0.000000000000001   0.000000000000001  13.341276283792837
 N B Ge 
 143 143   1
Cartesian
  1.244749808060015   0.718486133445069   1.667503316403072 
  4.978775752036833   7.187048399636865   1.654056650997955 
  6.223772060094733   0.718485248236474   1.667911385524055 
  9.957453776967343   7.186191868626472   1.668392032806080 
 11.202475059969592   0.718761996124082   1.667606238999150 
 -3.734132135665522   9.342077796962798   8.338159171069696 
  1.244726816231233   9.342444583792288   8.338045827320572 
  2.489296249540504   2.874213873406828   8.341019589887731 
  6.223410920763626   9.342256423717380   8.338120455211595 
  7.468520460583360   2.874212086712854   8.339549292433956 
 12.447073577530418   2.874603421583588   8.338289368361055 
 -1.244665148612399   9.342221004380093   1.667813695231677 
  0.000066215341030   2.874533227114669   1.667419753374462 
  4.979172062701701   2.874303283560019   1.664100082760015 
  3.734015222216028   9.342564900697235   1.666407920410658 
  8.712765912150022   9.342054490054510   1.668392032806080 
  9.957792410532461   2.874471957961812   1.668135963150836 
 -4.978753812450198  11.497892067905775   8.338282579808219 
  0.000171438383523  11.498078970675808   8.338145928187632 
  1.244404664016985   5.030429349448554   8.341019589887731 
  6.224168677298946   5.029964577696042   8.351900561846673 
  4.978876252293908  11.498207710656692   8.337821249693791 
 11.202255327205384   5.030410590573340   8.337793573573540 
 -1.244783543172953   5.030484384917814   1.667503316403072 
 -2.489274620877580  11.497947845924914   1.667813695231677 
  2.489508470260951  11.498266204635435   1.667867285822272 
  3.733409650305618   5.029980064268809   1.660294154780876 
  7.468205335472224  11.497974894257361   1.668163639271088 
  8.712951160956136   5.030246240216695   1.667836757633048 
 -0.000015573580425   7.186453308331681   8.338388892609537 
  1.244749808060015   0.718486133445070   8.338453896441555 
  4.978775752036833   7.187048399636866   8.351900561846673 
  6.223772060094734   0.718485248236475   8.338045827320572 
  9.957453776967343   7.186191868626473   8.337565180038547 
 -2.489453049580240   7.186296671295013   1.667674633036409 
 11.202475059969592   0.718761996124083   8.338350973845479 
  3.734257650302417   0.718502355222524   1.667568320235090 
  2.489420002061545   7.186680350838108   1.664100082760015 
  7.468036365186792   7.186167803428296   1.666937635175636 
  8.713159176787519   0.718586972369405   1.667867285822272 
  2.489420002061545   7.186680350838109   8.341857130084612 
 13.691787759728788   0.718695217114450   1.667667844483572 
 -1.244665148612399   9.342221004380093   8.338143517612952 
  0.000066215341031   2.874533227114670   8.338537459470153 
  4.979172062701702   2.874303283560020   8.341857130084612 
  3.734015222216029   9.342564900697235   8.339549292433956 
  8.712765912150022   9.342054490054510   8.337565180038547 
  9.957792410532461   2.874471957961813   8.337821249693791 
 -3.734132135665523   9.342077796962798   1.667798041774945 
  1.244726816231233   9.342444583792288   1.667911385524055 
  2.489296249540503   2.874213873406827   1.664937622956912 
  6.223410920763625   9.342256423717380   1.667836757633048 
  7.468520460583359   2.874212086712853   1.666407920410658 
 12.447073577530418   2.874603421583587   1.667667844483572 
 -1.244783543172953   5.030484384917815   8.338453896441555 
 -2.489274620877580  11.497947845924914   8.338143517612952 
  2.489508470260951  11.498266204635435   8.338089927022342 
  3.733409650305618   5.029980064268810   8.345663058063739 
  7.468205335472225  11.497974894257361   8.337793573573540 
 -4.978753812450199  11.497892067905775   1.667674633036409 
  8.712951160956136   5.030246240216695   8.338120455211595 
  0.000171438383522  11.498078970675808   1.667811284656995 
  1.244404664016984   5.030429349448553   1.664937622956912 
 -0.000015573580425   7.186453308331680   1.667568320235090 
  6.224168677298946   5.029964577696041   1.654056650997955 
  4.978876252293907  11.498207710656692   1.668135963150836 
 11.202255327205384   5.030410590573339   1.668163639271088 
 -2.489453049580240   7.186296671295014   8.338282579808219 
  3.734257650302417   0.718502355222524   8.338388892609537 
  7.468036365186792   7.186167803428297   8.339019577668992 
  8.713159176787519   0.718586972369406   8.338089927022342 
 13.691787759728788   0.718695217114450   8.338289368361055 
  0.035874315103480   1.461354255460976   5.002978606422314 
  3.681617349336133   8.005863725011171   5.002978606422314 
  5.010771299686239   1.372266609640674   5.002978606422314 
  8.684326562887229   7.888393276483419   5.002978606422314 
  9.988280253191276   1.442345667643028   5.002978606422314 
 -4.978927470248438  10.060654701010819  11.673616748318732 
 -0.000154240043102  10.060665468723514  11.673616748318732 
  1.244563752530364   3.593044215216840  11.673616748318732 
  4.978650542703082  10.060648207280384  11.673616748318732 
  6.223323242974939   3.593001894614854  11.673616748318732 
 11.202112927723675   3.593065812006743  11.673616748318732 
 -2.501974470547084  10.053464356603071   5.002978606422314 
 -1.205878624323857   3.612133436997137   5.002978606422314 
  3.829547302399956   3.525629014851503   5.002978606422314 
  2.474758693458690  10.110491265329681   5.002978606422314 
  7.462820267661800  10.063158015882827   5.002978606422314 
  8.744892819813165   3.579784979753720   5.002978606422314 
 -6.223619645794423  12.216509615384096  11.673616748318732 
 -1.244828009263290  12.216503675861155  11.673616748318732 
 -0.000168423294257   5.748910189370612  11.673616748318732 
  4.978622831839066   5.748904229825619  11.673616748318732 
  3.733930545781580  12.216513529375469  11.673616748318732 
  9.957435005840923   5.748925904116265  11.673616748318732 
 -2.480038171596275   5.755848503152399   5.002978606422314 
 -3.733886817147715  12.196749673234677   5.002978606422314 
  1.256230327860770  12.223264908633569   5.002978606422314 
  2.478672251347577   5.865413237951441   5.002978606422314 
  6.245108085833458  12.239581619710535   5.002978606422314 
  7.450019275851864   5.722437348554116   5.002978606422314 
 -1.244870349538509   7.904765653231291  11.673616748318732 
 -0.000132772341841   1.437156734715538  11.673616748318732 
  3.733906847036252   7.904797573575690  11.673616748318732 
  4.978635156343314   1.437133244215458  11.673616748318732 
  8.712751628599115   7.904804495823901  11.673616748318732 
 -3.751444462264516   7.899261126196158   5.002978606422314 
  9.957390643972872   1.437164440430481  11.673616748318732 
  2.519575692705434   1.440330606611055   5.002978606422314 
  1.204417703523741   7.965064429766676   5.002978606422314 
  6.191400062305336   7.902429773799100   5.002978606422314 
  7.503935936212176   1.399700760611425   5.002978606422314 
  1.244525785252034   7.904800395964665  11.673616748318732 
 12.480383261059943   1.456562640023290   5.002978606422314 
 -2.489547620380456  10.060639001891955  11.673616748318732 
 -1.244837835720668   3.593049144925920  11.673616748318732 
  3.733972507907856   3.593024259444043  11.673616748318732 
  2.489214997401802  10.060660134479358  11.673616748318732 
  7.468047689326244  10.060671216037267  11.673616748318732 
  8.712716506361371   3.593056239410540  11.673616748318732 
 -4.992304188852671  10.048493217712881   5.002978606422314 
 -0.014863606230554  10.078172644591527   5.002978606422314 
  1.302100780968115   3.626263234073729   5.002978606422314 
  4.983245451425961  10.095149341958164   5.002978606422314 
  6.284704348730717   3.497184785537706   5.002978606422314 
 11.232956966245782   3.600373938360788   5.002978606422314 
 -2.489544914530871   5.748902461576478  11.673616748318732 
 -3.734250072241422  12.216497812284489  11.673616748318732 
  1.244529930471440  12.216509681051187  11.673616748318732 
  2.489250848012932   5.748945415663535  11.673616748318732 
  6.223357043495735  12.216523961972108  11.673616748318732 
 -6.212850825866625  12.221269675484729   5.002978606422314 
  7.468060361049903   5.748949035639180  11.673616748318732 
 -1.237021033306793  12.195011403135243   5.002978606422314 
  0.017765050492846   5.773593749839808   5.002978606422314 
 -1.261791112086259   7.914954310895428   5.002978606422314 
  3.753862424779642  12.240674102065279   5.002978606422314 
  9.956974926849110   5.743155424235742   5.002978606422314 
 -3.734223949478687   7.904764962677729  11.673616748318732 
  2.489232365389701   1.437141542967934  11.673616748318732 
  6.223380399417206   7.904797968349907  11.673616748318732 
  7.468009062968039   1.437135852496163  11.673616748318732 
 12.446809628458709   1.437178894203295  11.673616748318732 
  1.272187880059766   0.729335012355927   5.002978606422314 
  4.899096547059640   7.304357413277139   5.002978606422314 
  6.254459075885138   0.681723937221072   5.002978606422314 
  9.940765028088402   7.179382454658673   5.002978606422314 
 11.235335978886097   0.737734256506344   5.002978606422314 
 -3.734205484011069   9.342035449275778  11.673616748318732 
  1.244517135142700   9.341951765099902  11.673616748318732 
  2.489268331275423   2.874467551418966  11.673616748318732 
  6.223325153886585   9.341986201152716  11.673616748318732 
  7.467909348369225   2.874414392417186  11.673616748318732 
 12.446890559105157   2.874453549057393  11.673616748318732 
 -1.255514063581719   9.348263518526348   5.002978606422314 
  0.051634712392171   2.904306312768867   5.002978606422314 
  5.027213412866570   2.786423121216322   5.002978606422314 
  3.717336008691995   9.421893975661806   5.002978606422314 
  8.698524412229544   9.331006316551880   5.002978606422314 
  9.994669770737818   2.875750190537926   5.002978606422314 
 -4.978916376398475  11.497965305144232  11.673616748318732 
 -0.000182788850150  11.497874457487104  11.673616748318732 
  1.244610396487329   5.030278332515709  11.673616748318732 
  6.223171145948071   5.030277505572268  11.673616748318732 
  4.978654119925594  11.497908482216268  11.673616748318732 
 11.202176926522482   5.030289869960744  11.673616748318732 
 -1.221669102433694   5.048822012845037   5.002978606422314 
 -2.489466107608871  11.485531152884858   5.002978606422314 
  2.500937155821838  11.532053066555530   5.002978606422314 
  7.478163081728326  11.506772169002240   5.002978606422314 
  8.720233506738833   5.015832637333461   5.002978606422314 
 -0.000110610432896   7.186084350974498  11.673616748318732 
  1.244597423965852   0.718626118423099  11.673616748318732 
  4.978547989851776   7.186028048207795  11.673616748318732 
  6.223240426043392   0.718550068433319  11.673616748318732 
  9.957449366589874   7.186164988299010  11.673616748318732 
 -2.499812324272888   7.190433684635194   5.002978606422314 
 11.202132321703989   0.718564116094175  11.673616748318732 
  3.747676559528050   0.694583896572069   5.002978606422314 
  2.437334224065629   7.272225461684852   5.002978606422314 
  7.435625857603060   7.167455588150246   5.002978606422314 
  8.748133800304943   0.711591073436910   5.002978606422314 
  2.489216614273175   7.186069010817885  11.673616748318732 
 13.726368770523406   0.743474737502795   5.002978606422314 
 -1.244830633188231   9.341984152034616  11.673616748318732 
 -0.000031927060408   2.874476564572789  11.673616748318732 
  4.978540932819652   2.874432814578585  11.673616748318732 
  3.733884867988251   9.341934509143053  11.673616748318732 
  8.712740427914859   9.342064110719287  11.673616748318732 
  9.957422204917361   2.874429199908064  11.673616748318732 
 -3.746871468636032   9.334722739642997   5.002978606422314 
  1.228234094910668   9.387400974540826   5.002978606422314 
  2.549249054921969   2.891451586475006   5.002978606422314 
  6.214569547398032   9.355769921605956   5.002978606422314 
  7.528881847999395   2.820102926603584   5.002978606422314 
 12.485823777077627   2.892161695226099   5.002978606422314 
 -1.244738504672897   5.030282423932096  11.673616748318732 
 -2.489562483313640  11.497922958251047  11.673616748318732 
  2.489209830075596  11.497863160024998  11.673616748318732 
  3.733920624934837   5.030275075608539  11.673616748318732 
  7.468061588013513  11.497967357580581  11.673616748318732 
 -4.980350691148124  11.486852166187058   5.002978606422314 
  8.712674257911925   5.030307075204735  11.673616748318732 
  0.007782859139329  11.502473426498089   5.002978606422314 
  1.289309364127907   5.073731145402959   5.002978606422314 
 -0.014020111778278   7.210033653937398   5.002978606422314 
  6.285921660715736   4.902305855212282   5.002978606422314 
  4.998421914279445  11.529505325130982   5.002978606422314 
 11.214852863746561   5.034635614423137   5.002978606422314 
 -2.489470906245388   7.186119268166864  11.673616748318732 
  3.733890605431942   0.718604529572593  11.673616748318732 
  7.467980630725391   7.186135625122012  11.673616748318732 
  8.712660809823365   0.718529864687476  11.673616748318732 
 13.691566457101136   0.718611654771924  11.673616748318732 
  0.000305579129373   1.437507557544473   1.667728048144581 
  3.733855649812125   7.904987927460742   1.661020016374554 
  4.978827011155421   1.437204073006290   1.667307753652340 
  8.712753772678704   7.904805733708847   1.667705112230197 
  9.957784817949767   1.437183964877379   1.667622930120993 
 -4.978698941512762  10.060861613470623   8.338268565713134 
  0.000032746133708  10.060800756259075   8.338248523857789 
  1.244957721391881   3.593271673245072   8.338895252194114 
  4.978573907099106  10.061053398183667   8.339048592097146 
  6.223462495663033   3.592862379575644   8.344937196470088 
 11.202569361200887   3.593107175578836   8.338205228882567 
 -2.489293703503908  10.060785600868979   1.667616170485091 
 -1.244314838502975   3.593253357021309   1.667728048144581 
  3.733752887146859   3.592193282984284   1.664900572801259 
  2.489244504215494  10.061003578084842   1.667401824765727 
  7.468150226088293  10.060940591023385   1.667784909909231 
  8.713029094175017   3.592787275579005   1.666908620747481 
 -6.223326578635704  12.216840900680063   8.338211630747223 
 -1.244617353732265  12.216597966872632   8.338248523857789 
  0.000159292158167   5.749007698070157   8.338358013916181 
  4.979089121923610   5.749173442531460   8.343372084790703 
  3.734144541437029  12.216845131829531   8.338334282723634 
  9.957719559803079   5.748880016063949   8.338172302935396 
 -2.489111479469294   5.748990622532943   1.667745582097404 
 -3.733992575525073  12.216771482809376   1.667725978019925 
  1.244780928952268  12.216654595091651   1.667650156580545 
  2.488421390908328   5.749170706735205   1.664900572801259 
  6.223621082138563  12.216898563172464   1.667751983962074 
  7.467908567408259   5.748614168102169   1.661919249823512 
 -1.244504595553522   7.904851816666611   8.338231234824702 
  0.000305579129374   1.437507557544473   8.338229164700060 
  3.733855649812126   7.904987927460743   8.344937196470088 
  4.978827011155422   1.437204073006291   8.338649459192288 
  8.712753772678704   7.904805733708848   8.338252100614431 
 -3.733930493664305   7.904859418138430   1.667688647131494 
  9.957784817949767   1.437183964877379   8.338334282723634 
  2.489480668126808   1.437376598525171   1.667599198928433 
  1.244683052190262   7.904931132710384   1.667307753652340 
  6.223014498802438   7.904833944968603   1.661919249823512 
  7.468321247262010   1.436989684343650   1.667401824765727 
  1.244683052190263   7.904931132710385   8.338649459192288 
 12.447232686773392   1.437423147035160   1.667638236413675 
 -2.489293703503908  10.060785600868979   8.338341042359550 
 -1.244314838502975   3.593253357021310   8.338229164700060 
  3.733752887146859   3.592193282984285   8.341056640043369 
  2.489244504215495  10.061003578084842   8.338555388078914 
  7.468150226088294  10.060940591023385   8.338172302935396 
  8.713029094175017   3.592787275579006   8.339048592097146 
 -4.978698941512762  10.060861613470623   1.667688647131494 
  0.000032746133708  10.060800756259075   1.667708688986852 
  1.244957721391880   3.593271673245071   1.667061960650527 
  4.978573907099105  10.061053398183667   1.666908620747481 
  6.223462495663032   3.592862379575643   1.661020016374554 
 11.202569361200887   3.593107175578835   1.667751983962074 
 -2.489111479469293   5.748990622532943   8.338211630747223 
 -3.733992575525073  12.216771482809376   8.338231234824702 
  1.244780928952269  12.216654595091651   8.338307056264069 
  2.488421390908328   5.749170706735206   8.341056640043369 
  6.223621082138564  12.216898563172464   8.338205228882567 
 -6.223326578635705  12.216840900680063   1.667745582097404 
  7.467908567408259   5.748614168102170   8.344037963021115 
 -1.244617353732266  12.216597966872632   1.667708688986852 
  0.000159292158167   5.749007698070156   1.667599198928433 
 -1.244504595553523   7.904851816666610   1.667725978019925 
  4.979089121923609   5.749173442531459   1.662585128053925 
  3.734144541437028  12.216845131829531   1.667622930120993 
  9.957719559803079   5.748880016063948   1.667784909909231 
 -3.733930493664305   7.904859418138431   8.338268565713134 
  2.489480668126808   1.437376598525172   8.338358013916181 
  6.223014498802439   7.904833944968604   8.344037963021115 
  7.468321247262011   1.436989684343651   8.338555388078914 
 12.447232686773392   1.437423147035161   8.338318976430939 
  4.258404858363688   5.333086188964403   5.002978606422314 
Generated by cif2cell 2.0.0.  :  Failed to get author information, No journal information. Species order: N B Ge 
 1.0
 14.936314146199660   0.000000000000000   0.000000000000000
 -7.468157073099825  12.935227489513863   0.000000000000000
  0.000000000000001   0.000000000000001  13.341276283792837
 N B Ge 
 143 143   1
Cartesian
  1.244749808060015   0.718486133445069   1.667503316403072 
  4.978775752036833   7.187048399636865   1.654056650997955 
  6.223772060094733   0.718485248236474   1.667911385524055 
  9.957453776967343   7.186191868626472   1.668392032806080 
 11.202475059969592   0.718761996124082   1.667606238999150 
 -3.734132135665522   9.342077796962798   8.338159171069696 
  1.244726816231233   9.342444583792288   8.338045827320572 
  2.489296249540504   2.874213873406828   8.341019589887731 
  6.223410920763626   9.342256423717380   8.338120455211595 
  7.468520460583360   2.874212086712854   8.339549292433956 
 12.447073577530418   2.874603421583588   8.338289368361055 
 -1.244665148612399   9.342221004380093   1.667813695231677 
  0.000066215341030   2.874533227114669   1.667419753374462 
  4.979172062701701   2.874303283560019   1.664100082760015 
  3.734015222216028   9.342564900697235   1.666407920410658 
  8.712765912150022   9.342054490054510   1.668392032806080 
  9.957792410532461   2.874471957961812   1.668135963150836 
 -4.978753812450198  11.497892067905775   8.338282579808219 
  0.000171438383523  11.498078970675808   8.338145928187632 
  1.244404664016985   5.030429349448554   8.341019589887731 
  6.224168677298946   5.029964577696042   8.351900561846673 
  4.978876252293908  11.498207710656692   8.337821249693791 
 11.202255327205384   5.030410590573340   8.337793573573540 
 -1.244783543172953   5.030484384917814   1.667503316403072 
 -2.489274620877580  11.497947845924914   1.667813695231677 
  2.489508470260951  11.498266204635435   1.667867285822272 
  3.733409650305618   5.029980064268809   1.660294154780876 
  7.468205335472224  11.497974894257361   1.668163639271088 
  8.712951160956136   5.030246240216695   1.667836757633048 
 -0.000015573580425   7.186453308331681   8.338388892609537 
  1.244749808060015   0.718486133445070   8.338453896441555 
  4.978775752036833   7.187048399636866   8.351900561846673 
  6.223772060094734   0.718485248236475   8.338045827320572 
  9.957453776967343   7.186191868626473   8.337565180038547 
 -2.489453049580240   7.186296671295013   1.667674633036409 
 11.202475059969592   0.718761996124083   8.338350973845479 
  3.734257650302417   0.718502355222524   1.667568320235090 
  2.489420002061545   7.186680350838108   1.664100082760015 
  7.468036365186792   7.186167803428296   1.666937635175636 
  8.713159176787519   0.718586972369405   1.667867285822272 
  2.489420002061545   7.186680350838109   8.341857130084612 
 13.691787759728788   0.718695217114450   1.667667844483572 
 -1.244665148612399   9.342221004380093   8.338143517612952 
  0.000066215341031   2.874533227114670   8.338537459470153 
  4.979172062701702   2.874303283560020   8.341857130084612 
  3.734015222216029   9.342564900697235   8.339549292433956 
  8.712765912150022   9.342054490054510   8.337565180038547 
  9.957792410532461   2.874471957961813   8.337821249693791 
 -3.734132135665523   9.342077796962798   1.667798041774945 
  1.244726816231233   9.342444583792288   1.667911385524055 
  2.489296249540503   2.874213873406827   1.664937622956912 
  6.223410920763625   9.342256423717380   1.667836757633048 
  7.468520460583359   2.874212086712853   1.666407920410658 
 12.447073577530418   2.874603421583587   1.667667844483572 
 -1.244783543172953   5.030484384917815   8.338453896441555 
 -2.489274620877580  11.497947845924914   8.338143517612952 
  2.489508470260951  11.498266204635435   8.338089927022342 
  3.733409650305618   5.029980064268810   8.345663058063739 
  7.468205335472225  11.497974894257361   8.337793573573540 
 -4.978753812450199  11.497892067905775   1.667674633036409 
  8.712951160956136   5.030246240216695   8.338120455211595 
  0.000171438383522  11.498078970675808   1.667811284656995 
  1.244404664016984   5.030429349448553   1.664937622956912 
 -0.000015573580425   7.186453308331680   1.667568320235090 
  6.224168677298946   5.029964577696041   1.654056650997955 
  4.978876252293907  11.498207710656692   1.668135963150836 
 11.202255327205384   5.030410590573339   1.668163639271088 
 -2.489453049580240   7.186296671295014   8.338282579808219 
  3.734257650302417   0.718502355222524   8.338388892609537 
  7.468036365186792   7.186167803428297   8.339019577668992 
  8.713159176787519   0.718586972369406   8.338089927022342 
 13.691787759728788   0.718695217114450   8.338289368361055 
  0.035874315103480   1.461354255460976   5.002978606422314 
  3.681617349336133   8.005863725011171   5.002978606422314 
  5.010771299686239   1.372266609640674   5.002978606422314 
  8.684326562887229   7.888393276483419   5.002978606422314 
  9.988280253191276   1.442345667643028   5.002978606422314 
 -4.978927470248438  10.060654701010819  11.673616748318732 
 -0.000154240043102  10.060665468723514  11.673616748318732 
  1.244563752530364   3.593044215216840  11.673616748318732 
  4.978650542703082  10.060648207280384  11.673616748318732 
  6.223323242974939   3.593001894614854  11.673616748318732 
 11.202112927723675   3.593065812006743  11.673616748318732 
 -2.501974470547084  10.053464356603071   5.002978606422314 
 -1.205878624323857   3.612133436997137   5.002978606422314 
  3.829547302399956   3.525629014851503   5.002978606422314 
  2.474758693458690  10.110491265329681   5.002978606422314 
  7.462820267661800  10.063158015882827   5.002978606422314 
  8.744892819813165   3.579784979753720   5.002978606422314 
 -6.223619645794423  12.216509615384096  11.673616748318732 
 -1.244828009263290  12.216503675861155  11.673616748318732 
 -0.000168423294257   5.748910189370612  11.673616748318732 
  4.978622831839066   5.748904229825619  11.673616748318732 
  3.733930545781580  12.216513529375469  11.673616748318732 
  9.957435005840923   5.748925904116265  11.673616748318732 
 -2.480038171596275   5.755848503152399   5.002978606422314 
 -3.733886817147715  12.196749673234677   5.002978606422314 
  1.256230327860770  12.223264908633569   5.002978606422314 
  2.478672251347577   5.865413237951441   5.002978606422314 
  6.245108085833458  12.239581619710535   5.002978606422314 
  7.450019275851864   5.722437348554116   5.002978606422314 
 -1.244870349538509   7.904765653231291  11.673616748318732 
 -0.000132772341841   1.437156734715538  11.673616748318732 
  3.733906847036252   7.904797573575690  11.673616748318732 
  4.978635156343314   1.437133244215458  11.673616748318732 
  8.712751628599115   7.904804495823901  11.673616748318732 
 -3.751444462264516   7.899261126196158   5.002978606422314 
  9.957390643972872   1.437164440430481  11.673616748318732 
  2.519575692705434   1.440330606611055   5.002978606422314 
  1.204417703523741   7.965064429766676   5.002978606422314 
  6.191400062305336   7.902429773799100   5.002978606422314 
  7.503935936212176   1.399700760611425   5.002978606422314 
  1.244525785252034   7.904800395964665  11.673616748318732 
 12.480383261059943   1.456562640023290   5.002978606422314 
 -2.489547620380456  10.060639001891955  11.673616748318732 
 -1.244837835720668   3.593049144925920  11.673616748318732 
  3.733972507907856   3.593024259444043  11.673616748318732 
  2.489214997401802  10.060660134479358  11.673616748318732 
  7.468047689326244  10.060671216037267  11.673616748318732 
  8.712716506361371   3.593056239410540  11.673616748318732 
 -4.992304188852671  10.048493217712881   5.002978606422314 
 -0.014863606230554  10.078172644591527   5.002978606422314 
  1.302100780968115   3.626263234073729   5.002978606422314 
  4.983245451425961  10.095149341958164   5.002978606422314 
  6.284704348730717   3.497184785537706   5.002978606422314 
 11.232956966245782   3.600373938360788   5.002978606422314 
 -2.489544914530871   5.748902461576478  11.673616748318732 
 -3.734250072241422  12.216497812284489  11.673616748318732 
  1.244529930471440  12.216509681051187  11.673616748318732 
  2.489250848012932   5.748945415663535  11.673616748318732 
  6.223357043495735  12.216523961972108  11.673616748318732 
 -6.212850825866625  12.221269675484729   5.002978606422314 
  7.468060361049903   5.748949035639180  11.673616748318732 
 -1.237021033306793  12.195011403135243   5.002978606422314 
  0.017765050492846   5.773593749839808   5.002978606422314 
 -1.261791112086259   7.914954310895428   5.002978606422314 
  3.753862424779642  12.240674102065279   5.002978606422314 
  9.956974926849110   5.743155424235742   5.002978606422314 
 -3.734223949478687   7.904764962677729  11.673616748318732 
  2.489232365389701   1.437141542967934  11.673616748318732 
  6.223380399417206   7.904797968349907  11.673616748318732 
  7.468009062968039   1.437135852496163  11.673616748318732 
 12.446809628458709   1.437178894203295  11.673616748318732 
  1.272187880059766   0.729335012355927   5.002978606422314 
  4.899096547059640   7.304357413277139   5.002978606422314 
  6.254459075885138   0.681723937221072   5.002978606422314 
  9.940765028088402   7.179382454658673   5.002978606422314 
 11.235335978886097   0.737734256506344   5.002978606422314 
 -3.734205484011069   9.342035449275778  11.673616748318732 
  1.244517135142700   9.341951765099902  11.673616748318732 
  2.489268331275423   2.874467551418966  11.673616748318732 
  6.223325153886585   9.341986201152716  11.673616748318732 
  7.467909348369225   2.874414392417186  11.673616748318732 
 12.446890559105157   2.874453549057393  11.673616748318732 
 -1.255514063581719   9.348263518526348   5.002978606422314 
  0.051634712392171   2.904306312768867   5.002978606422314 
  5.027213412866570   2.786423121216322   5.002978606422314 
  3.717336008691995   9.421893975661806   5.002978606422314 
  8.698524412229544   9.331006316551880   5.002978606422314 
  9.994669770737818   2.875750190537926   5.002978606422314 
 -4.978916376398475  11.497965305144232  11.673616748318732 
 -0.000182788850150  11.497874457487104  11.673616748318732 
  1.244610396487329   5.030278332515709  11.673616748318732 
  6.223171145948071   5.030277505572268  11.673616748318732 
  4.978654119925594  11.497908482216268  11.673616748318732 
 11.202176926522482   5.030289869960744  11.673616748318732 
 -1.221669102433694   5.048822012845037   5.002978606422314 
 -2.489466107608871  11.485531152884858   5.002978606422314 
  2.500937155821838  11.532053066555530   5.002978606422314 
  7.478163081728326  11.506772169002240   5.002978606422314 
  8.720233506738833   5.015832637333461   5.002978606422314 
 -0.000110610432896   7.186084350974498  11.673616748318732 
  1.244597423965852   0.718626118423099  11.673616748318732 
  4.978547989851776   7.186028048207795  11.673616748318732 
  6.223240426043392   0.718550068433319  11.673616748318732 
  9.957449366589874   7.186164988299010  11.673616748318732 
 -2.499812324272888   7.190433684635194   5.002978606422314 
 11.202132321703989   0.718564116094175  11.673616748318732 
  3.747676559528050   0.694583896572069   5.002978606422314 
  2.437334224065629   7.272225461684852   5.002978606422314 
  7.435625857603060   7.167455588150246   5.002978606422314 
  8.748133800304943   0.711591073436910   5.002978606422314 
  2.489216614273175   7.186069010817885  11.673616748318732 
 13.726368770523406   0.743474737502795   5.002978606422314 
 -1.244830633188231   9.341984152034616  11.673616748318732 
 -0.000031927060408   2.874476564572789  11.673616748318732 
  4.978540932819652   2.874432814578585  11.673616748318732 
  3.733884867988251   9.341934509143053  11.673616748318732 
  8.712740427914859   9.342064110719287  11.673616748318732 
  9.957422204917361   2.874429199908064  11.673616748318732 
 -3.746871468636032   9.334722739642997   5.002978606422314 
  1.228234094910668   9.387400974540826   5.002978606422314 
  2.549249054921969   2.891451586475006   5.002978606422314 
  6.214569547398032   9.355769921605956   5.002978606422314 
  7.528881847999395   2.820102926603584   5.002978606422314 