 N O B 
 1.0
 14.936314146199660   0.000000000000000   0.000000000000000
 -7.468157073099825  12.935227489513863   0.000000000000000
  0.000000000000001   0.000000000000001  13.341276283792837
 N O B 
 143   1 142
Cartesian
  1.244485584320018   0.718108271157808   1.668317999541052 
  4.978730294470943   7.185199536058729   1.690628974564727 
  6.223268883940556   0.718609273568335   1.667555637950775 
  9.957380676155214   7.185952911886994   1.666685447002552 
 11.202282990081759   0.717953152786788   1.667737143385530 
 -3.734218394193261   9.341947563020623   8.338433742888643 
  1.244653722412458   9.341769242823379   8.336359478591897 
  2.488775617296477   2.873842497985548   8.336790486738224 
  6.223567026593229   9.341595230265080   8.332448966987437 
  7.468178331850918   2.874145749692287   8.338006289274754 
 12.446873532913795   2.873743407303658   8.338605951716870 
 -1.244843700090947   9.341938408691185   1.668035920724943 
 -0.000394308210451   2.873614895670454   1.667773916894197 
  4.978371497568906   2.874196863230763   1.668339577520660 
  3.734200952097469   9.341379852080536   1.674475742238779 
  8.712816535388662   9.341981580833128   1.667972180994489 
  9.957612270818700   2.873930391831325   1.666979846628233 
 -4.978837051573900  11.497855846656446   8.337916672150323 
 -0.000183308265285  11.497931603988786   8.337874077989554 
  1.244583124900081   5.029481361135948   8.335716208234469 
  6.222680185716625   5.030036062202777   8.345944200036630 
  4.978892203660486  11.497374444460901   8.336705691818306 
 11.202054321190271   5.029864334488098   8.338964142922727 
 -1.244819397942841   5.029788891870294   1.668137036812592 
 -2.489518077012253  11.497970543163772   1.667538707517067 
  2.489289514556327  11.497580198165359   1.668697285446443 
  3.733626879462717   5.029554910264171   1.667760132787973 
  7.468270372139839  11.497639742525267   1.668688208362450 
  8.712735445165460   5.029862698262963   1.667470185329577 
 -0.000028546679047   7.185786026499148   8.337435713116985 
  1.244485584320018   0.718108271157809   8.337639213303575 
  4.978730294470944   7.185199536058730   8.315328238279900 
  6.223268883940557   0.718609273568335   8.338401574893853 
  9.957380676155214   7.185952911886995   8.339271765842089 
 -2.489585618958680   7.185882576102243   1.667497182041772 
 11.202282990081759   0.717953152786789   8.338220069459098 
  3.733827372379859   0.718459100657169   1.667645192085957 
  2.489609542053290   7.185740612076356   1.673286538247601 
  7.467898898192709   7.186279594629513   1.669083576089541 
  8.712755573567476   0.718371785194139   1.667433577477164 
  2.489609542053290   7.185740612076357   8.332670674597040 
 13.691611458836057   0.717851456797161   1.668250611186195 
 -1.244843700090947   9.341938408691185   8.337921292119685 
 -0.000394308210451   2.873614895670455   8.338183295950444 
  4.978371497568907   2.874196863230764   8.337617635323967 
  3.734200952097469   9.341379852080536   8.331481470605850 
  8.712816535388662   9.341981580833128   8.337985031850152 
  9.957612270818700   2.873930391831326   8.338977366216408 
 -3.734218394193261   9.341947563020623   1.667523469955985 
  1.244653722412457   9.341769242823379   1.669597734252731 
  2.488775617296477   2.873842497985547   1.669166726106405 
  6.223567026593228   9.341595230265080   1.673508245857189 
  7.468178331850917   2.874145749692286   1.667950923569875 
 12.446873532913795   2.873743407303657   1.667351261127745 
 -1.244819397942840   5.029788891870295   8.337820176032036 
 -2.489518077012252  11.497970543163772   8.338418505327574 
  2.489289514556327  11.497580198165359   8.337259927398184 
  3.733626879462717   5.029554910264172   8.338197080056641 
  7.468270372139840  11.497639742525267   8.337269004482163 
 -4.978837051573901  11.497855846656446   1.668040540694305 
  8.712735445165460   5.029862698262964   8.338487027515050 
 -0.000183308265285  11.497931603988786   1.668083134855060 
  1.244583124900081   5.029481361135947   1.670241004610171 
 -0.000028546679047   7.185786026499147   1.668521499727642 
  6.222680185716624   5.030036062202776   1.660013012807986 
  4.978892203660485  11.497374444460901   1.669251521026323 
 11.202054321190271   5.029864334488098   1.666993069921900 
 -2.489585618958679   7.185882576102244   8.338460030802857 
  3.733827372379859   0.718459100657169   8.338312020758671 
  7.467898898192710   7.186279594629513   8.336873636755099 
  8.712755573567476   0.718371785194139   8.338523635367464 
 13.691611458836057   0.717851456797162   8.337706601658432 
 -0.006134226471382   1.424190270928482   5.002978606422314 
  3.713042886203045   7.861059900937649   5.002978606422314 
  4.969449069106420   1.491547095432420   5.002978606422314 
  8.726441884427816   7.892999438536160   5.002978606422314 
  9.959856175825088   1.425132934663661   5.002978606422314 
 -4.978686283566216  10.060579755628670  11.673616748318732 
  0.000135006927504  10.060628417302537  11.673616748318732 
  1.244711528170337   3.593139725313155  11.673616748318732 
  4.978794645646153  10.060618181222557  11.673616748318732 
  6.223581429056554   3.593026503726813  11.673616748318732 
 11.202337528004776   3.593122456545555  11.673616748318732 
 -2.483524755458018  10.066755820334818   5.002978606422314 
 -1.253701497507980   3.582125266699508   5.002978606422314 
  3.692156177158512   3.638247970042060   5.002978606422314 
  2.484367234391693  10.045603955206269   5.002978606422314 
  7.482037271365273  10.058071516167987   5.002978606422314 
  8.734491555058977   3.583835361289826   5.002978606422314 
 -6.223469336259471  12.216497738414226  11.673616748318732 
 -1.244547897666363  12.216460270348977  11.673616748318732 
  0.000038568278028   5.748988049349586  11.673616748318732 
  4.978777692824211   5.749062738738512  11.673616748318732 
  3.734127738443064  12.216544478909107  11.673616748318732 
  9.957744761073375   5.748956610303206  11.673616748318732 
 -2.485486592627179   5.743617737872374   5.002978606422314 
 -3.728338762955927  12.234516954905800   5.002978606422314 
  1.242644049985717  12.211937835669110   5.002978606422314 
  2.459034306741603   5.701428964767155   5.002978606422314 
  6.223816321079516  12.202099547589359   5.002978606422314 
  7.476189880348308   5.714529859759798   5.002978606422314 
 -1.244600042348752   7.904776902041030  11.673616748318732 
  0.000019594849538   1.437185840017123  11.673616748318732 
  3.734151645285502   7.904757489844264  11.673616748318732 
  4.978885358496990   1.437135740842901  11.673616748318732 
  8.713008907839942   7.904715896462462  11.673616748318732 
 -3.723319079667826   7.904944811763657   5.002978606422314 
  9.957604089789454   1.437183908171839  11.673616748318732 
  2.493146025426196   1.459142278219362   5.002978606422314 
  1.247664170892796   7.874836690569960   5.002978606422314 
  6.260623677328415   7.885058430033063   5.002978606422314 
  7.468568511628574   1.445413753717174   5.002978606422314 
  1.244776139181873   7.904781411443475  11.673616748318732 
 12.444855011293786   1.422958398578634   5.002978606422314 
 -2.489249212255878  10.060594407739410  11.673616748318732 
 -1.244652049463342   3.593121473476843  11.673616748318732 
  3.734122343870837   3.593137542579652  11.673616748318732 
  2.489468890008154  10.060631788817272  11.673616748318732 
  7.468183291104449  10.060599473171713  11.673616748318732 
  8.712978690360274   3.593064040899614  11.673616748318732 
 -4.970268284003737  10.062006214413312   5.002978606422314 
  0.003231827144179  10.053873740582556   5.002978606422314 
  1.214373201367369   3.574919851298115   5.002978606422314 
  4.979711414958484  10.040876129703015   5.002978606422314 
  6.244916867957796   3.584661444280794   5.002978606422314 
 11.207044412535655   3.583771216677809   5.002978606422314 
 -2.489291752664510   5.748978087410124  11.673616748318732 
 -3.734003915416695  12.216465536166233  11.673616748318732 
  1.244777419379851  12.216510754229244  11.673616748318732 
  2.489404635304393   5.749039888857643  11.673616748318732 
  6.223498708610248  12.216530875626880  11.673616748318732 
 -6.215948662553108  12.221948689390567   5.002978606422314 
  7.468319536327996   5.748940315922480  11.673616748318732 
 -1.246849964959676  12.233501855337495   5.002978606422314 
 -0.001816079199388   5.738847106024894   5.002978606422314 
 -1.241475620552120   7.900937142457829   5.002978606422314 
  3.733054951458182  12.200548613288131   5.002978606422314 
  9.968490212531790   5.743045442210120   5.002978606422314 
 -3.733914044801476   7.904752334112288  11.673616748318732 
  2.489406742264927   1.437174079238013  11.673616748318732 
  6.223455878267459   7.904727562726543  11.673616748318732 
  7.468260844527175   1.437095982022736  11.673616748318732 
 12.446997230107494   1.437207892755712  11.673616748318732 
  3.727258271277773   5.070341791348438   5.002978606422314 
  1.251261345608020   0.727610100609955   5.002978606422314 
  4.997907006549754   7.475468487529122   5.002978606422314 
  6.215429103824740   0.753597136131494   5.002978606422314 
  9.970384921674466   7.173138851496451   5.002978606422314 
 11.197629476770020   0.710336232806059   5.002978606422314 
 -3.733945135129530   9.341762508002347  11.673616748318732 
  1.244418811499924   9.342100473926545  11.673616748318732 
  2.489911912232952   2.874540184017714  11.673616748318732 
  6.223868351060354   9.341607303390962  11.673616748318732 
  7.468172596123659   2.874784158729681  11.673616748318732 
 12.446556363262300   2.874802763948492  11.673616748318732 
 -1.245710686682029   9.340163601703182   5.002978606422314 
 -0.021389567998854   2.856439682460898   5.002978606422314 
  4.993197515309504   2.975454428352675   5.002978606422314 
  3.720121569289718   9.358876914974461   5.002978606422314 
  8.731313568238633   9.324159829569680   5.002978606422314 
  9.957919994734830   2.868821629606263   5.002978606422314 
 -4.978432994402316  11.497858343287085  11.673616748318732 
 -0.000131588341439  11.498312330546575  11.673616748318732 
  1.244731253987720   5.030178994456143  11.673616748318732 
  6.224157846119019   5.029773758489967  11.673616748318732 
  4.978758759733700  11.498275063444922  11.673616748318732 
 11.201867785804639   5.030310734194190  11.673616748318732 
 -1.252345428889403   5.018568608308772   5.002978606422314 
 -2.485814741310715  11.510168802914222   5.002978606422314 
  2.481929834656596  11.496880349576847   5.002978606422314 
  7.479474203269248  11.501624995258823   5.002978606422314 
  8.691303115902635   5.026658198181143   5.002978606422314 
 -0.000325200327280   7.186017333988372  11.673616748318732 
  1.244993111426105   0.718745927958871  11.673616748318732 
  4.979287988740177   7.185288718791464  11.673616748318732 
  6.223663119636184   0.719005458673556  11.673616748318732 
  9.957650648113260   7.185622927876449  11.673616748318732 
 -2.487667308966805   7.180400699082480   5.002978606422314 
 11.201905476516993   0.719202417734631  11.673616748318732 
  3.744210162722357   0.748181399513813   5.002978606422314 
  2.465301426101123   7.124991125266519   5.002978606422314 
  7.513331089300781   7.088653823566561   5.002978606422314 
  8.705795307325053   0.723496820007731   5.002978606422314 
  2.489313101144630   7.185731096613902  11.673616748318732 
 13.687119464762393   0.707704214509553   5.002978606422314 
 -1.244867975825887   9.342035473574501  11.673616748318732 
 -0.000004901252824   2.874622963881606  11.673616748318732 
  4.979483426010726   2.874635930549511  11.673616748318732 
  3.734067764262223   9.341978366407224  11.673616748318732 
  8.713284043830775   9.341451605003863  11.673616748318732 
  9.957101507359315   2.874900186594820  11.673616748318732 
 -3.725010929689371   9.340999382452805   5.002978606422314 
  1.236751149195970   9.323303300150750   5.002978606422314 
  2.469972502689063   2.899347484664993   5.002978606422314 
  6.249536127512778   9.364234448843682   5.002978606422314 
  7.471588626192224   2.907139403274495   5.002978606422314 
 12.438987144616569   2.863968790772949   5.002978606422314 
 -1.245033821799346   5.030309185417893  11.673616748318732 
 -2.489210576168308  11.498058722331450  11.673616748318732 
  2.489127048780155  11.498433903256533  11.673616748318732 
  3.734634539727774   5.029914204646343  11.673616748318732 
  7.468424019119223  11.497921663557454  11.673616748318732 
 -4.967520517044622  11.504316000183659   5.002978606422314 
  8.712782320491176   5.030114520784769  11.673616748318732 
 -0.006287144727253  11.503156347333197   5.002978606422314 
  1.217781089147278   4.989357335783912   5.002978606422314 
 -0.010248964670389   7.172102250265834   5.002978606422314 
  4.978168245445432  11.494006217133402   5.002978606422314 
 11.200321588058875   5.023224261877656   5.002978606422314 
 -2.489647012865940   7.185989060655227  11.673616748318732 
  3.734592483081332   0.718802124337040  11.673616748318732 
  7.468761286151437   7.185095212985570  11.673616748318732 
  8.712577850317839   0.719200669709135  11.673616748318732 
 13.691577211293595   0.718952960839540  11.673616748318732 
  0.000203788017565   1.436719948903988   1.667332304395232 
  3.734312409873429   7.903027417784593   1.669882542396431 
  4.979244355101068   1.438777279923541   1.670090483564846 
  8.712834048621247   7.902979972499278   1.668766760644870 
  9.956512111740080   1.438368946355954   1.668074703597117 
 -4.978426178960694  10.060562937535959   8.338456494897789 
 -0.001398557139665  10.061697638339913   8.338778377618068 
  1.245001176697811   3.591398027725449   8.338583238959599 
  4.979773171129556  10.061100343238834   8.338944330869905 
  6.223993104956304   3.594118135411792   8.327874824322272 
 11.200739444387235   3.592805009379235   8.337706975250377 
 -2.490176021139797  10.061206852747715   1.667532182018803 
 -1.245464350479051   3.592228768742322   1.667268391619980 
  3.735769094320904   3.591827458268154   1.671041795095823 
  2.488288194996779  10.061552511921471   1.666590684597900 
  7.470002422950018  10.060530107366038   1.666941417913379 
  8.711203750188773   3.593607770170601   1.672729397641419 
 -6.222558113475936  12.216692470275554   8.338549696447307 
 -1.245338994643130  12.218369877545218   8.337985159555490 
 -0.000592448685852   5.747631570550157   8.338604255836772 
  4.981356253224250   5.742887230257182   8.331710333846100 
  3.733642839573420  12.217589065424653   8.339100655769158 
  9.955251517421420   5.747388785339758   8.335705535458002 
 -2.491032929734438   5.748071247259940   1.667672390540996 
 -3.733796317236132  12.217354682851379   1.667759724874982 
  1.243549570711239  12.218339932869968   1.667404176485649 
  2.490973957597796   5.745690893338088   1.668913840821323 
  6.224219132141146  12.216910672932253   1.666975745306122 
  7.466879950395336   5.745658966523359   1.680621671641211 
 -1.246081068809622   7.904522574188237   8.338861660095354 
  0.000203788017565   1.436719948903989   8.338624908449395 
  3.734312409873430   7.903027417784594   8.336074670448196 
  4.979244355101069   1.438777279923541   8.335866729279781 
  8.712834048621247   7.902979972499279   8.337190452199758 
 -3.735380719375113   7.903967149781713   1.667677976297528 
  9.956512111740080   1.438368946355955   8.337882509247498 
  2.490087227192258   1.436934156261797   1.668082149771667 
  1.243711492069415   7.904227524211008   1.666757763854031 
  6.226539997773666   7.902346600237744   1.671187710424898 
  7.467472427580402   1.439565877913115   1.670169850072682 
  1.243711492069415   7.904227524211009   8.339199448990597 
 12.446487384714107   1.437343808342385   1.667448894528732 
 -2.490176021139797  10.061206852747715   8.338425030825839 
 -1.245464350479051   3.592228768742323   8.338688821224649 
  3.735769094320904   3.591827458268154   8.334915417748805 
  2.488288194996779  10.061552511921471   8.339366528246716 
  7.470002422950019  10.060530107366038   8.339015794931250 
  8.711203750188773   3.593607770170602   8.333227815203207 
 -4.978426178960695  10.060562937535959   1.667500717946865 
 -0.001398557139665  10.061697638339913   1.667178835226547 
  1.245001176697810   3.591398027725448   1.667373973885042 
  4.979773171129555  10.061100343238834   1.667012881974708 
  6.223993104956303   3.594118135411791   1.678082388522357 
 11.200739444387235   3.592805009379234   1.668250237594251 
 -2.491032929734437   5.748071247259941   8.338284822303633 
 -3.733796317236131  12.217354682851379   8.338197487969646 
  1.243549570711239  12.218339932869968   8.338553036358967 
  2.490973957597796   5.745690893338089   8.337043372023318 
  6.224219132141147  12.216910672932253   8.338981467538504 
 -6.222558113475936  12.216692470275554   1.667407516397321 
  7.466879950395337   5.745658966523360   8.325335541203430 
 -1.245338994643131  12.218369877545218   1.667972053289151 
 -0.000592448685852   5.747631570550156   1.667352957007855 
 -1.246081068809623   7.904522574188236   1.667095552749287 
  4.981356253224249   5.742887230257181   1.674246878998527 
  3.733642839573419  12.217589065424653   1.666856557075469 
  9.955251517421420   5.747388785339758   1.670251677386626 
 -3.735380719375112   7.903967149781714   8.338279236547098 
  2.490087227192258   1.436934156261798   8.337875063072975 
  6.226539997773667   7.902346600237744   8.334769502419718 
  7.467472427580403   1.439565877913115   8.335787362771946 
 12.446487384714107   1.437343808342385   8.338508318315881 
Generated by cif2cell 2.0.0.  :  Failed to get author information, No journal information. Species order: N O B 
 1.0
 14.936314146199660   0.000000000000000   0.000000000000000
 -7.468157073099825  12.935227489513863   0.000000000000000
  0.000000000000001   0.000000000000001  13.341276283792837
 N O B 
 143   1 142
Cartesian
  1.244485584320018   0.718108271157808   1.668317999541052 
  4.978730294470943   7.185199536058729   1.690628974564727 
  6.223268883940556   0.718609273568335   1.667555637950775 
  9.957380676155214   7.185952911886994   1.666685447002552 
 11.202282990081759   0.717953152786788   1.667737143385530 
 -3.734218394193261   9.341947563020623   8.338433742888643 
  1.244653722412458   9.341769242823379   8.336359478591897 
  2.488775617296477   2.873842497985548   8.336790486738224 
  6.223567026593229   9.341595230265080   8.332448966987437 
  7.468178331850918   2.874145749692287   8.338006289274754 
 12.446873532913795   2.873743407303658   8.338605951716870 
 -1.244843700090947   9.341938408691185   1.668035920724943 
 -0.000394308210451   2.873614895670454   1.667773916894197 
  4.978371497568906   2.874196863230763   1.668339577520660 
  3.734200952097469   9.341379852080536   1.674475742238779 
  8.712816535388662   9.341981580833128   1.667972180994489 
  9.957612270818700   2.873930391831325   1.666979846628233 
 -4.978837051573900  11.497855846656446   8.337916672150323 
 -0.000183308265285  11.497931603988786   8.337874077989554 
  1.244583124900081   5.029481361135948   8.335716208234469 
  6.222680185716625   5.030036062202777   8.345944200036630 
  4.978892203660486  11.497374444460901   8.336705691818306 
 11.202054321190271   5.029864334488098   8.338964142922727 
 -1.244819397942841   5.029788891870294   1.668137036812592 
 -2.489518077012253  11.497970543163772   1.667538707517067 
  2.489289514556327  11.497580198165359   1.668697285446443 
  3.733626879462717   5.029554910264171   1.667760132787973 
  7.468270372139839  11.497639742525267   1.668688208362450 
  8.712735445165460   5.029862698262963   1.667470185329577 
 -0.000028546679047   7.185786026499148   8.337435713116985 
  1.244485584320018   0.718108271157809   8.337639213303575 
  4.978730294470944   7.185199536058730   8.315328238279900 
  6.223268883940557   0.718609273568335   8.338401574893853 
  9.957380676155214   7.185952911886995   8.339271765842089 
 -2.489585618958680   7.185882576102243   1.667497182041772 
 11.202282990081759   0.717953152786789   8.338220069459098 
  3.733827372379859   0.718459100657169   1.667645192085957 
  2.489609542053290   7.185740612076356   1.673286538247601 
  7.467898898192709   7.186279594629513   1.669083576089541 
  8.712755573567476   0.718371785194139   1.667433577477164 
  2.489609542053290   7.185740612076357   8.332670674597040 
 13.691611458836057   0.717851456797161   1.668250611186195 
 -1.244843700090947   9.341938408691185   8.337921292119685 
 -0.000394308210451   2.873614895670455   8.338183295950444 
  4.978371497568907   2.874196863230764   8.337617635323967 
  3.734200952097469   9.341379852080536   8.331481470605850 
  8.712816535388662   9.341981580833128   8.337985031850152 
  9.957612270818700   2.873930391831326   8.338977366216408 
 -3.734218394193261   9.341947563020623   1.667523469955985 
  1.244653722412457   9.341769242823379   1.669597734252731 
  2.488775617296477   2.873842497985547   1.669166726106405 
  6.223567026593228   9.341595230265080   1.673508245857189 
  7.468178331850917   2.874145749692286   1.667950923569875 
 12.446873532913795   2.873743407303657   1.667351261127745 
 -1.244819397942840   5.029788891870295   8.337820176032036 
 -2.489518077012252  11.497970543163772   8.338418505327574 
  2.489289514556327  11.497580198165359   8.337259927398184 
  3.733626879462717   5.029554910264172   8.338197080056641 
  7.468270372139840  11.497639742525267   8.337269004482163 
 -4.978837051573901  11.497855846656446   1.668040540694305 
  8.712735445165460   5.029862698262964   8.338487027515050 
 -0.000183308265285  11.497931603988786   1.668083134855060 
  1.244583124900081   5.029481361135947   1.670241004610171 
 -0.000028546679047   7.185786026499147   1.668521499727642 
  6.222680185716624   5.030036062202776   1.660013012807986 
  4.978892203660485  11.497374444460901   1.669251521026323 
 11.202054321190271   5.029864334488098   1.666993069921900 
 -2.489585618958679   7.185882576102244   8.338460030802857 
  3.733827372379859   0.718459100657169   8.338312020758671 
  7.467898898192710   7.186279594629513   8.336873636755099 
  8.712755573567476   0.718371785194139   8.338523635367464 
 13.691611458836057   0.717851456797162   8.337706601658432 
 -0.006134226471382   1.424190270928482   5.002978606422314 
  3.713042886203045   7.861059900937649   5.002978606422314 
  4.969449069106420   1.491547095432420   5.002978606422314 
  8.726441884427816   7.892999438536160   5.002978606422314 
  9.959856175825088   1.425132934663661   5.002978606422314 
 -4.978686283566216  10.060579755628670  11.673616748318732 
  0.000135006927504  10.060628417302537  11.673616748318732 
  1.244711528170337   3.593139725313155  11.673616748318732 
  4.978794645646153  10.060618181222557  11.673616748318732 
  6.223581429056554   3.593026503726813  11.673616748318732 
 11.202337528004776   3.593122456545555  11.673616748318732 
 -2.483524755458018  10.066755820334818   5.002978606422314 
 -1.253701497507980   3.582125266699508   5.002978606422314 
  3.692156177158512   3.638247970042060   5.002978606422314 
  2.484367234391693  10.045603955206269   5.002978606422314 
  7.482037271365273  10.058071516167987   5.002978606422314 
  8.734491555058977   3.583835361289826   5.002978606422314 
 -6.223469336259471  12.216497738414226  11.673616748318732 
 -1.244547897666363  12.216460270348977  11.673616748318732 
  0.000038568278028   5.748988049349586  11.673616748318732 
  4.978777692824211   5.749062738738512  11.673616748318732 
  3.734127738443064  12.216544478909107  11.673616748318732 
  9.957744761073375   5.748956610303206  11.673616748318732 
 -2.485486592627179   5.743617737872374   5.002978606422314 
 -3.728338762955927  12.234516954905800   5.002978606422314 
  1.242644049985717  12.211937835669110   5.002978606422314 
  2.459034306741603   5.701428964767155   5.002978606422314 
  6.223816321079516  12.202099547589359   5.002978606422314 
  7.476189880348308   5.714529859759798   5.002978606422314 
 -1.244600042348752   7.904776902041030  11.673616748318732 
  0.000019594849538   1.437185840017123  11.673616748318732 
  3.734151645285502   7.904757489844264  11.673616748318732 
  4.978885358496990   1.437135740842901  11.673616748318732 
  8.713008907839942   7.904715896462462  11.673616748318732 
 -3.723319079667826   7.904944811763657   5.002978606422314 
  9.957604089789454   1.437183908171839  11.673616748318732 
  2.493146025426196   1.459142278219362   5.002978606422314 
  1.247664170892796   7.874836690569960   5.002978606422314 
  6.260623677328415   7.885058430033063   5.002978606422314 
  7.468568511628574   1.445413753717174   5.002978606422314 
  1.244776139181873   7.904781411443475  11.673616748318732 
 12.444855011293786   1.422958398578634   5.002978606422314 
 -2.489249212255878  10.060594407739410  11.673616748318732 
 -1.244652049463342   3.593121473476843  11.673616748318732 
  3.734122343870837   3.593137542579652  11.673616748318732 
  2.489468890008154  10.060631788817272  11.673616748318732 
  7.468183291104449  10.060599473171713  11.673616748318732 
  8.712978690360274   3.593064040899614  11.673616748318732 
 -4.970268284003737  10.062006214413312   5.002978606422314 
  0.003231827144179  10.053873740582556   5.002978606422314 
  1.214373201367369   3.574919851298115   5.002978606422314 
  4.979711414958484  10.040876129703015   5.002978606422314 
  6.244916867957796   3.584661444280794   5.002978606422314 
 11.207044412535655   3.583771216677809   5.002978606422314 
 -2.489291752664510   5.748978087410124  11.673616748318732 
 -3.734003915416695  12.216465536166233  11.673616748318732 
  1.244777419379851  12.216510754229244  11.673616748318732 
  2.489404635304393   5.749039888857643  11.673616748318732 
  6.223498708610248  12.216530875626880  11.673616748318732 
 -6.215948662553108  12.221948689390567   5.002978606422314 
  7.468319536327996   5.748940315922480  11.673616748318732 
 -1.246849964959676  12.233501855337495   5.002978606422314 
 -0.001816079199388   5.738847106024894   5.002978606422314 
 -1.241475620552120   7.900937142457829   5.002978606422314 
  3.733054951458182  12.200548613288131   5.002978606422314 
  9.968490212531790   5.743045442210120   5.002978606422314 
 -3.733914044801476   7.904752334112288  11.673616748318732 
  2.489406742264927   1.437174079238013  11.673616748318732 
  6.223455878267459   7.904727562726543  11.673616748318732 
  7.468260844527175   1.437095982022736  11.673616748318732 
 12.446997230107494   1.437207892755712  11.673616748318732 
  3.727258271277773   5.070341791348438   5.002978606422314 
  1.251261345608020   0.727610100609955   5.002978606422314 
  4.997907006549754   7.475468487529122   5.002978606422314 
  6.215429103824740   0.753597136131494   5.002978606422314 
  9.970384921674466   7.173138851496451   5.002978606422314 
 11.197629476770020   0.710336232806059   5.002978606422314 
 -3.733945135129530   9.341762508002347  11.673616748318732 
  1.244418811499924   9.342100473926545  11.673616748318732 
  2.489911912232952   2.874540184017714  11.673616748318732 
  6.223868351060354   9.341607303390962  11.673616748318732 
  7.468172596123659   2.874784158729681  11.673616748318732 
 12.446556363262300   2.874802763948492  11.673616748318732 
 -1.245710686682029   9.340163601703182   5.002978606422314 
 -0.021389567998854   2.856439682460898   5.002978606422314 
  4.993197515309504   2.975454428352675   5.002978606422314 
  3.720121569289718   9.358876914974461   5.002978606422314 
  8.731313568238633   9.324159829569680   5.002978606422314 
  9.957919994734830   2.868821629606263   5.002978606422314 
 -4.978432994402316  11.497858343287085  11.673616748318732 
 -0.000131588341439  11.498312330546575  11.673616748318732 
  1.244731253987720   5.030178994456143  11.673616748318732 
  6.224157846119019   5.029773758489967  11.673616748318732 
  4.978758759733700  11.498275063444922  11.673616748318732 
 11.201867785804639   5.030310734194190  11.673616748318732 
 -1.252345428889403   5.018568608308772   5.002978606422314 
 -2.485814741310715  11.510168802914222   5.002978606422314 
  2.481929834656596  11.496880349576847   5.002978606422314 
  7.479474203269248  11.501624995258823   5.002978606422314 
  8.691303115902635   5.026658198181143   5.002978606422314 
 -0.000325200327280   7.186017333988372  11.673616748318732 
  1.244993111426105   0.718745927958871  11.673616748318732 
  4.979287988740177   7.185288718791464  11.673616748318732 
  6.223663119636184   0.719005458673556  11.673616748318732 
  9.957650648113260   7.185622927876449  11.673616748318732 
 -2.487667308966805   7.180400699082480   5.002978606422314 
 11.201905476516993   0.719202417734631  11.673616748318732 
  3.744210162722357   0.748181399513813   5.002978606422314 
  2.465301426101123   7.124991125266519   5.002978606422314 
  7.513331089300781   7.088653823566561   5.002978606422314 
  8.705795307325053   0.723496820007731   5.002978606422314 
  2.489313101144630   7.185731096613902  11.673616748318732 
 13.687119464762393   0.707704214509553   5.002978606422314 
 -1.244867975825887   9.342035473574501  11.673616748318732 
 -0.000004901252824   2.874622963881606  11.673616748318732 
  4.979483426010726   2.874635930549511  11.673616748318732 
  3.734067764262223   9.341978366407224  11.673616748318732 
  8.713284043830775   9.341451605003863  11.673616748318732 
  9.957101507359315   2.874900186594820  11.673616748318732 
 -3.725010929689371   9.340999382452805   5.002978606422314 
  1.236751149195970   9.323303300150750   5.002978606422314 
  2.469972502689063   2.899347484664993   5.002978606422314 
  6.249536127512778   9.364234448843682   5.002978606422314 
  7.471588626192224   2.907139403274495   5.002978606422314 