Species order:X N B                     
   2.51242800000000     
     5.9449720136058266    0.0000000000000000    0.0000000000000000
    -2.9724860068029120    5.1484967885702053   -0.0000000000000001
     0.0000000000000000    0.0000000000000009    5.3101128803662583
   O    N    B 
     1   143   142
Direct
  0.4455330414357521  0.3919793289649360  0.3750000000000000
  0.1110773094178934  0.0555157048254429  0.1250493554029571
  0.6110682388879628  0.5554753128140589  0.1267216822890124
  0.4444308064561153  0.0555544364527705  0.1249922123250336
  0.9444225922234127  0.5555335549925500  0.1249269868601149
  0.7777550286102201  0.0555037128932448  0.1250058171279698
  0.1110955172628200  0.7222097617219188  0.6250101988381935
  0.4444287020538358  0.7221959760967810  0.6248547216370163
  0.2777117109693626  0.2221717786034507  0.6248870280024009
  0.7777648108990147  0.7221825234877378  0.6245616078807850
  0.6110990345264227  0.2221952224668835  0.6249781589040234
  0.9444117152752539  0.2221641180747145  0.6250231068107572
  0.2777610938221569  0.7222090540165890  0.1250282120872723
  0.1110506922334796  0.2221541830632656  0.1250085734990913
  0.4444061476805542  0.2221991739658826  0.1250509727879170
  0.6110911323206888  0.7221658729738821  0.1255109111467057
  0.9444372940854583  0.7222123915799965  0.1250234344536259
  0.7777606069654411  0.2221785735242087  0.1249490536863627
  0.1111019157975393  0.8888792915298442  0.6249714416213192
  0.4444303014415698  0.8888851481978003  0.6249682489611967
  0.2777362274274073  0.3888204799809795  0.6248065050838360
  0.6110458558201315  0.3888633629582823  0.6255731477636360
  0.7777624600309857  0.8888420751611382  0.6248806721697122
  0.9444129060637990  0.3888500869865362  0.6250499551570650
  0.1110803211893874  0.3888442546486148  0.1250357912787601
  0.2777685492289482  0.8888881585178749  0.1249909432984915
  0.6110892183744483  0.8888579816231331  0.1250777849097987
  0.4443828441099387  0.3888261659365064  0.1250075403066191
  0.9444388779223211  0.8888625848943128  0.1250771045338145
  0.7777506494766745  0.3888499604928085  0.1249858071941167
  0.2777584154598704  0.5555206533726919  0.6249353911698395
  0.1110773094178934  0.0555157048254429  0.6249506445970425
  0.6110682388879628  0.5554753128140589  0.6232783177109881
  0.4444308064561153  0.0555544364527705  0.6250077876749661
  0.9444225922234127  0.5555335549925500  0.6250730131398858
  0.1110840067019555  0.5555281174550343  0.1249878307420612
  0.7777550286102201  0.0555037128932448  0.6249941828720305
  0.2777545977500463  0.0555428268454959  0.1249989248863573
  0.4444402249300169  0.5555171424624411  0.1254217739482936
  0.7777621200863474  0.5555588102687163  0.1251067394591897
  0.6110950551645911  0.0555360766385051  0.1249830632398183
  0.4444402249300169  0.5555171424624411  0.6245782260517074
  0.9444139332222841  0.0554958509526875  0.1250443042854011
  0.2777610938221569  0.7222090540165890  0.6249717879127281
  0.1110506922334796  0.2221541830632656  0.6249914265009097
  0.4444061476805542  0.2221991739658826  0.6249490272120828
  0.6110911323206888  0.7221658729738821  0.6244890888532937
  0.9444372940854583  0.7222123915799965  0.6249765655463750
  0.7777606069654411  0.2221785735242087  0.6250509463136376
  0.1110955172628200  0.7222097617219188  0.1249898011618061
  0.4444287020538358  0.7221959760967810  0.1251452783629843
  0.2777117109693626  0.2221717786034507  0.1251129719975993
  0.7777648108990147  0.7221825234877378  0.1254383921192151
  0.6110990345264227  0.2221952224668835  0.1250218410959766
  0.9444117152752539  0.2221641180747145  0.1249768931892423
  0.1110803211893874  0.3888442546486148  0.6249642087212401
  0.2777685492289482  0.8888881585178749  0.6250090567015087
  0.6110892183744483  0.8888579816231331  0.6249222150902014
  0.4443828441099387  0.3888261659365064  0.6249924596933805
  0.9444388779223211  0.8888625848943128  0.6249228954661850
  0.1111019157975393  0.8888792915298442  0.1250285583786809
  0.7777506494766745  0.3888499604928085  0.6250141928058834
  0.4444303014415698  0.8888851481978003  0.1250317510388024
  0.2777362274274073  0.3888204799809795  0.1251934949161647
  0.2777584154598704  0.5555206533726919  0.1250646088301602
  0.6110458558201315  0.3888633629582823  0.1244268522363630
  0.7777624600309857  0.8888420751611382  0.1251193278302879
  0.9444129060637990  0.3888500869865362  0.1249500448429348
  0.1110840067019555  0.5555281174550343  0.6250121692579392
  0.2777545977500463  0.0555428268454959  0.6250010751136426
  0.7777621200863474  0.5555588102687163  0.6248932605408110
  0.6110950551645911  0.0555360766385051  0.6250169367601816
  0.9444139332222841  0.0554958509526875  0.6249556957145987
  0.0546401476186188  0.1101016794705015  0.3750000000000000
  0.5524540964629250  0.6077249052875436  0.3750000000000000
  0.3903636552560621  0.1153089187369581  0.3750000000000000
  0.8893403757418961  0.6101940955375341  0.3750000000000000
  0.7219088292962590  0.1101745551687414  0.3750000000000000
  0.0555553490926528  0.7777659700058949  0.8750000000000000
  0.3888939048159886  0.7777697319554941  0.8750000000000000
  0.2222242839382386  0.2777793995680388  0.8750000000000000
  0.7222193611623842  0.7777689406219063  0.8750000000000000
  0.5555598367151369  0.2777706466035905  0.8750000000000000
  0.8888958558026003  0.2777780645495701  0.8750000000000000
  0.2228474438002755  0.7782434308554359  0.3750000000000000
  0.0545274745509520  0.2769278908781015  0.3750000000000000
  0.3878265792578260  0.2812666397240756  0.3750000000000000
  0.5546347847946249  0.7766082168519954  0.3750000000000000
  0.8897153232502515  0.7775720623639372  0.3750000000000000
  0.7233123085041548  0.2770600953245791  0.3750000000000000
  0.0555511161218785  0.9444362496382624  0.8750000000000000
  0.3888930475824158  0.9444333530471291  0.8750000000000000
  0.2222247291834353  0.4444442940033397  0.8750000000000000
  0.5555587898995965  0.4444500681104434  0.8750000000000000
  0.7222232256445220  0.9444398630648458  0.8750000000000000
  0.8889011223006120  0.4444418635051978  0.8750000000000000
  0.0556089438348519  0.4440291245382834  0.3750000000000000
  0.2232989251376007  0.9458292840094150  0.3750000000000000
  0.5552380303172917  0.9440837314665634  0.3750000000000000
  0.3850184053459151  0.4407675836694096  0.3750000000000000
  0.8883518148910141  0.9433231504804358  0.3750000000000000
  0.7214279994180779  0.4417803911367134  0.3750000000000000
  0.2222251753303591  0.6111045908121175  0.8750000000000000
  0.0555544840806700  0.1111063443748635  0.8750000000000000
  0.5555564397416661  0.6111030900888582  0.8750000000000000
  0.3888921998077138  0.1111024712946048  0.8750000000000000
  0.8888939150967256  0.6110998745766583  0.8750000000000000
  0.0562791413668085  0.6111175716215206  0.3750000000000000
  0.7222238699895146  0.1111061950272549  0.8750000000000000
  0.2233203037839692  0.1128037585270329  0.3750000000000000
  0.3879272488046806  0.6087899649970451  0.3750000000000000
  0.7239446210519840  0.6095801899444914  0.3750000000000000
  0.5558987612442641  0.1117424301110219  0.3750000000000000
  0.3888913796340978  0.6111049394261991  0.8750000000000000
  0.8881977371327749  0.1100064455559192  0.3750000000000000
  0.2222260220808629  0.7777671027351615  0.8750000000000000
  0.0555583922751558  0.2777779885502333  0.8750000000000000
  0.3888925483528653  0.2777792308246982  0.8750000000000000
  0.5555572332154499  0.7777699926014499  0.8750000000000000
  0.8888855024870491  0.7777674943349462  0.8750000000000000
  0.7222287289889338  0.2777735485373088  0.8750000000000000
  0.0561740804500235  0.7778762470602263  0.3750000000000000
  0.3888401436137249  0.7772475396148136  0.3750000000000000
  0.2194888315655702  0.2763708527118040  0.3750000000000000
  0.7215176278335158  0.7762427168631401  0.3750000000000000
  0.5566649198980923  0.2771239583677019  0.3750000000000000
  0.8888495219937873  0.2770551364158877  0.3750000000000000
  0.0555613845252522  0.4444435238630801  0.8750000000000000
  0.2222218760228158  0.9444337601383274  0.8750000000000000
  0.5555576235656049  0.9444372558683441  0.8750000000000000
  0.3888920858159737  0.4444483016257879  0.8750000000000000
  0.8888883809125577  0.9444388114186933  0.8750000000000000
  0.0562653339413129  0.9448576532031208  0.3750000000000000
  0.7222311789703241  0.4444406038148881  0.8750000000000000
  0.3893976497428587  0.9457508084225634  0.3750000000000000
  0.2217085694561886  0.4436603152652073  0.3750000000000000
  0.2222859356731557  0.6108077456591186  0.3750000000000000
  0.7215330952545094  0.9432032504398310  0.3750000000000000
  0.8893920491047000  0.4439848813533285  0.3750000000000000
  0.0555623586282627  0.6111026915081623  0.8750000000000000
  0.2222207936507449  0.1111054351694295  0.8750000000000000
  0.7222164959099305  0.6111007764752977  0.8750000000000000
  0.5555566463973056  0.1110993976091826  0.8750000000000000
  0.8888919624959509  0.1111080492338308  0.8750000000000000
  0.1118982378584694  0.0562502747786846  0.3750000000000000
  0.6235722320096632  0.5779155019569024  0.3750000000000000
  0.4452583514335705  0.0582592874182081  0.3750000000000000
  0.9447979220570308  0.5545429222107968  0.3750000000000000
  0.7771490461687407  0.0549148620217076  0.3750000000000000
  0.1111066590677853  0.7221954554394492  0.8750000000000000
  0.4444257780027259  0.7222215829988194  0.8750000000000000
  0.2778147554112443  0.2222257155004039  0.8750000000000000
  0.7777854515260518  0.7221834568401584  0.8750000000000000
  0.6111233276618502  0.2222445767621915  0.8750000000000000
  0.9444314289870632  0.2222460150993859  0.8750000000000000
  0.2776344446458705  0.7220718467668945  0.3750000000000000
  0.1089811472670469  0.2208263971218530  0.3750000000000000
  0.4493127865945374  0.2300272206858963  0.3750000000000000
  0.6108248384548143  0.7235185405561185  0.3750000000000000
  0.9449868031464118  0.7208346229031106  0.3750000000000000
  0.7775837345922517  0.2217836239781565  0.3750000000000000
  0.1111290643027177  0.8888794845400276  0.8750000000000000
  0.4444484807930357  0.8889145815075808  0.8750000000000000
  0.2777731112173071  0.3888744128028619  0.8750000000000000
  0.6111346474236163  0.3888430847132321  0.8750000000000000
  0.7777883384828108  0.8889117004525952  0.8750000000000000
  0.9444176725412682  0.3888845973734968  0.8750000000000000
  0.1101427361503926  0.3879768339889770  0.3750000000000000
  0.2784880041190179  0.8898311848202987  0.3750000000000000
  0.6105694289809804  0.8888038775427000  0.3750000000000000
  0.9453430312318809  0.8891706778703965  0.3750000000000000
  0.7761918681053267  0.3886022261499522  0.3750000000000000
  0.2777474952150584  0.5555385353534623  0.8750000000000000
  0.1111359368960824  0.0555650009666649  0.8750000000000000
  0.6111090243145434  0.5554822073764324  0.8750000000000000
  0.4444725150909679  0.0555850648360400  0.8750000000000000
  0.9444279118491224  0.5555080445010788  0.8750000000000000
  0.1110005421223451  0.5551043230514020  0.3750000000000000
  0.7777780429821594  0.0556002913994103  0.8750000000000000
  0.2795986248184862  0.0578406062143347  0.3750000000000000
  0.4404645554352727  0.5508207050121455  0.3750000000000000
  0.7770302076487825  0.5480115312477563  0.3750000000000000
  0.6108271626996883  0.0559322841901501  0.3750000000000000
  0.4444200101259823  0.5555164068385439  0.8750000000000000
  0.9437209572284322  0.0547113852526573  0.3750000000000000
  0.2777632204982068  0.7222165579343515  0.8750000000000000
  0.1111157293906518  0.2222321150680932  0.8750000000000000
  0.4444975640810881  0.2222331174986968  0.8750000000000000
  0.6111053503245618  0.7222121430783064  0.8750000000000000
  0.9444481084505577  0.7221714200679229  0.8750000000000000
  0.7777638974565153  0.2222535466751856  0.8750000000000000
  0.1116753144010595  0.7221364595269182  0.3750000000000000
  0.4431858324939394  0.7207684060994545  0.3750000000000000
  0.2774386982540137  0.2241435248831448  0.3750000000000000
  0.7803785655025947  0.7239327222064657  0.3750000000000000
  0.6126026979402155  0.2247459045951227  0.3750000000000000
  0.9435058849847274  0.2214084594256007  0.3750000000000000
  0.1110860768103797  0.3888844776402883  0.8750000000000000
  0.2777925451831458  0.8888949754963735  0.8750000000000000
  0.6111113403708650  0.8889239800829103  0.8750000000000000
  0.4444641961062502  0.3888539423619656  0.8750000000000000
  0.9444600621422097  0.8888843797202962  0.8750000000000000
  0.1121092798473266  0.8893787147933664  0.3750000000000000
  0.7777635218041165  0.3888694284551635  0.8750000000000000
  0.4442236018866856  0.8892890640430102  0.3750000000000000
  0.2743908470275518  0.3857185611794315  0.3750000000000000
  0.2765452145519476  0.5544627843677280  0.3750000000000000
  0.7775837944550512  0.8885816833489156  0.3750000000000000
  0.9440402317355822  0.3883367544907739  0.3750000000000000
  0.1110840123913158  0.5555363495911186  0.8750000000000000
  0.2778190818996126  0.0555693454111839  0.8750000000000000
  0.7777740765098676  0.5554672477782302  0.8750000000000000
  0.6111151962412500  0.0556001562625906  0.8750000000000000
  0.9444542180011809  0.0555810063195538  0.8750000000000000
  0.0555488073661392  0.1110703271410331  0.1249754722807693
  0.5555003286440264  0.6109693412188767  0.1251666262563670
  0.3889796872307412  0.1112293758335446  0.1251822125589063
  0.8888151074756080  0.6109656733061674  0.1250829924474398
  0.7221965676757859  0.1111978082737233  0.1250311190709333
  0.0555721132469634  0.7777646698283202  0.6250119042229455
  0.3888325610999656  0.7778523915792420  0.6250360310541001
  0.2221763523644498  0.2776447519486510  0.6250214043681427
  0.7223035119000417  0.7778062157310349  0.6250484701377605
  0.5556295948721179  0.2778550387556315  0.6242187514277844
  0.8887765919864378  0.2777535232597804  0.6249557237173126
  0.2221876449024043  0.7778144497964169  0.1249904541775019
  0.0554695012461185  0.2777089750956773  0.1249706816764904
  0.3889521596405932  0.2776779504790249  0.1252535184452946
  0.5555137743491625  0.7778411721075655  0.1249198839111440
  0.8890046137658808  0.7777621317848300  0.1249461732486869
  0.7221309124917556  0.2778155833041064  0.1253800132805492
  0.0556196505183879  0.9444513040206834  0.6250188901774777
  0.3889138971205944  0.9445809814671002  0.6249765751185725
  0.2221300485045181  0.4443394269802801  0.6250229796954748
  0.5554927179708481  0.4439726502616780  0.6245062433769980
  0.7222311388040299  0.9445206182364422  0.6250601875249081
  0.8886735944257041  0.4443206576767949  0.6248057051021674
  0.0554097579959373  0.4443734176240579  0.1250009635560062
  0.2222701441063285  0.9445024985262576  0.1250075097313593
  0.5555461232793691  0.9445786664961978  0.1249808594782821
  0.3888677008728242  0.4441893965912795  0.1250940168931766
  0.8889512946674641  0.9444681728895820  0.1249487462703393
  0.7220079596500210  0.4441869283846125  0.1259715814208006
  0.2221161884210583  0.6110849291669705  0.6250422735211255
  0.0555488073661392  0.1110703271410331  0.6250245277192310
  0.5555003286440264  0.6109693412188767  0.6248333737436329
  0.3889796872307412  0.1112293758335446  0.6248177874410940
  0.8888151074756080  0.6109656733061674  0.6249170075525601
  0.0554338127943000  0.6110419902695315  0.1250013822383280
  0.7221965676757859  0.1111978082737233  0.6249688809290663
  0.2222570787293214  0.1110868871403053  0.1250316772015338
  0.3887986904979646  0.6110621193650198  0.1249324073948481
  0.7223309465137167  0.6109167083952637  0.1252644555794917
  0.5555993328395012  0.1112903409762311  0.1251881615030812
  0.3887986904979646  0.6110621193650198  0.6250675926051520
  0.8888630815760260  0.1111185566320799  0.1249842113347415
  0.2221876449024043  0.7778144497964169  0.6250095458224987
  0.0554695012461185  0.2777089750956773  0.6250293183235098
  0.3889521596405932  0.2776779504790249  0.6247464815547055
  0.5555137743491625  0.7778411721075655  0.6250801160888553
  0.8890046137658808  0.7777621317848300  0.6250538267513132
  0.7221309124917556  0.2778155833041064  0.6246199867194505
  0.0555721132469634  0.7777646698283202  0.1249880957770559
  0.3888325610999656  0.7778523915792420  0.1249639689458994
  0.2221763523644498  0.2776447519486510  0.1249785956318579
  0.7223035119000417  0.7778062157310349  0.1249515298622384
  0.5556295948721179  0.2778550387556315  0.1257812485722156
  0.8887765919864378  0.2777535232597804  0.1250442762826871
  0.0554097579959373  0.4443734176240579  0.6249990364439943
  0.2222701441063285  0.9445024985262576  0.6249924902686409
  0.5555461232793691  0.9445786664961978  0.6250191405217168
  0.3888677008728242  0.4441893965912795  0.6249059831068241
  0.8889512946674641  0.9444681728895820  0.6250512537296607
  0.0556196505183879  0.9444513040206834  0.1249811098225219
  0.7220079596500210  0.4441869283846125  0.6240284185792004
  0.3889138971205944  0.9445809814671002  0.1250234248814277
  0.2221300485045181  0.4443394269802801  0.1249770203045253
  0.2221161884210583  0.6110849291669705  0.1249577264788746
  0.5554927179708481  0.4439726502616780  0.1254937566230024
  0.7222311388040299  0.9445206182364422  0.1249398124750917
  0.8886735944257041  0.4443206576767949  0.1251942948978334
  0.0554338127943000  0.6110419902695315  0.6249986177616719
  0.2222570787293214  0.1110868871403053  0.6249683227984667
  0.7223309465137167  0.6109167083952637  0.6247355444205074
  0.5555993328395012  0.1112903409762311  0.6248118384969193
  0.8888630815760260  0.1111185566320799  0.6250157886652583
 
  0.00000000E+00  0.00000000E+00  0.00000000E+00
  0.00000000E+00  0.00000000E+00  0.00000000E+00
  0.00000000E+00  0.00000000E+00  0.00000000E+00
  0.00000000E+00  0.00000000E+00  0.00000000E+00
  0.00000000E+00  0.00000000E+00  0.00000000E+00
  0.00000000E+00  0.00000000E+00  0.00000000E+00
  0.00000000E+00  0.00000000E+00  0.00000000E+00
  0.00000000E+00  0.00000000E+00  0.00000000E+00
  0.00000000E+00  0.00000000E+00  0.00000000E+00
  0.00000000E+00  0.00000000E+00  0.00000000E+00
  0.00000000E+00  0.00000000E+00  0.00000000E+00
  0.00000000E+00  0.00000000E+00  0.00000000E+00
  0.00000000E+00  0.00000000E+00  0.00000000E+00
  0.00000000E+00  0.00000000E+00  0.00000000E+00
  0.00000000E+00  0.00000000E+00  0.00000000E+00
  0.00000000E+00  0.00000000E+00  0.00000000E+00
  0.00000000E+00  0.00000000E+00  0.00000000E+00
  0.00000000E+00  0.00000000E+00  0.00000000E+00
  0.00000000E+00  0.00000000E+00  0.00000000E+00
  0.00000000E+00  0.00000000E+00  0.00000000E+00
  0.00000000E+00  0.00000000E+00  0.00000000E+00
  0.00000000E+00  0.00000000E+00  0.00000000E+00
  0.00000000E+00  0.00000000E+00  0.00000000E+00
  0.00000000E+00  0.00000000E+00  0.00000000E+00
  0.00000000E+00  0.00000000E+00  0.00000000E+00
  0.00000000E+00  0.00000000E+00  0.00000000E+00
  0.00000000E+00  0.00000000E+00  0.00000000E+00
  0.00000000E+00  0.00000000E+00  0.00000000E+00
  0.00000000E+00  0.00000000E+00  0.00000000E+00
  0.00000000E+00  0.00000000E+00  0.00000000E+00
  0.00000000E+00  0.00000000E+00  0.00000000E+00
  0.00000000E+00  0.00000000E+00  0.00000000E+00
  0.00000000E+00  0.00000000E+00  0.00000000E+00
  0.00000000E+00  0.00000000E+00  0.00000000E+00
  0.00000000E+00  0.00000000E+00  0.00000000E+00
  0.00000000E+00  0.00000000E+00  0.00000000E+00
  0.00000000E+00  0.00000000E+00  0.00000000E+00
  0.00000000E+00  0.00000000E+00  0.00000000E+00
  0.00000000E+00  0.00000000E+00  0.00000000E+00
  0.00000000E+00  0.00000000E+00  0.00000000E+00
  0.00000000E+00  0.00000000E+00  0.00000000E+00
  0.00000000E+00  0.00000000E+00  0.00000000E+00
  0.00000000E+00  0.00000000E+00  0.00000000E+00
  0.00000000E+00  0.00000000E+00  0.00000000E+00
  0.00000000E+00  0.00000000E+00  0.00000000E+00
  0.00000000E+00  0.00000000E+00  0.00000000E+00
  0.00000000E+00  0.00000000E+00  0.00000000E+00
  0.00000000E+00  0.00000000E+00  0.00000000E+00
  0.00000000E+00  0.00000000E+00  0.00000000E+00
  0.00000000E+00  0.00000000E+00  0.00000000E+00
  0.00000000E+00  0.00000000E+00  0.00000000E+00
  0.00000000E+00  0.00000000E+00  0.00000000E+00
  0.00000000E+00  0.00000000E+00  0.00000000E+00
  0.00000000E+00  0.00000000E+00  0.00000000E+00
  0.00000000E+00  0.00000000E+00  0.00000000E+00
  0.00000000E+00  0.00000000E+00  0.00000000E+00
  0.00000000E+00  0.00000000E+00  0.00000000E+00
  0.00000000E+00  0.00000000E+00  0.00000000E+00
  0.00000000E+00  0.00000000E+00  0.00000000E+00
  0.00000000E+00  0.00000000E+00  0.00000000E+00
  0.00000000E+00  0.00000000E+00  0.00000000E+00
  0.00000000E+00  0.00000000E+00  0.00000000E+00
  0.00000000E+00  0.00000000E+00  0.00000000E+00
  0.00000000E+00  0.00000000E+00  0.00000000E+00
  0.00000000E+00  0.00000000E+00  0.00000000E+00
  0.00000000E+00  0.00000000E+00  0.00000000E+00
  0.00000000E+00  0.00000000E+00  0.00000000E+00
  0.00000000E+00  0.00000000E+00  0.00000000E+00
  0.00000000E+00  0.00000000E+00  0.00000000E+00
  0.00000000E+00  0.00000000E+00  0.00000000E+00
  0.00000000E+00  0.00000000E+00  0.00000000E+00
  0.00000000E+00  0.00000000E+00  0.00000000E+00
  0.00000000E+00  0.00000000E+00  0.00000000E+00
  0.00000000E+00  0.00000000E+00  0.00000000E+00
  0.00000000E+00  0.00000000E+00  0.00000000E+00
  0.00000000E+00  0.00000000E+00  0.00000000E+00
  0.00000000E+00  0.00000000E+00  0.00000000E+00
  0.00000000E+00  0.00000000E+00  0.00000000E+00
  0.00000000E+00  0.00000000E+00  0.00000000E+00
  0.00000000E+00  0.00000000E+00  0.00000000E+00
  0.00000000E+00  0.00000000E+00  0.00000000E+00
  0.00000000E+00  0.00000000E+00  0.00000000E+00
  0.00000000E+00  0.00000000E+00  0.00000000E+00
  0.00000000E+00  0.00000000E+00  0.00000000E+00
  0.00000000E+00  0.00000000E+00  0.00000000E+00
  0.00000000E+00  0.00000000E+00  0.00000000E+00
  0.00000000E+00  0.00000000E+00  0.00000000E+00
  0.00000000E+00  0.00000000E+00  0.00000000E+00
  0.00000000E+00  0.00000000E+00  0.00000000E+00
  0.00000000E+00  0.00000000E+00  0.00000000E+00
  0.00000000E+00  0.00000000E+00  0.00000000E+00
  0.00000000E+00  0.00000000E+00  0.00000000E+00
  0.00000000E+00  0.00000000E+00  0.00000000E+00
  0.00000000E+00  0.00000000E+00  0.00000000E+00
  0.00000000E+00  0.00000000E+00  0.00000000E+00
  0.00000000E+00  0.00000000E+00  0.00000000E+00
  0.00000000E+00  0.00000000E+00  0.00000000E+00
  0.00000000E+00  0.00000000E+00  0.00000000E+00
  0.00000000E+00  0.00000000E+00  0.00000000E+00
  0.00000000E+00  0.00000000E+00  0.00000000E+00
  0.00000000E+00  0.00000000E+00  0.00000000E+00
  0.00000000E+00  0.00000000E+00  0.00000000E+00
  0.00000000E+00  0.00000000E+00  0.00000000E+00
  0.00000000E+00  0.00000000E+00  0.00000000E+00
  0.00000000E+00  0.00000000E+00  0.00000000E+00
  0.00000000E+00  0.00000000E+00  0.00000000E+00
  0.00000000E+00  0.00000000E+00  0.00000000E+00
  0.00000000E+00  0.00000000E+00  0.00000000E+00
  0.00000000E+00  0.00000000E+00  0.00000000E+00
  0.00000000E+00  0.00000000E+00  0.00000000E+00
  0.00000000E+00  0.00000000E+00  0.00000000E+00
  0.00000000E+00  0.00000000E+00  0.00000000E+00
  0.00000000E+00  0.00000000E+00  0.00000000E+00
  0.00000000E+00  0.00000000E+00  0.00000000E+00
  0.00000000E+00  0.00000000E+00  0.00000000E+00
  0.00000000E+00  0.00000000E+00  0.00000000E+00
  0.00000000E+00  0.00000000E+00  0.00000000E+00
  0.00000000E+00  0.00000000E+00  0.00000000E+00
  0.00000000E+00  0.00000000E+00  0.00000000E+00
  0.00000000E+00  0.00000000E+00  0.00000000E+00
  0.00000000E+00  0.00000000E+00  0.00000000E+00
  0.00000000E+00  0.00000000E+00  0.00000000E+00
  0.00000000E+00  0.00000000E+00  0.00000000E+00
  0.00000000E+00  0.00000000E+00  0.00000000E+00
  0.00000000E+00  0.00000000E+00  0.00000000E+00
  0.00000000E+00  0.00000000E+00  0.00000000E+00
  0.00000000E+00  0.00000000E+00  0.00000000E+00
  0.00000000E+00  0.00000000E+00  0.00000000E+00
  0.00000000E+00  0.00000000E+00  0.00000000E+00
  0.00000000E+00  0.00000000E+00  0.00000000E+00
  0.00000000E+00  0.00000000E+00  0.00000000E+00
  0.00000000E+00  0.00000000E+00  0.00000000E+00
  0.00000000E+00  0.00000000E+00  0.00000000E+00
  0.00000000E+00  0.00000000E+00  0.00000000E+00
  0.00000000E+00  0.00000000E+00  0.00000000E+00
  0.00000000E+00  0.00000000E+00  0.00000000E+00
  0.00000000E+00  0.00000000E+00  0.00000000E+00
  0.00000000E+00  0.00000000E+00  0.00000000E+00
  0.00000000E+00  0.00000000E+00  0.00000000E+00
  0.00000000E+00  0.00000000E+00  0.00000000E+00
  0.00000000E+00  0.00000000E+00  0.00000000E+00
  0.00000000E+00  0.00000000E+00  0.00000000E+00
  0.00000000E+00  0.00000000E+00  0.00000000E+00
  0.00000000E+00  0.00000000E+00  0.00000000E+00
  0.00000000E+00  0.00000000E+00  0.00000000E+00
  0.00000000E+00  0.00000000E+00  0.00000000E+00
  0.00000000E+00  0.00000000E+00  0.00000000E+00
  0.00000000E+00  0.00000000E+00  0.00000000E+00
  0.00000000E+00  0.00000000E+00  0.00000000E+00
  0.00000000E+00  0.00000000E+00  0.00000000E+00
  0.00000000E+00  0.00000000E+00  0.00000000E+00
  0.00000000E+00  0.00000000E+00  0.00000000E+00
  0.00000000E+00  0.00000000E+00  0.00000000E+00
  0.00000000E+00  0.00000000E+00  0.00000000E+00
  0.00000000E+00  0.00000000E+00  0.00000000E+00
  0.00000000E+00  0.00000000E+00  0.00000000E+00
  0.00000000E+00  0.00000000E+00  0.00000000E+00
  0.00000000E+00  0.00000000E+00  0.00000000E+00
  0.00000000E+00  0.00000000E+00  0.00000000E+00
  0.00000000E+00  0.00000000E+00  0.00000000E+00
  0.00000000E+00  0.00000000E+00  0.00000000E+00
  0.00000000E+00  0.00000000E+00  0.00000000E+00
  0.00000000E+00  0.00000000E+00  0.00000000E+00
  0.00000000E+00  0.00000000E+00  0.00000000E+00
  0.00000000E+00  0.00000000E+00  0.00000000E+00
  0.00000000E+00  0.00000000E+00  0.00000000E+00
  0.00000000E+00  0.00000000E+00  0.00000000E+00
  0.00000000E+00  0.00000000E+00  0.00000000E+00
  0.00000000E+00  0.00000000E+00  0.00000000E+00
  0.00000000E+00  0.00000000E+00  0.00000000E+00
  0.00000000E+00  0.00000000E+00  0.00000000E+00
  0.00000000E+00  0.00000000E+00  0.00000000E+00
  0.00000000E+00  0.00000000E+00  0.00000000E+00
  0.00000000E+00  0.00000000E+00  0.00000000E+00
  0.00000000E+00  0.00000000E+00  0.00000000E+00
  0.00000000E+00  0.00000000E+00  0.00000000E+00
  0.00000000E+00  0.00000000E+00  0.00000000E+00
  0.00000000E+00  0.00000000E+00  0.00000000E+00
  0.00000000E+00  0.00000000E+00  0.00000000E+00
  0.00000000E+00  0.00000000E+00  0.00000000E+00
  0.00000000E+00  0.00000000E+00  0.00000000E+00
  0.00000000E+00  0.00000000E+00  0.00000000E+00
  0.00000000E+00  0.00000000E+00  0.00000000E+00
  0.00000000E+00  0.00000000E+00  0.00000000E+00
  0.00000000E+00  0.00000000E+00  0.00000000E+00
  0.00000000E+00  0.00000000E+00  0.00000000E+00
  0.00000000E+00  0.00000000E+00  0.00000000E+00
  0.00000000E+00  0.00000000E+00  0.00000000E+00
  0.00000000E+00  0.00000000E+00  0.00000000E+00
  0.00000000E+00  0.00000000E+00  0.00000000E+00
  0.00000000E+00  0.00000000E+00  0.00000000E+00
  0.00000000E+00  0.00000000E+00  0.00000000E+00
  0.00000000E+00  0.00000000E+00  0.00000000E+00
  0.00000000E+00  0.00000000E+00  0.00000000E+00
  0.00000000E+00  0.00000000E+00  0.00000000E+00
  0.00000000E+00  0.00000000E+00  0.00000000E+00
  0.00000000E+00  0.00000000E+00  0.00000000E+00
  0.00000000E+00  0.00000000E+00  0.00000000E+00
  0.00000000E+00  0.00000000E+00  0.00000000E+00
  0.00000000E+00  0.00000000E+00  0.00000000E+00
  0.00000000E+00  0.00000000E+00  0.00000000E+00
  0.00000000E+00  0.00000000E+00  0.00000000E+00
  0.00000000E+00  0.00000000E+00  0.00000000E+00
  0.00000000E+00  0.00000000E+00  0.00000000E+00
  0.00000000E+00  0.00000000E+00  0.00000000E+00
  0.00000000E+00  0.00000000E+00  0.00000000E+00
  0.00000000E+00  0.00000000E+00  0.00000000E+00
  0.00000000E+00  0.00000000E+00  0.00000000E+00
  0.00000000E+00  0.00000000E+00  0.00000000E+00
  0.00000000E+00  0.00000000E+00  0.00000000E+00
  0.00000000E+00  0.00000000E+00  0.00000000E+00
  0.00000000E+00  0.00000000E+00  0.00000000E+00
  0.00000000E+00  0.00000000E+00  0.00000000E+00
  0.00000000E+00  0.00000000E+00  0.00000000E+00
  0.00000000E+00  0.00000000E+00  0.00000000E+00
  0.00000000E+00  0.00000000E+00  0.00000000E+00
  0.00000000E+00  0.00000000E+00  0.00000000E+00
  0.00000000E+00  0.00000000E+00  0.00000000E+00
  0.00000000E+00  0.00000000E+00  0.00000000E+00
  0.00000000E+00  0.00000000E+00  0.00000000E+00
  0.00000000E+00  0.00000000E+00  0.00000000E+00
  0.00000000E+00  0.00000000E+00  0.00000000E+00
  0.00000000E+00  0.00000000E+00  0.00000000E+00
  0.00000000E+00  0.00000000E+00  0.00000000E+00
  0.00000000E+00  0.00000000E+00  0.00000000E+00
  0.00000000E+00  0.00000000E+00  0.00000000E+00
  0.00000000E+00  0.00000000E+00  0.00000000E+00
  0.00000000E+00  0.00000000E+00  0.00000000E+00
  0.00000000E+00  0.00000000E+00  0.00000000E+00
  0.00000000E+00  0.00000000E+00  0.00000000E+00
  0.00000000E+00  0.00000000E+00  0.00000000E+00
  0.00000000E+00  0.00000000E+00  0.00000000E+00
  0.00000000E+00  0.00000000E+00  0.00000000E+00
  0.00000000E+00  0.00000000E+00  0.00000000E+00
  0.00000000E+00  0.00000000E+00  0.00000000E+00
  0.00000000E+00  0.00000000E+00  0.00000000E+00
  0.00000000E+00  0.00000000E+00  0.00000000E+00
  0.00000000E+00  0.00000000E+00  0.00000000E+00
  0.00000000E+00  0.00000000E+00  0.00000000E+00
  0.00000000E+00  0.00000000E+00  0.00000000E+00
  0.00000000E+00  0.00000000E+00  0.00000000E+00
  0.00000000E+00  0.00000000E+00  0.00000000E+00
  0.00000000E+00  0.00000000E+00  0.00000000E+00
  0.00000000E+00  0.00000000E+00  0.00000000E+00
  0.00000000E+00  0.00000000E+00  0.00000000E+00
  0.00000000E+00  0.00000000E+00  0.00000000E+00
  0.00000000E+00  0.00000000E+00  0.00000000E+00
  0.00000000E+00  0.00000000E+00  0.00000000E+00
  0.00000000E+00  0.00000000E+00  0.00000000E+00