B Al N                                  
   1.0000000000000000     
     8.7639499999999995  -15.1796066749929999    0.0000000000000000
     8.7639499999999995   15.1796066749929999    0.0000000000000000
     0.0000000000000000    0.0000000000000000   15.0000000000000000
   B    Al   N 
    47     1    49
Selective dynamics
Direct
  0.9091243411947736  0.9538502691887100  0.1107272057327457   T   T   T
  0.9091056714878901  0.0958970120839989  0.1107613872002813   T   T   T
  0.9090512735890687  0.2379424206861341  0.1107253573279325   T   T   T
  0.9090564433545214  0.3803933224952827  0.1106949143437548   T   T   T
  0.9085246222905415  0.5231786011204902  0.1107424121294765   T   T   T
  0.9076724099692267  0.6658361238623811  0.1107614720229489   T   T   T
  0.9046901161488592  0.8074636580819967  0.1107247479898439   T   T   T
  0.0503901680733247  0.9535112738488749  0.1106946568037089   T   T   T
  0.0526688720333904  0.0972158006732234  0.1107610604749475   T   T   T
  0.0522233601722469  0.2389318419772406  0.1108096459011716   T   T   T
  0.0509874966892815  0.3814032818038416  0.1107307191993682   T   T   T
  0.0494394322230173  0.5246088400471722  0.1107083074431582   T   T   T
  0.0492618292695031  0.6677521188181895  0.1107247671817414   T   T   T
  0.0490868804194352  0.8104842105905147  0.1107236248016998   T   T   T
  0.1929541612938420  0.9545605692847563  0.1106998566190748   T   T   T
  0.1960724846930504  0.0990433540582098  0.1107109688794861   T   T   T
  0.1966498643955088  0.2409847971570363  0.1107853589058170   T   T   T
  0.1937977080593679  0.3822870117801183  0.1107574254333972   T   T   T
  0.1896660741238640  0.5256536033426095  0.1107090750923604   T   T   T
  0.1899329458748344  0.6690281483448378  0.1107533252764250   T   T   T
  0.1915659248323295  0.8116935951793993  0.1107304267805353   T   T   T
  0.3351956268630287  0.9545919445060813  0.1107245775779348   T   T   T
  0.3370564994979658  0.0978191007539516  0.1107497423884475   T   T   T
  0.3433778472251757  0.2455918962229049  0.1107571597767409   T   T   T
  0.3401454026582355  0.3835107574008843  0.1107758304630262   T   T   T
  0.3285675861860777  0.5286402313248626  0.1106916682643689   T   T   T
  0.3295275904964255  0.6709184353763835  0.1107000545401752   T   T   T
  0.3337509549644722  0.8125750530231088  0.1107858978433043   T   T   T
  0.4778707593381228  0.9535937294766049  0.1107436650280426   T   T   T
  0.4790564660627086  0.0953044795850427  0.1107594662144679   T   T   T
  0.4809520101144232  0.2376380802060969  0.1107554729725436   T   T   T
  0.4982883854015686  0.3921348604909073  0.1107661424006652   T   T   T
  0.4672600365861121  0.6695853085786424  0.1106916775731164   T   T   T
  0.4765011675661429  0.8119361778217214  0.1107455101933060   T   T   T
  0.6212865446658116  0.9542458998337875  0.1107592586332162   T   T   T
  0.6220638805615745  0.0946532603882123  0.1107369660484604   T   T   T
  0.6230938432465468  0.2349385824076048  0.1107231924330285   T   T   T
  0.6257801347761432  0.3743756392423884  0.1107937479148826   T   T   T
  0.6144834118070718  0.5011041501706865  0.1107873865812649   T   T   T
  0.6212679849612556  0.8141913065680876  0.1106896825845708   T   T   T
  0.7654074771124152  0.9535349120842486  0.1107382452562602   T   T   T
  0.7656235841178349  0.0952381241646154  0.1107286531681548   T   T   T
  0.7661818694474976  0.2368182571019933  0.1107059222708192   T   T   T
  0.7673752244402013  0.3786061290505949  0.1107106955554807   T   T   T
  0.7666881494304303  0.5199645763508735  0.1107683174436665   T   T   T
  0.7617412560186672  0.6576728816448110  0.1107485066167587   T   T   T
  0.7660791555493840  0.8119839429416655  0.1107230985103544   T   T   T
  0.6179218071385234  0.6600429740838328  0.1108684100627752   T   T   T
  0.9542939043305824  0.9041137536153726  0.1106873390290957   T   T   T
  0.9573187616751333  0.0491026349226902  0.1107448850262872   T   T   T
  0.9572110610044480  0.1910812445970097  0.1107561866212934   T   T   T
  0.9566324138654708  0.3330959964110854  0.1107011877376810   T   T   T
  0.9555086483588561  0.4756378108345116  0.1106974637384998   T   T   T
  0.9549062189926333  0.6185940914924777  0.1107360538447721   T   T   T
  0.9535473833080729  0.7612687292218141  0.1107219585039080   T   T   T
  0.0975975604691310  0.9060223764745163  0.1106866869279736   T   T   T
  0.1000704323738031  0.0499158144950241  0.1106979454665092   T   T   T
  0.1013274931718823  0.1929501156006683  0.1107809354452047   T   T   T
  0.0996549513846730  0.3344119352294875  0.1107642832627386   T   T   T
  0.0964535457382521  0.4766909359126419  0.1106939383021753   T   T   T
  0.0960433453100739  0.6199190675998643  0.1107111339564719   T   T   T
  0.0965934097792121  0.7630590671045558  0.1107065344335224   T   T   T
  0.2400603421296212  0.9068231991003785  0.1106930391035880   T   T   T
  0.2419715540072570  0.0503034360767724  0.1106963498873064   T   T   T
  0.2464873039161325  0.1961915789682544  0.1107293027201583   T   T   T
  0.2453070966752665  0.3374414523967795  0.1107679089741292   T   T   T
  0.2370874799364238  0.4776972759976244  0.1106929864890145   T   T   T
  0.2363503435139203  0.6208485434115517  0.1107041940449415   T   T   T
  0.2388232183779068  0.7640157478987230  0.1107536546357288   T   T   T
  0.3825996793447109  0.9069676500087093  0.1107342682349446   T   T   T
  0.3838440503060759  0.0495416553186525  0.1107356606908950   T   T   T
  0.3862987785199600  0.1937229059100800  0.1107338428957750   T   T   T
  0.3964834388805631  0.3454077681541618  0.1107467208132870   T   T   T
  0.3789072293710075  0.4822493709616076  0.1107431420815668   T   T   T
  0.3750177895725028  0.6221051838811534  0.1106410340909168   T   T   T
  0.3810420012952123  0.7648170862542143  0.1107484295112358   T   T   T
  0.5255263457145334  0.9060973381319938  0.1107413358873444   T   T   T
  0.5266263863674582  0.0479556518003858  0.1107310550669302   T   T   T
  0.5278398142297789  0.1897398768001769  0.1107333749075510   T   T   T
  0.5308573380570056  0.3320519027081483  0.1107570123885151   T   T   T
  0.4629073533151514  0.5264157136704120  0.1108633294945544   T   T   T
  0.5026773694187905  0.6107104650312948  0.1108192239210920   T   T   T
  0.5234519576313019  0.7629462613673167  0.1106801441025814   T   T   T
  0.6691621714105372  0.9077227503784141  0.1107231008398774   T   T   T
  0.6700649760518466  0.0481819647000155  0.1107249797897391   T   T   T
  0.6708894689744894  0.1887638631000206  0.1107074817903290   T   T   T
  0.6726353018597402  0.3287970249483715  0.1107185952362468   T   T   T
  0.6724428096782686  0.4674971542651896  0.1107765629753857   T   T   T
  0.6656841561624975  0.5971442449154798  0.1107072370963417   T   T   T
  0.6720922337205459  0.7720373615129432  0.1106646165949186   T   T   T
  0.8140799036629989  0.9066554590016872  0.1107219859212767   T   T   T
  0.8136157267731973  0.0482381480382838  0.1107271828157617   T   T   T
  0.8139759433730590  0.1899812058346477  0.1107001477548327   T   T   T
  0.8145161545545005  0.3316934993820617  0.1106769987510419   T   T   T
  0.8143061730363510  0.4736267879438436  0.1107190976261885   T   T   T
  0.8129534357250341  0.6153591783376611  0.1107554000122406   T   T   T
  0.8074397901634445  0.7568591741656627  0.1107265369099193   T   T   T

  0.00000000E+00  0.00000000E+00  0.00000000E+00
  0.00000000E+00  0.00000000E+00  0.00000000E+00
  0.00000000E+00  0.00000000E+00  0.00000000E+00
  0.00000000E+00  0.00000000E+00  0.00000000E+00
  0.00000000E+00  0.00000000E+00  0.00000000E+00
  0.00000000E+00  0.00000000E+00  0.00000000E+00
  0.00000000E+00  0.00000000E+00  0.00000000E+00
  0.00000000E+00  0.00000000E+00  0.00000000E+00
  0.00000000E+00  0.00000000E+00  0.00000000E+00
  0.00000000E+00  0.00000000E+00  0.00000000E+00
  0.00000000E+00  0.00000000E+00  0.00000000E+00
  0.00000000E+00  0.00000000E+00  0.00000000E+00
  0.00000000E+00  0.00000000E+00  0.00000000E+00
  0.00000000E+00  0.00000000E+00  0.00000000E+00
  0.00000000E+00  0.00000000E+00  0.00000000E+00
  0.00000000E+00  0.00000000E+00  0.00000000E+00
  0.00000000E+00  0.00000000E+00  0.00000000E+00
  0.00000000E+00  0.00000000E+00  0.00000000E+00
  0.00000000E+00  0.00000000E+00  0.00000000E+00
  0.00000000E+00  0.00000000E+00  0.00000000E+00
  0.00000000E+00  0.00000000E+00  0.00000000E+00
  0.00000000E+00  0.00000000E+00  0.00000000E+00
  0.00000000E+00  0.00000000E+00  0.00000000E+00
  0.00000000E+00  0.00000000E+00  0.00000000E+00
  0.00000000E+00  0.00000000E+00  0.00000000E+00
  0.00000000E+00  0.00000000E+00  0.00000000E+00
  0.00000000E+00  0.00000000E+00  0.00000000E+00
  0.00000000E+00  0.00000000E+00  0.00000000E+00
  0.00000000E+00  0.00000000E+00  0.00000000E+00
  0.00000000E+00  0.00000000E+00  0.00000000E+00
  0.00000000E+00  0.00000000E+00  0.00000000E+00
  0.00000000E+00  0.00000000E+00  0.00000000E+00
  0.00000000E+00  0.00000000E+00  0.00000000E+00
  0.00000000E+00  0.00000000E+00  0.00000000E+00
  0.00000000E+00  0.00000000E+00  0.00000000E+00
  0.00000000E+00  0.00000000E+00  0.00000000E+00
  0.00000000E+00  0.00000000E+00  0.00000000E+00
  0.00000000E+00  0.00000000E+00  0.00000000E+00
  0.00000000E+00  0.00000000E+00  0.00000000E+00
  0.00000000E+00  0.00000000E+00  0.00000000E+00
  0.00000000E+00  0.00000000E+00  0.00000000E+00
  0.00000000E+00  0.00000000E+00  0.00000000E+00
  0.00000000E+00  0.00000000E+00  0.00000000E+00
  0.00000000E+00  0.00000000E+00  0.00000000E+00
  0.00000000E+00  0.00000000E+00  0.00000000E+00
  0.00000000E+00  0.00000000E+00  0.00000000E+00
  0.00000000E+00  0.00000000E+00  0.00000000E+00
  0.00000000E+00  0.00000000E+00  0.00000000E+00
  0.00000000E+00  0.00000000E+00  0.00000000E+00
  0.00000000E+00  0.00000000E+00  0.00000000E+00
  0.00000000E+00  0.00000000E+00  0.00000000E+00
  0.00000000E+00  0.00000000E+00  0.00000000E+00
  0.00000000E+00  0.00000000E+00  0.00000000E+00
  0.00000000E+00  0.00000000E+00  0.00000000E+00
  0.00000000E+00  0.00000000E+00  0.00000000E+00
  0.00000000E+00  0.00000000E+00  0.00000000E+00
  0.00000000E+00  0.00000000E+00  0.00000000E+00
  0.00000000E+00  0.00000000E+00  0.00000000E+00
  0.00000000E+00  0.00000000E+00  0.00000000E+00
  0.00000000E+00  0.00000000E+00  0.00000000E+00
  0.00000000E+00  0.00000000E+00  0.00000000E+00
  0.00000000E+00  0.00000000E+00  0.00000000E+00
  0.00000000E+00  0.00000000E+00  0.00000000E+00
  0.00000000E+00  0.00000000E+00  0.00000000E+00
  0.00000000E+00  0.00000000E+00  0.00000000E+00
  0.00000000E+00  0.00000000E+00  0.00000000E+00
  0.00000000E+00  0.00000000E+00  0.00000000E+00
  0.00000000E+00  0.00000000E+00  0.00000000E+00
  0.00000000E+00  0.00000000E+00  0.00000000E+00
  0.00000000E+00  0.00000000E+00  0.00000000E+00
  0.00000000E+00  0.00000000E+00  0.00000000E+00
  0.00000000E+00  0.00000000E+00  0.00000000E+00
  0.00000000E+00  0.00000000E+00  0.00000000E+00
  0.00000000E+00  0.00000000E+00  0.00000000E+00
  0.00000000E+00  0.00000000E+00  0.00000000E+00
  0.00000000E+00  0.00000000E+00  0.00000000E+00
  0.00000000E+00  0.00000000E+00  0.00000000E+00
  0.00000000E+00  0.00000000E+00  0.00000000E+00
  0.00000000E+00  0.00000000E+00  0.00000000E+00
  0.00000000E+00  0.00000000E+00  0.00000000E+00
  0.00000000E+00  0.00000000E+00  0.00000000E+00
  0.00000000E+00  0.00000000E+00  0.00000000E+00
  0.00000000E+00  0.00000000E+00  0.00000000E+00
  0.00000000E+00  0.00000000E+00  0.00000000E+00
  0.00000000E+00  0.00000000E+00  0.00000000E+00
  0.00000000E+00  0.00000000E+00  0.00000000E+00
  0.00000000E+00  0.00000000E+00  0.00000000E+00
  0.00000000E+00  0.00000000E+00  0.00000000E+00
  0.00000000E+00  0.00000000E+00  0.00000000E+00
  0.00000000E+00  0.00000000E+00  0.00000000E+00
  0.00000000E+00  0.00000000E+00  0.00000000E+00
  0.00000000E+00  0.00000000E+00  0.00000000E+00
  0.00000000E+00  0.00000000E+00  0.00000000E+00
  0.00000000E+00  0.00000000E+00  0.00000000E+00
  0.00000000E+00  0.00000000E+00  0.00000000E+00
  0.00000000E+00  0.00000000E+00  0.00000000E+00
  0.00000000E+00  0.00000000E+00  0.00000000E+00
