Species order:X N B                     
   2.51242800000000     
     5.9449720136058266    0.0000000000000000    0.0000000000000000
    -2.9724860068029120    5.1484967885702053   -0.0000000000000001
     0.0000000000000000    0.0000000000000009    5.3101128803662583
   C    N    B 
     1   144   142
Direct
  0.4446217965789787  0.3894097723690508  0.3750000000000000
  0.5460689037030583  0.4428688351468547  0.3750000000000000
  0.1110976166057226  0.0555345506014086  0.1249936276595043
  0.6111107777839072  0.5555297021079512  0.1253809735783488
  0.4444391254817075  0.0555511789084699  0.1249698304131022
  0.9444243890735710  0.5555432525670613  0.1252320282097731
  0.7777686006610038  0.0555361245357562  0.1249591895171721
  0.1111029576365684  0.7222129090842133  0.6249874049576349
  0.4444364903794165  0.7222109155917616  0.6250038006153890
  0.2777732040630971  0.2222138661489217  0.6248126121217680
  0.7777635743924535  0.7221987778361385  0.6248979624734380
  0.6111226132780040  0.2222233191217618  0.6248765975867833
  0.9444369454941666  0.2222192424064609  0.6249968282684473
  0.2777712215968765  0.7222181198835599  0.1249665814889930
  0.1111060774137660  0.2222149779991117  0.1250341535434652
  0.4444198791359904  0.2222191715499740  0.1251334271227559
  0.6110996261692150  0.7221940920208504  0.1250706061754998
  0.9444358350846465  0.7222043373762109  0.1250561987399493
  0.7777661773655318  0.2222081060706924  0.1250561048960045
  0.1111020183342682  0.8888730155072230  0.6250422964588035
  0.4444376929017415  0.8888853683285650  0.6250454070965160
  0.2777896773978714  0.3888857670913208  0.6247967531268039
  0.6111049074958385  0.3888807106347003  0.6253736497953871
  0.7777685637236955  0.8888694565516936  0.6250241283364965
  0.9444375025616183  0.3888946511626630  0.6249502136113907
  0.1111103266506092  0.3888919666216564  0.1250156170334498
  0.2777761642158165  0.8888836597236579  0.1249552215470568
  0.6110945431414669  0.8888680464747678  0.1249799321880638
  0.4444331600008544  0.3888773325805250  0.1252141886269961
  0.9444319538562949  0.8888645662635384  0.1249965795088469
  0.7777615340078945  0.3888906648866959  0.1255817007992154
  0.2777786548786681  0.5555563335390734  0.6249635504432296
  0.1110976166057226  0.0555345506014086  0.6250063723404961
  0.6111107777839072  0.5555297021079512  0.6246190264216513
  0.4444391254817075  0.0555511789084699  0.6250301695868976
  0.9444243890735710  0.5555432525670613  0.6247679717902268
  0.1111037580690380  0.5555580181936113  0.1250227490673713
  0.7777686006610038  0.0555361245357562  0.6250408104828279
  0.2777676177990414  0.0555466428173112  0.1249864586559862
  0.4444428007427637  0.5555336306833172  0.1251954636791160
  0.7777589412207567  0.5555300059281504  0.1256039312643371
  0.6111025661240499  0.0555464980196691  0.1249812535266758
  0.4444428007427637  0.5555336306833172  0.6248045363208842
  0.9444333510532272  0.0555345586805340  0.1249774442905097
  0.2777712215968765  0.7222181198835599  0.6250334185110067
  0.1111060774137660  0.2222149779991117  0.6249658464565345
  0.4444198791359904  0.2222191715499740  0.6248665728772438
  0.6110996261692150  0.7221940920208504  0.6249293938245004
  0.9444358350846465  0.7222043373762109  0.6249438012600506
  0.7777661773655318  0.2222081060706924  0.6249438951039954
  0.1111029576365684  0.7222129090842133  0.1250125950423649
  0.4444364903794165  0.7222109155917616  0.1249961993846118
  0.2777732040630971  0.2222138661489217  0.1251873878782319
  0.7777635743924535  0.7221987778361385  0.1251020375265620
  0.6111226132780040  0.2222233191217618  0.1251234024132161
  0.9444369454941666  0.2222192424064609  0.1250031717315525
  0.1111103266506092  0.3888919666216564  0.6249843829665503
  0.2777761642158165  0.8888836597236579  0.6250447784529432
  0.6110945431414669  0.8888680464747678  0.6250200678119365
  0.4444331600008544  0.3888773325805250  0.6247858113730045
  0.9444319538562949  0.8888645662635384  0.6250034204911535
  0.1111020183342682  0.8888730155072230  0.1249577035411962
  0.7777615340078945  0.3888906648866959  0.6244182992007842
  0.4444376929017415  0.8888853683285650  0.1249545929034841
  0.2777896773978714  0.3888857670913208  0.1252032468731959
  0.2777786548786681  0.5555563335390734  0.1250364495567705
  0.6111049074958385  0.3888807106347003  0.1246263502046134
  0.7777685637236955  0.8888694565516936  0.1249758716635034
  0.9444375025616183  0.3888946511626630  0.1250497863886097
  0.1111037580690380  0.5555580181936113  0.6249772509326288
  0.2777676177990414  0.0555466428173112  0.6250135413440134
  0.7777589412207567  0.5555300059281504  0.6243960687356626
  0.6111025661240499  0.0555464980196691  0.6250187464733242
  0.9444333510532272  0.0555345586805340  0.6250225557094906
  0.0556442396910861  0.1111690399538083  0.3750000000000000
  0.5552104077458657  0.6106971203287039  0.3750000000000000
  0.3893005872719928  0.1131878540022617  0.3750000000000000
  0.8883039725928974  0.6111845355751251  0.3750000000000000
  0.7223700566631500  0.1106384333755047  0.3750000000000000
  0.0555674070414430  0.7777985969315582  0.8750000000000000
  0.3888969511355760  0.7777968988372377  0.8750000000000000
  0.2222265217190277  0.2777909070272400  0.8750000000000000
  0.7222259266787014  0.7777953960912418  0.8750000000000000
  0.5555588314778901  0.2777865250237605  0.8750000000000000
  0.8888953701527302  0.2777937942525859  0.8750000000000000
  0.2222356241343892  0.7779132137503755  0.3750000000000000
  0.0557401253801474  0.2777497929823434  0.3750000000000000
  0.3908600510351723  0.2836995998364377  0.3750000000000000
  0.5553674996735773  0.7774095151179828  0.3750000000000000
  0.8883559694693373  0.7775090948091461  0.3750000000000000
  0.7232692610440375  0.2772654847644739  0.3750000000000000
  0.0555585330555203  0.9444623461631101  0.8750000000000000
  0.3889012166543690  0.9444644741834630  0.8750000000000000
  0.2222270906249895  0.4444584498337011  0.8750000000000000
  0.5555577602590400  0.4444587839439889  0.8750000000000000
  0.7222298572214654  0.9444611900599478  0.8750000000000000
  0.8888980828396272  0.4444598393535901  0.8750000000000000
  0.0561114159467745  0.4443392312664891  0.3750000000000000
  0.2227003432762303  0.9453861121501870  0.3750000000000000
  0.5554388782596420  0.9442741480871841  0.3750000000000000
  0.3904232829783356  0.4419423328061195  0.3750000000000000
  0.8888786515529778  0.9443535574983989  0.3750000000000000
  0.7238966191324373  0.4451845470913700  0.3750000000000000
  0.2222277696302948  0.6111290906987824  0.8750000000000000
  0.0555607791285365  0.1111247610669227  0.8750000000000000
  0.5555606127400416  0.6111214761909944  0.8750000000000000
  0.3888965207240909  0.1111247686901094  0.8750000000000000
  0.8888960424755381  0.6111255401077295  0.8750000000000000
  0.0551802501008469  0.6109149701306318  0.3750000000000000
  0.7222265060823392  0.1111240411133452  0.8750000000000000
  0.2235594623070682  0.1130820671402225  0.3750000000000000
  0.3889967103263192  0.6098828741734331  0.3750000000000000
  0.7203038173444281  0.6098828685911871  0.3750000000000000
  0.5556989579915100  0.1110562828499822  0.3750000000000000
  0.3888949340698208  0.6111260032329859  0.8750000000000000
  0.8890222459015167  0.1109504847728649  0.3750000000000000
  0.2222286605054075  0.7777957572114921  0.8750000000000000
  0.0555601526836859  0.2777922184343867  0.8750000000000000
  0.3888957798953610  0.2777931983492554  0.8750000000000000
  0.5555628539264116  0.7777980102323431  0.8750000000000000
  0.8888967789339904  0.7777948830861561  0.8750000000000000
  0.7222293154586832  0.2777920242957110  0.8750000000000000
  0.0556493134568910  0.7781434665224933  0.3750000000000000
  0.3888705040273410  0.7774895253531967  0.3750000000000000
  0.2218299379466497  0.2777848760442997  0.3750000000000000
  0.7219583027186931  0.7776069903723037  0.3750000000000000
  0.5528066661466925  0.2714243228212528  0.3750000000000000
  0.8893166885194659  0.2776046077794783  0.3750000000000000
  0.0555613512191286  0.4444604926724223  0.8750000000000000
  0.2222321941385705  0.9444620150191622  0.8750000000000000
  0.5555602047884325  0.9444642394097792  0.8750000000000000
  0.3888949688243727  0.4444612276156834  0.8750000000000000
  0.8888990612504526  0.9444652132214285  0.8750000000000000
  0.0559485331853225  0.9450435069279309  0.3750000000000000
  0.7222305602992015  0.4444580790310974  0.8750000000000000
  0.3890051669550412  0.9450807544910255  0.3750000000000000
  0.2233334363667274  0.4442033301942654  0.3750000000000000
  0.2223556109117416  0.6108520502875101  0.3750000000000000
  0.7221380329936228  0.9441517439597806  0.3750000000000000
  0.8889317389252482  0.4440857070651576  0.3750000000000000
  0.0555584011949383  0.6111214587588878  0.8750000000000000
  0.2222266781743209  0.1111245639147721  0.8750000000000000
  0.7222277528386203  0.6111275892003453  0.8750000000000000
  0.5555625878368243  0.1111269491830772  0.8750000000000000
  0.8888946222663046  0.1111262385608397  0.8750000000000000
  0.1116881319730687  0.0563049417413752  0.3750000000000000
  0.6088451593638127  0.5539430549819296  0.3750000000000000
  0.4445708385646370  0.0565196119184703  0.3750000000000000
  0.9446631078613029  0.5556572910424185  0.3750000000000000
  0.7778801934189554  0.0551528393695758  0.3750000000000000
  0.1111577139338810  0.7220982458882043  0.8750000000000000
  0.4442703994050501  0.7222306803733233  0.8750000000000000
  0.2779308623858101  0.2223994973010752  0.8750000000000000
  0.7779402969469711  0.7224274663571977  0.8750000000000000
  0.6111258258576390  0.2220706725064138  0.8750000000000000
  0.9442638869008534  0.2222000743015951  0.8750000000000000
  0.2778339813670105  0.7222550504575920  0.3750000000000000
  0.1103023260258835  0.2217271295859850  0.3750000000000000
  0.4458734308937142  0.2252939961374386  0.3750000000000000
  0.6112247817677057  0.7227135524487714  0.3750000000000000
  0.9448560466847320  0.7232040611461713  0.3750000000000000
  0.7785277262491007  0.2211052294288047  0.3750000000000000
  0.1112830285182669  0.8890939819183785  0.8750000000000000
  0.4444800375334775  0.8887627149998437  0.8750000000000000
  0.2775933229548485  0.3888714268498273  0.8750000000000000
  0.6112399001436977  0.3890418088262239  0.8750000000000000
  0.7776068396930855  0.8888948588198932  0.8750000000000000
  0.9444783515705917  0.3887423705887974  0.8750000000000000
  0.1116039833847904  0.3886412628037150  0.3750000000000000
  0.2779785153987765  0.8893663808292672  0.3750000000000000
  0.6110545912492891  0.8888473401386818  0.3750000000000000
  0.9446717095346507  0.8893158764470983  0.3750000000000000
  0.7786861000285018  0.3859127204916410  0.3750000000000000
  0.2778056492524112  0.5554259858150112  0.8750000000000000
  0.1109352631761860  0.0555413416934304  0.8750000000000000
  0.6109335310415510  0.5555357547215162  0.8750000000000000
  0.4446065783140974  0.0557468489284940  0.8750000000000000
  0.9446128263219030  0.5557463306735775  0.8750000000000000
  0.1113306382899872  0.5554506798857398  0.3750000000000000
  0.7778056348152871  0.0554179090450972  0.8750000000000000
  0.2783453731446707  0.0565873212332807  0.3750000000000000
  0.4451401166002657  0.5554530564459197  0.3750000000000000
  0.7780213965174451  0.5583829457842441  0.3750000000000000
  0.6111276331779706  0.0552541608751619  0.3750000000000000
  0.4445972497214604  0.5557538178991108  0.8750000000000000
  0.9444321022408482  0.0553999366900753  0.3750000000000000
  0.2779433662715353  0.7224289806071277  0.8750000000000000
  0.1111285443332683  0.2220716133018866  0.8750000000000000
  0.4442834556697949  0.2221945079788071  0.8750000000000000
  0.6111474188418223  0.7221026389695434  0.8750000000000000
  0.9442867245712293  0.7222283188125516  0.8750000000000000
  0.7779282813100619  0.2224011973088156  0.8750000000000000
  0.1112901267390854  0.7225801326172010  0.3750000000000000
  0.4443637044131677  0.7218412331414249  0.3750000000000000
  0.2775212066330062  0.2237078810091807  0.3750000000000000
  0.7772758891990622  0.7224775562145626  0.3750000000000000
  0.6120838203111664  0.2223843539243911  0.3750000000000000
  0.9446770041397505  0.2217983811484964  0.3750000000000000
  0.1112589374852994  0.3890737496449329  0.8750000000000000
  0.2776159229882696  0.8888867119242776  0.8750000000000000
  0.6112723268758221  0.8890981247476784  0.8750000000000000
  0.4444765252598012  0.3887406559467789  0.8750000000000000
  0.9444844660418517  0.8887670200222072  0.8750000000000000
  0.1115684018799833  0.8895866123333641  0.3750000000000000
  0.7776065967510172  0.3888550220169338  0.8750000000000000
  0.4443271164304221  0.8890117871217000  0.3750000000000000
  0.2770974991843806  0.3874954850773445  0.3750000000000000
  0.2779099786983382  0.5553595024718518  0.3750000000000000
  0.7778405754713162  0.8890265996645793  0.3750000000000000
  0.9452285734666348  0.3883590222501818  0.3750000000000000
  0.1109416700600697  0.5555451775034111  0.8750000000000000
  0.2778198782732811  0.0554135562892804  0.8750000000000000
  0.7778142442404047  0.5554240432763351  0.8750000000000000
  0.6109324033726067  0.0555445188065554  0.8750000000000000
  0.9445994640990657  0.0557500981927231  0.8750000000000000
  0.0555191689023116  0.1110568354551272  0.1250171190296226
  0.5555748218579037  0.6111555422429708  0.1250234639072505
  0.3888883871250940  0.1110722951500764  0.1251002710153824
  0.8889529647521704  0.6111699072549617  0.1251150706769367
  0.7221772607660940  0.1110405434201419  0.1250899081129160
  0.0556099142611899  0.7778128182055357  0.6249189296646228
  0.3888890218836583  0.7778203653841572  0.6249670560685971
  0.2221609345285337  0.2777173769433372  0.6249987804234279
  0.7222291715713192  0.7778293151228430  0.6249693667720879
  0.5555593803089024  0.2777709483955985  0.6245247327889897
  0.8888712011926857  0.2777347771763054  0.6249977715887520
  0.2222601424571406  0.7778168232198106  0.1250676877667483
  0.0555235666883845  0.2777581390641258  0.1250676731604690
  0.3889062745367010  0.2777089293447896  0.1248703766783681
  0.5555387399111889  0.7778162701060476  0.1250839787728197
  0.8889242178116765  0.7778207061262040  0.1250031144468017
  0.7221287022634603  0.2776493489065653  0.1251341869568161
  0.0555573877468884  0.9444193008300038  0.6249569673373845
  0.3888900406213482  0.9444427423143785  0.6248878642061254
  0.2221938264485776  0.4444750936761988  0.6249910521477492
  0.5555932493813216  0.4443470471190279  0.6248569944234819
  0.7222015251670807  0.9444380805020876  0.6249670170814725
  0.8889196169326907  0.4444286238676484  0.6248344565578228
  0.0555705582442677  0.4444669676736703  0.1250274948051518
  0.2222327483751847  0.9444194015822328  0.1250241951255999
  0.5555257117047339  0.9444331858337571  0.1250716305163663
  0.3888925006044316  0.4444286997339407  0.1248848932129423
  0.8888784121150227  0.9444376796583914  0.1250888439385409
  0.7220506236642390  0.4443283310458064  0.1249556942987487
  0.2222402387037278  0.6111697473321688  0.6249120851734226
  0.0555191689023116  0.1110568354551272  0.6249828809703781
  0.5555748218579037  0.6111555422429708  0.6249765360927499
  0.3888883871250940  0.1110722951500764  0.6248997289846169
  0.8889529647521704  0.6111699072549617  0.6248849293230635
  0.0556349040283228  0.6111692983883618  0.1250416222972651
  0.7221772607660940  0.1110405434201419  0.6249100918870844
  0.2221808338538006  0.1110132462465930  0.1250720401536741
  0.3888727678019165  0.6111720536344288  0.1250315551446997
  0.7222136641031662  0.6111559154497826  0.1251771854411068
  0.5555270786968728  0.1110699496694673  0.1250919873196941
  0.3888727678019165  0.6111720536344288  0.6249684448553006
  0.8888535869229425  0.1110685114288055  0.1250522433930692
  0.2222601424571406  0.7778168232198106  0.6249323122332515
  0.0555235666883845  0.2777581390641258  0.6249323268395314
  0.3889062745367010  0.2777089293447896  0.6251296233216320
  0.5555387399111889  0.7778162701060476  0.6249160212271805
  0.8889242178116765  0.7778207061262040  0.6249968855531985
  0.7221287022634603  0.2776493489065653  0.6248658130431839
  0.0556099142611899  0.7778128182055357  0.1250810703353774
  0.3888890218836583  0.7778203653841572  0.1250329439314032
  0.2221609345285337  0.2777173769433372  0.1250012195765724
  0.7222291715713192  0.7778293151228430  0.1250306332279119
  0.5555593803089024  0.2777709483955985  0.1254752672110102
  0.8888712011926857  0.2777347771763054  0.1250022284112474
  0.0555705582442677  0.4444669676736703  0.6249725051948491
  0.2222327483751847  0.9444194015822328  0.6249758048744000
  0.5555257117047339  0.9444331858337571  0.6249283694836334
  0.3888925006044316  0.4444286997339407  0.6251151067870578
  0.8888784121150227  0.9444376796583914  0.6249111560614596
  0.0555573877468884  0.9444193008300038  0.1250430326626157
  0.7220506236642390  0.4443283310458064  0.6250443057012508
  0.3888900406213482  0.9444427423143785  0.1251121357938745
  0.2221938264485776  0.4444750936761988  0.1250089478522509
  0.2222402387037278  0.6111697473321688  0.1250879148265774
  0.5555932493813216  0.4443470471190279  0.1251430055765182
  0.7222015251670807  0.9444380805020876  0.1250329829185269
  0.8889196169326907  0.4444286238676484  0.1251655434421772
  0.0556349040283228  0.6111692983883618  0.6249583777027345
  0.2221808338538006  0.1110132462465930  0.6249279598463257
  0.7222136641031662  0.6111559154497826  0.6248228145588928
  0.5555270786968728  0.1110699496694673  0.6249080126803057
  0.8888535869229425  0.1110685114288055  0.6249477566069302
 
  0.00000000E+00  0.00000000E+00  0.00000000E+00
  0.00000000E+00  0.00000000E+00  0.00000000E+00
  0.00000000E+00  0.00000000E+00  0.00000000E+00
  0.00000000E+00  0.00000000E+00  0.00000000E+00
  0.00000000E+00  0.00000000E+00  0.00000000E+00
  0.00000000E+00  0.00000000E+00  0.00000000E+00
  0.00000000E+00  0.00000000E+00  0.00000000E+00
  0.00000000E+00  0.00000000E+00  0.00000000E+00
  0.00000000E+00  0.00000000E+00  0.00000000E+00
  0.00000000E+00  0.00000000E+00  0.00000000E+00
  0.00000000E+00  0.00000000E+00  0.00000000E+00
  0.00000000E+00  0.00000000E+00  0.00000000E+00
  0.00000000E+00  0.00000000E+00  0.00000000E+00
  0.00000000E+00  0.00000000E+00  0.00000000E+00
  0.00000000E+00  0.00000000E+00  0.00000000E+00
  0.00000000E+00  0.00000000E+00  0.00000000E+00
  0.00000000E+00  0.00000000E+00  0.00000000E+00
  0.00000000E+00  0.00000000E+00  0.00000000E+00
  0.00000000E+00  0.00000000E+00  0.00000000E+00
  0.00000000E+00  0.00000000E+00  0.00000000E+00
  0.00000000E+00  0.00000000E+00  0.00000000E+00
  0.00000000E+00  0.00000000E+00  0.00000000E+00
  0.00000000E+00  0.00000000E+00  0.00000000E+00
  0.00000000E+00  0.00000000E+00  0.00000000E+00
  0.00000000E+00  0.00000000E+00  0.00000000E+00
  0.00000000E+00  0.00000000E+00  0.00000000E+00
  0.00000000E+00  0.00000000E+00  0.00000000E+00
  0.00000000E+00  0.00000000E+00  0.00000000E+00
  0.00000000E+00  0.00000000E+00  0.00000000E+00
  0.00000000E+00  0.00000000E+00  0.00000000E+00
  0.00000000E+00  0.00000000E+00  0.00000000E+00
  0.00000000E+00  0.00000000E+00  0.00000000E+00
  0.00000000E+00  0.00000000E+00  0.00000000E+00
  0.00000000E+00  0.00000000E+00  0.00000000E+00
  0.00000000E+00  0.00000000E+00  0.00000000E+00
  0.00000000E+00  0.00000000E+00  0.00000000E+00
  0.00000000E+00  0.00000000E+00  0.00000000E+00
  0.00000000E+00  0.00000000E+00  0.00000000E+00
  0.00000000E+00  0.00000000E+00  0.00000000E+00
  0.00000000E+00  0.00000000E+00  0.00000000E+00
  0.00000000E+00  0.00000000E+00  0.00000000E+00
  0.00000000E+00  0.00000000E+00  0.00000000E+00
  0.00000000E+00  0.00000000E+00  0.00000000E+00
  0.00000000E+00  0.00000000E+00  0.00000000E+00
  0.00000000E+00  0.00000000E+00  0.00000000E+00
  0.00000000E+00  0.00000000E+00  0.00000000E+00
  0.00000000E+00  0.00000000E+00  0.00000000E+00
  0.00000000E+00  0.00000000E+00  0.00000000E+00
  0.00000000E+00  0.00000000E+00  0.00000000E+00
  0.00000000E+00  0.00000000E+00  0.00000000E+00
  0.00000000E+00  0.00000000E+00  0.00000000E+00
  0.00000000E+00  0.00000000E+00  0.00000000E+00
  0.00000000E+00  0.00000000E+00  0.00000000E+00
  0.00000000E+00  0.00000000E+00  0.00000000E+00
  0.00000000E+00  0.00000000E+00  0.00000000E+00
  0.00000000E+00  0.00000000E+00  0.00000000E+00
  0.00000000E+00  0.00000000E+00  0.00000000E+00
  0.00000000E+00  0.00000000E+00  0.00000000E+00
  0.00000000E+00  0.00000000E+00  0.00000000E+00
  0.00000000E+00  0.00000000E+00  0.00000000E+00
  0.00000000E+00  0.00000000E+00  0.00000000E+00
  0.00000000E+00  0.00000000E+00  0.00000000E+00
  0.00000000E+00  0.00000000E+00  0.00000000E+00
  0.00000000E+00  0.00000000E+00  0.00000000E+00
  0.00000000E+00  0.00000000E+00  0.00000000E+00
  0.00000000E+00  0.00000000E+00  0.00000000E+00
  0.00000000E+00  0.00000000E+00  0.00000000E+00
  0.00000000E+00  0.00000000E+00  0.00000000E+00
  0.00000000E+00  0.00000000E+00  0.00000000E+00
  0.00000000E+00  0.00000000E+00  0.00000000E+00
  0.00000000E+00  0.00000000E+00  0.00000000E+00
  0.00000000E+00  0.00000000E+00  0.00000000E+00
  0.00000000E+00  0.00000000E+00  0.00000000E+00
  0.00000000E+00  0.00000000E+00  0.00000000E+00
  0.00000000E+00  0.00000000E+00  0.00000000E+00
  0.00000000E+00  0.00000000E+00  0.00000000E+00
  0.00000000E+00  0.00000000E+00  0.00000000E+00
  0.00000000E+00  0.00000000E+00  0.00000000E+00
  0.00000000E+00  0.00000000E+00  0.00000000E+00
  0.00000000E+00  0.00000000E+00  0.00000000E+00
  0.00000000E+00  0.00000000E+00  0.00000000E+00
  0.00000000E+00  0.00000000E+00  0.00000000E+00
  0.00000000E+00  0.00000000E+00  0.00000000E+00
  0.00000000E+00  0.00000000E+00  0.00000000E+00
  0.00000000E+00  0.00000000E+00  0.00000000E+00
  0.00000000E+00  0.00000000E+00  0.00000000E+00
  0.00000000E+00  0.00000000E+00  0.00000000E+00
  0.00000000E+00  0.00000000E+00  0.00000000E+00
  0.00000000E+00  0.00000000E+00  0.00000000E+00
  0.00000000E+00  0.00000000E+00  0.00000000E+00
  0.00000000E+00  0.00000000E+00  0.00000000E+00
  0.00000000E+00  0.00000000E+00  0.00000000E+00
  0.00000000E+00  0.00000000E+00  0.00000000E+00
  0.00000000E+00  0.00000000E+00  0.00000000E+00
  0.00000000E+00  0.00000000E+00  0.00000000E+00
  0.00000000E+00  0.00000000E+00  0.00000000E+00
  0.00000000E+00  0.00000000E+00  0.00000000E+00
  0.00000000E+00  0.00000000E+00  0.00000000E+00
  0.00000000E+00  0.00000000E+00  0.00000000E+00
  0.00000000E+00  0.00000000E+00  0.00000000E+00
  0.00000000E+00  0.00000000E+00  0.00000000E+00
  0.00000000E+00  0.00000000E+00  0.00000000E+00
  0.00000000E+00  0.00000000E+00  0.00000000E+00
  0.00000000E+00  0.00000000E+00  0.00000000E+00
  0.00000000E+00  0.00000000E+00  0.00000000E+00
  0.00000000E+00  0.00000000E+00  0.00000000E+00
  0.00000000E+00  0.00000000E+00  0.00000000E+00
  0.00000000E+00  0.00000000E+00  0.00000000E+00
  0.00000000E+00  0.00000000E+00  0.00000000E+00
  0.00000000E+00  0.00000000E+00  0.00000000E+00
  0.00000000E+00  0.00000000E+00  0.00000000E+00
  0.00000000E+00  0.00000000E+00  0.00000000E+00
  0.00000000E+00  0.00000000E+00  0.00000000E+00
  0.00000000E+00  0.00000000E+00  0.00000000E+00
  0.00000000E+00  0.00000000E+00  0.00000000E+00
  0.00000000E+00  0.00000000E+00  0.00000000E+00
  0.00000000E+00  0.00000000E+00  0.00000000E+00
  0.00000000E+00  0.00000000E+00  0.00000000E+00
  0.00000000E+00  0.00000000E+00  0.00000000E+00
  0.00000000E+00  0.00000000E+00  0.00000000E+00
  0.00000000E+00  0.00000000E+00  0.00000000E+00
  0.00000000E+00  0.00000000E+00  0.00000000E+00
  0.00000000E+00  0.00000000E+00  0.00000000E+00
  0.00000000E+00  0.00000000E+00  0.00000000E+00
  0.00000000E+00  0.00000000E+00  0.00000000E+00
  0.00000000E+00  0.00000000E+00  0.00000000E+00
  0.00000000E+00  0.00000000E+00  0.00000000E+00
  0.00000000E+00  0.00000000E+00  0.00000000E+00
  0.00000000E+00  0.00000000E+00  0.00000000E+00
  0.00000000E+00  0.00000000E+00  0.00000000E+00
  0.00000000E+00  0.00000000E+00  0.00000000E+00
  0.00000000E+00  0.00000000E+00  0.00000000E+00
  0.00000000E+00  0.00000000E+00  0.00000000E+00
  0.00000000E+00  0.00000000E+00  0.00000000E+00
  0.00000000E+00  0.00000000E+00  0.00000000E+00
  0.00000000E+00  0.00000000E+00  0.00000000E+00
  0.00000000E+00  0.00000000E+00  0.00000000E+00
  0.00000000E+00  0.00000000E+00  0.00000000E+00
  0.00000000E+00  0.00000000E+00  0.00000000E+00
  0.00000000E+00  0.00000000E+00  0.00000000E+00
  0.00000000E+00  0.00000000E+00  0.00000000E+00
  0.00000000E+00  0.00000000E+00  0.00000000E+00
  0.00000000E+00  0.00000000E+00  0.00000000E+00
  0.00000000E+00  0.00000000E+00  0.00000000E+00
  0.00000000E+00  0.00000000E+00  0.00000000E+00
  0.00000000E+00  0.00000000E+00  0.00000000E+00
  0.00000000E+00  0.00000000E+00  0.00000000E+00
  0.00000000E+00  0.00000000E+00  0.00000000E+00
  0.00000000E+00  0.00000000E+00  0.00000000E+00
  0.00000000E+00  0.00000000E+00  0.00000000E+00
  0.00000000E+00  0.00000000E+00  0.00000000E+00
  0.00000000E+00  0.00000000E+00  0.00000000E+00
  0.00000000E+00  0.00000000E+00  0.00000000E+00
  0.00000000E+00  0.00000000E+00  0.00000000E+00
  0.00000000E+00  0.00000000E+00  0.00000000E+00
  0.00000000E+00  0.00000000E+00  0.00000000E+00
  0.00000000E+00  0.00000000E+00  0.00000000E+00
  0.00000000E+00  0.00000000E+00  0.00000000E+00
  0.00000000E+00  0.00000000E+00  0.00000000E+00
  0.00000000E+00  0.00000000E+00  0.00000000E+00
  0.00000000E+00  0.00000000E+00  0.00000000E+00
  0.00000000E+00  0.00000000E+00  0.00000000E+00
  0.00000000E+00  0.00000000E+00  0.00000000E+00
  0.00000000E+00  0.00000000E+00  0.00000000E+00
  0.00000000E+00  0.00000000E+00  0.00000000E+00
  0.00000000E+00  0.00000000E+00  0.00000000E+00
  0.00000000E+00  0.00000000E+00  0.00000000E+00
  0.00000000E+00  0.00000000E+00  0.00000000E+00
  0.00000000E+00  0.00000000E+00  0.00000000E+00
  0.00000000E+00  0.00000000E+00  0.00000000E+00
  0.00000000E+00  0.00000000E+00  0.00000000E+00
  0.00000000E+00  0.00000000E+00  0.00000000E+00
  0.00000000E+00  0.00000000E+00  0.00000000E+00
  0.00000000E+00  0.00000000E+00  0.00000000E+00
  0.00000000E+00  0.00000000E+00  0.00000000E+00
  0.00000000E+00  0.00000000E+00  0.00000000E+00
  0.00000000E+00  0.00000000E+00  0.00000000E+00
  0.00000000E+00  0.00000000E+00  0.00000000E+00
  0.00000000E+00  0.00000000E+00  0.00000000E+00
  0.00000000E+00  0.00000000E+00  0.00000000E+00
  0.00000000E+00  0.00000000E+00  0.00000000E+00
  0.00000000E+00  0.00000000E+00  0.00000000E+00
  0.00000000E+00  0.00000000E+00  0.00000000E+00
  0.00000000E+00  0.00000000E+00  0.00000000E+00
  0.00000000E+00  0.00000000E+00  0.00000000E+00
  0.00000000E+00  0.00000000E+00  0.00000000E+00
  0.00000000E+00  0.00000000E+00  0.00000000E+00
  0.00000000E+00  0.00000000E+00  0.00000000E+00
  0.00000000E+00  0.00000000E+00  0.00000000E+00
  0.00000000E+00  0.00000000E+00  0.00000000E+00
  0.00000000E+00  0.00000000E+00  0.00000000E+00
  0.00000000E+00  0.00000000E+00  0.00000000E+00
  0.00000000E+00  0.00000000E+00  0.00000000E+00
  0.00000000E+00  0.00000000E+00  0.00000000E+00
  0.00000000E+00  0.00000000E+00  0.00000000E+00
  0.00000000E+00  0.00000000E+00  0.00000000E+00
  0.00000000E+00  0.00000000E+00  0.00000000E+00
  0.00000000E+00  0.00000000E+00  0.00000000E+00
  0.00000000E+00  0.00000000E+00  0.00000000E+00
  0.00000000E+00  0.00000000E+00  0.00000000E+00
  0.00000000E+00  0.00000000E+00  0.00000000E+00
  0.00000000E+00  0.00000000E+00  0.00000000E+00
  0.00000000E+00  0.00000000E+00  0.00000000E+00
  0.00000000E+00  0.00000000E+00  0.00000000E+00
  0.00000000E+00  0.00000000E+00  0.00000000E+00
  0.00000000E+00  0.00000000E+00  0.00000000E+00
  0.00000000E+00  0.00000000E+00  0.00000000E+00
  0.00000000E+00  0.00000000E+00  0.00000000E+00
  0.00000000E+00  0.00000000E+00  0.00000000E+00
  0.00000000E+00  0.00000000E+00  0.00000000E+00
  0.00000000E+00  0.00000000E+00  0.00000000E+00
  0.00000000E+00  0.00000000E+00  0.00000000E+00
  0.00000000E+00  0.00000000E+00  0.00000000E+00
  0.00000000E+00  0.00000000E+00  0.00000000E+00
  0.00000000E+00  0.00000000E+00  0.00000000E+00
  0.00000000E+00  0.00000000E+00  0.00000000E+00
  0.00000000E+00  0.00000000E+00  0.00000000E+00
  0.00000000E+00  0.00000000E+00  0.00000000E+00
  0.00000000E+00  0.00000000E+00  0.00000000E+00
  0.00000000E+00  0.00000000E+00  0.00000000E+00
  0.00000000E+00  0.00000000E+00  0.00000000E+00
  0.00000000E+00  0.00000000E+00  0.00000000E+00
  0.00000000E+00  0.00000000E+00  0.00000000E+00
  0.00000000E+00  0.00000000E+00  0.00000000E+00
  0.00000000E+00  0.00000000E+00  0.00000000E+00
  0.00000000E+00  0.00000000E+00  0.00000000E+00
  0.00000000E+00  0.00000000E+00  0.00000000E+00
  0.00000000E+00  0.00000000E+00  0.00000000E+00
  0.00000000E+00  0.00000000E+00  0.00000000E+00
  0.00000000E+00  0.00000000E+00  0.00000000E+00
  0.00000000E+00  0.00000000E+00  0.00000000E+00
  0.00000000E+00  0.00000000E+00  0.00000000E+00
  0.00000000E+00  0.00000000E+00  0.00000000E+00
  0.00000000E+00  0.00000000E+00  0.00000000E+00
  0.00000000E+00  0.00000000E+00  0.00000000E+00
  0.00000000E+00  0.00000000E+00  0.00000000E+00
  0.00000000E+00  0.00000000E+00  0.00000000E+00
  0.00000000E+00  0.00000000E+00  0.00000000E+00
  0.00000000E+00  0.00000000E+00  0.00000000E+00
  0.00000000E+00  0.00000000E+00  0.00000000E+00
  0.00000000E+00  0.00000000E+00  0.00000000E+00
  0.00000000E+00  0.00000000E+00  0.00000000E+00
  0.00000000E+00  0.00000000E+00  0.00000000E+00
  0.00000000E+00  0.00000000E+00  0.00000000E+00
  0.00000000E+00  0.00000000E+00  0.00000000E+00
  0.00000000E+00  0.00000000E+00  0.00000000E+00
  0.00000000E+00  0.00000000E+00  0.00000000E+00
  0.00000000E+00  0.00000000E+00  0.00000000E+00