 B N C 
 1.0
 14.936314146199660   0.000000000000000   0.000000000000000
 -7.468157073099825  12.935227489513863   0.000000000000000
  0.000000000000001   0.000000000000001  13.341276283792837
 B N C 
 142 144   1
Cartesian
  1.247714876635642   0.728317230208511   5.002978606422314 
  4.956968822493081   7.165379432427551   5.002978606422314 
  6.218152365523054   0.731094037784449   5.002978606422314 
  9.960049013023793   7.187553465840692   5.002978606422314 
 11.206772869572628   0.713414523938082   5.002978606422314 
 -3.732456587413124   9.340505080342840  11.673616748318732 
  1.242030087331691   9.342218150535311  11.673616748318732 
  2.490348292695777   2.876788091142931  11.673616748318732 
  6.224358869510714   9.344763622003482  11.673616748318732 
  7.469508654258594   2.872534667619798  11.673616748318732 
 12.444396995123922   2.874208509278016  11.673616748318732 
 -1.244098537469893   9.342533383119266   5.002978606422314 
 -0.008382838536572   2.868090861791636   5.002978606422314 
  4.977174682491618   2.914229092059431   5.002978606422314 
  3.732107025879397   9.348464210679563   5.002978606422314 
  8.711665211676154   9.354809052266015   5.002978606422314 
  9.977086107725015   2.860046441782749   5.002978606422314 
 -4.977735236624897  11.500632915671959  11.673616748318732 
  0.001473915981139  11.496347902720959  11.673616748318732 
  1.242068179586126   5.030140370474363  11.673616748318732 
  6.224245830920870   5.032344300099171  11.673616748318732 
  4.976173612751598  11.498057213094627  11.673616748318732 
 11.203836278816851   5.028470998378993  11.673616748318732 
 -1.235481839903541   5.027163146177998   5.002978606422314 
 -2.489953395676963  11.504156457552190   5.002978606422314 
  2.488851785214341  11.497442548143159   5.002978606422314 
  7.468362765728658  11.503503171879617   5.002978606422314 
  8.748643398165914   4.991868830656555   5.002978606422314 
  0.001383944275151   7.184561480104668  11.673616748318732 
  1.242172476873606   0.718439889877339  11.673616748318732 
  4.976266866100289   7.185981365881585  11.673616748318732 
  6.224457301037915   0.721098172713633  11.673616748318732 
  9.958633030204334   7.188705213725316  11.673616748318732 
 -2.485323536150625   7.184880903527191   5.002978606422314 
 11.203679656873835   0.716843260491519  11.673616748318732 
  3.734850931113874   0.731969873174689   5.002978606422314 
  2.500541948346006   7.184911644873761   5.002978606422314 
  7.450680444792611   7.222810429984083   5.002978606422314 
  8.715347560211610   0.714725140662417   5.002978606422314 
  2.490187384330628   7.188802062690864  11.673616748318732 
 13.692599139783795   0.716610783990786   5.002978606422314 
 -1.243763667849537   9.344783209170801  11.673616748318732 
  0.001385159156391   2.872546837023263  11.673616748318732 
  4.976573777477367   2.874136507626473  11.673616748318732 
  3.735513906736074   9.340561905849338  11.673616748318732 
  8.710448634748834   9.342187603209506  11.673616748318732 
  9.958454118112563   2.876810081129795  11.673616748318732 
 -3.734077633941210   9.346738394806591   5.002978606422314 
  1.246332173343853   9.337180561995547   5.002978606422314 
  2.474458330636078   2.893712332050855   5.002978606422314 
  6.214060987744205   9.345411545703413   5.002978606422314 
  7.481474938266424   2.876592208120563   5.002978606422314 
 12.453567351545846   2.869012516961699   5.002978606422314 
 -1.243865433515461   5.032757461855374  11.673616748318732 
 -2.491786947101770  11.497951831146514  11.673616748318732 
  2.490231054081563  11.500686504111393  11.673616748318732 
  3.735664732581234   5.028448819094427  11.673616748318732 
  7.469664984090049  11.496403589164572  11.673616748318732 
 -4.977151851763445  11.507005202158043   5.002978606422314 
  8.710546028144236   5.029928170228964  11.673616748318732 
 -0.002670271382224  11.499569707278461   5.002978606422314 
  1.244938149269605   5.012342250634970   5.002978606422314 
  0.003438749703671   7.183701502936643   5.002978606422314 
  4.978680902441391  11.499761310890298   5.002978606422314 
 11.217904734341996   5.023512300411281   5.002978606422314 
 -2.491839010877357   7.186103251708982  11.673616748318732 
  3.735767835601273   0.716786956604820  11.673616748318732 
  7.469683901999695   7.184536352924987  11.673616748318732 
  8.710263107868927   0.718480986558371  11.673616748318732 
 13.692483847971504   0.721140202685609  11.673616748318732 
 -0.000138143359439   1.436545430877577   1.667887925178016 
  3.734034485422566   7.905435970390029   1.667972573943424 
  4.979053771258840   1.436745405548661   1.668997278793572 
  8.713367877002057   7.905621785088023   1.669194725167284 
  9.957398216300348   1.436334689698779   1.668859024448672 
 -4.978221150781018  10.061185747748500   8.337216095627840 
 -0.000316064482151  10.061283372220865   8.337858163279801 
  1.244228516189367   3.592337448553137   8.338281406662528 
  4.978490290739702  10.061399139126740   8.337888991013486 
  6.223572358199532   3.593030407475090   8.331957006199811 
 11.202292555908775   3.592562524524949   8.338267947520389 
 -2.489110899986120  10.061237553519245   1.668562576671323 
 -1.245023976287627   3.592864715858497   1.668562381804919 
  3.734852384959063   3.592228176944191   1.665930194927389 
  2.488847060532819  10.061230398866893   1.668779919484270 
  7.468364161340107  10.061287779796759   1.667701086169362 
  8.712412202116397   3.591457490421825   1.669449760738668 
 -6.223249084935842  12.216278501723732   8.337723566729336 
 -1.244662931104123  12.216581722656812   8.336801642763135 
 -0.000653021472484   5.749386450124620   8.338178301601495 
  4.980061767414286   5.747730138778364   8.336389800464072 
  3.733816925753553  12.216521421054315   8.337857643141808 
  9.958119878400938   5.748785352579618   8.336089116571470 
 -2.489329813175277   5.749281338433326   1.668026351266006 
 -3.733734290593952  12.216279804976734   1.667982329329455 
  1.244331169458478  12.216458107405970   1.668615177983294 
  2.489557220722348   5.748786333927376   1.666123864025824 
  6.223358263682311  12.216516236049907   1.668844827004320 
  7.466461176230084   5.747488042113526   1.667068440872768 
 -1.244861650198088   7.905619716450316   8.337124781379718 
 -0.000138143359439   1.436545430877578   8.338069287666626 
  3.734034485422566   7.905435970390030   8.337984638901203 
  4.979053771258841   1.436745405548661   8.336959934051041 
  8.713367877002057   7.905621785088024   8.336762487677344 
 -3.733327914559802   7.905613909260041   1.668214830041483 
  9.957398216300348   1.436334689698779   8.337098188395956 
  2.489498371540698   1.435981594549102   1.668620643067797 
  1.243996927560667   7.905649548994707   1.668080521377722 
  6.223001794989713   7.905440797905043   1.670023415397379 
  7.468039133904204   1.436715066223411   1.668886763720748 
  1.243996927560668   7.905649548994708   8.337876691466919 
 12.446719315031748   1.436696462253263   1.668356529015041 
 -2.489110899986120  10.061237553519245   8.337394636173304 
 -1.245023976287627   3.592864715858498   8.337394831039710 
  3.734852384959064   3.592228176944192   8.340027017917238 
  2.488847060532819  10.061230398866893   8.337177293360359 
  7.468364161340108  10.061287779796759   8.338256126675279 
  8.712412202116397   3.591457490421826   8.336507452105959 
 -4.978221150781019  10.061185747748500   1.668741117216789 
 -0.000316064482152  10.061283372220865   1.668099049564826 
  1.244228516189367   3.592337448553136   1.667675806182101 
  4.978490290739702  10.061399139126740   1.668068221831143 
  6.223572358199531   3.593030407475089   1.674000206644817 
 11.202292555908775   3.592562524524948   1.667689265324225 
 -2.489329813175277   5.749281338433327   8.337930861578634 
 -3.733734290593952  12.216279804976734   8.337974883515171 
  1.244331169458479  12.216458107405970   8.337342034861319 
  2.489557220722348   5.748786333927377   8.339833348818804 
  6.223358263682312  12.216516236049907   8.337112385840321 
 -6.223249084935842  12.216278501723732   1.668233646115292 
  7.466461176230085   5.747488042113527   8.338888771971860 
 -1.244662931104124  12.216581722656812   1.669155570081494 
 -0.000653021472485   5.749386450124619   1.667778911243132 
 -1.244861650198088   7.905619716450315   1.668832431464910 
  4.980061767414285   5.747730138778363   1.669567412380554 
  3.733816925753552  12.216521421054315   1.668099569702819 
  9.958119878400938   5.748785352579617   1.669868096273158 
 -3.733327914559801   7.905613909260042   8.337742382803144 
  2.489498371540698   1.435981594549103   8.337336569776831 
  6.223001794989714   7.905440797905044   8.335933797447248 
  7.468039133904205   1.436715066223412   8.337070449123880 
 12.446719315031748   1.436696462253264   8.337600683829574 
  4.848842667522261   5.728609130640583   5.002978606422314 
  1.244648155641794   0.718352045557145   1.667574520318973 
  4.978959480994314   7.185903073948216   1.672742209239684 
  6.223417467372702   0.718567136491744   1.667257034679930 
  9.957335091463971   7.186078352219392   1.670755087926320 
 11.202243651258609   0.718372404755977   1.667115071547421 
 -3.734130767429574   9.341988274867889   8.338129643430527 
  1.244658480794898   9.341962488589536   8.338348382430476 
  2.489379781061912   2.874386909960691   8.335797683914796 
  6.223427167715798   9.341805483959339   8.336936366537344 
  7.468320681259850   2.874509186314828   8.336651331681709 
 12.446838702221429   2.874456453075000   8.338255362423578 
 -1.244760133784671   9.342055677742843   1.667213689885767 
 -0.000021083888802   2.874401291995832   1.668115187333542 
  4.978427249801909   2.874455536530221   1.669439623582544 
  3.734117074612152   9.341744871872605   1.668601511968792 
  8.712854893353166   9.341877397874910   1.668409298390565 
  9.957474918368474   2.874312402038428   1.668408046392567 
 -4.978788649730375  11.497774664876113   8.338861966113241 
 -0.000074551065286  11.497934451430311   8.338903465990388 
  1.244893896055161   5.030325864760342   8.335586104681399 
  6.223432644923500   5.030260458343658   8.343282642524164 
  4.978778881806702  11.497728628976722   8.338619580173985 
 11.202088889941439   5.030440782244184   8.337633463404918 
 -1.244727547456865   5.030406057095552   1.667867886632094 
 -2.489370739474307  11.497912350237149   1.667062133761831 
  2.489293881056351  11.497710389310905   1.667391805250655 
  3.733996292881532   5.030216762444432   1.670517085123704 
  7.468152154937914  11.497665371986935   1.667613901756606 
  8.712594033135984   5.030389218857714   1.675420166550935 
  0.000007290551329   7.186247557568151   8.337811393763234 
  1.244648155641794   0.718352045557145   8.338382692525656 
  4.978959480994315   7.185903073948217   8.333215003604945 
  6.223417467372703   0.718567136491745   8.338700178164698 
  9.957335091463971   7.186078352219393   8.335202124918307 
 -2.489513909747420   7.186269348957840   1.667963037067099 
 11.202243651258609   0.718372404755977   8.338842141297206 
  3.733993345644946   0.718508461120689   1.667478876662360 
  2.489524878578304   7.185953890964284   1.670267270420638 
  7.468066532997361   7.185907003931606   1.675716749328045 
  8.712789931106045   0.718506588130250   1.667409433594142 
  2.489524878578304   7.185953890964285   8.335689942423990 
 13.691612414267558   0.718352150062464   1.667358613522022 
 -1.244760133784670   9.342055677742843   8.338743522958861 
 -0.000021083888802   2.874401291995833   8.337842025511085 
  4.978427249801910   2.874455536530222   8.336517589262083 
  3.734117074612153   9.341744871872605   8.337355700875834 
  8.712854893353166   9.341877397874910   8.337547914454062 
  9.957474918368474   2.874312402038429   8.337549166452046 
 -3.734130767429574   9.341988274867889   1.667827569414102 
  1.244658480794897   9.341962488589536   1.667608830414165 
  2.489379781061911   2.874386909960690   1.670159528929831 
  6.223427167715797   9.341805483959339   1.669020846307283 
  7.468320681259849   2.874509186314827   1.669305881162906 
 12.446838702221429   2.874456453074999   1.667701850421051 
 -1.244727547456864   5.030406057095553   8.338089326212534 
 -2.489370739474306  11.497912350237149   8.338895079082796 
  2.489293881056351  11.497710389310905   8.338565407593986 
  3.733996292881532   5.030216762444433   8.335440127720924 
  7.468152154937915  11.497665371986935   8.338343311088035 
 -4.978788649730376  11.497774664876113   1.667095246731374 
  8.712594033135984   5.030389218857715   8.330537046293678 
 -0.000074551065286  11.497934451430311   1.667053746854240 
  1.244893896055161   5.030325864760341   1.670371108163230 
  0.000007290551329   7.186247557568150   1.668145819081408 
  6.223432644923499   5.030260458343657   1.662674570320464 
  4.978778881806701  11.497728628976722   1.667337632670630 
 11.202088889941439   5.030440782244183   1.668323749439723 
 -2.489513909747420   7.186269348957841   8.337994175777528 
  3.733993345644946   0.718508461120690   8.338478336182254 
  7.468066532997362   7.185907003931607   8.330240463516583 
  8.712789931106045   0.718506588130251   8.338547779250485 
 13.691612414267558   0.718352150062465   8.338598599322619 
  0.000891992411745   1.437996821593363   5.002978606422314 
  3.732015048627356   7.899506178642809   5.002978606422314 
  4.969411196338521   1.464110640569142   5.002978606422314 
  8.703565079640040   7.905811005737121   5.002978606422314 
  9.963280897358896   1.431133304795581   5.002978606422314 
 -4.978749845260793  10.061001792334404  11.673616748318732 
 -0.000022378826206  10.060979827098077  11.673616748318732 
  1.244659012854366   3.593288576915746  11.673616748318732 
  4.978695136659952  10.060960388736760  11.673616748318732 
  6.223447831981347   3.593231894703873  11.673616748318732 
 11.202212802292918   3.593325923832410  11.673616748318732 
 -2.490196972979694  10.062484386959925   5.002978606422314 
 -1.241727057786664   3.592756757391988   5.002978606422314 
  3.719295336306877   3.669718862568376   5.002978606422314 
  2.489327072690515  10.055968930563777   5.002978606422314 
  7.462203787847407  10.057257016522305   5.002978606422314 
  8.732314704073181   3.586492120418812   5.002978606422314 
 -6.223553447555219  12.216835302899820  11.673616748318732 
 -1.244658299375825  12.216862829327189  11.673616748318732 
 -0.000031878453720   5.749171158235608  11.673616748318732 
  4.978697222575451   5.749175480028191  11.673616748318732 
  3.734067516410252  12.216820348442418  11.673616748318732 
  9.957565116269954   5.749189131991474  11.673616748318732 
 -2.480297437069475   5.747629038947747   5.002978606422314 
 -3.733969692624488  12.228784426089735   5.002978606422314 
  1.244221916716146  12.214400917974627   5.002978606422314 
  2.530990045906779   5.716624612093596   5.002978606422314 
  6.223990077506972  12.215428096773502   5.002978606422314 
  7.487639188538768   5.758563391443070   5.002978606422314 
 -1.244744262071797   7.905093813648496  11.673616748318732 
 -0.000023919087041   1.437424064118524  11.673616748318732 
  3.734076664201463   7.904995318258038  11.673616748318732 
  4.978783376609450   1.437424162726169  11.673616748318732 
  8.712849008820786   7.905047885945504  11.673616748318732 
 -3.738219405071530   7.902324115389293   5.002978606422314 
  9.957510185925932   1.437414751355210  11.673616748318732 
  2.494639719819852   1.462742263443252   5.002978606422314 
  1.255475966751355   7.888973719391916   5.002978606422314 
  6.203983037731513   7.888973647184295   5.002978606422314 
  7.470708442998735   1.436538282804315   5.002978606422314 
  1.244671921532801   7.905053876576060  11.673616748318732 
 12.450119900124696   1.435169760608853   5.002978606422314 
 -2.489423800048125  10.060965059909343  11.673616748318732 
 -1.244732026458506   3.593305540265524  11.673616748318732 
  3.734066299537420   3.593318215687261  11.673616748318732 
  2.489343602644482  10.060994203246590  11.673616748318732 
  7.468147176162341  10.060953752899268  11.673616748318732 
  8.712849470190891   3.593303029037585  11.673616748318732 
 -4.980102005583912  10.065462758947362   5.002978606422314 
  0.001878112315862  10.057003881157760   5.002978606422314 
  1.238780553372745   3.593210564779431   5.002978606422314 
  4.976104864622721  10.058523317901969   5.002978606422314 
  6.229854551391438   3.510935361880157   5.002978606422314 
 11.209918620071326   3.590878753764818   5.002978606422314 
 -2.489418975868736   5.749197582819189  11.673616748318732 
 -3.734060812686539  12.216831019477523  11.673616748318732 
  1.244614456009052  12.216859792476178  11.673616748318732 
  2.489351163500665   5.749207089477462  11.673616748318732 
  6.223461060682392  12.216872388951401  11.673616748318732 
 -6.222068482975830  12.224352749600760   5.002978606422314 
  7.468179788002231   5.749166361819572  11.673616748318732 
 -1.247708143167328  12.224834555302809   5.002978606422314 
  0.018398122638929   5.745871127662461   5.002978606422314 
 -1.240765803224278   7.901510232904905   5.002978606422314 
  3.735006992978675  12.212817592741013   5.002978606422314 
  9.960861892833849   5.744349645729433   5.002978606422314 
 -3.734113311045083   7.904995092769782  11.673616748318732 
  2.489351778882833   1.437421513910600  11.673616748318732 
  6.223423773648470   7.905074391424640  11.673616748318732 
  7.468143828252845   1.437452367898749  11.673616748318732 
 12.446901116521898   1.437443175838454  11.673616748318732 
  3.732837484099191   5.037103992233486   5.002978606422314 
Generated by cif2cell 2.0.0.  :  Failed to get author information, No journal information. Species order: B N C 
 1.0
 14.936314146199660   0.000000000000000   0.000000000000000
 -7.468157073099825  12.935227489513863   0.000000000000000
  0.000000000000001   0.000000000000001  13.341276283792837
 B N C 
 142 144   1
Cartesian
  1.247714876635642   0.728317230208511   5.002978606422314 
  4.956968822493081   7.165379432427551   5.002978606422314 
  6.218152365523054   0.731094037784449   5.002978606422314 
  9.960049013023793   7.187553465840692   5.002978606422314 
 11.206772869572628   0.713414523938082   5.002978606422314 
 -3.732456587413124   9.340505080342840  11.673616748318732 
  1.242030087331691   9.342218150535311  11.673616748318732 
  2.490348292695777   2.876788091142931  11.673616748318732 
  6.224358869510714   9.344763622003482  11.673616748318732 
  7.469508654258594   2.872534667619798  11.673616748318732 
 12.444396995123922   2.874208509278016  11.673616748318732 
 -1.244098537469893   9.342533383119266   5.002978606422314 
 -0.008382838536572   2.868090861791636   5.002978606422314 
  4.977174682491618   2.914229092059431   5.002978606422314 
  3.732107025879397   9.348464210679563   5.002978606422314 
  8.711665211676154   9.354809052266015   5.002978606422314 
  9.977086107725015   2.860046441782749   5.002978606422314 
 -4.977735236624897  11.500632915671959  11.673616748318732 
  0.001473915981139  11.496347902720959  11.673616748318732 
  1.242068179586126   5.030140370474363  11.673616748318732 
  6.224245830920870   5.032344300099171  11.673616748318732 
  4.976173612751598  11.498057213094627  11.673616748318732 
 11.203836278816851   5.028470998378993  11.673616748318732 
 -1.235481839903541   5.027163146177998   5.002978606422314 
 -2.489953395676963  11.504156457552190   5.002978606422314 
  2.488851785214341  11.497442548143159   5.002978606422314 
  7.468362765728658  11.503503171879617   5.002978606422314 
  8.748643398165914   4.991868830656555   5.002978606422314 
  0.001383944275151   7.184561480104668  11.673616748318732 
  1.242172476873606   0.718439889877339  11.673616748318732 
  4.976266866100289   7.185981365881585  11.673616748318732 
  6.224457301037915   0.721098172713633  11.673616748318732 
  9.958633030204334   7.188705213725316  11.673616748318732 
 -2.485323536150625   7.184880903527191   5.002978606422314 
 11.203679656873835   0.716843260491519  11.673616748318732 
  3.734850931113874   0.731969873174689   5.002978606422314 
  2.500541948346006   7.184911644873761   5.002978606422314 
  7.450680444792611   7.222810429984083   5.002978606422314 
  8.715347560211610   0.714725140662417   5.002978606422314 
  2.490187384330628   7.188802062690864  11.673616748318732 
 13.692599139783795   0.716610783990786   5.002978606422314 
 -1.243763667849537   9.344783209170801  11.673616748318732 
  0.001385159156391   2.872546837023263  11.673616748318732 
  4.976573777477367   2.874136507626473  11.673616748318732 
  3.735513906736074   9.340561905849338  11.673616748318732 
  8.710448634748834   9.342187603209506  11.673616748318732 
  9.958454118112563   2.876810081129795  11.673616748318732 
 -3.734077633941210   9.346738394806591   5.002978606422314 
  1.246332173343853   9.337180561995547   5.002978606422314 
  2.474458330636078   2.893712332050855   5.002978606422314 
  6.214060987744205   9.345411545703413   5.002978606422314 
  7.481474938266424   2.876592208120563   5.002978606422314 
 12.453567351545846   2.869012516961699   5.002978606422314 
 -1.243865433515461   5.032757461855374  11.673616748318732 
 -2.491786947101770  11.497951831146514  11.673616748318732 
  2.490231054081563  11.500686504111393  11.673616748318732 
  3.735664732581234   5.028448819094427  11.673616748318732 
  7.469664984090049  11.496403589164572  11.673616748318732 
 -4.977151851763445  11.507005202158043   5.002978606422314 
  8.710546028144236   5.029928170228964  11.673616748318732 
 -0.002670271382224  11.499569707278461   5.002978606422314 
  1.244938149269605   5.012342250634970   5.002978606422314 
  0.003438749703671   7.183701502936643   5.002978606422314 
  4.978680902441391  11.499761310890298   5.002978606422314 
 11.217904734341996   5.023512300411281   5.002978606422314 
 -2.491839010877357   7.186103251708982  11.673616748318732 
  3.735767835601273   0.716786956604820  11.673616748318732 
  7.469683901999695   7.184536352924987  11.673616748318732 
  8.710263107868927   0.718480986558371  11.673616748318732 
 13.692483847971504   0.721140202685609  11.673616748318732 
 -0.000138143359439   1.436545430877577   1.667887925178016 
  3.734034485422566   7.905435970390029   1.667972573943424 
  4.979053771258840   1.436745405548661   1.668997278793572 
  8.713367877002057   7.905621785088023   1.669194725167284 
  9.957398216300348   1.436334689698779   1.668859024448672 
 -4.978221150781018  10.061185747748500   8.337216095627840 
 -0.000316064482151  10.061283372220865   8.337858163279801 
  1.244228516189367   3.592337448553137   8.338281406662528 
  4.978490290739702  10.061399139126740   8.337888991013486 
  6.223572358199532   3.593030407475090   8.331957006199811 
 11.202292555908775   3.592562524524949   8.338267947520389 
 -2.489110899986120  10.061237553519245   1.668562576671323 
 -1.245023976287627   3.592864715858497   1.668562381804919 
  3.734852384959063   3.592228176944191   1.665930194927389 
  2.488847060532819  10.061230398866893   1.668779919484270 
  7.468364161340107  10.061287779796759   1.667701086169362 
  8.712412202116397   3.591457490421825   1.669449760738668 
 -6.223249084935842  12.216278501723732   8.337723566729336 
 -1.244662931104123  12.216581722656812   8.336801642763135 
 -0.000653021472484   5.749386450124620   8.338178301601495 
  4.980061767414286   5.747730138778364   8.336389800464072 
  3.733816925753553  12.216521421054315   8.337857643141808 
  9.958119878400938   5.748785352579618   8.336089116571470 
 -2.489329813175277   5.749281338433326   1.668026351266006 
 -3.733734290593952  12.216279804976734   1.667982329329455 
  1.244331169458478  12.216458107405970   1.668615177983294 
  2.489557220722348   5.748786333927376   1.666123864025824 
  6.223358263682311  12.216516236049907   1.668844827004320 
  7.466461176230084   5.747488042113526   1.667068440872768 
 -1.244861650198088   7.905619716450316   8.337124781379718 
 -0.000138143359439   1.436545430877578   8.338069287666626 
  3.734034485422566   7.905435970390030   8.337984638901203 
  4.979053771258841   1.436745405548661   8.336959934051041 
  8.713367877002057   7.905621785088024   8.336762487677344 
 -3.733327914559802   7.905613909260041   1.668214830041483 
  9.957398216300348   1.436334689698779   8.337098188395956 
  2.489498371540698   1.435981594549102   1.668620643067797 
  1.243996927560667   7.905649548994707   1.668080521377722 
  6.223001794989713   7.905440797905043   1.670023415397379 
  7.468039133904204   1.436715066223411   1.668886763720748 
  1.243996927560668   7.905649548994708   8.337876691466919 
 12.446719315031748   1.436696462253263   1.668356529015041 
 -2.489110899986120  10.061237553519245   8.337394636173304 
 -1.245023976287627   3.592864715858498   8.337394831039710 
  3.734852384959064   3.592228176944192   8.340027017917238 
  2.488847060532819  10.061230398866893   8.337177293360359 
  7.468364161340108  10.061287779796759   8.338256126675279 
  8.712412202116397   3.591457490421826   8.336507452105959 
 -4.978221150781019  10.061185747748500   1.668741117216789 
 -0.000316064482152  10.061283372220865   1.668099049564826 
  1.244228516189367   3.592337448553136   1.667675806182101 
  4.978490290739702  10.061399139126740   1.668068221831143 
  6.223572358199531   3.593030407475089   1.674000206644817 
 11.202292555908775   3.592562524524948   1.667689265324225 
 -2.489329813175277   5.749281338433327   8.337930861578634 
 -3.733734290593952  12.216279804976734   8.337974883515171 
  1.244331169458479  12.216458107405970   8.337342034861319 
  2.489557220722348   5.748786333927377   8.339833348818804 
  6.223358263682312  12.216516236049907   8.337112385840321 
 -6.223249084935842  12.216278501723732   1.668233646115292 
  7.466461176230085   5.747488042113527   8.338888771971860 
 -1.244662931104124  12.216581722656812   1.669155570081494 
 -0.000653021472485   5.749386450124619   1.667778911243132 
 -1.244861650198088   7.905619716450315   1.668832431464910 
  4.980061767414285   5.747730138778363   1.669567412380554 
  3.733816925753552  12.216521421054315   1.668099569702819 
  9.958119878400938   5.748785352579617   1.669868096273158 
 -3.733327914559801   7.905613909260042   8.337742382803144 
  2.489498371540698   1.435981594549103   8.337336569776831 
  6.223001794989714   7.905440797905044   8.335933797447248 
  7.468039133904205   1.436715066223412   8.337070449123880 
 12.446719315031748   1.436696462253264   8.337600683829574 
  4.848842667522261   5.728609130640583   5.002978606422314 
  1.244648155641794   0.718352045557145   1.667574520318973 
  4.978959480994314   7.185903073948216   1.672742209239684 
  6.223417467372702   0.718567136491744   1.667257034679930 
  9.957335091463971   7.186078352219392   1.670755087926320 
 11.202243651258609   0.718372404755977   1.667115071547421 
 -3.734130767429574   9.341988274867889   8.338129643430527 
  1.244658480794898   9.341962488589536   8.338348382430476 
  2.489379781061912   2.874386909960691   8.335797683914796 
  6.223427167715798   9.341805483959339   8.336936366537344 
  7.468320681259850   2.874509186314828   8.336651331681709 
 12.446838702221429   2.874456453075000   8.338255362423578 
 -1.244760133784671   9.342055677742843   1.667213689885767 
 -0.000021083888802   2.874401291995832   1.668115187333542 
  4.978427249801909   2.874455536530221   1.669439623582544 
  3.734117074612152   9.341744871872605   1.668601511968792 
  8.712854893353166   9.341877397874910   1.668409298390565 
  9.957474918368474   2.874312402038428   1.668408046392567 
 -4.978788649730375  11.497774664876113   8.338861966113241 
 -0.000074551065286  11.497934451430311   8.338903465990388 
  1.244893896055161   5.030325864760342   8.335586104681399 
  6.223432644923500   5.030260458343658   8.343282642524164 
  4.978778881806702  11.497728628976722   8.338619580173985 
 11.202088889941439   5.030440782244184   8.337633463404918 
 -1.244727547456865   5.030406057095552   1.667867886632094 
 -2.489370739474307  11.497912350237149   1.667062133761831 
  2.489293881056351  11.497710389310905   1.667391805250655 
  3.733996292881532   5.030216762444432   1.670517085123704 
  7.468152154937914  11.497665371986935   1.667613901756606 
  8.712594033135984   5.030389218857714   1.675420166550935 
  0.000007290551329   7.186247557568151   8.337811393763234 
  1.244648155641794   0.718352045557145   8.338382692525656 
  4.978959480994315   7.185903073948217   8.333215003604945 
  6.223417467372703   0.718567136491745   8.338700178164698 
  9.957335091463971   7.186078352219393   8.335202124918307 
 -2.489513909747420   7.186269348957840   1.667963037067099 
 11.202243651258609   0.718372404755977   8.338842141297206 
  3.733993345644946   0.718508461120689   1.667478876662360 
  2.489524878578304   7.185953890964284   1.670267270420638 
  7.468066532997361   7.185907003931606   1.675716749328045 
  8.712789931106045   0.718506588130250   1.667409433594142 
  2.489524878578304   7.185953890964285   8.335689942423990 
 13.691612414267558   0.718352150062464   1.667358613522022 
 -1.244760133784670   9.342055677742843   8.338743522958861 
 -0.000021083888802   2.874401291995833   8.337842025511085 
  4.978427249801910   2.874455536530222   8.336517589262083 
  3.734117074612153   9.341744871872605   8.337355700875834 
  8.712854893353166   9.341877397874910   8.337547914454062 
  9.957474918368474   2.874312402038429   8.337549166452046 
 -3.734130767429574   9.341988274867889   1.667827569414102 
  1.244658480794897   9.341962488589536   1.667608830414165 
  2.489379781061911   2.874386909960690   1.670159528929831 
  6.223427167715797   9.341805483959339   1.669020846307283 