Species order:X N B                     
   2.51242800000000     
     5.9449720136058266    0.0000000000000000    0.0000000000000000
    -2.9724860068029120    5.1484967885702053   -0.0000000000000001
     0.0000000000000000    0.0000000000000009    5.3101128803662583
   C    N    B 
     2   142   143
Direct
  0.3965484755106161  0.4398815771480297  0.3750000000000000
  0.4502636425119124  0.3831839923636852  0.3750000000000000
  0.1111381607527908  0.0555811922618875  0.1254318054447238
  0.6111086535695284  0.5555600899708694  0.1278341937543169
  0.4444318783739898  0.0555636835330099  0.1254970535959383
  0.9444713945801699  0.5555979905820839  0.1252717865830098
  0.7777811361111253  0.0555839754741065  0.1250554916499090
  0.1111301172680758  0.7222482180692220  0.6248442503648421
  0.4444441863399425  0.7222468330238231  0.6245083885195155
  0.2778170772950157  0.2222728054823615  0.6236997438303917
  0.7777941391192291  0.7222318150190949  0.6241200389606625
  0.6110938633615046  0.2222440330732698  0.6242890827554790
  0.9444590655171033  0.2222678714328166  0.6248706716421623
  0.2777823276946806  0.7222461233475890  0.1252815142677077
  0.1111346335136087  0.2222614311298617  0.1254473661578444
  0.4444348681935739  0.2222478887229912  0.1266195514349648
  0.6111162080449228  0.7222317690553078  0.1259171007193248
  0.9444744529748155  0.7222470481744224  0.1253142949127767
  0.7777745152172097  0.2222638663552103  0.1251653407619826
  0.1111339438428580  0.8889102635811086  0.6247520786387256
  0.4444347932420341  0.8889061265644812  0.6248445582989059
  0.2777849877399632  0.3889252752197937  0.6240489959611082
  0.6110996213175468  0.3889050772265224  0.6229191362720237
  0.7777946643833947  0.8889081536472618  0.6248204169454135
  0.9444565903049260  0.3889421114224124  0.6248501499038199
  0.1111257451446690  0.3889390371620580  0.1253454671288579
  0.2777802213120504  0.8889053615845455  0.1252799464840162
  0.6111033145548408  0.8889053385770737  0.1251392105165767
  0.4444387488185956  0.3888890995165288  0.1264619927215549
  0.9444744721281608  0.8889094823038564  0.1251626334967901
  0.7777799786208749  0.3889352881807906  0.1256610718312334
  0.2777994270452150  0.5555909518572725  0.6243421048850806
  0.1111381607527908  0.0555811922618875  0.6245681945552751
  0.6111086535695284  0.5555600899708694  0.6221658062456843
  0.4444318783739898  0.0555636835330099  0.6245029464040608
  0.9444713945801699  0.5555979905820839  0.6247282134169899
  0.1111311156792060  0.5555969591619986  0.1252364058045354
  0.7777811361111253  0.0555839754741065  0.6249445083500905
  0.2777918796866445  0.0555840264624527  0.1257727747234670
  0.4444644907132282  0.5555889085357314  0.1264359226810316
  0.7777912481557862  0.5555821775415868  0.1262065197555859
  0.6110939159269598  0.0555734680316808  0.1251204516609549
  0.4444644907132285  0.5555889085357314  0.6235640773189670
  0.9444705300463336  0.0555850732768365  0.1251280641440615
  0.2777823276946806  0.7222461233475890  0.6247184857322912
  0.1111346335136087  0.2222614311298617  0.6245526338421569
  0.4444348681935739  0.2222478887229912  0.6233804485650363
  0.6111162080449228  0.7222317690553078  0.6240828992806747
  0.9444744529748155  0.7222470481744224  0.6246857050872224
  0.7777745152172097  0.2222638663552103  0.6248346592380171
  0.1111301172680758  0.7222482180692220  0.1251557496351592
  0.4444441863399425  0.7222468330238231  0.1254916114804850
  0.2778170772950157  0.2222728054823615  0.1263002561696070
  0.7777941391192291  0.7222318150190949  0.1258799610393377
  0.6110938633615046  0.2222440330732698  0.1257109172445223
  0.9444590655171033  0.2222678714328166  0.1251293283578368
  0.1111257451446690  0.3889390371620580  0.6246545328711419
  0.2777802213120504  0.8889053615845455  0.6247200535159849
  0.6111033145548408  0.8889053385770737  0.6248607894834255
  0.4444387488185956  0.3888890995165288  0.6235380072784461
  0.9444744721281608  0.8889094823038564  0.6248373665032102
  0.1111339438428580  0.8889102635811086  0.1252479213612756
  0.7777799786208749  0.3889352881807906  0.6243389281687658
  0.4444347932420341  0.8889061265644812  0.1251554417010929
  0.2777849877399632  0.3889252752197937  0.1259510040388920
  0.2777994270452150  0.5555909518572725  0.1256578951149202
  0.6110996213175468  0.3889050772265224  0.1270808637279766
  0.7777946643833947  0.8889081536472618  0.1251795830545852
  0.9444565903049260  0.3889421114224124  0.1251498500961817
  0.1111311156792060  0.5555969591619986  0.6247635941954656
  0.2777918796866445  0.0555840264624527  0.6242272252765322
  0.7777912481557862  0.5555821775415868  0.6237934802444141
  0.6110939159269598  0.0555734680316808  0.6248795483390446
  0.9444705300463336  0.0555850732768365  0.6248719358559379
  0.0550265784738160  0.1105762728678872  0.3750000000000000
  0.5569065299490217  0.6139569246485566  0.3750000000000000
  0.3880753673972215  0.1099398542583827  0.3750000000000000
  0.8876667021236894  0.6102735533857717  0.3750000000000000
  0.7217321183164338  0.1115229433315332  0.3750000000000000
  0.0555519689065829  0.7777712071759963  0.8750000000000000
  0.3888991184253952  0.7777707938113351  0.8750000000000000
  0.2222203801900854  0.2777657574166940  0.8750000000000000
  0.7222225663553288  0.7777695190910305  0.8750000000000000
  0.5555595203716202  0.2777706972916686  0.8750000000000000
  0.8888918277587172  0.2777695404126441  0.8750000000000000
  0.2217369207824598  0.7766477866179675  0.3750000000000000
  0.0548779011018929  0.2773553672750382  0.3750000000000000
  0.3929846797739915  0.2810253585634638  0.3750000000000000
  0.5558224446960339  0.7789363476654976  0.3750000000000000
  0.8897652439623468  0.7786281910523561  0.3750000000000000
  0.7207637867995967  0.2778212261314144  0.3750000000000000
  0.0555534087431521  0.9444424259377572  0.8750000000000000
  0.3889001313100934  0.9444432908268358  0.8750000000000000
  0.2222220174461607  0.4444309916043155  0.8750000000000000
  0.5555589267894162  0.4444367728582877  0.8750000000000000
  0.7222271894022821  0.9444388475456597  0.8750000000000000
  0.8888892714857068  0.4444333650041492  0.8750000000000000
  0.0546240021864270  0.4436803399311598  0.3750000000000000
  0.2217978600232368  0.9437956552769929  0.3750000000000000
  0.5552455968750553  0.9446450237430971  0.3750000000000000
  0.8892943346151007  0.9451467629636053  0.3750000000000000
  0.7156670821793609  0.4440847188135406  0.3750000000000000
  0.2222258604431133  0.6110975497593961  0.8750000000000000
  0.0555520340197893  0.1111013534496944  0.8750000000000000
  0.5555582932251453  0.6110972265506210  0.8750000000000000
  0.3888967122173091  0.1111096720203274  0.8750000000000000
  0.8888806926873232  0.6110967990229150  0.8750000000000000
  0.0547567710063249  0.6100662101253805  0.3750000000000000
  0.7222254995460980  0.1111026922708125  0.8750000000000000
  0.2232666443045955  0.1119528041519149  0.3750000000000000
  0.3899720613195480  0.6106023240626574  0.3750000000000000
  0.7237094123704649  0.6119813864014584  0.3750000000000000
  0.5547482834369561  0.1106778482853929  0.3750000000000000
  0.3888960904905716  0.6110971129294319  0.8750000000000000
  0.8886241947168367  0.1114649524234261  0.3750000000000000
  0.2222280905679933  0.7777724826043155  0.8750000000000000
  0.0555543315030066  0.2777662587108920  0.8750000000000000
  0.3888907046248019  0.2777690941329277  0.8750000000000000
  0.5555637135895992  0.7777695334025859  0.8750000000000000
  0.8888835467081577  0.7777711120409162  0.8750000000000000
  0.7222255828917895  0.2777681545676410  0.8750000000000000
  0.0550766863369174  0.7770843191230635  0.3750000000000000
  0.3887129449205970  0.7771104156140399  0.3750000000000000
  0.2204375149062661  0.2755755805434448  0.3750000000000000
  0.7235278721964431  0.7797243843947514  0.3750000000000000
  0.5535085113819601  0.2765712648565806  0.3750000000000000
  0.8879367721436405  0.2778066077405206  0.3750000000000000
  0.0555555721932840  0.4444335311130439  0.8750000000000000
  0.2222269814942844  0.9444461888294566  0.8750000000000000
  0.5555631239854433  0.9444392220634522  0.8750000000000000
  0.3888899897880348  0.4444329876374685  0.8750000000000000
  0.8888901197571948  0.9444390049143405  0.8750000000000000
  0.0560831477052301  0.9448636018773788  0.3750000000000000
  0.7222199115696182  0.4444322591191244  0.8750000000000000
  0.3883210319726074  0.9435335164995483  0.3750000000000000
  0.2227767345230829  0.4427770353241635  0.3750000000000000
  0.2222775828375950  0.6096848466598419  0.3750000000000000
  0.7223784983206422  0.9453722767712739  0.3750000000000000
  0.8861215113497874  0.4438666014106259  0.3750000000000000
  0.0555535116576004  0.6110981994268506  0.8750000000000000
  0.2222217800601700  0.1111081007806779  0.8750000000000000
  0.7222117962928777  0.6110966337240815  0.8750000000000000
  0.5555624884126172  0.1111039215808011  0.8750000000000000
  0.8888912379493306  0.1111021342730567  0.8750000000000000
  0.1108434675141413  0.0556272619471327  0.3750000000000000
  0.6210297706207022  0.5750251342248117  0.3750000000000000
  0.4439490738142879  0.0538368354028526  0.3750000000000000
  0.9438746236344769  0.5548058044734056  0.3750000000000000
  0.7777615629602840  0.0564437650432868  0.3750000000000000
  0.1111216238486209  0.7222122934096672  0.8750000000000000
  0.4444481813889383  0.7222540660144712  0.8750000000000000
  0.2777125106544194  0.2221689983725207  0.8750000000000000
  0.7778200044681470  0.7222747404486843  0.8750000000000000
  0.6111491744550179  0.2221720621794314  0.8750000000000000
  0.9444273099493465  0.2221996615884696  0.8750000000000000
  0.2774362816267512  0.7212018043679889  0.3750000000000000
  0.1086673677890498  0.2206289890738491  0.3750000000000000
  0.4440545194552331  0.2181198293557466  0.3750000000000000
  0.6137199336264880  0.7278216434181078  0.3750000000000000
  0.9445791371348548  0.7221613809745934  0.3750000000000000
  0.7772374239213810  0.2222513706374172  0.3750000000000000
  0.1111045135778857  0.8888775540829329  0.8750000000000000
  0.4444600890809305  0.8888865893906206  0.8750000000000000
  0.2776953876385069  0.3888575955589670  0.8750000000000000
  0.6111513792204718  0.3888595384346066  0.8750000000000000
  0.7778024552791077  0.8889350595702038  0.8750000000000000
  0.9444558820419180  0.3888625040389448  0.8750000000000000
  0.1103321372950039  0.3881141920073305  0.3750000000000000
  0.2771904045462898  0.8876744139219925  0.3750000000000000
  0.6115780766463207  0.8905197874547406  0.3750000000000000
  0.9453255354052623  0.8902945253047877  0.3750000000000000
  0.7750753067255839  0.3880699219677327  0.3750000000000000
  0.2777414889102747  0.5555524095869707  0.8750000000000000
  0.1110663188187163  0.0555273222417145  0.8750000000000000
  0.6111384788683494  0.5555876818212879  0.8750000000000000
  0.4444584175121608  0.0555113153933600  0.8750000000000000
  0.9444765403143136  0.5555428251545875  0.8750000000000000
  0.1106047161085746  0.5545852511028445  0.3750000000000000
  0.7777933730633650  0.0555603995651799  0.8750000000000000
  0.2766803719533350  0.0539646894823775  0.3750000000000000
  0.4466008173597625  0.5581871544188503  0.3750000000000000
  0.7782911566546544  0.5551934143358330  0.3750000000000000
  0.6109383812415694  0.0554472289676948  0.3750000000000000
  0.4444299412242368  0.5555910525149232  0.8750000000000000
  0.9440250076447797  0.0559219996624131  0.3750000000000000
  0.2777742716752056  0.7222199441588160  0.8750000000000000
  0.1110427940530000  0.2221847943004038  0.8750000000000000
  0.4444397483891361  0.2221622664966330  0.8750000000000000
  0.6111382182233368  0.7222848386074208  0.8750000000000000
  0.9444740443391032  0.7222346695602820  0.8750000000000000
  0.7778061822959127  0.2221930577553623  0.8750000000000000
  0.1106446228958889  0.7212788175363173  0.3750000000000000
  0.4445740527602983  0.7226811979617145  0.3750000000000000
  0.2755125722643202  0.2214689016939836  0.3750000000000000
  0.7807082194562468  0.7266964067068817  0.3750000000000000
  0.6108071250393607  0.2206686621844580  0.3750000000000000
  0.9435832018114824  0.2222449203086024  0.3750000000000000
  0.1110644299463835  0.3888623890458853  0.8750000000000000
  0.2777807639509705  0.8888673947948683  0.8750000000000000
  0.6111343511714667  0.8889219376554970  0.8750000000000000
  0.4444205277579779  0.3888572505030105  0.8750000000000000
  0.9444540004693769  0.8889115657776563  0.8750000000000000
  0.1106399866287062  0.8882754999541448  0.3750000000000000
  0.7778267221383991  0.3888575547725827  0.8750000000000000
  0.4441865693417505  0.8883376107295797  0.3750000000000000
  0.2753583258919325  0.3848144245583199  0.3750000000000000
  0.2776614409907610  0.5543330104620142  0.3750000000000000
  0.6063957298873560  0.3838060585433171  0.3750000000000000
  0.7789454201268845  0.8913647625898991  0.3750000000000000
  0.9430671326690394  0.3885173705992493  0.3750000000000000
  0.1111038874516099  0.5555402734197575  0.8750000000000000
  0.2777521067483407  0.0555089838178290  0.8750000000000000
  0.7778309664204615  0.5555610428171132  0.8750000000000000
  0.6111389518276276  0.0555362738965080  0.8750000000000000
  0.9444257353225924  0.0555549523031040  0.8750000000000000
  0.0554891967518600  0.1110873071273297  0.1248470714143822
  0.5555528225874005  0.6113127560047055  0.1256381569909029
  0.3888080090122240  0.1108786751748699  0.1252241964081405
  0.8891408584278415  0.6112332870689888  0.1249143124691222
  0.7222393531675124  0.1111184162942466  0.1246765190152526
  0.0556669889018797  0.7778114321272960  0.6252506651634134
  0.3888262595442519  0.7778547438862679  0.6251628080001858
  0.2220204819262301  0.2777465827804233  0.6248504305908371
  0.7223403085800545  0.7779790434387266  0.6250659858435279
  0.5556162061593207  0.2776418846672661  0.6244965449872883
  0.8889259343474878  0.2778220276086791  0.6252836751010555
  0.2222102870264841  0.7777811224007224  0.1248164673367647
  0.0554788753343872  0.2778166853759172  0.1248337120480592
  0.3887933159237059  0.2776640608847213  0.1252276813629949
  0.5555241164179430  0.7779447582796998  0.1248628837903377
  0.8890908900241044  0.7779138855615471  0.1248094047467481
  0.7223206404920542  0.2777536523685985  0.1249114698576282
  0.0555807629998121  0.9444209847203993  0.6252089212125295
  0.3888364406702595  0.9443556916680624  0.6251641788957318
  0.2220702912358284  0.4445233202245983  0.6249231290936135
  0.5555825356379067  0.4444244459110738  0.6239530684355626
  0.7222469470308096  0.9445462128123696  0.6253455443969245
  0.8890387971051689  0.4445139323291293  0.6251779351686988
  0.0555510227234766  0.4445211092307779  0.1248144108481426
  0.2221720800801128  0.9443096025149843  0.1249272252247441
  0.5555194828790139  0.9444659295526430  0.1246802788298391
  0.3887389400959690  0.4445010698194028  0.1253138980735482
  0.8889562105853660  0.9445275455907179  0.1246744539877392
  0.7224354231862649  0.4444881815890915  0.1254444513278927
  0.2221620420076736  0.6112077034802461  0.6250736175181412
  0.0554891967518600  0.1110873071273297  0.6251529285856173
  0.5555528225874005  0.6113127560047055  0.6243618430090961
  0.3888080090122240  0.1108786751748699  0.6247758035918598
  0.8891408584278415  0.6112332870689888  0.6250856875308770
  0.0556503912336838  0.6111902218590766  0.1247636902578440
  0.7222393531675124  0.1111184162942466  0.6253234809847482
  0.2220799457798212  0.1109304248728301  0.1251679675550978
  0.3887818610622158  0.6112801088720863  0.1251573108214746
  0.7224837505848073  0.6112894513108679  0.1255868164539685
  0.5555449820437948  0.1109936407242150  0.1248674443486592
  0.3887818610622158  0.6112801088720863  0.6248426891785246
  0.8888895631519930  0.1111544617686903  0.1247002722344540
  0.2222102870264841  0.7777811224007224  0.6251835326632351
  0.0554788753343872  0.2778166853759172  0.6251662879519407
  0.3887933159237059  0.2776640608847213  0.6247723186370049
  0.5555241164179430  0.7779447582796998  0.6251371162096605
  0.8890908900241044  0.7779138855615471  0.6251905952532520
  0.7223206404920542  0.2777536523685985  0.6250885301423724
  0.0556669889018797  0.7778114321272960  0.1247493348365854
  0.3888262595442519  0.7778547438862679  0.1248371919998143
  0.2220204819262301  0.2777465827804233  0.1251495694091623
  0.7223403085800545  0.7779790434387266  0.1249340141564717
  0.5556162061593207  0.2776418846672661  0.1255034550127114
  0.8889259343474878  0.2778220276086791  0.1247163248989456
  0.0555510227234766  0.4445211092307779  0.6251855891518563
  0.2221720800801128  0.9443096025149843  0.6250727747752556
  0.5555194828790139  0.9444659295526430  0.6253197211701595
  0.3887389400959690  0.4445010698194028  0.6246861019264517
  0.8889562105853660  0.9445275455907179  0.6253255460122605
  0.0555807629998121  0.9444209847203993  0.1247910787874710
  0.7224354231862649  0.4444881815890915  0.6245555486721074
  0.3888364406702595  0.9443556916680624  0.1248358211042693
  0.2220702912358284  0.4445233202245983  0.1250768709063867
  0.2221620420076736  0.6112077034802461  0.1249263824818583
  0.5555825356379067  0.4444244459110738  0.1260469315644374
  0.7222469470308096  0.9445462128123696  0.1246544556030757
  0.8890387971051689  0.4445139323291293  0.1248220648313014
  0.0556503912336838  0.6111902218590766  0.6252363097421577
  0.2220799457798212  0.1109304248728301  0.6248320324449020
  0.7224837505848073  0.6112894513108679  0.6244131835460309
  0.5555449820437948  0.1109936407242150  0.6251325556513407
  0.8888895631519930  0.1111544617686903  0.6252997277655468
 
  0.00000000E+00  0.00000000E+00  0.00000000E+00
  0.00000000E+00  0.00000000E+00  0.00000000E+00
  0.00000000E+00  0.00000000E+00  0.00000000E+00
  0.00000000E+00  0.00000000E+00  0.00000000E+00
  0.00000000E+00  0.00000000E+00  0.00000000E+00
  0.00000000E+00  0.00000000E+00  0.00000000E+00
  0.00000000E+00  0.00000000E+00  0.00000000E+00
  0.00000000E+00  0.00000000E+00  0.00000000E+00
  0.00000000E+00  0.00000000E+00  0.00000000E+00
  0.00000000E+00  0.00000000E+00  0.00000000E+00
  0.00000000E+00  0.00000000E+00  0.00000000E+00
  0.00000000E+00  0.00000000E+00  0.00000000E+00
  0.00000000E+00  0.00000000E+00  0.00000000E+00
  0.00000000E+00  0.00000000E+00  0.00000000E+00
  0.00000000E+00  0.00000000E+00  0.00000000E+00
  0.00000000E+00  0.00000000E+00  0.00000000E+00
  0.00000000E+00  0.00000000E+00  0.00000000E+00
  0.00000000E+00  0.00000000E+00  0.00000000E+00
  0.00000000E+00  0.00000000E+00  0.00000000E+00
  0.00000000E+00  0.00000000E+00  0.00000000E+00
  0.00000000E+00  0.00000000E+00  0.00000000E+00
  0.00000000E+00  0.00000000E+00  0.00000000E+00
  0.00000000E+00  0.00000000E+00  0.00000000E+00
  0.00000000E+00  0.00000000E+00  0.00000000E+00
  0.00000000E+00  0.00000000E+00  0.00000000E+00
  0.00000000E+00  0.00000000E+00  0.00000000E+00
  0.00000000E+00  0.00000000E+00  0.00000000E+00
  0.00000000E+00  0.00000000E+00  0.00000000E+00
  0.00000000E+00  0.00000000E+00  0.00000000E+00
  0.00000000E+00  0.00000000E+00  0.00000000E+00
  0.00000000E+00  0.00000000E+00  0.00000000E+00
  0.00000000E+00  0.00000000E+00  0.00000000E+00
  0.00000000E+00  0.00000000E+00  0.00000000E+00
  0.00000000E+00  0.00000000E+00  0.00000000E+00
  0.00000000E+00  0.00000000E+00  0.00000000E+00
  0.00000000E+00  0.00000000E+00  0.00000000E+00
  0.00000000E+00  0.00000000E+00  0.00000000E+00
  0.00000000E+00  0.00000000E+00  0.00000000E+00
  0.00000000E+00  0.00000000E+00  0.00000000E+00
  0.00000000E+00  0.00000000E+00  0.00000000E+00
  0.00000000E+00  0.00000000E+00  0.00000000E+00
  0.00000000E+00  0.00000000E+00  0.00000000E+00
  0.00000000E+00  0.00000000E+00  0.00000000E+00
  0.00000000E+00  0.00000000E+00  0.00000000E+00
  0.00000000E+00  0.00000000E+00  0.00000000E+00
  0.00000000E+00  0.00000000E+00  0.00000000E+00
  0.00000000E+00  0.00000000E+00  0.00000000E+00
  0.00000000E+00  0.00000000E+00  0.00000000E+00
  0.00000000E+00  0.00000000E+00  0.00000000E+00
  0.00000000E+00  0.00000000E+00  0.00000000E+00
  0.00000000E+00  0.00000000E+00  0.00000000E+00
  0.00000000E+00  0.00000000E+00  0.00000000E+00
  0.00000000E+00  0.00000000E+00  0.00000000E+00
  0.00000000E+00  0.00000000E+00  0.00000000E+00
  0.00000000E+00  0.00000000E+00  0.00000000E+00
  0.00000000E+00  0.00000000E+00  0.00000000E+00
  0.00000000E+00  0.00000000E+00  0.00000000E+00
  0.00000000E+00  0.00000000E+00  0.00000000E+00
  0.00000000E+00  0.00000000E+00  0.00000000E+00
  0.00000000E+00  0.00000000E+00  0.00000000E+00
  0.00000000E+00  0.00000000E+00  0.00000000E+00
  0.00000000E+00  0.00000000E+00  0.00000000E+00
  0.00000000E+00  0.00000000E+00  0.00000000E+00
  0.00000000E+00  0.00000000E+00  0.00000000E+00
  0.00000000E+00  0.00000000E+00  0.00000000E+00
  0.00000000E+00  0.00000000E+00  0.00000000E+00
  0.00000000E+00  0.00000000E+00  0.00000000E+00
  0.00000000E+00  0.00000000E+00  0.00000000E+00
  0.00000000E+00  0.00000000E+00  0.00000000E+00
  0.00000000E+00  0.00000000E+00  0.00000000E+00
  0.00000000E+00  0.00000000E+00  0.00000000E+00
  0.00000000E+00  0.00000000E+00  0.00000000E+00
  0.00000000E+00  0.00000000E+00  0.00000000E+00
  0.00000000E+00  0.00000000E+00  0.00000000E+00
  0.00000000E+00  0.00000000E+00  0.00000000E+00
  0.00000000E+00  0.00000000E+00  0.00000000E+00
  0.00000000E+00  0.00000000E+00  0.00000000E+00
  0.00000000E+00  0.00000000E+00  0.00000000E+00
  0.00000000E+00  0.00000000E+00  0.00000000E+00
  0.00000000E+00  0.00000000E+00  0.00000000E+00
  0.00000000E+00  0.00000000E+00  0.00000000E+00
  0.00000000E+00  0.00000000E+00  0.00000000E+00
  0.00000000E+00  0.00000000E+00  0.00000000E+00
  0.00000000E+00  0.00000000E+00  0.00000000E+00
  0.00000000E+00  0.00000000E+00  0.00000000E+00
  0.00000000E+00  0.00000000E+00  0.00000000E+00
  0.00000000E+00  0.00000000E+00  0.00000000E+00
  0.00000000E+00  0.00000000E+00  0.00000000E+00
  0.00000000E+00  0.00000000E+00  0.00000000E+00
  0.00000000E+00  0.00000000E+00  0.00000000E+00
  0.00000000E+00  0.00000000E+00  0.00000000E+00
  0.00000000E+00  0.00000000E+00  0.00000000E+00
  0.00000000E+00  0.00000000E+00  0.00000000E+00
  0.00000000E+00  0.00000000E+00  0.00000000E+00
  0.00000000E+00  0.00000000E+00  0.00000000E+00
  0.00000000E+00  0.00000000E+00  0.00000000E+00
  0.00000000E+00  0.00000000E+00  0.00000000E+00
  0.00000000E+00  0.00000000E+00  0.00000000E+00
  0.00000000E+00  0.00000000E+00  0.00000000E+00
  0.00000000E+00  0.00000000E+00  0.00000000E+00
  0.00000000E+00  0.00000000E+00  0.00000000E+00
  0.00000000E+00  0.00000000E+00  0.00000000E+00
  0.00000000E+00  0.00000000E+00  0.00000000E+00
  0.00000000E+00  0.00000000E+00  0.00000000E+00
  0.00000000E+00  0.00000000E+00  0.00000000E+00
  0.00000000E+00  0.00000000E+00  0.00000000E+00
  0.00000000E+00  0.00000000E+00  0.00000000E+00
  0.00000000E+00  0.00000000E+00  0.00000000E+00
  0.00000000E+00  0.00000000E+00  0.00000000E+00
  0.00000000E+00  0.00000000E+00  0.00000000E+00
  0.00000000E+00  0.00000000E+00  0.00000000E+00
  0.00000000E+00  0.00000000E+00  0.00000000E+00
  0.00000000E+00  0.00000000E+00  0.00000000E+00
  0.00000000E+00  0.00000000E+00  0.00000000E+00
  0.00000000E+00  0.00000000E+00  0.00000000E+00
  0.00000000E+00  0.00000000E+00  0.00000000E+00
  0.00000000E+00  0.00000000E+00  0.00000000E+00
  0.00000000E+00  0.00000000E+00  0.00000000E+00
  0.00000000E+00  0.00000000E+00  0.00000000E+00
  0.00000000E+00  0.00000000E+00  0.00000000E+00
  0.00000000E+00  0.00000000E+00  0.00000000E+00
  0.00000000E+00  0.00000000E+00  0.00000000E+00
  0.00000000E+00  0.00000000E+00  0.00000000E+00
  0.00000000E+00  0.00000000E+00  0.00000000E+00
  0.00000000E+00  0.00000000E+00  0.00000000E+00
  0.00000000E+00  0.00000000E+00  0.00000000E+00
  0.00000000E+00  0.00000000E+00  0.00000000E+00
  0.00000000E+00  0.00000000E+00  0.00000000E+00
  0.00000000E+00  0.00000000E+00  0.00000000E+00
  0.00000000E+00  0.00000000E+00  0.00000000E+00
  0.00000000E+00  0.00000000E+00  0.00000000E+00
  0.00000000E+00  0.00000000E+00  0.00000000E+00
  0.00000000E+00  0.00000000E+00  0.00000000E+00
  0.00000000E+00  0.00000000E+00  0.00000000E+00
  0.00000000E+00  0.00000000E+00  0.00000000E+00
  0.00000000E+00  0.00000000E+00  0.00000000E+00
  0.00000000E+00  0.00000000E+00  0.00000000E+00
  0.00000000E+00  0.00000000E+00  0.00000000E+00
  0.00000000E+00  0.00000000E+00  0.00000000E+00
  0.00000000E+00  0.00000000E+00  0.00000000E+00
  0.00000000E+00  0.00000000E+00  0.00000000E+00
  0.00000000E+00  0.00000000E+00  0.00000000E+00
  0.00000000E+00  0.00000000E+00  0.00000000E+00
  0.00000000E+00  0.00000000E+00  0.00000000E+00
  0.00000000E+00  0.00000000E+00  0.00000000E+00
  0.00000000E+00  0.00000000E+00  0.00000000E+00
  0.00000000E+00  0.00000000E+00  0.00000000E+00
  0.00000000E+00  0.00000000E+00  0.00000000E+00
  0.00000000E+00  0.00000000E+00  0.00000000E+00
  0.00000000E+00  0.00000000E+00  0.00000000E+00
  0.00000000E+00  0.00000000E+00  0.00000000E+00
  0.00000000E+00  0.00000000E+00  0.00000000E+00
  0.00000000E+00  0.00000000E+00  0.00000000E+00
  0.00000000E+00  0.00000000E+00  0.00000000E+00
  0.00000000E+00  0.00000000E+00  0.00000000E+00
  0.00000000E+00  0.00000000E+00  0.00000000E+00
  0.00000000E+00  0.00000000E+00  0.00000000E+00
  0.00000000E+00  0.00000000E+00  0.00000000E+00
  0.00000000E+00  0.00000000E+00  0.00000000E+00
  0.00000000E+00  0.00000000E+00  0.00000000E+00
  0.00000000E+00  0.00000000E+00  0.00000000E+00
  0.00000000E+00  0.00000000E+00  0.00000000E+00
  0.00000000E+00  0.00000000E+00  0.00000000E+00
  0.00000000E+00  0.00000000E+00  0.00000000E+00
  0.00000000E+00  0.00000000E+00  0.00000000E+00
  0.00000000E+00  0.00000000E+00  0.00000000E+00
  0.00000000E+00  0.00000000E+00  0.00000000E+00
  0.00000000E+00  0.00000000E+00  0.00000000E+00
  0.00000000E+00  0.00000000E+00  0.00000000E+00
  0.00000000E+00  0.00000000E+00  0.00000000E+00
  0.00000000E+00  0.00000000E+00  0.00000000E+00
  0.00000000E+00  0.00000000E+00  0.00000000E+00
  0.00000000E+00  0.00000000E+00  0.00000000E+00
  0.00000000E+00  0.00000000E+00  0.00000000E+00
  0.00000000E+00  0.00000000E+00  0.00000000E+00
  0.00000000E+00  0.00000000E+00  0.00000000E+00
  0.00000000E+00  0.00000000E+00  0.00000000E+00
  0.00000000E+00  0.00000000E+00  0.00000000E+00
  0.00000000E+00  0.00000000E+00  0.00000000E+00
  0.00000000E+00  0.00000000E+00  0.00000000E+00
  0.00000000E+00  0.00000000E+00  0.00000000E+00
  0.00000000E+00  0.00000000E+00  0.00000000E+00
  0.00000000E+00  0.00000000E+00  0.00000000E+00
  0.00000000E+00  0.00000000E+00  0.00000000E+00
  0.00000000E+00  0.00000000E+00  0.00000000E+00
  0.00000000E+00  0.00000000E+00  0.00000000E+00
  0.00000000E+00  0.00000000E+00  0.00000000E+00
  0.00000000E+00  0.00000000E+00  0.00000000E+00
  0.00000000E+00  0.00000000E+00  0.00000000E+00
  0.00000000E+00  0.00000000E+00  0.00000000E+00
  0.00000000E+00  0.00000000E+00  0.00000000E+00
  0.00000000E+00  0.00000000E+00  0.00000000E+00
  0.00000000E+00  0.00000000E+00  0.00000000E+00
  0.00000000E+00  0.00000000E+00  0.00000000E+00
  0.00000000E+00  0.00000000E+00  0.00000000E+00
  0.00000000E+00  0.00000000E+00  0.00000000E+00
  0.00000000E+00  0.00000000E+00  0.00000000E+00
  0.00000000E+00  0.00000000E+00  0.00000000E+00
  0.00000000E+00  0.00000000E+00  0.00000000E+00
  0.00000000E+00  0.00000000E+00  0.00000000E+00
  0.00000000E+00  0.00000000E+00  0.00000000E+00
  0.00000000E+00  0.00000000E+00  0.00000000E+00
  0.00000000E+00  0.00000000E+00  0.00000000E+00
  0.00000000E+00  0.00000000E+00  0.00000000E+00
  0.00000000E+00  0.00000000E+00  0.00000000E+00
  0.00000000E+00  0.00000000E+00  0.00000000E+00
  0.00000000E+00  0.00000000E+00  0.00000000E+00
  0.00000000E+00  0.00000000E+00  0.00000000E+00
  0.00000000E+00  0.00000000E+00  0.00000000E+00
  0.00000000E+00  0.00000000E+00  0.00000000E+00
  0.00000000E+00  0.00000000E+00  0.00000000E+00
  0.00000000E+00  0.00000000E+00  0.00000000E+00
  0.00000000E+00  0.00000000E+00  0.00000000E+00
  0.00000000E+00  0.00000000E+00  0.00000000E+00
  0.00000000E+00  0.00000000E+00  0.00000000E+00
  0.00000000E+00  0.00000000E+00  0.00000000E+00
  0.00000000E+00  0.00000000E+00  0.00000000E+00
  0.00000000E+00  0.00000000E+00  0.00000000E+00
  0.00000000E+00  0.00000000E+00  0.00000000E+00
  0.00000000E+00  0.00000000E+00  0.00000000E+00
  0.00000000E+00  0.00000000E+00  0.00000000E+00
  0.00000000E+00  0.00000000E+00  0.00000000E+00
  0.00000000E+00  0.00000000E+00  0.00000000E+00
  0.00000000E+00  0.00000000E+00  0.00000000E+00
  0.00000000E+00  0.00000000E+00  0.00000000E+00
  0.00000000E+00  0.00000000E+00  0.00000000E+00
  0.00000000E+00  0.00000000E+00  0.00000000E+00
  0.00000000E+00  0.00000000E+00  0.00000000E+00
  0.00000000E+00  0.00000000E+00  0.00000000E+00
  0.00000000E+00  0.00000000E+00  0.00000000E+00
  0.00000000E+00  0.00000000E+00  0.00000000E+00
  0.00000000E+00  0.00000000E+00  0.00000000E+00
  0.00000000E+00  0.00000000E+00  0.00000000E+00
  0.00000000E+00  0.00000000E+00  0.00000000E+00
  0.00000000E+00  0.00000000E+00  0.00000000E+00
  0.00000000E+00  0.00000000E+00  0.00000000E+00
  0.00000000E+00  0.00000000E+00  0.00000000E+00
  0.00000000E+00  0.00000000E+00  0.00000000E+00
  0.00000000E+00  0.00000000E+00  0.00000000E+00
  0.00000000E+00  0.00000000E+00  0.00000000E+00
  0.00000000E+00  0.00000000E+00  0.00000000E+00
  0.00000000E+00  0.00000000E+00  0.00000000E+00
  0.00000000E+00  0.00000000E+00  0.00000000E+00
  0.00000000E+00  0.00000000E+00  0.00000000E+00
  0.00000000E+00  0.00000000E+00  0.00000000E+00
  0.00000000E+00  0.00000000E+00  0.00000000E+00
  0.00000000E+00  0.00000000E+00  0.00000000E+00
  0.00000000E+00  0.00000000E+00  0.00000000E+00