 Pb N B 
 1.0
 14.936314146199660   0.000000000000000   0.000000000000000
 -7.468157073099825  12.935227489513863   0.000000000000000
  0.000000000000001   0.000000000000001  13.341276283792837
 Pb N B 
   1 143 143
Cartesian
  4.372245256942614   5.398811973728598   5.002978606422314 
  1.244177093205301   0.718322846153526   1.667820882631428 
  4.979185883478340   7.189478726790881   1.620933649569352 
  6.223806601116346   0.718846237632435   1.667481247318289 
  9.957453865239652   7.185974425477282   1.666784609311239 
 11.202497183665155   0.718774769245671   1.665262983019643 
 -3.734151171553927   9.342066806587519   8.339752595378716 
  1.245056712729416   9.342294002496535   8.338475965526337 
  2.487993694672283   2.873514597687088   8.352385132210074 
  6.223273012565719   9.343058297794945   8.345780397421475 
  7.469168299016791   2.873959967160738   8.347125986492626 
 12.446819759904804   2.874250818637892   8.339515055523815 
 -1.244486401108678   9.342143036578131   1.666970769893555 
 -0.000869847497905   2.873992790982631   1.666410793707777 
  4.979061278776276   2.874909029070579   1.653013031618768 
  3.734120799495836   9.343252005014167   1.658831226352000 
  8.712577644995111   9.342163288075144   1.666784609311239 
  9.958215150519123   2.874051099435468   1.665700402866148 
 -4.978896930358116  11.498063994808716   8.339051347287148 
  0.000316178206891  11.498162536251819   8.339442545528799 
  1.243147796045314   5.029650941702750   8.352385132210074 
  6.226478468074601   5.029104598366243   8.385023563275276 
  4.978723148112017  11.498784243487522   8.340256809978493 
 11.202313645043464   5.030056392950215   8.338429309188792 
 -1.245211311542894   5.030070042950266   1.667820882631428 
 -2.489252769222902  11.498141629704966   1.666970769893555 
  2.489591309215024  11.498487617920567   1.666344475501718 
  3.729667546790925   5.027819559797273   1.608695953722411 
  7.467927750251670  11.498202497798211   1.667527903655835 
  8.713576650178981   5.029725871175150   1.660176815423167 
  0.000236228354555   7.186149776435162   8.338665978184691 
  1.244177093205301   0.718322846153527   8.338136330213199 
  4.979185883478341   7.189478726790882   8.385023563275276 
  6.223806601116347   0.718846237632436   8.338475965526337 
  9.957453865239652   7.185974425477283   8.339172603533388 
 -2.489375715468644   7.186086764099523   1.666905865557480 
 11.202497183665155   0.718774769245671   8.340694229824985 
  3.734120684936655   0.718872188043212   1.667291234659950 
  2.489889201099205   7.186281536389079   1.653013031618768 
  7.468167740089801   7.186243652763904   1.655813051800230 
  8.713392345794229   0.718548006365463   1.666344475501718 
  2.489889201099205   7.186281536389080   8.352944181225872 
 13.691355487807545   0.718651706075613   1.666442157320811 
 -1.244486401108678   9.342143036578131   8.338986442951088 
 -0.000869847497905   2.873992790982632   8.339546419136852 
  4.979061278776276   2.874909029070579   8.352944181225872 
  3.734120799495836   9.343252005014167   8.347125986492626 
  8.712577644995111   9.342163288075144   8.339172603533388 
  9.958215150519123   2.874051099435468   8.340256809978493 
 -3.734151171553927   9.342066806587519   1.666204617465926 
  1.245056712729416   9.342294002496535   1.667481247318289 
  2.487993694672283   2.873514597687087   1.653572080634553 
  6.223273012565718   9.343058297794945   1.660176815423167 
  7.469168299016790   2.873959967160737   1.658831226352000 
 12.446819759904804   2.874250818637891   1.666442157320811 
 -1.245211311542894   5.030070042950267   8.338136330213199 
 -2.489252769222901  11.498141629704966   8.338986442951088 
  2.489591309215025  11.498487617920567   8.339612737342909 
  3.729667546790925   5.027819559797274   8.397261259122217 
  7.467927750251671  11.498202497798211   8.338429309188792 
 -4.978896930358117  11.498063994808716   1.666905865557480 
  8.713576650178981   5.029725871175151   8.345780397421475 
  0.000316178206891  11.498162536251819   1.666514667315828 
  1.243147796045314   5.029650941702749   1.653572080634553 
  0.000236228354555   7.186149776435161   1.667291234659950 
  6.226478468074600   5.029104598366242   1.620933649569352 
  4.978723148112016  11.498784243487522   1.665700402866148 
 11.202313645043464   5.030056392950214   1.667527903655835 
 -2.489375715468644   7.186086764099524   8.339051347287148 
  3.734120684936655   0.718872188043212   8.338665978184691 
  7.468167740089802   7.186243652763905   8.350144161044398 
  8.713392345794229   0.718548006365464   8.339612737342909 
 13.691355487807545   0.718651706075613   8.339515055523815 
  0.013824759846145   1.447648270792835   5.002978606422314 
  3.629004890323468   8.046706780742245   5.002978606422314 
  5.001805797968030   1.313746478635851   5.002978606422314 
  8.681660680091822   7.886854128333828   5.002978606422314 
  9.974223133135613   1.427239063814533   5.002978606422314 
 -4.978377564205142  10.060937325352393  11.673616748318732 
  0.000114463202138  10.060927299733091  11.673616748318732 
  1.245064968078667   3.593333592148557  11.673616748318732 
  4.979075583924934  10.060772111323557  11.673616748318732 
  6.223633742674570   3.593048633567777  11.673616748318732 
 11.202479603571623   3.593371628664628  11.673616748318732 
 -2.527328200410190  10.038826373841653   5.002978606422314 
 -1.228773132859021   3.599890954336218   5.002978606422314 
  3.798997799102262   3.388626088719476   5.002978606422314 
  2.438306848543161  10.122248399725116   5.002978606422314 
  7.456367145699645  10.069594435552450   5.002978606422314 
  8.741400461273370   3.559860765760739   5.002978606422314 
 -6.223151418154389  12.216688150647853  11.673616748318732 
 -1.244466905334886  12.216605464192835  11.673616748318732 
  0.000157332597723   5.749278722827144  11.673616748318732 
  4.979087704427712   5.749172624139821  11.673616748318732 
  3.734313463525340  12.216685788709333  11.673616748318732 
  9.957896439545550   5.749294756230912  11.673616748318732 
 -2.506482099395542   5.746864534282282   5.002978606422314 
 -3.755702135741365  12.169104164481073   5.002978606422314 
  1.234285013243886  12.210594775332034   5.002978606422314 
  2.344749485275577   5.907458055088681   5.002978606422314 
  6.226620368740453  12.234583604731652   5.002978606422314 
  7.493522598909499   5.720228127053299   5.002978606422314 
 -1.244573979347381   7.905085232532488  11.673616748318732 
  0.000344548469449   1.437388002287555  11.673616748318732 
  3.734102574006624   7.905043104727015  11.673616748318732 
  4.979037433298996   1.437077340729283  11.673616748318732 
  8.713478892140145   7.905224381625096  11.673616748318732 
 -3.770070683842693   7.890784766151913   5.002978606422314 
  9.957731283803923   1.437409927257192  11.673616748318732 
  2.486763934190457   1.391298110126503   5.002978606422314 
  1.149255032581667   7.986560143023445   5.002978606422314 
  6.211238481891852   7.941209367466475   5.002978606422314 
  7.495891990816581   1.362253969702022   5.002978606422314 
  1.244678509890680   7.905176729770743  11.673616748318732 
 12.462231612048356   1.446082780580232   5.002978606422314 
 -2.489151494086455  10.060867705514438  11.673616748318732 
 -1.244398891722592   3.593346883088258  11.673616748318732 
  3.734519835440238   3.592935899009773  11.673616748318732 
  2.489504613167044  10.060856274160376  11.673616748318732 
  7.468597841480081  10.060886403290311  11.673616748318732 
  8.713036331021325   3.593362383884719  11.673616748318732 
 -5.008958042771699  10.036600616671784   5.002978606422314 
 -0.049342516224229  10.074735281852814   5.002978606422314 
  1.275586083756232   3.610954966500967   5.002978606422314 
  4.964244396687712  10.102086977740056   5.002978606422314 
  6.293769243055683   3.431199531611622   5.002978606422314 
 11.219384699759072   3.586862113189706   5.002978606422314 
 -2.489156184636954   5.749218690975596  11.673616748318732 
 -3.733825123352513  12.216594686748360  11.673616748318732 
  1.244864284969508  12.216702720710625  11.673616748318732 
  2.489447989398355   5.749463595427904  11.673616748318732 
  6.223805226414323  12.216688604242469  11.673616748318732 
 -6.233853135034582  12.202860546669767   5.002978606422314 
  7.468646891330686   5.749414328070378  11.673616748318732 
 -1.257237331757386  12.166870472555292   5.002978606422314 
 -0.041104216331243   5.769694181665288   5.002978606422314 
 -1.296640484264273   7.909884445178490   5.002978606422314 
  3.733751162071413  12.236053580907301   5.002978606422314 
  9.959322468811312   5.734348646848036   5.002978606422314 
 -3.733704236597514   7.905099883110144  11.673616748318732 
  2.489714402671193   1.437239389117554  11.673616748318732 
  6.224076619623204   7.905073272257555  11.673616748318732 
  7.468323732797111   1.437288597265692  11.673616748318732 
 12.447219022712856   1.437415258086124  11.673616748318732 
  1.244833632518809   0.703926783551071   5.002978606422314 
  4.894851794061645   7.414028435832691   5.002978606422314 
  6.243413385227906   0.646777229892982   5.002978606422314 
  9.927434680235681   7.170857442023328   5.002978606422314 
 11.218861826602566   0.728222900250769   5.002978606422314 
 -3.733858889583173   9.342235555662016  11.673616748318732 
  1.245086428251328   9.341701246664799  11.673616748318732 
  2.490541804062621   2.875368040064426  11.673616748318732 
  6.223631597589112   9.341171704366900  11.673616748318732 
  7.467367331810889   2.875312782655792  11.673616748318732 
 12.447390022184219   2.874925131564695  11.673616748318732 
 -1.283738252520767   9.338952254071414   5.002978606422314 
  0.034215616581506   2.894249393113531   5.002978606422314 
  5.017986110325079   2.725634312269833   5.002978606422314 
  3.680813676503992   9.439826521099134   5.002978606422314 
  8.684476360793408   9.323724402987787   5.002978606422314 
  9.982511255602708   2.860459110222140   5.002978606422314 
 -4.978421243912426  11.498217631365570  11.673616748318732 
  0.000101364740970  11.498038513639436  11.673616748318732 
  1.246026978923723   5.030930947977708  11.673616748318732 
  6.222541939602945   5.031061970165171  11.673616748318732 
  4.979090556292428  11.497437851390155  11.673616748318732 
 11.202288159119803   5.030784613030909  11.673616748318732 
 -1.257350397814337   5.037836653975575   5.002978606422314 
 -2.511641993637707  11.465743920489871   5.002978606422314 
  2.477544776530296  11.531284564472928   5.002978606422314 
  7.460090323526789  11.502235155020525   5.002978606422314 
  8.733620547318129   5.003671932462769   5.002978606422314 
  0.000755256888309   7.186275618291235  11.673616748318732 
  1.245449366099714   0.719119427913758  11.673616748318732 
  4.978912752945035   7.185090907232244  11.673616748318732 
  6.223308117268799   0.719168349945129  11.673616748318732 
  9.957501648216777   7.186465131267510  11.673616748318732 
 -2.525253633811841   7.180647046645901   5.002978606422314 
 11.202389066398961   0.718712347712930  11.673616748318732 
  3.726787474353492   0.663584123469894   5.002978606422314 
  2.380075919981433   7.294628787748748   5.002978606422314 
  7.432056343519522   7.165394728233267   5.002978606422314 
  8.735772068332771   0.691716929756788   5.002978606422314 
  2.490171864972830   7.185820095439913  11.673616748318732 
 13.707711987923886   0.735279319603166   5.002978606422314 
 -1.244347025621048   9.342115627420657  11.673616748318732 
  0.001118800386506   2.875140937374020  11.673616748318732 
  4.978802991128770   2.875384543640442  11.673616748318732 
  3.734391888478227   9.341015913914962  11.673616748318732 
  8.713026500163805   9.341959316452074  11.673616748318732 
  9.957232844849559   2.875042480301936  11.673616748318732 
 -3.768276569536503   9.322364498876077   5.002978606422314 
  1.192446513257307   9.395308479493364   5.002978606422314 
  2.520510365041266   2.841264280665560   5.002978606422314 
  6.210731588341727   9.373443791264478   5.002978606422314 
  7.526150721808622   2.779507386404681   5.002978606422314 
 12.469397945682152   2.880102156491857   5.002978606422314 
 -1.243885315055135   5.030773572717258  11.673616748318732 
 -2.489206818505750  11.498276036996645  11.673616748318732 
  2.489563275969743  11.497632464997777  11.673616748318732 
  3.735146336196402   5.030982740335360  11.673616748318732 
  7.468545664379268  11.497816316300534  11.673616748318732 
 -5.001546823033985  11.469712664815455   5.002978606422314 
  8.712122104855379   5.030979711628847  11.673616748318732 
 -0.014685424005956  11.489501357175937   5.002978606422314 
  1.231476537409084   5.073936362799498   5.002978606422314 
 -0.051311245383594   7.207443062065501   5.002978606422314 
  6.378777175808862   4.843794280005451   5.002978606422314 
  4.979100192707103  11.526621282309588   5.002978606422314 
 11.201887315280311   5.021252653694998   5.002978606422314 
 -2.489004819084614   7.186421902367301  11.673616748318732 
  3.734489181447759   0.719258759010683  11.673616748318732 
  7.467847344675804   7.186058672385395  11.673616748318732 
  8.712637745016332   0.718951305324294  11.673616748318732 
 13.692224591071980   0.718808411232980  11.673616748318732 
  0.000224809855841   1.437886580313249   1.669811658984361 
  3.736432623976834   7.902775551082000   1.649988180592501 
  4.978605265076958   1.440575467808944   1.668604933119497 
  8.710326676152945   7.903404448876358   1.666934868905305 
  9.957657613219126   1.437374745898001   1.667680629959644 
 -4.979567382998884  10.060723807884269   8.337608495757614 
  0.001203426640104  10.060313912553275   8.336710429834415 
  1.245500776596252   3.593585206313509   8.342534046821797 
  4.978318442916065  10.060150018002433   8.341828247874801 
  6.222835008598665   3.596200292856548   8.355969032252140 
 11.202280546271135   3.592772626980698   8.337514162341728 
 -2.489082071899078  10.060907786432981   1.667991376883921 
 -1.244026979793376   3.592993897394210   1.669811658984361 
  3.733047592780553   3.595256774779253   1.646211822165939 
  2.490388883400581  10.059991989459601   1.667622323514333 
  7.466895294546042  10.060259564662280   1.667461669233405 
  8.712119011897274   3.593017727197350   1.664128964969839 
 -6.223776975668169  12.217337272501299   8.336108630770866 
 -1.244453632495963  12.217855227783787   8.336710429834415 
  0.001577722595398   5.748053731749655   8.337567376460610 
  4.977499774199822   5.748255832195288   8.331804896446556 
  3.734246160282121  12.216639578791016   8.338276582884971 
  9.956502307902589   5.748133726648902   8.338495543611222 
 -2.488906807378615   5.748352381350422   1.669848582073762 
 -3.734104190205042  12.218272406677009   1.669664057091308 
  1.245133495923251  12.216858149727237   1.668422801446567 
  2.490721805443904   5.747028157999353   1.646211822165939 
  6.223186947088907  12.216815716405364   1.668443050502886 
  7.464769400013333   5.747096729320107   1.649548333981435 
 -1.243260564694998   7.904004693584518   8.336293155753319 
  0.000224809855842   1.437886580313250   8.336145553860280 
  3.736432623976834   7.902775551082001   8.355969032252140 
  4.978605265076959   1.440575467808945   8.337352279725144 
  8.710326676152945   7.903404448876359   8.339022343939323 
 -3.734484057545933   7.904176228542925   1.668348717087013 
  9.957657613219126   1.437374745898002   8.338276582884971 
  2.489363724277522   1.439081978477552   1.668389836384003 
  1.247491892696322   7.903053397571904   1.668604933119497 
  6.220130774571022   7.902874065648894   1.649548333981435 
  7.468017375406914   1.438486540102119   1.667622323514333 
  1.247491892696323   7.903053397571905   8.337352279725144 
 12.447131814558889   1.437364908434971   1.667820333380716 
 -2.489082071899078  10.060907786432981   8.337965835960707 
 -1.244026979793375   3.592993897394211   8.336145553860280 
  3.733047592780554   3.595256774779254   8.359745390678688 
  2.490388883400582  10.059991989459601   8.338334889330294 
  7.466895294546043  10.060259564662280   8.338495543611222 
  8.712119011897274   3.593017727197351   8.341828247874801 
 -4.979567382998885  10.060723807884269   1.668348717087013 
  0.001203426640103  10.060313912553275   1.669246783010212 
  1.245500776596251   3.593585206313508   1.663423166022818 
  4.978318442916064  10.060150018002433   1.664128964969839 
  6.222835008598664   3.596200292856547   1.649988180592501 
 11.202280546271135   3.592772626980697   1.668443050502886 
 -2.488906807378614   5.748352381350423   8.336108630770866 
 -3.734104190205042  12.218272406677009   8.336293155753319 
  1.245133495923251  12.216858149727237   8.337534411398046 
  2.490721805443904   5.747028157999353   8.359745390678688 
  6.223186947088908  12.216815716405364   8.337514162341728 
 -6.223776975668170  12.217337272501299   1.669848582073762 
  7.464769400013334   5.747096729320108   8.356408878863206 
 -1.244453632495963  12.217855227783787   1.669246783010212 
  0.001577722595398   5.748053731749654   1.668389836384003 
 -1.243260564694999   7.904004693584517   1.669664057091308 
  4.977499774199821   5.748255832195287   1.674152316398058 
  3.734246160282121  12.216639578791016   1.667680629959644 
  9.956502307902589   5.748133726648901   1.667461669233405 
 -3.734484057545932   7.904176228542926   8.337608495757614 
  2.489363724277523   1.439081978477553   8.337567376460610 
  6.220130774571023   7.902874065648895   8.356408878863206 
  7.468017375406915   1.438486540102120   8.338334889330294 
 12.447131814558889   1.437364908434971   8.338136879463912 
Generated by cif2cell 2.0.0.  :  Failed to get author information, No journal information. Species order: Pb N B 
 1.0
 14.936314146199660   0.000000000000000   0.000000000000000
 -7.468157073099825  12.935227489513863   0.000000000000000
  0.000000000000001   0.000000000000001  13.341276283792837
 Pb N B 
   1 143 143
Cartesian
  4.372245256942614   5.398811973728598   5.002978606422314 
  1.244177093205301   0.718322846153526   1.667820882631428 
  4.979185883478340   7.189478726790881   1.620933649569352 
  6.223806601116346   0.718846237632435   1.667481247318289 
  9.957453865239652   7.185974425477282   1.666784609311239 
 11.202497183665155   0.718774769245671   1.665262983019643 
 -3.734151171553927   9.342066806587519   8.339752595378716 
  1.245056712729416   9.342294002496535   8.338475965526337 
  2.487993694672283   2.873514597687088   8.352385132210074 
  6.223273012565719   9.343058297794945   8.345780397421475 
  7.469168299016791   2.873959967160738   8.347125986492626 
 12.446819759904804   2.874250818637892   8.339515055523815 
 -1.244486401108678   9.342143036578131   1.666970769893555 
 -0.000869847497905   2.873992790982631   1.666410793707777 
  4.979061278776276   2.874909029070579   1.653013031618768 
  3.734120799495836   9.343252005014167   1.658831226352000 
  8.712577644995111   9.342163288075144   1.666784609311239 
  9.958215150519123   2.874051099435468   1.665700402866148 
 -4.978896930358116  11.498063994808716   8.339051347287148 
  0.000316178206891  11.498162536251819   8.339442545528799 
  1.243147796045314   5.029650941702750   8.352385132210074 
  6.226478468074601   5.029104598366243   8.385023563275276 
  4.978723148112017  11.498784243487522   8.340256809978493 
 11.202313645043464   5.030056392950215   8.338429309188792 
 -1.245211311542894   5.030070042950266   1.667820882631428 
 -2.489252769222902  11.498141629704966   1.666970769893555 
  2.489591309215024  11.498487617920567   1.666344475501718 
  3.729667546790925   5.027819559797273   1.608695953722411 
  7.467927750251670  11.498202497798211   1.667527903655835 
  8.713576650178981   5.029725871175150   1.660176815423167 
  0.000236228354555   7.186149776435162   8.338665978184691 
  1.244177093205301   0.718322846153527   8.338136330213199 
  4.979185883478341   7.189478726790882   8.385023563275276 
  6.223806601116347   0.718846237632436   8.338475965526337 
  9.957453865239652   7.185974425477283   8.339172603533388 
 -2.489375715468644   7.186086764099523   1.666905865557480 
 11.202497183665155   0.718774769245671   8.340694229824985 
  3.734120684936655   0.718872188043212   1.667291234659950 
  2.489889201099205   7.186281536389079   1.653013031618768 
  7.468167740089801   7.186243652763904   1.655813051800230 
  8.713392345794229   0.718548006365463   1.666344475501718 
  2.489889201099205   7.186281536389080   8.352944181225872 
 13.691355487807545   0.718651706075613   1.666442157320811 
 -1.244486401108678   9.342143036578131   8.338986442951088 
 -0.000869847497905   2.873992790982632   8.339546419136852 
  4.979061278776276   2.874909029070579   8.352944181225872 
  3.734120799495836   9.343252005014167   8.347125986492626 
  8.712577644995111   9.342163288075144   8.339172603533388 
  9.958215150519123   2.874051099435468   8.340256809978493 
 -3.734151171553927   9.342066806587519   1.666204617465926 
  1.245056712729416   9.342294002496535   1.667481247318289 
  2.487993694672283   2.873514597687087   1.653572080634553 
  6.223273012565718   9.343058297794945   1.660176815423167 
  7.469168299016790   2.873959967160737   1.658831226352000 
 12.446819759904804   2.874250818637891   1.666442157320811 
 -1.245211311542894   5.030070042950267   8.338136330213199 
 -2.489252769222901  11.498141629704966   8.338986442951088 
  2.489591309215025  11.498487617920567   8.339612737342909 
  3.729667546790925   5.027819559797274   8.397261259122217 
  7.467927750251671  11.498202497798211   8.338429309188792 
 -4.978896930358117  11.498063994808716   1.666905865557480 
  8.713576650178981   5.029725871175151   8.345780397421475 
  0.000316178206891  11.498162536251819   1.666514667315828 
  1.243147796045314   5.029650941702749   1.653572080634553 
  0.000236228354555   7.186149776435161   1.667291234659950 
  6.226478468074600   5.029104598366242   1.620933649569352 
  4.978723148112016  11.498784243487522   1.665700402866148 
 11.202313645043464   5.030056392950214   1.667527903655835 
 -2.489375715468644   7.186086764099524   8.339051347287148 
  3.734120684936655   0.718872188043212   8.338665978184691 
  7.468167740089802   7.186243652763905   8.350144161044398 
  8.713392345794229   0.718548006365464   8.339612737342909 
 13.691355487807545   0.718651706075613   8.339515055523815 
  0.013824759846145   1.447648270792835   5.002978606422314 
  3.629004890323468   8.046706780742245   5.002978606422314 
  5.001805797968030   1.313746478635851   5.002978606422314 
  8.681660680091822   7.886854128333828   5.002978606422314 
  9.974223133135613   1.427239063814533   5.002978606422314 
 -4.978377564205142  10.060937325352393  11.673616748318732 
  0.000114463202138  10.060927299733091  11.673616748318732 
  1.245064968078667   3.593333592148557  11.673616748318732 
  4.979075583924934  10.060772111323557  11.673616748318732 
  6.223633742674570   3.593048633567777  11.673616748318732 
 11.202479603571623   3.593371628664628  11.673616748318732 
 -2.527328200410190  10.038826373841653   5.002978606422314 
 -1.228773132859021   3.599890954336218   5.002978606422314 
  3.798997799102262   3.388626088719476   5.002978606422314 
  2.438306848543161  10.122248399725116   5.002978606422314 
  7.456367145699645  10.069594435552450   5.002978606422314 
  8.741400461273370   3.559860765760739   5.002978606422314 
 -6.223151418154389  12.216688150647853  11.673616748318732 
 -1.244466905334886  12.216605464192835  11.673616748318732 
  0.000157332597723   5.749278722827144  11.673616748318732 
  4.979087704427712   5.749172624139821  11.673616748318732 
  3.734313463525340  12.216685788709333  11.673616748318732 
  9.957896439545550   5.749294756230912  11.673616748318732 
 -2.506482099395542   5.746864534282282   5.002978606422314 
 -3.755702135741365  12.169104164481073   5.002978606422314 
  1.234285013243886  12.210594775332034   5.002978606422314 
  2.344749485275577   5.907458055088681   5.002978606422314 
  6.226620368740453  12.234583604731652   5.002978606422314 
  7.493522598909499   5.720228127053299   5.002978606422314 
 -1.244573979347381   7.905085232532488  11.673616748318732 
  0.000344548469449   1.437388002287555  11.673616748318732 
  3.734102574006624   7.905043104727015  11.673616748318732 
  4.979037433298996   1.437077340729283  11.673616748318732 
  8.713478892140145   7.905224381625096  11.673616748318732 
 -3.770070683842693   7.890784766151913   5.002978606422314 
  9.957731283803923   1.437409927257192  11.673616748318732 
  2.486763934190457   1.391298110126503   5.002978606422314 
  1.149255032581667   7.986560143023445   5.002978606422314 
  6.211238481891852   7.941209367466475   5.002978606422314 
  7.495891990816581   1.362253969702022   5.002978606422314 
  1.244678509890680   7.905176729770743  11.673616748318732 
 12.462231612048356   1.446082780580232   5.002978606422314 
 -2.489151494086455  10.060867705514438  11.673616748318732 
 -1.244398891722592   3.593346883088258  11.673616748318732 
  3.734519835440238   3.592935899009773  11.673616748318732 
  2.489504613167044  10.060856274160376  11.673616748318732 
  7.468597841480081  10.060886403290311  11.673616748318732 
  8.713036331021325   3.593362383884719  11.673616748318732 
 -5.008958042771699  10.036600616671784   5.002978606422314 
 -0.049342516224229  10.074735281852814   5.002978606422314 
  1.275586083756232   3.610954966500967   5.002978606422314 
  4.964244396687712  10.102086977740056   5.002978606422314 
  6.293769243055683   3.431199531611622   5.002978606422314 
 11.219384699759072   3.586862113189706   5.002978606422314 
 -2.489156184636954   5.749218690975596  11.673616748318732 
 -3.733825123352513  12.216594686748360  11.673616748318732 
  1.244864284969508  12.216702720710625  11.673616748318732 
  2.489447989398355   5.749463595427904  11.673616748318732 
  6.223805226414323  12.216688604242469  11.673616748318732 
 -6.233853135034582  12.202860546669767   5.002978606422314 
  7.468646891330686   5.749414328070378  11.673616748318732 
 -1.257237331757386  12.166870472555292   5.002978606422314 
 -0.041104216331243   5.769694181665288   5.002978606422314 
 -1.296640484264273   7.909884445178490   5.002978606422314 
  3.733751162071413  12.236053580907301   5.002978606422314 
  9.959322468811312   5.734348646848036   5.002978606422314 
 -3.733704236597514   7.905099883110144  11.673616748318732 
  2.489714402671193   1.437239389117554  11.673616748318732 
  6.224076619623204   7.905073272257555  11.673616748318732 
  7.468323732797111   1.437288597265692  11.673616748318732 
 12.447219022712856   1.437415258086124  11.673616748318732 
  1.244833632518809   0.703926783551071   5.002978606422314 
  4.894851794061645   7.414028435832691   5.002978606422314 
  6.243413385227906   0.646777229892982   5.002978606422314 
  9.927434680235681   7.170857442023328   5.002978606422314 
 11.218861826602566   0.728222900250769   5.002978606422314 
 -3.733858889583173   9.342235555662016  11.673616748318732 
  1.245086428251328   9.341701246664799  11.673616748318732 
  2.490541804062621   2.875368040064426  11.673616748318732 
  6.223631597589112   9.341171704366900  11.673616748318732 
  7.467367331810889   2.875312782655792  11.673616748318732 
 12.447390022184219   2.874925131564695  11.673616748318732 
 -1.283738252520767   9.338952254071414   5.002978606422314 
  0.034215616581506   2.894249393113531   5.002978606422314 
  5.017986110325079   2.725634312269833   5.002978606422314 
  3.680813676503992   9.439826521099134   5.002978606422314 
  8.684476360793408   9.323724402987787   5.002978606422314 
  9.982511255602708   2.860459110222140   5.002978606422314 
 -4.978421243912426  11.498217631365570  11.673616748318732 
  0.000101364740970  11.498038513639436  11.673616748318732 
  1.246026978923723   5.030930947977708  11.673616748318732 
  6.222541939602945   5.031061970165171  11.673616748318732 
  4.979090556292428  11.497437851390155  11.673616748318732 
 11.202288159119803   5.030784613030909  11.673616748318732 
 -1.257350397814337   5.037836653975575   5.002978606422314 
 -2.511641993637707  11.465743920489871   5.002978606422314 
  2.477544776530296  11.531284564472928   5.002978606422314 
  7.460090323526789  11.502235155020525   5.002978606422314 
  8.733620547318129   5.003671932462769   5.002978606422314 
  0.000755256888309   7.186275618291235  11.673616748318732 
  1.245449366099714   0.719119427913758  11.673616748318732 
  4.978912752945035   7.185090907232244  11.673616748318732 
  6.223308117268799   0.719168349945129  11.673616748318732 
  9.957501648216777   7.186465131267510  11.673616748318732 
 -2.525253633811841   7.180647046645901   5.002978606422314 
 11.202389066398961   0.718712347712930  11.673616748318732 
  3.726787474353492   0.663584123469894   5.002978606422314 
  2.380075919981433   7.294628787748748   5.002978606422314 
  7.432056343519522   7.165394728233267   5.002978606422314 
  8.735772068332771   0.691716929756788   5.002978606422314 
  2.490171864972830   7.185820095439913  11.673616748318732 
 13.707711987923886   0.735279319603166   5.002978606422314 
 -1.244347025621048   9.342115627420657  11.673616748318732 
  0.001118800386506   2.875140937374020  11.673616748318732 
  4.978802991128770   2.875384543640442  11.673616748318732 
  3.734391888478227   9.341015913914962  11.673616748318732 
  8.713026500163805   9.341959316452074  11.673616748318732 
  9.957232844849559   2.875042480301936  11.673616748318732 
 -3.768276569536503   9.322364498876077   5.002978606422314 
  1.192446513257307   9.395308479493364   5.002978606422314 
  2.520510365041266   2.841264280665560   5.002978606422314 
  6.210731588341727   9.373443791264478   5.002978606422314 