 B N Sb 
 1.0
 17.527899999999772   0.000000000000000   0.000000000000000
 -8.763949999999658  15.179606674993195   0.000000000000000
  0.000000000000001   0.000000000000002  15.000000000000000
 B N Sb 
  48  49   1
Cartesian
  7.514817740930257  14.458601604649473   1.549227793058280 
 15.024657486677324   1.445262568828300   1.503966033258570 
 13.771665116178935   3.613889130724614   1.486074520194630 
 12.520083740542084   5.783137134299162   1.503477827282670 
 11.270997288899625   7.952304398453303   1.550068457066280 
 10.016557759488908  10.119737783328796   1.613403047224065 
  8.764856801110577  12.287179860059318   1.612531326916635 
 -7.511242303280681  14.456369256601608   1.574348471607855 
 -0.000106204461923   1.442304323355045   1.549298724739605 
 -1.253317194250135   3.611771038787125   1.527744487015230 
 -2.506814115521759   5.782564838311680   1.527723186976920 
 -3.759094152580328   7.952564796961362   1.549232006988585 
 -5.007409179971717  10.119737783328796   1.573884809776845 
 -6.259632877446915  12.288814317395046   1.588268153764965 
 -5.008215905432557  14.456274611780524   1.588609154291115 
  2.505370456105887   1.445417553570239   1.613288034000945 
  1.246904345462886   3.602591751938506   1.627067813072775 
 -0.008472224943756   5.777624579711912   1.640711704425285 
 -1.264993456111942   7.952655857218638   1.627663954294800 
 -2.503124585602686  10.119737783328796   1.613284735369725 
 -3.756608474407077  12.288613774265460   1.588831232573370 
 -2.503728403571177  14.456322586667804   1.574731804404525 
  5.008233355701268   1.445223155092990   1.614708667345290 
  3.755628350052143   3.614798666692451   1.773904662606645 
  2.462371974720007   5.744613268128037   1.996561407663225 
  1.197753001607554   7.934136829572975   1.995819916427670 
  0.000000000000152  10.119737783328796   1.773903786129210 
 -1.251618871484733  12.287605260452713   1.613663274954480 
 -0.002709857929227  14.458905139568319   1.550127582832890 
  7.512561836495847   1.442513561061563   1.551171334082190 
  6.265165468152447   3.602750344405587   1.630159417248570 
  5.050053916808580   5.744584848973220   2.000563140650745 
  2.491776206124236  10.175176618266532   1.995863296380105 
  1.244367232855269  12.298878322270443   1.628069621426400 
  2.502689306940354  14.459444878589419   1.528334584045005 
 10.015625187032025   1.445301683984541   1.504278135613920 
  8.765789350481915   3.611582672977366   1.529433030904185 
  7.520764320383192   5.777590775687805   1.643641518298725 
  6.313970566804283   7.933756909563871   1.999915251274320 
  5.020328397816474  10.174802870361159   1.996504789044570 
  3.756186358792038  12.298120998160414   1.640620409652180 
  5.009426261589972  14.459188341469236   1.527815506707105 
 12.520047396651504   1.446040002937098   1.486452075162405 
 11.268361676299319   3.613789167726631   1.486178265135585 
 10.019018570986066   5.782296920487273   1.528859761823955 
  8.776464763808328   7.952416449162570   1.629307742457105 
  7.511338557518415  10.119737783328796   1.772865281497365 
  6.267361370853938  12.298354362364080   1.626586413367335 
  8.764996471326363  13.733334147753396   1.573240352589405 
 16.276558297622174   0.722510168483645   1.528145329553400 
 15.023155970688428   2.890331632090856   1.496260176757245 
 13.770504346309831   5.059868891664398   1.495596005928915 
 12.519948488419237   7.228671220003930   1.528176695321055 
 11.268105592104796   9.397838930340340   1.573724164249890 
 10.017096632273130  11.566010736877972   1.607495525805540 
 -6.259690367441573  13.733851597494608   1.583353547988705 
  1.253037072764891   0.722256451264132   1.573521927893010 
 -0.003106939225509   2.885278751995381   1.551892710069045 
 -1.258167297057881   5.059868891664398   1.546874915346000 
 -2.510963158147399   7.228577316585953   1.552133406001620 
 -3.756150097590013   9.398039834423502   1.573169323106250 
 -5.008138606200074  11.566063706138234   1.583164372652010 
 -3.756575392859547  13.733770687136438   1.583629053167430 
  3.756055956662293   0.721605779410139   1.608370861136805 
  2.505081058410036   2.889937434086883   1.670815781184045 
  1.238841311089853   5.040258123802930   1.689847353719145 
 -0.023945824191055   7.226621419341768   1.689736583800845 
 -1.253041838029778   9.398600266499015   1.671369455125860 
 -2.505274501089573  11.566167294350558   1.608166512726990 
 -1.253077314877653  13.733593490567628   1.573884022875045 
  6.259219475401577   0.722246109934704   1.574913807251580 
  5.007139306409064   2.889837824432512   1.672886294518740 
  3.756130021047752   5.051393848968762   1.994430305626575 
  2.335565473798925   7.131498764886690   2.319138340906425 
  1.244424322923365   9.401265656492303   1.992635396153970 
 -0.001983025495960  11.565596757536165   1.671707633156190 
  1.248366545643049  13.739994124131735   1.552827420067020 
  8.763681926874899   0.722731566400585   1.529238153339855 
  7.515329613901165   2.885447832647146   1.554543803281215 
  6.273405311235530   5.040424104253511   1.693389821749455 
  5.176480338238770   7.131155872894591   2.325386444652060 
  3.755855048736587   9.591323850500430   2.319061910846880 
  2.493649336645816  11.586925817698573   1.689833266112940 
  3.752855034715595  13.739339973089820   1.547102080961130 
 11.267187414133380   0.724134506977834   1.496362814173740 
 10.016567702303874   2.890271388813761   1.496569415082285 
  8.763949999999962   5.059868891664398   1.548550123538685 
  7.535490900193291   7.226429645554340   1.692816839196690 
  6.267433131219875   9.400954339713987   1.993621329230325 
  5.018347603499922  11.586439638506009   1.689434023856565 
  6.263658068734590  13.739658442818682   1.551637530133290 
 13.772441131791403   0.724055942469431   1.496511199159455 
 12.520056860491525   2.891287665416992   1.476097615596405 
 11.269118914024462   5.059868891664398   1.496031850719615 
 10.022742866168485   7.228362809062531   1.553609295969135 
  8.764873677555974   9.398411806783473   1.671539412068805 
  7.513711048482531  11.565197462492335   1.669813232049330 
  3.753364777954086   7.953174815348029   3.458396412628785 
