Sb B N                                  
   1.0000000000000000     
     8.7639499999999995  -15.1796066749929999    0.0000000000000000
     8.7639499999999995   15.1796066749929999    0.0000000000000000
     0.0000000000000000    0.0000000000000000   15.0000000000000000
   Sb   B    N 
     1    48    49
Selective dynamics
Direct
  0.4761056600338525  0.5239381352647329  0.2305597608419185   T   T   T
  0.9049854956657734  0.9525017290776375  0.1032818528705524   T   T   T
  0.9047906605948350  0.0952108048497211  0.1002644022172379   T   T   T
  0.9047373033064076  0.2380752814022589  0.0990716346796421   T   T   T
  0.9047849155797510  0.3809806972025346  0.1002318551521779   T   T   T
  0.9049722085375049  0.5238807940625955  0.1033378971377519   T   T   T
  0.9047969861091303  0.6667445450255348  0.1075602031482707   T   T   T
  0.9047782906621524  0.8094531118715452  0.1075020884611095   T   T   T
  0.0476466877676515  0.9523546667659678  0.1049565647738575   T   T   T
  0.0475019018182701  0.0950159219692486  0.1032865816493068   T   T   T
  0.0474637456423665  0.2379357460386071  0.1018496324676817   T   T   T
  0.0474529892619112  0.3809429955677207  0.1018482124651285   T   T   T
  0.0474855101691079  0.5238979485589953  0.1032821337992392   T   T   T
  0.0476511249699849  0.6667361566526132  0.1049256539851229   T   T   T
  0.0476564435398536  0.8095607864227193  0.1058845435843313   T   T   T
  0.1904459823000953  0.9523484317677157  0.1059072769527410   T   T   T
  0.1905466524655604  0.0952210149128184  0.1075525356000631   T   T   T
  0.1898037793018490  0.2373310342667442  0.1084711875381850   T   T   T
  0.1898254144209767  0.3806175419044252  0.1093807802950192   T   T   T
  0.1897816934045482  0.5239039474138549  0.1085109302863203   T   T   T
  0.1905253195037891  0.6667573299444828  0.1075523156913145   T   T   T
  0.1904521360877355  0.8095475750705486  0.1059220821715583   T   T   T
  0.3332669557194500  0.9523515922506128  0.1049821202936352   T   T   T
  0.3332593546367448  0.0952082083571931  0.1076472444896863   T   T   T
  0.3333567453478722  0.2381351996852103  0.1182603108404426   T   T   T
  0.3297044136185158  0.3784428273488590  0.1331040938442154   T   T   T
  0.3296760613621004  0.5226839535074141  0.1330546610951782   T   T   T
  0.3333404727262916  0.6666722835999525  0.1182602524086136   T   T   T
  0.3332468992200816  0.8094811363390095  0.1075775516636321   T   T   T
  0.4761062601103167  0.9525217253084589  0.1033418388555257   T   T   T
  0.4761207805432774  0.0950297061015394  0.1034114222721462   T   T   T
  0.4761103354833187  0.2373414819990523  0.1086772944832382   T   T   T
  0.4773356492076005  0.3784409551557634  0.1333708760433834   T   T   T
  0.4773199964475101  0.6703188584608765  0.1330575530920073   T   T   T
  0.4761054058357492  0.8102237815246918  0.1085379747617601   T   T   T
  0.6190618214347616  0.9525572821600067  0.1018889722696668   T   T   T
  0.6190171385813947  0.0952133816724991  0.1002852090409281   T   T   T
  0.6190666068910744  0.2379233369022049  0.1019622020602787   T   T   T
  0.6193815522677603  0.3806153149676655  0.1095761012199148   T   T   T
  0.6215534806922689  0.5226589251903275  0.1333276834182885   T   T   T
  0.6215663926637417  0.6702942367487738  0.1331003192696378   T   T   T
  0.6193845142661952  0.8101738906331664  0.1093746939768124   T   T   T
  0.7620674777241210  0.9525403820435756  0.1018543671138072   T   T   T
  0.7619235037629354  0.0952620205449265  0.0990968050108265   T   T   T
  0.7619157928263484  0.2380686960538951  0.0990785510090385   T   T   T
  0.7620667196049614  0.3809253457148529  0.1019239841215974   T   T   T
  0.7626580789164908  0.5238881757235082  0.1086205161638073   T   T   T
  0.7618694704358016  0.6666461655411113  0.1181910187664906   T   T   T
  0.7626595069890959  0.8101892641674515  0.1084390942244892   T   T   T
  0.9524210338034114  0.9047226612516659  0.1048826901726270   T   T   T
  0.9524072899713402  0.0475974235665740  0.1018763553035605   T   T   T
  0.9523040248132137  0.1904088619669157  0.0997506784504835   T   T   T
  0.9523001051453172  0.3333044340462185  0.0997064003952606   T   T   T
  0.9523915450893650  0.4762093890029711  0.1018784463547374   T   T   T
  0.9524215923377911  0.6191095152565640  0.1049149442833258   T   T   T
  0.9524664132417300  0.7619440334993505  0.1071663683870356   T   T   T
  0.0952511452816404  0.9047567497331586  0.1055569031992466   T   T   T
  0.0952785005235194  0.0475807092191640  0.1049014618595336   T   T   T
  0.0948607377339045  0.1900759890405181  0.1034595140046031   T   T   T
  0.0948858317088007  0.3331531246924412  0.1031249943564004   T   T   T
  0.0948463821359894  0.4762032028467690  0.1034755604001076   T   T   T
  0.0952658750146374  0.6191227503875831  0.1048779548737502   T   T   T
  0.0952499379847550  0.7619475230008498  0.1055442915101339   T   T   T
  0.2380559456835697  0.9047514195319292  0.1055752702111623   T   T   T
  0.2380590514353437  0.0475378443500062  0.1072247240757867   T   T   T
  0.2381110808437557  0.1903828930460856  0.1113877187456026   T   T   T
  0.2366989596958354  0.3320414179180435  0.1126564902479431   T   T   T
  0.2366710214912993  0.4760743525223785  0.1126491055867225   T   T   T
  0.2380914174452718  0.6191596704532683  0.1114246303417244   T   T   T
  0.2380465029921318  0.7619543471705755  0.1072111008484659   T   T   T
  0.3808794312976606  0.9047397462012159  0.1049256015250026   T   T   T
  0.3808903782765541  0.0475800279545138  0.1049942538167716   T   T   T
  0.3808549770514194  0.1903763309752432  0.1115257529679157   T   T   T
  0.3806818626037728  0.3327750156590292  0.1329620203751054   T   T   T
  0.3681523859350914  0.4698078756306036  0.1546092227270952   T   T   T
  0.3806644024910155  0.6193352606414960  0.1328423597435978   T   T   T
  0.3808452453406317  0.7619167614263205  0.1114471755437456   T   T   T
  0.5238023865879099  0.9051614062416341  0.1035218280044680   T   T   T
  0.5237907103126003  0.0476120087875012  0.1019492102226571   T   T   T
  0.5238073983085645  0.1900871277119859  0.1036362535520813   T   T   T
  0.5239358693657645  0.3320523523548918  0.1128926547832967   T   T   T
  0.5302206825168805  0.4697852866400298  0.1550257629768041   T   T   T
  0.5302066109293084  0.6318558876957677  0.1546041273897915   T   T   T
  0.5239283700029206  0.7633218742608672  0.1126555510741962   T   T   T
  0.6668497987725378  0.9051183121710218  0.1031401387307424   T   T   T
  0.6666981672842889  0.0477044315101243  0.0997575209449161   T   T   T
  0.6666955230094167  0.1904048932687546  0.0997712943388187   T   T   T
  0.6668493367263729  0.3331439682515948  0.1032366749025791   T   T   T
  0.6679449335821173  0.4760617188757016  0.1128544559464456   T   T   T
  0.6672263448498157  0.6193147517584280  0.1329080886153555   T   T   T
  0.6679511891179566  0.7632898458161932  0.1126289349237705   T   T   T
  0.8099232406203468  0.9051392922751630  0.1034425020088860   T   T   T
  0.8095935636947185  0.0476992558484560  0.0997674132772972   T   T   T
  0.8095289551186845  0.1904718433963168  0.0984065077064273   T   T   T
  0.8095913133171232  0.3332991713193427  0.0997354567146406   T   T   T
  0.8099110606393837  0.4761890715502201  0.1035739530646091   T   T   T
  0.8096263251249362  0.6191472551305544  0.1114359608045867   T   T   T
  0.8096167205816787  0.7618904567234127  0.1113208821366222   T   T   T

  0.00000000E+00  0.00000000E+00  0.00000000E+00
  0.00000000E+00  0.00000000E+00  0.00000000E+00
  0.00000000E+00  0.00000000E+00  0.00000000E+00
  0.00000000E+00  0.00000000E+00  0.00000000E+00
  0.00000000E+00  0.00000000E+00  0.00000000E+00
  0.00000000E+00  0.00000000E+00  0.00000000E+00
  0.00000000E+00  0.00000000E+00  0.00000000E+00
  0.00000000E+00  0.00000000E+00  0.00000000E+00
  0.00000000E+00  0.00000000E+00  0.00000000E+00
  0.00000000E+00  0.00000000E+00  0.00000000E+00
  0.00000000E+00  0.00000000E+00  0.00000000E+00
  0.00000000E+00  0.00000000E+00  0.00000000E+00
  0.00000000E+00  0.00000000E+00  0.00000000E+00
  0.00000000E+00  0.00000000E+00  0.00000000E+00
  0.00000000E+00  0.00000000E+00  0.00000000E+00
  0.00000000E+00  0.00000000E+00  0.00000000E+00
  0.00000000E+00  0.00000000E+00  0.00000000E+00
  0.00000000E+00  0.00000000E+00  0.00000000E+00
  0.00000000E+00  0.00000000E+00  0.00000000E+00
  0.00000000E+00  0.00000000E+00  0.00000000E+00
  0.00000000E+00  0.00000000E+00  0.00000000E+00
  0.00000000E+00  0.00000000E+00  0.00000000E+00
  0.00000000E+00  0.00000000E+00  0.00000000E+00
  0.00000000E+00  0.00000000E+00  0.00000000E+00
  0.00000000E+00  0.00000000E+00  0.00000000E+00
  0.00000000E+00  0.00000000E+00  0.00000000E+00
  0.00000000E+00  0.00000000E+00  0.00000000E+00
  0.00000000E+00  0.00000000E+00  0.00000000E+00
  0.00000000E+00  0.00000000E+00  0.00000000E+00
  0.00000000E+00  0.00000000E+00  0.00000000E+00
  0.00000000E+00  0.00000000E+00  0.00000000E+00
  0.00000000E+00  0.00000000E+00  0.00000000E+00
  0.00000000E+00  0.00000000E+00  0.00000000E+00
  0.00000000E+00  0.00000000E+00  0.00000000E+00
  0.00000000E+00  0.00000000E+00  0.00000000E+00
  0.00000000E+00  0.00000000E+00  0.00000000E+00
  0.00000000E+00  0.00000000E+00  0.00000000E+00
  0.00000000E+00  0.00000000E+00  0.00000000E+00
  0.00000000E+00  0.00000000E+00  0.00000000E+00
  0.00000000E+00  0.00000000E+00  0.00000000E+00
  0.00000000E+00  0.00000000E+00  0.00000000E+00
  0.00000000E+00  0.00000000E+00  0.00000000E+00
  0.00000000E+00  0.00000000E+00  0.00000000E+00
  0.00000000E+00  0.00000000E+00  0.00000000E+00
  0.00000000E+00  0.00000000E+00  0.00000000E+00
  0.00000000E+00  0.00000000E+00  0.00000000E+00
  0.00000000E+00  0.00000000E+00  0.00000000E+00
  0.00000000E+00  0.00000000E+00  0.00000000E+00
  0.00000000E+00  0.00000000E+00  0.00000000E+00
  0.00000000E+00  0.00000000E+00  0.00000000E+00
  0.00000000E+00  0.00000000E+00  0.00000000E+00
  0.00000000E+00  0.00000000E+00  0.00000000E+00
  0.00000000E+00  0.00000000E+00  0.00000000E+00
  0.00000000E+00  0.00000000E+00  0.00000000E+00
  0.00000000E+00  0.00000000E+00  0.00000000E+00
  0.00000000E+00  0.00000000E+00  0.00000000E+00
  0.00000000E+00  0.00000000E+00  0.00000000E+00
  0.00000000E+00  0.00000000E+00  0.00000000E+00
  0.00000000E+00  0.00000000E+00  0.00000000E+00
  0.00000000E+00  0.00000000E+00  0.00000000E+00
  0.00000000E+00  0.00000000E+00  0.00000000E+00
  0.00000000E+00  0.00000000E+00  0.00000000E+00
  0.00000000E+00  0.00000000E+00  0.00000000E+00
  0.00000000E+00  0.00000000E+00  0.00000000E+00
  0.00000000E+00  0.00000000E+00  0.00000000E+00
  0.00000000E+00  0.00000000E+00  0.00000000E+00
  0.00000000E+00  0.00000000E+00  0.00000000E+00
  0.00000000E+00  0.00000000E+00  0.00000000E+00
  0.00000000E+00  0.00000000E+00  0.00000000E+00
  0.00000000E+00  0.00000000E+00  0.00000000E+00
  0.00000000E+00  0.00000000E+00  0.00000000E+00
  0.00000000E+00  0.00000000E+00  0.00000000E+00
  0.00000000E+00  0.00000000E+00  0.00000000E+00
  0.00000000E+00  0.00000000E+00  0.00000000E+00
  0.00000000E+00  0.00000000E+00  0.00000000E+00
  0.00000000E+00  0.00000000E+00  0.00000000E+00
  0.00000000E+00  0.00000000E+00  0.00000000E+00
  0.00000000E+00  0.00000000E+00  0.00000000E+00
  0.00000000E+00  0.00000000E+00  0.00000000E+00
  0.00000000E+00  0.00000000E+00  0.00000000E+00
  0.00000000E+00  0.00000000E+00  0.00000000E+00
  0.00000000E+00  0.00000000E+00  0.00000000E+00
  0.00000000E+00  0.00000000E+00  0.00000000E+00
  0.00000000E+00  0.00000000E+00  0.00000000E+00
  0.00000000E+00  0.00000000E+00  0.00000000E+00
  0.00000000E+00  0.00000000E+00  0.00000000E+00
  0.00000000E+00  0.00000000E+00  0.00000000E+00
  0.00000000E+00  0.00000000E+00  0.00000000E+00
  0.00000000E+00  0.00000000E+00  0.00000000E+00
  0.00000000E+00  0.00000000E+00  0.00000000E+00
  0.00000000E+00  0.00000000E+00  0.00000000E+00
  0.00000000E+00  0.00000000E+00  0.00000000E+00
  0.00000000E+00  0.00000000E+00  0.00000000E+00
  0.00000000E+00  0.00000000E+00  0.00000000E+00
  0.00000000E+00  0.00000000E+00  0.00000000E+00
  0.00000000E+00  0.00000000E+00  0.00000000E+00
  0.00000000E+00  0.00000000E+00  0.00000000E+00
  0.00000000E+00  0.00000000E+00  0.00000000E+00
