 C N B 
 1.0
 14.936314146199660   0.000000000000000   0.000000000000000
 -7.468157073099825  12.935227489513863   0.000000000000000
  0.000000000000001   0.000000000000001  13.341276283792837
 C N B 
   1 142 144
Cartesian
  3.765318025791356   7.833864356654531   5.002978606422314 
  1.244537522913339   0.718694690025906   1.666623514520193 
  4.979750209733784   7.186288629650557   1.651811147089261 
  6.223693927013771   0.718788548621553   1.666378113427135 
  9.957701255041540   7.185958265743090   1.666447405872477 
 11.202354189158811   0.718773800552316   1.666289181986538 
 -3.734045701623375   9.341952636267512   8.339674980822306 
  1.244899774453041   9.342040024433855   8.340101356135145 
  2.489231220215237   2.874650615305609   8.339585125191464 
  6.223479654315681   9.342064836130154   8.340632832680628 
  7.468683862293502   2.874382814356601   8.339985433241417 
 12.446919013786378   2.874405933591011   8.339680933247822 
 -1.244513574505762   9.341963232227020   1.666407633564600 
 -0.000227147875979   2.874416341752229   1.666621561108530 
  4.978916920715073   2.874770578994042   1.664976324026329 
  3.734220975784416   9.342765524006248   1.659853036157216 
  8.712786221841299   9.341966597321317   1.666571876202009 
  9.957900491779100   2.874357468751866   1.666495324282632 
 -4.978858908562388  11.498016871438979   8.339669706318855 
  0.000256099008519  11.498031730088540   8.339627269275551 
  1.244364072575179   5.030207823099781   8.340917260701669 
  6.224937081775376   5.029792631118129   8.353236169433769 
  4.978770253443288  11.498198667560144   8.340041568035174 
 11.202387154791726   5.030158134453073   8.339412162199794 
 -1.244905732578956   5.030149223897761   1.666368392401842 
 -2.489244194113788  11.498033358048531   1.666303265043293 
  2.489561499909907  11.498198398347508   1.665728597976736 
  3.733460221372166   5.030232713892487   1.657430135404430 
  7.468013335487596  11.497999504237404   1.666686509072459 
  8.713511127908955   5.029989853357724   1.665426627762766 
 -0.000078856027166   7.185946943384811   8.340397814953628 
  1.244537522913339   0.718694690025907   8.339333698324449 
  4.979750209733785   7.186288629650558   8.354146065755367 
  6.223693927013772   0.718788548621554   8.339579099417492 
  9.957701255041540   7.185958265743091   8.339509806972151 
 -2.489388271466220   7.185988678531907   1.666204203734031 
 11.202354189158811   0.718773800552316   8.339668030858089 
  3.734093498535747   0.718842607700403   1.666488445216092 
  2.488880976405256   7.185906213739139   1.659063357047293 
  7.468517847383962   7.185982906598549   1.664122319362733 
  8.713096712665836   0.718677180020467   1.666748799378081 
  2.488880976405257   7.185906213739139   8.346893855797335 
 13.691540676729705   0.718664042014039   1.666520843679829 
 -1.244513574505761   9.341963232227020   8.339549579280028 
 -0.000227147875979   2.874416341752230   8.339335651736096 
  4.978916920715074   2.874770578994043   8.340980888818285 
  3.734220975784417   9.342765524006248   8.346104176687398 
  8.712786221841299   9.341966597321317   8.339385336642620 
  9.957900491779100   2.874357468751867   8.339461888561996 
 -3.734045701623375   9.341952636267512   1.666282232022322 
  1.244899774453041   9.342040024433855   1.665855856709483 
  2.489231220215236   2.874650615305608   1.666372087653151 
  6.223479654315680   9.342064836130154   1.665324380163999 
  7.468683862293501   2.874382814356600   1.665971779603197 
 12.446919013786378   2.874405933591010   1.666276279596806 
 -1.244905732578956   5.030149223897761   8.339588820442785 
 -2.489244194113788  11.498033358048531   8.339653947801335 
  2.489561499909908  11.498198398347508   8.340228614867893 
  3.733460221372167   5.030232713892488   8.348527077440197 
  7.468013335487597  11.497999504237404   8.339270703772183 
 -4.978858908562389  11.498016871438979   1.666287506525771 
  8.713511127908955   5.029989853357725   8.340530585081861 
  0.000256099008518  11.498031730088540   1.666329943569077 
  1.244364072575179   5.030207823099780   1.665039952142959 
 -0.000078856027167   7.185946943384810   1.665559397891014 
  6.224937081775375   5.029792631118128   1.652721043410858 
  4.978770253443288  11.498198667560144   1.665915644809455 
 11.202387154791726   5.030158134453072   1.666545050644848 
 -2.489388271466220   7.185988678531908   8.339753009110611 
  3.734093498535747   0.718842607700404   8.339468767628523 
  7.468517847383963   7.185982906598550   8.341834893481881 
  8.713096712665836   0.718677180020467   8.339208413466560 
 13.691540676729705   0.718664042014039   8.339436369164799 
  0.005175867792504   1.439147213263468   5.002978606422314 
  4.978827668884080   1.432565697120534   5.002978606422314 
  8.726902102898585   7.906090734515345   5.002978606422314 
  9.948356202393896   1.445496940929579   5.002978606422314 
 -4.978699653317517  10.060819894017193  11.673616748318732 
 -0.000130149825533  10.060859041837038  11.673616748318732 
  1.244754034857505   3.593132031948315  11.673616748318732 
  4.978823783455833  10.060751884694094  11.673616748318732 
  6.223396344583062   3.593011774553019  11.673616748318732 
 11.202247108892141   3.593192209368941  11.673616748318732 
 -2.488023665722561  10.060092176044153   5.002978606422314 
 -1.243456113572933   3.591432975670528   5.002978606422314 
  3.769751080957578   3.620172075268009   5.002978606422314 
  2.492107849163695  10.063267687520204   5.002978606422314 
  7.471021837200676  10.051704511550236   5.002978606422314 
  8.689060799681389   3.604555381314109   5.002978606422314 
 -6.223421160546874  12.216641382227717  11.673616748318732 
 -1.244746124494347  12.216614889185648  11.673616748318732 
  0.000012241799642   5.749093423826118  11.673616748318732 
  4.978709497956719   5.748977303447754  11.673616748318732 
  3.734065896591821  12.216595892174357  11.673616748318732 
  9.957603563981401   5.749103642275008  11.673616748318732 
 -2.494576822997468   5.744822902438199   5.002978606422314 
 -3.732216028715295  12.216438454233623   5.002978606422314 
  1.239236383093499  12.226532070968524   5.002978606422314 
  2.535894253652371   5.719928842554133   5.002978606422314 
  6.230680000307525  12.221690432706458   5.002978606422314 
  7.400420154012365   5.758036841035697   5.002978606422314 
 -1.244771134217145   7.904964498912563  11.673616748318732 
  0.000056639608852   1.437227961491204  11.673616748318732 
  3.734000330301249   7.904883563597817  11.673616748318732 
  4.978746573431082   1.437103353890788  11.673616748318732 
  8.712986277255400   7.904974873482535  11.673616748318732 
 -3.733271592210638   7.902565272230095   5.002978606422314 
  9.957476603202268   1.437237548983071  11.673616748318732 
  2.501380177947705   1.449150456950774   5.002978606422314 
  1.222422090463676   7.894650133722000   5.002978606422314 
  6.250400423212103   7.865177904847039   5.002978606422314 
  7.451437292022133   1.460267966868727   5.002978606422314 
  1.244583299282080   7.904997789965455  11.673616748318732 
 12.445325332608176   1.440043479518938   5.002978606422314 
 -2.489424934074416  10.060810426732148  11.673616748318732 
 -1.244643418774978   3.593170078526673  11.673616748318732 
  3.734092935999356   3.593009827068371  11.673616748318732 
  2.489280428215043  10.060777496127857  11.673616748318732 
  7.468273566545546  10.060836589859132  11.673616748318732 
  8.712805263812493   3.593152974919474  11.673616748318732 
 -4.974677204939937  10.061869520380990   5.002978606422314 
  0.000913102570691  10.059681236751578   5.002978606422314 
  1.255839842210009   3.586701244336799   5.002978606422314 
  4.997143089707132  10.069722128742507   5.002978606422314 
  6.177517366384776   3.638714930860905   5.002978606422314 
 11.191457077921683   3.595468837389990   5.002978606422314 
 -2.489382059970702   5.749099182658560  11.673616748318732 
 -3.734081079254818  12.216587290329814  11.673616748318732 
  1.244589953949907  12.216632463181632  11.673616748318732 
  2.489368384653779   5.749051969974557  11.673616748318732 
  6.223540778874232  12.216633852078711  11.673616748318732 
 -6.218663127735812  12.219213151069900   5.002978606422314 
  7.468211296043234   5.749105788837321  11.673616748318732 
 -1.244265613096149  12.217337172264864   5.002978606422314 
  0.015073484480077   5.739967789329411   5.002978606422314 
 -1.252400737384339   7.900745592962236   5.002978606422314 
  3.734707458026572  12.220227272883204   5.002978606422314 
  9.930361899188174   5.748411620763132   5.002978606422314 
 -3.734040761369488   7.904951848776388  11.673616748318732 
  2.489388130649911   1.437179167640111  11.673616748318732 
  6.223548842494293   7.904944871104918  11.673616748318732 
  7.468070409036004   1.437190149448970  11.673616748318732 
 12.446971367188713   1.437245681624731  11.673616748318732 
  1.253892080002880   0.725510934994095   5.002978606422314 
  5.021244237630910   7.095766282790898   5.002978606422314 
  6.220917891659064   0.720780226260131   5.002978606422314 
  9.958214755015177   7.184753413244712   5.002978606422314 
 11.196621155127428   0.719660774227270   5.002978606422314 
 -3.734083409123265   9.342155016870137  11.673616748318732 
  1.245116897324299   9.341799859378469  11.673616748318732 
  2.489826126733428   2.875027753714360  11.673616748318732 
  6.223016295132935   9.341533144402179  11.673616748318732 
  7.467604873929340   2.874844485033625  11.673616748318732 
 12.447035963984014   2.874562361251930  11.673616748318732 
 -1.240743061407001   9.339314727331972   5.002978606422314 
  0.007850903994545   2.876035663953204   5.002978606422314 
  4.979268728392201   2.869927417962371   5.002978606422314 
  3.756119741629174   9.318516043897558   5.002978606422314 
  8.716076894417457   9.340718577020752   5.002978606422314 
  9.938625214945166   2.884042732414112   5.002978606422314 
 -4.978803089284789  11.497952624727830  11.673616748318732 
  0.000117537162085  11.497773093515301  11.673616748318732 
  1.245506624566670   5.030980484025132  11.673616748318732 
  6.222704897217231   5.030933557524953  11.673616748318732 
  4.978646730418939  11.497181535236585  11.673616748318732 
 11.202138947139739   5.030637307287462  11.673616748318732 
 -1.235857571033895   5.030341083345582   5.002978606422314 
 -2.487052531140088  11.497690394022385   5.002978606422314 
  2.487164608727556  11.492431600402176   5.002978606422314 
  3.845796060971688   5.074906295200292   5.002978606422314 
  7.470245812945969  11.492279677928110   5.002978606422314 
  8.657494676793988   5.041238200099054   5.002978606422314 
  0.000711891374944   7.186528183630691  11.673616748318732 
  1.244842506474347   0.718674567453908  11.673616748318732 
  4.978279483686810   7.186155365252820  11.673616748318732 
  6.223353880539375   0.718735909282746  11.673616748318732 
  9.957213385988647   7.186409807492996  11.673616748318732 
 -2.491232702467037   7.183275019574486   5.002978606422314 
 11.202132859947886   0.718219719684942  11.673616748318732 
  3.737660322031653   0.719389090388259   5.002978606422314 
  2.474408607698258   7.162649051516726   5.002978606422314 
  7.486048082266827   7.184305506285918   5.002978606422314 
  8.699005564346386   0.731693956526427   5.002978606422314 
  2.490030978336223   7.186421545275265  11.673616748318732 
 13.694627615532182   0.720942720910245   5.002978606422314 
 -1.244366616513866   9.342110918954921  11.673616748318732 
  0.000456912644701   2.874779222972813  11.673616748318732 
  4.978669938767744   2.875024289842721  11.673616748318732 
  3.734068871163649   9.341215511602410  11.673616748318732 
  8.712516824463183   9.341965896383655  11.673616748318732 
  9.957204856032876   2.874590740946173  11.673616748318732 
 -3.731819338905415   9.340686268439237   5.002978606422314 
  1.254697679329936   9.331651161090528   5.002978606422314 
  2.514044399680091   2.896989259718105   5.002978606422314 
  6.217252433727464   9.317527071026991   5.002978606422314 
  7.429735811400573   2.911865760045986   5.002978606422314 
 12.442648239711264   2.877571205476174   5.002978606422314 
 -1.244208852234563   5.030744917252361  11.673616748318732 
 -2.489279618805496  11.498012322200319  11.673616748318732 
  2.489403047125760  11.497274503200504  11.673616748318732 
  3.734371691179754   5.031048783656827  11.673616748318732 
  7.468011297047589  11.497629790766608  11.673616748318732 
 -4.975702531394393  11.498252348037163   5.002978606422314 
  8.712161774907155   5.030756699250754  11.673616748318732 
  0.001267863664266  11.495915752770181   5.002978606422314 
  1.283661368111329   5.022721821689069   5.002978606422314 
 -0.003438927127533   7.182066883323360   5.002978606422314 
  6.064579466851320   5.107609747232062   5.002978606422314 
  4.985717158909087  11.495886524258911   5.002978606422314 
 11.185067610345650   5.032956357144446   5.002978606422314 
 -2.489175334450654   7.186462824213665  11.673616748318732 
  3.734167058421071   0.718848271313727  11.673616748318732 
  7.467398968368834   7.186303361685366  11.673616748318732 
  8.712629040740049   0.718440154497751  11.673616748318732 
 13.691701219900690   0.718380547967581  11.673616748318732 
 -0.000225734330423   1.437532393768059   1.668563664006593 
  3.735235984742119   7.903789635420631   1.683116709417225 
  4.979069755558303   1.439235611748934   1.668980720922355 
  8.711013207674148   7.903782082156075   1.669169687411134 
  9.957687306473883   1.437051566124119   1.668760457107901 
 -4.979575416815301  10.060100537026972   8.337451935689911 
  0.002173305490642  10.059615419716550   8.336110528619088 
  1.245314617837676   3.594646047974522   8.336974290778972 
  4.977075995655556  10.058526993404950   8.335757308363661 
  6.223355621297657   3.595631926452872   8.339015631575046 
 11.202134780161391   3.593069989701847   8.337529192357019 
 -2.488638307784051  10.060261168616622   1.668454989280716 
 -1.244454442257700   3.593426358714850   1.668576693731589 
  3.734547517414030   3.596422318365180   1.668244985722969 
  2.491486895303856  10.058670692644222   1.670843309591047 
  7.466104516331144  10.059299105428694   1.669688191814624 
  8.712472704675415   3.593532972148788   1.668637469445100 
 -6.224236506193188  12.216396958590801   8.337365594524824 
 -1.243774671773918  12.216780679199594   8.337305583103641 
  0.001381133889983   5.749293990611005   8.336513054861854 
  4.978834503909927   5.750662244730434   8.329248547909147 
  3.734087068912924  12.215431731454341   8.336654866755627 
  9.956830141632169   5.748602396527810   8.337000554037505 
 -2.489042163986833   5.748789267123843   1.668715437983524 
 -3.733986293318363  12.217044156628326   1.668305095121405 
  1.245803029818470  12.215871729335863   1.669328770316664 
  2.491234782065782   5.750890675001550   1.668979582198037 
  6.222455994133609  12.215640938998508   1.669073411467731 
  7.466379930954689   5.748648889091037   1.666539978994423 
 -1.243183906991587   7.904183784620725   8.336868475211544 
 -0.000225734330423   1.437532393768060   8.337393548838049 
  3.735235984742120   7.903789635420632   8.322840503427402 
  4.979069755558304   1.439235611748935   8.336976491922272 
  8.711013207674148   7.903782082156076   8.336787525433495 
 -3.734254271735943   7.904212693208867   1.668526294846522 
  9.957687306473883   1.437051566124119   8.337196755736727 
  2.489479155337718   1.438629277868118   1.668874716905396 
  1.247858093475396   7.903729811370254   1.670696384597318 
  6.220533877628511   7.903106200369018   1.667813723186027 
  7.468484553558156   1.438017001787337   1.669194475713394 
  1.247858093475397   7.903729811370255   8.335260828247296 
 12.446719495272253   1.436947855773464   1.668381968312203 
 -2.488638307784051  10.060261168616622   8.337502223563925 
 -1.244454442257700   3.593426358714851   8.337380519113038 
  3.734547517414031   3.596422318365181   8.337712227121646 
  2.491486895303856  10.058670692644222   8.335113903253580 
  7.466104516331145  10.059299105428694   8.336269021030018 
  8.712472704675415   3.593532972148789   8.337319743399528 
 -4.979575416815302  10.060100537026972   1.668505277154717 
  0.002173305490642  10.059615419716550   1.669846684225540 
  1.245314617837676   3.594646047974521   1.668982922065656 
  4.977075995655555  10.058526993404950   1.670199904480953 
  6.223355621297656   3.595631926452871   1.666941581269596 
 11.202134780161391   3.593069989701847   1.668428020487623 
 -2.489042163986833   5.748789267123844   8.337241774861104 
 -3.733986293318362  12.217044156628326   8.337652117723236 
  1.245803029818470  12.215871729335863   8.336628442527976 
  2.491234782065782   5.750890675001551   8.336977630646578 
  6.222455994133610  12.215640938998508   8.336883801376896 
 -6.224236506193189  12.216396958590801   1.668591618319790 
  7.466379930954690   5.748648889091038   8.339417233850218 
 -1.243774671773918  12.216780679199594   1.668651629740987 
  0.001381133889982   5.749293990611004   1.669444157982774 
 -1.243183906991587   7.904183784620724   1.669088737633072 
  4.978834503909926   5.750662244730433   1.676708664935466 
  3.734087068912924  12.215431731454341   1.669302346089014 
  9.956830141632169   5.748602396527809   1.668956658807135 
 -3.734254271735943   7.904212693208868   8.337430917998105 
  2.489479155337718   1.438629277868119   8.337082495939232 
  6.220533877628512   7.903106200369018   8.338143489658600 
  7.468484553558157   1.438017001787338   8.336762737131219 
 12.446719495272253   1.436947855773465   8.337575244532426 
Generated by cif2cell 2.0.0.  :  Failed to get author information, No journal information. Species order: C N B 
 1.0
 14.936314146199660   0.000000000000000   0.000000000000000
 -7.468157073099825  12.935227489513863   0.000000000000000
  0.000000000000001   0.000000000000001  13.341276283792837
 C N B 
   1 142 144
Cartesian
  3.765318025791356   7.833864356654531   5.002978606422314 
  1.244537522913339   0.718694690025906   1.666623514520193 
  4.979750209733784   7.186288629650557   1.651811147089261 
  6.223693927013771   0.718788548621553   1.666378113427135 
  9.957701255041540   7.185958265743090   1.666447405872477 
 11.202354189158811   0.718773800552316   1.666289181986538 
 -3.734045701623375   9.341952636267512   8.339674980822306 
  1.244899774453041   9.342040024433855   8.340101356135145 
  2.489231220215237   2.874650615305609   8.339585125191464 
  6.223479654315681   9.342064836130154   8.340632832680628 
  7.468683862293502   2.874382814356601   8.339985433241417 
 12.446919013786378   2.874405933591011   8.339680933247822 
 -1.244513574505762   9.341963232227020   1.666407633564600 
 -0.000227147875979   2.874416341752229   1.666621561108530 
  4.978916920715073   2.874770578994042   1.664976324026329 
  3.734220975784416   9.342765524006248   1.659853036157216 
  8.712786221841299   9.341966597321317   1.666571876202009 
  9.957900491779100   2.874357468751866   1.666495324282632 
 -4.978858908562388  11.498016871438979   8.339669706318855 
  0.000256099008519  11.498031730088540   8.339627269275551 
  1.244364072575179   5.030207823099781   8.340917260701669 
  6.224937081775376   5.029792631118129   8.353236169433769 
  4.978770253443288  11.498198667560144   8.340041568035174 
 11.202387154791726   5.030158134453073   8.339412162199794 
 -1.244905732578956   5.030149223897761   1.666368392401842 
 -2.489244194113788  11.498033358048531   1.666303265043293 
  2.489561499909907  11.498198398347508   1.665728597976736 
  3.733460221372166   5.030232713892487   1.657430135404430 
  7.468013335487596  11.497999504237404   1.666686509072459 
  8.713511127908955   5.029989853357724   1.665426627762766 
 -0.000078856027166   7.185946943384811   8.340397814953628 
  1.244537522913339   0.718694690025907   8.339333698324449 
  4.979750209733785   7.186288629650558   8.354146065755367 
  6.223693927013772   0.718788548621554   8.339579099417492 
  9.957701255041540   7.185958265743091   8.339509806972151 
 -2.489388271466220   7.185988678531907   1.666204203734031 
 11.202354189158811   0.718773800552316   8.339668030858089 
  3.734093498535747   0.718842607700403   1.666488445216092 
  2.488880976405256   7.185906213739139   1.659063357047293 
  7.468517847383962   7.185982906598549   1.664122319362733 
  8.713096712665836   0.718677180020467   1.666748799378081 
  2.488880976405257   7.185906213739139   8.346893855797335 
 13.691540676729705   0.718664042014039   1.666520843679829 
 -1.244513574505761   9.341963232227020   8.339549579280028 
 -0.000227147875979   2.874416341752230   8.339335651736096 
  4.978916920715074   2.874770578994043   8.340980888818285 
  3.734220975784417   9.342765524006248   8.346104176687398 
  8.712786221841299   9.341966597321317   8.339385336642620 
  9.957900491779100   2.874357468751867   8.339461888561996 
 -3.734045701623375   9.341952636267512   1.666282232022322 
  1.244899774453041   9.342040024433855   1.665855856709483 
  2.489231220215236   2.874650615305608   1.666372087653151 
  6.223479654315680   9.342064836130154   1.665324380163999 
  7.468683862293501   2.874382814356600   1.665971779603197 
 12.446919013786378   2.874405933591010   1.666276279596806 
 -1.244905732578956   5.030149223897761   8.339588820442785 
 -2.489244194113788  11.498033358048531   8.339653947801335 
  2.489561499909908  11.498198398347508   8.340228614867893 
  3.733460221372167   5.030232713892488   8.348527077440197 
  7.468013335487597  11.497999504237404   8.339270703772183 
 -4.978858908562389  11.498016871438979   1.666287506525771 
  8.713511127908955   5.029989853357725   8.340530585081861 
  0.000256099008518  11.498031730088540   1.666329943569077 
  1.244364072575179   5.030207823099780   1.665039952142959 
 -0.000078856027167   7.185946943384810   1.665559397891014 
  6.224937081775375   5.029792631118128   1.652721043410858 
  4.978770253443288  11.498198667560144   1.665915644809455 
 11.202387154791726   5.030158134453072   1.666545050644848 
 -2.489388271466220   7.185988678531908   8.339753009110611 
  3.734093498535747   0.718842607700404   8.339468767628523 
  7.468517847383963   7.185982906598550   8.341834893481881 
  8.713096712665836   0.718677180020467   8.339208413466560 
 13.691540676729705   0.718664042014039   8.339436369164799 
  0.005175867792504   1.439147213263468   5.002978606422314 
  4.978827668884080   1.432565697120534   5.002978606422314 
  8.726902102898585   7.906090734515345   5.002978606422314 
  9.948356202393896   1.445496940929579   5.002978606422314 
 -4.978699653317517  10.060819894017193  11.673616748318732 
 -0.000130149825533  10.060859041837038  11.673616748318732 
  1.244754034857505   3.593132031948315  11.673616748318732 
  4.978823783455833  10.060751884694094  11.673616748318732 
  6.223396344583062   3.593011774553019  11.673616748318732 
 11.202247108892141   3.593192209368941  11.673616748318732 
 -2.488023665722561  10.060092176044153   5.002978606422314 
 -1.243456113572933   3.591432975670528   5.002978606422314 
  3.769751080957578   3.620172075268009   5.002978606422314 
  2.492107849163695  10.063267687520204   5.002978606422314 
  7.471021837200676  10.051704511550236   5.002978606422314 
  8.689060799681389   3.604555381314109   5.002978606422314 
 -6.223421160546874  12.216641382227717  11.673616748318732 
 -1.244746124494347  12.216614889185648  11.673616748318732 
  0.000012241799642   5.749093423826118  11.673616748318732 
  4.978709497956719   5.748977303447754  11.673616748318732 
  3.734065896591821  12.216595892174357  11.673616748318732 
  9.957603563981401   5.749103642275008  11.673616748318732 
 -2.494576822997468   5.744822902438199   5.002978606422314 
 -3.732216028715295  12.216438454233623   5.002978606422314 
  1.239236383093499  12.226532070968524   5.002978606422314 
  2.535894253652371   5.719928842554133   5.002978606422314 
  6.230680000307525  12.221690432706458   5.002978606422314 
  7.400420154012365   5.758036841035697   5.002978606422314 
 -1.244771134217145   7.904964498912563  11.673616748318732 
  0.000056639608852   1.437227961491204  11.673616748318732 
  3.734000330301249   7.904883563597817  11.673616748318732 
  4.978746573431082   1.437103353890788  11.673616748318732 
  8.712986277255400   7.904974873482535  11.673616748318732 
 -3.733271592210638   7.902565272230095   5.002978606422314 
  9.957476603202268   1.437237548983071  11.673616748318732 
  2.501380177947705   1.449150456950774   5.002978606422314 
  1.222422090463676   7.894650133722000   5.002978606422314 
  6.250400423212103   7.865177904847039   5.002978606422314 
  7.451437292022133   1.460267966868727   5.002978606422314 
  1.244583299282080   7.904997789965455  11.673616748318732 
 12.445325332608176   1.440043479518938   5.002978606422314 
 -2.489424934074416  10.060810426732148  11.673616748318732 
 -1.244643418774978   3.593170078526673  11.673616748318732 
  3.734092935999356   3.593009827068371  11.673616748318732 
  2.489280428215043  10.060777496127857  11.673616748318732 
  7.468273566545546  10.060836589859132  11.673616748318732 
  8.712805263812493   3.593152974919474  11.673616748318732 
 -4.974677204939937  10.061869520380990   5.002978606422314 
  0.000913102570691  10.059681236751578   5.002978606422314 
  1.255839842210009   3.586701244336799   5.002978606422314 
  4.997143089707132  10.069722128742507   5.002978606422314 
  6.177517366384776   3.638714930860905   5.002978606422314 
 11.191457077921683   3.595468837389990   5.002978606422314 
 -2.489382059970702   5.749099182658560  11.673616748318732 
 -3.734081079254818  12.216587290329814  11.673616748318732 
  1.244589953949907  12.216632463181632  11.673616748318732 
  2.489368384653779   5.749051969974557  11.673616748318732 
  6.223540778874232  12.216633852078711  11.673616748318732 
 -6.218663127735812  12.219213151069900   5.002978606422314 
  7.468211296043234   5.749105788837321  11.673616748318732 
 -1.244265613096149  12.217337172264864   5.002978606422314 
  0.015073484480077   5.739967789329411   5.002978606422314 
 -1.252400737384339   7.900745592962236   5.002978606422314 
  3.734707458026572  12.220227272883204   5.002978606422314 
  9.930361899188174   5.748411620763132   5.002978606422314 
 -3.734040761369488   7.904951848776388  11.673616748318732 
  2.489388130649911   1.437179167640111  11.673616748318732 
  6.223548842494293   7.904944871104918  11.673616748318732 
  7.468070409036004   1.437190149448970  11.673616748318732 
 12.446971367188713   1.437245681624731  11.673616748318732 
  1.253892080002880   0.725510934994095   5.002978606422314 
  5.021244237630910   7.095766282790898   5.002978606422314 
  6.220917891659064   0.720780226260131   5.002978606422314 
  9.958214755015177   7.184753413244712   5.002978606422314 
 11.196621155127428   0.719660774227270   5.002978606422314 
 -3.734083409123265   9.342155016870137  11.673616748318732 
  1.245116897324299   9.341799859378469  11.673616748318732 
  2.489826126733428   2.875027753714360  11.673616748318732 
  6.223016295132935   9.341533144402179  11.673616748318732 
  7.467604873929340   2.874844485033625  11.673616748318732 
 12.447035963984014   2.874562361251930  11.673616748318732 
 -1.240743061407001   9.339314727331972   5.002978606422314 
  0.007850903994545   2.876035663953204   5.002978606422314 
  4.979268728392201   2.869927417962371   5.002978606422314 
  3.756119741629174   9.318516043897558   5.002978606422314 
  8.716076894417457   9.340718577020752   5.002978606422314 
  9.938625214945166   2.884042732414112   5.002978606422314 
 -4.978803089284789  11.497952624727830  11.673616748318732 
  0.000117537162085  11.497773093515301  11.673616748318732 
  1.245506624566670   5.030980484025132  11.673616748318732 
  6.222704897217231   5.030933557524953  11.673616748318732 
  4.978646730418939  11.497181535236585  11.673616748318732 
 11.202138947139739   5.030637307287462  11.673616748318732 
 -1.235857571033895   5.030341083345582   5.002978606422314 
 -2.487052531140088  11.497690394022385   5.002978606422314 
  2.487164608727556  11.492431600402176   5.002978606422314 
  3.845796060971688   5.074906295200292   5.002978606422314 
  7.470245812945969  11.492279677928110   5.002978606422314 
  8.657494676793988   5.041238200099054   5.002978606422314 
  0.000711891374944   7.186528183630691  11.673616748318732 
  1.244842506474347   0.718674567453908  11.673616748318732 
  4.978279483686810   7.186155365252820  11.673616748318732 
  6.223353880539375   0.718735909282746  11.673616748318732 
  9.957213385988647   7.186409807492996  11.673616748318732 
 -2.491232702467037   7.183275019574486   5.002978606422314 
 11.202132859947886   0.718219719684942  11.673616748318732 
  3.737660322031653   0.719389090388259   5.002978606422314 
  2.474408607698258   7.162649051516726   5.002978606422314 
  7.486048082266827   7.184305506285918   5.002978606422314 
  8.699005564346386   0.731693956526427   5.002978606422314 
  2.490030978336223   7.186421545275265  11.673616748318732 
 13.694627615532182   0.720942720910245   5.002978606422314 
 -1.244366616513866   9.342110918954921  11.673616748318732 
  0.000456912644701   2.874779222972813  11.673616748318732 
  4.978669938767744   2.875024289842721  11.673616748318732 
  3.734068871163649   9.341215511602410  11.673616748318732 
  8.712516824463183   9.341965896383655  11.673616748318732 
  9.957204856032876   2.874590740946173  11.673616748318732 
 -3.731819338905415   9.340686268439237   5.002978606422314 
  1.254697679329936   9.331651161090528   5.002978606422314 
  2.514044399680091   2.896989259718105   5.002978606422314 
  6.217252433727464   9.317527071026991   5.002978606422314 