B C N                                   
   1.0000000000000000     
     8.7639499999999995  -15.1796066749929999    0.0000000000000000
     8.7639499999999995   15.1796066749929999    0.0000000000000000
     0.0000000000000000    0.0000000000000000   15.0000000000000000
   B    C    N 
    48     3    46
Selective dynamics
Direct
  0.9045320024373814  0.9520191156660415  0.1110033783951228   T   T   T
  0.9045898906813012  0.0949591271369162  0.1110387525124419   T   T   T
  0.9046129398008272  0.2380262149047026  0.1110414136291484   T   T   T
  0.9045881291126510  0.3810598823561468  0.1109949226213312   T   T   T
  0.9045374323432608  0.5239327804497392  0.1109963553852170   T   T   T
  0.9025201153794944  0.6664223814409140  0.1110462507161277   T   T   T
  0.9025013506287628  0.8075188401644878  0.1110054427996713   T   T   T
  0.0464884385489973  0.9514046933877313  0.1110022045893978   T   T   T
  0.0474694105651526  0.0950509082006432  0.1110046631339196   T   T   T
  0.0476015331056268  0.2380541985875863  0.1109921209960112   T   T   T
  0.0475925840278715  0.3809610424548457  0.1110080681252595   T   T   T
  0.0474750211448106  0.5238368409114839  0.1110058092151183   T   T   T
  0.0465086118885132  0.6665196235629907  0.1110211002327525   T   T   T
  0.0466771605575875  0.8090533421043751  0.1109949433682063   T   T   T
  0.1899997617753525  0.9520662676193290  0.1109962002186347   T   T   T
  0.1899409254852879  0.0947463060990365  0.1110465591883890   T   T   T
  0.1906468888784559  0.2382492572452116  0.1109923766671148   T   T   T
  0.1907253146831923  0.3810646369389806  0.1109919904602436   T   T   T
  0.1906462175729052  0.5238105554476995  0.1110533092729483   T   T   T
  0.1899582718178788  0.6666277932740848  0.1110475966908252   T   T   T
  0.1900055280049930  0.8093637227579722  0.1109944472630698   T   T   T
  0.3332487778542726  0.9523318685669921  0.1110108232946510   T   T   T
  0.3332713510735129  0.0951606628129374  0.1110500436191465   T   T   T
  0.3330543270102341  0.2376530047600697  0.1110332590672764   T   T   T
  0.3341264193118463  0.3811344147748074  0.1110223529091212   T   T   T
  0.3341317364359318  0.5244002137303339  0.1110543300268669   T   T   T
  0.3330608540245838  0.6668178197596066  0.1110537741695855   T   T   T
  0.3332657371978526  0.8095399657349385  0.1110474793719843   T   T   T
  0.4763751581151033  0.9523888303713981  0.1110001751312860   T   T   T
  0.4763844614625008  0.0954173626279922  0.1110005383201757   T   T   T
  0.4765622057047291  0.2384168709782304  0.1110394097007968   T   T   T
  0.4761996997941699  0.3803970411997942  0.1110273711642864   T   T   T
  0.4762167845218639  0.6672437874645805  0.1111029019929669   T   T   T
  0.4765524991806199  0.8095882335102648  0.1110265728038018   T   T   T
  0.6192384629638665  0.9513233348347715  0.1110056931977442   T   T   T
  0.6191691266094698  0.0953089259364665  0.1109980269983502   T   T   T
  0.6192479866147663  0.2393664665015547  0.1110204812745578   T   T   T
  0.6194316889565401  0.3843307841875676  0.1110042733155857   T   T   T
  0.6273399061880564  0.5369492633588405  0.1110296421364356   T   T   T
  0.6273793334923803  0.6617943925781438  0.1110984807603870   T   T   T
  0.6194211388357429  0.8065309436782555  0.1110115192232668   T   T   T
  0.7617957773608045  0.9517317481268739  0.1110041581005672   T   T   T
  0.7617951446037511  0.0949770370588840  0.1110448045678399   T   T   T
  0.7617964346803541  0.2382833883194834  0.1110490372232653   T   T   T
  0.7618002751981264  0.3815111744703292  0.1110101548062663   T   T   T
  0.7623128013813674  0.5242672530939072  0.1110303472120042   T   T   T
  0.7545573449135848  0.6629965588023095  0.1110622959192507   T   T   T
  0.7622984158167078  0.8094903248692971  0.1109944751649458   T   T   T
  0.4749187992561638  0.5231754829436324  0.1112365647344701   T   T   T
  0.5251620545330176  0.4818783678859701  0.1111991149197372   T   T   T
  0.5251970504952087  0.6147541947273791  0.1112934126888890   T   T   T
  0.9509200923816681  0.9032624281864142  0.1109799516055530   T   T   T
  0.9522574369328616  0.0473422952176151  0.1110033730864572   T   T   T
  0.9522696537212318  0.1903368291414022  0.1110164079044004   T   T   T
  0.9522668301290865  0.3333647999671711  0.1109971550681914   T   T   T
  0.9522638377370191  0.4763415346694529  0.1109610886628584   T   T   T
  0.9509317923551994  0.6190878333350127  0.1110123869113111   T   T   T
  0.9510771872588110  0.7612557336014973  0.1110076683292079   T   T   T
  0.0945306840470537  0.9042458638355553  0.1109775629850515   T   T   T
  0.0945731475324988  0.0469068179127565  0.1110038726533715   T   T   T
  0.0953221625771540  0.1904777582068269  0.1109661951747091   T   T   T
  0.0953689142272801  0.3333934850116358  0.1109731923915761   T   T   T
  0.0953226733583614  0.4762618032227095  0.1110081194313508   T   T   T
  0.0945857413723864  0.6190925002276297  0.1110070429972937   T   T   T
  0.0945368145093698  0.7617192466367031  0.1109812229130773   T   T   T
  0.2378234239460755  0.9046248079261318  0.1109764324190727   T   T   T
  0.2378430492980245  0.0473874936100118  0.1110241015443772   T   T   T
  0.2378208006452489  0.1901415714575873  0.1110176563975846   T   T   T
  0.2387075008295796  0.3337843306981929  0.1109678370737897   T   T   T
  0.2387099385544981  0.4763343429962227  0.1110150683791664   T   T   T
  0.2378284374481318  0.6190982139111579  0.1110449307577899   T   T   T
  0.2378452321270480  0.7618838889261663  0.1110125749630801   T   T   T
  0.3809957797565633  0.9047734240403288  0.1110037537293706   T   T   T
  0.3809984739241743  0.0476470742720236  0.1110065975886656   T   T   T
  0.3810948157390808  0.1905422978271921  0.1110393011157765   T   T   T
  0.3810446770683413  0.3330279042962157  0.1109836534527640   T   T   T
  0.3823472091565259  0.4768804668678605  0.1110793242627713   T   T   T
  0.3810569473060634  0.6194343806297800  0.1110301545347480   T   T   T
  0.3810902641813745  0.7619789297002509  0.1110364017723293   T   T   T
  0.5240054868982174  0.9046436777611370  0.1109949629256558   T   T   T
  0.5239214057966478  0.0476743504585899  0.1109620048246471   T   T   T
  0.5240099819385823  0.1908034342154053  0.1110121374963558   T   T   T
  0.5241516592356776  0.3338014603483859  0.1109788241211686   T   T   T
  0.5241448172651445  0.7617903986222337  0.1109963877275775   T   T   T
  0.6665858219124957  0.9026907902625125  0.1109875999323939   T   T   T
  0.6665643329565405  0.0470326707366085  0.1109958052647549   T   T   T
  0.6665672033186996  0.1909829155796615  0.1110073624038012   T   T   T
  0.6665949375952591  0.3353414162234236  0.1109941960464298   T   T   T
  0.6681230789918330  0.4813516646677368  0.1109825690883374   T   T   T
  0.6681162209686322  0.7581994561565679  0.1109849437253250   T   T   T
  0.8095783803416264  0.9044582890069437  0.1109757502553975   T   T   T
  0.8092829788734776  0.0471625328919621  0.1110157610869228   T   T   T
  0.8093053284149169  0.1903813058367846  0.1110409486886244   T   T   T
  0.8092867141707619  0.3335702488535708  0.1110073880173326   T   T   T
  0.8095829313548039  0.4765635726775169  0.1109978648808255   T   T   T
  0.8062973040189196  0.6188573912143390  0.1110365765189357   T   T   T
  0.8062857893166336  0.7588755796596104  0.1109911838903633   T   T   T

  0.00000000E+00  0.00000000E+00  0.00000000E+00
  0.00000000E+00  0.00000000E+00  0.00000000E+00
  0.00000000E+00  0.00000000E+00  0.00000000E+00
  0.00000000E+00  0.00000000E+00  0.00000000E+00
  0.00000000E+00  0.00000000E+00  0.00000000E+00
  0.00000000E+00  0.00000000E+00  0.00000000E+00
  0.00000000E+00  0.00000000E+00  0.00000000E+00
  0.00000000E+00  0.00000000E+00  0.00000000E+00
  0.00000000E+00  0.00000000E+00  0.00000000E+00
  0.00000000E+00  0.00000000E+00  0.00000000E+00
  0.00000000E+00  0.00000000E+00  0.00000000E+00
  0.00000000E+00  0.00000000E+00  0.00000000E+00
  0.00000000E+00  0.00000000E+00  0.00000000E+00
  0.00000000E+00  0.00000000E+00  0.00000000E+00
  0.00000000E+00  0.00000000E+00  0.00000000E+00
  0.00000000E+00  0.00000000E+00  0.00000000E+00
  0.00000000E+00  0.00000000E+00  0.00000000E+00
  0.00000000E+00  0.00000000E+00  0.00000000E+00
  0.00000000E+00  0.00000000E+00  0.00000000E+00
  0.00000000E+00  0.00000000E+00  0.00000000E+00
  0.00000000E+00  0.00000000E+00  0.00000000E+00
  0.00000000E+00  0.00000000E+00  0.00000000E+00
  0.00000000E+00  0.00000000E+00  0.00000000E+00
  0.00000000E+00  0.00000000E+00  0.00000000E+00
  0.00000000E+00  0.00000000E+00  0.00000000E+00
  0.00000000E+00  0.00000000E+00  0.00000000E+00
  0.00000000E+00  0.00000000E+00  0.00000000E+00
  0.00000000E+00  0.00000000E+00  0.00000000E+00
  0.00000000E+00  0.00000000E+00  0.00000000E+00
  0.00000000E+00  0.00000000E+00  0.00000000E+00
  0.00000000E+00  0.00000000E+00  0.00000000E+00
  0.00000000E+00  0.00000000E+00  0.00000000E+00
  0.00000000E+00  0.00000000E+00  0.00000000E+00
  0.00000000E+00  0.00000000E+00  0.00000000E+00
  0.00000000E+00  0.00000000E+00  0.00000000E+00
  0.00000000E+00  0.00000000E+00  0.00000000E+00
  0.00000000E+00  0.00000000E+00  0.00000000E+00
  0.00000000E+00  0.00000000E+00  0.00000000E+00
  0.00000000E+00  0.00000000E+00  0.00000000E+00
  0.00000000E+00  0.00000000E+00  0.00000000E+00
  0.00000000E+00  0.00000000E+00  0.00000000E+00
  0.00000000E+00  0.00000000E+00  0.00000000E+00
  0.00000000E+00  0.00000000E+00  0.00000000E+00
  0.00000000E+00  0.00000000E+00  0.00000000E+00
  0.00000000E+00  0.00000000E+00  0.00000000E+00
  0.00000000E+00  0.00000000E+00  0.00000000E+00
  0.00000000E+00  0.00000000E+00  0.00000000E+00
  0.00000000E+00  0.00000000E+00  0.00000000E+00
  0.00000000E+00  0.00000000E+00  0.00000000E+00
  0.00000000E+00  0.00000000E+00  0.00000000E+00
  0.00000000E+00  0.00000000E+00  0.00000000E+00
  0.00000000E+00  0.00000000E+00  0.00000000E+00
  0.00000000E+00  0.00000000E+00  0.00000000E+00
  0.00000000E+00  0.00000000E+00  0.00000000E+00
  0.00000000E+00  0.00000000E+00  0.00000000E+00
  0.00000000E+00  0.00000000E+00  0.00000000E+00
  0.00000000E+00  0.00000000E+00  0.00000000E+00
  0.00000000E+00  0.00000000E+00  0.00000000E+00
  0.00000000E+00  0.00000000E+00  0.00000000E+00
  0.00000000E+00  0.00000000E+00  0.00000000E+00
  0.00000000E+00  0.00000000E+00  0.00000000E+00
  0.00000000E+00  0.00000000E+00  0.00000000E+00
  0.00000000E+00  0.00000000E+00  0.00000000E+00
  0.00000000E+00  0.00000000E+00  0.00000000E+00
  0.00000000E+00  0.00000000E+00  0.00000000E+00
  0.00000000E+00  0.00000000E+00  0.00000000E+00
  0.00000000E+00  0.00000000E+00  0.00000000E+00
  0.00000000E+00  0.00000000E+00  0.00000000E+00
  0.00000000E+00  0.00000000E+00  0.00000000E+00
  0.00000000E+00  0.00000000E+00  0.00000000E+00
  0.00000000E+00  0.00000000E+00  0.00000000E+00
  0.00000000E+00  0.00000000E+00  0.00000000E+00
  0.00000000E+00  0.00000000E+00  0.00000000E+00
  0.00000000E+00  0.00000000E+00  0.00000000E+00
  0.00000000E+00  0.00000000E+00  0.00000000E+00
  0.00000000E+00  0.00000000E+00  0.00000000E+00
  0.00000000E+00  0.00000000E+00  0.00000000E+00
  0.00000000E+00  0.00000000E+00  0.00000000E+00
  0.00000000E+00  0.00000000E+00  0.00000000E+00
  0.00000000E+00  0.00000000E+00  0.00000000E+00
  0.00000000E+00  0.00000000E+00  0.00000000E+00
  0.00000000E+00  0.00000000E+00  0.00000000E+00
  0.00000000E+00  0.00000000E+00  0.00000000E+00
  0.00000000E+00  0.00000000E+00  0.00000000E+00
  0.00000000E+00  0.00000000E+00  0.00000000E+00
  0.00000000E+00  0.00000000E+00  0.00000000E+00
  0.00000000E+00  0.00000000E+00  0.00000000E+00
  0.00000000E+00  0.00000000E+00  0.00000000E+00
  0.00000000E+00  0.00000000E+00  0.00000000E+00
  0.00000000E+00  0.00000000E+00  0.00000000E+00
  0.00000000E+00  0.00000000E+00  0.00000000E+00
  0.00000000E+00  0.00000000E+00  0.00000000E+00
  0.00000000E+00  0.00000000E+00  0.00000000E+00
  0.00000000E+00  0.00000000E+00  0.00000000E+00
  0.00000000E+00  0.00000000E+00  0.00000000E+00
  0.00000000E+00  0.00000000E+00  0.00000000E+00
  0.00000000E+00  0.00000000E+00  0.00000000E+00
