B C N                                   
   1.0000000000000000     
     8.7639499999999995  -15.1796066749929999    0.0000000000000000
     8.7639499999999995   15.1796066749929999    0.0000000000000000
     0.0000000000000000    0.0000000000000000   15.0000000000000000
   B    C    N 
    48     2    47
Selective dynamics
Direct
  0.9053360961668574  0.9528066795007583  0.1109167771452702   T   T   T
  0.9048242351773855  0.0954066549539196  0.1109979574381195   T   T   T
  0.9046068153311608  0.2382170524889351  0.1111247501179978   T   T   T
  0.9045660235849099  0.3811141538116598  0.1110271143392129   T   T   T
  0.9049094354108751  0.5240276130883189  0.1109886641042648   T   T   T
  0.9053947761658127  0.6670848290699481  0.1110937777046118   T   T   T
  0.9059196140222706  0.8102755466419774  0.1111041451626922   T   T   T
  0.0479303533488595  0.9523889826680402  0.1110201403007846   T   T   T
  0.0476543925500161  0.0951723854095946  0.1110097773758280   T   T   T
  0.0474178316758880  0.2379537603845623  0.1110784494213225   T   T   T
  0.0474400028222140  0.3809106595378574  0.1111373960716787   T   T   T
  0.0477104947484423  0.5238627582823552  0.1110582955228960   T   T   T
  0.0479963496591163  0.6667426023710095  0.1109834889421509   T   T   T
  0.0481181101901695  0.8096263082578845  0.1110104816153039   T   T   T
  0.1905571212220325  0.9520574584968063  0.1110991710115473   T   T   T
  0.1900226605876537  0.0944853679028985  0.1111843089393287   T   T   T
  0.1901360838040358  0.2376676768791352  0.1110160303804480   T   T   T
  0.1899755900086293  0.3804105875590909  0.1109653348294502   T   T   T
  0.1904144268015000  0.5236368942161697  0.1112562918708155   T   T   T
  0.1908162385536081  0.6665878206638399  0.1111627385205072   T   T   T
  0.1907271047417846  0.8093807850248159  0.1110015638476140   T   T   T
  0.3333664628756527  0.9520343594906622  0.1110832429853392   T   T   T
  0.3330667632744606  0.0946143058987687  0.1112303352538496   T   T   T
  0.3319092455375685  0.2363310384035992  0.1110978305897588   T   T   T
  0.3327276293402109  0.3795354867781517  0.1104586938200631   T   T   T
  0.3324685280869299  0.5232265036434388  0.1107939668888898   T   T   T
  0.3336882327852454  0.6665897731537620  0.1113595568656358   T   T   T
  0.3334684034050485  0.8093178719207652  0.1111954350725948   T   T   T
  0.4761530854999881  0.9519180119177423  0.1110222912803850   T   T   T
  0.4760147197329903  0.0949420364766647  0.1109860847964762   T   T   T
  0.4756713430163520  0.2378053311443932  0.1111189005616385   T   T   T
  0.4732568981558794  0.3790685938817515  0.1106728547528968   T   T   T
  0.4752721562177079  0.6655888309274853  0.1111475549359819   T   T   T
  0.4760473747377942  0.8086383789266494  0.1112385723801566   T   T   T
  0.6189713938154825  0.9525611657990374  0.1109617121246359   T   T   T
  0.6188418542417542  0.0953205091965642  0.1109031536589943   T   T   T
  0.6186513473860096  0.2382604925346731  0.1109939597267338   T   T   T
  0.6182051020368700  0.3812238310329963  0.1109547424695728   T   T   T
  0.6206446837288867  0.5255545194271493  0.1108636654114791   T   T   T
  0.6258017742372118  0.6706243526957606  0.1110881357597668   T   T   T
  0.6194747431789684  0.8105407232734136  0.1110771104737296   T   T   T
  0.7622494866210775  0.9528565117724622  0.1108932288286297   T   T   T
  0.7618058128724355  0.0954398182278328  0.1110470014494051   T   T   T
  0.7616243041692435  0.2382855306441582  0.1110984554969741   T   T   T
  0.7615249413356907  0.3811964570032527  0.1110293086658515   T   T   T
  0.7622061841936250  0.5242396188126728  0.1110602224895332   T   T   T
  0.7638850044854542  0.6683167042926289  0.1112155237969416   T   T   T
  0.7635786363120831  0.8106775039575549  0.1110562077634689   T   T   T
  0.4719423438217138  0.5201344081970987  0.1104631408634072   T   T   T
  0.5208997880270635  0.4812915944435196  0.1104632117083907   T   T   T
  0.9525887405600088  0.9049836359942328  0.1109751973905644   T   T   T
  0.9523470036787098  0.0476743259968479  0.1109157220422636   T   T   T
  0.9522529612120582  0.1905050481653697  0.1110511786947873   T   T   T
  0.9523037317276839  0.3334861780796022  0.1110584291216631   T   T   T
  0.9524827988618464  0.4764037155626038  0.1109611005265590   T   T   T
  0.9526079124573728  0.6192760301121376  0.1109912047535655   T   T   T
  0.9526915141965482  0.7621519356373601  0.1110557093958597   T   T   T
  0.0953590928252757  0.9046520445866916  0.1110392605642573   T   T   T
  0.0950286520132119  0.0473732748866966  0.1110287422311493   T   T   T
  0.0951696869844721  0.1904910959742860  0.1110520733823110   T   T   T
  0.0952349158518898  0.3333348819403970  0.1111227877531077   T   T   T
  0.0955933859111521  0.4762766950694551  0.1111711179984573   T   T   T
  0.0957267306542564  0.6190626488966264  0.1110125237755714   T   T   T
  0.0955616527115330  0.7618509005733095  0.1109386738292721   T   T   T
  0.2382587528649997  0.9044390164840563  0.1110477983911543   T   T   T
  0.2379300129348331  0.0472118302167453  0.1111763919641812   T   T   T
  0.2373030600592154  0.1897571473174400  0.1111812729945851   T   T   T
  0.2382176111346310  0.3336313813168721  0.1107208904395000   T   T   T
  0.2385817738023259  0.4760536445380627  0.1110338896174476   T   T   T
  0.2390346295878589  0.6188548735485522  0.1113227201796725   T   T   T
  0.2385547430580195  0.7616196917287450  0.1110655723789348   T   T   T
  0.3811324068452812  0.9042072262172184  0.1110912103395573   T   T   T
  0.3808692081105038  0.0471838273999498  0.1110652713871941   T   T   T
  0.3804386965016713  0.1899837507018056  0.1112660543016860   T   T   T
  0.3791301009527405  0.3319598038369726  0.1106535762010065   T   T   T
  0.3823767272709456  0.4778020425128958  0.1102493880767529   T   T   T
  0.3827778591100778  0.6182240004363466  0.1111547906846955   T   T   T
  0.3815137592708437  0.7611489317487196  0.1113270449184285   T   T   T
  0.5238027699112193  0.9035170261061840  0.1110549738470184   T   T   T
  0.5236620590177010  0.0470909610319737  0.1108764425707398   T   T   T
  0.5234383691856899  0.1903632906125030  0.1110145356377004   T   T   T
  0.5227791949596795  0.3335369485378994  0.1109482581305455   T   T   T
  0.5242604546812282  0.7590727359569436  0.1112211690814964   T   T   T
  0.6664837614636484  0.9043864871259741  0.1109137862122237   T   T   T
  0.6664164097933051  0.0473774822510247  0.1109174087776384   T   T   T
  0.6663215827573516  0.1905752578895521  0.1109607451338243   T   T   T
  0.6660268426855923  0.3338534125461858  0.1109955881321869   T   T   T
  0.6665933175610882  0.4773869085933656  0.1109354968660974   T   T   T
  0.6669580093691659  0.6208282125610606  0.1111111997727678   T   T   T
  0.6660492865456700  0.7618973381779333  0.1110745273174193   T   T   T
  0.8095210322363192  0.9048757823630965  0.1108685736939745   T   T   T
  0.8093577940441880  0.0475444229661095  0.1109665842794871   T   T   T
  0.8092848270143811  0.1905361452945508  0.1111523012495291   T   T   T
  0.8091946418864925  0.3335977040881755  0.1110566561165362   T   T   T
  0.8094437917551027  0.4766419862279231  0.1110006944043808   T   T   T
  0.8096369764224965  0.6196774028291674  0.1111441000517911   T   T   T
  0.8100821249760970  0.7627256504631991  0.1111907635334455   T   T   T

  0.00000000E+00  0.00000000E+00  0.00000000E+00
  0.00000000E+00  0.00000000E+00  0.00000000E+00
  0.00000000E+00  0.00000000E+00  0.00000000E+00
  0.00000000E+00  0.00000000E+00  0.00000000E+00
  0.00000000E+00  0.00000000E+00  0.00000000E+00
  0.00000000E+00  0.00000000E+00  0.00000000E+00
  0.00000000E+00  0.00000000E+00  0.00000000E+00
  0.00000000E+00  0.00000000E+00  0.00000000E+00
  0.00000000E+00  0.00000000E+00  0.00000000E+00
  0.00000000E+00  0.00000000E+00  0.00000000E+00
  0.00000000E+00  0.00000000E+00  0.00000000E+00
  0.00000000E+00  0.00000000E+00  0.00000000E+00
  0.00000000E+00  0.00000000E+00  0.00000000E+00
  0.00000000E+00  0.00000000E+00  0.00000000E+00
  0.00000000E+00  0.00000000E+00  0.00000000E+00
  0.00000000E+00  0.00000000E+00  0.00000000E+00
  0.00000000E+00  0.00000000E+00  0.00000000E+00
  0.00000000E+00  0.00000000E+00  0.00000000E+00
  0.00000000E+00  0.00000000E+00  0.00000000E+00
  0.00000000E+00  0.00000000E+00  0.00000000E+00
  0.00000000E+00  0.00000000E+00  0.00000000E+00
  0.00000000E+00  0.00000000E+00  0.00000000E+00
  0.00000000E+00  0.00000000E+00  0.00000000E+00
  0.00000000E+00  0.00000000E+00  0.00000000E+00
  0.00000000E+00  0.00000000E+00  0.00000000E+00
  0.00000000E+00  0.00000000E+00  0.00000000E+00
  0.00000000E+00  0.00000000E+00  0.00000000E+00
  0.00000000E+00  0.00000000E+00  0.00000000E+00
  0.00000000E+00  0.00000000E+00  0.00000000E+00
  0.00000000E+00  0.00000000E+00  0.00000000E+00
  0.00000000E+00  0.00000000E+00  0.00000000E+00
  0.00000000E+00  0.00000000E+00  0.00000000E+00
  0.00000000E+00  0.00000000E+00  0.00000000E+00
  0.00000000E+00  0.00000000E+00  0.00000000E+00
  0.00000000E+00  0.00000000E+00  0.00000000E+00
  0.00000000E+00  0.00000000E+00  0.00000000E+00
  0.00000000E+00  0.00000000E+00  0.00000000E+00
  0.00000000E+00  0.00000000E+00  0.00000000E+00
  0.00000000E+00  0.00000000E+00  0.00000000E+00
  0.00000000E+00  0.00000000E+00  0.00000000E+00
  0.00000000E+00  0.00000000E+00  0.00000000E+00
  0.00000000E+00  0.00000000E+00  0.00000000E+00
  0.00000000E+00  0.00000000E+00  0.00000000E+00
  0.00000000E+00  0.00000000E+00  0.00000000E+00
  0.00000000E+00  0.00000000E+00  0.00000000E+00
  0.00000000E+00  0.00000000E+00  0.00000000E+00
  0.00000000E+00  0.00000000E+00  0.00000000E+00
  0.00000000E+00  0.00000000E+00  0.00000000E+00
  0.00000000E+00  0.00000000E+00  0.00000000E+00
  0.00000000E+00  0.00000000E+00  0.00000000E+00
  0.00000000E+00  0.00000000E+00  0.00000000E+00
  0.00000000E+00  0.00000000E+00  0.00000000E+00
  0.00000000E+00  0.00000000E+00  0.00000000E+00
  0.00000000E+00  0.00000000E+00  0.00000000E+00
  0.00000000E+00  0.00000000E+00  0.00000000E+00
  0.00000000E+00  0.00000000E+00  0.00000000E+00
  0.00000000E+00  0.00000000E+00  0.00000000E+00
  0.00000000E+00  0.00000000E+00  0.00000000E+00
  0.00000000E+00  0.00000000E+00  0.00000000E+00
  0.00000000E+00  0.00000000E+00  0.00000000E+00
  0.00000000E+00  0.00000000E+00  0.00000000E+00
  0.00000000E+00  0.00000000E+00  0.00000000E+00
  0.00000000E+00  0.00000000E+00  0.00000000E+00
  0.00000000E+00  0.00000000E+00  0.00000000E+00
  0.00000000E+00  0.00000000E+00  0.00000000E+00
  0.00000000E+00  0.00000000E+00  0.00000000E+00
  0.00000000E+00  0.00000000E+00  0.00000000E+00
  0.00000000E+00  0.00000000E+00  0.00000000E+00
  0.00000000E+00  0.00000000E+00  0.00000000E+00
  0.00000000E+00  0.00000000E+00  0.00000000E+00
  0.00000000E+00  0.00000000E+00  0.00000000E+00
  0.00000000E+00  0.00000000E+00  0.00000000E+00
  0.00000000E+00  0.00000000E+00  0.00000000E+00
  0.00000000E+00  0.00000000E+00  0.00000000E+00
  0.00000000E+00  0.00000000E+00  0.00000000E+00
  0.00000000E+00  0.00000000E+00  0.00000000E+00
  0.00000000E+00  0.00000000E+00  0.00000000E+00
  0.00000000E+00  0.00000000E+00  0.00000000E+00
  0.00000000E+00  0.00000000E+00  0.00000000E+00
  0.00000000E+00  0.00000000E+00  0.00000000E+00
  0.00000000E+00  0.00000000E+00  0.00000000E+00
  0.00000000E+00  0.00000000E+00  0.00000000E+00
  0.00000000E+00  0.00000000E+00  0.00000000E+00
  0.00000000E+00  0.00000000E+00  0.00000000E+00
  0.00000000E+00  0.00000000E+00  0.00000000E+00
  0.00000000E+00  0.00000000E+00  0.00000000E+00
  0.00000000E+00  0.00000000E+00  0.00000000E+00
  0.00000000E+00  0.00000000E+00  0.00000000E+00
  0.00000000E+00  0.00000000E+00  0.00000000E+00
  0.00000000E+00  0.00000000E+00  0.00000000E+00
  0.00000000E+00  0.00000000E+00  0.00000000E+00
  0.00000000E+00  0.00000000E+00  0.00000000E+00
  0.00000000E+00  0.00000000E+00  0.00000000E+00
  0.00000000E+00  0.00000000E+00  0.00000000E+00
  0.00000000E+00  0.00000000E+00  0.00000000E+00
  0.00000000E+00  0.00000000E+00  0.00000000E+00
  0.00000000E+00  0.00000000E+00  0.00000000E+00
