Sb B N                                  
   1.0000000000000000     
     8.7639499999999995  -15.1796066749929999    0.0000000000000000
     8.7639499999999995   15.1796066749929999    0.0000000000000000
     0.0000000000000000    0.0000000000000000   15.0000000000000000
   Sb   B    N 
     1    48    48
Selective dynamics
Direct
  0.4985779164458325  0.5014234854711420  0.1108559088980170   T   T   T
  0.9062925400430004  0.9536502555317246  0.1109922957347978   T   T   T
  0.9044227593708303  0.0955792618252005  0.1109762973850726   T   T   T
  0.9038992577896811  0.2382574975159106  0.1109628951438830   T   T   T
  0.9042370365603511  0.3811257673285079  0.1109413951131367   T   T   T
  0.9057995347702056  0.5241535803775826  0.1110322286231677   T   T   T
  0.9074215362906698  0.6675776718515222  0.1110877133177245   T   T   T
  0.9082784509075740  0.8116584691459121  0.1110478647696412   T   T   T
  0.0483042828170394  0.9516977383789497  0.1109969754908235   T   T   T
  0.0463517656643143  0.0937094811530075  0.1109922957347978   T   T   T
  0.0458011971192805  0.2369752707715718  0.1109931881365877   T   T   T
  0.0464252994348487  0.3803606064220514  0.1110165605267530   T   T   T
  0.0480283281979208  0.5234284430305081  0.1110198030807534   T   T   T
  0.0492130407883151  0.6663362867871135  0.1110752826205610   T   T   T
  0.0492939663837552  0.8092175319398157  0.1110529495677586   T   T   T
  0.1907844892561896  0.9507080548122429  0.1110529495677601   T   T   T
  0.1883435520500888  0.0917235702884266  0.1110478647696412   T   T   T
  0.1860787508144932  0.2335801278210183  0.1110411658154590   T   T   T
  0.1875301403601314  0.3786419570532285  0.1111432066902203   T   T   T
  0.1903136227151006  0.5225548951783111  0.1111768842956192   T   T   T
  0.1918303872239256  0.6656251768007242  0.1111314631012666   T   T   T
  0.1916300790692030  0.8083719421267648  0.1110425981676833   T   T   T
  0.3336657344098528  0.9507889804077145  0.1110752826205610   T   T   T
  0.3324243493454653  0.0925804849053001  0.1110877133177245   T   T   T
  0.3276378056532416  0.2309518623029937  0.1109900573023812   T   T   T
  0.3244427025178922  0.3730071586332409  0.1110391964940627   T   T   T
  0.3324359794742736  0.5207312655102162  0.1111972874821343   T   T   T
  0.3350510127120125  0.6649510084849862  0.1112514592435717   T   T   T
  0.3343768443962952  0.8081716339720842  0.1111314631012666   T   T   T
  0.4765735781664936  0.9519736929980664  0.1110198030807534   T   T   T
  0.4758484408194014  0.0942024864257657  0.1110322286231677   T   T   T
  0.4746612967394630  0.2356779338986894  0.1109742758175896   T   T   T
  0.4647805042586662  0.3669469735042798  0.1109391510998369   T   T   T
  0.4792707556867684  0.6675660417226826  0.1111972874821343   T   T   T
  0.4774471260186725  0.8096883984809128  0.1111768842956192   T   T   T
  0.6196414147739348  0.9535767217611550  0.1110165605267530   T   T   T
  0.6188762538674892  0.0957649846356343  0.1109413951131367   T   T   T
  0.6185023659620110  0.2385013223179545  0.1109714132072689   T   T   T
  0.6181765444772687  0.3818254767187306  0.1108722034056862   T   T   T
  0.6330550476917108  0.5352215169383175  0.1109391510998369   T   T   T
  0.6269948625627810  0.6755593186791180  0.1110391964940627   T   T   T
  0.6213600641427734  0.8124718808358871  0.1111432066902203   T   T   T
  0.7630267504244175  0.9542008240767541  0.1109931881365877   T   T   T
  0.7617445236801137  0.0961027634063376  0.1109628951438830   T   T   T
  0.7613509338635646  0.2386510873324340  0.1109732282989846   T   T   T
  0.7615006988780740  0.3814996552339545  0.1109714132072689   T   T   T
  0.7643240872973431  0.5253407244575261  0.1109742758175896   T   T   T
  0.7690501588929981  0.6723642155437689  0.1109900573023812   T   T   T
  0.7664218933749692  0.8139232703815056  0.1110411658154590   T   T   T
  0.9540570850332951  0.9059160089651694  0.1109676578166930   T   T   T
  0.9521042521955482  0.0478971497224755  0.1109476765661555   T   T   T
  0.9511385278859450  0.1903530743871138  0.1109386045355890   T   T   T
  0.9513794257802264  0.3332735343184520  0.1109035849136456   T   T   T
  0.9527115117637961  0.4762144268331293  0.1109321541578674   T   T   T
  0.9540556995764010  0.6192368199300886  0.1110555236293313   T   T   T
  0.9545583304998712  0.7625921361213037  0.1110433844806288   T   T   T
  0.0959976507815487  0.9040037511364183  0.1109922614838023   T   T   T
  0.0940853929528035  0.0459443168846891  0.1109676578166930   T   T   T
  0.0921267605262821  0.1879939085040114  0.1109703885127017   T   T   T
  0.0928709625525242  0.3319455995749392  0.1110317297620490   T   T   T
  0.0949897185398727  0.4754796557151608  0.1110337327864159   T   T   T
  0.0964495671402913  0.6184988916597201  0.1110409886677085   T   T   T
  0.0966154870250246  0.7613231829728930  0.1110139098847298   T   T   T
  0.2386782189451051  0.9033859148929487  0.1110139098847298   T   T   T
  0.2374092657966882  0.0454430714181232  0.1110433844806288   T   T   T
  0.2337341324035474  0.1856995013654024  0.1110074485707290   T   T   T
  0.2312479102669205  0.3275573845631264  0.1110859197315424   T   T   T
  0.2366684337174425  0.4740721541198226  0.1111943271402414   T   T   T
  0.2393248891922060  0.6178576175765740  0.1111888297355766   T   T   T
  0.2392280292194821  0.7607733726985249  0.1110715464117061   T   T   T
  0.3815025102582690  0.9035518347777296  0.1110409886677085   T   T   T
  0.3807645819879082  0.0459457023416044  0.1110555236293313   T   T   T
  0.3791818827321888  0.1874072345762152  0.1110002950545885   T   T   T
  0.3718320499611834  0.3244453093612836  0.1109194831129130   T   T   T
  0.3709469604595492  0.4658157994836085  0.1110287098480759   T   T   T
  0.3829190994194942  0.6170823024985047  0.1112266292117350   T   T   T
  0.3821437843414444  0.7606765127258307  0.1111888297355766   T   T   T
  0.5245217462018207  0.9050116833781294  0.1110337327864159   T   T   T
  0.5237869750838720  0.0472898901542323  0.1109321541578674   T   T   T
  0.5231861156596697  0.1895968726073836  0.1109736307059100   T   T   T
  0.5221248587134092  0.3316257901257639  0.1108488058379738   T   T   T
  0.5341856024334126  0.6290544414584385  0.1110287098480759   T   T   T
  0.5259292477971615  0.7633329682005641  0.1111943271402414   T   T   T
  0.6680558023420410  0.9071304393654679  0.1110317297620490   T   T   T
  0.6667278675985318  0.0486219761377712  0.1109035849136456   T   T   T
  0.6661785759963010  0.1911029299457314  0.1109372201384461   T   T   T
  0.6658489442946394  0.3341524576223326  0.1109124970582605   T   T   T
  0.6683756117911996  0.4778765432035713  0.1108488058379738   T   T   T
  0.6755560925557196  0.6281693519568393  0.1109194831129130   T   T   T
  0.6724440173538513  0.7687534916511113  0.1110859197315424   T   T   T
  0.8120074934139808  0.9078746413917047  0.1109703885127011   T   T   T
  0.8096483275308856  0.0488628740320620  0.1109386045355890   T   T   T
  0.8088945208514975  0.1911068810665053  0.1109313507726251   T   T   T
  0.8088984719722491  0.3338228259206627  0.1109372201384461   T   T   T
  0.8104045293106092  0.4768152862573118  0.1109736307059100   T   T   T
  0.8125941673417973  0.6208195191857915  0.1110002950545885   T   T   T
  0.8143019005525837  0.7662672695144964  0.1110074485707290   T   T   T

  0.00000000E+00  0.00000000E+00  0.00000000E+00
  0.00000000E+00  0.00000000E+00  0.00000000E+00
  0.00000000E+00  0.00000000E+00  0.00000000E+00
  0.00000000E+00  0.00000000E+00  0.00000000E+00
  0.00000000E+00  0.00000000E+00  0.00000000E+00
  0.00000000E+00  0.00000000E+00  0.00000000E+00
  0.00000000E+00  0.00000000E+00  0.00000000E+00
  0.00000000E+00  0.00000000E+00  0.00000000E+00
  0.00000000E+00  0.00000000E+00  0.00000000E+00
  0.00000000E+00  0.00000000E+00  0.00000000E+00
  0.00000000E+00  0.00000000E+00  0.00000000E+00
  0.00000000E+00  0.00000000E+00  0.00000000E+00
  0.00000000E+00  0.00000000E+00  0.00000000E+00
  0.00000000E+00  0.00000000E+00  0.00000000E+00
  0.00000000E+00  0.00000000E+00  0.00000000E+00
  0.00000000E+00  0.00000000E+00  0.00000000E+00
  0.00000000E+00  0.00000000E+00  0.00000000E+00
  0.00000000E+00  0.00000000E+00  0.00000000E+00
  0.00000000E+00  0.00000000E+00  0.00000000E+00
  0.00000000E+00  0.00000000E+00  0.00000000E+00
  0.00000000E+00  0.00000000E+00  0.00000000E+00
  0.00000000E+00  0.00000000E+00  0.00000000E+00
  0.00000000E+00  0.00000000E+00  0.00000000E+00
  0.00000000E+00  0.00000000E+00  0.00000000E+00
  0.00000000E+00  0.00000000E+00  0.00000000E+00
  0.00000000E+00  0.00000000E+00  0.00000000E+00
  0.00000000E+00  0.00000000E+00  0.00000000E+00
  0.00000000E+00  0.00000000E+00  0.00000000E+00
  0.00000000E+00  0.00000000E+00  0.00000000E+00
  0.00000000E+00  0.00000000E+00  0.00000000E+00
  0.00000000E+00  0.00000000E+00  0.00000000E+00
  0.00000000E+00  0.00000000E+00  0.00000000E+00
  0.00000000E+00  0.00000000E+00  0.00000000E+00
  0.00000000E+00  0.00000000E+00  0.00000000E+00
  0.00000000E+00  0.00000000E+00  0.00000000E+00
  0.00000000E+00  0.00000000E+00  0.00000000E+00
  0.00000000E+00  0.00000000E+00  0.00000000E+00
  0.00000000E+00  0.00000000E+00  0.00000000E+00
  0.00000000E+00  0.00000000E+00  0.00000000E+00
  0.00000000E+00  0.00000000E+00  0.00000000E+00
  0.00000000E+00  0.00000000E+00  0.00000000E+00
  0.00000000E+00  0.00000000E+00  0.00000000E+00
  0.00000000E+00  0.00000000E+00  0.00000000E+00
  0.00000000E+00  0.00000000E+00  0.00000000E+00
  0.00000000E+00  0.00000000E+00  0.00000000E+00
  0.00000000E+00  0.00000000E+00  0.00000000E+00
  0.00000000E+00  0.00000000E+00  0.00000000E+00
  0.00000000E+00  0.00000000E+00  0.00000000E+00
  0.00000000E+00  0.00000000E+00  0.00000000E+00
  0.00000000E+00  0.00000000E+00  0.00000000E+00
  0.00000000E+00  0.00000000E+00  0.00000000E+00
  0.00000000E+00  0.00000000E+00  0.00000000E+00
  0.00000000E+00  0.00000000E+00  0.00000000E+00
  0.00000000E+00  0.00000000E+00  0.00000000E+00
  0.00000000E+00  0.00000000E+00  0.00000000E+00
  0.00000000E+00  0.00000000E+00  0.00000000E+00
  0.00000000E+00  0.00000000E+00  0.00000000E+00
  0.00000000E+00  0.00000000E+00  0.00000000E+00
  0.00000000E+00  0.00000000E+00  0.00000000E+00
  0.00000000E+00  0.00000000E+00  0.00000000E+00
  0.00000000E+00  0.00000000E+00  0.00000000E+00
  0.00000000E+00  0.00000000E+00  0.00000000E+00
  0.00000000E+00  0.00000000E+00  0.00000000E+00
  0.00000000E+00  0.00000000E+00  0.00000000E+00
  0.00000000E+00  0.00000000E+00  0.00000000E+00
  0.00000000E+00  0.00000000E+00  0.00000000E+00
  0.00000000E+00  0.00000000E+00  0.00000000E+00
  0.00000000E+00  0.00000000E+00  0.00000000E+00
  0.00000000E+00  0.00000000E+00  0.00000000E+00
  0.00000000E+00  0.00000000E+00  0.00000000E+00
  0.00000000E+00  0.00000000E+00  0.00000000E+00
  0.00000000E+00  0.00000000E+00  0.00000000E+00
  0.00000000E+00  0.00000000E+00  0.00000000E+00
  0.00000000E+00  0.00000000E+00  0.00000000E+00
  0.00000000E+00  0.00000000E+00  0.00000000E+00
  0.00000000E+00  0.00000000E+00  0.00000000E+00
  0.00000000E+00  0.00000000E+00  0.00000000E+00
  0.00000000E+00  0.00000000E+00  0.00000000E+00
  0.00000000E+00  0.00000000E+00  0.00000000E+00
  0.00000000E+00  0.00000000E+00  0.00000000E+00
  0.00000000E+00  0.00000000E+00  0.00000000E+00
  0.00000000E+00  0.00000000E+00  0.00000000E+00
  0.00000000E+00  0.00000000E+00  0.00000000E+00
  0.00000000E+00  0.00000000E+00  0.00000000E+00
  0.00000000E+00  0.00000000E+00  0.00000000E+00
  0.00000000E+00  0.00000000E+00  0.00000000E+00
  0.00000000E+00  0.00000000E+00  0.00000000E+00
  0.00000000E+00  0.00000000E+00  0.00000000E+00
  0.00000000E+00  0.00000000E+00  0.00000000E+00
  0.00000000E+00  0.00000000E+00  0.00000000E+00
  0.00000000E+00  0.00000000E+00  0.00000000E+00
  0.00000000E+00  0.00000000E+00  0.00000000E+00
  0.00000000E+00  0.00000000E+00  0.00000000E+00
  0.00000000E+00  0.00000000E+00  0.00000000E+00
  0.00000000E+00  0.00000000E+00  0.00000000E+00
  0.00000000E+00  0.00000000E+00  0.00000000E+00
  0.00000000E+00  0.00000000E+00  0.00000000E+00
