B N S                                   
   1.0000000000000000     
     8.7639499999999995  -15.1796066749929999    0.0000000000000000
     8.7639499999999995   15.1796066749929999    0.0000000000000000
     0.0000000000000000    0.0000000000000000   15.0000000000000000
   B    N    S 
    49    48     1
Selective dynamics
Direct
  0.9051212761021716  0.9528893633263493  0.1110228757664942   T   T   T
  0.9046949799611923  0.0953070412348040  0.1110394787910209   T   T   T
  0.9046949799611923  0.2379592450523802  0.1110394787910209   T   T   T
  0.9051212761021716  0.3808049306578312  0.1110228757664942   T   T   T
  0.9064513092067870  0.5240229765559334  0.1110426950329639   T   T   T
  0.9062008298129811  0.6673869238479924  0.1110596027025963   T   T   T
  0.9064513092067870  0.8110013505338500  0.1110426950329639   T   T   T
  0.0476896845538590  0.9523123366421444  0.1110197662757457   T   T   T
  0.0471126578696541  0.0948807450938247  0.1110228757664942   T   T   T
  0.0469439736018415  0.2377584957419216  0.1110268486063006   T   T   T
  0.0471126578696541  0.3808049306578312  0.1110228757664942   T   T   T
  0.0476896845538590  0.5239520773507209  0.1110197662757457   T   T   T
  0.0481102520677439  0.6669333160254993  0.1110331289417488   T   T   T
  0.0481102520677439  0.8097516654812509  0.1110331289417488   T   T   T
  0.1902503557147526  0.9518917691282596  0.1110331289417488   T   T   T
  0.1890006706621534  0.0935507119892094  0.1110426950329639   T   T   T
  0.1888963040242473  0.2369691799496678  0.1110179486288061   T   T   T
  0.1888963040242473  0.3805001419565812  0.1110179486288061   T   T   T
  0.1890006706621534  0.5240229765559334  0.1110426950329639   T   T   T
  0.1902503557147526  0.6669333160254993  0.1110331289417488   T   T   T
  0.1904764376510002  0.8095255835450033  0.1110128096722818   T   T   T
  0.3330687051714989  0.9518917691282596  0.1110331289417488   T   T   T
  0.3326150973490059  0.0938011913830152  0.1110596027025963   T   T   T
  0.3294341364086577  0.2338312372782738  0.1110204145907119   T   T   T
  0.3304392659760254  0.3795061419285091  0.1110138865500758   T   T   T
  0.3294341364086577  0.5241759170123856  0.1110204145907119   T   T   T
  0.3326150973490059  0.6673869238479924  0.1110596027025963   T   T   T
  0.3330687051714989  0.8097516654812509  0.1110331289417488   T   T   T
  0.4760499438462773  0.9523123366421444  0.1110197662757457   T   T   T
  0.4759790446410648  0.0935507119892094  0.1110426950329639   T   T   T
  0.4758261041846126  0.2338312372782738  0.1110204145907119   T   T   T
  0.4678848355285439  0.3643406677420984  0.1110925964342897   T   T   T
  0.4678848355285439  0.5321171856684543  0.1110925964342897   T   T   T
  0.4758261041846126  0.6705678847883405  0.1110204145907119   T   T   T
  0.4759790446410648  0.8110013505338500  0.1110426950329639   T   T   T
  0.6191970905381723  0.9528893633263493  0.1110228757664942   T   T   T
  0.6191970905381723  0.0948807450938247  0.1110228757664942   T   T   T
  0.6195018792394222  0.2369691799496678  0.1110179486288061   T   T   T
  0.6204958792674944  0.3795061419285091  0.1110138865500758   T   T   T
  0.6356613534539051  0.5321171856684543  0.1110925964342897   T   T   T
  0.6204958792674944  0.6695627552209729  0.1110138865500758   T   T   T
  0.6195018792394222  0.8111057171717562  0.1110179486288061   T   T   T
  0.7622435254540818  0.9530580475941619  0.1110268486063006   T   T   T
  0.7620427761436233  0.0953070412348040  0.1110394787910209   T   T   T
  0.7622435254540818  0.2377584957419216  0.1110268486063006   T   T   T
  0.7630328412463356  0.3805001419565812  0.1110179486288061   T   T   T
  0.7661707839177296  0.5241759170123856  0.1110204145907119   T   T   T
  0.7661707839177296  0.6705678847883405  0.1110204145907119   T   T   T
  0.7630328412463356  0.8111057171717562  0.1110179486288061   T   T   T
  0.9530189902616755  0.9055777796220141  0.1109975847442826   T   T   T
  0.9522473876507291  0.0477540142672765  0.1110006333132176   T   T   T
  0.9520679651655328  0.1903187799592700  0.1110086395590955   T   T   T
  0.9522473876507291  0.3330629681364528  0.1110006333132176   T   T   T
  0.9530189902616755  0.4760125169486571  0.1109975847442826   T   T   T
  0.9532848380673826  0.6192874147825478  0.1110181746076861   T   T   T
  0.9532848380673826  0.7625687295948325  0.1110181746076861   T   T   T
  0.0952883244597587  0.9047130774582399  0.1109973436059519   T   T   T
  0.0944236222959844  0.0469824116563302  0.1109975847442826   T   T   T
  0.0942003611391442  0.1899016194491239  0.1109929548970712   T   T   T
  0.0942003611391442  0.3328700479990303  0.1109929548970712   T   T   T
  0.0944236222959844  0.4760125169486571  0.1109975847442826   T   T   T
  0.0952883244597587  0.6191482648675120  0.1109973436059519   T   T   T
  0.0954922341918873  0.7620326260289474  0.1109976199030740   T   T   T
  0.2379687758890583  0.9045091677261112  0.1109976199030740   T   T   T
  0.2374326723231732  0.0467165638506231  0.1110181746076861   T   T   T
  0.2352946653297749  0.1880000848666228  0.1110016837936882   T   T   T
  0.2359599208871472  0.3322656135980679  0.1109922308456319   T   T   T
  0.2352946653297749  0.4758658867721408  0.1110016837936882   T   T   T
  0.2374326723231732  0.6192874147825478  0.1110181746076861   T   T   T
  0.2379687758890583  0.7620326260289474  0.1109976199030740   T   T   T
  0.3808531370504866  0.9047130774582399  0.1109973436059519   T   T   T
  0.3807139871354508  0.0467165638506231  0.1110181746076861   T   T   T
  0.3799290377463365  0.1884279798846791  0.1110132105043675   T   T   T
  0.3748584851066781  0.3277887756417499  0.1109861567814789   T   T   T
  0.3748584851066781  0.4756410157739239  0.1109861567814789   T   T   T
  0.3799290377463365  0.6200723641716621  0.1110132105043675   T   T   T
  0.3807139871354508  0.7625687295948325  0.1110181746076861   T   T   T
  0.5239888849683396  0.9055777796220141  0.1109975847442826   T   T   T
  0.5239888849683396  0.0469824116563302  0.1109975847442826   T   T   T
  0.5241355151448559  0.1880000848666228  0.1110016837936882   T   T   T
  0.5243603861430728  0.3277887756417499  0.1109861567814789   T   T   T
  0.5243603861430728  0.6251429168113205  0.1109861567814789   T   T   T
  0.5241355151448559  0.7647067365882307  0.1110016837936882   T   T   T
  0.6671313539179664  0.9058010407788544  0.1109929548970712   T   T   T
  0.6669384337805440  0.0477540142672765  0.1110006333132176   T   T   T
  0.6671313539179664  0.1899016194491239  0.1109929548970712   T   T   T
  0.6677357883189288  0.3322656135980679  0.1109922308456319   T   T   T
  0.6722126262752468  0.4756410157739239  0.1109861567814789   T   T   T
  0.6722126262752468  0.6251429168113205  0.1109861567814789   T   T   T
  0.6677357883189288  0.7640414810308656  0.1109922308456319   T   T   T
  0.8100997824688747  0.9058010407788544  0.1109929548970712   T   T   T
  0.8096826219587285  0.0479334367524729  0.1110086395590955   T   T   T
  0.8096826219587285  0.1903187799592700  0.1110086395590955   T   T   T
  0.8100997824688747  0.3328700479990303  0.1109929548970712   T   T   T
  0.8120013170513758  0.4758658867721408  0.1110016837936882   T   T   T
  0.8115734220333195  0.6200723641716621  0.1110132105043675   T   T   T
  0.8120013170513758  0.7647067365882307  0.1110016837936882   T   T   T
  0.5238104991749992  0.4761909027419975  0.1113599123439926   T   T   T

  0.00000000E+00  0.00000000E+00  0.00000000E+00
  0.00000000E+00  0.00000000E+00  0.00000000E+00
  0.00000000E+00  0.00000000E+00  0.00000000E+00
  0.00000000E+00  0.00000000E+00  0.00000000E+00
  0.00000000E+00  0.00000000E+00  0.00000000E+00
  0.00000000E+00  0.00000000E+00  0.00000000E+00
  0.00000000E+00  0.00000000E+00  0.00000000E+00
  0.00000000E+00  0.00000000E+00  0.00000000E+00
  0.00000000E+00  0.00000000E+00  0.00000000E+00
  0.00000000E+00  0.00000000E+00  0.00000000E+00
  0.00000000E+00  0.00000000E+00  0.00000000E+00
  0.00000000E+00  0.00000000E+00  0.00000000E+00
  0.00000000E+00  0.00000000E+00  0.00000000E+00
  0.00000000E+00  0.00000000E+00  0.00000000E+00
  0.00000000E+00  0.00000000E+00  0.00000000E+00
  0.00000000E+00  0.00000000E+00  0.00000000E+00
  0.00000000E+00  0.00000000E+00  0.00000000E+00
  0.00000000E+00  0.00000000E+00  0.00000000E+00
  0.00000000E+00  0.00000000E+00  0.00000000E+00
  0.00000000E+00  0.00000000E+00  0.00000000E+00
  0.00000000E+00  0.00000000E+00  0.00000000E+00
  0.00000000E+00  0.00000000E+00  0.00000000E+00
  0.00000000E+00  0.00000000E+00  0.00000000E+00
  0.00000000E+00  0.00000000E+00  0.00000000E+00
  0.00000000E+00  0.00000000E+00  0.00000000E+00
  0.00000000E+00  0.00000000E+00  0.00000000E+00
  0.00000000E+00  0.00000000E+00  0.00000000E+00
  0.00000000E+00  0.00000000E+00  0.00000000E+00
  0.00000000E+00  0.00000000E+00  0.00000000E+00
  0.00000000E+00  0.00000000E+00  0.00000000E+00
  0.00000000E+00  0.00000000E+00  0.00000000E+00
  0.00000000E+00  0.00000000E+00  0.00000000E+00
  0.00000000E+00  0.00000000E+00  0.00000000E+00
  0.00000000E+00  0.00000000E+00  0.00000000E+00
  0.00000000E+00  0.00000000E+00  0.00000000E+00
  0.00000000E+00  0.00000000E+00  0.00000000E+00
  0.00000000E+00  0.00000000E+00  0.00000000E+00
  0.00000000E+00  0.00000000E+00  0.00000000E+00
  0.00000000E+00  0.00000000E+00  0.00000000E+00
  0.00000000E+00  0.00000000E+00  0.00000000E+00
  0.00000000E+00  0.00000000E+00  0.00000000E+00
  0.00000000E+00  0.00000000E+00  0.00000000E+00
  0.00000000E+00  0.00000000E+00  0.00000000E+00
  0.00000000E+00  0.00000000E+00  0.00000000E+00
  0.00000000E+00  0.00000000E+00  0.00000000E+00
  0.00000000E+00  0.00000000E+00  0.00000000E+00
  0.00000000E+00  0.00000000E+00  0.00000000E+00
  0.00000000E+00  0.00000000E+00  0.00000000E+00
  0.00000000E+00  0.00000000E+00  0.00000000E+00
  0.00000000E+00  0.00000000E+00  0.00000000E+00
  0.00000000E+00  0.00000000E+00  0.00000000E+00
  0.00000000E+00  0.00000000E+00  0.00000000E+00
  0.00000000E+00  0.00000000E+00  0.00000000E+00
  0.00000000E+00  0.00000000E+00  0.00000000E+00
  0.00000000E+00  0.00000000E+00  0.00000000E+00
  0.00000000E+00  0.00000000E+00  0.00000000E+00
  0.00000000E+00  0.00000000E+00  0.00000000E+00
  0.00000000E+00  0.00000000E+00  0.00000000E+00
  0.00000000E+00  0.00000000E+00  0.00000000E+00
  0.00000000E+00  0.00000000E+00  0.00000000E+00
  0.00000000E+00  0.00000000E+00  0.00000000E+00
  0.00000000E+00  0.00000000E+00  0.00000000E+00
  0.00000000E+00  0.00000000E+00  0.00000000E+00
  0.00000000E+00  0.00000000E+00  0.00000000E+00
  0.00000000E+00  0.00000000E+00  0.00000000E+00
  0.00000000E+00  0.00000000E+00  0.00000000E+00
  0.00000000E+00  0.00000000E+00  0.00000000E+00
  0.00000000E+00  0.00000000E+00  0.00000000E+00
  0.00000000E+00  0.00000000E+00  0.00000000E+00
  0.00000000E+00  0.00000000E+00  0.00000000E+00
  0.00000000E+00  0.00000000E+00  0.00000000E+00
  0.00000000E+00  0.00000000E+00  0.00000000E+00
  0.00000000E+00  0.00000000E+00  0.00000000E+00
  0.00000000E+00  0.00000000E+00  0.00000000E+00
  0.00000000E+00  0.00000000E+00  0.00000000E+00
  0.00000000E+00  0.00000000E+00  0.00000000E+00
  0.00000000E+00  0.00000000E+00  0.00000000E+00
  0.00000000E+00  0.00000000E+00  0.00000000E+00
  0.00000000E+00  0.00000000E+00  0.00000000E+00
  0.00000000E+00  0.00000000E+00  0.00000000E+00
  0.00000000E+00  0.00000000E+00  0.00000000E+00
  0.00000000E+00  0.00000000E+00  0.00000000E+00
  0.00000000E+00  0.00000000E+00  0.00000000E+00
  0.00000000E+00  0.00000000E+00  0.00000000E+00
  0.00000000E+00  0.00000000E+00  0.00000000E+00
  0.00000000E+00  0.00000000E+00  0.00000000E+00
  0.00000000E+00  0.00000000E+00  0.00000000E+00
  0.00000000E+00  0.00000000E+00  0.00000000E+00
  0.00000000E+00  0.00000000E+00  0.00000000E+00
  0.00000000E+00  0.00000000E+00  0.00000000E+00
  0.00000000E+00  0.00000000E+00  0.00000000E+00
  0.00000000E+00  0.00000000E+00  0.00000000E+00
  0.00000000E+00  0.00000000E+00  0.00000000E+00
  0.00000000E+00  0.00000000E+00  0.00000000E+00
  0.00000000E+00  0.00000000E+00  0.00000000E+00
  0.00000000E+00  0.00000000E+00  0.00000000E+00
  0.00000000E+00  0.00000000E+00  0.00000000E+00
  0.00000000E+00  0.00000000E+00  0.00000000E+00
