 S B N 
 1.0
 17.527899999999772   0.000000000000000   0.000000000000000
 -8.763949999999658  15.179606674993195   0.000000000000000
  0.000000000000001   0.000000000000002  15.000000000000000
 S B N 
   1  49  48
Cartesian
  5.007984786403784   7.228390605833453   1.670398685159895 
  7.513800479667424  14.464485740078663   1.665343136497410 
 15.022136995231843   1.446723399301683   1.665592181865315 
 13.771940213584847   3.612127744573449   1.665592181865315 
 12.527519843352486   5.780469067283932   1.665343136497410 
 11.295676737258244   7.954462672778243   1.665640425494460 
 10.034851893621362  10.130671004046155   1.665894040538940 
  8.780612616634576  12.310681513992126   1.665640425494460 
 -7.510117680823018  14.455726701971455   1.665296494136190 
 -0.005744150091498   1.440252391554554   1.665343136497410 
 -1.260874293861621   3.609080449000420   1.665402729094515 
 -2.511569416165071   5.780469067283932   1.665343136497410 
 -3.755989786406098   7.953386450729556   1.665296494136190 
 -5.001698547763245  10.123785415716011   1.665496934126235 
 -6.253351421475934  12.291711786426054   1.665496934126235 
 -5.007642660118714  14.449342652530417   1.665496934126235 
  2.492911092961312   1.420063012161763   1.665640425494460 
  1.234169482686744   3.597098945731644   1.665269229432090 
 -0.023728691793692   5.775842494679975   1.665269229432090 
 -1.279726310088082   7.954462672778243   1.665640425494460 
 -2.510281025048869  10.123785415716011   1.665496934126235 
 -3.755989786406033  12.288279951557490   1.665192145084230 
 -2.504336912675848  14.449342652530417   1.665496934126235 
  5.007975213602424   1.423865190839929   1.665894040538940 
  3.725003327612391   3.549466210211206   1.665306218860680 
  2.465933557546867   5.760753965218910   1.665208298251140 
  1.180437071656719   7.956784248751894   1.665306218860680 
 -0.018901466433816  10.130671004046155   1.665894040538940 
 -1.258628151318692  12.291711786426054   1.665496934126235 
 -0.001861891971542  14.455726701971455   1.665296494136190 
  7.523039334226219   1.420063012161763   1.665640425494460 
  6.290947099592520   3.549466210211206   1.665306218860680 
  5.007975213602423   5.530548032029428   1.666388946514350 
  3.537590199321793   8.077329583451458   1.666388946514350 
  2.463408957646818  10.178956739969168   1.665306218860680 
  1.235337810553157  12.310681513992126   1.665640425494460 
  2.502149947520254  14.464485740078663   1.665343136497410 
 10.021694577278888   1.440252391554554   1.665343136497410 
  8.781780944500712   3.597098945731644   1.665269229432090 
  7.550016869658341   5.760753965218910   1.665208298251140 
  6.478360227865689   8.077329583451458   1.666388946514350 
  5.007975213593951  10.163699268479116   1.665208298251140 
  3.750077039113391  12.312265758505529   1.665269229432090 
  5.007975213593900  14.467046300916325   1.665402729094515 
 12.521743431937908   1.446723399301683   1.665592181865315 
 11.276824721049094   3.609080449000420   1.665402729094515 
 10.039679118981230   5.775842494679975   1.665269229432090 
  8.835513355530882   7.956784248751894   1.665306218860680 
  7.552541469540852  10.178956739969168   1.665306218860680 
  6.265873388074345  12.312265758505529   1.665269229432090 
  8.767983177689356  13.746314508275841   1.664963771164245 
 16.272383192665320   0.724887153729263   1.665009499698270 
 15.019807815000751   2.888964222646296   1.665129593386425 
 13.771949786403644   5.055764854317148   1.665009499698270 
 12.532671661495378   7.225682779654145   1.664963771164245 
 11.281677374377765   9.400539375172446   1.665272619115290 
 10.025967095428697  11.575493377898793   1.665272619115290 
 -6.258655952891646  13.733188669538736   1.664960154089280 
  1.243296302606279   0.713174529585705   1.664963771164245 
 -0.013153787760305   2.882631890181941   1.664894323456065 
 -1.266121947150205   5.052836402511382   1.664894323456065 
 -2.516702088670263   7.225682779654145   1.664963771164245 
 -3.755980213587232   9.398427134193339   1.664960154089280 
 -5.004637501194175  11.567355536631597   1.664964298546110 
 -3.755980213587176  13.730093400007814   1.664964298546110 
  3.752274507454638   0.709139064459663   1.665272619115290 
  2.476598020666933   2.853767343140678   1.665025256905320 
  1.223922673025095   5.043661326043943   1.664883462684480 
 -0.046243473942833   7.223456991247947   1.665025256905320 
 -1.265707801570010   9.400539375172446   1.665272619115290 
 -2.507322925980364  11.567355536631597   1.664964298546110 
 -1.253304474282690  13.733188669538736   1.664960154089280 
  6.263695065352733   0.709139064459663   1.665272619115290 
  5.007984786403665   2.860262621212957   1.665198157565505 
  3.697757600815853   4.975704686719356   1.664792351722185 
  2.401987960909537   7.220043537942400   1.664792351722185 
  1.225074984731909   9.412454598158972   1.665198157565505 
 -0.009997522620983  11.575493377898793   1.665272619115290 
  1.247986395118406  13.746314508275841   1.664963771164245 
  8.772673270200968   0.713174529585705   1.664963771164245 
  7.539371552140626   2.853767343140678   1.665025256905320 
  6.318211971991648   4.975704686719356   1.664792351722185 
  3.712215146488687   9.489423592853843   1.664792351722185 
  2.485143291785237  11.607947483126974   1.665025256905320 
  3.755016627005035  13.749703524822475   1.664894323456065 
 11.271516380124167   0.724887153729263   1.665009499698270 
 10.029123360567478   2.882631890181941   1.664894323456065 
  8.792046899782529   5.043661326043943   1.664883462684480 
  7.613981611898030   7.220043537942400   1.664792351722185 
  6.303754426301386   9.489423592853843   1.664792351722185 
  5.007984786395006  11.597849165427821   1.664883462684480 
  6.260952945802480  13.749703524822475   1.664894323456065 
 13.771949786403400   0.727610716483204   1.665129593386425 
 12.524091757806241   2.888964222646296   1.665129593386425 
 11.282091519975022   5.052836402511382   1.664894323456065 
 10.062213046768086   7.223456991247947   1.665025256905320 
  8.790894588075620   9.412454598158972   1.665198157565505 
  7.530826281022463  11.607947483126974   1.665025256905320 
