Species order:X N B                     
   2.51242800000000     
     5.9449720136058266    0.0000000000000000    0.0000000000000000
    -2.9724860068029120    5.1484967885702053   -0.0000000000000001
     0.0000000000000000    0.0000000000000009    5.3101128803662583
   C    N    B 
     4   142   142
Direct
  0.7150581395801432  0.6073850034119243  0.3750000000000000
  0.6054341608950520  0.5547800182853053  0.3750000000000000
  0.4405102835112673  0.3882064040804533  0.3750000000000000
  0.5523158280627811  0.4464311261694637  0.3750000000000000
  0.1111398990722579  0.0555656830225112  0.1252903353965379
  0.6110822768568750  0.5555947510084555  0.1248680382198749
  0.4444432405401281  0.0555921829300919  0.1253350816946367
  0.9444429129589946  0.5555758914575041  0.1253952708010447
  0.7777819490219989  0.0555697861770726  0.1252155474567762
  0.1110968346210624  0.7222369096683062  0.6247138477265066
  0.4444263140041055  0.7222373572675930  0.6246212641541513
  0.2778125640888168  0.2222539272298084  0.6243738008098427
  0.7777661038195061  0.7222426848446776  0.6242389959136608
  0.6111108458184509  0.2222608318368582  0.6245681785393246
  0.9444700835516009  0.2222469449123508  0.6248016995443982
  0.2777672413673440  0.7222531908839932  0.1252406811591999
  0.1111610886326226  0.2222466459578404  0.1253246990708526
  0.4444649666427801  0.2222989917327522  0.1258168957385230
  0.6110982283643571  0.7222169050047574  0.1255514134821252
  0.9444084090372317  0.7222144318610200  0.1256269224249054
  0.7777828865769083  0.2222463408781720  0.1252029733615767
  0.1111110081282499  0.8888896431056492  0.6246637759994976
  0.4444301821860351  0.8889121477479336  0.6247669648343480
  0.2778248155148791  0.3889352458708010  0.6243582237431674
  0.6111335350609353  0.3889577579542864  0.6241287531777269
  0.7777786952214853  0.8888970363183221  0.6246309394350164
  0.9444567212814654  0.3889213285663111  0.6247873719813102
  0.1111357069112629  0.3889299590425975  0.1252746495374356
  0.2777806260963033  0.8889114260337531  0.1252434131396354
  0.6110960371811250  0.8888911593396437  0.1253400754282974
  0.4444559241528653  0.3889384018839843  0.1257000121441024
  0.9444621459436149  0.8889000956631693  0.1253658383986271
  0.7777929000714864  0.3889090342829216  0.1253669132429379
  0.2777826063203533  0.5555860447922860  0.6246203299793937
  0.1111398990722579  0.0555656830225112  0.6247096646034626
  0.6110822768568750  0.5555947510084555  0.6251319617801251
  0.4444432405401281  0.0555921829300919  0.6246649183053630
  0.9444429129589942  0.5555758914575041  0.6246047291989548
  0.1111156896878351  0.5555904467573937  0.1252286237476318
  0.7777819490219989  0.0555697861770726  0.6247844525432238
  0.2777990237399650  0.0555803959268623  0.1254242912651107
  0.4444335060159171  0.5555660320932589  0.1256265989881511
  0.7777599224999253  0.5555590663525902  0.1259342418925711
  0.6110944289271136  0.0555744717463303  0.1252350723471401
  0.4444335060159170  0.5555660320932589  0.6243734010118487
  0.9444722168146987  0.0555575563622010  0.1252503014075158
  0.2777672413673440  0.7222531908839932  0.6247593188407997
  0.1111610886326227  0.2222466459578404  0.6246753009291472
  0.4444649666427801  0.2222989917327522  0.6241831042614775
  0.6110982283643571  0.7222169050047574  0.6244485865178740
  0.9444084090372317  0.7222144318610200  0.6243730775750951
  0.7777828865769083  0.2222463408781720  0.6247970266384232
  0.1110968346210625  0.7222369096683062  0.1252861522734941
  0.4444263140041055  0.7222373572675930  0.1253787358458485
  0.2778125640888168  0.2222539272298084  0.1256261991901575
  0.7777661038195061  0.7222426848446776  0.1257610040863386
  0.6111108458184509  0.2222608318368582  0.1254318214606759
  0.9444700835516009  0.2222469449123508  0.1251983004556017
  0.1111357069112629  0.3889299590425975  0.6247253504625644
  0.2777806260963033  0.8889114260337531  0.6247565868603655
  0.6110960371811250  0.8888911593396437  0.6246599245717029
  0.4444559241528653  0.3889384018839843  0.6242999878558978
  0.9444621459436149  0.8889000956631693  0.6246341616013725
  0.1111110081282500  0.8888896431056492  0.1253362240005015
  0.7777929000714864  0.3889090342829214  0.6246330867570616
  0.4444301821860351  0.8889121477479336  0.1252330351656530
  0.2778248155148789  0.3889352458708010  0.1256417762568320
  0.2777826063203533  0.5555860447922860  0.1253796700206059
  0.6111335350609353  0.3889577579542864  0.1258712468222736
  0.7777786952214853  0.8888970363183221  0.1253690605649826
  0.9444567212814654  0.3889213285663111  0.1252126280186902
  0.1111156896878351  0.5555904467573937  0.6247713762523690
  0.2777990237399650  0.0555803959268623  0.6245757087348900
  0.7777599224999253  0.5555590663525902  0.6240657581074284
  0.6110944289271136  0.0555744717463303  0.6247649276528603
  0.9444722168146987  0.0555575563622010  0.6247496985924834
  0.0557395389402875  0.1112790902669714  0.3750000000000000
  0.5551772614627098  0.6099237086715251  0.3750000000000000
  0.3896701657460782  0.1137537530494028  0.3750000000000000
  0.8880317532509255  0.6097624055821751  0.3750000000000000
  0.7221867750501383  0.1106862405514441  0.3750000000000000
  0.0555671374128142  0.7777739244665582  0.8750000000000000
  0.3889171873771994  0.7777791418606383  0.8750000000000000
  0.2222421705050062  0.2777799621384105  0.8750000000000000
  0.7222444365404539  0.7777823957334676  0.8750000000000000
  0.5555778400896696  0.2777863115622523  0.8750000000000000
  0.8889081872358217  0.2777820944855908  0.8750000000000000
  0.2222024587687318  0.7779609501608648  0.3750000000000000
  0.0557799923668899  0.2777677965880576  0.3750000000000000
  0.3907807885561163  0.2838198764676362  0.3750000000000000
  0.5553573825621473  0.7769603188325813  0.3750000000000000
  0.8885795439649334  0.7784152019368710  0.3750000000000000
  0.7226136236154357  0.2763529736279719  0.3750000000000000
  0.0555776896739109  0.9444503101920906  0.8750000000000000
  0.3889171694740420  0.9444544726362607  0.8750000000000000
  0.2222504592960348  0.4444452297185179  0.8750000000000000
  0.5555699039008341  0.4444436482260632  0.8750000000000000
  0.7222435034174258  0.9444431011799641  0.8750000000000000
  0.8889107592991260  0.4444427424310403  0.8750000000000000
  0.0563115713538736  0.4443346244656859  0.3750000000000000
  0.2225385330418992  0.9453440713945068  0.3750000000000000
  0.5553620477360492  0.9440085620944426  0.3750000000000000
  0.3894134061757105  0.4412617980483999  0.3750000000000000
  0.8890399263519289  0.9448645810288222  0.3750000000000000
  0.7233330614803152  0.4413812815872111  0.3750000000000000
  0.2222493812410224  0.6111100051995595  0.8750000000000000
  0.0555775978059149  0.1111120960112115  0.8750000000000000
  0.5555722622350988  0.6111049737458786  0.8750000000000000
  0.3889187830784525  0.1111237101106573  0.8750000000000000
  0.8889011074949837  0.6111034778755063  0.8750000000000000
  0.0558793217084531  0.6109495806104398  0.3750000000000000
  0.7222413644221857  0.1111120767540936  0.8750000000000000
  0.2234412143501428  0.1128713578870902  0.3750000000000000
  0.3892478937000292  0.6097380614672108  0.3750000000000000
  0.5555714474348510  0.1108135512513201  0.3750000000000000
  0.3889152558930005  0.6111095645787282  0.8750000000000000
  0.8890464210840496  0.1110879599146277  0.3750000000000000
  0.2222419954223787  0.7777802955566183  0.8750000000000000
  0.0555803547360380  0.2777794725009561  0.8750000000000000
  0.3889171608483622  0.2777882742260943  0.8750000000000000
  0.5555780501302551  0.7777746736054614  0.8750000000000000
  0.8889009626403440  0.7777747016267185  0.8750000000000000
  0.7222410987457294  0.2777766199961617  0.8750000000000000
  0.0547959178311295  0.7775435272257268  0.3750000000000000
  0.3889842784327831  0.7774153398102872  0.3750000000000000
  0.2217945113210129  0.2776847828184247  0.3750000000000000
  0.7222669858089990  0.7796657415719503  0.3750000000000000
  0.5565692977025543  0.2779044454690425  0.3750000000000000
  0.8893016655993670  0.2774513537642587  0.3750000000000000
  0.0555777106189990  0.4444455635473701  0.8750000000000000
  0.2222438158236211  0.9444517667016921  0.8750000000000000
  0.5555790768132515  0.9444449952011391  0.8750000000000000
  0.3889072482464789  0.4444401748599708  0.8750000000000000
  0.8889123265459909  0.9444518925922074  0.8750000000000000
  0.0561480250120119  0.9453037873083313  0.3750000000000000
  0.7222330630970042  0.4444440709604581  0.8750000000000000
  0.3889855353422424  0.9451186156038550  0.3750000000000000
  0.2230094049408074  0.4442173092391463  0.3750000000000000
  0.2227688501561505  0.6109330045665127  0.3750000000000000
  0.7220355389583979  0.9449161101481675  0.3750000000000000
  0.8898208919398393  0.4438506277269214  0.3750000000000000
  0.0555682496888419  0.6111054970429110  0.8750000000000000
  0.2222466845774643  0.1111156180543896  0.8750000000000000
  0.7222316505092015  0.6111051745043873  0.8750000000000000
  0.5555782930139295  0.1111188918737571  0.8750000000000000
  0.8889141594784341  0.1111146415958304  0.8750000000000000
  0.1114687051093934  0.0562307804246951  0.3750000000000000
  0.4447774000443820  0.0561870990883166  0.3750000000000000
  0.9451955096846124  0.5547529524777419  0.3750000000000000
  0.7779461809337261  0.0558683981812297  0.3750000000000000
  0.1111211683449178  0.7222015773556956  0.8750000000000000
  0.4444608234704400  0.7222695478964847  0.8750000000000000
  0.2777653312277999  0.2221940677267137  0.8750000000000000
  0.7778444458263482  0.7222876615126395  0.8750000000000000
  0.6111536292957864  0.2221826536772316  0.8750000000000000
  0.9444293002585344  0.2222229875411551  0.8750000000000000
  0.2777882738096598  0.7222560784715794  0.3750000000000000
  0.1097299026059958  0.2215150957456894  0.3750000000000000
  0.4463790124665825  0.2238947340367744  0.3750000000000000
  0.6118497836841588  0.7237859806755906  0.3750000000000000
  0.9440776786685319  0.7221056130519636  0.3750000000000000
  0.7783688254343114  0.2212815041095794  0.3750000000000000
  0.1111422381035591  0.8888829467488365  0.8750000000000000
  0.4444674633432623  0.8888845974934537  0.8750000000000000
  0.2777401178291022  0.3888866353423556  0.8750000000000000
  0.6111670920035225  0.3888723411209641  0.8750000000000000
  0.7778111313900454  0.8889467889246169  0.8750000000000000
  0.9444491139017540  0.3888590964591727  0.8750000000000000
  0.1110944735498548  0.3885781827154297  0.3750000000000000
  0.2778124942369376  0.8892346100977622  0.3750000000000000
  0.6111456527694821  0.8891321653233489  0.3750000000000000
  0.9451935899258919  0.8901108774601852  0.3750000000000000
  0.7793579538502818  0.3865543895759438  0.3750000000000000
  0.2777634260982660  0.5555552682174281  0.8750000000000000
  0.1110884471889847  0.0555476546388702  0.8750000000000000
  0.6111322615877998  0.5555743285184508  0.8750000000000000
  0.4444976524674706  0.0555458533070674  0.8750000000000000
  0.9444974910442189  0.5555485031825053  0.8750000000000000
  0.1114573589174763  0.5553894398346583  0.3750000000000000
  0.7777934752577151  0.0555557463014265  0.8750000000000000
  0.2779955419626288  0.0562529799832110  0.3750000000000000
  0.4441444150954497  0.5551844827541119  0.3750000000000000
  0.7783431326316587  0.5506273997301596  0.3750000000000000
  0.6112425399939482  0.0551147075527089  0.3750000000000000
  0.4444570634406862  0.5555872891613133  0.8750000000000000
  0.9445819057497545  0.0559828835784768  0.3750000000000000
  0.2778108140796073  0.7222404189122795  0.8750000000000000
  0.1110683474588945  0.2221837794822771  0.8750000000000000
  0.4444734164718082  0.2221932793995263  0.8750000000000000
  0.6111490946400000  0.7222730006609079  0.8750000000000000
  0.9444808560655358  0.7222305050635874  0.8750000000000000
  0.7778270595852195  0.2222195626012047  0.8750000000000000
  0.1110820620195308  0.7221139648448807  0.3750000000000000
  0.4442158875197953  0.7219652184602303  0.3750000000000000
  0.2764948222137747  0.2227663086620096  0.3750000000000000
  0.7787932874304996  0.7270129393655202  0.3750000000000000
  0.6121431817284797  0.2210240844812555  0.3750000000000000
  0.9444409445982371  0.2219940037414739  0.3750000000000000
  0.1111049267940046  0.3888883768034594  0.8750000000000000
  0.2777934419842586  0.8888879321268141  0.8750000000000000
  0.6111650464122887  0.8889330743100083  0.8750000000000000
  0.4444465054851280  0.3888691763056513  0.8750000000000000
  0.9444603002106732  0.8889077377359837  0.8750000000000000
  0.1111990996270468  0.8893254571481348  0.3750000000000000
  0.7778293470216057  0.3888681847421288  0.8750000000000000
  0.4443579033161826  0.8889529995980747  0.3750000000000000
  0.2751635922008828  0.3869968996447455  0.3750000000000000
  0.2776277408355377  0.5553429041389721  0.3750000000000000
  0.6136509932200171  0.3871153144382825  0.3750000000000000
  0.7784240162121550  0.8913209394054193  0.3750000000000000
  0.9453142579462600  0.3883092909466913  0.3750000000000000
  0.1111101479546003  0.5555580197877289  0.8750000000000000
  0.2777841954126721  0.0555100866650854  0.8750000000000000
  0.7778406035608534  0.5555422547483003  0.8750000000000000
  0.6111448225252532  0.0555658646031987  0.8750000000000000
  0.9444595134959387  0.0555665446598890  0.8750000000000000
  0.0555108812515390  0.1110590740510362  0.1248534739142381
  0.5555587195649595  0.6112597724577209  0.1243173054840989
  0.3888318205618003  0.1109194127339634  0.1249484961893675
  0.8890953051299558  0.6111641749742824  0.1250929716062397
  0.7222294309394807  0.1111258692815820  0.1248699767709441
  0.0556747524173216  0.7778181608815042  0.6250242945704536
  0.3888152299125507  0.7778733411036857  0.6251182425552279
  0.2220644635561386  0.2776930694830393  0.6252202331346229
  0.7222992224760215  0.7779926012190570  0.6251516194472321
  0.5556313594181216  0.2776500895081145  0.6250094172037254
  0.8889015285379294  0.2777945825186081  0.6251381447969140
  0.2222180148682399  0.7778071652814635  0.1248916853844177
  0.0554742362205552  0.2777944706997692  0.1248214378878057
  0.3887916568200525  0.2776589397848532  0.1246614298652584
  0.5554977912387543  0.7779438052008425  0.1248736864426434
  0.8890535020089002  0.7779273506940459  0.1250563552417253
  0.7223092251208746  0.2777429306717320  0.1248915525313713
  0.0555817993283124  0.9444373608600065  0.6250768998016770
  0.3888492114717718  0.9444017263799986  0.6251193812556892
  0.2220772673411796  0.4445258329920641  0.6251554175648429
  0.5556411292735612  0.4445342178717188  0.6256083430382540
  0.7222339713724413  0.9445538464607091  0.6251077936633136
  0.8889853072317332  0.4444513017612768  0.6251017852684376
  0.0555281492413333  0.4445010636582957  0.1248590992675871
  0.2222122152148022  0.9443527189394206  0.1249287848960757
  0.5555160892817592  0.9444987734502961  0.1248900171798826
  0.3887715619487794  0.4444994258246405  0.1244420336413314
  0.8889483733132398  0.9445222522620151  0.1248774281614124
  0.7224213424610246  0.4443942707064266  0.1250620237635338
  0.2221437363300227  0.6112081781816519  0.6251322999086169
  0.0555108812515390  0.1110590740510362  0.6251465260857615
  0.5555587195649595  0.6112597724577209  0.6256826945159008
  0.3888318205618003  0.1109194127339634  0.6250515038106321
  0.8890953051299553  0.6111641749742824  0.6249070283937597
  0.0556149316460709  0.6111646035688854  0.1249259959475275
  0.7222294309394807  0.1111258692815820  0.6251300232290563
  0.2221187701268043  0.1109618118332005  0.1248992739715539
  0.3887664467219667  0.6112604082302472  0.1248295513065667
  0.7223029355882484  0.6112026894570951  0.1245552270896399
  0.5555581441539518  0.1110410657987498  0.1249106717072857
  0.3887664467219667  0.6112604082302472  0.6251704486934333
  0.8888770550006272  0.1111426699454819  0.1248550895459496
  0.2222180148682399  0.7778071652814635  0.6251083146155820
  0.0554742362205552  0.2777944706997692  0.6251785621121945
  0.3887916568200525  0.2776589397848532  0.6253385701347414
  0.5554977912387543  0.7779438052008425  0.6251263135573565
  0.8890535020089014  0.7779273506940459  0.6249436447582746
  0.7223092251208746  0.2777429306717320  0.6251084474686283
  0.0556747524173216  0.7778181608815044  0.1249757054295465
  0.3888152299125507  0.7778733411036857  0.1248817574447717
  0.2220644635561386  0.2776930694830393  0.1247797668653769
  0.7222992224760215  0.7779926012190570  0.1248483805527684
  0.5556313594181216  0.2776500895081145  0.1249905827962746
  0.8889015285379294  0.2777945825186081  0.1248618552030859
  0.0555281492413333  0.4445010636582957  0.6251409007324120
  0.2222122152148022  0.9443527189394206  0.6250712151039242
  0.5555160892817592  0.9444987734502961  0.6251099828201166
  0.3887715619487795  0.4444994258246405  0.6255579663586697
  0.8889483733132398  0.9445222522620151  0.6251225718385872
  0.0555817993283124  0.9444373608600065  0.1249231001983229
  0.7224213424610242  0.4443942707064266  0.6249379762364662
  0.3888492114717720  0.9444017263799986  0.1248806187443104
  0.2220772673411796  0.4445258329920641  0.1248445824351561
  0.2221437363300227  0.6112081781816519  0.1248677000913825
  0.5556411292735612  0.4445342178717188  0.1243916569617455
  0.7222339713724413  0.9445538464607091  0.1248922063366875
  0.8889853072317332  0.4444513017612768  0.1248982147315615
  0.0556149316460710  0.6111646035688854  0.6250740040524723
  0.2221187701268043  0.1109618118332005  0.6251007260284465
  0.7223029355882484  0.6112026894570951  0.6254447729103607
  0.5555581441539518  0.1110410657987498  0.6250893282927145
  0.8888770550006272  0.1111426699454819  0.6251449104540507
 
  0.00000000E+00  0.00000000E+00  0.00000000E+00
  0.00000000E+00  0.00000000E+00  0.00000000E+00
  0.00000000E+00  0.00000000E+00  0.00000000E+00
  0.00000000E+00  0.00000000E+00  0.00000000E+00
  0.00000000E+00  0.00000000E+00  0.00000000E+00
  0.00000000E+00  0.00000000E+00  0.00000000E+00
  0.00000000E+00  0.00000000E+00  0.00000000E+00
  0.00000000E+00  0.00000000E+00  0.00000000E+00
  0.00000000E+00  0.00000000E+00  0.00000000E+00
  0.00000000E+00  0.00000000E+00  0.00000000E+00
  0.00000000E+00  0.00000000E+00  0.00000000E+00
  0.00000000E+00  0.00000000E+00  0.00000000E+00
  0.00000000E+00  0.00000000E+00  0.00000000E+00
  0.00000000E+00  0.00000000E+00  0.00000000E+00
  0.00000000E+00  0.00000000E+00  0.00000000E+00
  0.00000000E+00  0.00000000E+00  0.00000000E+00
  0.00000000E+00  0.00000000E+00  0.00000000E+00
  0.00000000E+00  0.00000000E+00  0.00000000E+00
  0.00000000E+00  0.00000000E+00  0.00000000E+00
  0.00000000E+00  0.00000000E+00  0.00000000E+00
  0.00000000E+00  0.00000000E+00  0.00000000E+00
  0.00000000E+00  0.00000000E+00  0.00000000E+00
  0.00000000E+00  0.00000000E+00  0.00000000E+00
  0.00000000E+00  0.00000000E+00  0.00000000E+00
  0.00000000E+00  0.00000000E+00  0.00000000E+00
  0.00000000E+00  0.00000000E+00  0.00000000E+00
  0.00000000E+00  0.00000000E+00  0.00000000E+00
  0.00000000E+00  0.00000000E+00  0.00000000E+00
  0.00000000E+00  0.00000000E+00  0.00000000E+00
  0.00000000E+00  0.00000000E+00  0.00000000E+00
  0.00000000E+00  0.00000000E+00  0.00000000E+00
  0.00000000E+00  0.00000000E+00  0.00000000E+00
  0.00000000E+00  0.00000000E+00  0.00000000E+00
  0.00000000E+00  0.00000000E+00  0.00000000E+00
  0.00000000E+00  0.00000000E+00  0.00000000E+00
  0.00000000E+00  0.00000000E+00  0.00000000E+00
  0.00000000E+00  0.00000000E+00  0.00000000E+00
  0.00000000E+00  0.00000000E+00  0.00000000E+00
  0.00000000E+00  0.00000000E+00  0.00000000E+00
  0.00000000E+00  0.00000000E+00  0.00000000E+00
  0.00000000E+00  0.00000000E+00  0.00000000E+00
  0.00000000E+00  0.00000000E+00  0.00000000E+00
  0.00000000E+00  0.00000000E+00  0.00000000E+00
  0.00000000E+00  0.00000000E+00  0.00000000E+00
  0.00000000E+00  0.00000000E+00  0.00000000E+00
  0.00000000E+00  0.00000000E+00  0.00000000E+00
  0.00000000E+00  0.00000000E+00  0.00000000E+00
  0.00000000E+00  0.00000000E+00  0.00000000E+00
  0.00000000E+00  0.00000000E+00  0.00000000E+00
  0.00000000E+00  0.00000000E+00  0.00000000E+00
  0.00000000E+00  0.00000000E+00  0.00000000E+00
  0.00000000E+00  0.00000000E+00  0.00000000E+00
  0.00000000E+00  0.00000000E+00  0.00000000E+00
  0.00000000E+00  0.00000000E+00  0.00000000E+00
  0.00000000E+00  0.00000000E+00  0.00000000E+00
  0.00000000E+00  0.00000000E+00  0.00000000E+00
  0.00000000E+00  0.00000000E+00  0.00000000E+00
  0.00000000E+00  0.00000000E+00  0.00000000E+00
  0.00000000E+00  0.00000000E+00  0.00000000E+00
  0.00000000E+00  0.00000000E+00  0.00000000E+00
  0.00000000E+00  0.00000000E+00  0.00000000E+00
  0.00000000E+00  0.00000000E+00  0.00000000E+00
  0.00000000E+00  0.00000000E+00  0.00000000E+00
  0.00000000E+00  0.00000000E+00  0.00000000E+00
  0.00000000E+00  0.00000000E+00  0.00000000E+00
  0.00000000E+00  0.00000000E+00  0.00000000E+00
  0.00000000E+00  0.00000000E+00  0.00000000E+00
  0.00000000E+00  0.00000000E+00  0.00000000E+00
  0.00000000E+00  0.00000000E+00  0.00000000E+00
  0.00000000E+00  0.00000000E+00  0.00000000E+00
  0.00000000E+00  0.00000000E+00  0.00000000E+00
  0.00000000E+00  0.00000000E+00  0.00000000E+00
  0.00000000E+00  0.00000000E+00  0.00000000E+00
  0.00000000E+00  0.00000000E+00  0.00000000E+00
  0.00000000E+00  0.00000000E+00  0.00000000E+00
  0.00000000E+00  0.00000000E+00  0.00000000E+00
  0.00000000E+00  0.00000000E+00  0.00000000E+00
  0.00000000E+00  0.00000000E+00  0.00000000E+00
  0.00000000E+00  0.00000000E+00  0.00000000E+00
  0.00000000E+00  0.00000000E+00  0.00000000E+00
  0.00000000E+00  0.00000000E+00  0.00000000E+00
  0.00000000E+00  0.00000000E+00  0.00000000E+00
  0.00000000E+00  0.00000000E+00  0.00000000E+00
  0.00000000E+00  0.00000000E+00  0.00000000E+00
  0.00000000E+00  0.00000000E+00  0.00000000E+00
  0.00000000E+00  0.00000000E+00  0.00000000E+00
  0.00000000E+00  0.00000000E+00  0.00000000E+00
  0.00000000E+00  0.00000000E+00  0.00000000E+00
  0.00000000E+00  0.00000000E+00  0.00000000E+00
  0.00000000E+00  0.00000000E+00  0.00000000E+00
  0.00000000E+00  0.00000000E+00  0.00000000E+00
  0.00000000E+00  0.00000000E+00  0.00000000E+00
  0.00000000E+00  0.00000000E+00  0.00000000E+00
  0.00000000E+00  0.00000000E+00  0.00000000E+00
  0.00000000E+00  0.00000000E+00  0.00000000E+00
  0.00000000E+00  0.00000000E+00  0.00000000E+00
  0.00000000E+00  0.00000000E+00  0.00000000E+00
  0.00000000E+00  0.00000000E+00  0.00000000E+00
  0.00000000E+00  0.00000000E+00  0.00000000E+00
  0.00000000E+00  0.00000000E+00  0.00000000E+00
  0.00000000E+00  0.00000000E+00  0.00000000E+00
  0.00000000E+00  0.00000000E+00  0.00000000E+00
  0.00000000E+00  0.00000000E+00  0.00000000E+00
  0.00000000E+00  0.00000000E+00  0.00000000E+00
  0.00000000E+00  0.00000000E+00  0.00000000E+00
  0.00000000E+00  0.00000000E+00  0.00000000E+00
  0.00000000E+00  0.00000000E+00  0.00000000E+00
  0.00000000E+00  0.00000000E+00  0.00000000E+00
  0.00000000E+00  0.00000000E+00  0.00000000E+00
  0.00000000E+00  0.00000000E+00  0.00000000E+00
  0.00000000E+00  0.00000000E+00  0.00000000E+00
  0.00000000E+00  0.00000000E+00  0.00000000E+00
  0.00000000E+00  0.00000000E+00  0.00000000E+00
  0.00000000E+00  0.00000000E+00  0.00000000E+00
  0.00000000E+00  0.00000000E+00  0.00000000E+00
  0.00000000E+00  0.00000000E+00  0.00000000E+00
  0.00000000E+00  0.00000000E+00  0.00000000E+00
  0.00000000E+00  0.00000000E+00  0.00000000E+00
  0.00000000E+00  0.00000000E+00  0.00000000E+00
  0.00000000E+00  0.00000000E+00  0.00000000E+00
  0.00000000E+00  0.00000000E+00  0.00000000E+00
  0.00000000E+00  0.00000000E+00  0.00000000E+00
  0.00000000E+00  0.00000000E+00  0.00000000E+00
  0.00000000E+00  0.00000000E+00  0.00000000E+00
  0.00000000E+00  0.00000000E+00  0.00000000E+00
  0.00000000E+00  0.00000000E+00  0.00000000E+00
  0.00000000E+00  0.00000000E+00  0.00000000E+00
  0.00000000E+00  0.00000000E+00  0.00000000E+00
  0.00000000E+00  0.00000000E+00  0.00000000E+00
  0.00000000E+00  0.00000000E+00  0.00000000E+00
  0.00000000E+00  0.00000000E+00  0.00000000E+00
  0.00000000E+00  0.00000000E+00  0.00000000E+00
  0.00000000E+00  0.00000000E+00  0.00000000E+00
  0.00000000E+00  0.00000000E+00  0.00000000E+00
  0.00000000E+00  0.00000000E+00  0.00000000E+00
  0.00000000E+00  0.00000000E+00  0.00000000E+00
  0.00000000E+00  0.00000000E+00  0.00000000E+00
  0.00000000E+00  0.00000000E+00  0.00000000E+00
  0.00000000E+00  0.00000000E+00  0.00000000E+00
  0.00000000E+00  0.00000000E+00  0.00000000E+00
  0.00000000E+00  0.00000000E+00  0.00000000E+00
  0.00000000E+00  0.00000000E+00  0.00000000E+00
  0.00000000E+00  0.00000000E+00  0.00000000E+00
  0.00000000E+00  0.00000000E+00  0.00000000E+00
  0.00000000E+00  0.00000000E+00  0.00000000E+00
  0.00000000E+00  0.00000000E+00  0.00000000E+00
  0.00000000E+00  0.00000000E+00  0.00000000E+00
  0.00000000E+00  0.00000000E+00  0.00000000E+00
  0.00000000E+00  0.00000000E+00  0.00000000E+00
  0.00000000E+00  0.00000000E+00  0.00000000E+00
  0.00000000E+00  0.00000000E+00  0.00000000E+00
  0.00000000E+00  0.00000000E+00  0.00000000E+00
  0.00000000E+00  0.00000000E+00  0.00000000E+00
  0.00000000E+00  0.00000000E+00  0.00000000E+00
  0.00000000E+00  0.00000000E+00  0.00000000E+00
  0.00000000E+00  0.00000000E+00  0.00000000E+00
  0.00000000E+00  0.00000000E+00  0.00000000E+00
  0.00000000E+00  0.00000000E+00  0.00000000E+00
  0.00000000E+00  0.00000000E+00  0.00000000E+00
  0.00000000E+00  0.00000000E+00  0.00000000E+00
  0.00000000E+00  0.00000000E+00  0.00000000E+00
  0.00000000E+00  0.00000000E+00  0.00000000E+00
  0.00000000E+00  0.00000000E+00  0.00000000E+00
  0.00000000E+00  0.00000000E+00  0.00000000E+00
  0.00000000E+00  0.00000000E+00  0.00000000E+00
  0.00000000E+00  0.00000000E+00  0.00000000E+00
  0.00000000E+00  0.00000000E+00  0.00000000E+00
  0.00000000E+00  0.00000000E+00  0.00000000E+00
  0.00000000E+00  0.00000000E+00  0.00000000E+00
  0.00000000E+00  0.00000000E+00  0.00000000E+00
  0.00000000E+00  0.00000000E+00  0.00000000E+00
  0.00000000E+00  0.00000000E+00  0.00000000E+00
  0.00000000E+00  0.00000000E+00  0.00000000E+00
  0.00000000E+00  0.00000000E+00  0.00000000E+00
  0.00000000E+00  0.00000000E+00  0.00000000E+00
  0.00000000E+00  0.00000000E+00  0.00000000E+00
  0.00000000E+00  0.00000000E+00  0.00000000E+00
  0.00000000E+00  0.00000000E+00  0.00000000E+00
  0.00000000E+00  0.00000000E+00  0.00000000E+00
  0.00000000E+00  0.00000000E+00  0.00000000E+00
  0.00000000E+00  0.00000000E+00  0.00000000E+00
  0.00000000E+00  0.00000000E+00  0.00000000E+00
  0.00000000E+00  0.00000000E+00  0.00000000E+00
  0.00000000E+00  0.00000000E+00  0.00000000E+00
  0.00000000E+00  0.00000000E+00  0.00000000E+00
  0.00000000E+00  0.00000000E+00  0.00000000E+00
  0.00000000E+00  0.00000000E+00  0.00000000E+00
  0.00000000E+00  0.00000000E+00  0.00000000E+00
  0.00000000E+00  0.00000000E+00  0.00000000E+00
  0.00000000E+00  0.00000000E+00  0.00000000E+00
  0.00000000E+00  0.00000000E+00  0.00000000E+00
  0.00000000E+00  0.00000000E+00  0.00000000E+00
  0.00000000E+00  0.00000000E+00  0.00000000E+00
  0.00000000E+00  0.00000000E+00  0.00000000E+00
  0.00000000E+00  0.00000000E+00  0.00000000E+00
  0.00000000E+00  0.00000000E+00  0.00000000E+00
  0.00000000E+00  0.00000000E+00  0.00000000E+00
  0.00000000E+00  0.00000000E+00  0.00000000E+00
  0.00000000E+00  0.00000000E+00  0.00000000E+00
  0.00000000E+00  0.00000000E+00  0.00000000E+00
  0.00000000E+00  0.00000000E+00  0.00000000E+00
  0.00000000E+00  0.00000000E+00  0.00000000E+00
  0.00000000E+00  0.00000000E+00  0.00000000E+00
  0.00000000E+00  0.00000000E+00  0.00000000E+00
  0.00000000E+00  0.00000000E+00  0.00000000E+00
  0.00000000E+00  0.00000000E+00  0.00000000E+00
  0.00000000E+00  0.00000000E+00  0.00000000E+00
  0.00000000E+00  0.00000000E+00  0.00000000E+00
  0.00000000E+00  0.00000000E+00  0.00000000E+00
  0.00000000E+00  0.00000000E+00  0.00000000E+00
  0.00000000E+00  0.00000000E+00  0.00000000E+00
  0.00000000E+00  0.00000000E+00  0.00000000E+00
  0.00000000E+00  0.00000000E+00  0.00000000E+00
  0.00000000E+00  0.00000000E+00  0.00000000E+00
  0.00000000E+00  0.00000000E+00  0.00000000E+00
  0.00000000E+00  0.00000000E+00  0.00000000E+00
  0.00000000E+00  0.00000000E+00  0.00000000E+00
  0.00000000E+00  0.00000000E+00  0.00000000E+00
  0.00000000E+00  0.00000000E+00  0.00000000E+00
  0.00000000E+00  0.00000000E+00  0.00000000E+00
  0.00000000E+00  0.00000000E+00  0.00000000E+00
  0.00000000E+00  0.00000000E+00  0.00000000E+00
  0.00000000E+00  0.00000000E+00  0.00000000E+00
  0.00000000E+00  0.00000000E+00  0.00000000E+00
  0.00000000E+00  0.00000000E+00  0.00000000E+00
  0.00000000E+00  0.00000000E+00  0.00000000E+00
  0.00000000E+00  0.00000000E+00  0.00000000E+00
  0.00000000E+00  0.00000000E+00  0.00000000E+00
  0.00000000E+00  0.00000000E+00  0.00000000E+00
  0.00000000E+00  0.00000000E+00  0.00000000E+00
  0.00000000E+00  0.00000000E+00  0.00000000E+00
  0.00000000E+00  0.00000000E+00  0.00000000E+00
  0.00000000E+00  0.00000000E+00  0.00000000E+00
  0.00000000E+00  0.00000000E+00  0.00000000E+00
  0.00000000E+00  0.00000000E+00  0.00000000E+00
  0.00000000E+00  0.00000000E+00  0.00000000E+00
  0.00000000E+00  0.00000000E+00  0.00000000E+00
  0.00000000E+00  0.00000000E+00  0.00000000E+00
  0.00000000E+00  0.00000000E+00  0.00000000E+00
  0.00000000E+00  0.00000000E+00  0.00000000E+00
  0.00000000E+00  0.00000000E+00  0.00000000E+00
  0.00000000E+00  0.00000000E+00  0.00000000E+00
  0.00000000E+00  0.00000000E+00  0.00000000E+00
  0.00000000E+00  0.00000000E+00  0.00000000E+00
  0.00000000E+00  0.00000000E+00  0.00000000E+00
  0.00000000E+00  0.00000000E+00  0.00000000E+00
  0.00000000E+00  0.00000000E+00  0.00000000E+00