B Ge N                                  
   1.0000000000000000     
     8.7639499999999995  -15.1796066749929999    0.0000000000000000
     8.7639499999999995   15.1796066749929999    0.0000000000000000
     0.0000000000000000    0.0000000000000000   15.0000000000000000
   B    Ge   N 
    48     1    48
Selective dynamics
Direct
  0.9055191380713765  0.9535824048115060  0.1162584633587755   T   T   T
  0.9044529828667507  0.0960100146893836  0.1145262244016507   T   T   T
  0.9040388223211622  0.2388077287987755  0.1109902417451707   T   T   T
  0.9039897210019205  0.3816147687411160  0.1090923687459480   T   T   T
  0.9042259754310038  0.5243281336422214  0.1087527989266803   T   T   T
  0.9051367338405925  0.6671793185450454  0.1082623374034526   T   T   T
  0.9059606424567761  0.8106358005817569  0.1136113051812373   T   T   T
  0.0475520620000509  0.9520299100922287  0.1165833173488622   T   T   T
  0.0466399142251390  0.0946332288946152  0.1151784179704762   T   T   T
  0.0464202189049914  0.2378919481919013  0.1106046679012920   T   T   T
  0.0467574991530952  0.3810735621844259  0.1076251290662427   T   T   T
  0.0474650953242417  0.5238830957418230  0.1078751017498334   T   T   T
  0.0479408456818149  0.6665745531541063  0.1097915635474749   T   T   T
  0.0479781178605450  0.8093284406305301  0.1133490872153189   T   T   T
  0.1902725343970957  0.9514364313307624  0.1149452273922407   T   T   T
  0.1889304588744025  0.0933121744760825  0.1148133082234679   T   T   T
  0.1875281694428708  0.2354448116815533  0.1108568661946663   T   T   T
  0.1887488957394226  0.3798817068743219  0.1059622301441863   T   T   T
  0.1906239802661602  0.5232898005934246  0.1060167905820251   T   T   T
  0.1911265975406238  0.6661807147807508  0.1082219204849153   T   T   T
  0.1908207325060971  0.8089190012612164  0.1114614921543264   T   T   T
  0.3333175878162535  0.9516200811566904  0.1125473143804427   T   T   T
  0.3324833092601693  0.0938282420946663  0.1152373247415142   T   T   T
  0.3297487807599992  0.2339719429358595  0.1146688322332992   T   T   T
  0.3274378044380057  0.3757727323926900  0.1089763509781037   T   T   T
  0.3337653759880510  0.5220086634325867  0.1054078982089450   T   T   T
  0.3345880831888053  0.6656791417884449  0.1084732067442573   T   T   T
  0.3338652060088165  0.8088542206067757  0.1098466798097490   T   T   T
  0.4763108225528967  0.9525309435858986  0.1112008594108360   T   T   T
  0.4757498704927272  0.0952484364460346  0.1130339662143101   T   T   T
  0.4748893614840668  0.2375460168924093  0.1161598903999277   T   T   T
  0.4676219810312219  0.3714732791969979  0.1336266342813843   T   T   T
  0.4784080928987606  0.6669654809023697  0.1142644488385400   T   T   T
  0.4769816393378861  0.8097527948768146  0.1107148196923333   T   T   T
  0.6193016401803035  0.9536552505601392  0.1126293630599804   T   T   T
  0.6187175248203403  0.0962824265661624  0.1122068591846030   T   T   T
  0.6182469265741588  0.2392897940685970  0.1129833749380822   T   T   T
  0.6180138839401366  0.3831049160955544  0.1116450965568703   T   T   T
  0.6255177516952557  0.5307895542825563  0.0739615192418270   T   T   T
  0.6248341464421685  0.6730295519264757  0.1077300178647747   T   T   T
  0.6204808960209149  0.8117717407440139  0.1128110413332735   T   T   T
  0.7625028478683546  0.9540957824519012  0.1146010754587934   T   T   T
  0.7616437945290215  0.0964481492809597  0.1131227139728423   T   T   T
  0.7612165733851981  0.2391922058805704  0.1112938919936042   T   T   T
  0.7609162594528911  0.3820355952003780  0.1098292044540656   T   T   T
  0.7608010021549205  0.5247433167862994  0.1048882069767672   T   T   T
  0.7642776831742566  0.6696997866910408  0.1033629518919454   T   T   T
  0.7646860851212480  0.8128808955626923  0.1117624116204254   T   T   T
  0.4937094465990981  0.5070818877628085  0.1164957019812718   T   T   T
  0.9528253105593549  0.9054827312847991  0.1166213887536500   T   T   T
  0.9520612195459961  0.0482636032159220  0.1162453718635987   T   T   T
  0.9515186870970211  0.1910015642702518  0.1121924490262600   T   T   T
  0.9515654858129707  0.3339130632745722  0.1090802217452378   T   T   T
  0.9519664636379872  0.4767052874125994  0.1085549194339706   T   T   T
  0.9526204091142887  0.6194189827411449  0.1090504306103384   T   T   T
  0.9529585106356748  0.7623462819910074  0.1120315267334178   T   T   T
  0.0952505623639226  0.9043708125481302  0.1156445962291812   T   T   T
  0.0942530127252041  0.0468227082607200  0.1162518288794061   T   T   T
  0.0931898728844445  0.1893057227380339  0.1122700790195452   T   T   T
  0.0938467397284910  0.3330005765951967  0.1074714855487002   T   T   T
  0.0951243416570549  0.4762153551967430  0.1067844148734451   T   T   T
  0.0956892367121895  0.6189938683271023  0.1084875163864538   T   T   T
  0.0956399667870684  0.7616897092568209  0.1115257330966557   T   T   T
  0.2381690874296538  0.9040651128938606  0.1131724088059016   T   T   T
  0.2373693736057874  0.0464544394862685  0.1154686101508489   T   T   T
  0.2353767763648591  0.1879030503418875  0.1124003964586393   T   T   T
  0.2338619083947506  0.3299003512613794  0.1074063189259107   T   T   T
  0.2379428533874730  0.4752600245891401  0.1047687155002777   T   T   T
  0.2390152650280299  0.6185420252956959  0.1068936906030657   T   T   T
  0.2386205562566062  0.7613803553039205  0.1095919785590809   T   T   T
  0.3811278304877135  0.9042344833514022  0.1108873403285386   T   T   T
  0.3805757265739800  0.0468814622705267  0.1137230636536160   T   T   T
  0.3795634804151504  0.1889273004120753  0.1164271292417141   T   T   T
  0.3756844412416456  0.3286928182634341  0.1179364597206458   T   T   T
  0.3760919466003614  0.4693310549149530  0.1031374970452674   T   T   T
  0.3826649620196818  0.6177277065425884  0.1095258903014553   T   T   T
  0.3816822126996584  0.7612155409370374  0.1094265813341480   T   T   T
  0.5241218241872545  0.9051847146790521  0.1111291845055291   T   T   T
  0.5235582096220739  0.0479543727333080  0.1119183894961466   T   T   T
  0.5229896874839923  0.1907295273536107  0.1136902536628099   T   T   T
  0.5220779872340131  0.3336234961654796  0.1204479631094699   T   T   T
  0.5314738469852287  0.6253784460029905  0.1194657324009967   T   T   T
  0.5250760796183016  0.7626874472616123  0.1121550563975262   T   T   T
  0.6673780641865861  0.9066786021316346  0.1137531478794003   T   T   T
  0.6664965152045355  0.0488640294440614  0.1126527271391637   T   T   T
  0.6659639889752071  0.1916917883105569  0.1121666484561388   T   T   T
  0.6653373863208500  0.3348965781032049  0.1120580396222550   T   T   T
  0.6647957902166866  0.4776296771753366  0.0999128660177675   T   T   T
  0.6702819381318008  0.6245080165941133  0.0931629874968465   T   T   T
  0.6703612157275032  0.7667428738142945  0.1106684109503320   T   T   T
  0.8109428817548618  0.9072515955066009  0.1148352636770298   T   T   T
  0.8094616063798057  0.0490229994446807  0.1145912747093192   T   T   T
  0.8088895846942563  0.1915700070748656  0.1118251253285010   T   T   T
  0.8086153516570320  0.3343554377032731  0.1099045460775017   T   T   T
  0.8085856322996534  0.4771185633497481  0.1087957369642041   T   T   T
  0.8100972558695290  0.6202627415799853  0.1035811099115591   T   T   T
  0.8113487656555236  0.7643056762829588  0.1109911308458678   T   T   T

  0.00000000E+00  0.00000000E+00  0.00000000E+00
  0.00000000E+00  0.00000000E+00  0.00000000E+00
  0.00000000E+00  0.00000000E+00  0.00000000E+00
  0.00000000E+00  0.00000000E+00  0.00000000E+00
  0.00000000E+00  0.00000000E+00  0.00000000E+00
  0.00000000E+00  0.00000000E+00  0.00000000E+00
  0.00000000E+00  0.00000000E+00  0.00000000E+00
  0.00000000E+00  0.00000000E+00  0.00000000E+00
  0.00000000E+00  0.00000000E+00  0.00000000E+00
  0.00000000E+00  0.00000000E+00  0.00000000E+00
  0.00000000E+00  0.00000000E+00  0.00000000E+00
  0.00000000E+00  0.00000000E+00  0.00000000E+00
  0.00000000E+00  0.00000000E+00  0.00000000E+00
  0.00000000E+00  0.00000000E+00  0.00000000E+00
  0.00000000E+00  0.00000000E+00  0.00000000E+00
  0.00000000E+00  0.00000000E+00  0.00000000E+00
  0.00000000E+00  0.00000000E+00  0.00000000E+00
  0.00000000E+00  0.00000000E+00  0.00000000E+00
  0.00000000E+00  0.00000000E+00  0.00000000E+00
  0.00000000E+00  0.00000000E+00  0.00000000E+00
  0.00000000E+00  0.00000000E+00  0.00000000E+00
  0.00000000E+00  0.00000000E+00  0.00000000E+00
  0.00000000E+00  0.00000000E+00  0.00000000E+00
  0.00000000E+00  0.00000000E+00  0.00000000E+00
  0.00000000E+00  0.00000000E+00  0.00000000E+00
  0.00000000E+00  0.00000000E+00  0.00000000E+00
  0.00000000E+00  0.00000000E+00  0.00000000E+00
  0.00000000E+00  0.00000000E+00  0.00000000E+00
  0.00000000E+00  0.00000000E+00  0.00000000E+00
  0.00000000E+00  0.00000000E+00  0.00000000E+00
  0.00000000E+00  0.00000000E+00  0.00000000E+00
  0.00000000E+00  0.00000000E+00  0.00000000E+00
  0.00000000E+00  0.00000000E+00  0.00000000E+00
  0.00000000E+00  0.00000000E+00  0.00000000E+00
  0.00000000E+00  0.00000000E+00  0.00000000E+00
  0.00000000E+00  0.00000000E+00  0.00000000E+00
  0.00000000E+00  0.00000000E+00  0.00000000E+00
  0.00000000E+00  0.00000000E+00  0.00000000E+00
  0.00000000E+00  0.00000000E+00  0.00000000E+00
  0.00000000E+00  0.00000000E+00  0.00000000E+00
  0.00000000E+00  0.00000000E+00  0.00000000E+00
  0.00000000E+00  0.00000000E+00  0.00000000E+00
  0.00000000E+00  0.00000000E+00  0.00000000E+00
  0.00000000E+00  0.00000000E+00  0.00000000E+00
  0.00000000E+00  0.00000000E+00  0.00000000E+00
  0.00000000E+00  0.00000000E+00  0.00000000E+00
  0.00000000E+00  0.00000000E+00  0.00000000E+00
  0.00000000E+00  0.00000000E+00  0.00000000E+00
  0.00000000E+00  0.00000000E+00  0.00000000E+00
  0.00000000E+00  0.00000000E+00  0.00000000E+00
  0.00000000E+00  0.00000000E+00  0.00000000E+00
  0.00000000E+00  0.00000000E+00  0.00000000E+00
  0.00000000E+00  0.00000000E+00  0.00000000E+00
  0.00000000E+00  0.00000000E+00  0.00000000E+00
  0.00000000E+00  0.00000000E+00  0.00000000E+00
  0.00000000E+00  0.00000000E+00  0.00000000E+00
  0.00000000E+00  0.00000000E+00  0.00000000E+00
  0.00000000E+00  0.00000000E+00  0.00000000E+00
  0.00000000E+00  0.00000000E+00  0.00000000E+00
  0.00000000E+00  0.00000000E+00  0.00000000E+00
  0.00000000E+00  0.00000000E+00  0.00000000E+00
  0.00000000E+00  0.00000000E+00  0.00000000E+00
  0.00000000E+00  0.00000000E+00  0.00000000E+00
  0.00000000E+00  0.00000000E+00  0.00000000E+00
  0.00000000E+00  0.00000000E+00  0.00000000E+00
  0.00000000E+00  0.00000000E+00  0.00000000E+00
  0.00000000E+00  0.00000000E+00  0.00000000E+00
  0.00000000E+00  0.00000000E+00  0.00000000E+00
  0.00000000E+00  0.00000000E+00  0.00000000E+00
  0.00000000E+00  0.00000000E+00  0.00000000E+00
  0.00000000E+00  0.00000000E+00  0.00000000E+00
  0.00000000E+00  0.00000000E+00  0.00000000E+00
  0.00000000E+00  0.00000000E+00  0.00000000E+00
  0.00000000E+00  0.00000000E+00  0.00000000E+00
  0.00000000E+00  0.00000000E+00  0.00000000E+00
  0.00000000E+00  0.00000000E+00  0.00000000E+00
  0.00000000E+00  0.00000000E+00  0.00000000E+00
  0.00000000E+00  0.00000000E+00  0.00000000E+00
  0.00000000E+00  0.00000000E+00  0.00000000E+00
  0.00000000E+00  0.00000000E+00  0.00000000E+00
  0.00000000E+00  0.00000000E+00  0.00000000E+00
  0.00000000E+00  0.00000000E+00  0.00000000E+00
  0.00000000E+00  0.00000000E+00  0.00000000E+00
  0.00000000E+00  0.00000000E+00  0.00000000E+00
  0.00000000E+00  0.00000000E+00  0.00000000E+00
  0.00000000E+00  0.00000000E+00  0.00000000E+00
  0.00000000E+00  0.00000000E+00  0.00000000E+00
  0.00000000E+00  0.00000000E+00  0.00000000E+00
  0.00000000E+00  0.00000000E+00  0.00000000E+00
  0.00000000E+00  0.00000000E+00  0.00000000E+00
  0.00000000E+00  0.00000000E+00  0.00000000E+00
  0.00000000E+00  0.00000000E+00  0.00000000E+00
  0.00000000E+00  0.00000000E+00  0.00000000E+00
  0.00000000E+00  0.00000000E+00  0.00000000E+00
  0.00000000E+00  0.00000000E+00  0.00000000E+00
  0.00000000E+00  0.00000000E+00  0.00000000E+00
  0.00000000E+00  0.00000000E+00  0.00000000E+00
