 N In B 
 1.0
 17.527899999999772   0.000000000000000   0.000000000000000
 -8.763949999999658  15.179606674993195   0.000000000000000
  0.000000000000001   0.000000000000002  15.000000000000000
 N In B 
  47   1  49
Cartesian
  8.769400809863393  13.710435870258738   1.798135751615430 
 16.280705195491940   0.700070062823415   1.798240732995405 
 15.029395627026528   2.868671910184778   1.795525662972150 
 13.778948749517953   5.037117786706107   1.781878960211160 
 12.528973666573011   7.204949203702851   1.785346818548940 
 11.276989672262790   9.372475127528078   1.798561830776640 
 10.022463130591429  11.540480668646977   1.801417279596090 
 -6.254184997594137  13.709858102815533   1.816839706858095 
  1.257903896578707   0.698599360572819   1.834413756935085 
  0.002350614754146   2.863229060345323   1.843676306371800 
 -1.249398893142260   5.037231550502371   1.813314728078280 
 -2.499065720871318   7.205981964221797   1.774756705176165 
 -3.748439687704678   9.374374291986200   1.779037257851865 
 -5.001760816637774  11.541900494644180   1.796596731611400 
 -3.750013306755737  13.710582904940070   1.798636682690955 
  3.763795731017761   0.698666040104271   1.814583598804770 
  2.512687005968364   2.865873279032672   1.804481125566495 
  1.245752267054849   5.021145793974691   1.801818103194555 
 -0.000310229180933   7.208127019707633   1.667506496966055 
 -1.247190404717870   9.375697708571767   1.688946544716240 
 -2.499159635796371  11.543516087587740   1.746639428537760 
 -1.246565717331826  13.712958958037326   1.755392834318670 
  6.268369616895149   0.699475097005902   1.780988347301685 
  5.020173987830754   2.866013995522422   1.743588973617555 
  3.774054712213391   5.037000449429028   1.679486232118605 
  2.461379752315722   7.148236484327898   1.402633806066855 
  1.234648247080351   9.381034683817592   1.304554239192660 
 -0.000965929714023  11.547907885681846   1.606287303148545 
  1.254048456515060  13.721200225359166   1.708982981640315 
  8.771872957379587   0.702707942596910   1.763864796722550 
  7.525132939053016   2.865147295491052   1.718510268323595 
  6.279968628882187   5.031963387985062   1.677464557019340 
  2.483102088369929  11.574749320221324   1.381983429733650 
  3.760246079787481  13.710333284829554   1.658889007710840 
 11.275793589723188   0.701940680020236   1.743479519572875 
 10.029248069349885   2.868308348831446   1.745521377784980 
  8.779378561682719   5.033145838942152   1.679710903469070 
  7.541301053278022   7.194362857005336   1.483064893052625 
  6.300523425106968   9.379226035514717   1.344714955551360 
  5.031533220828907  11.563089642083904   1.464327067916460 
  6.266807238300186  13.716520586826491   1.742694257291790 
 13.777344561075445   0.700737714478723   1.747555355672910 
 12.528402546772966   2.869257304593594   1.757085163843350 
 11.279928377250567   5.035649294231686   1.748438100234345 
 10.029762411423043   7.201337294880847   1.740871198407900 
  8.776344920088478   9.368759585895246   1.722483212161170 
  7.520874377706619  11.541737944598712   1.709325586054620 
  4.223769542419629   7.577362323219242   0.142754458566510 
  7.514855048908784  14.433374443028418   1.782372307596690 
 15.028819069564999   1.422834093382751   1.779782772912450 
 13.780531437753773   3.592501942537161   1.776488442447840 
 12.530927604778363   5.760311563318321   1.771447550801700 
 11.278288756652454   7.927080915952163   1.780643256279345 
 10.021301773228341  10.093105694662761   1.783460049674400 
  8.764913882115941  12.261396547370419   1.776427379750925 
 -7.508313074756076  14.432943752136907   1.818509159800695 
  0.003929466812062   1.422314215584670   1.827671990652750 
 -1.245123451861271   3.594559857400191   1.822264625638530 
 -2.494561372634452   5.762135571630466   1.790351565999840 
 -3.744691957099409   7.928602465379433   1.781151237074310 
 -4.998456376873049  10.095196109036920   1.793020145194590 
 -6.255145643240832  12.263021991309172   1.807180695981570 
 -5.001552027858140  14.432964504340434   1.813312573667190 
  2.510654185221317   1.424994903938325   1.822009653861510 
  1.254779962172669   3.591148758191263   1.827438368002110 
  0.008418507104937   5.767865644368587   1.766498359097400 
 -1.238851790497133   7.928279158160360   1.710971589515775 
 -2.490249885057558  10.095226947495224   1.742383480646310 
 -3.747275564137861  12.263301511908589   1.782997159820640 
 -2.495453328004253  14.432086924773717   1.782921683278710 
  5.016701817457014   1.422359622853245   1.782206824172310 
  3.767641831418557   3.593990706590039   1.739891107830675 
  2.482087527771100   5.777074544855606   1.646349422043525 
  1.276521714302926   7.915946035180855   1.434693313911585 
  0.016625085193937  10.090942291092999   1.546281669926715 
 -1.241240165239975  12.262660851353433   1.708303267727400 
  0.007155378225150  14.434860729562253   1.748908699090710 
  7.521561030970346   1.421121105556802   1.755033427748295 
  6.272836594621409   3.585629712942805   1.711384716269130 
  5.033012060490963   5.740250171037323   1.695929255228970 
  3.768621668394875   9.706782660697863   0.115413682005840 
  2.421175315917759  10.164416985888337   0.927859135472445 
  1.255072687842623  12.273996181726316   1.583003155514790 
  2.510454631253022  14.431270541847431   1.703769330250005 
 10.025396635597204   1.421683467136316   1.752860014311780 
  8.776500985202501   3.589388819812435   1.716823197119130 
  7.531833723091676   5.757190149892578   1.606150878139905 
  6.344664432180296   7.937521200586953   1.175774350269360 
  5.093129725392401  10.168917473835808   0.989929346935875 
  3.755613369809132  12.260439384087674   1.483852460485455 
  5.010382683723897  14.429893108610443   1.716228822381330 
 12.527318150805772   1.422493997910768   1.747073970231855 
 11.278739056341093   3.590940231698864   1.748861046843225 
 10.030019999968044   5.757536153811547   1.718030878417845 
  8.778578273639607   7.924334232266150   1.657617166900050 
  7.518364983968070  10.091911131569274   1.627084600026570 
  6.260989973713928  12.267142816771829   1.660537481603760 
