Species order: N B                      
   2.51242800000000     
     5.9449720136058266    0.0000000000000000    0.0000000000000000
    -2.9724860068029120    5.1484967885702053   -0.0000000000000001
     0.0000000000000000    0.0000000000000009    5.3101128803662583
   N    B 
   143   143
Direct
  0.1110730033391609  0.0555584653945747  0.1248339389766928
  0.6111207514974940  0.5555430069201364  0.1249091790847408
  0.4444762863157797  0.0555621686537728  0.1248329565326816
  0.9444440887946907  0.5555444062275602  0.1248743239182100
  0.7777307713310796  0.0555320523322076  0.1248644501002580
  0.1111272328451951  0.7222302830892613  0.6251370654924598
  0.4444762863157797  0.7222474509953432  0.6251670434673190
  0.2777278592999162  0.2222094689766897  0.6242993179564795
  0.7777633074990086  0.7222218639513468  0.6251723482065364
  0.6111077669313966  0.2222098175610649  0.6250784114659367
  0.9443744237333027  0.2221806461362468  0.6252020631223243
  0.2778065859965546  0.7222276751580966  0.1248257715580455
  0.1110285257655018  0.2221809295494155  0.1248613517601674
  0.4444954150774750  0.2222176871203362  0.1254711480858668
  0.6111077669313966  0.7222312827036592  0.1249215885340633
  0.9444440887946907  0.7222330159004652  0.1248743239182100
  0.7777410646963949  0.2221977731953106  0.1248787296080052
  0.1111166227922633  0.8889139806971986  0.6251707292188052
  0.4444712705247019  0.8889023019290152  0.6251739239775871
  0.2777278592999162  0.3888517236565550  0.6242993179564795
  0.6111207514974940  0.3889110779106865  0.6250908209152594
  0.7777410646963949  0.8888766248344135  0.6251212703919951
  0.9444180012202448  0.3888564596785551  0.6251721851784843
  0.1110730033391609  0.3888478712779145  0.1248339389766928
  0.2778065859965546  0.8889122441717875  0.1248257715580455
  0.6111096437824542  0.8888987716726937  0.1248433834342297
  0.4445044417142196  0.3889188875237740  0.1256318335856521
  0.9444180012202448  0.8888948748750184  0.1248278148215163
  0.7777633074990086  0.3888747768809893  0.1248276517934639
  0.2777920586179022  0.5555455782025072  0.6249952540104203
  0.1110730033391609  0.0555584653945747  0.6251660610233073
  0.6111207514974940  0.5555430069201364  0.6250908209152594
  0.4444762863157797  0.0555621686537728  0.6251670434673190
  0.9444440887946907  0.5555444062275602  0.6251256760817909
  0.1111166227922633  0.5555359754283936  0.1248292707811960
  0.7777307713310796  0.0555320523322076  0.6251355498997414
  0.2777920586179022  0.0555798137487312  0.1250047459895794
  0.4444954150774750  0.5556110612904740  0.1254711480858668
  0.7777791014508122  0.5555562173920742  0.1248699550514878
  0.6111096437824542  0.0555442054430872  0.1248433834342297
  0.4444954150774750  0.5556110612904740  0.6245288519141332
  0.9443744237333027  0.0555271109303908  0.1247979368776756
  0.2778065859965546  0.7222276751580966  0.6251742284419542
  0.1110285257655018  0.2221809295494155  0.6251386482398318
  0.4444954150774750  0.2222176871203362  0.6245288519141332
  0.6111077669313966  0.7222312827036592  0.6250784114659367
  0.9444440887946907  0.7222330159004652  0.6251256760817909
  0.7777410646963949  0.2221977731953106  0.6251212703919951
  0.1111272328451951  0.7222302830892613  0.1248629345075398
  0.4444762863157797  0.7222474509953432  0.1248329565326816
  0.2777278592999162  0.2222094689766897  0.1257006820435209
  0.7777633074990086  0.7222218639513468  0.1248276517934639
  0.6111077669313966  0.2222098175610649  0.1249215885340633
  0.9443744237333027  0.2221806461362468  0.1247979368776756
  0.1110730033391609  0.3888478712779145  0.6251660610233073
  0.2778065859965546  0.8889122441717875  0.6251742284419542
  0.6111096437824542  0.8888987716726937  0.6251566165657704
  0.4445044417142196  0.3889188875237740  0.6243681664143479
  0.9444180012202448  0.8888948748750184  0.6251721851784843
  0.1111166227922633  0.8889139806971986  0.1248292707811960
  0.7777633074990086  0.3888747768809893  0.6251723482065364
  0.4444712705247019  0.8889023019290152  0.1248260760224126
  0.2777278592999162  0.3888517236565550  0.1257006820435209
  0.2777920586179022  0.5555455782025072  0.1250047459895794
  0.6111207514974940  0.3889110779106865  0.1249091790847408
  0.7777410646963949  0.8888766248344135  0.1248787296080052
  0.9444180012202448  0.3888564596785551  0.1248278148215163
  0.1111166227922633  0.5555359754283936  0.6251707292188052
  0.2777920586179022  0.0555798137487312  0.6249952540104203
  0.7777791014508122  0.5555562173920742  0.6251300449485123
  0.6111096437824542  0.0555442054430872  0.6251566165657704
  0.9443744237333027  0.0555271109303908  0.6252020631223243
  0.0541982910165981  0.1100998738969211  0.3750000000000000
  0.5569464604073531  0.6027331507973176  0.3750000000000000
  0.3895502154795263  0.1110461745470973  0.3750000000000000
  0.8912116110571736  0.6122724721952575  0.3750000000000000
  0.7217844768046118  0.1116015473265791  0.3750000000000000
  0.0555523442142060  0.7777726048743755  0.8750000000000000
  0.3888791442437674  0.7777739626811541  0.8750000000000000
  0.2222215336210868  0.2777774334772113  0.8750000000000000
  0.7222251143051795  0.7777737533616536  0.8750000000000000
  0.5555546321515057  0.2777817474451857  0.8750000000000000
  0.8888947227179818  0.2777872787458090  0.8750000000000000
  0.2230519359792546  0.7781926346562954  0.3750000000000000
  0.0541982910165981  0.2774317504530128  0.3750000000000000
  0.3864329357368653  0.2746671945457314  0.3750000000000000
  0.5561802444551788  0.7749357047599277  0.3750000000000000
  0.8889577527447551  0.7770782384423685  0.3750000000000000
  0.7218645008025804  0.2795391475602085  0.3750000000000000
  0.0555539029342767  0.9444353308054034  0.8750000000000000
  0.3888791442437674  0.9444385148959488  0.8750000000000000
  0.2222169147533673  0.4444485946013644  0.8750000000000000
  0.5555582421434299  0.4444457877383792  0.8750000000000000
  0.7222208292711246  0.9444408957884542  0.8750000000000000
  0.8888962391828414  0.4444536184546475  0.8750000000000000
  0.0547764945167606  0.4447417122641288  0.3750000000000000
  0.2226168219016703  0.9443778768355683  0.3750000000000000
  0.5560514782775173  0.9446924058054221  0.3750000000000000
  0.3864329357368653  0.4450990745244688  0.3750000000000000
  0.8879771371486410  0.9433157065316677  0.3750000000000000
  0.7231631440218249  0.4468076061989150  0.3750000000000000
  0.2222123580933712  0.6111128471023257  0.8750000000000000
  0.0555574642145688  0.1111071855730467  0.8750000000000000
  0.5555546321515057  0.6111062180396554  0.8750000000000000
  0.3888810664724799  0.1111069951073899  0.8750000000000000
  0.8888965409924683  0.6111149371629060  0.8750000000000000
  0.0565278967719495  0.6116867993638301  0.3750000000000000
  0.7222208292711246  0.1111132668160062  0.8750000000000000
  0.2203152020935375  0.1091849799476058  0.3750000000000000
  0.3895502154795263  0.6118373742657705  0.3750000000000000
  0.7231631440218249  0.6096888711562463  0.3750000000000000
  0.5561802444551788  0.1145778730285868  0.3750000000000000
  0.3888810664724799  0.6111074046984339  0.8750000000000000
  0.8878415766529212  0.1105874549931319  0.3750000000000000
  0.2222117909963705  0.7777725621648521  0.8750000000000000
  0.0555574642145688  0.2777836119748575  0.8750000000000000
  0.3888853395226966  0.2777751530386449  0.8750000000000000
  0.5555490748057469  0.7777721498310010  0.8750000000000000
  0.8888962391828414  0.7777759540615300  0.8750000000000000
  0.7222251143051795  0.2777846942768621  0.8750000000000000
  0.0565278967719495  0.7781744307414541  0.3750000000000000
  0.3897232070069314  0.7781663175085083  0.3750000000000000
  0.2204418657461969  0.2768875995397667  0.3750000000000000
  0.7218645008025804  0.7756586865757074  0.3750000000000000
  0.5569464604073532  0.2875466429433708  0.3750000000000000
  0.8879771371486410  0.2779947639503079  0.3750000000000000
  0.0555539029342767  0.4444519054622026  0.8750000000000000
  0.2222123580933712  0.9444328443243817  0.8750000000000000
  0.5555467493325196  0.9444400413329229  0.8750000000000000
  0.3888853395226963  0.4444435198173874  0.8750000000000000
  0.8888947227179818  0.9444407773055079  0.8750000000000000
  0.0547764945167606  0.9433681155859609  0.3750000000000000
  0.7222306937694692  0.4444518238923132  0.8750000000000000
  0.3897232070069314  0.9448902228317577  0.3750000000000000
  0.2203152020935375  0.4444635554792672  0.3750000000000000
  0.2226168219016703  0.6115722783994380  0.3750000000000000
  0.7217844768046118  0.9435162628113678  0.3750000000000000
  0.8889577527447551  0.4452128476357212  0.3750000000000000
  0.0555523442142060  0.6111130726731667  0.8750000000000000
  0.2222169147533673  0.1111016534853385  0.8750000000000000
  0.7222306937694692  0.6111122032104924  0.8750000000000000
  0.5555490748057469  0.1111102583080814  0.8750000000000000
  0.8888931062585679  0.1111132197959543  0.8750000000000000
  0.1109859709336016  0.0552126288773134  0.3750000000000000
  0.6111306562719190  0.5420605989509094  0.3750000000000000
  0.4445079605450832  0.0569508026810171  0.3750000000000000
  0.9457504331092453  0.5561305894376866  0.3750000000000000
  0.7769545578958749  0.0551439456146054  0.3750000000000000
  0.1111223873734141  0.7222278603533714  0.8750000000000000
  0.4444031580846950  0.7221315402582283  0.8750000000000000
  0.2778496049410668  0.2222953344218002  0.8750000000000000
  0.7777368383361135  0.7221687677469523  0.8750000000000000
  0.6110440351402275  0.2222614269152176  0.8750000000000000
  0.9445196550849542  0.2222616581437028  0.8750000000000000
  0.2785751657418795  0.7223207049946198  0.3750000000000000
  0.1118938088281907  0.2226135710807596  0.3750000000000000
  0.4415707676742200  0.2259598097563127  0.3750000000000000
  0.6100961922393023  0.7150276330620546  0.3750000000000000
  0.9457504331092453  0.7229531770048960  0.3750000000000000
  0.7768167649310745  0.2230529813096578  0.3750000000000000
  0.1111425988060944  0.8889287614308000  0.8750000000000000
  0.4444091244439063  0.8888712288886169  0.8750000000000000
  0.2778496049410668  0.3888876038525951  0.8750000000000000
  0.6110177044062550  0.3888824964477967  0.8750000000000000
  0.7777740108295499  0.8888566555403881  0.8750000000000000
  0.9444774955093616  0.3889096407948262  0.8750000000000000
  0.1109859709336016  0.3891066753896164  0.3750000000000000
  0.2785751657418795  0.8895877940805882  0.3750000000000000
  0.6105301742174456  0.8866977413594718  0.3750000000000000
  0.9441303737736150  0.8881637067459518  0.3750000000000000
  0.7773786400234088  0.3902457367649717  0.3750000000000000
  0.2778016462806833  0.5555024991553557  0.8750000000000000
  0.1111980451082268  0.0556253661715981  0.8750000000000000
  0.6110177044062550  0.5554685412917857  0.8750000000000000
  0.4444031580846950  0.0556049511598029  0.8750000000000000
  0.9444403153696775  0.5555551338277468  0.8750000000000000
  0.1119001974420845  0.5558047657014134  0.3750000000000000
  0.7777902622032914  0.0555617977683134  0.8750000000000000
  0.2784670284623557  0.0568072791357723  0.3750000000000000
  0.4415707676742200  0.5489442912512434  0.3750000000000000
  0.7807566789808821  0.5570450061571084  0.3750000000000000
  0.6105301742174456  0.0571657661913029  0.3750000000000000
  0.4443930587281786  0.5554400467773866  0.8750000000000000
  0.9440024555824136  0.0550630492199462  0.3750000000000000
  0.2777749137895156  0.7221927132285768  0.8750000000000000
  0.1112327060399902  0.2222830196866596  0.8750000000000000
  0.4443930587281786  0.2222863452841276  0.8750000000000000
  0.6110440351402275  0.7221159415583375  0.8750000000000000
  0.9444403153696775  0.7222185148752663  0.8750000000000000
  0.7777740108295499  0.2222506886224896  0.8750000000000000
  0.1121739079992285  0.7227536206662787  0.3750000000000000
  0.4445079605450832  0.7208904911974019  0.3750000000000000
  0.2810392236387525  0.2239761181770496  0.3750000000000000
  0.7773786400234088  0.7204662365917657  0.3750000000000000
  0.6100961922393023  0.2284018925105747  0.3750000000000000
  0.9440024555824136  0.2222727396958036  0.3750000000000000
  0.1111980451082268  0.3889060122699575  0.8750000000000000
  0.2777749137895156  0.8889155338942698  0.8750000000000000
  0.6110709287676077  0.8888372667902418  0.8750000000000000
  0.4443881714998396  0.3888607524165845  0.8750000000000000
  0.9444774955093616  0.8889011880478640  0.8750000000000000
  0.1119001974420845  0.8894287650739983  0.3750000000000000
  0.7777368383361135  0.3889014039224905  0.8750000000000000
  0.4448205063661841  0.8890769198497565  0.3750000000000000
  0.2810392236387525  0.3903964387950317  0.3750000000000000
  0.2784670284623557  0.5549930826599192  0.3750000000000000
  0.6111306562719190  0.4024033906543382  0.3750000000000000
  0.7768167649310745  0.8870971169547457  0.3750000000000000
  0.9441303737736150  0.3893000003609907  0.3750000000000000
  0.1111425988060944  0.5555471707086226  0.8750000000000000
  0.2778016462806833  0.0556324804586638  0.8750000000000000
  0.7777186335683103  0.5555259834508234  0.8750000000000000
  0.6110709287676077  0.0555669953106935  0.8750000000000000
  0.9445196550849542  0.0555913302745872  0.8750000000000000
  0.0557138292350310  0.1112771967724417  0.1254145846346641
  0.5552781828449256  0.6108223141702337  0.1260570898054961
  0.3889851457631746  0.1114480859933958  0.1260210328398316
  0.8887668864907168  0.6110501099120299  0.1251973003233194
  0.7221581326396718  0.1110933565509104  0.1252247174470532
  0.0556133267679583  0.7778784056480176  0.6248028488125487
  0.3889735066499947  0.7777154219057182  0.6247158779212867
  0.2225043025272283  0.2779188179302821  0.6232225653457333
  0.7220502015422763  0.7776513352486276  0.6247101487963220
  0.5552781828449256  0.2777892020080274  0.6239429101945053
  0.8888816600389570  0.2777284339324502  0.6247876340446545
  0.2223465426946977  0.7778399380140166  0.1252207411057788
  0.0557138292350310  0.2777699657959247  0.1254145846346641
  0.3889675575115458  0.2780591071634266  0.1285619402495368
  0.5554889158967875  0.7776335780796876  0.1253969602439395
  0.8887996010823173  0.7777784794632469  0.1251979269950352
  0.7220502015422763  0.2777321996269838  0.1252898512036782
  0.0556673342411101  0.9446574023487257  0.6247357805497467
  0.3889735066499947  0.9445914180776133  0.6247158779212867
  0.2224678115329992  0.4442779357422598  0.6238742122450517
  0.5550451325303527  0.4441892329318406  0.6236424211025142
  0.7221581326396718  0.9443981094220976  0.6247752825529471
  0.8887996010823173  0.4443544549524059  0.6248020730049655
  0.0556673342411101  0.4443432652257124  0.1252642194502537
  0.2223811113218399  0.9447310970323808  0.1253590529318736
  0.5555432848980072  0.9444383091156673  0.1252460893807167
  0.3889675575115458  0.4442417836814557  0.1285619402495368
  0.8888816600389570  0.9444865594398425  0.1252123659553450
  0.7219028265612283  0.4443098301273781  0.1253244350764973
  0.2223811113218399  0.6109833476227948  0.6246409470681267
  0.0557138292350310  0.1112771967724417  0.6245854153653354
  0.5552781828449256  0.6108223141702337  0.6239429101945053
  0.3889851457631746  0.1114480859933958  0.6239789671601690
  0.8887668864907168  0.6110501099120299  0.6248026996766808
  0.0556133267679583  0.6110682544532774  0.1251971511874505
  0.7221581326396718  0.1110933565509104  0.6247752825529471
  0.2224678115329992  0.1115232091240752  0.1261257877549480
  0.3889851457631746  0.6108703931031213  0.1260210328398316
  0.7219028265612283  0.6109263297671854  0.1253244350764973
  0.5554889158967875  0.1111886711504349  0.1253969602439395
  0.3889851457631746  0.6108703931031213  0.6239789671601690
  0.8889162373215036  0.1111247853274237  0.1252156088712077
  0.2223465426946977  0.7778399380140166  0.6247792588942221
  0.0557138292350310  0.2777699657959247  0.6245854153653354
  0.3889675575115458  0.2780591071634266  0.6214380597504628
  0.5554889158967875  0.7776335780796876  0.6246030397560602
  0.8887996010823173  0.7777784794632469  0.6248020730049655
  0.7220502015422763  0.2777321996269838  0.6247101487963220
  0.0556133267679583  0.7778784056480176  0.1251971511874505
  0.3889735066499947  0.7777154219057182  0.1252841220787131
  0.2225043025272283  0.2779188179302821  0.1267774346542669
  0.7220502015422763  0.7776513352486276  0.1252898512036782
  0.5552781828449256  0.2777892020080274  0.1260570898054961
  0.8888816600389570  0.2777284339324502  0.1252123659553450
  0.0556673342411101  0.4443432652257124  0.6247357805497467
  0.2223811113218399  0.9447310970323808  0.6246409470681267
  0.5555432848980072  0.9444383091156673  0.6247539106192834
  0.3889675575115458  0.4442417836814557  0.6214380597504628
  0.8888816600389570  0.9444865594398425  0.6247876340446545
  0.0556673342411101  0.9446574023487257  0.1252642194502537
  0.7219028265612283  0.4443098301273781  0.6246755649235027
  0.3889735066499947  0.9445914180776133  0.1252841220787131
  0.2224678115329992  0.4442779357422598  0.1261257877549480
  0.2223811113218399  0.6109833476227948  0.1253590529318736
  0.5550451325303527  0.4441892329318406  0.1263575788974849
  0.7221581326396718  0.9443981094220976  0.1252247174470532
  0.8887996010823173  0.4443544549524059  0.1251979269950352
  0.0556133267679583  0.6110682544532774  0.6248028488125487
  0.2224678115329992  0.1115232091240752  0.6238742122450517
  0.7219028265612283  0.6109263297671854  0.6246755649235027
  0.5554889158967875  0.1111886711504349  0.6246030397560602
  0.8889162373215036  0.1111247853274237  0.6247843911287920
 
  0.00000000E+00  0.00000000E+00  0.00000000E+00
  0.00000000E+00  0.00000000E+00  0.00000000E+00
  0.00000000E+00  0.00000000E+00  0.00000000E+00
  0.00000000E+00  0.00000000E+00  0.00000000E+00
  0.00000000E+00  0.00000000E+00  0.00000000E+00
  0.00000000E+00  0.00000000E+00  0.00000000E+00
  0.00000000E+00  0.00000000E+00  0.00000000E+00
  0.00000000E+00  0.00000000E+00  0.00000000E+00
  0.00000000E+00  0.00000000E+00  0.00000000E+00
  0.00000000E+00  0.00000000E+00  0.00000000E+00
  0.00000000E+00  0.00000000E+00  0.00000000E+00
  0.00000000E+00  0.00000000E+00  0.00000000E+00
  0.00000000E+00  0.00000000E+00  0.00000000E+00
  0.00000000E+00  0.00000000E+00  0.00000000E+00
  0.00000000E+00  0.00000000E+00  0.00000000E+00
  0.00000000E+00  0.00000000E+00  0.00000000E+00
  0.00000000E+00  0.00000000E+00  0.00000000E+00
  0.00000000E+00  0.00000000E+00  0.00000000E+00
  0.00000000E+00  0.00000000E+00  0.00000000E+00
  0.00000000E+00  0.00000000E+00  0.00000000E+00
  0.00000000E+00  0.00000000E+00  0.00000000E+00
  0.00000000E+00  0.00000000E+00  0.00000000E+00
  0.00000000E+00  0.00000000E+00  0.00000000E+00
  0.00000000E+00  0.00000000E+00  0.00000000E+00
  0.00000000E+00  0.00000000E+00  0.00000000E+00
  0.00000000E+00  0.00000000E+00  0.00000000E+00
  0.00000000E+00  0.00000000E+00  0.00000000E+00
  0.00000000E+00  0.00000000E+00  0.00000000E+00
  0.00000000E+00  0.00000000E+00  0.00000000E+00
  0.00000000E+00  0.00000000E+00  0.00000000E+00
  0.00000000E+00  0.00000000E+00  0.00000000E+00
  0.00000000E+00  0.00000000E+00  0.00000000E+00
  0.00000000E+00  0.00000000E+00  0.00000000E+00
  0.00000000E+00  0.00000000E+00  0.00000000E+00
  0.00000000E+00  0.00000000E+00  0.00000000E+00
  0.00000000E+00  0.00000000E+00  0.00000000E+00
  0.00000000E+00  0.00000000E+00  0.00000000E+00
  0.00000000E+00  0.00000000E+00  0.00000000E+00
  0.00000000E+00  0.00000000E+00  0.00000000E+00
  0.00000000E+00  0.00000000E+00  0.00000000E+00
  0.00000000E+00  0.00000000E+00  0.00000000E+00
  0.00000000E+00  0.00000000E+00  0.00000000E+00
  0.00000000E+00  0.00000000E+00  0.00000000E+00
  0.00000000E+00  0.00000000E+00  0.00000000E+00
  0.00000000E+00  0.00000000E+00  0.00000000E+00
  0.00000000E+00  0.00000000E+00  0.00000000E+00
  0.00000000E+00  0.00000000E+00  0.00000000E+00
  0.00000000E+00  0.00000000E+00  0.00000000E+00
  0.00000000E+00  0.00000000E+00  0.00000000E+00
  0.00000000E+00  0.00000000E+00  0.00000000E+00
  0.00000000E+00  0.00000000E+00  0.00000000E+00
  0.00000000E+00  0.00000000E+00  0.00000000E+00
  0.00000000E+00  0.00000000E+00  0.00000000E+00
  0.00000000E+00  0.00000000E+00  0.00000000E+00
  0.00000000E+00  0.00000000E+00  0.00000000E+00
  0.00000000E+00  0.00000000E+00  0.00000000E+00
  0.00000000E+00  0.00000000E+00  0.00000000E+00
  0.00000000E+00  0.00000000E+00  0.00000000E+00
  0.00000000E+00  0.00000000E+00  0.00000000E+00
  0.00000000E+00  0.00000000E+00  0.00000000E+00
  0.00000000E+00  0.00000000E+00  0.00000000E+00
  0.00000000E+00  0.00000000E+00  0.00000000E+00
  0.00000000E+00  0.00000000E+00  0.00000000E+00
  0.00000000E+00  0.00000000E+00  0.00000000E+00
  0.00000000E+00  0.00000000E+00  0.00000000E+00
  0.00000000E+00  0.00000000E+00  0.00000000E+00
  0.00000000E+00  0.00000000E+00  0.00000000E+00
  0.00000000E+00  0.00000000E+00  0.00000000E+00
  0.00000000E+00  0.00000000E+00  0.00000000E+00
  0.00000000E+00  0.00000000E+00  0.00000000E+00
  0.00000000E+00  0.00000000E+00  0.00000000E+00
  0.00000000E+00  0.00000000E+00  0.00000000E+00
  0.00000000E+00  0.00000000E+00  0.00000000E+00
  0.00000000E+00  0.00000000E+00  0.00000000E+00
  0.00000000E+00  0.00000000E+00  0.00000000E+00
  0.00000000E+00  0.00000000E+00  0.00000000E+00
  0.00000000E+00  0.00000000E+00  0.00000000E+00
  0.00000000E+00  0.00000000E+00  0.00000000E+00
  0.00000000E+00  0.00000000E+00  0.00000000E+00
  0.00000000E+00  0.00000000E+00  0.00000000E+00
  0.00000000E+00  0.00000000E+00  0.00000000E+00
  0.00000000E+00  0.00000000E+00  0.00000000E+00
  0.00000000E+00  0.00000000E+00  0.00000000E+00
  0.00000000E+00  0.00000000E+00  0.00000000E+00
  0.00000000E+00  0.00000000E+00  0.00000000E+00
  0.00000000E+00  0.00000000E+00  0.00000000E+00
  0.00000000E+00  0.00000000E+00  0.00000000E+00
  0.00000000E+00  0.00000000E+00  0.00000000E+00
  0.00000000E+00  0.00000000E+00  0.00000000E+00
  0.00000000E+00  0.00000000E+00  0.00000000E+00
  0.00000000E+00  0.00000000E+00  0.00000000E+00
  0.00000000E+00  0.00000000E+00  0.00000000E+00
  0.00000000E+00  0.00000000E+00  0.00000000E+00
  0.00000000E+00  0.00000000E+00  0.00000000E+00
  0.00000000E+00  0.00000000E+00  0.00000000E+00
  0.00000000E+00  0.00000000E+00  0.00000000E+00
  0.00000000E+00  0.00000000E+00  0.00000000E+00
  0.00000000E+00  0.00000000E+00  0.00000000E+00
  0.00000000E+00  0.00000000E+00  0.00000000E+00
  0.00000000E+00  0.00000000E+00  0.00000000E+00
  0.00000000E+00  0.00000000E+00  0.00000000E+00
  0.00000000E+00  0.00000000E+00  0.00000000E+00
  0.00000000E+00  0.00000000E+00  0.00000000E+00
  0.00000000E+00  0.00000000E+00  0.00000000E+00
  0.00000000E+00  0.00000000E+00  0.00000000E+00
  0.00000000E+00  0.00000000E+00  0.00000000E+00
  0.00000000E+00  0.00000000E+00  0.00000000E+00
  0.00000000E+00  0.00000000E+00  0.00000000E+00
  0.00000000E+00  0.00000000E+00  0.00000000E+00
  0.00000000E+00  0.00000000E+00  0.00000000E+00
  0.00000000E+00  0.00000000E+00  0.00000000E+00
  0.00000000E+00  0.00000000E+00  0.00000000E+00
  0.00000000E+00  0.00000000E+00  0.00000000E+00
  0.00000000E+00  0.00000000E+00  0.00000000E+00
  0.00000000E+00  0.00000000E+00  0.00000000E+00
  0.00000000E+00  0.00000000E+00  0.00000000E+00
  0.00000000E+00  0.00000000E+00  0.00000000E+00
  0.00000000E+00  0.00000000E+00  0.00000000E+00
  0.00000000E+00  0.00000000E+00  0.00000000E+00
  0.00000000E+00  0.00000000E+00  0.00000000E+00
  0.00000000E+00  0.00000000E+00  0.00000000E+00
  0.00000000E+00  0.00000000E+00  0.00000000E+00
  0.00000000E+00  0.00000000E+00  0.00000000E+00
  0.00000000E+00  0.00000000E+00  0.00000000E+00
  0.00000000E+00  0.00000000E+00  0.00000000E+00
  0.00000000E+00  0.00000000E+00  0.00000000E+00
  0.00000000E+00  0.00000000E+00  0.00000000E+00
  0.00000000E+00  0.00000000E+00  0.00000000E+00
  0.00000000E+00  0.00000000E+00  0.00000000E+00
  0.00000000E+00  0.00000000E+00  0.00000000E+00
  0.00000000E+00  0.00000000E+00  0.00000000E+00
  0.00000000E+00  0.00000000E+00  0.00000000E+00
  0.00000000E+00  0.00000000E+00  0.00000000E+00
  0.00000000E+00  0.00000000E+00  0.00000000E+00
  0.00000000E+00  0.00000000E+00  0.00000000E+00
  0.00000000E+00  0.00000000E+00  0.00000000E+00
  0.00000000E+00  0.00000000E+00  0.00000000E+00
  0.00000000E+00  0.00000000E+00  0.00000000E+00
  0.00000000E+00  0.00000000E+00  0.00000000E+00
  0.00000000E+00  0.00000000E+00  0.00000000E+00
  0.00000000E+00  0.00000000E+00  0.00000000E+00
  0.00000000E+00  0.00000000E+00  0.00000000E+00
  0.00000000E+00  0.00000000E+00  0.00000000E+00
  0.00000000E+00  0.00000000E+00  0.00000000E+00
  0.00000000E+00  0.00000000E+00  0.00000000E+00
  0.00000000E+00  0.00000000E+00  0.00000000E+00
  0.00000000E+00  0.00000000E+00  0.00000000E+00
  0.00000000E+00  0.00000000E+00  0.00000000E+00
  0.00000000E+00  0.00000000E+00  0.00000000E+00
  0.00000000E+00  0.00000000E+00  0.00000000E+00
  0.00000000E+00  0.00000000E+00  0.00000000E+00
  0.00000000E+00  0.00000000E+00  0.00000000E+00
  0.00000000E+00  0.00000000E+00  0.00000000E+00
  0.00000000E+00  0.00000000E+00  0.00000000E+00
  0.00000000E+00  0.00000000E+00  0.00000000E+00
  0.00000000E+00  0.00000000E+00  0.00000000E+00
  0.00000000E+00  0.00000000E+00  0.00000000E+00
  0.00000000E+00  0.00000000E+00  0.00000000E+00
  0.00000000E+00  0.00000000E+00  0.00000000E+00
  0.00000000E+00  0.00000000E+00  0.00000000E+00
  0.00000000E+00  0.00000000E+00  0.00000000E+00
  0.00000000E+00  0.00000000E+00  0.00000000E+00
  0.00000000E+00  0.00000000E+00  0.00000000E+00
  0.00000000E+00  0.00000000E+00  0.00000000E+00
  0.00000000E+00  0.00000000E+00  0.00000000E+00
  0.00000000E+00  0.00000000E+00  0.00000000E+00
  0.00000000E+00  0.00000000E+00  0.00000000E+00
  0.00000000E+00  0.00000000E+00  0.00000000E+00
  0.00000000E+00  0.00000000E+00  0.00000000E+00
  0.00000000E+00  0.00000000E+00  0.00000000E+00
  0.00000000E+00  0.00000000E+00  0.00000000E+00
  0.00000000E+00  0.00000000E+00  0.00000000E+00
  0.00000000E+00  0.00000000E+00  0.00000000E+00
  0.00000000E+00  0.00000000E+00  0.00000000E+00
  0.00000000E+00  0.00000000E+00  0.00000000E+00
  0.00000000E+00  0.00000000E+00  0.00000000E+00
  0.00000000E+00  0.00000000E+00  0.00000000E+00
  0.00000000E+00  0.00000000E+00  0.00000000E+00
  0.00000000E+00  0.00000000E+00  0.00000000E+00
  0.00000000E+00  0.00000000E+00  0.00000000E+00
  0.00000000E+00  0.00000000E+00  0.00000000E+00
  0.00000000E+00  0.00000000E+00  0.00000000E+00
  0.00000000E+00  0.00000000E+00  0.00000000E+00
  0.00000000E+00  0.00000000E+00  0.00000000E+00
  0.00000000E+00  0.00000000E+00  0.00000000E+00
  0.00000000E+00  0.00000000E+00  0.00000000E+00
  0.00000000E+00  0.00000000E+00  0.00000000E+00
  0.00000000E+00  0.00000000E+00  0.00000000E+00
  0.00000000E+00  0.00000000E+00  0.00000000E+00
  0.00000000E+00  0.00000000E+00  0.00000000E+00
  0.00000000E+00  0.00000000E+00  0.00000000E+00
  0.00000000E+00  0.00000000E+00  0.00000000E+00
  0.00000000E+00  0.00000000E+00  0.00000000E+00
  0.00000000E+00  0.00000000E+00  0.00000000E+00
  0.00000000E+00  0.00000000E+00  0.00000000E+00
  0.00000000E+00  0.00000000E+00  0.00000000E+00
  0.00000000E+00  0.00000000E+00  0.00000000E+00
  0.00000000E+00  0.00000000E+00  0.00000000E+00
  0.00000000E+00  0.00000000E+00  0.00000000E+00
  0.00000000E+00  0.00000000E+00  0.00000000E+00
  0.00000000E+00  0.00000000E+00  0.00000000E+00
  0.00000000E+00  0.00000000E+00  0.00000000E+00
  0.00000000E+00  0.00000000E+00  0.00000000E+00
  0.00000000E+00  0.00000000E+00  0.00000000E+00
  0.00000000E+00  0.00000000E+00  0.00000000E+00
  0.00000000E+00  0.00000000E+00  0.00000000E+00
  0.00000000E+00  0.00000000E+00  0.00000000E+00
  0.00000000E+00  0.00000000E+00  0.00000000E+00
  0.00000000E+00  0.00000000E+00  0.00000000E+00
  0.00000000E+00  0.00000000E+00  0.00000000E+00
  0.00000000E+00  0.00000000E+00  0.00000000E+00
  0.00000000E+00  0.00000000E+00  0.00000000E+00
  0.00000000E+00  0.00000000E+00  0.00000000E+00
  0.00000000E+00  0.00000000E+00  0.00000000E+00
  0.00000000E+00  0.00000000E+00  0.00000000E+00
  0.00000000E+00  0.00000000E+00  0.00000000E+00
  0.00000000E+00  0.00000000E+00  0.00000000E+00
  0.00000000E+00  0.00000000E+00  0.00000000E+00
  0.00000000E+00  0.00000000E+00  0.00000000E+00
  0.00000000E+00  0.00000000E+00  0.00000000E+00
  0.00000000E+00  0.00000000E+00  0.00000000E+00
  0.00000000E+00  0.00000000E+00  0.00000000E+00
  0.00000000E+00  0.00000000E+00  0.00000000E+00
  0.00000000E+00  0.00000000E+00  0.00000000E+00
  0.00000000E+00  0.00000000E+00  0.00000000E+00
  0.00000000E+00  0.00000000E+00  0.00000000E+00
  0.00000000E+00  0.00000000E+00  0.00000000E+00
  0.00000000E+00  0.00000000E+00  0.00000000E+00
  0.00000000E+00  0.00000000E+00  0.00000000E+00
  0.00000000E+00  0.00000000E+00  0.00000000E+00
  0.00000000E+00  0.00000000E+00  0.00000000E+00
  0.00000000E+00  0.00000000E+00  0.00000000E+00
  0.00000000E+00  0.00000000E+00  0.00000000E+00
  0.00000000E+00  0.00000000E+00  0.00000000E+00
  0.00000000E+00  0.00000000E+00  0.00000000E+00
  0.00000000E+00  0.00000000E+00  0.00000000E+00
  0.00000000E+00  0.00000000E+00  0.00000000E+00
  0.00000000E+00  0.00000000E+00  0.00000000E+00
  0.00000000E+00  0.00000000E+00  0.00000000E+00
  0.00000000E+00  0.00000000E+00  0.00000000E+00
  0.00000000E+00  0.00000000E+00  0.00000000E+00
  0.00000000E+00  0.00000000E+00  0.00000000E+00
  0.00000000E+00  0.00000000E+00  0.00000000E+00
  0.00000000E+00  0.00000000E+00  0.00000000E+00
  0.00000000E+00  0.00000000E+00  0.00000000E+00
  0.00000000E+00  0.00000000E+00  0.00000000E+00
  0.00000000E+00  0.00000000E+00  0.00000000E+00
  0.00000000E+00  0.00000000E+00  0.00000000E+00
  0.00000000E+00  0.00000000E+00  0.00000000E+00
  0.00000000E+00  0.00000000E+00  0.00000000E+00