 B N 
 1.0
 14.936314146199660   0.000000000000000   0.000000000000000
 -7.468157073099825  12.935227489513863   0.000000000000000
  0.000000000000001   0.000000000000001  13.341276283792837
 B N 
 143 143
Cartesian
  1.245384742810723   0.714187914822147   5.002978606422314 
  5.079845770346587   7.011677160532148   5.002978606422314 
  6.213992999326934   0.736671588389372   5.002978606422314 
  9.972754977747833   7.193675688253918   5.002978606422314 
 11.193013706574115   0.713299481194297   5.002978606422314 
 -3.733952217202778   9.342181672935707  11.673616748318732 
  1.244753406628278   9.340935750593220  11.673616748318732 
  2.489912510717990   2.875440720603546  11.673616748318732 
  6.223251949639113   9.341417296628729  11.673616748318732 
  7.466862418521765   2.875002119292306  11.673616748318732 
 12.447757311264230   2.875005110285361  11.673616748318732 
 -1.233518293201666   9.343382639491443   5.002978606422314 
  0.008767964237882   2.879557184182695   5.002978606422314 
  4.907936352292796   2.922841542685183   5.002978606422314 
  3.772649711372221   9.249045094946325   5.002978606422314 
  8.726897690454967   9.351563808825112   5.002978606422314 
  9.936984535001345   2.885241055454711   5.002978606422314 
 -4.978598846368439  11.498495751079197  11.673616748318732 
 -0.000395662967739  11.497751554558009  11.673616748318732 
  1.245775275444646   5.030349623685265  11.673616748318732 
  6.222116815450257   5.030283558242322  11.673616748318732 
  4.978955841454053  11.497563044983384  11.673616748318732 
 11.202574292245117   5.030634676546196  11.673616748318732 
 -1.248188442316054   5.033183363853110   5.002978606422314 
 -2.482695187655855  11.507020488327219   5.002978606422314 
  2.497072469010402  11.469636998922896   5.002978606422314 
  7.468881789046278  11.488599594688768   5.002978606422314 
  8.696755118666719   5.047917381867857   5.002978606422314 
  0.000752740988019   7.185551197568014  11.673616748318732 
  1.245469962361572   0.719526765617130  11.673616748318732 
  4.978026066368895   7.185111944877678  11.673616748318732 
  6.222478667412782   0.719262692795361  11.673616748318732 
  9.957484240504781   7.186232039029227  11.673616748318732 
 -2.479460790218849   7.189461084103731   5.002978606422314 
 11.202375463125788   0.718704493859494  11.673616748318732 
  3.735025332991099   0.734815078681526   5.002978606422314 
  2.495837512314956   7.100719286404784   5.002978606422314 
  7.501527426234873   7.205503876539843   5.002978606422314 
  8.692147556725031   0.739452190296865   5.002978606422314 
  2.489480815531198   7.184743361851724  11.673616748318732 
 13.688697730864444   0.712253067926301   5.002978606422314 
 -1.244515245145412   9.341727036880894  11.673616748318732 
  0.001362135042254   2.875281426703037  11.673616748318732 
  4.977524987767468   2.875324444062824  11.673616748318732 
  3.733870389468875   9.340733977861589  11.673616748318732 
  8.712815932508022   9.342060787050420  11.673616748318732 
  9.957273908262499   2.874863217033020  11.673616748318732 
 -3.722172835404010   9.348982502188127   5.002978606422314 
  1.255587118421599   9.324882498665787   5.002978606422314 
  2.525001300503099   2.897182040838383   5.002978606422314 
  6.230616557202687   9.319394668828410   5.002978606422314 
  7.406847177624196   2.954430438659781   5.002978606422314 
 12.439949498246332   2.875148452682724   5.002978606422314 
 -1.243522252125175   5.030587740751578  11.673616748318732 
 -2.489627457547060  11.498324649885056  11.673616748318732 
  2.489171036868727  11.497312247089507  11.673616748318732 
  3.733448153766023   5.030002294252056  11.673616748318732 
  7.468558882137218  11.498139083098264  11.673616748318732 
 -4.971017220889071  11.504963411949548   5.002978606422314 
  8.712144970018093   5.030528130728741  11.673616748318732 
  0.004212734251168  11.500412213932877   5.002978606422314 
  1.282148205972375   5.049866746909816   5.002978606422314 
  0.014495500684322   7.178961779312624   5.002978606422314 
  6.122827738295999   5.205179400665580   5.002978606422314 
  4.977798626533023  11.474803013101525   5.002978606422314 
 11.194474306397918   5.035684066337248   5.002978606422314 
 -2.488852761575342   7.186129034271833  11.673616748318732 
  3.733860556748261   0.719618790538755  11.673616748318732 
  7.467494525730418   7.185854972272311  11.673616748318732 
  8.712164308622532   0.718771725252565  11.673616748318732 
 13.692477499215835   0.719086503546483  11.673616748318732 
  0.001123671591312   1.439395854646935   1.673190623628173 
  3.732092391525073   7.901125589463285   1.681762462626007 
  4.977692523629030   1.441606345595481   1.681281416685129 
  8.711483219007171   7.904072179204558   1.670291773598385 
  9.956718095838983   1.437017839559696   1.670657553021027 
 -4.978659997830384  10.062034136237459   8.335667428909062 
  0.001729560909207  10.059925904453715   8.334507126220087 
  1.247852775554147   3.594943133544983   8.314584430571559 
  4.977146319819648  10.059096928965214   8.334430692381066 
  6.219235983695708   3.593266522104351   8.324194750218632 
 11.202496144863748   3.592480473222663   8.335464444486993 
 -2.487993023809505  10.061536548640671   1.670604503553492 
 -1.242270479011388   3.593017697324774   1.673190623628173 
  3.733152543770065   3.596757806690043   1.715180364449540 
  2.489467246150560  10.058867235945407   1.672955491762190 
  7.466818202074153  10.060741568305286   1.670300134198888 
  8.710620948490378   3.592529183338115   1.671526520463563 
 -6.223385069100028  12.219358399033998   8.334772652685146 
 -1.244526590232510  12.218504877476423   8.334507126220087 
  0.004911712238665   5.746836167397756   8.323278231894852 
  4.973053503077664   5.745688776366027   8.320185842222115 
  3.733467311636321  12.216004386041643   8.335299659823601 
  9.956881189066198   5.747825960788313   8.335657078645740 
 -2.486960507172957   5.747681219127979   1.671184560159495 
 -3.733846085595733  12.220311656531845   1.672449759838741 
  1.244555386719724  12.216524378222967   1.670942681892758 
  2.492074212705286   5.746368532267041   1.715180364449540 
  6.223041733808937  12.217148507142614   1.670492768357634 
  7.464391800034428   5.747248728524895   1.671987913465804 
 -1.241365470211385   7.903208593805584   8.333507453005900 
  0.001123671591313   1.439395854646936   8.332766589216442 
  3.732092391525074   7.901125589463286   8.324194750218632 
  4.977692523629031   1.441606345595482   8.324675796159513 
  8.711483219007171   7.904072179204559   8.335665439246243 
 -3.732895587320528   7.904306882973280   1.670289783935566 
  9.956718095838983   1.437017839559697   8.335299659823601 
  2.489976277439661   1.442578080380538   1.682678980949777 
  1.247928288323704   7.901747501397630   1.681281416685129 
  6.220073609754269   7.902471054872303   1.671987913465804 
  7.466582491665615   1.438250755587624   1.672955491762190 
  1.247928288323705   7.901747501397631   8.324675796159513 
 12.447234818752053   1.437424377933622   1.670536032994127 
 -2.487993023809505  10.061536548640671   8.335352709291149 
 -1.242270479011387   3.593017697324775   8.332766589216442 
  3.733152543770065   3.596757806690043   8.290776848395087 
  2.489467246150560  10.058867235945407   8.333001721082438 
  7.466818202074154  10.060741568305286   8.335657078645740 
  8.710620948490378   3.592529183338116   8.334430692381066 
 -4.978659997830385  10.062034136237459   1.670289783935566 
  0.001729560909206  10.059925904453715   1.671450086624540 
  1.247852775554147   3.594943133544982   1.691372782273068 
  4.977146319819648  10.059096928965214   1.671526520463563 
  6.219235983695707   3.593266522104350   1.681762462626007 
 11.202496144863748   3.592480473222662   1.670492768357634 
 -2.486960507172956   5.747681219127980   8.334772652685146 
 -3.733846085595733  12.220311656531845   8.333507453005900 
  1.244555386719724  12.216524378222967   8.335014530951870 
  2.492074212705287   5.746368532267041   8.290776848395087 
  6.223041733808937  12.217148507142614   8.335464444486993 
 -6.223385069100029  12.219358399033998   1.671184560159495 
  7.464391800034429   5.747248728524896   8.333969299378822 
 -1.244526590232510  12.218504877476423   1.671450086624540 
  0.004911712238664   5.746836167397755   1.682678980949777 
 -1.241365470211385   7.903208593805584   1.672449759838741 
  4.973053503077663   5.745688776366026   1.685771370622499 
  3.733467311636320  12.216004386041643   1.670657553021027 
  9.956881189066198   5.747825960788312   1.670300134198888 
 -3.732895587320528   7.904306882973281   8.335667428909062 
  2.489976277439661   1.442578080380539   8.323278231894852 
  6.220073609754270   7.902471054872303   8.333969299378822 
  7.466582491665616   1.438250755587625   8.333001721082438 
 12.447234818752053   1.437424377933623   8.335421179850501 
  1.244101924728525   0.718661388847111   1.665444069482197 
  4.979009089086428   7.186075174720534   1.666447868551287 
  6.223890440120235   0.718709291347290   1.665430962425213 
  9.957620716969396   7.186093275080390   1.665982856144680 
 11.201709032358655   0.718319729876700   1.665851126811406 
 -3.733897937086243   9.342213011575588   8.340126305974405 
  1.244980033269486   9.342435082346279   8.340526250419428 
  2.488735336207061   2.874330031537559   8.328949684640829 
  6.223250770576893   9.342104108111405   8.340597022410936 
  7.468199763339022   2.874334540555749   8.339343786401406 
 12.446193100568584   2.873957201539535   8.340993457312212 
 -1.244303280292608   9.342179277392706   1.665335105693502 
 -0.000925140499404   2.873960867553349   1.665809791000231 
  4.979566564306959   2.874436335095161   1.673945252258237 
  3.733960921732621   9.342225941815228   1.666613426443222 
  8.712763997635514   9.342248361110197   1.665982856144680 
  9.957176995189558   2.874178743944753   1.666041633669455 
 -4.978876447431097  11.498304558927604   8.340575423048318 
  0.000300512071553  11.498153491404347   8.340618045207886 
  1.244224803242325   5.029885505187120   8.328949684640829 
  6.223442508322613   5.030653265966787   8.339509344293340 
  4.978314613834923  11.497821352344413   8.339915579175173 
 11.202082831782596   5.029946766709084   8.340594847408653 
 -1.244955709208371   5.029835673793021   1.665444069482197 
 -2.489129823348793  11.498282096576359   1.665335105693502 
  2.489289968369726  11.498107826735739   1.665570070599548 
  3.734750640101898   5.030754285088672   1.676089001905667 
  7.467717404511504  11.498057420771318   1.665362365435975 
  8.712739176678610   5.030183703889539   1.665360190433692 
  0.000287815554111   7.186108434842944   8.338234359812295 
  1.244101924728526   0.718661388847112   8.340513143362431 
  4.979009089086428   7.186075174720535   8.339509344293340 
  6.223890440120236   0.718709291347291   8.340526250419428 
  9.957620716969396   7.186093275080391   8.339974356699962 
 -2.489157139366961   7.185984220775260   1.665381789796324 
 11.201709032358655   0.718319729876700   8.340106086033208 
  3.734110675667339   0.718937534664646   1.667722853032318 
  2.489732478873626   7.186955473482511   1.673945252258237 
  7.468171901197023   7.186246055180295   1.665924569886694 
  8.712912766557402   0.718476933130625   1.665570070599548 
  2.489732478873627   7.186955473482512   8.332011960586390 
 13.690787878273287   0.718255811720080   1.664963755532414 
 -1.244303280292608   9.342179277392706   8.340622107151127 
 -0.000925140499403   2.873960867553350   8.340147421844383 
  4.979566564306960   2.874436335095162   8.332011960586390 
  3.733960921732621   9.342225941815228   8.339343786401406 
  8.712763997635514   9.342248361110197   8.339974356699962 
  9.957176995189558   2.874178743944754   8.339915579175173 
 -3.733897937086243   9.342213011575588   1.665830906870222 
  1.244980033269486   9.342435082346279   1.665430962425213 
  2.488735336207061   2.874330031537558   1.677007528203811 
  6.223250770576892   9.342104108111405   1.665360190433692 
  7.468199763339021   2.874334540555748   1.666613426443222 
 12.446193100568584   2.873957201539534   1.664963755532414 
 -1.244955709208371   5.029835673793022   8.340513143362431 
 -2.489129823348792  11.498282096576359   8.340622107151127 
  2.489289968369726  11.498107826735739   8.340387142245079 
  3.734750640101899   5.030754285088673   8.329868210938960 
  7.467717404511505  11.498057420771318   8.340594847408653 
 -4.978876447431098  11.498304558927604   1.665381789796324 
  8.712739176678610   5.030183703889540   8.340597022410936 
  0.000300512071553  11.498153491404347   1.665339167636740 
  1.244224803242325   5.029885505187119   1.677007528203811 
  0.000287815554111   7.186108434842943   1.667722853032318 
  6.223442508322612   5.030653265966786   1.666447868551287 
  4.978314613834922  11.497821352344413   1.666041633669455 
 11.202082831782596   5.029946766709084   1.665362365435975 
 -2.489157139366961   7.185984220775261   8.340575423048318 
  3.734110675667340   0.718937534664647   8.338234359812295 
  7.468171901197024   7.186246055180296   8.340032642957933 
  8.712912766557402   0.718476933130625   8.340387142245079 
 13.690787878273287   0.718255811720080   8.340993457312212 
 -0.012720451179630   1.424166915423463   5.002978606422314 
  3.817421451939440   7.796490421034774   5.002978606422314 
  4.989134120237390   1.436407529606964   5.002978606422314 
  8.738869599601333   7.919883713412703   5.002978606422314 
  9.947341806368172   1.443591402851047   5.002978606422314 
 -4.978780715614640  10.060665579161823  11.673616748318732 
 -0.000117057339943  10.060683142701395  11.673616748318732 
  1.244685131644476   3.593114293481030  11.673616748318732 
  4.978844634097892  10.060680435106045  11.673616748318732 
  6.223420789230492   3.593170095638169  11.673616748318732 
 11.202251790832152   3.593241644270040  11.673616748318732 
 -2.480091042038429  10.066098759943324   5.002978606422314 
 -1.262381188637075   3.588642804923764   5.002978606422314 
  3.720625972908814   3.552882645355593   5.002978606422314 
  2.519941288392221  10.023969630816421   5.002978606422314 
  7.474409914920021  10.051683791402727   5.002978606422314 
  8.694352692916869   3.615902465916075   5.002978606422314 
 -6.223420849565898  12.216485853102169  11.673616748318732 
 -1.244794111797879  12.216527040037729  11.673616748318732 
 -0.000110268045893   5.749043678563368  11.673616748318732 
  4.978801477856933   5.749007371152125  11.673616748318732 
  3.734084232915077  12.216557837423910  11.673616748318732 
  9.957584037483461   5.749108663248457  11.673616748318732 
 -2.503242034217956   5.752835222212427   5.002978606422314 
 -3.727687534416618  12.215742672932176   5.002978606422314 
  1.250248288692257  12.219811176709282   5.002978606422314 
  2.447813922963902   5.757457784346093   5.002978606422314 
  6.218275609194487  12.202003258418625   5.002978606422314 
  7.464562513514180   5.779558030228092   5.002978606422314 
 -1.244853143899005   7.904883699033092  11.673616748318732 
  0.000057824865483   1.437196721106997  11.673616748318732 
  3.734101286523154   7.904797950599399  11.673616748318732 
  4.978685282959992   1.437194257390395  11.673616748318732 
  8.712935639283634   7.904910734442160  11.673616748318732 
 -3.723854672981003   7.912307902103765   5.002978606422314 
  9.957505859435170   1.437275383368091  11.673616748318732 
  2.475286489380558   1.412332554060294   5.002978606422314 
  1.249146779912235   7.914255622714571   5.002978606422314 
  6.248139642547641   7.886464246230950   5.002978606422314 
  7.451597300213499   1.482090852889408   5.002978606422314 
  1.244603687519827   7.904813300300659  11.673616748318732 
 12.435196216742165   1.430473887822538   5.002978606422314 
 -2.489502544082953  10.060665026704426  11.673616748318732 
 -1.244707907886204   3.593194213753637  11.673616748318732 
  3.734045124065575   3.593084795489402  11.673616748318732 
  2.489330922908766  10.060659693072260  11.673616748318732 
  7.468280479198765  10.060708901659577  11.673616748318732 
  8.712841462174506   3.593208213576271  11.673616748318732 
 -4.967210454837443  10.065863288163658   5.002978606422314 
  0.009559961770715  10.065758341649826   5.002978606422314 
  1.224748872803026   3.581604089072301   5.002978606422314 
  4.989254048515246  10.033321565074303   5.002978606422314 
  6.171283799914528   3.719481240318521   5.002978606422314 
 11.186996912414912   3.595925512590942   5.002978606422314 
 -2.489466095156401   5.749086505301506  11.673616748318732 
 -3.734139238758516  12.216453689904515  11.673616748318732 
  1.244594196131396  12.216546784847237  11.673616748318732 
  2.489339581844902   5.748978035078165  11.673616748318732 
  6.223578750256793  12.216556304820051  11.673616748318732 
 -6.227062335020222  12.202681181458415   5.002978606422314 
  7.468228495915021   5.749085450176423  11.673616748318732 
 -1.235560351023941  12.222369984946237   5.002978606422314 
 -0.028626575935050   5.749237200922486   5.002978606422314 
 -1.242243050488613   7.910826547377036   5.002978606422314 
  3.734472039704616  12.204597499520995   5.002978606422314 
  9.952832780589720   5.758929465422327   5.002978606422314 
 -3.734141151406680   7.904886616843234  11.673616748318732 
  2.489377048045940   1.437125162294002  11.673616748318732 
  6.223582605304463   7.904875370145739  11.673616748318732 
  7.468066643451769   1.437236467633677  11.673616748318732 
 12.446975699135157   1.437274775153021  11.673616748318732 
Generated by cif2cell 2.0.0.  :  Failed to get author information, No journal information. Species order: B N 
 1.0
 14.936314146199660   0.000000000000000   0.000000000000000
 -7.468157073099825  12.935227489513863   0.000000000000000
  0.000000000000001   0.000000000000001  13.341276283792837
 B N 
 143 143
Cartesian
  1.245384742810723   0.714187914822147   5.002978606422314 
  5.079845770346587   7.011677160532148   5.002978606422314 
  6.213992999326934   0.736671588389372   5.002978606422314 
  9.972754977747833   7.193675688253918   5.002978606422314 
 11.193013706574115   0.713299481194297   5.002978606422314 
 -3.733952217202778   9.342181672935707  11.673616748318732 
  1.244753406628278   9.340935750593220  11.673616748318732 
  2.489912510717990   2.875440720603546  11.673616748318732 
  6.223251949639113   9.341417296628729  11.673616748318732 
  7.466862418521765   2.875002119292306  11.673616748318732 
 12.447757311264230   2.875005110285361  11.673616748318732 
 -1.233518293201666   9.343382639491443   5.002978606422314 
  0.008767964237882   2.879557184182695   5.002978606422314 
  4.907936352292796   2.922841542685183   5.002978606422314 
  3.772649711372221   9.249045094946325   5.002978606422314 
  8.726897690454967   9.351563808825112   5.002978606422314 
  9.936984535001345   2.885241055454711   5.002978606422314 
 -4.978598846368439  11.498495751079197  11.673616748318732 
 -0.000395662967739  11.497751554558009  11.673616748318732 
  1.245775275444646   5.030349623685265  11.673616748318732 
  6.222116815450257   5.030283558242322  11.673616748318732 
  4.978955841454053  11.497563044983384  11.673616748318732 
 11.202574292245117   5.030634676546196  11.673616748318732 
 -1.248188442316054   5.033183363853110   5.002978606422314 
 -2.482695187655855  11.507020488327219   5.002978606422314 
  2.497072469010402  11.469636998922896   5.002978606422314 
  7.468881789046278  11.488599594688768   5.002978606422314 
  8.696755118666719   5.047917381867857   5.002978606422314 
  0.000752740988019   7.185551197568014  11.673616748318732 
  1.245469962361572   0.719526765617130  11.673616748318732 
  4.978026066368895   7.185111944877678  11.673616748318732 
  6.222478667412782   0.719262692795361  11.673616748318732 
  9.957484240504781   7.186232039029227  11.673616748318732 
 -2.479460790218849   7.189461084103731   5.002978606422314 
 11.202375463125788   0.718704493859494  11.673616748318732 
  3.735025332991099   0.734815078681526   5.002978606422314 
  2.495837512314956   7.100719286404784   5.002978606422314 
  7.501527426234873   7.205503876539843   5.002978606422314 
  8.692147556725031   0.739452190296865   5.002978606422314 
  2.489480815531198   7.184743361851724  11.673616748318732 
 13.688697730864444   0.712253067926301   5.002978606422314 
 -1.244515245145412   9.341727036880894  11.673616748318732 
  0.001362135042254   2.875281426703037  11.673616748318732 
  4.977524987767468   2.875324444062824  11.673616748318732 
  3.733870389468875   9.340733977861589  11.673616748318732 
  8.712815932508022   9.342060787050420  11.673616748318732 
  9.957273908262499   2.874863217033020  11.673616748318732 
 -3.722172835404010   9.348982502188127   5.002978606422314 
  1.255587118421599   9.324882498665787   5.002978606422314 
  2.525001300503099   2.897182040838383   5.002978606422314 
  6.230616557202687   9.319394668828410   5.002978606422314 
  7.406847177624196   2.954430438659781   5.002978606422314 
 12.439949498246332   2.875148452682724   5.002978606422314 
 -1.243522252125175   5.030587740751578  11.673616748318732 
 -2.489627457547060  11.498324649885056  11.673616748318732 
  2.489171036868727  11.497312247089507  11.673616748318732 
  3.733448153766023   5.030002294252056  11.673616748318732 
  7.468558882137218  11.498139083098264  11.673616748318732 
 -4.971017220889071  11.504963411949548   5.002978606422314 
  8.712144970018093   5.030528130728741  11.673616748318732 
  0.004212734251168  11.500412213932877   5.002978606422314 
  1.282148205972375   5.049866746909816   5.002978606422314 
  0.014495500684322   7.178961779312624   5.002978606422314 
  6.122827738295999   5.205179400665580   5.002978606422314 
  4.977798626533023  11.474803013101525   5.002978606422314 
 11.194474306397918   5.035684066337248   5.002978606422314 
 -2.488852761575342   7.186129034271833  11.673616748318732 
  3.733860556748261   0.719618790538755  11.673616748318732 
  7.467494525730418   7.185854972272311  11.673616748318732 
  8.712164308622532   0.718771725252565  11.673616748318732 
 13.692477499215835   0.719086503546483  11.673616748318732 
  0.001123671591312   1.439395854646935   1.673190623628173 
  3.732092391525073   7.901125589463285   1.681762462626007 
  4.977692523629030   1.441606345595481   1.681281416685129 
  8.711483219007171   7.904072179204558   1.670291773598385 
  9.956718095838983   1.437017839559696   1.670657553021027 
 -4.978659997830384  10.062034136237459   8.335667428909062 
  0.001729560909207  10.059925904453715   8.334507126220087 
  1.247852775554147   3.594943133544983   8.314584430571559 
  4.977146319819648  10.059096928965214   8.334430692381066 
  6.219235983695708   3.593266522104351   8.324194750218632 
 11.202496144863748   3.592480473222663   8.335464444486993 
 -2.487993023809505  10.061536548640671   1.670604503553492 
 -1.242270479011388   3.593017697324774   1.673190623628173 
  3.733152543770065   3.596757806690043   1.715180364449540 
  2.489467246150560  10.058867235945407   1.672955491762190 
  7.466818202074153  10.060741568305286   1.670300134198888 
  8.710620948490378   3.592529183338115   1.671526520463563 
 -6.223385069100028  12.219358399033998   8.334772652685146 
 -1.244526590232510  12.218504877476423   8.334507126220087 
  0.004911712238665   5.746836167397756   8.323278231894852 
  4.973053503077664   5.745688776366027   8.320185842222115 
  3.733467311636321  12.216004386041643   8.335299659823601 
  9.956881189066198   5.747825960788313   8.335657078645740 
 -2.486960507172957   5.747681219127979   1.671184560159495 
 -3.733846085595733  12.220311656531845   1.672449759838741 
  1.244555386719724  12.216524378222967   1.670942681892758 
  2.492074212705286   5.746368532267041   1.715180364449540 
  6.223041733808937  12.217148507142614   1.670492768357634 
  7.464391800034428   5.747248728524895   1.671987913465804 
 -1.241365470211385   7.903208593805584   8.333507453005900 
  0.001123671591313   1.439395854646936   8.332766589216442 
  3.732092391525074   7.901125589463286   8.324194750218632 
  4.977692523629031   1.441606345595482   8.324675796159513 
  8.711483219007171   7.904072179204559   8.335665439246243 
 -3.732895587320528   7.904306882973280   1.670289783935566 
  9.956718095838983   1.437017839559697   8.335299659823601 
  2.489976277439661   1.442578080380538   1.682678980949777 
  1.247928288323704   7.901747501397630   1.681281416685129 
  6.220073609754269   7.902471054872303   1.671987913465804 
  7.466582491665615   1.438250755587624   1.672955491762190 
  1.247928288323705   7.901747501397631   8.324675796159513 
 12.447234818752053   1.437424377933622   1.670536032994127 
 -2.487993023809505  10.061536548640671   8.335352709291149 
 -1.242270479011387   3.593017697324775   8.332766589216442 
  3.733152543770065   3.596757806690043   8.290776848395087 
  2.489467246150560  10.058867235945407   8.333001721082438 
  7.466818202074154  10.060741568305286   8.335657078645740 
  8.710620948490378   3.592529183338116   8.334430692381066 
 -4.978659997830385  10.062034136237459   1.670289783935566 
  0.001729560909206  10.059925904453715   1.671450086624540 
  1.247852775554147   3.594943133544982   1.691372782273068 
  4.977146319819648  10.059096928965214   1.671526520463563 
  6.219235983695707   3.593266522104350   1.681762462626007 
 11.202496144863748   3.592480473222662   1.670492768357634 
 -2.486960507172956   5.747681219127980   8.334772652685146 
 -3.733846085595733  12.220311656531845   8.333507453005900 
  1.244555386719724  12.216524378222967   8.335014530951870 
  2.492074212705287   5.746368532267041   8.290776848395087 
  6.223041733808937  12.217148507142614   8.335464444486993 
 -6.223385069100029  12.219358399033998   1.671184560159495 
  7.464391800034429   5.747248728524896   8.333969299378822 
 -1.244526590232510  12.218504877476423   1.671450086624540 
  0.004911712238664   5.746836167397755   1.682678980949777 
 -1.241365470211385   7.903208593805584   1.672449759838741 
  4.973053503077663   5.745688776366026   1.685771370622499 
  3.733467311636320  12.216004386041643   1.670657553021027 
  9.956881189066198   5.747825960788312   1.670300134198888 
 -3.732895587320528   7.904306882973281   8.335667428909062 
  2.489976277439661   1.442578080380539   8.323278231894852 
  6.220073609754270   7.902471054872303   8.333969299378822 
  7.466582491665616   1.438250755587625   8.333001721082438 
 12.447234818752053   1.437424377933623   8.335421179850501 
  1.244101924728525   0.718661388847111   1.665444069482197 
  4.979009089086428   7.186075174720534   1.666447868551287 
  6.223890440120235   0.718709291347290   1.665430962425213 
  9.957620716969396   7.186093275080390   1.665982856144680 
 11.201709032358655   0.718319729876700   1.665851126811406 
 -3.733897937086243   9.342213011575588   8.340126305974405 
  1.244980033269486   9.342435082346279   8.340526250419428 
  2.488735336207061   2.874330031537559   8.328949684640829 
  6.223250770576893   9.342104108111405   8.340597022410936 
  7.468199763339022   2.874334540555749   8.339343786401406 
 12.446193100568584   2.873957201539535   8.340993457312212 
 -1.244303280292608   9.342179277392706   1.665335105693502 
 -0.000925140499404   2.873960867553349   1.665809791000231 
  4.979566564306959   2.874436335095161   1.673945252258237 
  3.733960921732621   9.342225941815228   1.666613426443222 
  8.712763997635514   9.342248361110197   1.665982856144680 
  9.957176995189558   2.874178743944753   1.666041633669455 
 -4.978876447431097  11.498304558927604   8.340575423048318 
  0.000300512071553  11.498153491404347   8.340618045207886 
  1.244224803242325   5.029885505187120   8.328949684640829 
  6.223442508322613   5.030653265966787   8.339509344293340 
  4.978314613834923  11.497821352344413   8.339915579175173 
 11.202082831782596   5.029946766709084   8.340594847408653 
 -1.244955709208371   5.029835673793021   1.665444069482197 
 -2.489129823348793  11.498282096576359   1.665335105693502 
  2.489289968369726  11.498107826735739   1.665570070599548 
  3.734750640101898   5.030754285088672   1.676089001905667 
  7.467717404511504  11.498057420771318   1.665362365435975 
  8.712739176678610   5.030183703889539   1.665360190433692 
  0.000287815554111   7.186108434842944   8.338234359812295 
  1.244101924728526   0.718661388847112   8.340513143362431 
  4.979009089086428   7.186075174720535   8.339509344293340 
  6.223890440120236   0.718709291347291   8.340526250419428 
  9.957620716969396   7.186093275080391   8.339974356699962 
 -2.489157139366961   7.185984220775260   1.665381789796324 
 11.201709032358655   0.718319729876700   8.340106086033208 
  3.734110675667339   0.718937534664646   1.667722853032318 
  2.489732478873626   7.186955473482511   1.673945252258237 
  7.468171901197023   7.186246055180295   1.665924569886694 
  8.712912766557402   0.718476933130625   1.665570070599548 
  2.489732478873627   7.186955473482512   8.332011960586390 
 13.690787878273287   0.718255811720080   1.664963755532414 
 -1.244303280292608   9.342179277392706   8.340622107151127 
 -0.000925140499403   2.873960867553350   8.340147421844383 
  4.979566564306960   2.874436335095162   8.332011960586390 
  3.733960921732621   9.342225941815228   8.339343786401406 
  8.712763997635514   9.342248361110197   8.339974356699962 
  9.957176995189558   2.874178743944754   8.339915579175173 
 -3.733897937086243   9.342213011575588   1.665830906870222 
  1.244980033269486   9.342435082346279   1.665430962425213 
  2.488735336207061   2.874330031537558   1.677007528203811 
  6.223250770576892   9.342104108111405   1.665360190433692 
  7.468199763339021   2.874334540555748   1.666613426443222 
 12.446193100568584   2.873957201539534   1.664963755532414 