 B N C 
 1.0
 14.936314146199660   0.000000000000000   0.000000000000000
 -7.468157073099825  12.935227489513863   0.000000000000000
  0.000000000000001   0.000000000000001  13.341276283792837
 B N C 
 142 143   2
Cartesian
  1.249066257965482   0.725759293242521   5.002978606422314 
  4.986616389853612   7.190398259118657   5.002978606422314 
  6.216765484185567   0.723154056745048   5.002978606422314 
  9.957364010894139   7.184218865787935   5.002978606422314 
 11.193553083912088   0.719798184990111   5.002978606422314 
 -3.734145896481626   9.342113974119302  11.673616748318732 
  1.244663554271214   9.342154134918866  11.673616748318732 
  2.490270125650114   2.875035302252603  11.673616748318732 
  6.223408509525606   9.341373725808056  11.673616748318732 
  7.467441462596216   2.875168058588081  11.673616748318732 
 12.446494622401829   2.874880920962161  11.673616748318732 
 -1.241548720207365   9.335618527103115   5.002978606422314 
 -0.006088502792456   2.870959087657867   5.002978606422314 
  5.025652407259580   2.908014259861400   5.002978606422314 
  3.731117726053225   9.345969613555431   5.002978606422314 
  8.717036155406490   9.350739266040490   5.002978606422314 
  9.942512428369977   2.873395483215274   5.002978606422314 
 -4.978547288434306  11.498125238371363  11.673616748318732 
 -0.000196216105268  11.498451610721945  11.673616748318732 
  1.245288280570874   5.030640173578418  11.673616748318732 
  6.223322703600737   5.030219370501849  11.673616748318732 
  4.978578195905412  11.497833271847977  11.673616748318732 
 11.201587034422026   5.030591146238669  11.673616748318732 
 -1.238536768421780   5.027230956739903   5.002978606422314 
 -2.487970566089825  11.495597300738075   5.002978606422314 
  2.483313863600374  11.496956180355630   5.002978606422314 
  7.470169786730747  11.505819726772874   5.002978606422314 
  8.707097283838159   5.003952146192503   5.002978606422314 
  0.000126425618250   7.186385326691290  11.673616748318732 
  1.245129942010072   0.718961320730484  11.673616748318732 
  4.978972453949504   7.185383558107899  11.673616748318732 
  6.223435002512210   0.719376579324264  11.673616748318732 
  9.957104417905324   7.186018283298689  11.673616748318732 
 -2.485533605707037   7.182770317823436   5.002978606422314 
 11.201656211719470   0.718986765200327  11.673616748318732 
  3.740863020152712   0.723730110343835   5.002978606422314 
  2.513272098155122   7.165900802209181   5.002978606422314 
  7.454951628376992   7.209028083899553   5.002978606422314 
  8.699188602974917   0.718429277196604   5.002978606422314 
  2.489779583968986   7.186035259518656  11.673616748318732 
 13.687729227845761   0.720281852924993   5.002978606422314 
 -1.244738252801764   9.342346752803300  11.673616748318732 
  0.000283304760830   2.874874252809575  11.673616748318732 
  4.979369491434812   2.875174670503588  11.673616748318732 
  3.734082249032181   9.341648926881073  11.673616748318732 
  8.712744055432754   9.341692896745350  11.673616748318732 
  9.956589967386789   2.875021664209448  11.673616748318732 
 -3.730844793286904   9.339972588828541   5.002978606422314 
  1.249322094316563   9.327628541931697   5.002978606422314 
  2.488116849609132   2.883556372921517   5.002978606422314 
  6.223513682219368   9.354641181251528   5.002978606422314 
  7.410169499547994   2.893846465191380   5.002978606422314 
 12.439740545519465   2.874346657263580   5.002978606422314 
 -1.244757523114037   5.030651976723892  11.673616748318732 
 -2.489251879089436  11.498415107961604  11.673616748318732 
  2.489033787033446  11.498147313186827  11.673616748318732 
  3.734925744142886   5.030472856339581  11.673616748318732 
  7.468221940904572  11.497827660300599  11.673616748318732 
 -4.974622194277381  11.502111014691467   5.002978606422314 
  8.711975142704590   5.030421085544086  11.673616748318732 
 -0.002778027757571  11.491948485784249   5.002978606422314 
  1.254998075337876   5.014067672748569   5.002978606422314 
  0.008378746782001   7.178446020507359   5.002978606422314 
  4.974636942428183  11.502529546352305   5.002978606422314 
 11.203039820685721   5.027698108660604   5.002978606422314 
 -2.489605940012757   7.186336442664845  11.673616748318732 
  3.734669118140058   0.719251464411587  11.673616748318732 
  7.467835129639765   7.185474810871092  11.673616748318732 
  8.712168294071761   0.719276325053015  11.673616748318732 
 13.691558468270463   0.718828030698153  11.673616748318732 
 -0.000014704492057   1.437081412148428   1.667814863653557 
  3.736487403968344   7.902909661359536   1.669542357091325 
  4.979368728758508   1.440626017243663   1.674668210727651 
  8.710535525849775   7.903267517047262   1.671325643470828 
  9.956286612036994   1.438213465036123   1.669840531786730 
 -4.979736900763565  10.060705308973533   8.337667929032122 
  0.000218900624164  10.061604325124774   8.337669117119002 
  1.245769079155469   3.592539968376436   8.337813916674943 
  4.979162688260721  10.059967719427283   8.337654728132186 
  6.223261387715255   3.596124475619952   8.313734971057526 
 11.200363171340570   3.592796825870854   8.336781944591062 
 -2.489866134452180  10.061619664972234   1.668199945121325 
 -1.245160343721070   3.592642717076669   1.667898108463910 
  3.736613026881376   3.593990684836904   1.672075762331379 
  2.490129517496920  10.060629151377148   1.668346132646403 
  7.467461872951428  10.060012180634626   1.668424717675413 
  8.709925761735427   3.593443685596248   1.676790548524528 
 -6.223669683103973  12.216812737770688   8.337839542723691 
 -1.244831165131901  12.219255074593452   8.336119381392267 
  0.000676572527677   5.748262861374756   8.337787108614574 
  4.981276989550363   5.746367083200020   8.323129467573555 
  3.733868407254772  12.216926254473755   8.337760746516420 
  9.954427612791026   5.747739841735569   8.334052036255624 
 -2.490703607094253   5.748366115643155   1.668345819667893 
 -3.734089363362256  12.218214188330590   1.668856286791962 
  1.244379806517592  12.218272763892873   1.669038711070020 
  2.492770778161550   5.747201732596136   1.667663433457020 
  6.223244279503562  12.216447493462743   1.667782330986013 
  7.464536995250064   5.746640378829998   1.681780675686990 
 -1.244892078627033   7.904728557198538   8.338029894771399 
 -0.000014704492057   1.437081412148429   8.338142349191072 
  3.736487403968345   7.902909661359537   8.336414855753317 
  4.979368728758509   1.440626017243664   8.331289002116964 
  8.710535525849775   7.903267517047263   8.334631569373800 
 -3.735746877602808   7.904283647692703   1.668565657577338 
  9.956286612036994   1.438213465036124   8.336116681057899 
  2.490117267093490   1.438018209949408   1.669444799070470 
  1.246234909487829   7.904100350102162   1.668497388748957 
  6.222987469044087   7.902535954345999   1.671945594811171 
  7.467251814613650   1.440538221990306   1.675171915422395 
  1.246234909487830   7.904100350102163   8.337459824095671 
 12.446246184573743   1.437214617002739   1.667973145338414 
 -2.489866134452179  10.061619664972234   8.337757267723303 
 -1.245160343721070   3.592642717076670   8.338059104380717 
  3.736613026881376   3.593990684836905   8.333881450513235 
  2.490129517496920  10.060629151377148   8.337611080198224 
  7.467461872951429  10.060012180634626   8.337532495169215 
  8.709925761735434   3.593443685596236   8.329166664320100 
 -4.979736900763566  10.060705308973533   1.668289283812493 
  0.000218900624164  10.061604325124774   1.668288095725625 
  1.245769079155469   3.592539968376435   1.668143296169671 
  4.979162688260720  10.059967719427283   1.668302484712428 
  6.223261387715255   3.596124475619951   1.692222241787088 
 11.200363171340570   3.592796825870853   1.669175268253554 
 -2.490703607094253   5.748366115643156   8.337611393176735 
 -3.734089363362256  12.218214188330590   8.337100926052665 
  1.244379806517592  12.218272763892873   8.336918501774582 
  2.492770778161550   5.747201732596137   8.338293779387607 
  6.223244279503563  12.216447493462743   8.338174881858603 
 -6.223669683103974  12.216812737770688   1.668117670120937 
  7.464536995250065   5.746640378829999   8.324176537157639 
 -1.244831165131902  12.219255074593452   1.669837831452361 
  0.000676572527676   5.748262861374755   1.668170104230055 
 -1.244892078627034   7.904728557198538   1.667927318073217 
  4.981276989550362   5.746367083200019   1.682827745271086 
  3.733868407254771  12.216926254473755   1.668196466328208 
  9.954427612791026   5.747739841735569   1.671905176589004 
 -3.735746877602808   7.904283647692704   8.337391555267290 
  2.490117267093491   1.438018209949408   8.336512413774170 
  6.222987469044088   7.902535954346000   8.334011618033445 
  7.467251814613650   1.440538221990306   8.330785297422233 
 12.446246184573743   1.437214617002740   8.337984067506214 
  1.244130315153513   0.718517870629997   1.666140745184236 
  4.978839331563347   7.186533290704971   1.665075001745829 
  6.223258961424864   0.718923416319265   1.667313851169625 
  9.957150120614770   7.186259842183589   1.666976868014439 
 11.202263332258424   0.718529410149286   1.665863138656845 
 -3.734416873064071   9.342214438235784   8.339869904507907 
  1.244792531780502   9.342070259502453   8.339517022085401 
  2.488656084821541   2.874216722041277   8.339675081877123 
  6.223313406094193   9.342491668804845   8.340076325447857 
  7.468291605498070   2.874544797584673   8.335824029006824 
 12.446754318555612   2.874284223382431   8.340144054222280 
 -1.244806172928910   9.342206798824321   1.666095028373026 
 -0.000534799625479   2.874142214049836   1.665911080298978 
  4.978096377977819   2.874551117813413   1.668789467808463 
  3.734188990324840   9.342095840354180   1.666348475340568 
  8.712464143712605   9.342350903065139   1.666294872243501 
  9.957608426202267   2.874313174696573   1.666439915562023 
 -4.979181965852755  11.498185452869873   8.339997856460400 
 -0.000048434321405  11.498243474796386   8.339840758342026 
  1.244514305953016   5.029939635438127   8.339324239275474 
  6.223410454687188   5.030891200517750   8.343861977918849 
  4.978709668038801  11.498141021369884   8.340034210998105 
 11.201963030449637   5.030239849407714   8.339578559896172 
 -1.244928112107360   5.030184636062944   1.666442568091664 
 -2.489624996711241  11.498284983627501   1.666018355261535 
  2.489410603740794  11.498053992503001   1.666191675148089 
  3.733347025562503   5.029779170425323   1.660409940138585 
  7.467850008801552  11.498217667000555   1.665837969912041 
  8.712695323920594   5.030300281927712   1.669926857176891 
  0.000011461736057   7.186071149800402   8.339530102247387 
  1.244130315153514   0.718517870629998   8.339816467660391 
  4.978839331563348   7.186533290704972   8.340882211098785 
  6.223258961424865   0.718923416319265   8.338643361675002 
  9.957150120614770   7.186259842183590   8.338980344830189 
 -2.489663365122563   7.186176438076408   1.666094178185973 
 11.202263332258424   0.718529410149287   8.340094074187784 
  3.733567020455105   0.718807244575500   1.666195740525866 
  2.489603477052103   7.185973597774026   1.666372167258358 
  7.467828538233726   7.186628277123658   1.668999438945975 
  8.712870598425049   0.718758426432348   1.666252761828646 
  2.489603477052104   7.185973597774026   8.339585045586269 
 13.691361638349727   0.718519863063564   1.665746214638161 
 -1.244806172928909   9.342206798824321   8.339862184471588 
 -0.000534799625478   2.874142214049836   8.340046132545636 
  4.978096377977820   2.874551117813414   8.337167745036165 
  3.734188990324841   9.342095840354180   8.339608737504047 
  8.712464143712605   9.342350903065139   8.339662340601100 
  9.957608426202267   2.874313174696574   8.339517297282619 
 -3.734416873064071   9.342214438235784   1.666087308336721 
  1.244792531780502   9.342070259502453   1.666440190759226 
  2.488656084821540   2.874216722041276   1.666282130967504 
  6.223313406094192   9.342491668804845   1.665880887396758 
  7.468291605498069   2.874544797584672   1.670133183837804 
 12.446754318555612   2.874284223382430   1.665813158622361 
 -1.244928112107360   5.030184636062945   8.339514644752978 
 -2.489624996711240  11.498284983627501   8.339938857583091 
  2.489410603740794  11.498053992503001   8.339765537696540 
  3.733347025562503   5.029779170425324   8.345547272706042 
  7.467850008801553  11.498217667000555   8.340119242932587 
 -4.979181965852756  11.498185452869873   1.665959356384227 
  8.712695323920594   5.030300281927713   8.336030355667722 
 -0.000048434321406  11.498243474796386   1.666116454502588 
  1.244514305953016   5.029939635438126   1.666632973569155 
  0.000011461736056   7.186071149800401   1.666427110597241 
  6.223410454687187   5.030891200517750   1.662095234925780 
  4.978709668038800  11.498141021369884   1.665923001846536 
 11.201963030449637   5.030239849407713   1.666378652948442 
 -2.489663365122563   7.186176438076409   8.339863034658656 
  3.733567020455105   0.718807244575501   8.339761472318763 
  7.467828538233727   7.186628277123659   8.336957773898654 
  8.712870598425049   0.718758426432349   8.339704451015983 
 13.691361638349727   0.718519863063564   8.340210998206453 
 -0.002992811068563   1.436240142023411   5.002978606422314 
  3.731707300561631   7.912940468205626   5.002978606422314 
  4.968194756044555   1.435697270572006   5.002978606422314 
  8.722630847445583   7.921223359188367   5.002978606422314 
  9.953488849664696   1.431757912251899   5.002978606422314 
 -4.978741690981823  10.060827672895062  11.673616748318732 
 -0.000085090107585  10.060846109582309  11.673616748318732 
  1.244640499419627   3.593315728851139  11.673616748318732 
  4.978677685044127  10.060833783908684  11.673616748318732 
  6.223404808386926   3.593201197735209  11.673616748318732 
 11.202186040506573   3.593341819872159  11.673616748318732 
 -2.485839346955693  10.055070279752218   5.002978606422314 
 -1.247813441007654   3.591105589488104   5.002978606422314 
  3.712395415984716   3.615622142835718   5.002978606422314 
  2.485698378194034  10.058853297313421   5.002978606422314 
  7.471429096191467  10.073183079676987   5.002978606422314 
  8.709504901630924   3.578686992591427   5.002978606422314 
 -6.223491036617001  12.216730753368470  11.673616748318732 
 -1.244718140734268  12.216638395267516  11.673616748318732 
 -0.000078392677363   5.749195632126269  11.673616748318732 
  4.978646738562724   5.749158853276276  11.673616748318732 
  3.733967646320881  12.216718365167132  11.673616748318732 
  9.957584815457700   5.749184836966198  11.673616748318732 
 -2.481951319858260   5.746419250690146   5.002978606422314 
 -3.733160431111293  12.215194618741206   5.002978606422314 
  1.241085255294058  12.209498039888782   5.002978606422314 
  2.516665324975785   5.710157635297602   5.002978606422314 
  6.221535747312249  12.220340813965201   5.002978606422314 
  7.571899695656978   5.822546614537633   5.002978606422314 
 -1.244758941577337   7.904995792236905  11.673616748318732 
 -0.000030222492832   1.437383752468959  11.673616748318732 
  3.733937793671243   7.904964735697374  11.673616748318732 
  4.978771377611615   1.437280363691112  11.673616748318732 
  8.712919002678685   7.904979314537345  11.673616748318732 
 -3.728501405910161   7.903305455627635   5.002978606422314 
  9.957418651395038   1.437371097839551  11.673616748318732 
  2.490123928801174   1.443660362146696   5.002978606422314 
  1.256787260413059   7.884616410818102   5.002978606422314 
  6.219391595461243   7.931676766678158   5.002978606422314 
  7.463949901650500   1.424323709106913   5.002978606422314 
  1.244563304812601   7.905008547285018  11.673616748318732 
 12.443171649371843   1.436590586978715   5.002978606422314 
 -2.489393083433424  10.060805146247134  11.673616748318732 
 -1.244740758045794   3.593330600589908  11.673616748318732 
  3.734027921876046   3.593261700853804  11.673616748318732 
  2.489252056954302  10.060829535948894  11.673616748318732 
  7.468150190711389  10.060862432981498  11.673616748318732 
  8.712790264411980   3.593280697272157  11.673616748318732 
 -4.972873860811198  10.065515074169030   5.002978606422314 
  0.003684008893117  10.048891111374596   5.002978606422314 
  1.235003930596988   3.585707234908938   5.002978606422314 
  4.974782776626447  10.069617351472493   5.002978606422314 
  6.215914501710772   3.587677605316249   5.002978606422314 
 11.200083501933925   3.590483464046380   5.002978606422314 
 -2.489413665563186   5.749191882274227  11.673616748318732 
 -3.734085495750755  12.216669450680635  11.673616748318732 
  1.244571251520691  12.216696485988150  11.673616748318732 
  2.489267087123330   5.749212173723162  11.673616748318732 
  6.223433871697538  12.216746489903127  11.673616748318732 
 -6.220818821970707  12.222924122651104   5.002978606422314 
  7.468180534832240   5.749161392556545  11.673616748318732 
 -1.246648943621003  12.208062970124478   5.002978606422314 
  0.012934019962707   5.742540932064999   5.002978606422314 
 -1.237719914542705   7.897737503039678   5.002978606422314 
  3.729411720328669  12.216589220141007   5.002978606422314 
  9.966286927635757   5.748390098126956   5.002978606422314 
 -3.734027316332645   7.904966194633821  11.673616748318732 
  2.489357973105070   1.437359250013189  11.673616748318732 
  6.223415670299508   7.904958188398579  11.673616748318732 
  7.468066108883946   1.437291258561737  11.673616748318732 
 12.446880971932583   1.437399855803877  11.673616748318732 
  3.752464823797687   5.004678186187019   5.002978606422314 
  4.891688716687741   5.709270083652547   5.002978606422314 
Generated by cif2cell 2.0.0.  :  Failed to get author information, No journal information. Species order: B N C 
 1.0
 14.936314146199660   0.000000000000000   0.000000000000000
 -7.468157073099825  12.935227489513863   0.000000000000000
  0.000000000000001   0.000000000000001  13.341276283792837
 B N C 
 142 143   2
Cartesian
  1.249066257965482   0.725759293242521   5.002978606422314 
  4.986616389853612   7.190398259118657   5.002978606422314 
  6.216765484185567   0.723154056745048   5.002978606422314 
  9.957364010894139   7.184218865787935   5.002978606422314 
 11.193553083912088   0.719798184990111   5.002978606422314 
 -3.734145896481626   9.342113974119302  11.673616748318732 
  1.244663554271214   9.342154134918866  11.673616748318732 
  2.490270125650114   2.875035302252603  11.673616748318732 
  6.223408509525606   9.341373725808056  11.673616748318732 
  7.467441462596216   2.875168058588081  11.673616748318732 
 12.446494622401829   2.874880920962161  11.673616748318732 
 -1.241548720207365   9.335618527103115   5.002978606422314 
 -0.006088502792456   2.870959087657867   5.002978606422314 
  5.025652407259580   2.908014259861400   5.002978606422314 
  3.731117726053225   9.345969613555431   5.002978606422314 
  8.717036155406490   9.350739266040490   5.002978606422314 
  9.942512428369977   2.873395483215274   5.002978606422314 
 -4.978547288434306  11.498125238371363  11.673616748318732 
 -0.000196216105268  11.498451610721945  11.673616748318732 
  1.245288280570874   5.030640173578418  11.673616748318732 
  6.223322703600737   5.030219370501849  11.673616748318732 
  4.978578195905412  11.497833271847977  11.673616748318732 
 11.201587034422026   5.030591146238669  11.673616748318732 
 -1.238536768421780   5.027230956739903   5.002978606422314 
 -2.487970566089825  11.495597300738075   5.002978606422314 
  2.483313863600374  11.496956180355630   5.002978606422314 
  7.470169786730747  11.505819726772874   5.002978606422314 
  8.707097283838159   5.003952146192503   5.002978606422314 
  0.000126425618250   7.186385326691290  11.673616748318732 
  1.245129942010072   0.718961320730484  11.673616748318732 
  4.978972453949504   7.185383558107899  11.673616748318732 
  6.223435002512210   0.719376579324264  11.673616748318732 
  9.957104417905324   7.186018283298689  11.673616748318732 
 -2.485533605707037   7.182770317823436   5.002978606422314 
 11.201656211719470   0.718986765200327  11.673616748318732 
  3.740863020152712   0.723730110343835   5.002978606422314 
  2.513272098155122   7.165900802209181   5.002978606422314 
  7.454951628376992   7.209028083899553   5.002978606422314 
  8.699188602974917   0.718429277196604   5.002978606422314 
  2.489779583968986   7.186035259518656  11.673616748318732 
 13.687729227845761   0.720281852924993   5.002978606422314 
 -1.244738252801764   9.342346752803300  11.673616748318732 
  0.000283304760830   2.874874252809575  11.673616748318732 
  4.979369491434812   2.875174670503588  11.673616748318732 
  3.734082249032181   9.341648926881073  11.673616748318732 
  8.712744055432754   9.341692896745350  11.673616748318732 
  9.956589967386789   2.875021664209448  11.673616748318732 
 -3.730844793286904   9.339972588828541   5.002978606422314 
  1.249322094316563   9.327628541931697   5.002978606422314 
  2.488116849609132   2.883556372921517   5.002978606422314 
  6.223513682219368   9.354641181251528   5.002978606422314 
  7.410169499547994   2.893846465191380   5.002978606422314 
 12.439740545519465   2.874346657263580   5.002978606422314 
 -1.244757523114037   5.030651976723892  11.673616748318732 
 -2.489251879089436  11.498415107961604  11.673616748318732 
  2.489033787033446  11.498147313186827  11.673616748318732 
  3.734925744142886   5.030472856339581  11.673616748318732 
  7.468221940904572  11.497827660300599  11.673616748318732 
 -4.974622194277381  11.502111014691467   5.002978606422314 
  8.711975142704590   5.030421085544086  11.673616748318732 
 -0.002778027757571  11.491948485784249   5.002978606422314 
  1.254998075337876   5.014067672748569   5.002978606422314 
  0.008378746782001   7.178446020507359   5.002978606422314 
  4.974636942428183  11.502529546352305   5.002978606422314 
 11.203039820685721   5.027698108660604   5.002978606422314 
 -2.489605940012757   7.186336442664845  11.673616748318732 
  3.734669118140058   0.719251464411587  11.673616748318732 
  7.467835129639765   7.185474810871092  11.673616748318732 
  8.712168294071761   0.719276325053015  11.673616748318732 
 13.691558468270463   0.718828030698153  11.673616748318732 
 -0.000014704492057   1.437081412148428   1.667814863653557 
  3.736487403968344   7.902909661359536   1.669542357091325 
  4.979368728758508   1.440626017243663   1.674668210727651 
  8.710535525849775   7.903267517047262   1.671325643470828 
  9.956286612036994   1.438213465036123   1.669840531786730 
 -4.979736900763565  10.060705308973533   8.337667929032122 
  0.000218900624164  10.061604325124774   8.337669117119002 
  1.245769079155469   3.592539968376436   8.337813916674943 
  4.979162688260721  10.059967719427283   8.337654728132186 
  6.223261387715255   3.596124475619952   8.313734971057526 
 11.200363171340570   3.592796825870854   8.336781944591062 
 -2.489866134452180  10.061619664972234   1.668199945121325 
 -1.245160343721070   3.592642717076669   1.667898108463910 
  3.736613026881376   3.593990684836904   1.672075762331379 
  2.490129517496920  10.060629151377148   1.668346132646403 
  7.467461872951428  10.060012180634626   1.668424717675413 
  8.709925761735427   3.593443685596248   1.676790548524528 
 -6.223669683103973  12.216812737770688   8.337839542723691 
 -1.244831165131901  12.219255074593452   8.336119381392267 
  0.000676572527677   5.748262861374756   8.337787108614574 
  4.981276989550363   5.746367083200020   8.323129467573555 
  3.733868407254772  12.216926254473755   8.337760746516420 
  9.954427612791026   5.747739841735569   8.334052036255624 
 -2.490703607094253   5.748366115643155   1.668345819667893 
 -3.734089363362256  12.218214188330590   1.668856286791962 
  1.244379806517592  12.218272763892873   1.669038711070020 
  2.492770778161550   5.747201732596136   1.667663433457020 
  6.223244279503562  12.216447493462743   1.667782330986013 
  7.464536995250064   5.746640378829998   1.681780675686990 
 -1.244892078627033   7.904728557198538   8.338029894771399 
 -0.000014704492057   1.437081412148429   8.338142349191072 
  3.736487403968345   7.902909661359537   8.336414855753317 
  4.979368728758509   1.440626017243664   8.331289002116964 
  8.710535525849775   7.903267517047263   8.334631569373800 
 -3.735746877602808   7.904283647692703   1.668565657577338 
  9.956286612036994   1.438213465036124   8.336116681057899 
  2.490117267093490   1.438018209949408   1.669444799070470 
  1.246234909487829   7.904100350102162   1.668497388748957 
  6.222987469044087   7.902535954345999   1.671945594811171 
  7.467251814613650   1.440538221990306   1.675171915422395 
  1.246234909487830   7.904100350102163   8.337459824095671 
 12.446246184573743   1.437214617002739   1.667973145338414 
 -2.489866134452179  10.061619664972234   8.337757267723303 
 -1.245160343721070   3.592642717076670   8.338059104380717 
  3.736613026881376   3.593990684836905   8.333881450513235 
  2.490129517496920  10.060629151377148   8.337611080198224 
  7.467461872951429  10.060012180634626   8.337532495169215 
  8.709925761735434   3.593443685596236   8.329166664320100 
 -4.979736900763566  10.060705308973533   1.668289283812493 
  0.000218900624164  10.061604325124774   1.668288095725625 
  1.245769079155469   3.592539968376435   1.668143296169671 
  4.979162688260720  10.059967719427283   1.668302484712428 
  6.223261387715255   3.596124475619951   1.692222241787088 
 11.200363171340570   3.592796825870853   1.669175268253554 
 -2.490703607094253   5.748366115643156   8.337611393176735 
 -3.734089363362256  12.218214188330590   8.337100926052665 
  1.244379806517592  12.218272763892873   8.336918501774582 
  2.492770778161550   5.747201732596137   8.338293779387607 
  6.223244279503563  12.216447493462743   8.338174881858603 
 -6.223669683103974  12.216812737770688   1.668117670120937 
  7.464536995250065   5.746640378829999   8.324176537157639 
 -1.244831165131902  12.219255074593452   1.669837831452361 
  0.000676572527676   5.748262861374755   1.668170104230055 
 -1.244892078627034   7.904728557198538   1.667927318073217 
  4.981276989550362   5.746367083200019   1.682827745271086 
  3.733868407254771  12.216926254473755   1.668196466328208 
  9.954427612791026   5.747739841735569   1.671905176589004 
 -3.735746877602808   7.904283647692704   8.337391555267290 
  2.490117267093491   1.438018209949408   8.336512413774170 
  6.222987469044088   7.902535954346000   8.334011618033445 
  7.467251814613650   1.440538221990306   8.330785297422233 
 12.446246184573743   1.437214617002740   8.337984067506214 
  1.244130315153513   0.718517870629997   1.666140745184236 
  4.978839331563347   7.186533290704971   1.665075001745829 
  6.223258961424864   0.718923416319265   1.667313851169625 
  9.957150120614770   7.186259842183589   1.666976868014439 
 11.202263332258424   0.718529410149286   1.665863138656845 
 -3.734416873064071   9.342214438235784   8.339869904507907 
  1.244792531780502   9.342070259502453   8.339517022085401 
  2.488656084821541   2.874216722041277   8.339675081877123 
  6.223313406094193   9.342491668804845   8.340076325447857 
  7.468291605498070   2.874544797584673   8.335824029006824 
 12.446754318555612   2.874284223382431   8.340144054222280 
 -1.244806172928910   9.342206798824321   1.666095028373026 
 -0.000534799625479   2.874142214049836   1.665911080298978 
  4.978096377977819   2.874551117813413   1.668789467808463 
  3.734188990324840   9.342095840354180   1.666348475340568 
  8.712464143712605   9.342350903065139   1.666294872243501 
  9.957608426202267   2.874313174696573   1.666439915562023 
 -4.979181965852755  11.498185452869873   8.339997856460400 
 -0.000048434321405  11.498243474796386   8.339840758342026 
  1.244514305953016   5.029939635438127   8.339324239275474 
  6.223410454687188   5.030891200517750   8.343861977918849 
  4.978709668038801  11.498141021369884   8.340034210998105 
 11.201963030449637   5.030239849407714   8.339578559896172 
 -1.244928112107360   5.030184636062944   1.666442568091664 
 -2.489624996711241  11.498284983627501   1.666018355261535 
  2.489410603740794  11.498053992503001   1.666191675148089 
  3.733347025562503   5.029779170425323   1.660409940138585 
  7.467850008801552  11.498217667000555   1.665837969912041 
  8.712695323920594   5.030300281927712   1.669926857176891 
  0.000011461736057   7.186071149800402   8.339530102247387 
  1.244130315153514   0.718517870629998   8.339816467660391 
  4.978839331563348   7.186533290704972   8.340882211098785 
  6.223258961424865   0.718923416319265   8.338643361675002 
  9.957150120614770   7.186259842183590   8.338980344830189 
 -2.489663365122563   7.186176438076408   1.666094178185973 
 11.202263332258424   0.718529410149287   8.340094074187784 
  3.733567020455105   0.718807244575500   1.666195740525866 
  2.489603477052103   7.185973597774026   1.666372167258358 
  7.467828538233726   7.186628277123658   1.668999438945975 
  8.712870598425049   0.718758426432348   1.666252761828646 
  2.489603477052104   7.185973597774026   8.339585045586269 
 13.691361638349727   0.718519863063564   1.665746214638161 
 -1.244806172928909   9.342206798824321   8.339862184471588 
 -0.000534799625478   2.874142214049836   8.340046132545636 
  4.978096377977820   2.874551117813414   8.337167745036165 
  3.734188990324841   9.342095840354180   8.339608737504047 
  8.712464143712605   9.342350903065139   8.339662340601100 
  9.957608426202267   2.874313174696574   8.339517297282619 
 -3.734416873064071   9.342214438235784   1.666087308336721 
  1.244792531780502   9.342070259502453   1.666440190759226 
  2.488656084821540   2.874216722041276   1.666282130967504 
  6.223313406094192   9.342491668804845   1.665880887396758 
  7.468291605498069   2.874544797584672   1.670133183837804 