 B N Sn 
 1.0
 17.527899999999772   0.000000000000000   0.000000000000000
 -8.763949999999658  15.179606674993195   0.000000000000000
  0.000000000000001   0.000000000000002  15.000000000000000
 B N Sn 
  48  48   1
Cartesian
  7.517525736766137  14.451885922827646   1.791140417270190 
 15.032509379760636   1.442128511432037   1.794484703888070 
 13.781412012794034   3.611490958146928   1.774264272982965 
 12.529991077772838   5.781008737902628   1.739957948131845 
 11.272374702158389   7.948473806574156   1.716863085676455 
 10.010391538095632  10.112442201540087   1.721032701380085 
  8.755536255934844  12.270011758151858   1.752142522932255 
 -7.508765010178572  14.456567474210944   1.772520071918175 
  0.008363902992348   1.445565120394115   1.794314785685160 
 -1.243665291432916   3.614154753000540   1.780512909562680 
 -2.497878311677208   5.782923100641924   1.740311500953225 
 -3.752325800369752   7.951411929848231   1.721491133660730 
 -5.007614901653599  10.119737783328796   1.725414741327375 
 -6.261174843415883  12.286188599531709   1.746151689749445 
 -5.005233073772590  14.461230621498066   1.747700125108605 
  2.516982846536768   1.464451504245824   1.752976722303360 
  1.257940622666950   3.618981192341784   1.753193911490115 
  0.001935160694266   5.785604832153101   1.680328543409100 
 -1.251056095285534   7.951702998852506   1.638966957937335 
 -2.498666524973594  10.119737783328796   1.666665994096680 
 -3.754659696354966  12.289174796314573   1.715902634084145 
 -2.501189319423623  14.458767161480662   1.722794786041230 
  5.012947033961511   1.456504766657295   1.720252031728725 
  3.781060949318473   3.661796073223167   1.678296689636310 
  2.474534465189190   5.791681893211236   1.478871410952480 
  1.241948430648197   7.932314817840172   1.326795073294890 
  0.011917551765018  10.114219463325913   1.506232516285395 
 -1.250626477877099  12.285886384303184   1.669711052140350 
  0.003059134344387  14.455943327413832   1.720822619786040 
  7.517918218554776   1.445683836737064   1.717548192462180 
  6.271434305882177   3.617516124354523   1.672864148249625 
  5.083440957877072   5.845324028107325   1.574142662185410 
  2.516629008285950  10.140020697785891   1.326933565237500 
  1.253399319542085  12.289451544621087   1.637999417193390 
  2.508232738583398  14.453611283458992   1.741050397100820 
 10.023670498786844   1.440093512213005   1.741449857771235 
  8.778656874811107   3.604280940339788   1.701450773697720 
  7.546671679179516   5.764082873018291   1.640564972786370 
  6.244738533237918   7.857056173002718   1.579625025298035 
  4.986907178131054  10.143387567642758   1.474442996899260 
  3.755610667231983  12.287350750625347   1.680861725736090 
  5.013564817670387  14.451484865944249   1.780778709756270 
 12.528156226975451   1.440907347786713   1.771311403194675 
 11.279334422668112   3.608961858076421   1.741585796972925 
 10.033294685980495   5.777155319131289   1.700776433993160 
  8.768370918415403   7.941931506186239   1.670677041280875 
  7.484845017403908  10.076657426123138   1.675899676425270 
  6.260186114098747  12.282774364217939   1.757501981397570 
  8.766446427513785  13.722304765265784   1.769947989548805 
 16.285725965022049   0.718845399591206   1.802100937812405 
 15.032598292974804   2.888083219224771   1.792822990384965 
 13.776887596413218   5.059868891664398   1.758609666697740 
 12.522233790491720   7.227099835879917   1.727378628934710 
 11.264173574551593   9.393622297490188   1.723736591521620 
 10.012387126942990  11.556194186384536   1.748533471432440 
 -6.257238807994445  13.734241877635329   1.756620433029555 
  1.264810033101784   0.728694685097744   1.784753930869440 
  0.009473525629153   2.889205949018069   1.789095028956405 
 -1.249431142382311   5.059868891664398   1.745198654912550 
 -2.504031271448253   7.228477026037013   1.713555433073025 
 -3.755327104572908   9.397545179729793   1.717106446940805 
 -5.009255508022330  11.565091394417678   1.727345570106555 
 -3.755003227266737  13.737380058908839   1.733424677750385 
  3.763486891177600   0.732739736965525   1.746771260409240 
  2.528926865997719   2.920250467209850   1.720059446492820 
  1.250842110789416   5.051349338440491   1.707944462053770 
 -0.008087098414307   7.228446542303832   1.591111485303570 
 -1.249196253277019   9.398243525784597   1.596495784658700 
 -2.504376157155270  11.567253141892412   1.676703009241665 
 -1.250799913378913  13.735208969930220   1.720219115085240 
  6.262512799864481   0.730010245807758   1.707959924549250 
  5.017530935029719   2.913033690238227   1.700198398446615 
  3.802521173173074   5.142882847571091   1.593152282146725 
  2.405357546345821   7.139503981294689   1.098890761618845 
  1.255263543859214   9.396398679960702   1.317511572863325 
  0.001813876934203  11.564080536154359   1.601326757303910 
  1.253247792240136  13.736385019086958   1.703972722443045 
  8.767771174559117   0.723879557440145   1.733494060426170 
  7.519755181693991   2.894409951441073   1.706719902565890 
  6.282363986970291   5.072207184628443   1.614924038971440 
  3.784625620788351   9.528670561281803   1.097376567583245 
  2.501171414943680  11.574502362232311   1.592301818670960 
  3.760489807871310  13.733628994176518   1.752768626348580 
 11.274253869541019   0.720672954015198   1.762630559057550 
 10.026046121593270   2.886293858559903   1.724758603716165 
  8.783870648803671   5.049953680940980   1.676363685593985 
  7.513384703100430   7.205272168947156   1.634012608951755 
  6.212750808145195   9.317703000939463   1.589183966305410 
  5.016065147596965  11.573350237386098   1.701331143084960 
  6.268088718864821  13.728864354498224   1.795093477067250 
 13.780245628890070   0.718896974576345   1.779959850244440 
 12.528803188446055   2.887765151777497   1.768580163552765 
 11.278590988127819   5.055850085208953   1.731553938970380 
 10.019006012137783   7.222253268847511   1.696895139112650 
  8.751607216519016   9.380263789951107   1.684404138259095 
  7.500999202668362  11.531270563963991   1.731945278355135 
  4.035953529667244   7.790377940161304  14.994259443432330 
