 N B 
 1.0
 17.527899999999772   0.000000000000000   0.000000000000000
 -8.763949999999658  15.179606674993195   0.000000000000000
  0.000000000000001   0.000000000000002  15.000000000000000
 N B 
  49  48
Cartesian
  8.750651508664628  13.706420474620115   1.659911071546335 
 16.295507362930010   0.711539628013976   1.667646182607780 
 15.059787394811249   2.883353398146894   1.673358224629575 
 13.806918190631432   5.049965097686099   1.676624957800245 
 12.528316970869927   7.218515580116490   1.682438996545410 
 11.242739271804702   9.384812171144375   1.679066242406370 
  9.984102459877779  11.543609676665115   1.662325202322615 
 -6.275883264225747  13.743138542468188   1.659183813800145 
  1.269182356390493   0.748136138999664   1.659911229151350 
  0.039817251381836   2.919336689815820   1.665697493081100 
 -1.219543408573605   5.072286265957143   1.677657159152685 
 -2.508140155265882   7.233880935270615   1.694657384264040 
 -3.784608584591786   9.403180642233092   1.687385095591920 
 -5.038516300716822  11.572141817544335   1.670297975269710 
 -3.777062191915618  13.757043962487245   1.670297961424665 
  3.758956976069108   0.761342451969614   1.662325049217570 
  2.556371227215753   2.977796313264177   1.655158902829890 
  1.308437113461476   5.131789461336283   1.638977371305210 
 -0.016635836592560   7.256076483084512   1.689907681939875 
 -1.295113133373237   9.416916038611143   1.688766125422425 
 -2.538002418623280  11.585070854855559   1.684770969151110 
 -1.271733021955208  13.755608171339906   1.687384956331905 
  6.257849483813620   0.750727527605195   1.679066325806430 
  5.031679426841424   2.948317752627586   1.689732271387305 
  3.870102491726449   5.246397165943626   1.648434246294645 
  2.465650824406786   7.348424199885396   1.459486898338080 
  1.176529589875121   9.440485866374935   1.588942058844285 
 -0.038879843627958  11.592777746651608   1.688766228652380 
  1.245170597623735  13.734806667857251   1.694657463284025 
  8.776706123565233   0.720531560419617   1.682439266500350 
  7.549233075433898   2.888688904612188   1.705773097987290 
  6.345905945595391   5.064789658489986   1.758650643373800 
  3.592210668200931   8.045789558732801   1.056718139730870 
  3.632867343417624   9.370101093100590   1.459486951333020 
  2.471700059508839  11.566003012440252   1.689907606534905 
  3.761464663299189  13.699646197643709   1.677657139727685 
 11.294026374647967   0.697507641549981   1.676624998465215 
 10.064298798514468   2.859973586272530   1.683446197011915 
  8.847608741054218   5.011586287205906   1.735618557727335 
  7.550684823380869   7.151523031047632   1.758650570728770 
  6.155505043402429   9.204826037205663   1.648434265914570 
  4.973922160898915  11.480597209069426   1.638977299530195 
  6.255653424499372  13.685481506968578   1.665697518176115 
 13.796801800470389   0.695798584118354   1.673358276619560 
 12.561012649432083   2.867650521651967   1.673067173489895 
 11.319303759035689   5.033706395121818   1.683446114271915 
 10.036903742265894   7.197460679367171   1.705772808052275 
  8.726488433400528   9.347912171524756   1.689732261937260 
  7.463303801324511  11.476851803226893   1.655158974109845 
  7.506377686238618  14.430354768857862   1.664666679036585 
 15.047702142213678   1.431960801347072   1.671976003254270 
 13.807367372991191   3.601718840087014   1.674394227284820 
 12.551986720706898   5.769950431709594   1.679880537044085 
 11.264155815629390   7.933525633304130   1.688028821198955 
  9.967531742734007  10.087223476785937   1.676344777448745 
  8.716983229241388  12.235984295800124   1.659356771596680 
 -7.524736537964134  14.464163876870707   1.659644958704700 
  0.020100008254164   1.463741362486155   1.664666696886630 
 -1.217267986156641   3.624010304515786   1.671750113679810 
 -2.478261298642781   5.785381617556454   1.684213566069435 
 -3.764133212459209   7.953257253191492   1.688358197521995 
 -5.043681450222906  10.119737783328796   1.678149648976500 
 -6.295570035653845  12.287464709041474   1.662929112965295 
 -5.025076407263464  14.488024497915973   1.662929059925265 
  2.525783072722977   1.512512071198758   1.659356740681665 
  1.299239705723731   3.677776177838876   1.656299817764385 
  0.033675991825296   5.811424524905305   1.667582255358465 
 -1.269842876261331   7.968735011166324   1.695987913287420 
 -2.543015010188786  10.136553516417319   1.689539114666460 
 -3.789674354184155  12.307723851169570   1.675226571897450 
 -2.521855109899510  14.487718963002358   1.678149605731515 
  5.011939545945212   1.503885643070330   1.676344762388790 
  3.824972148096606   3.767405029209048   1.666639970742315 
  2.588104816584576   5.886440279741198   1.575192255772335 
  1.205752150108804   8.008788958122658   1.597799559296235 
 -0.057158751893238  10.152756848476510   1.659165902064555 
 -1.286056164222022  12.313671089181357   1.689539087936490 
 -0.005824563327923  14.462837191216250   1.688358276962025 
  7.525408694160954   1.457824107998827   1.688029031499000 
  6.302475076670263   3.652101872259791   1.719430038181665 
  5.236949050399422   6.055462454236544   1.727920857016695 
  2.431026245038570  10.131026953547011   1.597799554361205 
  1.227916892193128  12.294983135151707   1.695987912912360 
  2.514547341857828  14.433179334226363   1.684213607064495 
 10.043034625631092   1.424316589499582   1.679880645314070 
  8.813672460580820   3.585666268521571   1.709068192552665 
  7.603042075993936   5.730137602325307   1.760165848071060 
  6.138256267396520   7.616569361353900   1.727920854406620 
  4.960210638665616   9.995046272313081   1.575192219562365 
  3.747961499847575  12.244756919073941   1.667582227833495 
  5.016845891654434  14.421813059707903   1.671750148989795 
 12.548468684567124   1.421241989031994   1.674394219844805 
 11.309291373343818   3.590331791256887   1.679319067868760 
 10.065523402696378   5.753935468393575   1.709068093897710 
  8.752391771471748   7.895479113783983   1.719429929671665 
  7.413784137703393   9.983406803718616   1.666639994127225 
  6.228536693219676  12.215569249653624   1.656299833064475 
