B C N                                   
   1.0000000000000000     
     8.7639499999999995  -15.1796066749929999    0.0000000000000000
     8.7639499999999995   15.1796066749929999    0.0000000000000000
     0.0000000000000000    0.0000000000000000   15.0000000000000000
   B    C    N 
    48     2    46
Selective dynamics
Direct
  0.9052105113898548  0.9528181916405932  0.1110596611247842   T   T   T
  0.9044114808617006  0.0955369541168417  0.1111402356606834   T   T   T
  0.9039008806679691  0.2384786062013689  0.1111278558078119   T   T   T
  0.9039667833484631  0.3814199913265059  0.1110164047890334   T   T   T
  0.9046521112954123  0.5241625661522393  0.1109916390056092   T   T   T
  0.9048752169919424  0.6669876118683213  0.1110791535692295   T   T   T
  0.9057625885965680  0.8101650264816921  0.1110537826207600   T   T   T
  0.0481076744322186  0.9520571351564081  0.1109877004997078   T   T   T
  0.0471645561776694  0.0947763634879012  0.1110349695020887   T   T   T
  0.0464180310015633  0.2375797648919062  0.1110643573390758   T   T   T
  0.0468864310553252  0.3806372963103964  0.1111105476052966   T   T   T
  0.0487484269522269  0.5232720410861836  0.1110516720352941   T   T   T
  0.0488369006975320  0.6660072944338136  0.1110828791585845   T   T   T
  0.0485913759629833  0.8090319154963075  0.1110585366956380   T   T   T
  0.1911437754920460  0.9515838445472300  0.1110184432217074   T   T   T
  0.1900374175605558  0.0944644589510044  0.1110699906143375   T   T   T
  0.1888381567852196  0.2368753591798830  0.1109499866581315   T   T   T
  0.1882766724602498  0.3794733623070614  0.1109521648322191   T   T   T
  0.1931366488856716  0.5218368725357333  0.1110075388495313   T   T   T
  0.1932000538692645  0.6648442475714849  0.1110326598389753   T   T   T
  0.1919473156629213  0.8081851071041731  0.1110224935421176   T   T   T
  0.3341346195366220  0.9512540206734131  0.1109869741225114   T   T   T
  0.3332096472769385  0.0953481674037243  0.1110366763618707   T   T   T
  0.3313357676367419  0.2386902138669111  0.1110491177241455   T   T   T
  0.3288109685029140  0.3820249326066763  0.1111254127723152   T   T   T
  0.3376495535073844  0.5157973268424424  0.1110819674099490   T   T   T
  0.3379417334940082  0.6619935722495111  0.1110284528745579   T   T   T
  0.3352626223613329  0.8068092679731974  0.1110080108173199   T   T   T
  0.4768024074769345  0.9510699853713092  0.1110036642981164   T   T   T
  0.4759461715645522  0.0954679882472788  0.1109554382059350   T   T   T
  0.4748425959420308  0.2395992570504998  0.1109922248402561   T   T   T
  0.4710873082543817  0.3819772336594397  0.1109485477199977   T   T   T
  0.4846934453843436  0.6601966943922416  0.1110864412833966   T   T   T
  0.4781982378648105  0.8061753840550789  0.1109829701282381   T   T   T
  0.6193212376792975  0.9529272260332660  0.1110750325697314   T   T   T
  0.6185806063729087  0.0959743356573021  0.1110223074789831   T   T   T
  0.6178198426104192  0.2395681871440264  0.1110026119035125   T   T   T
  0.6168156599111604  0.3834548617216675  0.1109329241845109   T   T   T
  0.6193661498561143  0.5293709392452656  0.1109643617376777   T   T   T
  0.6171995965978392  0.6705326619527576  0.1112137856125481   T   T   T
  0.6204523373330217  0.8113827320087790  0.1109781135317814   T   T   T
  0.7623568595244918  0.9534924938670157  0.1111228818501940   T   T   T
  0.7614725372370333  0.0960299328102483  0.1111370995913395   T   T   T
  0.7609034429279157  0.2390577527201094  0.1110886316559444   T   T   T
  0.7605010249852454  0.3822097680222168  0.1109851944452932   T   T   T
  0.7608928786138049  0.5253158946348027  0.1110023873849770   T   T   T
  0.7617139289136383  0.6689902345538355  0.1110651955143809   T   T   T
  0.7630541468493706  0.8110573849553088  0.1110089604018717   T   T   T
  0.4747156718055041  0.5305693085469709  0.1105527823793451   T   T   T
  0.5171293932427237  0.4852882107107741  0.1108987471251649   T   T   T
  0.9529751106284714  0.9050995727710003  0.1109894489866377   T   T   T
  0.9521542994995679  0.0477581141971173  0.1110780897270092   T   T   T
  0.9514058823165160  0.1905279111914551  0.1111090572121588   T   T   T
  0.9514926802182446  0.3336480300708447  0.1110828296701888   T   T   T
  0.9527041985471661  0.4766154028728812  0.1109754745431360   T   T   T
  0.9529104826305541  0.6193257256157128  0.1110472696192466   T   T   T
  0.9531197181847730  0.7621209541986463  0.1110701369300963   T   T   T
  0.0958816979062262  0.9042657507851475  0.1109723567612836   T   T   T
  0.0950206755647446  0.0471317119063722  0.1110030982052301   T   T   T
  0.0940245675326243  0.1897790399440434  0.1109840060334313   T   T   T
  0.0936125615113830  0.3324835228616577  0.1110675947619013   T   T   T
  0.0967639219843999  0.4756959805188460  0.1110799181328608   T   T   T
  0.0971878360480308  0.6184454981479733  0.1110481220342983   T   T   T
  0.0964702516721331  0.7612356173043695  0.1110599699725878   T   T   T
  0.2389092433675224  0.9036514566583259  0.1109800501077292   T   T   T
  0.2380550309058292  0.0470382014332230  0.1110482433194221   T   T   T
  0.2366438143604196  0.1896905129450119  0.1110455340549624   T   T   T
  0.2355781957654756  0.3321918417312907  0.1108442754900541   T   T   T
  0.2407889551422773  0.4736995617724772  0.1109031448406263   T   T   T
  0.2419510116281681  0.6169635466359594  0.1110035606501059   T   T   T
  0.2399668101206713  0.7601474886700735  0.1110062973921315   T   T   T
  0.3816701564003447  0.9028057220632956  0.1109822379000322   T   T   T
  0.3808104565880144  0.0471940237611477  0.1109633762687827   T   T   T
  0.3797429847528592  0.1913205398320459  0.1110419061537552   T   T   T
  0.3770035816172037  0.3348178749086599  0.1109937715142906   T   T   T
  0.3877902434477766  0.6120068284993075  0.1110829326015821   T   T   T
  0.3831035627954433  0.7579626683245528  0.1109988154806338   T   T   T
  0.5243065999707891  0.9027720634749465  0.1110211162846936   T   T   T
  0.5234158683816279  0.0472022210804147  0.1109548804065637   T   T   T
  0.5225755729171395  0.1914837899662808  0.1109539763642586   T   T   T
  0.5209226455228113  0.3358549527758929  0.1109264579122538   T   T   T
  0.5263488693471178  0.7581165739795820  0.1108965154674980   T   T   T
  0.6674159080769163  0.9060971220495115  0.1110718263335222   T   T   T
  0.6662970993746641  0.0483372506423570  0.1110619969910004   T   T   T
  0.6655490758535006  0.1916198521476880  0.1110281420048700   T   T   T
  0.6647389622656225  0.3353679744396054  0.1109608093154486   T   T   T
  0.6649560619509536  0.4793372855747577  0.1109394434850655   T   T   T
  0.6655185778238981  0.6233487533006710  0.1110706476077020   T   T   T
  0.6676239071204497  0.7640860854595789  0.1109470428783881   T   T   T
  0.8100862634132604  0.9058397072955555  0.1110642253576476   T   T   T
  0.8093625814005954  0.0484581452518872  0.1111574494715489   T   T   T
  0.8086324657956093  0.1912678045911996  0.1111160362290970   T   T   T
  0.8083361424895231  0.3344235986586578  0.1109942408596880   T   T   T
  0.8087344238521043  0.4774843737637942  0.1109558255444109   T   T   T
  0.8089171284283367  0.6204576816321903  0.1110400530228266   T   T   T
  0.8105063354224016  0.7635675809809094  0.1110354132648884   T   T   T

  0.00000000E+00  0.00000000E+00  0.00000000E+00
  0.00000000E+00  0.00000000E+00  0.00000000E+00
  0.00000000E+00  0.00000000E+00  0.00000000E+00
  0.00000000E+00  0.00000000E+00  0.00000000E+00
  0.00000000E+00  0.00000000E+00  0.00000000E+00
  0.00000000E+00  0.00000000E+00  0.00000000E+00
  0.00000000E+00  0.00000000E+00  0.00000000E+00
  0.00000000E+00  0.00000000E+00  0.00000000E+00
  0.00000000E+00  0.00000000E+00  0.00000000E+00
  0.00000000E+00  0.00000000E+00  0.00000000E+00
  0.00000000E+00  0.00000000E+00  0.00000000E+00
  0.00000000E+00  0.00000000E+00  0.00000000E+00
  0.00000000E+00  0.00000000E+00  0.00000000E+00
  0.00000000E+00  0.00000000E+00  0.00000000E+00
  0.00000000E+00  0.00000000E+00  0.00000000E+00
  0.00000000E+00  0.00000000E+00  0.00000000E+00
  0.00000000E+00  0.00000000E+00  0.00000000E+00
  0.00000000E+00  0.00000000E+00  0.00000000E+00
  0.00000000E+00  0.00000000E+00  0.00000000E+00
  0.00000000E+00  0.00000000E+00  0.00000000E+00
  0.00000000E+00  0.00000000E+00  0.00000000E+00
  0.00000000E+00  0.00000000E+00  0.00000000E+00
  0.00000000E+00  0.00000000E+00  0.00000000E+00
  0.00000000E+00  0.00000000E+00  0.00000000E+00
  0.00000000E+00  0.00000000E+00  0.00000000E+00
  0.00000000E+00  0.00000000E+00  0.00000000E+00
  0.00000000E+00  0.00000000E+00  0.00000000E+00
  0.00000000E+00  0.00000000E+00  0.00000000E+00
  0.00000000E+00  0.00000000E+00  0.00000000E+00
  0.00000000E+00  0.00000000E+00  0.00000000E+00
  0.00000000E+00  0.00000000E+00  0.00000000E+00
  0.00000000E+00  0.00000000E+00  0.00000000E+00
  0.00000000E+00  0.00000000E+00  0.00000000E+00
  0.00000000E+00  0.00000000E+00  0.00000000E+00
  0.00000000E+00  0.00000000E+00  0.00000000E+00
  0.00000000E+00  0.00000000E+00  0.00000000E+00
  0.00000000E+00  0.00000000E+00  0.00000000E+00
  0.00000000E+00  0.00000000E+00  0.00000000E+00
  0.00000000E+00  0.00000000E+00  0.00000000E+00
  0.00000000E+00  0.00000000E+00  0.00000000E+00
  0.00000000E+00  0.00000000E+00  0.00000000E+00
  0.00000000E+00  0.00000000E+00  0.00000000E+00
  0.00000000E+00  0.00000000E+00  0.00000000E+00
  0.00000000E+00  0.00000000E+00  0.00000000E+00
  0.00000000E+00  0.00000000E+00  0.00000000E+00
  0.00000000E+00  0.00000000E+00  0.00000000E+00
  0.00000000E+00  0.00000000E+00  0.00000000E+00
  0.00000000E+00  0.00000000E+00  0.00000000E+00
  0.00000000E+00  0.00000000E+00  0.00000000E+00
  0.00000000E+00  0.00000000E+00  0.00000000E+00
  0.00000000E+00  0.00000000E+00  0.00000000E+00
  0.00000000E+00  0.00000000E+00  0.00000000E+00
  0.00000000E+00  0.00000000E+00  0.00000000E+00
  0.00000000E+00  0.00000000E+00  0.00000000E+00
  0.00000000E+00  0.00000000E+00  0.00000000E+00
  0.00000000E+00  0.00000000E+00  0.00000000E+00
  0.00000000E+00  0.00000000E+00  0.00000000E+00
  0.00000000E+00  0.00000000E+00  0.00000000E+00
  0.00000000E+00  0.00000000E+00  0.00000000E+00
  0.00000000E+00  0.00000000E+00  0.00000000E+00
  0.00000000E+00  0.00000000E+00  0.00000000E+00
  0.00000000E+00  0.00000000E+00  0.00000000E+00
  0.00000000E+00  0.00000000E+00  0.00000000E+00
  0.00000000E+00  0.00000000E+00  0.00000000E+00
  0.00000000E+00  0.00000000E+00  0.00000000E+00
  0.00000000E+00  0.00000000E+00  0.00000000E+00
  0.00000000E+00  0.00000000E+00  0.00000000E+00
  0.00000000E+00  0.00000000E+00  0.00000000E+00
  0.00000000E+00  0.00000000E+00  0.00000000E+00
  0.00000000E+00  0.00000000E+00  0.00000000E+00
  0.00000000E+00  0.00000000E+00  0.00000000E+00
  0.00000000E+00  0.00000000E+00  0.00000000E+00
  0.00000000E+00  0.00000000E+00  0.00000000E+00
  0.00000000E+00  0.00000000E+00  0.00000000E+00
  0.00000000E+00  0.00000000E+00  0.00000000E+00
  0.00000000E+00  0.00000000E+00  0.00000000E+00
  0.00000000E+00  0.00000000E+00  0.00000000E+00
  0.00000000E+00  0.00000000E+00  0.00000000E+00
  0.00000000E+00  0.00000000E+00  0.00000000E+00
  0.00000000E+00  0.00000000E+00  0.00000000E+00
  0.00000000E+00  0.00000000E+00  0.00000000E+00
  0.00000000E+00  0.00000000E+00  0.00000000E+00
  0.00000000E+00  0.00000000E+00  0.00000000E+00
  0.00000000E+00  0.00000000E+00  0.00000000E+00
  0.00000000E+00  0.00000000E+00  0.00000000E+00
  0.00000000E+00  0.00000000E+00  0.00000000E+00
  0.00000000E+00  0.00000000E+00  0.00000000E+00
  0.00000000E+00  0.00000000E+00  0.00000000E+00
  0.00000000E+00  0.00000000E+00  0.00000000E+00
  0.00000000E+00  0.00000000E+00  0.00000000E+00
  0.00000000E+00  0.00000000E+00  0.00000000E+00
  0.00000000E+00  0.00000000E+00  0.00000000E+00
  0.00000000E+00  0.00000000E+00  0.00000000E+00
  0.00000000E+00  0.00000000E+00  0.00000000E+00
  0.00000000E+00  0.00000000E+00  0.00000000E+00
  0.00000000E+00  0.00000000E+00  0.00000000E+00
