B C N                                   
   1.0000000000000000     
     8.7639499999999995  -15.1796066749929999    0.0000000000000000
     8.7639499999999995   15.1796066749929999    0.0000000000000000
     0.0000000000000000    0.0000000000000000   15.0000000000000000
   B    C    N 
    48     2    47
Selective dynamics
Direct
  0.9043543982806773  0.9527445274758550  0.1110158302473446   T   T   T
  0.9054637506554871  0.0966584540031150  0.1110215534881163   T   T   T
  0.9054025918021643  0.2396002289151311  0.1110714180034779   T   T   T
  0.9050658329743003  0.3821741294069763  0.1110346202013925   T   T   T
  0.9042347887203013  0.5243810463996142  0.1110121218135250   T   T   T
  0.9020789975719007  0.6663588024396021  0.1110339577672733   T   T   T
  0.9029557570654499  0.8090004832224348  0.1110430023703922   T   T   T
  0.0464953666478718  0.9510787086143757  0.1110068836681371   T   T   T
  0.0469905154242548  0.0945999696487719  0.1110064411517322   T   T   T
  0.0479866802419815  0.2386730998401256  0.1110179211646421   T   T   T
  0.0485227209286937  0.3818733418950675  0.1110408560707713   T   T   T
  0.0486218640653003  0.5241923924252844  0.1110315922884838   T   T   T
  0.0476600840193595  0.6660933054005249  0.1110296863334038   T   T   T
  0.0466758347179071  0.8083074804847038  0.1110235169141013   T   T   T
  0.1898868673065624  0.9505969665233746  0.1110453327882874   T   T   T
  0.1890735596472954  0.0930116904128167  0.1110485699016106   T   T   T
  0.1891837916247655  0.2362773722334375  0.1109980765865586   T   T   T
  0.1912297445506525  0.3810507428632453  0.1109973109176151   T   T   T
  0.1928923040763109  0.5239998729216151  0.1110031794100582   T   T   T
  0.1933731857501763  0.6658490621450049  0.1110137251306479   T   T   T
  0.1909513025211399  0.8080674772210452  0.1110004296402773   T   T   T
  0.3336201280852537  0.9508035319444224  0.1110365860733732   T   T   T
  0.3326552459119504  0.0932807409153608  0.1110764477117711   T   T   T
  0.3310226484864177  0.2345210801858769  0.1110107597155222   T   T   T
  0.3310058656116172  0.3764313821661192  0.1110147115322085   T   T   T
  0.3366318724949518  0.5243553732869926  0.1110463127330627   T   T   T
  0.3406508700767396  0.6654799854812766  0.1110288087972386   T   T   T
  0.3352535456984700  0.8079738335925950  0.1110052448384154   T   T   T
  0.4771876666245285  0.9521138918402571  0.1110077157228335   T   T   T
  0.4762146239014873  0.0946411693091393  0.1110215112019429   T   T   T
  0.4754946681232193  0.2369055556724724  0.1110173051644006   T   T   T
  0.4725406860565101  0.3770193330503213  0.1110769191401656   T   T   T
  0.4945438570630547  0.6674087159215981  0.1110584391894005   T   T   T
  0.4792153358730669  0.8093275910499513  0.1110384363654378   T   T   T
  0.6204030220405680  0.9548932517138388  0.1110088642713964   T   T   T
  0.6195430066560809  0.0967307301553657  0.1110045984910315   T   T   T
  0.6188932413324697  0.2392624055324031  0.1110113052706534   T   T   T
  0.6177233690225148  0.3823745117691149  0.1109960554836627   T   T   T
  0.6172334497220918  0.5273233162855147  0.1110725386561529   T   T   T
  0.6063762688792935  0.6699710832228192  0.1110553616130180   T   T   T
  0.6218973471960886  0.8146014324086870  0.1110090966111172   T   T   T
  0.7633054000605310  0.9551066162698499  0.1110038943198316   T   T   T
  0.7627813858159073  0.0973443302593801  0.1110302230351175   T   T   T
  0.7622156519511575  0.2397571628207999  0.1110319692333869   T   T   T
  0.7613687706478038  0.3822807355349592  0.1110110271591723   T   T   T
  0.7599018679347206  0.5246843987219583  0.1110232149769708   T   T   T
  0.7558920254668688  0.6674285292897485  0.1110182473878649   T   T   T
  0.7607323107619736  0.8107805458559830  0.1110358269349977   T   T   T
  0.4681962572230656  0.5138347282486989  0.1111974469175390   T   T   T
  0.5186769082866567  0.4754332305145086  0.1112037258267137   T   T   T
  0.9515695798804550  0.9044719532812424  0.1110045283130627   T   T   T
  0.9522614954338826  0.0481093778736049  0.1109934005462878   T   T   T
  0.9529648893378899  0.1918260697803347  0.1110196483694741   T   T   T
  0.9530712860297280  0.3347062386122606  0.1110394130200652   T   T   T
  0.9529222232830734  0.4772378563465001  0.1110070557182599   T   T   T
  0.9517117721738743  0.6194487338457582  0.1110056556523885   T   T   T
  0.9512715708549240  0.7616058505522593  0.1110208723741825   T   T   T
  0.0945273602766032  0.9035239287087252  0.1109999452930254   T   T   T
  0.0940731754990662  0.0462170656255822  0.1110030319328392   T   T   T
  0.0943320109899687  0.1896809305404211  0.1109877602657044   T   T   T
  0.0957551187774136  0.3338599486333201  0.1109979037093258   T   T   T
  0.0967867273680659  0.4769371518450364  0.1110063217457910   T   T   T
  0.0968846316804278  0.6191956490333782  0.1110120104504456   T   T   T
  0.0953177722141113  0.7611867829790200  0.1110053167916663   T   T   T
  0.2381039162738492  0.9032942109637395  0.1110051198553363   T   T   T
  0.2371813412675273  0.0456568070987621  0.1110586053029136   T   T   T
  0.2359738796138121  0.1876917928936024  0.1109960804884084   T   T   T
  0.2363151140466714  0.3310690534082397  0.1109840643220638   T   T   T
  0.2401542669154418  0.4762923198238919  0.1109943528663506   T   T   T
  0.2427100819099185  0.6189846902259820  0.1109938425785251   T   T   T
  0.2395591816384517  0.7609872046865269  0.1109784434287075   T   T   T
  0.3817358227054645  0.9036464189592726  0.1109954912381006   T   T   T
  0.3807334792639736  0.0460771984099465  0.1110376579404826   T   T   T
  0.3797365230413463  0.1880085251058030  0.1110200632863939   T   T   T
  0.3772811756358901  0.3283898287697770  0.1109971061955733   T   T   T
  0.3787795940225587  0.4715709717980905  0.1110445879484772   T   T   T
  0.3911823937641957  0.6188004380335187  0.1110276220573441   T   T   T
  0.3837278642558301  0.7610632114877709  0.1110090480105162   T   T   T
  0.5253434981153969  0.9055679648867806  0.1110022205353461   T   T   T
  0.5242449247428558  0.0476823905223932  0.1109849183949354   T   T   T
  0.5235260174126275  0.1897397877906833  0.1110005782924409   T   T   T
  0.5222860360091202  0.3312670932453752  0.1109896247198400   T   T   T
  0.5279823561115504  0.7640553495270864  0.1110118843703270   T   T   T
  0.6690553423818706  0.9093424572921983  0.1109849141436378   T   T   T
  0.6677331659744100  0.0501149572262597  0.1110013610446006   T   T   T
  0.6669817996305759  0.1919824784794073  0.1109979212936722   T   T   T
  0.6661327897629928  0.3345089637400420  0.1109882449526114   T   T   T
  0.6653331872658002  0.4778574902438115  0.1109883680994555   T   T   T
  0.6597983100583749  0.6223803867808914  0.1110073008667478   T   T   T
  0.6669144630504988  0.7658650204546029  0.1110064272288323   T   T   T
  0.8098912330552750  0.9066312596276840  0.1110076137834503   T   T   T
  0.8108003409170025  0.0502399775530574  0.1110024147176693   T   T   T
  0.8102641060323226  0.1924851096567339  0.1110362338062067   T   T   T
  0.8097135816122942  0.3348651830663529  0.1110078649455654   T   T   T
  0.8089721837583322  0.4773898258205375  0.1110024219687485   T   T   T
  0.8063094431902003  0.6200258815266765  0.1110105448802515   T   T   T
  0.8080891042854650  0.7628354419119349  0.1110197256977047   T   T   T

  0.00000000E+00  0.00000000E+00  0.00000000E+00
  0.00000000E+00  0.00000000E+00  0.00000000E+00
  0.00000000E+00  0.00000000E+00  0.00000000E+00
  0.00000000E+00  0.00000000E+00  0.00000000E+00
  0.00000000E+00  0.00000000E+00  0.00000000E+00
  0.00000000E+00  0.00000000E+00  0.00000000E+00
  0.00000000E+00  0.00000000E+00  0.00000000E+00
  0.00000000E+00  0.00000000E+00  0.00000000E+00
  0.00000000E+00  0.00000000E+00  0.00000000E+00
  0.00000000E+00  0.00000000E+00  0.00000000E+00
  0.00000000E+00  0.00000000E+00  0.00000000E+00
  0.00000000E+00  0.00000000E+00  0.00000000E+00
  0.00000000E+00  0.00000000E+00  0.00000000E+00
  0.00000000E+00  0.00000000E+00  0.00000000E+00
  0.00000000E+00  0.00000000E+00  0.00000000E+00
  0.00000000E+00  0.00000000E+00  0.00000000E+00
  0.00000000E+00  0.00000000E+00  0.00000000E+00
  0.00000000E+00  0.00000000E+00  0.00000000E+00
  0.00000000E+00  0.00000000E+00  0.00000000E+00
  0.00000000E+00  0.00000000E+00  0.00000000E+00
  0.00000000E+00  0.00000000E+00  0.00000000E+00
  0.00000000E+00  0.00000000E+00  0.00000000E+00
  0.00000000E+00  0.00000000E+00  0.00000000E+00
  0.00000000E+00  0.00000000E+00  0.00000000E+00
  0.00000000E+00  0.00000000E+00  0.00000000E+00
  0.00000000E+00  0.00000000E+00  0.00000000E+00
  0.00000000E+00  0.00000000E+00  0.00000000E+00
  0.00000000E+00  0.00000000E+00  0.00000000E+00
  0.00000000E+00  0.00000000E+00  0.00000000E+00
  0.00000000E+00  0.00000000E+00  0.00000000E+00
  0.00000000E+00  0.00000000E+00  0.00000000E+00
  0.00000000E+00  0.00000000E+00  0.00000000E+00
  0.00000000E+00  0.00000000E+00  0.00000000E+00
  0.00000000E+00  0.00000000E+00  0.00000000E+00
  0.00000000E+00  0.00000000E+00  0.00000000E+00
  0.00000000E+00  0.00000000E+00  0.00000000E+00
  0.00000000E+00  0.00000000E+00  0.00000000E+00
  0.00000000E+00  0.00000000E+00  0.00000000E+00
  0.00000000E+00  0.00000000E+00  0.00000000E+00
  0.00000000E+00  0.00000000E+00  0.00000000E+00
  0.00000000E+00  0.00000000E+00  0.00000000E+00
  0.00000000E+00  0.00000000E+00  0.00000000E+00
  0.00000000E+00  0.00000000E+00  0.00000000E+00
  0.00000000E+00  0.00000000E+00  0.00000000E+00
  0.00000000E+00  0.00000000E+00  0.00000000E+00
  0.00000000E+00  0.00000000E+00  0.00000000E+00
  0.00000000E+00  0.00000000E+00  0.00000000E+00
  0.00000000E+00  0.00000000E+00  0.00000000E+00
  0.00000000E+00  0.00000000E+00  0.00000000E+00
  0.00000000E+00  0.00000000E+00  0.00000000E+00
  0.00000000E+00  0.00000000E+00  0.00000000E+00
  0.00000000E+00  0.00000000E+00  0.00000000E+00
  0.00000000E+00  0.00000000E+00  0.00000000E+00
  0.00000000E+00  0.00000000E+00  0.00000000E+00
  0.00000000E+00  0.00000000E+00  0.00000000E+00
  0.00000000E+00  0.00000000E+00  0.00000000E+00
  0.00000000E+00  0.00000000E+00  0.00000000E+00
  0.00000000E+00  0.00000000E+00  0.00000000E+00
  0.00000000E+00  0.00000000E+00  0.00000000E+00
  0.00000000E+00  0.00000000E+00  0.00000000E+00
  0.00000000E+00  0.00000000E+00  0.00000000E+00
  0.00000000E+00  0.00000000E+00  0.00000000E+00
  0.00000000E+00  0.00000000E+00  0.00000000E+00
  0.00000000E+00  0.00000000E+00  0.00000000E+00
  0.00000000E+00  0.00000000E+00  0.00000000E+00
  0.00000000E+00  0.00000000E+00  0.00000000E+00
  0.00000000E+00  0.00000000E+00  0.00000000E+00
  0.00000000E+00  0.00000000E+00  0.00000000E+00
  0.00000000E+00  0.00000000E+00  0.00000000E+00
  0.00000000E+00  0.00000000E+00  0.00000000E+00
  0.00000000E+00  0.00000000E+00  0.00000000E+00
  0.00000000E+00  0.00000000E+00  0.00000000E+00
  0.00000000E+00  0.00000000E+00  0.00000000E+00
  0.00000000E+00  0.00000000E+00  0.00000000E+00
  0.00000000E+00  0.00000000E+00  0.00000000E+00
  0.00000000E+00  0.00000000E+00  0.00000000E+00
  0.00000000E+00  0.00000000E+00  0.00000000E+00
  0.00000000E+00  0.00000000E+00  0.00000000E+00
  0.00000000E+00  0.00000000E+00  0.00000000E+00
  0.00000000E+00  0.00000000E+00  0.00000000E+00
  0.00000000E+00  0.00000000E+00  0.00000000E+00
  0.00000000E+00  0.00000000E+00  0.00000000E+00
  0.00000000E+00  0.00000000E+00  0.00000000E+00
  0.00000000E+00  0.00000000E+00  0.00000000E+00
  0.00000000E+00  0.00000000E+00  0.00000000E+00
  0.00000000E+00  0.00000000E+00  0.00000000E+00
  0.00000000E+00  0.00000000E+00  0.00000000E+00
  0.00000000E+00  0.00000000E+00  0.00000000E+00
  0.00000000E+00  0.00000000E+00  0.00000000E+00
  0.00000000E+00  0.00000000E+00  0.00000000E+00
  0.00000000E+00  0.00000000E+00  0.00000000E+00
  0.00000000E+00  0.00000000E+00  0.00000000E+00
  0.00000000E+00  0.00000000E+00  0.00000000E+00
  0.00000000E+00  0.00000000E+00  0.00000000E+00
  0.00000000E+00  0.00000000E+00  0.00000000E+00
  0.00000000E+00  0.00000000E+00  0.00000000E+00
  0.00000000E+00  0.00000000E+00  0.00000000E+00
