 B N Al 
 1.0
 14.936314146199660   0.000000000000000   0.000000000000000
 -7.468157073099825  12.935227489513863   0.000000000000000
  0.000000000000001   0.000000000000001  13.341276283792837
 B N Al 
 143 143   1
Cartesian
  1.265402270293422   0.722827151604551   5.002978606422314 
  4.915543290897663   7.294002554026774   5.002978606422314 
  6.252581102817760   0.683616999538612   5.002978606422314 
  9.942393859176217   7.179208493675571   5.002978606422314 
 11.232202685723212   0.735925248855259   5.002978606422314 
 -3.734638450136541   9.341785476166686  11.673616748318732 
  1.244009175695240   9.341782804894905  11.673616748318732 
  2.488402887973481   2.873968175486751  11.673616748318732 
  6.222857601795406   9.341961142391387  11.673616748318732 
  7.467638021749731   2.873963739537708  11.673616748318732 
 12.446419936797675   2.874158063770179  11.673616748318732 
 -1.255291915788159   9.347972039006528   5.002978606422314 
  0.045940896973975   2.901018986904404   5.002978606422314 
  5.014868860653040   2.792600990554955   5.002978606422314 
  3.720337514265342   9.417171633771124   5.002978606422314 
  8.699188173142728   9.332503906144110   5.002978606422314 
  9.993219636258734   2.873955886844871   5.002978606422314 
 -4.979398566308599  11.497700836024594  11.673616748318732 
 -0.000590410009467  11.497639117301036  11.673616748318732 
  1.243745202592992   5.029778524596852  11.673616748318732 
  6.222936541194713   5.029730909566504  11.673616748318732 
  4.978220949710236  11.497809267504081  11.673616748318732 
 11.201773647735880   5.029986877606416  11.673616748318732 
 -1.230697880051856   5.046199432782917   5.002978606422314 
 -2.489607462380847  11.485869278277230   5.002978606422314 
  2.499766467643390  11.529488035749921   5.002978606422314 
  7.476458271145512  11.506479996606288   5.002978606422314 
  8.726160619515946   5.015141987003974   5.002978606422314 
 -0.000699338108309   7.185754726392078  11.673616748318732 
  1.243997287377839   0.718293929772828  11.673616748318732 
  4.977957321448504   7.186098172534409  11.673616748318732 
  6.222840122489846   0.718194642750328  11.673616748318732 
  9.957054856368146   7.185888475833514  11.673616748318732 
 -2.500344649003773   7.190067998177101   5.002978606422314 
 11.201750193232536   0.718343494118429  11.673616748318732 
  3.745174973403331   0.694325924967995   5.002978606422314 
  2.436512139747321   7.258445831200379   5.002978606422314 
  7.438338384953497   7.169021666546154   5.002978606422314 
  8.745327074376560   0.711859743137294   5.002978606422314 
  2.488505801238505   7.185855484595950  11.673616748318732 
 13.722100113521366   0.741408542084213   5.002978606422314 
 -1.245294771946152   9.341729750009248  11.673616748318732 
 -0.000730492998546   2.874073247340324  11.673616748318732 
  4.978000607169711   2.873923995544250  11.673616748318732 
  3.733358927836691   9.341924859837409  11.673616748318732 
  8.712303705984343   9.341860711078084  11.673616748318732 
  9.957119697348462   2.874103670853558  11.673616748318732 
 -3.746183741584219   9.335119799041394   5.002978606422314 
  1.228934548434946   9.384828070998033   5.002978606422314 
  2.541310376376705   2.876679857242315   5.002978606422314 
  6.216934983056127   9.361248277006762   5.002978606422314 
  7.526292932743329   2.825063477625135   5.002978606422314 
 12.481900070854948   2.889498027531553   5.002978606422314 
 -1.245326256776903   5.029928784726299  11.673616748318732 
 -2.490014871309560  11.497648203308868  11.673616748318732 
  2.488796740515021  11.497716044634988  11.673616748318732 
  3.732963661316802   5.029722572406079  11.673616748318732 
  7.467597549544308  11.497769604083574  11.673616748318732 
 -4.980933547276110  11.486574002676122   5.002978606422314 
  8.712418780342354   5.029914692596988  11.673616748318732 
  0.007082332230228  11.502068977098570   5.002978606422314 
  1.272547332081930   5.074241912726642   5.002978606422314 
 -0.015494314803183   7.207996202605608   5.002978606422314 
  6.285177461471282   4.921726582810741   5.002978606422314 
  4.996142934459553  11.529146623679823   5.002978606422314 
 11.213747429737984   5.033305291347745   5.002978606422314 
 -2.489941038176493   7.185833914014927  11.673616748318732 
  3.733310778332124   0.718259488741024  11.673616748318732 
  7.467586901955766   7.185908305710949  11.673616748318732 
  8.712326859378004   0.718245676329049  11.673616748318732 
 13.691075248182194   0.718351826541715  11.673616748318732 
  0.002416548102037   1.438813749742579   1.667786972094133 
  3.734626508344961   7.907227563914698   1.669560402647060 
  4.980698014196831   1.437217315210633   1.669467898169556 
  8.715256948014851   7.906250942663026   1.666867542755056 
  9.959687240414603   1.438094175168706   1.667166094917219 
 -4.976760203481008  10.062060285352823   8.337877739617806 
  0.001461853609143  10.061911606841477   8.339275637815360 
  1.246919219989309   3.594404144988304   8.326047957223341 
  4.980365594907351  10.062548438733254   8.341126903733036 
  6.225787506993782   3.592410144420890   8.336396810197568 
 11.204720925254126   3.594095245588234   8.338910522843937 
 -2.487621548957654  10.061751019746335   1.667850380588994 
 -1.242128158390828   3.594428413679158   1.667786972094133 
  3.736042773884007   3.591077301652486   1.700660829096183 
  2.490604341094316  10.062401886550745   1.665506184148648 
  7.470246570272881  10.062505233056980   1.666553442485443 
  8.715219681174776   3.593591402461790   1.664830309111551 
 -6.221373600518597  12.218201871763405   8.338993505906615 
 -1.242940775170326  12.217280184959805   8.339275637815360 
  0.002041626958570   5.750288233757989   8.334201544608693 
  4.983193215291315   5.751542941942084   8.324068468907024 
  3.735884017904575  12.218037572867054   8.338791117927462 
  9.960122751644324   5.749913182366029   8.339403770359318 
 -2.486956354878707   5.750001465653645   1.666963706938000 
 -3.732246677641652  12.217643842407453   1.667357199790213 
  1.246417060930588  12.217599216329770   1.667017697873814 
  2.488599866093409   5.751711797487276   1.700660829096183 
  6.225552557894017  12.218267837295777   1.667046690000718 
  7.471282380780714   5.750124836512535   1.664477926772818 
 -1.242876161038694   7.905927628787119   8.338600013054428 
  0.002416548102037   1.438813749742580   8.338170240750456 
  3.734626508344962   7.907227563914699   8.336396810197568 
  4.980698014196832   1.437217315210633   8.336489314675125 
  8.715256948014851   7.906250942663027   8.339089670089519 
 -3.731923044347627   7.905939078584086   1.668079473227022 
  9.959687240414603   1.438094175168706   8.338791117927462 
  2.491530811963103   1.438366480436871   1.671755668236016 
  1.245630021796315   7.906544847772657   1.669467898169556 
  6.226009682708655   7.907000418851734   1.664477926772818 
  7.470212136355271   1.437468183392672   1.665506184148648 
  1.245630021796316   7.906544847772658   8.336489314675125 
 12.449267203584924   1.438597775863942   1.667559515176385 
 -2.487621548957654  10.061751019746335   8.338106832255647 
 -1.242128158390842   3.594428413679159   8.338170240750456 
  3.736042773884007   3.591077301652487   8.305296383748551 
  2.490604341094316  10.062401886550745   8.340451028696046 
  7.470246570272882  10.062505233056980   8.339403770359318 
  8.715219681174776   3.593591402461791   8.341126903733036 
 -4.976760203481009  10.062060285352823   1.668079473227022 
  0.001461853609143  10.061911606841477   1.666681575029281 
  1.246919219989309   3.594404144988303   1.679909255621258 
  4.980365594907350  10.062548438733254   1.664830309111551 
  6.225787506993782   3.592410144420889   1.669560402647060 
 11.204720925254126   3.594095245588233   1.667046690000718 
 -2.486956354878706   5.750001465653646   8.338993505906615 
 -3.732246677641652  12.217643842407453   8.338600013054428 
  1.246417060930588  12.217599216329770   8.338939514970800 
  2.488599866093409   5.751711797487276   8.305296383748551 
  6.225552557894018  12.218267837295777   8.338910522843937 
 -6.221373600518598  12.218201871763405   1.666963706938000 
  7.471282380780715   5.750124836512536   8.341479286071770 
 -1.242940775170326  12.217280184959805   1.666681575029281 
  0.002041626958569   5.750288233757988   1.671755668236016 
 -1.242876161038694   7.905927628787118   1.667357199790213 
  4.983193215291314   5.751542941942083   1.681888743937671 
  3.735884017904574  12.218037572867054   1.667166094917219 
  9.960122751644324   5.749913182366028   1.666553442485443 
 -3.731923044347627   7.905939078584087   8.337877739617806 
  2.491530811963103   1.438366480436871   8.334201544608693 
  6.226009682708656   7.907000418851735   8.341479286071770 
  7.470212136355272   1.437468183392673   8.340451028696046 
 12.449267203584924   1.438597775863943   8.338397697668254 
  1.246844687271523   0.719789358348181   1.665787651367713 
  4.980677212275999   7.187972763093536   1.669035691204359 
  6.225594464074504   0.719318409047570   1.665078222468006 
  9.959235107652795   7.187185132858091   1.668000495121361 
 11.204326688136943   0.719831034145001   1.667611339722030 
 -3.732471394463180   9.343036626343102   8.337770840292798 
  1.246359556648935   9.343606251529231   8.340878990376634 
  2.491846157786454   2.875733517883936   8.325768720389455 
  6.225297611518445   9.343394185466005   8.340985635092364 
  7.470339033660355   2.875114187174752   8.341524883051688 
 12.449123497495240   2.875743764644948   8.339266006248566 
 -1.243037094323053   9.343207002858508   1.667107786290876 
  0.002388535314898   2.875874019176743   1.668324094838695 
  4.981278868993590   2.875206676647091   1.676281127925178 
  3.735705750671257   9.343688780949670   1.664432329793006 
  8.714516769550075   9.343100535564714   1.668000495121361 
  9.959609161010210   2.875509496308552   1.666554930742902 
 -4.976999236185672  11.498929857495018   8.338794537148019 
  0.001823720413600  11.499032916150894   8.338922864816588 
  1.246995668861878   5.031877812528274   8.325768720389455 
  6.225919929654428   5.031149108838954   8.336921521640189 
  4.980683162098444  11.499262293549418   8.339402282101606 
 11.204243487057425   5.031422364962420   8.338989814953264 
 -1.242607477694259   5.031646991081284   1.665787651367713 
 -2.487606694002573  11.498864783059110   1.667107786290876 
  2.491212572656792  11.499336296152581   1.666414814011638 
  3.737943185610806   5.032597502097639   1.730214684579004 
  7.470075637722065  11.499190804001513   1.666967397891310 
  8.714879836911212   5.031311281465311   1.664971577752330 
  0.001799681549714   7.187615505659346   8.338617447599146 
  1.246844687271524   0.719789358348182   8.340169561477062 
  4.980677212276000   7.187972763093537   8.336921521640189 
  6.225594464074505   0.719318409047571   8.340878990376634 
  9.959235107652766   7.187185132858092   8.337956717723200 
 -2.487677009299905   7.187297284118337   1.667162675696582 
 11.204326688136943   0.719831034145001   8.338345873122652 
  3.736171770277454   0.719493313615742   1.667339765245480 
  2.491255766570533   7.188053202064135   1.676281127925178 
  7.469839521985257   7.187208856491108   1.666090022939958 
  8.714937954423686   0.719527722576241   1.666414814011638 
  2.491255766570518   7.188053202064136   8.329676084919409 
 13.693800285771269   0.719900328349198   1.666691206596061 
 -1.243037094323052   9.343207002858508   8.338849426553697 
  0.002388535314898   2.875874019176744   8.337633118006039 
  4.981278868993591   2.875206676647092   8.329676084919409 
  3.735705750671257   9.343688780949670   8.341524883051688 
  8.714516769550075   9.343100535564714   8.337956717723200 
  9.959609161010210   2.875509496308553   8.339402282101606 
 -3.732471394463181   9.343036626343102   1.668186372551764 
  1.246359556648935   9.343606251529231   1.665078222468006 
  2.491846157786453   2.875733517883935   1.680188492455213 
  6.225297611518444   9.343394185466005   1.664971577752330 
  7.470339033660355   2.875114187174751   1.664432329793006 
 12.449123497495240   2.875743764644947   1.666691206596061 
 -1.242607477694258   5.031646991081285   8.340169561477062 
 -2.487606694002573  11.498864783059110   8.338849426553697 
  2.491212572656793  11.499336296152581   8.339542398832910 
  3.737943185610806   5.032597502097640   8.275742528265676 
  7.470075637722066  11.499190804001513   8.338989814953264 
 -4.976999236185673  11.498929857495018   1.667162675696582 
  8.714879836911212   5.031311281465312   8.340985635092364 
  0.001823720413600  11.499032916150894   1.667034348028013 
  1.246995668861878   5.031877812528273   1.680188492455213 
  0.001799681549714   7.187615505659345   1.667339765245480 
  6.225919929654427   5.031149108838953   1.669035691204359 
  4.980683162098443  11.499262293549418   1.666554930742902 
 11.204243487057425   5.031422364962419   1.666967397891310 
 -2.487677009299904   7.187297284118338   8.338794537148019 
  3.736171770277455   0.719493313615743   8.338617447599146 
  7.469839521985258   7.187208856491109   8.339867189904522 
  8.714937954423686   0.719527722576242   8.339542398832910 
 13.693800285771269   0.719900328349199   8.339266006248566 
  0.029798224454500   1.456879721542769   5.002978606422314 
  3.694251020896254   7.997579014445982   5.002978606422314 
  5.010390472519321   1.374342162894322   5.002978606422314 
  8.685706737001368   7.889190120379800   5.002978606422314 
  9.985777215458873   1.441008997777827   5.002978606422314 
 -4.979438703424418  10.060339471344349  11.673616748318732 
 -0.000569415116489  10.060401427551803  11.673616748318732 
  1.244034394086025   3.592738589976469  11.673616748318732 
  4.978165886685376  10.060350205966715  11.673616748318732 
  6.222760983166227   3.592751071714466  11.673616748318732 
 11.201620008413920   3.592828022650590  11.673616748318732 
 -2.501527154352313  10.053722614728448   5.002978606422314 
 -1.212791729691617   3.609108655098539   5.002978606422314 
  3.810320491524720   3.511122878622289   5.002978606422314 
  2.476665581056724  10.107477894970200   5.002978606422314 
  7.464559196079474  10.065846118445066   5.002978606422314 
  8.745198077419229   3.579542782734400   5.002978606422314 
 -6.224094056302444  12.216194334488357  11.673616748318732 
 -1.245264263162233  12.216276144286271  11.673616748318732 
 -0.000626754953908   5.748583228609956  11.673616748318732 
  4.977908664833066   5.748491905312468  11.673616748318732 
  3.733507701832659  12.216257103066473  11.673616748318732 
  9.956894851775086   5.748649107068494  11.673616748318732 
 -2.485186531346630   5.755650814787871   5.002978606422314 
 -3.734018725543752  12.195749436359320   5.002978606422314 
  1.255179619165527  12.222658281685407   5.002978606422314 
  2.456496163424649   5.856015399414425   5.002978606422314 
  6.242279713316980  12.237939193860637   5.002978606422314 
  7.461717714985447   5.720645053204517   5.002978606422314 
 -1.245304251726807   7.904479752044949  11.673616748318732 
 -0.000628966077880   1.436848784105079  11.673616748318732 
  3.733408498128302   7.904436053748024  11.673616748318732 
  4.978147763559262   1.436967164561755  11.673616748318732 
  8.712141199881406   7.904452064639464  11.673616748318732 
 -3.751284044468416   7.899970352084485   5.002978606422314 
  9.956957150300681   1.436926459983273  11.673616748318732 
  2.510006828389475   1.427343346262864   5.002978606422314 
  1.206024771784901   7.963696847138757   5.002978606422314 
  6.195697108568328   7.913457066948142   5.002978606422314 
  7.502279724728940   1.402858858893106   5.002978606422314 
  1.244138259660857   7.904461341258893  11.673616748318732 
 12.476026998067368   1.454047550411875   5.002978606422314 
 -2.490001236597920  10.060377106446589  11.673616748318732 
 -1.245352625640441   3.592773403850515  11.673616748318732 
  3.733381479181435   3.592889408819862  11.673616748318732 
  2.488788504412500  10.060388308207765  11.673616748318732 
  7.467537899018248  10.060341827418204  11.673616748318732 
  8.712216101644415   3.592785515644124  11.673616748318732 
 -4.991609772318286  10.048277530655321   5.002978606422314 
 -0.014338584929437  10.077515279504246   5.002978606422314 
  1.291488201974352   3.620136058734901   5.002978606422314 
  4.983188331457557  10.095534801309345   5.002978606422314 
  6.283846414698344   3.512268221334396   5.002978606422314 
 11.230120397477707   3.598745708835089   5.002978606422314 
 -2.490055161049950   5.748649250472630  11.673616748318732 
 -3.734714621025840  12.216264992559708  11.673616748318732 
  1.244116973674255  12.216271260333153  11.673616748318732 
  2.488838549583494   5.748500995084128  11.673616748318732 
  6.222904652217746  12.216215976005806  11.673616748318732 
 -6.215596208887421  12.216909909335195   5.002978606422314 
  7.467419686102754   5.748578463894980  11.673616748318732 
 -1.237327817521351  12.195794767463129   5.002978606422314 
  0.001733320947734   5.771800500430982   5.002978606422314 
 -1.262723296828178   7.915340193311205   5.002978606422314 
  3.751453315853771  12.239174742734871   5.002978606422314 
  9.960172356164733   5.743317329139848   5.002978606422314 
 -3.734752562965813   7.904479836593218  11.673616748318732 
  2.488720043235114   1.436908096487632  11.673616748318732 
  6.222739137399214   7.904428413442233  11.673616748318732 
  7.467560408016749   1.436902411868728  11.673616748318732 
 12.446351355175176   1.436914309999634  11.673616748318732 
  4.147146462971121   5.268851124434931   5.002978606422314 
Generated by cif2cell 2.0.0.  :  Failed to get author information, No journal information. Species order: B N Al 
 1.0
 14.936314146199660   0.000000000000000   0.000000000000000
 -7.468157073099825  12.935227489513863   0.000000000000000
  0.000000000000001   0.000000000000001  13.341276283792837
 B N Al 
 143 143   1
Cartesian
  1.265402270293422   0.722827151604551   5.002978606422314 
  4.915543290897663   7.294002554026774   5.002978606422314 
  6.252581102817760   0.683616999538612   5.002978606422314 
  9.942393859176217   7.179208493675571   5.002978606422314 
 11.232202685723212   0.735925248855259   5.002978606422314 
 -3.734638450136541   9.341785476166686  11.673616748318732 
  1.244009175695240   9.341782804894905  11.673616748318732 
  2.488402887973481   2.873968175486751  11.673616748318732 
  6.222857601795406   9.341961142391387  11.673616748318732 
  7.467638021749731   2.873963739537708  11.673616748318732 
 12.446419936797675   2.874158063770179  11.673616748318732 
 -1.255291915788159   9.347972039006528   5.002978606422314 
  0.045940896973975   2.901018986904404   5.002978606422314 
  5.014868860653040   2.792600990554955   5.002978606422314 
  3.720337514265342   9.417171633771124   5.002978606422314 
  8.699188173142728   9.332503906144110   5.002978606422314 
  9.993219636258734   2.873955886844871   5.002978606422314 
 -4.979398566308599  11.497700836024594  11.673616748318732 
 -0.000590410009467  11.497639117301036  11.673616748318732 
  1.243745202592992   5.029778524596852  11.673616748318732 
  6.222936541194713   5.029730909566504  11.673616748318732 
  4.978220949710236  11.497809267504081  11.673616748318732 
 11.201773647735880   5.029986877606416  11.673616748318732 
 -1.230697880051856   5.046199432782917   5.002978606422314 
 -2.489607462380847  11.485869278277230   5.002978606422314 
  2.499766467643390  11.529488035749921   5.002978606422314 
  7.476458271145512  11.506479996606288   5.002978606422314 
  8.726160619515946   5.015141987003974   5.002978606422314 
 -0.000699338108309   7.185754726392078  11.673616748318732 
  1.243997287377839   0.718293929772828  11.673616748318732 
  4.977957321448504   7.186098172534409  11.673616748318732 
  6.222840122489846   0.718194642750328  11.673616748318732 
  9.957054856368146   7.185888475833514  11.673616748318732 
 -2.500344649003773   7.190067998177101   5.002978606422314 
 11.201750193232536   0.718343494118429  11.673616748318732 
  3.745174973403331   0.694325924967995   5.002978606422314 
  2.436512139747321   7.258445831200379   5.002978606422314 
  7.438338384953497   7.169021666546154   5.002978606422314 
  8.745327074376560   0.711859743137294   5.002978606422314 
  2.488505801238505   7.185855484595950  11.673616748318732 
 13.722100113521366   0.741408542084213   5.002978606422314 
 -1.245294771946152   9.341729750009248  11.673616748318732 
 -0.000730492998546   2.874073247340324  11.673616748318732 
  4.978000607169711   2.873923995544250  11.673616748318732 
  3.733358927836691   9.341924859837409  11.673616748318732 
  8.712303705984343   9.341860711078084  11.673616748318732 
  9.957119697348462   2.874103670853558  11.673616748318732 
 -3.746183741584219   9.335119799041394   5.002978606422314 
  1.228934548434946   9.384828070998033   5.002978606422314 
  2.541310376376705   2.876679857242315   5.002978606422314 
  6.216934983056127   9.361248277006762   5.002978606422314 
  7.526292932743329   2.825063477625135   5.002978606422314 
 12.481900070854948   2.889498027531553   5.002978606422314 
 -1.245326256776903   5.029928784726299  11.673616748318732 
 -2.490014871309560  11.497648203308868  11.673616748318732 
  2.488796740515021  11.497716044634988  11.673616748318732 
  3.732963661316802   5.029722572406079  11.673616748318732 
  7.467597549544308  11.497769604083574  11.673616748318732 
 -4.980933547276110  11.486574002676122   5.002978606422314 
  8.712418780342354   5.029914692596988  11.673616748318732 
  0.007082332230228  11.502068977098570   5.002978606422314 
  1.272547332081930   5.074241912726642   5.002978606422314 
 -0.015494314803183   7.207996202605608   5.002978606422314 
  6.285177461471282   4.921726582810741   5.002978606422314 
  4.996142934459553  11.529146623679823   5.002978606422314 
 11.213747429737984   5.033305291347745   5.002978606422314 
 -2.489941038176493   7.185833914014927  11.673616748318732 
  3.733310778332124   0.718259488741024  11.673616748318732 
  7.467586901955766   7.185908305710949  11.673616748318732 
  8.712326859378004   0.718245676329049  11.673616748318732 
 13.691075248182194   0.718351826541715  11.673616748318732 
  0.002416548102037   1.438813749742579   1.667786972094133 
  3.734626508344961   7.907227563914698   1.669560402647060 
  4.980698014196831   1.437217315210633   1.669467898169556 
  8.715256948014851   7.906250942663026   1.666867542755056 
  9.959687240414603   1.438094175168706   1.667166094917219 
 -4.976760203481008  10.062060285352823   8.337877739617806 
  0.001461853609143  10.061911606841477   8.339275637815360 
  1.246919219989309   3.594404144988304   8.326047957223341 
  4.980365594907351  10.062548438733254   8.341126903733036 
  6.225787506993782   3.592410144420890   8.336396810197568 
 11.204720925254126   3.594095245588234   8.338910522843937 
 -2.487621548957654  10.061751019746335   1.667850380588994 
 -1.242128158390828   3.594428413679158   1.667786972094133 
  3.736042773884007   3.591077301652486   1.700660829096183 
  2.490604341094316  10.062401886550745   1.665506184148648 
  7.470246570272881  10.062505233056980   1.666553442485443 
  8.715219681174776   3.593591402461790   1.664830309111551 
 -6.221373600518597  12.218201871763405   8.338993505906615 
 -1.242940775170326  12.217280184959805   8.339275637815360 
  0.002041626958570   5.750288233757989   8.334201544608693 
  4.983193215291315   5.751542941942084   8.324068468907024 
  3.735884017904575  12.218037572867054   8.338791117927462 
  9.960122751644324   5.749913182366029   8.339403770359318 
 -2.486956354878707   5.750001465653645   1.666963706938000 
 -3.732246677641652  12.217643842407453   1.667357199790213 
  1.246417060930588  12.217599216329770   1.667017697873814 
  2.488599866093409   5.751711797487276   1.700660829096183 
  6.225552557894017  12.218267837295777   1.667046690000718 
  7.471282380780714   5.750124836512535   1.664477926772818 
 -1.242876161038694   7.905927628787119   8.338600013054428 
  0.002416548102037   1.438813749742580   8.338170240750456 
  3.734626508344962   7.907227563914699   8.336396810197568 
  4.980698014196832   1.437217315210633   8.336489314675125 
  8.715256948014851   7.906250942663027   8.339089670089519 
 -3.731923044347627   7.905939078584086   1.668079473227022 
  9.959687240414603   1.438094175168706   8.338791117927462 
  2.491530811963103   1.438366480436871   1.671755668236016 
  1.245630021796315   7.906544847772657   1.669467898169556 
  6.226009682708655   7.907000418851734   1.664477926772818 
  7.470212136355271   1.437468183392672   1.665506184148648 
  1.245630021796316   7.906544847772658   8.336489314675125 
 12.449267203584924   1.438597775863942   1.667559515176385 
 -2.487621548957654  10.061751019746335   8.338106832255647 
 -1.242128158390842   3.594428413679159   8.338170240750456 
  3.736042773884007   3.591077301652487   8.305296383748551 
  2.490604341094316  10.062401886550745   8.340451028696046 
  7.470246570272882  10.062505233056980   8.339403770359318 
  8.715219681174776   3.593591402461791   8.341126903733036 
 -4.976760203481009  10.062060285352823   1.668079473227022 
  0.001461853609143  10.061911606841477   1.666681575029281 
  1.246919219989309   3.594404144988303   1.679909255621258 
  4.980365594907350  10.062548438733254   1.664830309111551 
  6.225787506993782   3.592410144420889   1.669560402647060 
 11.204720925254126   3.594095245588233   1.667046690000718 
 -2.486956354878706   5.750001465653646   8.338993505906615 
 -3.732246677641652  12.217643842407453   8.338600013054428 
  1.246417060930588  12.217599216329770   8.338939514970800 
  2.488599866093409   5.751711797487276   8.305296383748551 
  6.225552557894018  12.218267837295777   8.338910522843937 
 -6.221373600518598  12.218201871763405   1.666963706938000 
  7.471282380780715   5.750124836512536   8.341479286071770 
 -1.242940775170326  12.217280184959805   1.666681575029281 
  0.002041626958569   5.750288233757988   1.671755668236016 
 -1.242876161038694   7.905927628787118   1.667357199790213 
  4.983193215291314   5.751542941942083   1.681888743937671 
  3.735884017904574  12.218037572867054   1.667166094917219 
  9.960122751644324   5.749913182366028   1.666553442485443 
 -3.731923044347627   7.905939078584087   8.337877739617806 
  2.491530811963103   1.438366480436871   8.334201544608693 
  6.226009682708656   7.907000418851735   8.341479286071770 
  7.470212136355272   1.437468183392673   8.340451028696046 
 12.449267203584924   1.438597775863943   8.338397697668254 
  1.246844687271523   0.719789358348181   1.665787651367713 
  4.980677212275999   7.187972763093536   1.669035691204359 
  6.225594464074504   0.719318409047570   1.665078222468006 
  9.959235107652795   7.187185132858091   1.668000495121361 
 11.204326688136943   0.719831034145001   1.667611339722030 
 -3.732471394463180   9.343036626343102   8.337770840292798 
  1.246359556648935   9.343606251529231   8.340878990376634 
  2.491846157786454   2.875733517883936   8.325768720389455 
  6.225297611518445   9.343394185466005   8.340985635092364 
  7.470339033660355   2.875114187174752   8.341524883051688 
 12.449123497495240   2.875743764644948   8.339266006248566 
 -1.243037094323053   9.343207002858508   1.667107786290876 
  0.002388535314898   2.875874019176743   1.668324094838695 
  4.981278868993590   2.875206676647091   1.676281127925178 
  3.735705750671257   9.343688780949670   1.664432329793006 
  8.714516769550075   9.343100535564714   1.668000495121361 
  9.959609161010210   2.875509496308552   1.666554930742902 
 -4.976999236185672  11.498929857495018   8.338794537148019 
  0.001823720413600  11.499032916150894   8.338922864816588 
  1.246995668861878   5.031877812528274   8.325768720389455 
  6.225919929654428   5.031149108838954   8.336921521640189 
  4.980683162098444  11.499262293549418   8.339402282101606 
 11.204243487057425   5.031422364962420   8.338989814953264 
 -1.242607477694259   5.031646991081284   1.665787651367713 
 -2.487606694002573  11.498864783059110   1.667107786290876 
  2.491212572656792  11.499336296152581   1.666414814011638 
  3.737943185610806   5.032597502097639   1.730214684579004 
  7.470075637722065  11.499190804001513   1.666967397891310 
  8.714879836911212   5.031311281465311   1.664971577752330 
  0.001799681549714   7.187615505659346   8.338617447599146 
  1.246844687271524   0.719789358348182   8.340169561477062 
  4.980677212276000   7.187972763093537   8.336921521640189 
  6.225594464074505   0.719318409047571   8.340878990376634 
  9.959235107652766   7.187185132858092   8.337956717723200 
 -2.487677009299905   7.187297284118337   1.667162675696582 
 11.204326688136943   0.719831034145001   8.338345873122652 
  3.736171770277454   0.719493313615742   1.667339765245480 
  2.491255766570533   7.188053202064135   1.676281127925178 
  7.469839521985257   7.187208856491108   1.666090022939958 
  8.714937954423686   0.719527722576241   1.666414814011638 
  2.491255766570518   7.188053202064136   8.329676084919409 
 13.693800285771269   0.719900328349198   1.666691206596061 
 -1.243037094323052   9.343207002858508   8.338849426553697 
  0.002388535314898   2.875874019176744   8.337633118006039 
  4.981278868993591   2.875206676647092   8.329676084919409 
  3.735705750671257   9.343688780949670   8.341524883051688 
  8.714516769550075   9.343100535564714   8.337956717723200 
  9.959609161010210   2.875509496308553   8.339402282101606 
 -3.732471394463181   9.343036626343102   1.668186372551764 
  1.246359556648935   9.343606251529231   1.665078222468006 
  2.491846157786453   2.875733517883935   1.680188492455213 
  6.225297611518444   9.343394185466005   1.664971577752330 