Species order: X N B                    
   2.51242800000000     
     5.9449720136058266    0.0000000000000000    0.0000000000000000
    -2.9724860068029120    5.1484967885702053   -0.0000000000000001
     0.0000000000000000    0.0000000000000009    5.3101128803662583
   S    N    B 
     1   143   143
Direct
  0.4648205399373488  0.3990769366353390  0.3750000000000000
  0.1110378111931345  0.0555175209673377  0.1250944196518585
  0.6110267567221699  0.5554874293881449  0.1246186477854020
  0.4444094252205461  0.0555514603424285  0.1250950259616609
  0.9444083670032334  0.5555399189755849  0.1250570184847674
  0.7777174240291466  0.0555253786812416  0.1250227025692581
  0.1110850138145938  0.7222091735739617  0.6249689003352581
  0.4444094252205461  0.7221912982114531  0.6249049740383387
  0.2776628063375801  0.2221771802472111  0.6253389919592857
  0.7777156827940387  0.7221697465717671  0.6248760693079091
  0.6110504157512401  0.2222210904208908  0.6248596452988914
  0.9443663667806246  0.2221892212356586  0.6249914267064283
  0.2777545927895118  0.7222064592986633  0.1250256248134234
  0.1109957781913210  0.2221645557623250  0.1250283132549931
  0.4443868134640318  0.2222168543678962  0.1247208598462456
  0.6110504157512401  0.7221626586636780  0.1251403547011083
  0.9444083670032334  0.7222017813609858  0.1250570184847674
  0.7777199754890213  0.2222085474593893  0.1250443486870582
  0.1110762805399651  0.8888732263994936  0.6249702010575003
  0.4444196513780546  0.8888764923556906  0.6249808630760425
  0.2776628063375801  0.3888189594236977  0.6253389919592857
  0.6110267567221699  0.3888726606673543  0.6253813522145973
  0.7777199754890213  0.8888447613629594  0.6249556513129420
  0.9443905720308948  0.3888712283813848  0.6249729273913669
  0.1110378111931345  0.3888536235591259  0.1250944196518585
  0.2777545927895118  0.8888814668241768  0.1250256248134234
  0.6110672544259479  0.8888579905995438  0.1250372564296944
  0.4442258513730800  0.3887795923532042  0.1217465071929284
  0.9443905720308948  0.8888526769828397  0.1250270726086320
  0.7777156827940387  0.3888792695556000  0.1251239306920896
  0.2777339620703959  0.5555209602169716  0.6249440114891123
  0.1110378111931345  0.0555175209673377  0.6249055803481420
  0.6110267567221699  0.5554874293881449  0.6253813522145973
  0.4444094252205461  0.0555514603424285  0.6249049740383387
  0.9444083670032334  0.5555399189755849  0.6249429815152323
  0.1110762805399651  0.5555363874737991  0.1250297989424996
  0.7777174240291466  0.0555253786812416  0.6249772974307407
  0.2777339620703959  0.0555463351867594  0.1250559885108874
  0.4443868134640318  0.5555032924294719  0.1247208598462456
  0.7777299137031600  0.5555316235182476  0.1251309439320435
  0.6110672544259479  0.0555425971597325  0.1250372564296944
  0.4443868134640318  0.5555032924294719  0.6252791401537536
  0.9443663667806246  0.0555104788783025  0.1250085732935720
  0.2777545927895118  0.7222064592986633  0.6249743751865768
  0.1109957781913210  0.2221645557623250  0.6249716867450070
  0.4443868134640318  0.2222168543678962  0.6252791401537536
  0.6110504157512401  0.7221626586636780  0.6248596452988914
  0.9444083670032334  0.7222017813609858  0.6249429815152323
  0.7777199754890213  0.2222085474593893  0.6249556513129420
  0.1110850138145938  0.7222091735739617  0.1250310996647411
  0.4444094252205461  0.7221912982114531  0.1250950259616609
  0.2776628063375801  0.2221771802472111  0.1246610080407146
  0.7777156827940387  0.7221697465717671  0.1251239306920896
  0.6110504157512401  0.2222210904208908  0.1251403547011083
  0.9443663667806246  0.2221892212356586  0.1250085732935720
  0.1110378111931345  0.3888536235591259  0.6249055803481420
  0.2777545927895118  0.8888814668241768  0.6249743751865768
  0.6110672544259479  0.8888579905995438  0.6249627435703058
  0.4442258513730800  0.3887795923532042  0.6282534928070718
  0.9443905720308948  0.8888526769828397  0.6249729273913669
  0.1110762805399651  0.8888732263994936  0.1250297989424996
  0.7777156827940387  0.3888792695556000  0.6248760693079091
  0.4444196513780546  0.8888764923556906  0.1250191369239567
  0.2776628063375801  0.3888189594236977  0.1246610080407146
  0.2777339620703959  0.5555209602169716  0.1250559885108874
  0.6110267567221699  0.3888726606673543  0.1246186477854020
  0.7777199754890213  0.8888447613629594  0.1250443486870582
  0.9443905720308948  0.3888712283813848  0.1250270726086320
  0.1110762805399651  0.5555363874737991  0.6249702010575003
  0.2777339620703959  0.0555463351867594  0.6249440114891123
  0.7777299137031600  0.5555316235182476  0.6248690560679564
  0.6110672544259479  0.0555425971597325  0.6249627435703058
  0.9443663667806246  0.0555104788783025  0.6249914267064283
  0.0541139196913780  0.1102228028942561  0.3750000000000000
  0.5557507735474126  0.6077150072836440  0.3750000000000000
  0.3884138758936022  0.1099151722227332  0.3750000000000000
  0.8911406017956699  0.6122369675645063  0.3750000000000000
  0.7216530162040830  0.1110376301584921  0.3750000000000000
  0.0555577256239245  0.7777788038333250  0.8750000000000000
  0.3888914116394336  0.7777805849077521  0.8750000000000000
  0.2222231632580838  0.2777782482957103  0.8750000000000000
  0.7222252455218738  0.7777782675106133  0.8750000000000000
  0.5555584656557491  0.2777789578720610  0.8750000000000000
  0.8888937583157944  0.2777819803353274  0.8750000000000000
  0.2226208614018846  0.7779770973676100  0.3750000000000000
  0.0541139196913782  0.2772244501304578  0.3750000000000000
  0.3830670845387770  0.2700605588295125  0.3750000000000000
  0.5555285404647325  0.7766265453233746  0.3750000000000000
  0.8900071270606965  0.7784998434100457  0.3750000000000000
  0.7221045939777225  0.2782808716758621  0.3750000000000000
  0.0555568583061553  0.9444433552275527  0.8750000000000000
  0.3888914116394336  0.9444441600650186  0.8750000000000000
  0.2222210289213493  0.4444478347577068  0.8750000000000000
  0.5555678032181466  0.4444505682757376  0.8750000000000000
  0.7222233323315418  0.9444445139884626  0.8750000000000000
  0.8888949774121718  0.4444480160823898  0.8750000000000000
  0.0551078210415367  0.4444525221091040  0.3750000000000000
  0.2221605956053868  0.9441611456504196  0.3750000000000000
  0.5554902827864863  0.9444118080599073  0.3750000000000000
  0.3830670845387770  0.4463398590426003  0.3750000000000000
  0.8881705710778269  0.9439373084535961  0.3750000000000000
  0.7258119982423837  0.4461854116526877  0.3750000000000000
  0.2222218551925309  0.6111133793008440  0.8750000000000000
  0.0555576946190581  0.1111103830981133  0.8750000000000000
  0.5555584656557491  0.6111128411170230  0.8750000000000000
  0.3888892085361580  0.1111072792786127  0.8750000000000000
  0.8888954504655251  0.6111143918994345  0.8750000000000000
  0.0563785673221446  0.6115097817196637  0.3750000000000000
  0.7222233323315418  0.1111121516764147  0.8750000000000000
  0.2201937390791826  0.1091832869210866  0.3750000000000000
  0.3884138758936022  0.6118320370042126  0.3750000000000000
  0.7258119982423837  0.6129599199230322  0.3750000000000000
  0.5555285404647325  0.1122353284746921  0.3750000000000000
  0.3888892085361580  0.6111152625908882  0.8750000000000000
  0.8878278658261050  0.1105805995797241  0.3750000000000000
  0.2222232858836791  0.7777783096085061  0.8750000000000000
  0.0555576946190581  0.2777806448542803  0.8750000000000000
  0.3888872376730327  0.2777668793920508  0.8750000000000000
  0.5555559967576650  0.7777783961622016  0.8750000000000000
  0.8888949774121718  0.7777802946631178  0.8750000000000000
  0.7222252455218738  0.2777803113445971  0.8750000000000000
  0.0563785673221446  0.7782021189358189  0.3750000000000000
  0.3890424218326409  0.7780017955439261  0.3750000000000000
  0.2197744131276997  0.2765538732305174  0.3750000000000000
  0.7221045939777225  0.7771570556351959  0.3750000000000000
  0.5557507735474126  0.2813690995971052  0.3750000000000000
  0.8881705710778269  0.2775665959575672  0.3750000000000000
  0.0555568583061553  0.4444468364119326  0.8750000000000000
  0.2222218551925309  0.9444418092250216  0.8750000000000000
  0.5555558785972460  0.9444446059652858  0.8750000000000000
  0.3888872376730327  0.4444536916143174  0.8750000000000000
  0.8888937583157944  0.9444451113138032  0.8750000000000000
  0.0551078210415367  0.9439886322657614  0.3750000000000000
  0.7222294114040819  0.4444485427165784  0.8750000000000000
  0.3890424218326409  0.9443739596220510  0.3750000000000000
  0.2201937390791826  0.4443437854914307  0.3750000000000000
  0.2221605956053868  0.6113327832883039  0.3750000000000000
  0.7216530162040830  0.9439487193789255  0.3750000000000000
  0.8900071270606965  0.4448406169839887  0.3750000000000000
  0.0555577256239245  0.6111122551239373  0.8750000000000000
  0.2222210289213493  0.1111065274969779  0.8750000000000000
  0.7222294114040819  0.6111142020208385  0.8750000000000000
  0.5555559967576650  0.1111109339287983  0.8750000000000000
  0.8888929183406087  0.1111131258369765  0.8750000000000000
  0.1095999581385414  0.0545364423187873  0.3750000000000000
  0.6167652243898226  0.5556996214724348  0.3750000000000000
  0.4443957648175260  0.0552587986932914  0.3750000000000000
  0.9457750061798678  0.5559678958372287  0.3750000000000000
  0.7769182350606314  0.0551257841969842  0.3750000000000000
  0.1111130307529852  0.7222231820431577  0.8750000000000000
  0.4444426986176489  0.7222118109366599  0.8750000000000000
  0.2778003377856597  0.2222368565099789  0.8750000000000000
  0.7777712824923894  0.7222078450083780  0.8750000000000000
  0.6111029852794113  0.2222351692525562  0.8750000000000000
  0.9444548714998479  0.2222287826504522  0.8750000000000000
  0.2779825506725635  0.7223794602776314  0.3750000000000000
  0.1091554435659697  0.2212443884496494  0.3750000000000000
  0.4434688005815556  0.2204352278854698  0.3750000000000000
  0.6109946423318013  0.7204037894640622  0.3750000000000000
  0.9457750061798678  0.7231404436759737  0.3750000000000000
  0.7771695189182110  0.2220999416310870  0.3750000000000000
  0.1111156503310634  0.8888927299336427  0.8750000000000000
  0.4444442426784604  0.8888887880058942  0.8750000000000000
  0.2778003377856597  0.3888968146090094  0.8750000000000000
  0.6110974696451542  0.3889013568033974  0.8750000000000000
  0.7777777465952791  0.8888816345890043  0.8750000000000000
  0.9444487328830522  0.3888941810760975  0.8750000000000000
  0.1095999581385414  0.3883968491530831  0.3750000000000000
  0.2779825506725635  0.8889364237282614  0.3750000000000000
  0.6107330634721873  0.8881976408846279  0.3750000000000000
  0.9444505106501889  0.8890982114885673  0.3750000000000000
  0.7795296612432566  0.3892086796523298  0.3750000000000000
  0.2777852564601608  0.5555527988270811  0.8750000000000000
  0.1111237570898295  0.0555634056365512  0.8750000000000000
  0.6110974696451542  0.5555294461750844  0.8750000000000000
  0.4444426986176489  0.0555642210143246  0.8750000000000000
  0.9444434018541632  0.5555568688761289  0.8750000000000000
  0.1112769601773852  0.5556026084798767  0.3750000000000000
  0.7777807278497448  0.0555570305915402  0.8750000000000000
  0.2771448169805084  0.0549309253218239  0.3750000000000000
  0.4434688005815557  0.5563669060294207  0.3750000000000000
  0.7811448691207912  0.5572391012270643  0.3750000000000000
  0.6107330634721873  0.0558687559208883  0.3750000000000000
  0.4444459530419814  0.5555404728377366  0.8750000000000000
  0.9432684107743584  0.0549375230569983  0.3750000000000000
  0.2777805931782020  0.7222209173740388  0.8750000000000000
  0.1111304193399586  0.2222318763366433  0.8750000000000000
  0.4444459530419814  0.2222388135375813  0.8750000000000000
  0.6111029852794113  0.7222011493601840  0.8750000000000000
  0.9444434018541632  0.7222198663113713  0.8750000000000000
  0.7777777465952791  0.2222294453396027  0.8750000000000000
  0.1117574488679836  0.7225453911006563  0.3750000000000000
  0.4443957648175260  0.7224702994575698  0.3750000000000000
  0.2738814022584569  0.2196126672974097  0.3750000000000000
  0.7795296612432566  0.7236543149242559  0.3750000000000000
  0.6109946423318013  0.2239241862010687  0.3750000000000000
  0.9432684107743584  0.2216642210506941  0.3750000000000000
  0.1111237570898295  0.3888936847866072  0.8750000000000000
  0.2777805931782020  0.8888930091374918  0.8750000000000000
  0.6111076288442011  0.8888817880827644  0.8750000000000000
  0.4444579768353792  0.3888956550843541  0.8750000000000000
  0.9444487328830522  0.8888878851402826  0.8750000000000000
  0.1112769601773852  0.8890076850308364  0.3750000000000000
  0.7777712824923894  0.3888967708173403  0.8750000000000000
  0.4444979049506169  0.8889156191419741  0.3750000000000000
  0.2738814022584569  0.3876020682943750  0.3750000000000000
  0.2771448169805084  0.5555472249920189  0.3750000000000000
  0.6167652243898226  0.3943989362507180  0.3750000000000000
  0.7771695189182110  0.8884029106204533  0.3750000000000000
  0.9444505106501889  0.3886856324949486  0.3750000000000000
  0.1111156503310634  0.5555562537307489  0.8750000000000000
  0.2777852564601608  0.0555657909664150  0.8750000000000000
  0.7777662256997477  0.5555497795165417  0.8750000000000000
  0.6111076288442011  0.0555591740947664  0.8750000000000000
  0.9444548714998479  0.0555594221827307  0.8750000000000000
  0.0554883136234211  0.1110813258356927  0.1250221918402350
  0.5554743471664246  0.6109785037248225  0.1248203184950099
  0.3888677652403784  0.1111643785890774  0.1249975344802633
  0.8888125969893971  0.6110729651613692  0.1250178741756296
  0.7221734257126751  0.1110963559919962  0.1249970330645906
  0.0555259246632697  0.7777669654501451  0.6250077834786116
  0.3888732586579743  0.7777546072821715  0.6249908286686880
  0.2221473681273374  0.2777403507303364  0.6252445976328445
  0.7221497162600149  0.7777108967742556  0.6249596655369070
  0.5554743471664246  0.2778291767749391  0.6251796815049900
  0.8888323953948161  0.2777573834333075  0.6250109154808663
  0.2222097201707099  0.7777715267520223  0.1249939522512624
  0.0554883136234211  0.2777403211210639  0.1250221918402350
  0.3888477883939227  0.2778699717177967  0.1237707511355751
  0.5555137187238222  0.7777237363022137  0.1250416599663472
  0.8888169641842232  0.7777322881540460  0.1250162748783775
  0.7221497162600149  0.2777721528190957  0.1250403344630932
  0.0555113418478102  0.9444275497785988  0.6249832661794007
  0.3888732586579743  0.9444519847091383  0.6249908286686880
  0.2221789713082019  0.4443874127046416  0.6250094111030877
  0.5552761412574833  0.4443047372954059  0.6256044262924558
  0.7221734257126751  0.9444104030540142  0.6250029669354088
  0.8888169641842232  0.4444180093635110  0.6249837251216234
  0.0555113418478102  0.4444171254025401  0.1250167338206003
  0.2222050844624796  0.9444583939278361  0.1250068413303561
  0.5555267644304266  0.9444300488818753  0.1249985695050345
  0.3888477883939227  0.4443111500094622  0.1237707511355751
  0.8888323953948161  0.9444083452948449  0.1249890845191349
  0.7220543018550255  0.4443972343690590  0.1249978957657125
  0.2222050844624796  0.6110800238679784  0.6249931586696443
  0.0554883136234211  0.1110813258356927  0.6249778081597654
  0.5554743471664246  0.6109785037248225  0.6251796815049900
  0.3888677652403784  0.1111643785890774  0.6250024655197376
  0.8888125969893971  0.6110729651613692  0.6249821258243704
  0.0555259246632697  0.6110922925464611  0.1249922165213891
  0.7221734257126751  0.1110963559919962  0.6250029669354088
  0.2221789713082019  0.1111248919368958  0.1249905888969120
  0.3888677652403784  0.6110367199846434  0.1249975344802633
  0.7220543018550255  0.6109904008193023  0.1249978957657125
  0.5555137187238222  0.1111233157549455  0.1250416599663472
  0.3888677652403784  0.6110367199846434  0.6250024655197376
  0.8888318931892368  0.1110826132612900  0.1249832704483313
  0.2222097201707099  0.7777715267520223  0.6250060477487386
  0.0554883136234211  0.2777403211210639  0.6249778081597654
  0.3888477883939227  0.2778699717177967  0.6262292488644253
  0.5555137187238222  0.7777237363022137  0.6249583400336527
  0.8888169641842232  0.7777322881540460  0.6249837251216234
  0.7221497162600149  0.2777721528190957  0.6249596655369070
  0.0555259246632697  0.7777669654501451  0.1249922165213891
  0.3888732586579743  0.7777546072821715  0.1250091713313115
  0.2221473681273371  0.2777403507303364  0.1247554023671546
  0.7221497162600149  0.7777108967742556  0.1250403344630932
  0.5554743471664246  0.2778291767749391  0.1248203184950099
  0.8888323953948161  0.2777573834333075  0.1249890845191349
  0.0555113418478102  0.4444171254025401  0.6249832661794007
  0.2222050844624796  0.9444583939278361  0.6249931586696443
  0.5555267644304266  0.9444300488818753  0.6250014304949645
  0.3888477883939227  0.4443111500094622  0.6262292488644253
  0.8888323953948161  0.9444083452948449  0.6250109154808663
  0.0555113418478102  0.9444275497785988  0.1250167338206003
  0.7220543018550255  0.4443972343690590  0.6250021042342874
  0.3888732586579743  0.9444519847091383  0.1250091713313115
  0.2221789713082019  0.4443874127046416  0.1249905888969120
  0.2222050844624796  0.6110800238679784  0.1250068413303561
  0.5552761412574833  0.4443047372954059  0.1243955737075439
  0.7221734257126751  0.9444104030540142  0.1249970330645906
  0.8888169641842232  0.4444180093635110  0.1250162748783775
  0.0555259246632697  0.6110922925464611  0.6250077834786116
  0.2221789713082019  0.1111248919368958  0.6250094111030877
  0.7220543018550255  0.6109904008193023  0.6250021042342874
  0.5555137187238222  0.1111233157549455  0.6249583400336527
  0.8888318931892368  0.1110826132612900  0.6250167295516690
 
  0.00000000E+00  0.00000000E+00  0.00000000E+00
  0.00000000E+00  0.00000000E+00  0.00000000E+00
  0.00000000E+00  0.00000000E+00  0.00000000E+00
  0.00000000E+00  0.00000000E+00  0.00000000E+00
  0.00000000E+00  0.00000000E+00  0.00000000E+00
  0.00000000E+00  0.00000000E+00  0.00000000E+00
  0.00000000E+00  0.00000000E+00  0.00000000E+00
  0.00000000E+00  0.00000000E+00  0.00000000E+00
  0.00000000E+00  0.00000000E+00  0.00000000E+00
  0.00000000E+00  0.00000000E+00  0.00000000E+00
  0.00000000E+00  0.00000000E+00  0.00000000E+00
  0.00000000E+00  0.00000000E+00  0.00000000E+00
  0.00000000E+00  0.00000000E+00  0.00000000E+00
  0.00000000E+00  0.00000000E+00  0.00000000E+00
  0.00000000E+00  0.00000000E+00  0.00000000E+00
  0.00000000E+00  0.00000000E+00  0.00000000E+00
  0.00000000E+00  0.00000000E+00  0.00000000E+00
  0.00000000E+00  0.00000000E+00  0.00000000E+00
  0.00000000E+00  0.00000000E+00  0.00000000E+00
  0.00000000E+00  0.00000000E+00  0.00000000E+00
  0.00000000E+00  0.00000000E+00  0.00000000E+00
  0.00000000E+00  0.00000000E+00  0.00000000E+00
  0.00000000E+00  0.00000000E+00  0.00000000E+00
  0.00000000E+00  0.00000000E+00  0.00000000E+00
  0.00000000E+00  0.00000000E+00  0.00000000E+00
  0.00000000E+00  0.00000000E+00  0.00000000E+00
  0.00000000E+00  0.00000000E+00  0.00000000E+00
  0.00000000E+00  0.00000000E+00  0.00000000E+00
  0.00000000E+00  0.00000000E+00  0.00000000E+00
  0.00000000E+00  0.00000000E+00  0.00000000E+00
  0.00000000E+00  0.00000000E+00  0.00000000E+00
  0.00000000E+00  0.00000000E+00  0.00000000E+00
  0.00000000E+00  0.00000000E+00  0.00000000E+00
  0.00000000E+00  0.00000000E+00  0.00000000E+00
  0.00000000E+00  0.00000000E+00  0.00000000E+00
  0.00000000E+00  0.00000000E+00  0.00000000E+00
  0.00000000E+00  0.00000000E+00  0.00000000E+00
  0.00000000E+00  0.00000000E+00  0.00000000E+00
  0.00000000E+00  0.00000000E+00  0.00000000E+00
  0.00000000E+00  0.00000000E+00  0.00000000E+00
  0.00000000E+00  0.00000000E+00  0.00000000E+00
  0.00000000E+00  0.00000000E+00  0.00000000E+00
  0.00000000E+00  0.00000000E+00  0.00000000E+00
  0.00000000E+00  0.00000000E+00  0.00000000E+00
  0.00000000E+00  0.00000000E+00  0.00000000E+00
  0.00000000E+00  0.00000000E+00  0.00000000E+00
  0.00000000E+00  0.00000000E+00  0.00000000E+00
  0.00000000E+00  0.00000000E+00  0.00000000E+00
  0.00000000E+00  0.00000000E+00  0.00000000E+00
  0.00000000E+00  0.00000000E+00  0.00000000E+00
  0.00000000E+00  0.00000000E+00  0.00000000E+00
  0.00000000E+00  0.00000000E+00  0.00000000E+00
  0.00000000E+00  0.00000000E+00  0.00000000E+00
  0.00000000E+00  0.00000000E+00  0.00000000E+00
  0.00000000E+00  0.00000000E+00  0.00000000E+00
  0.00000000E+00  0.00000000E+00  0.00000000E+00
  0.00000000E+00  0.00000000E+00  0.00000000E+00
  0.00000000E+00  0.00000000E+00  0.00000000E+00
  0.00000000E+00  0.00000000E+00  0.00000000E+00
  0.00000000E+00  0.00000000E+00  0.00000000E+00
  0.00000000E+00  0.00000000E+00  0.00000000E+00
  0.00000000E+00  0.00000000E+00  0.00000000E+00
  0.00000000E+00  0.00000000E+00  0.00000000E+00
  0.00000000E+00  0.00000000E+00  0.00000000E+00
  0.00000000E+00  0.00000000E+00  0.00000000E+00
  0.00000000E+00  0.00000000E+00  0.00000000E+00
  0.00000000E+00  0.00000000E+00  0.00000000E+00
  0.00000000E+00  0.00000000E+00  0.00000000E+00
  0.00000000E+00  0.00000000E+00  0.00000000E+00
  0.00000000E+00  0.00000000E+00  0.00000000E+00
  0.00000000E+00  0.00000000E+00  0.00000000E+00
  0.00000000E+00  0.00000000E+00  0.00000000E+00
  0.00000000E+00  0.00000000E+00  0.00000000E+00
  0.00000000E+00  0.00000000E+00  0.00000000E+00
  0.00000000E+00  0.00000000E+00  0.00000000E+00
  0.00000000E+00  0.00000000E+00  0.00000000E+00
  0.00000000E+00  0.00000000E+00  0.00000000E+00
  0.00000000E+00  0.00000000E+00  0.00000000E+00
  0.00000000E+00  0.00000000E+00  0.00000000E+00
  0.00000000E+00  0.00000000E+00  0.00000000E+00
  0.00000000E+00  0.00000000E+00  0.00000000E+00
  0.00000000E+00  0.00000000E+00  0.00000000E+00
  0.00000000E+00  0.00000000E+00  0.00000000E+00
  0.00000000E+00  0.00000000E+00  0.00000000E+00
  0.00000000E+00  0.00000000E+00  0.00000000E+00
  0.00000000E+00  0.00000000E+00  0.00000000E+00
  0.00000000E+00  0.00000000E+00  0.00000000E+00
  0.00000000E+00  0.00000000E+00  0.00000000E+00
  0.00000000E+00  0.00000000E+00  0.00000000E+00
  0.00000000E+00  0.00000000E+00  0.00000000E+00
  0.00000000E+00  0.00000000E+00  0.00000000E+00
  0.00000000E+00  0.00000000E+00  0.00000000E+00
  0.00000000E+00  0.00000000E+00  0.00000000E+00
  0.00000000E+00  0.00000000E+00  0.00000000E+00
  0.00000000E+00  0.00000000E+00  0.00000000E+00
  0.00000000E+00  0.00000000E+00  0.00000000E+00
  0.00000000E+00  0.00000000E+00  0.00000000E+00
  0.00000000E+00  0.00000000E+00  0.00000000E+00
  0.00000000E+00  0.00000000E+00  0.00000000E+00
  0.00000000E+00  0.00000000E+00  0.00000000E+00
  0.00000000E+00  0.00000000E+00  0.00000000E+00
  0.00000000E+00  0.00000000E+00  0.00000000E+00
  0.00000000E+00  0.00000000E+00  0.00000000E+00
  0.00000000E+00  0.00000000E+00  0.00000000E+00
  0.00000000E+00  0.00000000E+00  0.00000000E+00
  0.00000000E+00  0.00000000E+00  0.00000000E+00
  0.00000000E+00  0.00000000E+00  0.00000000E+00
  0.00000000E+00  0.00000000E+00  0.00000000E+00
  0.00000000E+00  0.00000000E+00  0.00000000E+00
  0.00000000E+00  0.00000000E+00  0.00000000E+00
  0.00000000E+00  0.00000000E+00  0.00000000E+00
  0.00000000E+00  0.00000000E+00  0.00000000E+00
  0.00000000E+00  0.00000000E+00  0.00000000E+00
  0.00000000E+00  0.00000000E+00  0.00000000E+00
  0.00000000E+00  0.00000000E+00  0.00000000E+00
  0.00000000E+00  0.00000000E+00  0.00000000E+00
  0.00000000E+00  0.00000000E+00  0.00000000E+00
  0.00000000E+00  0.00000000E+00  0.00000000E+00
  0.00000000E+00  0.00000000E+00  0.00000000E+00
  0.00000000E+00  0.00000000E+00  0.00000000E+00
  0.00000000E+00  0.00000000E+00  0.00000000E+00
  0.00000000E+00  0.00000000E+00  0.00000000E+00
  0.00000000E+00  0.00000000E+00  0.00000000E+00
  0.00000000E+00  0.00000000E+00  0.00000000E+00
  0.00000000E+00  0.00000000E+00  0.00000000E+00
  0.00000000E+00  0.00000000E+00  0.00000000E+00
  0.00000000E+00  0.00000000E+00  0.00000000E+00
  0.00000000E+00  0.00000000E+00  0.00000000E+00
  0.00000000E+00  0.00000000E+00  0.00000000E+00
  0.00000000E+00  0.00000000E+00  0.00000000E+00
  0.00000000E+00  0.00000000E+00  0.00000000E+00
  0.00000000E+00  0.00000000E+00  0.00000000E+00
  0.00000000E+00  0.00000000E+00  0.00000000E+00
  0.00000000E+00  0.00000000E+00  0.00000000E+00
  0.00000000E+00  0.00000000E+00  0.00000000E+00
  0.00000000E+00  0.00000000E+00  0.00000000E+00
  0.00000000E+00  0.00000000E+00  0.00000000E+00
  0.00000000E+00  0.00000000E+00  0.00000000E+00
  0.00000000E+00  0.00000000E+00  0.00000000E+00
  0.00000000E+00  0.00000000E+00  0.00000000E+00
  0.00000000E+00  0.00000000E+00  0.00000000E+00
  0.00000000E+00  0.00000000E+00  0.00000000E+00
  0.00000000E+00  0.00000000E+00  0.00000000E+00
  0.00000000E+00  0.00000000E+00  0.00000000E+00
  0.00000000E+00  0.00000000E+00  0.00000000E+00
  0.00000000E+00  0.00000000E+00  0.00000000E+00
  0.00000000E+00  0.00000000E+00  0.00000000E+00
  0.00000000E+00  0.00000000E+00  0.00000000E+00
  0.00000000E+00  0.00000000E+00  0.00000000E+00
  0.00000000E+00  0.00000000E+00  0.00000000E+00
  0.00000000E+00  0.00000000E+00  0.00000000E+00
  0.00000000E+00  0.00000000E+00  0.00000000E+00
  0.00000000E+00  0.00000000E+00  0.00000000E+00
  0.00000000E+00  0.00000000E+00  0.00000000E+00
  0.00000000E+00  0.00000000E+00  0.00000000E+00
  0.00000000E+00  0.00000000E+00  0.00000000E+00
  0.00000000E+00  0.00000000E+00  0.00000000E+00
  0.00000000E+00  0.00000000E+00  0.00000000E+00
  0.00000000E+00  0.00000000E+00  0.00000000E+00
  0.00000000E+00  0.00000000E+00  0.00000000E+00
  0.00000000E+00  0.00000000E+00  0.00000000E+00
  0.00000000E+00  0.00000000E+00  0.00000000E+00
  0.00000000E+00  0.00000000E+00  0.00000000E+00
  0.00000000E+00  0.00000000E+00  0.00000000E+00
  0.00000000E+00  0.00000000E+00  0.00000000E+00
  0.00000000E+00  0.00000000E+00  0.00000000E+00
  0.00000000E+00  0.00000000E+00  0.00000000E+00
  0.00000000E+00  0.00000000E+00  0.00000000E+00
  0.00000000E+00  0.00000000E+00  0.00000000E+00
  0.00000000E+00  0.00000000E+00  0.00000000E+00
  0.00000000E+00  0.00000000E+00  0.00000000E+00
  0.00000000E+00  0.00000000E+00  0.00000000E+00
  0.00000000E+00  0.00000000E+00  0.00000000E+00
  0.00000000E+00  0.00000000E+00  0.00000000E+00
  0.00000000E+00  0.00000000E+00  0.00000000E+00
  0.00000000E+00  0.00000000E+00  0.00000000E+00
  0.00000000E+00  0.00000000E+00  0.00000000E+00
  0.00000000E+00  0.00000000E+00  0.00000000E+00
  0.00000000E+00  0.00000000E+00  0.00000000E+00
  0.00000000E+00  0.00000000E+00  0.00000000E+00
  0.00000000E+00  0.00000000E+00  0.00000000E+00
  0.00000000E+00  0.00000000E+00  0.00000000E+00
  0.00000000E+00  0.00000000E+00  0.00000000E+00
  0.00000000E+00  0.00000000E+00  0.00000000E+00
  0.00000000E+00  0.00000000E+00  0.00000000E+00
  0.00000000E+00  0.00000000E+00  0.00000000E+00
  0.00000000E+00  0.00000000E+00  0.00000000E+00
  0.00000000E+00  0.00000000E+00  0.00000000E+00
  0.00000000E+00  0.00000000E+00  0.00000000E+00
  0.00000000E+00  0.00000000E+00  0.00000000E+00
  0.00000000E+00  0.00000000E+00  0.00000000E+00
  0.00000000E+00  0.00000000E+00  0.00000000E+00
  0.00000000E+00  0.00000000E+00  0.00000000E+00
  0.00000000E+00  0.00000000E+00  0.00000000E+00
  0.00000000E+00  0.00000000E+00  0.00000000E+00
  0.00000000E+00  0.00000000E+00  0.00000000E+00
  0.00000000E+00  0.00000000E+00  0.00000000E+00
  0.00000000E+00  0.00000000E+00  0.00000000E+00
  0.00000000E+00  0.00000000E+00  0.00000000E+00
  0.00000000E+00  0.00000000E+00  0.00000000E+00
  0.00000000E+00  0.00000000E+00  0.00000000E+00
  0.00000000E+00  0.00000000E+00  0.00000000E+00
  0.00000000E+00  0.00000000E+00  0.00000000E+00
  0.00000000E+00  0.00000000E+00  0.00000000E+00
  0.00000000E+00  0.00000000E+00  0.00000000E+00
  0.00000000E+00  0.00000000E+00  0.00000000E+00
  0.00000000E+00  0.00000000E+00  0.00000000E+00
  0.00000000E+00  0.00000000E+00  0.00000000E+00
  0.00000000E+00  0.00000000E+00  0.00000000E+00
  0.00000000E+00  0.00000000E+00  0.00000000E+00
  0.00000000E+00  0.00000000E+00  0.00000000E+00
  0.00000000E+00  0.00000000E+00  0.00000000E+00
  0.00000000E+00  0.00000000E+00  0.00000000E+00
  0.00000000E+00  0.00000000E+00  0.00000000E+00
  0.00000000E+00  0.00000000E+00  0.00000000E+00
  0.00000000E+00  0.00000000E+00  0.00000000E+00
  0.00000000E+00  0.00000000E+00  0.00000000E+00
  0.00000000E+00  0.00000000E+00  0.00000000E+00
  0.00000000E+00  0.00000000E+00  0.00000000E+00
  0.00000000E+00  0.00000000E+00  0.00000000E+00
  0.00000000E+00  0.00000000E+00  0.00000000E+00
  0.00000000E+00  0.00000000E+00  0.00000000E+00
  0.00000000E+00  0.00000000E+00  0.00000000E+00
  0.00000000E+00  0.00000000E+00  0.00000000E+00
  0.00000000E+00  0.00000000E+00  0.00000000E+00
  0.00000000E+00  0.00000000E+00  0.00000000E+00
  0.00000000E+00  0.00000000E+00  0.00000000E+00
  0.00000000E+00  0.00000000E+00  0.00000000E+00
  0.00000000E+00  0.00000000E+00  0.00000000E+00
  0.00000000E+00  0.00000000E+00  0.00000000E+00
  0.00000000E+00  0.00000000E+00  0.00000000E+00
  0.00000000E+00  0.00000000E+00  0.00000000E+00
  0.00000000E+00  0.00000000E+00  0.00000000E+00
  0.00000000E+00  0.00000000E+00  0.00000000E+00
  0.00000000E+00  0.00000000E+00  0.00000000E+00
  0.00000000E+00  0.00000000E+00  0.00000000E+00
  0.00000000E+00  0.00000000E+00  0.00000000E+00
  0.00000000E+00  0.00000000E+00  0.00000000E+00
  0.00000000E+00  0.00000000E+00  0.00000000E+00
  0.00000000E+00  0.00000000E+00  0.00000000E+00
  0.00000000E+00  0.00000000E+00  0.00000000E+00
  0.00000000E+00  0.00000000E+00  0.00000000E+00
  0.00000000E+00  0.00000000E+00  0.00000000E+00
  0.00000000E+00  0.00000000E+00  0.00000000E+00
  0.00000000E+00  0.00000000E+00  0.00000000E+00
  0.00000000E+00  0.00000000E+00  0.00000000E+00
  0.00000000E+00  0.00000000E+00  0.00000000E+00
  0.00000000E+00  0.00000000E+00  0.00000000E+00