 B N S 
 1.0
 14.936314146199660   0.000000000000000   0.000000000000000
 -7.468157073099825  12.935227489513863   0.000000000000000
  0.000000000000001   0.000000000000001  13.341276283792837
 B N S 
 143 143   1
Cartesian
  1.229732687722831   0.705441287862261   5.002978606422314 
  5.062147087319460   7.188101019582691   5.002978606422314 
  6.224953360242930   0.714785131894971   5.002978606422314 
  9.974337030213205   7.191571209520906   5.002978606422314 
 11.192606809615695   0.713064559125837   5.002978606422314 
 -3.734057032269345   9.342121157928835  11.673616748318732 
  1.244744522415093   9.341974070079475  11.673616748318732 
  2.489613363238528   2.874684295511030  11.673616748318732 
  6.223474583251423   9.341922769894941  11.673616748318732 
  7.467939012668697   2.874662470452430  11.673616748318732 
 12.447035202633025   2.874579858301330  11.673616748318732 
 -1.242808571727157   9.344142652443400   5.002978606422314 
 -0.021907848614795   2.861846495374583   5.002978606422314 
  4.977544413231247   2.851379819401385   5.002978606422314 
  3.745919263738730   9.318586901025492   5.002978606422314 
  8.725866184643163   9.353986145816711   5.002978606422314 
  9.949370829385998   2.872913270405862   5.002978606422314 
 -4.978732268376916  11.498029675466682  11.673616748318732 
 -0.000002260230070  11.497978685734502  11.673616748318732 
  1.244970618358736   5.030468766914830  11.673616748318732 
  6.223167362018324   5.030527521232541  11.673616748318732 
  4.978825092565957  11.497886154659703  11.673616748318732 
 11.202260140230647   5.030434701567526  11.673616748318732 
 -1.263589271004702   5.024001600005529   5.002978606422314 
 -2.486682136395009  11.498594864639946   5.002978606422314 
  2.488901401408369  11.489038540492203   5.002978606422314 
  7.466684425801166  11.500687626124524   5.002978606422314 
  8.736628352752497   5.034502812196215   5.002978606422314 
  0.000132291630735   7.186201835264424  11.673616748318732 
  1.244823104189545   0.718725292000925  11.673616748318732 
  4.978762617800049   7.185899763398361  11.673616748318732 
  6.223373436358531   0.718735839097922  11.673616748318732 
  9.957517383592810   7.186254482274753  11.673616748318732 
 -2.487259915908134   7.186846134454514   5.002978606422314 
 11.202268657050981   0.718642829343452  11.673616748318732 
  3.729289271937780   0.710544015247292   5.002978606422314 
  2.468753875022206   7.196732497127543   5.002978606422314 
  7.505876023643465   7.208014540424317   5.002978606422314 
  8.704864250795614   0.722675067392811   5.002978606422314 
  2.489520864025764   7.186042395788227  11.673616748318732 
 13.678671256115610   0.710629358452683   5.002978606422314 
 -1.244641049000262   9.342091863918592  11.673616748318732 
  0.000216295328785   2.874619875835991  11.673616748318732 
  4.978670008404133   2.874709610108265  11.673616748318732 
  3.734114542018629   9.341836160162361  11.673616748318732 
  8.712851940472788   9.342078268183876  11.673616748318732 
  9.957488355006353   2.874588430336253  11.673616748318732 
 -3.726838108713988   9.346289005386751   5.002978606422314 
  1.242113071556631   9.345317677900873   5.002978606422314 
  2.450676768314520   2.840739811070920   5.002978606422314 
  6.238935816129098   9.360633187313558   5.002978606422314 
  7.453706924497045   2.896510288915089   5.002978606422314 
 12.433530087219411   2.867277125576615   5.002978606422314 
 -1.244539777723285   5.030428281950059  11.673616748318732 
 -2.489374409991837  11.498033287031987  11.673616748318732 
  2.489386708736258  11.497888140136407  11.673616748318732 
  3.734230129581546   5.030453768199639  11.673616748318732 
  7.468228622718324  11.497967006962433  11.673616748318732 
 -4.977181396559567  11.499516645799952   5.002978606422314 
  8.712694039513723   5.030468200459630  11.673616748318732 
  0.000598877185970  11.498325752583499   5.002978606422314 
  1.196105535053233   5.013720928793830   5.002978606422314 
 -0.009391887353248   7.186129736439908   5.002978606422314 
  6.266765940553874   5.101639962025314   5.002978606422314 
  4.973315598700651  11.491693751221812   5.002978606422314 
 11.203844167080479   5.027737078227748   5.002978606422314 
 -2.489323105900102   7.186246525229325  11.673616748318732 
  3.734113800843386   0.718756146785354  11.673616748318732 
  7.468027663999952   7.186162779795741  11.673616748318732 
  8.712770882564758   0.718670556045305  11.673616748318732 
 13.691748165879059   0.718673765119570  11.673616748318732 
 -0.000781905506870   1.436862219521503   1.667955602945925 
  3.733855915328410   7.903145936883378   1.665262354872945 
  4.978058062724145   1.437936525780156   1.667626642294110 
  8.711995278783228   7.904367817054088   1.667897999789530 
  9.956924117684455   1.437056638012485   1.667619952769097 
 -4.979133210221071  10.060592631926495   8.338401518909134 
 -0.000060417138465  10.060432776212398   8.338175320105600 
  1.243854312309383   3.592634619714265   8.341560921968657 
  4.978187888077066  10.059867370848835   8.337759564154640 
  6.221867417787633   3.593783604808199   8.340694857971682 
 11.201544113242960   3.592854941601969   8.338443303816526 
 -2.489525741959919  10.060651633403921   1.667578850787296 
 -1.245417459943025   3.592634236711595   1.667955602945925 
  3.732776127820289   3.594311296674487   1.651259786752272 
  2.489164393199600  10.060033453063831   1.668215332595113 
  7.467422506771295  10.060144073212733   1.667876663123017 
  8.711808954862436   3.593045986967017   1.668197648689987 
 -6.223998445393410  12.216385203750356   8.338074426846628 
 -1.244982615436860  12.216701275135570   8.338175320105600 
 -0.000220087247916   5.748252276811028   8.338423233496956 
  4.975641317266860   5.747182851584772   8.346361495531367 
  3.733603923004805  12.216163406967150   8.338337260075530 
  9.956665895485997   5.748648051553918   8.338080549721610 
 -2.489842057965701   5.748636617317666   1.667882785998013 
 -3.734438688446239  12.216784179837457   1.667750807552533 
  1.244370320549526  12.216417530219751   1.667640450845554 
  2.489767264906323   5.747265801499911   1.651259786752272 
  6.222890017127921  12.216136789384180   1.667513909028114 
  7.466001534002256   5.748379322274586   1.667631462303116 
 -1.244716656065219   7.904459123029858   8.338206405292095 
 -0.000781905506870   1.436862219521504   8.338001609898702 
  3.733855915328410   7.903145936883379   8.340694857971682 
  4.978058062724146   1.437936525780156   8.338330570550532 
  8.711995278783228   7.904367817054089   8.338059213055098 
 -3.734380572868824   7.904617821177030   1.667555693935506 
  9.956924117684455   1.437056638012486   8.338337260075530 
  2.488636764422802   1.437425756951395   1.667533979347672 
  1.244932900683878   7.903898977447740   1.667626642294110 
  6.221857599646777   7.903299828506929   1.667631462303116 
  7.467441038841004   1.437405368679294   1.668215332595113 
  1.244932900683879   7.903898977447740   8.338330570550532 
 12.446289975910112   1.436878872664476   1.667436341903185 
 -2.489525741959919  10.060651633403921   8.338378362057345 
 -1.245417459943024   3.592634236711596   8.338001609898702 
  3.732776127820290   3.594311296674488   8.354697426092356 
  2.489164393199600  10.060033453063831   8.337741880249515 
  7.467422506771296  10.060144073212733   8.338080549721610 
  8.711808954862436   3.593045986967017   8.337759564154640 
 -4.979133210221072  10.060592631926495   1.667555693935506 
 -0.000060417138465  10.060432776212398   1.667781892739028 
  1.243854312309383   3.592634619714264   1.664396290875958 
  4.978187888077065  10.059867370848835   1.668197648689987 
  6.221867417787632   3.593783604808198   1.665262354872945 
 11.201544113242960   3.592854941601968   1.667513909028114 
 -2.489842057965701   5.748636617317667   8.338074426846628 
 -3.734438688446238  12.216784179837457   8.338206405292095 
  1.244370320549526  12.216417530219751   8.338316761999060 
  2.489767264906323   5.747265801499911   8.354697426092356 
  6.222890017127922  12.216136789384180   8.338443303816526 
 -6.223998445393411  12.216385203750356   1.667882785998013 
  7.466001534002257   5.748379322274587   8.338325750541513 
 -1.244982615436860  12.216701275135570   1.667781892739028 
 -0.000220087247917   5.748252276811027   1.667533979347672 
 -1.244716656065219   7.904459123029857   1.667750807552533 
  4.975641317266859   5.747182851584771   1.659595717313261 
  3.733603923004805  12.216163406967150   1.667619952769097 
  9.956665895485997   5.748648051553917   1.667876663123017 
 -3.734380572868824   7.904617821177031   8.338401518909134 
  2.488636764422803   1.437425756951396   8.338423233496956 
  6.221857599646778   7.903299828506930   8.338325750541513 
  7.467441038841005   1.437405368679294   8.337741880249515 
 12.446289975910112   1.436878872664477   8.338520870941442 
  1.243882063193861   0.718131763366373   1.668919214136162 
  4.978020215332731   7.185356266700924   1.662571810217716 
  6.222971753148773   0.718570776904014   1.668927303082757 
  9.957120676572892   7.186035231455291   1.668420234832664 
 11.201559512737644   0.718233404683269   1.667962416722927 
 -3.734370884614257   9.341939955193002   8.337882768150866 
  1.244400732757094   9.341708733312490   8.337029909761871 
  2.488004822028910   2.873912369476401   8.342820262757341 
  6.222928653799283   9.341429957950380   8.336644283767296 
  7.467258960607697   2.874480357562056   8.336425166525299 
 12.446008719202998   2.874068122401175   8.338183298692318 
 -1.244921423795777   9.341904845424541   1.668001403189701 
 -0.001291986541020   2.873749068892462   1.668037270431460 
  4.977950675617815   2.874425563252907   1.663935449560972 
  3.733616801598707   9.341338274246825   1.669532046319316 
  8.712463710183370   9.341844335236507   1.668420234832664 
  9.956781536266643   2.874318111501635   1.668251203560969 
 -4.979174652488120  11.497777392815614   8.337900121445665 
 -0.000277737771151  11.497819638701994   8.338042366380790 
  1.243497840198090   5.029461692381594   8.342820262757341 
  6.222325478837798   5.030156330184755   8.343385402626899 
  4.978237580218210  11.497409191092537   8.337706009283659 
 11.201562845801188   5.030137803239915   8.337936494219027 
 -1.245524309096529   5.029910080859082   1.668919214136162 
 -2.489676560156411  11.497883984583499   1.668001403189701 
  2.488961387084392  11.497580314277275   1.668156583796000 
  3.731629805461876   5.028952470369158   1.624253789047624 
  7.467622854009536  11.497511581436418   1.668020718625587 
  8.711994287124384   5.030241817657669   1.669312929077319 
 -0.000396081747449   7.185789995599714   8.337550719178049 
  1.243882063193861   0.718131763366374   8.337037998708466 
  4.978020215332732   7.185356266700925   8.343385402626899 
  6.222971753148774   0.718570776904015   8.337029909761871 
  9.957120676572892   7.186035231455292   8.337536978011949 
 -2.489762781140455   7.185989550676309   1.668057091398962 
 11.201559512737644   0.718233404683269   8.337994796121688 
  3.733492950542368   0.718504481849516   1.668406493666566 
  2.488915205840009   7.185561458749166   1.663935449560972 
  7.467620888458717   7.185927927827509   1.669406494649176 
  8.712291636724887   0.718456129619560   1.668156583796000 
  2.488915205840009   7.185561458749167   8.342021763283656 
 13.690791747874469   0.718040672342704   1.667773914152311 
 -1.244921423795776   9.341904845424541   8.337955809654925 
 -0.001291986541020   2.873749068892463   8.337919942413169 
  4.977950675617816   2.874425563252908   8.342021763283656 
  3.733616801598707   9.341338274246825   8.336425166525299 
  8.712463710183370   9.341844335236507   8.337536978011949 
  9.956781536266643   2.874318111501636   8.337706009283659 
 -3.734370884614258   9.341939955193002   1.668074444693747 
  1.244400732757094   9.341708733312490   1.668927303082757 
  2.488004822028910   2.873912369476400   1.663136950087299 
  6.222928653799282   9.341429957950380   1.669312929077319 
  7.467258960607696   2.874480357562055   1.669532046319316 
 12.446008719202998   2.874068122401174   1.667773914152311 
 -1.245524309096529   5.029910080859083   8.337037998708466 
 -2.489676560156411  11.497883984583499   8.337955809654925 
  2.488961387084392  11.497580314277275   8.337800629048628 
  3.731629805461876   5.028952470369159   8.381703423797003 
  7.467622854009536  11.497511581436418   8.337936494219027 
 -4.979174652488121  11.497777392815614   1.668057091398962 
  8.711994287124384   5.030241817657670   8.336644283767296 
 -0.000277737771151  11.497819638701994   1.667914846463837 
  1.243497840198089   5.029461692381593   1.663136950087299 
 -0.000396081747449   7.185789995599713   1.668406493666566 
  6.222325478837798   5.030156330184754   1.662571810217716 
  4.978237580218210  11.497409191092537   1.668251203560969 
 11.201562845801188   5.030137803239914   1.668020718625587 
 -2.489762781140455   7.185989550676310   8.337900121445665 
  3.733492950542369   0.718504481849517   8.337550719178049 
  7.467620888458718   7.185927927827509   8.336550718195436 
  8.712291636724887   0.718456129619561   8.337800629048628 
 13.690791747874469   0.718040672342705   8.338183298692318 
 -0.014898700858984   1.425757029969049   5.002978606422314 
  3.762357010623372   7.860931868005511   5.002978606422314 
  4.980607898213657   1.421777757250147   5.002978606422314 
  8.738074137123490   7.919424452937006   5.002978606422314 
  9.949589691528312   1.436297005996600   5.002978606422314 
 -4.978746631987670  10.060745764106038  11.673616748318732 
  0.000016716507088  10.060768802708928  11.673616748318732 
  1.244703387222071   3.593124833343677  11.673616748318732 
  4.978812881618177  10.060738826649750  11.673616748318732 
  6.223498880624411   3.593134011875199  11.673616748318732 
 11.202276955579826   3.593173108125122  11.673616748318732 
 -2.484920041019459  10.063310736081712   5.002978606422314 
 -1.262093233885348   3.585961328092866   5.002978606422314 
  3.704755641152077   3.493294764404993   5.002978606422314 
  2.497579769947198  10.045841038153105   5.002978606422314 
  7.479466930165365  10.070072575059864   5.002978606422314 
  8.707335801950752   3.599626381107491   5.002978606422314 
 -6.223436634848146  12.216589650828151  11.673616748318732 
 -1.244653041131760  12.216600061583867  11.673616748318732 
 -0.000043142908682   5.749033849812808  11.673616748318732 
  4.978908583268590   5.749069208490385  11.673616748318732 
  3.734094598125805  12.216604639664128  11.673616748318732 
  9.957607030676368   5.749036195288832  11.673616748318732 
 -2.496133519657212   5.749094481769451   5.002978606422314 
 -3.732883291166333  12.212939205748215   5.002978606422314 
  1.243961644578653  12.216181581037999   5.002978606422314 
  2.388274138424625   5.773507614353584   5.002978606422314 
  6.216522578337445  12.210043820686682   5.002978606422314 
  7.508773278881184   5.771509802229910   5.002978606422314 
 -1.244715266784600   7.904890583141991  11.673616748318732 
  0.000037386639874   1.437238081821129  11.673616748318732 
  3.734109082764717   7.904883621611835  11.673616748318732 
  4.978804773145556   1.437197933209810  11.673616748318732 
  8.712923422943877   7.904903681335120  11.673616748318732 
 -3.724763108983213   7.910018138606820   5.002978606422314 
  9.957551573969511   1.437260958783799  11.673616748318732 
  2.473484923428995   1.412310654377124   5.002978606422314 
  1.232213914387759   7.914186584022159   5.002978606422314 
  6.263275055329268   7.928776006158621   5.002978606422314 
  7.459357735361089   1.451789506180454   5.002978606422314 
  1.244666615965610   7.904914943927139  11.673616748318732 
 12.435042624829769   1.430385211490572   5.002978606422314 
 -2.489373775647023  10.060739371195574  11.673616748318732 
 -1.244682307569845   3.593155833373972  11.673616748318732 
  3.734135264327621   3.592977773988542  11.673616748318732 
  2.489387662774578  10.060740490787321  11.673616748318732 
  7.468229216701223  10.060765048328559  11.673616748318732 
  8.712876154494865   3.593151519350352  11.673616748318732 
 -4.969647666195583  10.066221441256543   5.002978606422314 
  0.000620216414917  10.063630212610937   5.002978606422314 
  1.217271911312356   3.577287263342916   5.002978606422314 
  4.981650100113802  10.052703309722043   5.002978606422314 
  6.199559509389781   3.639573311808237   5.002978606422314 
 11.193083728171233   3.590387062201108   5.002978606422314 
 -2.489384096329984   5.749020935983108  11.673616748318732 
 -3.734064338388109  12.216569652933714  11.673616748318732 
  1.244696464305799  12.216605829405259  11.673616748318732 
  2.489291968637443   5.749109609585432  11.673616748318732 
  6.223531978588046  12.216612366203288  11.673616748318732 
 -6.226747653992424  12.210707705872666   5.002978606422314 
  7.468233846438523   5.749043007421857  11.673616748318732 
 -1.241873237512057  12.215692002884209   5.002978606422314 
 -0.029546324592784   5.747687948883411   5.002978606422314 
 -1.247268802663465   7.907728623631892   5.002978606422314 
  3.729278849303449  12.210191423601691   5.002978606422314 
  9.971286442004139   5.754114577263604   5.002978606422314 
 -3.734054667394518   7.904876041657960  11.673616748318732 
  2.489402098666874   1.437188208743339  11.673616748318732 
  6.223548524062561   7.904901225212286  11.673616748318732 
  7.468164986258484   1.437245206941348  11.673616748318732 
 12.446973594033896   1.437273559772266  11.673616748318732 
  3.962336359066172   5.162150961196420   5.002978606422314 
Generated by cif2cell 2.0.0.  :  Failed to get author information, No journal information. Species order: B N S 
 1.0
 14.936314146199660   0.000000000000000   0.000000000000000
 -7.468157073099825  12.935227489513863   0.000000000000000
  0.000000000000001   0.000000000000001  13.341276283792837
 B N S 
 143 143   1
Cartesian
  1.229732687722831   0.705441287862261   5.002978606422314 
  5.062147087319460   7.188101019582691   5.002978606422314 
  6.224953360242930   0.714785131894971   5.002978606422314 
  9.974337030213205   7.191571209520906   5.002978606422314 
 11.192606809615695   0.713064559125837   5.002978606422314 
 -3.734057032269345   9.342121157928835  11.673616748318732 
  1.244744522415093   9.341974070079475  11.673616748318732 
  2.489613363238528   2.874684295511030  11.673616748318732 
  6.223474583251423   9.341922769894941  11.673616748318732 
  7.467939012668697   2.874662470452430  11.673616748318732 
 12.447035202633025   2.874579858301330  11.673616748318732 
 -1.242808571727157   9.344142652443400   5.002978606422314 
 -0.021907848614795   2.861846495374583   5.002978606422314 
  4.977544413231247   2.851379819401385   5.002978606422314 
  3.745919263738730   9.318586901025492   5.002978606422314 
  8.725866184643163   9.353986145816711   5.002978606422314 
  9.949370829385998   2.872913270405862   5.002978606422314 
 -4.978732268376916  11.498029675466682  11.673616748318732 
 -0.000002260230070  11.497978685734502  11.673616748318732 
  1.244970618358736   5.030468766914830  11.673616748318732 
  6.223167362018324   5.030527521232541  11.673616748318732 
  4.978825092565957  11.497886154659703  11.673616748318732 
 11.202260140230647   5.030434701567526  11.673616748318732 
 -1.263589271004702   5.024001600005529   5.002978606422314 
 -2.486682136395009  11.498594864639946   5.002978606422314 
  2.488901401408369  11.489038540492203   5.002978606422314 
  7.466684425801166  11.500687626124524   5.002978606422314 
  8.736628352752497   5.034502812196215   5.002978606422314 
  0.000132291630735   7.186201835264424  11.673616748318732 
  1.244823104189545   0.718725292000925  11.673616748318732 
  4.978762617800049   7.185899763398361  11.673616748318732 
  6.223373436358531   0.718735839097922  11.673616748318732 
  9.957517383592810   7.186254482274753  11.673616748318732 
 -2.487259915908134   7.186846134454514   5.002978606422314 
 11.202268657050981   0.718642829343452  11.673616748318732 
  3.729289271937780   0.710544015247292   5.002978606422314 
  2.468753875022206   7.196732497127543   5.002978606422314 
  7.505876023643465   7.208014540424317   5.002978606422314 
  8.704864250795614   0.722675067392811   5.002978606422314 
  2.489520864025764   7.186042395788227  11.673616748318732 
 13.678671256115610   0.710629358452683   5.002978606422314 
 -1.244641049000262   9.342091863918592  11.673616748318732 
  0.000216295328785   2.874619875835991  11.673616748318732 
  4.978670008404133   2.874709610108265  11.673616748318732 
  3.734114542018629   9.341836160162361  11.673616748318732 
  8.712851940472788   9.342078268183876  11.673616748318732 
  9.957488355006353   2.874588430336253  11.673616748318732 
 -3.726838108713988   9.346289005386751   5.002978606422314 
  1.242113071556631   9.345317677900873   5.002978606422314 
  2.450676768314520   2.840739811070920   5.002978606422314 
  6.238935816129098   9.360633187313558   5.002978606422314 
  7.453706924497045   2.896510288915089   5.002978606422314 
 12.433530087219411   2.867277125576615   5.002978606422314 
 -1.244539777723285   5.030428281950059  11.673616748318732 
 -2.489374409991837  11.498033287031987  11.673616748318732 
  2.489386708736258  11.497888140136407  11.673616748318732 
  3.734230129581546   5.030453768199639  11.673616748318732 
  7.468228622718324  11.497967006962433  11.673616748318732 
 -4.977181396559567  11.499516645799952   5.002978606422314 
  8.712694039513723   5.030468200459630  11.673616748318732 
  0.000598877185970  11.498325752583499   5.002978606422314 
  1.196105535053233   5.013720928793830   5.002978606422314 
 -0.009391887353248   7.186129736439908   5.002978606422314 
  6.266765940553874   5.101639962025314   5.002978606422314 
  4.973315598700651  11.491693751221812   5.002978606422314 
 11.203844167080479   5.027737078227748   5.002978606422314 
 -2.489323105900102   7.186246525229325  11.673616748318732 
  3.734113800843386   0.718756146785354  11.673616748318732 
  7.468027663999952   7.186162779795741  11.673616748318732 
  8.712770882564758   0.718670556045305  11.673616748318732 
 13.691748165879059   0.718673765119570  11.673616748318732 
 -0.000781905506870   1.436862219521503   1.667955602945925 
  3.733855915328410   7.903145936883378   1.665262354872945 
  4.978058062724145   1.437936525780156   1.667626642294110 
  8.711995278783228   7.904367817054088   1.667897999789530 
  9.956924117684455   1.437056638012485   1.667619952769097 
 -4.979133210221071  10.060592631926495   8.338401518909134 
 -0.000060417138465  10.060432776212398   8.338175320105600 
  1.243854312309383   3.592634619714265   8.341560921968657 
  4.978187888077066  10.059867370848835   8.337759564154640 
  6.221867417787633   3.593783604808199   8.340694857971682 
 11.201544113242960   3.592854941601969   8.338443303816526 
 -2.489525741959919  10.060651633403921   1.667578850787296 
 -1.245417459943025   3.592634236711595   1.667955602945925 
  3.732776127820289   3.594311296674487   1.651259786752272 
  2.489164393199600  10.060033453063831   1.668215332595113 
  7.467422506771295  10.060144073212733   1.667876663123017 
  8.711808954862436   3.593045986967017   1.668197648689987 
 -6.223998445393410  12.216385203750356   8.338074426846628 
 -1.244982615436860  12.216701275135570   8.338175320105600 
 -0.000220087247916   5.748252276811028   8.338423233496956 
  4.975641317266860   5.747182851584772   8.346361495531367 
  3.733603923004805  12.216163406967150   8.338337260075530 
  9.956665895485997   5.748648051553918   8.338080549721610 
 -2.489842057965701   5.748636617317666   1.667882785998013 
 -3.734438688446239  12.216784179837457   1.667750807552533 
  1.244370320549526  12.216417530219751   1.667640450845554 
  2.489767264906323   5.747265801499911   1.651259786752272 
  6.222890017127921  12.216136789384180   1.667513909028114 
  7.466001534002256   5.748379322274586   1.667631462303116 
 -1.244716656065219   7.904459123029858   8.338206405292095 
 -0.000781905506870   1.436862219521504   8.338001609898702 
  3.733855915328410   7.903145936883379   8.340694857971682 
  4.978058062724146   1.437936525780156   8.338330570550532 
  8.711995278783228   7.904367817054089   8.338059213055098 
 -3.734380572868824   7.904617821177030   1.667555693935506 
  9.956924117684455   1.437056638012486   8.338337260075530 
  2.488636764422802   1.437425756951395   1.667533979347672 
  1.244932900683878   7.903898977447740   1.667626642294110 
  6.221857599646777   7.903299828506929   1.667631462303116 
  7.467441038841004   1.437405368679294   1.668215332595113 
  1.244932900683879   7.903898977447740   8.338330570550532 
 12.446289975910112   1.436878872664476   1.667436341903185 
 -2.489525741959919  10.060651633403921   8.338378362057345 
 -1.245417459943024   3.592634236711596   8.338001609898702 
  3.732776127820290   3.594311296674488   8.354697426092356 
  2.489164393199600  10.060033453063831   8.337741880249515 
  7.467422506771296  10.060144073212733   8.338080549721610 
  8.711808954862436   3.593045986967017   8.337759564154640 
 -4.979133210221072  10.060592631926495   1.667555693935506 
 -0.000060417138465  10.060432776212398   1.667781892739028 
  1.243854312309383   3.592634619714264   1.664396290875958 
  4.978187888077065  10.059867370848835   1.668197648689987 
  6.221867417787632   3.593783604808198   1.665262354872945 
 11.201544113242960   3.592854941601968   1.667513909028114 
 -2.489842057965701   5.748636617317667   8.338074426846628 
 -3.734438688446238  12.216784179837457   8.338206405292095 
  1.244370320549526  12.216417530219751   8.338316761999060 
  2.489767264906323   5.747265801499911   8.354697426092356 
  6.222890017127922  12.216136789384180   8.338443303816526 
 -6.223998445393411  12.216385203750356   1.667882785998013 
  7.466001534002257   5.748379322274587   8.338325750541513 
 -1.244982615436860  12.216701275135570   1.667781892739028 
 -0.000220087247917   5.748252276811027   1.667533979347672 
 -1.244716656065219   7.904459123029857   1.667750807552533 
  4.975641317266859   5.747182851584771   1.659595717313261 
  3.733603923004805  12.216163406967150   1.667619952769097 
  9.956665895485997   5.748648051553917   1.667876663123017 
 -3.734380572868824   7.904617821177031   8.338401518909134 
  2.488636764422803   1.437425756951396   8.338423233496956 
  6.221857599646778   7.903299828506930   8.338325750541513 
  7.467441038841005   1.437405368679294   8.337741880249515 
 12.446289975910112   1.436878872664477   8.338520870941442 
  1.243882063193861   0.718131763366373   1.668919214136162 
  4.978020215332731   7.185356266700924   1.662571810217716 
  6.222971753148773   0.718570776904014   1.668927303082757 
  9.957120676572892   7.186035231455291   1.668420234832664 
 11.201559512737644   0.718233404683269   1.667962416722927 
 -3.734370884614257   9.341939955193002   8.337882768150866 
  1.244400732757094   9.341708733312490   8.337029909761871 
  2.488004822028910   2.873912369476401   8.342820262757341 
  6.222928653799283   9.341429957950380   8.336644283767296 
  7.467258960607697   2.874480357562056   8.336425166525299 
 12.446008719202998   2.874068122401175   8.338183298692318 
 -1.244921423795777   9.341904845424541   1.668001403189701 
 -0.001291986541020   2.873749068892462   1.668037270431460 
  4.977950675617815   2.874425563252907   1.663935449560972 
  3.733616801598707   9.341338274246825   1.669532046319316 
  8.712463710183370   9.341844335236507   1.668420234832664 
  9.956781536266643   2.874318111501635   1.668251203560969 
 -4.979174652488120  11.497777392815614   8.337900121445665 
 -0.000277737771151  11.497819638701994   8.338042366380790 
  1.243497840198090   5.029461692381594   8.342820262757341 
  6.222325478837798   5.030156330184755   8.343385402626899 
  4.978237580218210  11.497409191092537   8.337706009283659 
 11.201562845801188   5.030137803239915   8.337936494219027 
 -1.245524309096529   5.029910080859082   1.668919214136162 
 -2.489676560156411  11.497883984583499   1.668001403189701 
  2.488961387084392  11.497580314277275   1.668156583796000 
  3.731629805461876   5.028952470369158   1.624253789047624 
  7.467622854009536  11.497511581436418   1.668020718625587 
  8.711994287124384   5.030241817657669   1.669312929077319 
 -0.000396081747449   7.185789995599714   8.337550719178049 
  1.243882063193861   0.718131763366374   8.337037998708466 
  4.978020215332732   7.185356266700925   8.343385402626899 
  6.222971753148774   0.718570776904015   8.337029909761871 
  9.957120676572892   7.186035231455292   8.337536978011949 
 -2.489762781140455   7.185989550676309   1.668057091398962 
 11.201559512737644   0.718233404683269   8.337994796121688 
  3.733492950542368   0.718504481849516   1.668406493666566 
  2.488915205840009   7.185561458749166   1.663935449560972 
  7.467620888458717   7.185927927827509   1.669406494649176 
  8.712291636724887   0.718456129619560   1.668156583796000 
  2.488915205840009   7.185561458749167   8.342021763283656 
 13.690791747874469   0.718040672342704   1.667773914152311 
 -1.244921423795776   9.341904845424541   8.337955809654925 
 -0.001291986541020   2.873749068892463   8.337919942413169 
  4.977950675617816   2.874425563252908   8.342021763283656 
  3.733616801598707   9.341338274246825   8.336425166525299 
  8.712463710183370   9.341844335236507   8.337536978011949 
  9.956781536266643   2.874318111501636   8.337706009283659 
 -3.734370884614258   9.341939955193002   1.668074444693747 
  1.244400732757094   9.341708733312490   1.668927303082757 
  2.488004822028910   2.873912369476400   1.663136950087299 
  6.222928653799282   9.341429957950380   1.669312929077319 