Species order:X N B                     
   2.51242800000000     
     5.9449720136058266    0.0000000000000000    0.0000000000000000
    -2.9724860068029120    5.1484967885702053   -0.0000000000000001
     0.0000000000000000    0.0000000000000009    5.3101128803662583
   C    O    N    B 
     1     1   143   143
Direct
  0.4394970262046420  0.3864151797689847  0.3750000000000000
  0.5490360738050192  0.4411847035691739  0.3750000000000000
  0.1111411626783667  0.0555504277772219  0.1252673883198713
  0.6111200618912117  0.5555399798889863  0.1271446656170067
  0.4444307606882050  0.0555445886423505  0.1253259500620212
  0.9444840932519247  0.5555848024778735  0.1251890528848278
  0.7777876203139745  0.0555604768236549  0.1251655498005390
  0.1111324097257850  0.7222328715295576  0.6248335643394380
  0.4444307606882050  0.7222195053791921  0.6246740499379799
  0.2778250426374378  0.2222369938913738  0.6239557926749684
  0.7778064136406304  0.7222159621358573  0.6245324974573665
  0.6111104087064089  0.2222354845408234  0.6244677111570285
  0.9444788065396480  0.2222512888269532  0.6248356438414864
  0.2777774150648193  0.7222317882361883  0.1251842730928534
  0.1111618527329556  0.2222475930331424  0.1253567214898081
  0.4444503624100116  0.2222338067042006  0.1263507977709915
  0.6111104087064089  0.7222082574989175  0.1255322888429730
  0.9444840932519247  0.7222326241073813  0.1251890528848278
  0.7777925122715775  0.2222470037923142  0.1251604647952570
  0.1111302803057539  0.8888806150480391  0.6248205858620011
  0.4444321882582807  0.8888827607958038  0.6248499752672648
  0.2778250426374378  0.3889213820793921  0.6239557926749684
  0.6111200618912117  0.3889134153355536  0.6228553343829941
  0.7777925122715775  0.8888788418125897  0.6248395352047433
  0.9444765064030303  0.3889257896000571  0.6248614277303999
  0.1111411626783667  0.3889240682344718  0.1252673883198713
  0.2777774150648193  0.8888789601619584  0.1251842730928534
  0.6110994516941776  0.8888776238961362  0.1251413900406076
  0.4444816233106759  0.3889074783220033  0.1274259068604917
  0.9444765064030303  0.8888840501363005  0.1251385722695994
  0.7778064136406304  0.3889237848381034  0.1254675025426327
  0.2777853398575771  0.5555775463399258  0.6245455465962909
  0.1111411626783667  0.0555504277772219  0.6247326116801302
  0.6111200618912117  0.5555399798889863  0.6228553343829941
  0.4444307606882050  0.0555445886423505  0.6246740499379799
  0.9444840932519247  0.5555848024778735  0.6248109471151712
  0.1111302803057539  0.5555829985910471  0.1251794141380001
  0.7777876203139745  0.0555604768236549  0.6248344501994628
  0.2777853398575771  0.0555411268509883  0.1254544534037103
  0.4444503624100116  0.5555498890391478  0.1263507977709915
  0.7778151940339670  0.5555742636836514  0.1258094354625943
  0.6110994516941776  0.0555551611313733  0.1251413900406076
  0.4444503624100116  0.5555498890391478  0.6236492022290107
  0.9444788065396480  0.0555608510460300  0.1251643561585130
  0.2777774150648193  0.7222317882361883  0.6248157269071495
  0.1111618527329556  0.2222475930331424  0.6246432785101905
  0.4444503624100116  0.2222338067042006  0.6236492022290107
  0.6111104087064089  0.7222082574989175  0.6244677111570285
  0.9444840932519247  0.7222326241073813  0.6248109471151712
  0.7777925122715775  0.2222470037923142  0.6248395352047433
  0.1111324097257850  0.7222328715295576  0.1251664356605603
  0.4444307606882050  0.7222195053791921  0.1253259500620212
  0.2778250426374378  0.2222369938913738  0.1260442073250346
  0.7778064136406304  0.7222159621358573  0.1254675025426327
  0.6111104087064089  0.2222354845408234  0.1255322888429730
  0.9444788065396480  0.2222512888269532  0.1251643561585130
  0.1111411626783667  0.3889240682344718  0.6247326116801302
  0.2777774150648193  0.8888789601619584  0.6248157269071495
  0.6110994516941776  0.8888776238961362  0.6248586099593940
  0.4444816233106759  0.3889074783220033  0.6225740931395096
  0.9444765064030303  0.8888840501363005  0.6248614277303999
  0.1111302803057539  0.8888806150480391  0.1251794141380001
  0.7778064136406304  0.3889237848381034  0.6245324974573665
  0.4444321882582807  0.8888827607958038  0.1251500247327340
  0.2778250426374378  0.3889213820793921  0.1260442073250346
  0.2777853398575771  0.5555775463399258  0.1254544534037103
  0.6111200618912117  0.3889134153355536  0.1271446656170067
  0.7777925122715775  0.8888788418125897  0.1251604647952570
  0.9444765064030303  0.3889257896000571  0.1251385722695994
  0.1111302803057539  0.5555829985910471  0.6248205858620011
  0.2777853398575771  0.0555411268509883  0.6245455465962909
  0.7778151940339670  0.5555742636836514  0.6241905645374057
  0.6110994516941776  0.0555551611313733  0.6248586099593940
  0.9444788065396480  0.0555608510460300  0.6248356438414864
  0.0555052724885386  0.1111095890194312  0.3750000000000000
  0.5553785255817054  0.6105346234729825  0.3750000000000000
  0.3893725574974877  0.1132714106143426  0.3750000000000000
  0.8881977810445885  0.6107655571889665  0.3750000000000000
  0.7221665549763290  0.1111648942697023  0.3750000000000000
  0.0555596396071308  0.7777844082584017  0.8750000000000000
  0.3889075717062989  0.7777851512876011  0.8750000000000000
  0.2222294058146482  0.2777813695739934  0.8750000000000000
  0.7222320047315627  0.7777883670859682  0.8750000000000000
  0.5555676413079591  0.2777855292278055  0.8750000000000000
  0.8888977161456035  0.2777777625458171  0.8750000000000000
  0.2225046367944879  0.7779189850639134  0.3750000000000000
  0.0555052724885386  0.2777290168024425  0.3750000000000000
  0.3922380202521965  0.2843336630021013  0.3750000000000000
  0.5555602560798785  0.7774916174690059  0.3750000000000000
  0.8883050548024746  0.7772974639390957  0.3750000000000000
  0.7220638034157628  0.2779172485073186  0.3750000000000000
  0.0555614833064075  0.9444544684203446  0.8750000000000000
  0.3889075717062989  0.9444557537520352  0.8750000000000000
  0.2222310004091730  0.4444418802491224  0.8750000000000000
  0.5555619607874058  0.4444476470603672  0.8750000000000000
  0.7222336447976043  0.9444532022344644  0.8750000000000000
  0.8888941084652002  0.4444403316005486  0.8750000000000000
  0.0558245436161568  0.4442704816459463  0.3750000000000000
  0.2226804149128698  0.9453173039648461  0.3750000000000000
  0.5555828218273272  0.9444580775803281  0.3750000000000000
  0.3922380202521965  0.4412376905834314  0.3750000000000000
  0.8888052568227345  0.9443271169585495  0.3750000000000000
  0.7202010286517825  0.4444179534457680  0.3750000000000000
  0.2222337661587092  0.6111096569259149  0.8750000000000000
  0.0555596989824431  0.1111158174126288  0.8750000000000000
  0.5555676413079591  0.6111154454134898  0.8750000000000000
  0.3889063231118906  0.1111261355677080  0.8750000000000000
  0.8888889812616072  0.6111111572974757  0.8750000000000000
  0.0555419652551944  0.6109768873694471  0.3750000000000000
  0.7222336447976043  0.1111137758964746  0.8750000000000000
  0.2235278746752229  0.1128989596642629  0.3750000000000000
  0.3893725574974877  0.6094344802164894  0.3750000000000000
  0.7202010286517825  0.6091164085393523  0.3750000000000000
  0.5555602560798785  0.1114019719442055  0.3750000000000000
  0.3889063231118906  0.6111135208775224  0.8750000000000000
  0.8888251538763163  0.1110792436048286  0.3750000000000000
  0.2222345820617015  0.7777839576975153  0.8750000000000000
  0.0555596989824431  0.2777772149031503  0.8750000000000000
  0.3889023128470765  0.2777886213628545  0.8750000000000000
  0.5555709109140381  0.7777872951469665  0.8750000000000000
  0.8888941084652002  0.7777871101979856  0.8750000000000000
  0.7222320047315627  0.2777769709789292  0.8750000000000000
  0.0555419652551944  0.7778984112190832  0.3750000000000000
  0.3891582190074423  0.7773988409059854  0.3750000000000000
  0.2220208730834543  0.2776771032083953  0.3750000000000000
  0.7220638034157628  0.7774798882417778  0.3750000000000000
  0.5553785255817054  0.2781772354420579  0.3750000000000000
  0.8888052568227345  0.2778114731975221  0.3750000000000000
  0.0555614833064075  0.4444403482193912  0.8750000000000000
  0.2222337661587092  0.9444574425661323  0.8750000000000000
  0.5555703113491780  0.9444518223412530  0.8750000000000000
  0.3889023128470765  0.4444470248175571  0.8750000000000000
  0.8888977161456035  0.9444532869331234  0.8750000000000000
  0.0558245436161568  0.9448873953035405  0.3750000000000000
  0.7222229497380033  0.4444420750409723  0.8750000000000000
  0.3891582190074423  0.9450927114347921  0.3750000000000000
  0.2235278746752229  0.4439622483442963  0.3750000000000000
  0.2226804149128698  0.6106964442813605  0.3750000000000000
  0.7221665549763290  0.9443349940399633  0.3750000000000000
  0.8883050548024746  0.4443409241967111  0.3750000000000000
  0.0555596396071308  0.6111085646820666  0.8750000000000000
  0.2222310004091730  0.1111224534933869  0.8750000000000000
  0.7222229497380033  0.6111142080303686  0.8750000000000000
  0.5555709109140381  0.1111169491004116  0.8750000000000000
  0.8888974474784567  0.1111153904058992  0.8750000000000000
  0.1108840270986409  0.0557260373041286  0.3750000000000000
  0.6124474679450809  0.5601018271867678  0.3750000000000000
  0.4447259550349237  0.0558151175093757  0.3750000000000000
  0.9446258374080189  0.5555044037384690  0.3750000000000000
  0.7777627588479354  0.0555480460906361  0.3750000000000000
  0.1111234495488803  0.7222283914411051  0.8750000000000000
  0.4444663240727270  0.7222858820647298  0.8750000000000000
  0.2777071760714819  0.2221655795555144  0.8750000000000000
  0.7778398813585613  0.7223057819644780  0.8750000000000000
  0.6111627875669319  0.2221732854951799  0.8750000000000000
  0.9444200486933226  0.2221999214911673  0.8750000000000000
  0.2779591024813561  0.7222153600099495  0.3750000000000000
  0.1092835823909632  0.2213084578621464  0.3750000000000000
  0.4458119336736427  0.2223352432633226  0.3750000000000000
  0.6119957315476442  0.7239970810116411  0.3750000000000000
  0.9446258374080189  0.7224547670028855  0.3750000000000000
  0.7780096619990334  0.2219629100309659  0.3750000000000000
  0.1111052104212349  0.8888818941001219  0.8750000000000000
  0.4444698374546891  0.8889015853940119  0.8750000000000000
  0.2777071760714819  0.3888749298492977  0.8750000000000000
  0.6111717697751190  0.3888741901048058  0.8750000000000000
  0.7778114729169006  0.8889513412251455  0.8750000000000000
  0.9444548516438729  0.3888698415188196  0.8750000000000000
  0.1108840270986409  0.3884913231278411  0.3750000000000000
  0.2779591024813561  0.8890770758047353  0.3750000000000000
  0.6113345813773388  0.8892836277961561  0.3750000000000000
  0.9444239647318957  0.8890500397806470  0.3750000000000000
  0.7778771315984800  0.3883986508210994  0.3750000000000000
  0.2777519802835732  0.5555797367483006  0.8750000000000000
  0.1110602571467788  0.0555241766616380  0.8750000000000000
  0.6111717697751190  0.5556309130036389  0.8750000000000000
  0.4444663240727270  0.0555137753413328  0.8750000000000000
  0.9444834470091898  0.5555604563350198  0.8750000000000000
  0.1111825209924001  0.5554085753873496  0.3750000000000000
  0.7777936150404985  0.0555634741869171  0.8750000000000000
  0.2776954164242095  0.0557411557070853  0.3750000000000000
  0.4458119336736427  0.5568100237436545  0.3750000000000000
  0.7783974676757303  0.5558654005045319  0.3750000000000000
  0.6113345813773388  0.0553842869145113  0.3750000000000000
  0.4444480652130768  0.5556191659861969  0.8750000000000000
  0.9439711971502390  0.0553433789117028  0.3750000000000000
  0.2777854832632782  0.7222412200125176  0.8750000000000000
  0.1110330628272933  0.2221831980803117  0.8750000000000000
  0.4444480652130768  0.2221622325602157  0.8750000000000000
  0.6111627875669319  0.7223228354050837  0.8750000000000000
  0.9444834470091898  0.7222563240075115  0.8750000000000000
  0.7778114729169006  0.2221934650250798  0.8750000000000000
  0.1112726190694813  0.7223029762014043  0.3750000000000000
  0.4447259550349237  0.7222441708588843  0.3750000000000000
  0.2756578201019790  0.2222317505559078  0.3750000000000000
  0.7778771315984800  0.7228118141107086  0.3750000000000000
  0.6119957315476442  0.2213319838693306  0.3750000000000000
  0.9439711971502390  0.2219611515718731  0.3750000000000000
  0.1110602571467788  0.3888694138184701  0.8750000000000000
  0.2777854832632782  0.8888775965840841  0.8750000000000000
  0.6111492352945401  0.8889412417237279  0.8750000000000000
  0.4444305053317628  0.3888819193325473  0.8750000000000000
  0.9444548516438729  0.8889183434583879  0.8750000000000000
  0.1111825209924001  0.8891072789383802  0.3750000000000000
  0.7778398813585613  0.3888674327274110  0.8750000000000000
  0.4446239856628278  0.8889786594980781  0.3750000000000000
  0.2756578201019790  0.3867594028793999  0.3750000000000000
  0.2776954164242095  0.5552875940504626  0.3750000000000000
  0.6124474679450809  0.3856789740916408  0.3750000000000000
  0.7780096619990334  0.8893800853013988  0.3750000000000000
  0.9444239647318957  0.3887072582845776  0.3750000000000000
  0.1111052104212349  0.5555566496544447  0.8750000000000000
  0.2777519802835732  0.0555055768686081  0.8750000000000000
  0.7778516258134955  0.5555924795734170  0.8750000000000000
  0.6111492352945401  0.0555413269041417  0.8750000000000000
  0.9444200486933226  0.0555534605354916  0.8750000000000000
  0.0554644933560216  0.1110105600131393  0.1247509252297291
  0.5556253313380383  0.6113807945487784  0.1252704354111378
  0.3887659401166861  0.1107950985151233  0.1249341457599098
  0.8891670840510030  0.6112502086921728  0.1247881131306808
  0.7222473869094326  0.1110836009993664  0.1247489957236176
  0.0556469456932537  0.7777850960275651  0.6252325569437216
  0.3888149079829865  0.7778399816774066  0.6252355374758055
  0.2220118618029636  0.2776725975681509  0.6250855067951131
  0.7223601680374295  0.7779466601468104  0.6252138639005735
  0.5556253313380383  0.2775778701225952  0.6247295645888615
  0.8889388088897141  0.2778069466471621  0.6252623903872258
  0.2221954943315111  0.7777644138324248  0.1247905538311582
  0.0554644933560216  0.2777872666762176  0.1247509252297291
  0.3887461501249288  0.2775347616809702  0.1251577054662993
  0.5555431929672321  0.7779285399558655  0.1247535270654391
  0.8890808124641773  0.7778801357517837  0.1247427930187657
  0.7223601680374295  0.2777468412239550  0.1247861360994282
  0.0555488123927119  0.9443515576240029  0.6252524889732372
  0.3888149079829865  0.9443082596389145  0.6252355374758055
  0.2220577757578907  0.4445479387806056  0.6251307742933288
  0.5557090886910214  0.4445212110121750  0.6245289480800691
  0.7222473869094326  0.9444971192434035  0.6252510042763826
  0.8890808124641773  0.4445340100457295  0.6252572069812328
  0.0555488123927119  0.4445305881020406  0.1247475110267630
  0.2221469064726140  0.9442574711407657  0.1247917189216072
  0.5555249094165374  0.9444291213749320  0.1247280151723928
  0.3887461501249288  0.4445447217772950  0.1251577054662993
  0.8889388088897141  0.9444651955758874  0.1247376096127729
  0.7225653995937953  0.4445516308678180  0.1252121896701979
  0.2221469064726140  0.6112227686651842  0.6252082810783921
  0.0554644933560216  0.1110105600131393  0.6252490747702714
  0.5556253313380383  0.6113807945487784  0.6247295645888615
  0.3887659401166861  0.1107950985151233  0.6250658542400906
  0.8891670840510030  0.6112502086921728  0.6252118868693209
  0.0556469456932537  0.6111951829990263  0.1247674430562819
  0.7222473869094326  0.1110836009993664  0.6252510042763826
  0.2220577757578907  0.1108431703106210  0.1248692257066733
  0.3887659401166861  0.6113041749349042  0.1249341457599098
  0.7225653995937953  0.6113471020593131  0.1252121896701979
  0.5555431929672321  0.1109479863447046  0.1247535270654391
  0.3887659401166861  0.6113041749349042  0.6250658542400906
  0.8888821299693705  0.1111077316513568  0.1247799466895000
  0.2221954943315111  0.7777644138324248  0.6252094461688416
  0.0554644933560216  0.2777872666762176  0.6252490747702714
  0.3887461501249288  0.2775347616809702  0.6248422945336989
  0.5555431929672321  0.7779285399558655  0.6252464729345598
  0.8890808124641773  0.7778801357517837  0.6252572069812328
  0.7223601680374295  0.2777468412239550  0.6252138639005735
  0.0556469456932537  0.7777850960275651  0.1247674430562819
  0.3888149079829865  0.7778399816774066  0.1247644625241946
  0.2220118618029636  0.2776725975681509  0.1249144932048854
  0.7223601680374295  0.7779466601468104  0.1247861360994282
  0.5556253313380383  0.2775778701225952  0.1252704354111378
  0.8889388088897141  0.2778069466471621  0.1247376096127729
  0.0555488123927119  0.4445305881020406  0.6252524889732372
  0.2221469064726140  0.9442574711407657  0.6252082810783921
  0.5555249094165374  0.9444291213749320  0.6252719848276052
  0.3887461501249288  0.4445447217772950  0.6248422945336989
  0.8889388088897141  0.9444651955758874  0.6252623903872258
  0.0555488123927119  0.9443515576240029  0.1247475110267630
  0.7225653995937953  0.4445516308678180  0.6247878103298021
  0.3888149079829865  0.9443082596389145  0.1247644625241946
  0.2220577757578907  0.4445479387806056  0.1248692257066733
  0.2221469064726140  0.6112227686651842  0.1247917189216072
  0.5557090886910214  0.4445212110121750  0.1254710519199319
  0.7222473869094326  0.9444971192434035  0.1247489957236176
  0.8890808124641773  0.4445340100457295  0.1247427930187657
  0.0556469456932537  0.6111951829990263  0.6252325569437216
  0.2220577757578907  0.1108431703106210  0.6251307742933288
  0.7225653995937953  0.6113471020593131  0.6247878103298021
  0.5555431929672321  0.1109479863447046  0.6252464729345598
  0.8888821299693705  0.1111077316513568  0.6252200533105006
 
  0.00000000E+00  0.00000000E+00  0.00000000E+00
  0.00000000E+00  0.00000000E+00  0.00000000E+00
  0.00000000E+00  0.00000000E+00  0.00000000E+00
  0.00000000E+00  0.00000000E+00  0.00000000E+00
  0.00000000E+00  0.00000000E+00  0.00000000E+00
  0.00000000E+00  0.00000000E+00  0.00000000E+00
  0.00000000E+00  0.00000000E+00  0.00000000E+00
  0.00000000E+00  0.00000000E+00  0.00000000E+00
  0.00000000E+00  0.00000000E+00  0.00000000E+00
  0.00000000E+00  0.00000000E+00  0.00000000E+00
  0.00000000E+00  0.00000000E+00  0.00000000E+00
  0.00000000E+00  0.00000000E+00  0.00000000E+00
  0.00000000E+00  0.00000000E+00  0.00000000E+00
  0.00000000E+00  0.00000000E+00  0.00000000E+00
  0.00000000E+00  0.00000000E+00  0.00000000E+00
  0.00000000E+00  0.00000000E+00  0.00000000E+00
  0.00000000E+00  0.00000000E+00  0.00000000E+00
  0.00000000E+00  0.00000000E+00  0.00000000E+00
  0.00000000E+00  0.00000000E+00  0.00000000E+00
  0.00000000E+00  0.00000000E+00  0.00000000E+00
  0.00000000E+00  0.00000000E+00  0.00000000E+00
  0.00000000E+00  0.00000000E+00  0.00000000E+00
  0.00000000E+00  0.00000000E+00  0.00000000E+00
  0.00000000E+00  0.00000000E+00  0.00000000E+00
  0.00000000E+00  0.00000000E+00  0.00000000E+00
  0.00000000E+00  0.00000000E+00  0.00000000E+00
  0.00000000E+00  0.00000000E+00  0.00000000E+00
  0.00000000E+00  0.00000000E+00  0.00000000E+00
  0.00000000E+00  0.00000000E+00  0.00000000E+00
  0.00000000E+00  0.00000000E+00  0.00000000E+00
  0.00000000E+00  0.00000000E+00  0.00000000E+00
  0.00000000E+00  0.00000000E+00  0.00000000E+00
  0.00000000E+00  0.00000000E+00  0.00000000E+00
  0.00000000E+00  0.00000000E+00  0.00000000E+00
  0.00000000E+00  0.00000000E+00  0.00000000E+00
  0.00000000E+00  0.00000000E+00  0.00000000E+00
  0.00000000E+00  0.00000000E+00  0.00000000E+00
  0.00000000E+00  0.00000000E+00  0.00000000E+00
  0.00000000E+00  0.00000000E+00  0.00000000E+00
  0.00000000E+00  0.00000000E+00  0.00000000E+00
  0.00000000E+00  0.00000000E+00  0.00000000E+00
  0.00000000E+00  0.00000000E+00  0.00000000E+00
  0.00000000E+00  0.00000000E+00  0.00000000E+00
  0.00000000E+00  0.00000000E+00  0.00000000E+00
  0.00000000E+00  0.00000000E+00  0.00000000E+00
  0.00000000E+00  0.00000000E+00  0.00000000E+00
  0.00000000E+00  0.00000000E+00  0.00000000E+00
  0.00000000E+00  0.00000000E+00  0.00000000E+00
  0.00000000E+00  0.00000000E+00  0.00000000E+00
  0.00000000E+00  0.00000000E+00  0.00000000E+00
  0.00000000E+00  0.00000000E+00  0.00000000E+00
  0.00000000E+00  0.00000000E+00  0.00000000E+00
  0.00000000E+00  0.00000000E+00  0.00000000E+00
  0.00000000E+00  0.00000000E+00  0.00000000E+00
  0.00000000E+00  0.00000000E+00  0.00000000E+00
  0.00000000E+00  0.00000000E+00  0.00000000E+00
  0.00000000E+00  0.00000000E+00  0.00000000E+00
  0.00000000E+00  0.00000000E+00  0.00000000E+00
  0.00000000E+00  0.00000000E+00  0.00000000E+00
  0.00000000E+00  0.00000000E+00  0.00000000E+00
  0.00000000E+00  0.00000000E+00  0.00000000E+00
  0.00000000E+00  0.00000000E+00  0.00000000E+00
  0.00000000E+00  0.00000000E+00  0.00000000E+00
  0.00000000E+00  0.00000000E+00  0.00000000E+00
  0.00000000E+00  0.00000000E+00  0.00000000E+00
  0.00000000E+00  0.00000000E+00  0.00000000E+00
  0.00000000E+00  0.00000000E+00  0.00000000E+00
  0.00000000E+00  0.00000000E+00  0.00000000E+00
  0.00000000E+00  0.00000000E+00  0.00000000E+00
  0.00000000E+00  0.00000000E+00  0.00000000E+00
  0.00000000E+00  0.00000000E+00  0.00000000E+00
  0.00000000E+00  0.00000000E+00  0.00000000E+00
  0.00000000E+00  0.00000000E+00  0.00000000E+00
  0.00000000E+00  0.00000000E+00  0.00000000E+00
  0.00000000E+00  0.00000000E+00  0.00000000E+00
  0.00000000E+00  0.00000000E+00  0.00000000E+00
  0.00000000E+00  0.00000000E+00  0.00000000E+00
  0.00000000E+00  0.00000000E+00  0.00000000E+00
  0.00000000E+00  0.00000000E+00  0.00000000E+00
  0.00000000E+00  0.00000000E+00  0.00000000E+00
  0.00000000E+00  0.00000000E+00  0.00000000E+00
  0.00000000E+00  0.00000000E+00  0.00000000E+00
  0.00000000E+00  0.00000000E+00  0.00000000E+00
  0.00000000E+00  0.00000000E+00  0.00000000E+00
  0.00000000E+00  0.00000000E+00  0.00000000E+00
  0.00000000E+00  0.00000000E+00  0.00000000E+00
  0.00000000E+00  0.00000000E+00  0.00000000E+00
  0.00000000E+00  0.00000000E+00  0.00000000E+00
  0.00000000E+00  0.00000000E+00  0.00000000E+00
  0.00000000E+00  0.00000000E+00  0.00000000E+00
  0.00000000E+00  0.00000000E+00  0.00000000E+00
  0.00000000E+00  0.00000000E+00  0.00000000E+00
  0.00000000E+00  0.00000000E+00  0.00000000E+00
  0.00000000E+00  0.00000000E+00  0.00000000E+00
  0.00000000E+00  0.00000000E+00  0.00000000E+00
  0.00000000E+00  0.00000000E+00  0.00000000E+00
  0.00000000E+00  0.00000000E+00  0.00000000E+00
  0.00000000E+00  0.00000000E+00  0.00000000E+00
  0.00000000E+00  0.00000000E+00  0.00000000E+00
  0.00000000E+00  0.00000000E+00  0.00000000E+00
  0.00000000E+00  0.00000000E+00  0.00000000E+00
  0.00000000E+00  0.00000000E+00  0.00000000E+00
  0.00000000E+00  0.00000000E+00  0.00000000E+00
  0.00000000E+00  0.00000000E+00  0.00000000E+00
  0.00000000E+00  0.00000000E+00  0.00000000E+00
  0.00000000E+00  0.00000000E+00  0.00000000E+00
  0.00000000E+00  0.00000000E+00  0.00000000E+00
  0.00000000E+00  0.00000000E+00  0.00000000E+00
  0.00000000E+00  0.00000000E+00  0.00000000E+00
  0.00000000E+00  0.00000000E+00  0.00000000E+00
  0.00000000E+00  0.00000000E+00  0.00000000E+00
  0.00000000E+00  0.00000000E+00  0.00000000E+00
  0.00000000E+00  0.00000000E+00  0.00000000E+00
  0.00000000E+00  0.00000000E+00  0.00000000E+00
  0.00000000E+00  0.00000000E+00  0.00000000E+00
  0.00000000E+00  0.00000000E+00  0.00000000E+00
  0.00000000E+00  0.00000000E+00  0.00000000E+00
  0.00000000E+00  0.00000000E+00  0.00000000E+00
  0.00000000E+00  0.00000000E+00  0.00000000E+00
  0.00000000E+00  0.00000000E+00  0.00000000E+00
  0.00000000E+00  0.00000000E+00  0.00000000E+00
  0.00000000E+00  0.00000000E+00  0.00000000E+00
  0.00000000E+00  0.00000000E+00  0.00000000E+00
  0.00000000E+00  0.00000000E+00  0.00000000E+00
  0.00000000E+00  0.00000000E+00  0.00000000E+00
  0.00000000E+00  0.00000000E+00  0.00000000E+00
  0.00000000E+00  0.00000000E+00  0.00000000E+00
  0.00000000E+00  0.00000000E+00  0.00000000E+00
  0.00000000E+00  0.00000000E+00  0.00000000E+00
  0.00000000E+00  0.00000000E+00  0.00000000E+00
  0.00000000E+00  0.00000000E+00  0.00000000E+00
  0.00000000E+00  0.00000000E+00  0.00000000E+00
  0.00000000E+00  0.00000000E+00  0.00000000E+00
  0.00000000E+00  0.00000000E+00  0.00000000E+00
  0.00000000E+00  0.00000000E+00  0.00000000E+00
  0.00000000E+00  0.00000000E+00  0.00000000E+00
  0.00000000E+00  0.00000000E+00  0.00000000E+00
  0.00000000E+00  0.00000000E+00  0.00000000E+00
  0.00000000E+00  0.00000000E+00  0.00000000E+00
  0.00000000E+00  0.00000000E+00  0.00000000E+00
  0.00000000E+00  0.00000000E+00  0.00000000E+00
  0.00000000E+00  0.00000000E+00  0.00000000E+00
  0.00000000E+00  0.00000000E+00  0.00000000E+00
  0.00000000E+00  0.00000000E+00  0.00000000E+00
  0.00000000E+00  0.00000000E+00  0.00000000E+00
  0.00000000E+00  0.00000000E+00  0.00000000E+00
  0.00000000E+00  0.00000000E+00  0.00000000E+00
  0.00000000E+00  0.00000000E+00  0.00000000E+00
  0.00000000E+00  0.00000000E+00  0.00000000E+00
  0.00000000E+00  0.00000000E+00  0.00000000E+00
  0.00000000E+00  0.00000000E+00  0.00000000E+00
  0.00000000E+00  0.00000000E+00  0.00000000E+00
  0.00000000E+00  0.00000000E+00  0.00000000E+00
  0.00000000E+00  0.00000000E+00  0.00000000E+00
  0.00000000E+00  0.00000000E+00  0.00000000E+00
  0.00000000E+00  0.00000000E+00  0.00000000E+00
  0.00000000E+00  0.00000000E+00  0.00000000E+00
  0.00000000E+00  0.00000000E+00  0.00000000E+00
  0.00000000E+00  0.00000000E+00  0.00000000E+00
  0.00000000E+00  0.00000000E+00  0.00000000E+00
  0.00000000E+00  0.00000000E+00  0.00000000E+00
  0.00000000E+00  0.00000000E+00  0.00000000E+00
  0.00000000E+00  0.00000000E+00  0.00000000E+00
  0.00000000E+00  0.00000000E+00  0.00000000E+00
  0.00000000E+00  0.00000000E+00  0.00000000E+00
  0.00000000E+00  0.00000000E+00  0.00000000E+00
  0.00000000E+00  0.00000000E+00  0.00000000E+00
  0.00000000E+00  0.00000000E+00  0.00000000E+00
  0.00000000E+00  0.00000000E+00  0.00000000E+00
  0.00000000E+00  0.00000000E+00  0.00000000E+00
  0.00000000E+00  0.00000000E+00  0.00000000E+00
  0.00000000E+00  0.00000000E+00  0.00000000E+00
  0.00000000E+00  0.00000000E+00  0.00000000E+00
  0.00000000E+00  0.00000000E+00  0.00000000E+00
  0.00000000E+00  0.00000000E+00  0.00000000E+00
  0.00000000E+00  0.00000000E+00  0.00000000E+00
  0.00000000E+00  0.00000000E+00  0.00000000E+00
  0.00000000E+00  0.00000000E+00  0.00000000E+00
  0.00000000E+00  0.00000000E+00  0.00000000E+00
  0.00000000E+00  0.00000000E+00  0.00000000E+00
  0.00000000E+00  0.00000000E+00  0.00000000E+00
  0.00000000E+00  0.00000000E+00  0.00000000E+00
  0.00000000E+00  0.00000000E+00  0.00000000E+00
  0.00000000E+00  0.00000000E+00  0.00000000E+00
  0.00000000E+00  0.00000000E+00  0.00000000E+00
  0.00000000E+00  0.00000000E+00  0.00000000E+00
  0.00000000E+00  0.00000000E+00  0.00000000E+00
  0.00000000E+00  0.00000000E+00  0.00000000E+00
  0.00000000E+00  0.00000000E+00  0.00000000E+00
  0.00000000E+00  0.00000000E+00  0.00000000E+00
  0.00000000E+00  0.00000000E+00  0.00000000E+00
  0.00000000E+00  0.00000000E+00  0.00000000E+00
  0.00000000E+00  0.00000000E+00  0.00000000E+00
  0.00000000E+00  0.00000000E+00  0.00000000E+00
  0.00000000E+00  0.00000000E+00  0.00000000E+00
  0.00000000E+00  0.00000000E+00  0.00000000E+00
  0.00000000E+00  0.00000000E+00  0.00000000E+00
  0.00000000E+00  0.00000000E+00  0.00000000E+00
  0.00000000E+00  0.00000000E+00  0.00000000E+00
  0.00000000E+00  0.00000000E+00  0.00000000E+00
  0.00000000E+00  0.00000000E+00  0.00000000E+00
  0.00000000E+00  0.00000000E+00  0.00000000E+00
  0.00000000E+00  0.00000000E+00  0.00000000E+00
  0.00000000E+00  0.00000000E+00  0.00000000E+00
  0.00000000E+00  0.00000000E+00  0.00000000E+00
  0.00000000E+00  0.00000000E+00  0.00000000E+00
  0.00000000E+00  0.00000000E+00  0.00000000E+00
  0.00000000E+00  0.00000000E+00  0.00000000E+00
  0.00000000E+00  0.00000000E+00  0.00000000E+00
  0.00000000E+00  0.00000000E+00  0.00000000E+00
  0.00000000E+00  0.00000000E+00  0.00000000E+00
  0.00000000E+00  0.00000000E+00  0.00000000E+00
  0.00000000E+00  0.00000000E+00  0.00000000E+00
  0.00000000E+00  0.00000000E+00  0.00000000E+00
  0.00000000E+00  0.00000000E+00  0.00000000E+00
  0.00000000E+00  0.00000000E+00  0.00000000E+00
  0.00000000E+00  0.00000000E+00  0.00000000E+00
  0.00000000E+00  0.00000000E+00  0.00000000E+00
  0.00000000E+00  0.00000000E+00  0.00000000E+00
  0.00000000E+00  0.00000000E+00  0.00000000E+00
  0.00000000E+00  0.00000000E+00  0.00000000E+00
  0.00000000E+00  0.00000000E+00  0.00000000E+00
  0.00000000E+00  0.00000000E+00  0.00000000E+00
  0.00000000E+00  0.00000000E+00  0.00000000E+00
  0.00000000E+00  0.00000000E+00  0.00000000E+00
  0.00000000E+00  0.00000000E+00  0.00000000E+00
  0.00000000E+00  0.00000000E+00  0.00000000E+00
  0.00000000E+00  0.00000000E+00  0.00000000E+00
  0.00000000E+00  0.00000000E+00  0.00000000E+00
  0.00000000E+00  0.00000000E+00  0.00000000E+00
  0.00000000E+00  0.00000000E+00  0.00000000E+00
  0.00000000E+00  0.00000000E+00  0.00000000E+00
  0.00000000E+00  0.00000000E+00  0.00000000E+00
  0.00000000E+00  0.00000000E+00  0.00000000E+00
  0.00000000E+00  0.00000000E+00  0.00000000E+00
  0.00000000E+00  0.00000000E+00  0.00000000E+00
  0.00000000E+00  0.00000000E+00  0.00000000E+00
  0.00000000E+00  0.00000000E+00  0.00000000E+00
  0.00000000E+00  0.00000000E+00  0.00000000E+00
  0.00000000E+00  0.00000000E+00  0.00000000E+00
  0.00000000E+00  0.00000000E+00  0.00000000E+00
  0.00000000E+00  0.00000000E+00  0.00000000E+00
  0.00000000E+00  0.00000000E+00  0.00000000E+00
  0.00000000E+00  0.00000000E+00  0.00000000E+00
  0.00000000E+00  0.00000000E+00  0.00000000E+00
  0.00000000E+00  0.00000000E+00  0.00000000E+00
  0.00000000E+00  0.00000000E+00  0.00000000E+00