Species order:X N B                     
   2.51242800000000     
     5.9449720136058266    0.0000000000000000    0.0000000000000000
    -2.9724860068029120    5.1484967885702053   -0.0000000000000001
     0.0000000000000000    0.0000000000000009    5.3101128803662583
   C    N    B 
     2   143   143
Direct
  0.4390432823627333  0.3861883078480347  0.3750000000000000
  0.5518345752878490  0.4425839543105888  0.3750000000000000
  0.1111131423121872  0.0555597152271707  0.1250599927492032
  0.6111271267406863  0.5556302379122467  0.1246619628823718
  0.4444469737868932  0.0555638181004179  0.1250668341112325
  0.9444322761115238  0.5555516588957138  0.1250065985794442
  0.7777930754690103  0.0555632044011731  0.1249673725334642
  0.1111044486130493  0.7222188909731890  0.6250032914184002
  0.4444469737868932  0.7222164890198106  0.6249331658887674
  0.2777839385306852  0.2222388057742458  0.6249037777969653
  0.7777876105831049  0.7222451014212536  0.6250126940883060
  0.6111403106963027  0.2221924181368259  0.6250815132030945
  0.9444507503840420  0.2222264717533476  0.6249915985871876
  0.2777750256712043  0.7222166857532560  0.1250210423180710
  0.1111009392903984  0.2222171363118672  0.1250569158486904
  0.4444690389783882  0.2222500633371966  0.1251614711214475
  0.6111403106963027  0.7222812258928055  0.1249184867969060
  0.9444322761115238  0.7222139505491458  0.1250065985794442
  0.7778017487219748  0.2222158564108211  0.1249810682162781
  0.1111081904828127  0.8888876120046476  0.6249736463912666
  0.4444390200469855  0.8888861766901536  0.6249830683116276
  0.2777839385306852  0.3888784660897682  0.6249037777969653
  0.6111271267406863  0.3888302221617754  0.6253380371176283
  0.7778017487219748  0.8889192256444819  0.6250189317837223
  0.9444533140292166  0.3888906470433390  0.6249951559814864
  0.1111131423121872  0.3888867604183451  0.1250599927492032
  0.2777750256712043  0.8888916732512839  0.1250210423180710
  0.6111185982800661  0.8889078947256593  0.1249956769223472
  0.4444636325494308  0.3888984829413762  0.1250294356510381
  0.9444533140292166  0.8888960003192066  0.1250048440185135
  0.7777876105831049  0.3888758424951796  0.1249873059116939
  0.2777846494515567  0.5555473761461535  0.6249170279328640
  0.1111131423121872  0.0555597152271707  0.6249400072507970
  0.6111271267406863  0.5556302379122467  0.6253380371176283
  0.4444469737868932  0.0555638181004179  0.6249331658887674
  0.9444322761115238  0.5555516588957138  0.6249934014205557
  0.1111081904828127  0.5555539118114934  0.1250263536087332
  0.7777930754690103  0.0555632044011731  0.6250326274665354
  0.2777846494515567  0.0555706066387391  0.1250829720671360
  0.4444690389783882  0.5555523089745273  0.1251614711214475
  0.7777473129982755  0.5555403231658061  0.1250226318090998
  0.6111185982800661  0.0555440368877284  0.1249956769223472
  0.4444690389783882  0.5555523089745273  0.6248385288785526
  0.9444507503840420  0.0555576119640372  0.1250084014128123
  0.2777750256712043  0.7222166857532560  0.6249789576819290
  0.1111009392903984  0.2222171363118672  0.6249430841513096
  0.4444690389783882  0.2222500633371966  0.6248385288785526
  0.6111403106963027  0.7222812258928055  0.6250815132030945
  0.9444322761115238  0.7222139505491458  0.6249934014205557
  0.7778017487219748  0.2222158564108211  0.6250189317837223
  0.1111044486130493  0.7222188909731890  0.1249967085815996
  0.4444469737868932  0.7222164890198106  0.1250668341112325
  0.2777839385306852  0.2222388057742458  0.1250962222030349
  0.7777876105831049  0.7222451014212536  0.1249873059116939
  0.6111403106963027  0.2221924181368259  0.1249184867969060
  0.9444507503840420  0.2222264717533476  0.1250084014128123
  0.1111131423121872  0.3888867604183451  0.6249400072507970
  0.2777750256712043  0.8888916732512839  0.6249789576819290
  0.6111185982800661  0.8889078947256593  0.6250043230776525
  0.4444636325494308  0.3888984829413762  0.6249705643489621
  0.9444533140292166  0.8888960003192066  0.6249951559814864
  0.1111081904828127  0.8888876120046476  0.1250263536087332
  0.7777876105831049  0.3888758424951796  0.6250126940883060
  0.4444390200469855  0.8888861766901536  0.1250169316883724
  0.2777839385306852  0.3888784660897682  0.1250962222030349
  0.2777846494515567  0.5555473761461535  0.1250829720671360
  0.6111271267406863  0.3888302221617754  0.1246619628823718
  0.7778017487219748  0.8889192256444819  0.1249810682162781
  0.9444533140292166  0.3888906470433390  0.1250048440185135
  0.1111081904828127  0.5555539118114934  0.6249736463912666
  0.2777846494515567  0.0555706066387391  0.6249170279328640
  0.7777473129982755  0.5555403231658061  0.6249773681908998
  0.6111185982800661  0.0555440368877284  0.6250043230776525
  0.9444507503840420  0.0555576119640372  0.6249915985871876
  0.0554987727289920  0.1110691296594373  0.3750000000000000
  0.5560264644108731  0.6135651390915761  0.3750000000000000
  0.3889117667581606  0.1122114410805576  0.3750000000000000
  0.8890520736796932  0.6111927035065183  0.3750000000000000
  0.7223015144829202  0.1109581902574793  0.3750000000000000
  0.0555497119789545  0.7777756008099653  0.8750000000000000
  0.3888845334327649  0.7777768981013038  0.8750000000000000
  0.2222139869120261  0.2777736601226843  0.8750000000000000
  0.7222161989177923  0.7777747977449266  0.8750000000000000
  0.5555445262375647  0.2777674672808784  0.8750000000000000
  0.8888848188012682  0.2777770862246167  0.8750000000000000
  0.2223302174217422  0.7778317753775423  0.3750000000000000
  0.0554987727289920  0.2777629764028904  0.3750000000000000
  0.3881421064664492  0.2798548798670993  0.3750000000000000
  0.5554624041382662  0.7785367950061224  0.3750000000000000
  0.8894913207661398  0.7783627324773829  0.3750000000000000
  0.7226227279906208  0.2774136015121762  0.3750000000000000
  0.0555498362010404  0.9444413482243598  0.8750000000000000
  0.3888845334327649  0.9444409686647965  0.8750000000000000
  0.2222158639313372  0.4444420513567841  0.8750000000000000
  0.5555457739791484  0.4444395536562420  0.8750000000000000
  0.7222135775916593  0.9444405882715403  0.8750000000000000
  0.8888851543214420  0.4444422428999703  0.8750000000000000
  0.0558777173766407  0.4444880880390634  0.3750000000000000
  0.2224097438788839  0.9446817539122671  0.3750000000000000
  0.5553870744055035  0.9443602038694202  0.3750000000000000
  0.3881421064664492  0.4416205599326786  0.3750000000000000
  0.8891370804694007  0.9447183666576001  0.3750000000000000
  0.7230717147393237  0.4441143619783587  0.3750000000000000
  0.2222165716853825  0.6111079401573808  0.8750000000000000
  0.0555488293180200  0.1111058884930867  0.8750000000000000
  0.5555445262375647  0.6111103922900216  0.8750000000000000
  0.3888835438736956  0.1111069973220311  0.8750000000000000
  0.8888834930572722  0.6111084131953075  0.8750000000000000
  0.0557865955017535  0.6112058981852617  0.3750000000000000
  0.7222135775916593  0.1111063226534549  0.8750000000000000
  0.2223224365706579  0.1112676056371528  0.3750000000000000
  0.3889117667581606  0.6100336590109459  0.3750000000000000
  0.7230717147393237  0.6122906860943012  0.3750000000000000
  0.5554624041382662  0.1102589424654797  0.3750000000000000
  0.3888835438736956  0.6111098798850070  0.8750000000000000
  0.8890110484320284  0.1111721908826857  0.3750000000000000
  0.2222177848216263  0.7777755590774811  0.8750000000000000
  0.0555488293180200  0.2777762741582690  0.8750000000000000
  0.3888830137587446  0.2777735299870874  0.8750000000000000
  0.5555457355324618  0.7777768947803274  0.8750000000000000
  0.8888851543214420  0.7777762447548147  0.8750000000000000
  0.7222161989177923  0.2777747345062017  0.8750000000000000
  0.0557865955017535  0.7779140306498277  0.3750000000000000
  0.3888356787686430  0.7775067389780720  0.3750000000000000
  0.2214256497836909  0.2773794915585097  0.3750000000000000
  0.7226227279906208  0.7785424598117801  0.3750000000000000
  0.5560264644108731  0.2757946586526329  0.3750000000000000
  0.8891370804694007  0.2777520471451358  0.3750000000000000
  0.0555498362010404  0.4444418213100092  0.8750000000000000
  0.2222165716853825  0.9444419648613376  0.8750000000000000
  0.5555459564073884  0.9444396448703549  0.8750000000000000
  0.3888830137587446  0.4444428171049928  0.8750000000000000
  0.8888848188012682  0.9444410659099942  0.8750000000000000
  0.0558777173766407  0.9447229626708989  0.3750000000000000
  0.7222156546602658  0.4444416868211822  0.8750000000000000
  0.3888356787686430  0.9446622731239066  0.3750000000000000
  0.2223224365706579  0.4443881642668409  0.3750000000000000
  0.2224097438788839  0.6110613232999522  0.3750000000000000
  0.7223015144829202  0.9446766575587768  0.3750000000000000
  0.8894913207661398  0.4444619216220927  0.3750000000000000
  0.0555497119789545  0.6111074445023176  0.8750000000000000
  0.2222158639313372  0.1111071459078889  0.8750000000000000
  0.7222156546602658  0.6111073011724119  0.8750000000000000
  0.5555457355324618  0.1111021740854697  0.8750000000000000
  0.8888833868961898  0.1111083601147663  0.8750000000000000
  0.1111162229627829  0.0556131327413968  0.3750000000000000
  0.6120345320816489  0.5585991609586970  0.3750000000000000
  0.4445138140253215  0.0558901396440886  0.3750000000000000
  0.9446221880520062  0.5555732992458520  0.3750000000000000
  0.7778662157019204  0.0555997745176316  0.3750000000000000
  0.1110993507655228  0.7222163420494295  0.8750000000000000
  0.4444482499334055  0.7222261153265521  0.8750000000000000
  0.2777806371200313  0.2222222955067619  0.8750000000000000
  0.7777631482606119  0.7222092295248274  0.8750000000000000
  0.6111061333238438  0.2222240857817960  0.8750000000000000
  0.9444275332488101  0.2222175923099161  0.8750000000000000
  0.2778085867241301  0.7222065197396255  0.3750000000000000
  0.1103837445182813  0.2218585389258085  0.3750000000000000
  0.4452239391486542  0.2232799047161905  0.3750000000000000
  0.6113991568262177  0.7236802244136717  0.3750000000000000
  0.9446221880520062  0.7223822221394903  0.3750000000000000
  0.7780002177754307  0.2220387537102526  0.3750000000000000
  0.1110992845372322  0.8888797503525558  0.8750000000000000
  0.4444446735064439  0.8888890034198862  0.8750000000000000
  0.2777806371200313  0.3888916749465978  0.8750000000000000
  0.6111081317237209  0.3888879702500473  0.8750000000000000
  0.7777642544641897  0.8888756964568335  0.8750000000000000
  0.9444283522915603  0.3888854649026610  0.8750000000000000
  0.1111162229627829  0.3888364235547145  0.3750000000000000
  0.2778085867241301  0.8889354003178336  0.3750000000000000
  0.6111610107793001  0.8892646293054768  0.3750000000000000
  0.9447530225854920  0.8892446423012559  0.3750000000000000
  0.7784305199145307  0.3887393214780265  0.3750000000000000
  0.2777778004771693  0.5555588122894745  0.8750000000000000
  0.1110991373305627  0.0555455645466798  0.8750000000000000
  0.6111081317237209  0.5555534948070023  0.8750000000000000
  0.4444482499334055  0.0555554679401892  0.8750000000000000
  0.9444276176249999  0.5555495866035831  0.8750000000000000
  0.1112281196074445  0.5555686520451201  0.3750000000000000
  0.7777634431622497  0.0555483882477928  0.8750000000000000
  0.2777611880463376  0.0556512734669356  0.3750000000000000
  0.4452239391486542  0.5552773677657996  0.3750000000000000
  0.7777853008243308  0.5555593170788333  0.3750000000000000
  0.6111610107793001  0.0552297148071591  0.3750000000000000
  0.4444566240390969  0.5555623644175163  0.8750000000000000
  0.9444201160357283  0.0555970579063973  0.3750000000000000
  0.2777757975093860  0.7222228368702416  0.8750000000000000
  0.1110993433065113  0.2222163383199235  0.8750000000000000
  0.4444566240390969  0.2222275929549166  0.8750000000000000
  0.6111061333238438  0.7222153808753763  0.8750000000000000
  0.9444276176249999  0.7222113643547527  0.8750000000000000
  0.7777642544641897  0.2222218913406780  0.8750000000000000
  0.1112117835699515  0.7222725584516396  0.3750000000000000
  0.4445138140253215  0.7219570077145686  0.3750000000000000
  0.2765411397944764  0.2217920102955903  0.3750000000000000
  0.7784305199145307  0.7230245317698328  0.3750000000000000
  0.6113991568262177  0.2210522657458746  0.3750000000000000
  0.9444201160357283  0.2221563914626664  0.3750000000000000
  0.1110991373305627  0.3888869061172116  0.8750000000000000
  0.2777757975093860  0.8888862939724728  0.8750000000000000
  0.6111046542592113  0.8888842975983753  0.8750000000000000
  0.4444593651204756  0.3888963492268986  0.8750000000000000
  0.9444283522915603  0.8888762207222282  0.8750000000000000
  0.1112281196074445  0.8889928008956531  0.3750000000000000
  0.7777631482606119  0.3888872520691125  0.8750000000000000
  0.4443868794439029  0.8888601063886121  0.3750000000000000
  0.2765411397944764  0.3880824628322148  0.3750000000000000
  0.2777611880463376  0.5554432479127375  0.3750000000000000
  0.6120345320816489  0.3867687044562806  0.3750000000000000
  0.7780002177754307  0.8892947973985063  0.3750000000000000
  0.9447530225854920  0.3888417136175574  0.3750000000000000
  0.1110992845372322  0.5555528675180051  0.8750000000000000
  0.2777778004771693  0.0555523215210304  0.8750000000000000
  0.7777599824926509  0.5555466579129933  0.8750000000000000
  0.6111046542592113  0.0555536899941647  0.8750000000000000
  0.9444275332488101  0.0555432742722295  0.8750000000000000
  0.0555272075008047  0.1110929231412906  0.1250022139926587
  0.5556462022583232  0.6111556942185532  0.1249475280933086
  0.3889162010746787  0.1111333917295273  0.1250427964484438
  0.8888347527526951  0.6110840430430191  0.1250328708396828
  0.7222363956360451  0.1111165892299125  0.1249963052365466
  0.0555213507830278  0.7777537697817093  0.6249963560418487
  0.3888959167025101  0.7777791235558553  0.6249948757635093
  0.2222073133024105  0.2777703233178698  0.6250446312002224
  0.7222346451679151  0.7777958710154349  0.6250051727863878
  0.5556462022583232  0.2778238413731060  0.6250524719066910
  0.8888788496937636  0.2777746976807883  0.6250004900151070
  0.2222044273862323  0.7777688803597874  0.1249961836150738
  0.0555272075008047  0.2777676176928427  0.1250022139926587
  0.3889513113035152  0.2778332182944261  0.1249811610309809
  0.5556020999400726  0.7778003317771066  0.1250032466647809
  0.8888623866280048  0.7777629722650214  0.1250155141291475
  0.7222346451679151  0.2777721074858089  0.1249948272136121
  0.0555304329448384  0.9444231664699269  0.6249931253517194
  0.3888959167025101  0.9444501264799900  0.6249948757635093
  0.2222168929398395  0.4444416676206681  0.6249893706222228
  0.5556681215727781  0.4445007274530534  0.6246462118952408
  0.7222363956360451  0.9444531397394679  0.6250036947634532
  0.8888623866280048  0.4444327476963190  0.6249844858708523
  0.0555304329448384  0.4444405998082330  0.1250068746482809
  0.2222089207888698  0.9444321157998692  0.1250026443149402
  0.5555780117900463  0.9444556725616908  0.1249989968425523
  0.3889513113035152  0.4444514263424247  0.1249811610309809
  0.8888788496937636  0.9444374853463102  0.1249995099848932
  0.7222007992140714  0.4444219379555672  0.1250088808035142
  0.2222089207888698  0.6111101383223365  0.6249973556850598
  0.0555272075008047  0.1110929231412906  0.6249977860073410
  0.5556462022583232  0.6111556942185532  0.6250524719066910
  0.3889162010746787  0.1111333917295273  0.6249572035515560
  0.8888347527526951  0.6110840430430191  0.6249671291603175
  0.0555213507830278  0.6111009143346536  0.1250036439581514
  0.7222363956360451  0.1111165892299125  0.6250036947634532
  0.2222168929398395  0.1111085586525073  0.1250106293777768
  0.3889162010746787  0.6111161426784942  0.1250427964484438
  0.7222007992140714  0.6111121945918402  0.1250088808035142
  0.5556020999400726  0.1111351014963020  0.1250032466647809
  0.3889162010746787  0.6111161426784942  0.6249572035515560
  0.8888803908318128  0.1111068620825777  0.1249919395404206
  0.2222044273862323  0.7777688803597874  0.6250038163849260
  0.0555272075008047  0.2777676176928427  0.6249977860073410
  0.3889513113035152  0.2778332182944261  0.6250188389690188
  0.5556020999400726  0.7778003317771066  0.6249967533352192
  0.8888623866280048  0.7777629722650214  0.6249844858708523
  0.7222346451679151  0.2777721074858089  0.6250051727863878
  0.0555213507830278  0.7777537697817093  0.1250036439581514
  0.3888959167025101  0.7777791235558553  0.1250051242364903
  0.2222073133024105  0.2777703233178698  0.1249553687997780
  0.7222346451679151  0.7777958710154349  0.1249948272136121
  0.5556462022583232  0.2778238413731060  0.1249475280933086
  0.8888788496937636  0.2777746976807883  0.1249995099848932
  0.0555304329448384  0.4444405998082330  0.6249931253517194
  0.2222089207888698  0.9444321157998692  0.6249973556850598
  0.5555780117900463  0.9444556725616908  0.6250010031574476
  0.3889513113035152  0.4444514263424247  0.6250188389690188
  0.8888788496937636  0.9444374853463102  0.6250004900151070
  0.0555304329448384  0.9444231664699269  0.1250068746482809
  0.7222007992140714  0.4444219379555672  0.6249911191964861
  0.3888959167025101  0.9444501264799900  0.1250051242364903
  0.2222168929398395  0.4444416676206681  0.1250106293777768
  0.2222089207888698  0.6111101383223365  0.1250026443149402
  0.5556681215727781  0.4445007274530534  0.1253537881047590
  0.7222363956360451  0.9444531397394679  0.1249963052365466
  0.8888623866280048  0.4444327476963190  0.1250155141291475
  0.0555213507830278  0.6111009143346536  0.6249963560418487
  0.2222168929398395  0.1111085586525073  0.6249893706222228
  0.7222007992140714  0.6111121945918402  0.6249911191964861
  0.5556020999400726  0.1111351014963020  0.6249967533352192
  0.8888803908318128  0.1111068620825777  0.6250080604595794
 
  0.00000000E+00  0.00000000E+00  0.00000000E+00
  0.00000000E+00  0.00000000E+00  0.00000000E+00
  0.00000000E+00  0.00000000E+00  0.00000000E+00
  0.00000000E+00  0.00000000E+00  0.00000000E+00
  0.00000000E+00  0.00000000E+00  0.00000000E+00
  0.00000000E+00  0.00000000E+00  0.00000000E+00
  0.00000000E+00  0.00000000E+00  0.00000000E+00
  0.00000000E+00  0.00000000E+00  0.00000000E+00
  0.00000000E+00  0.00000000E+00  0.00000000E+00
  0.00000000E+00  0.00000000E+00  0.00000000E+00
  0.00000000E+00  0.00000000E+00  0.00000000E+00
  0.00000000E+00  0.00000000E+00  0.00000000E+00
  0.00000000E+00  0.00000000E+00  0.00000000E+00
  0.00000000E+00  0.00000000E+00  0.00000000E+00
  0.00000000E+00  0.00000000E+00  0.00000000E+00
  0.00000000E+00  0.00000000E+00  0.00000000E+00
  0.00000000E+00  0.00000000E+00  0.00000000E+00
  0.00000000E+00  0.00000000E+00  0.00000000E+00
  0.00000000E+00  0.00000000E+00  0.00000000E+00
  0.00000000E+00  0.00000000E+00  0.00000000E+00
  0.00000000E+00  0.00000000E+00  0.00000000E+00
  0.00000000E+00  0.00000000E+00  0.00000000E+00
  0.00000000E+00  0.00000000E+00  0.00000000E+00
  0.00000000E+00  0.00000000E+00  0.00000000E+00
  0.00000000E+00  0.00000000E+00  0.00000000E+00
  0.00000000E+00  0.00000000E+00  0.00000000E+00
  0.00000000E+00  0.00000000E+00  0.00000000E+00
  0.00000000E+00  0.00000000E+00  0.00000000E+00
  0.00000000E+00  0.00000000E+00  0.00000000E+00
  0.00000000E+00  0.00000000E+00  0.00000000E+00
  0.00000000E+00  0.00000000E+00  0.00000000E+00
  0.00000000E+00  0.00000000E+00  0.00000000E+00
  0.00000000E+00  0.00000000E+00  0.00000000E+00
  0.00000000E+00  0.00000000E+00  0.00000000E+00
  0.00000000E+00  0.00000000E+00  0.00000000E+00
  0.00000000E+00  0.00000000E+00  0.00000000E+00
  0.00000000E+00  0.00000000E+00  0.00000000E+00
  0.00000000E+00  0.00000000E+00  0.00000000E+00
  0.00000000E+00  0.00000000E+00  0.00000000E+00
  0.00000000E+00  0.00000000E+00  0.00000000E+00
  0.00000000E+00  0.00000000E+00  0.00000000E+00
  0.00000000E+00  0.00000000E+00  0.00000000E+00
  0.00000000E+00  0.00000000E+00  0.00000000E+00
  0.00000000E+00  0.00000000E+00  0.00000000E+00
  0.00000000E+00  0.00000000E+00  0.00000000E+00
  0.00000000E+00  0.00000000E+00  0.00000000E+00
  0.00000000E+00  0.00000000E+00  0.00000000E+00
  0.00000000E+00  0.00000000E+00  0.00000000E+00
  0.00000000E+00  0.00000000E+00  0.00000000E+00
  0.00000000E+00  0.00000000E+00  0.00000000E+00
  0.00000000E+00  0.00000000E+00  0.00000000E+00
  0.00000000E+00  0.00000000E+00  0.00000000E+00
  0.00000000E+00  0.00000000E+00  0.00000000E+00
  0.00000000E+00  0.00000000E+00  0.00000000E+00
  0.00000000E+00  0.00000000E+00  0.00000000E+00
  0.00000000E+00  0.00000000E+00  0.00000000E+00
  0.00000000E+00  0.00000000E+00  0.00000000E+00
  0.00000000E+00  0.00000000E+00  0.00000000E+00
  0.00000000E+00  0.00000000E+00  0.00000000E+00
  0.00000000E+00  0.00000000E+00  0.00000000E+00
  0.00000000E+00  0.00000000E+00  0.00000000E+00
  0.00000000E+00  0.00000000E+00  0.00000000E+00
  0.00000000E+00  0.00000000E+00  0.00000000E+00
  0.00000000E+00  0.00000000E+00  0.00000000E+00
  0.00000000E+00  0.00000000E+00  0.00000000E+00
  0.00000000E+00  0.00000000E+00  0.00000000E+00
  0.00000000E+00  0.00000000E+00  0.00000000E+00
  0.00000000E+00  0.00000000E+00  0.00000000E+00
  0.00000000E+00  0.00000000E+00  0.00000000E+00
  0.00000000E+00  0.00000000E+00  0.00000000E+00
  0.00000000E+00  0.00000000E+00  0.00000000E+00
  0.00000000E+00  0.00000000E+00  0.00000000E+00
  0.00000000E+00  0.00000000E+00  0.00000000E+00
  0.00000000E+00  0.00000000E+00  0.00000000E+00
  0.00000000E+00  0.00000000E+00  0.00000000E+00
  0.00000000E+00  0.00000000E+00  0.00000000E+00
  0.00000000E+00  0.00000000E+00  0.00000000E+00
  0.00000000E+00  0.00000000E+00  0.00000000E+00
  0.00000000E+00  0.00000000E+00  0.00000000E+00
  0.00000000E+00  0.00000000E+00  0.00000000E+00
  0.00000000E+00  0.00000000E+00  0.00000000E+00
  0.00000000E+00  0.00000000E+00  0.00000000E+00
  0.00000000E+00  0.00000000E+00  0.00000000E+00
  0.00000000E+00  0.00000000E+00  0.00000000E+00
  0.00000000E+00  0.00000000E+00  0.00000000E+00
  0.00000000E+00  0.00000000E+00  0.00000000E+00
  0.00000000E+00  0.00000000E+00  0.00000000E+00
  0.00000000E+00  0.00000000E+00  0.00000000E+00
  0.00000000E+00  0.00000000E+00  0.00000000E+00
  0.00000000E+00  0.00000000E+00  0.00000000E+00
  0.00000000E+00  0.00000000E+00  0.00000000E+00
  0.00000000E+00  0.00000000E+00  0.00000000E+00
  0.00000000E+00  0.00000000E+00  0.00000000E+00
  0.00000000E+00  0.00000000E+00  0.00000000E+00
  0.00000000E+00  0.00000000E+00  0.00000000E+00
  0.00000000E+00  0.00000000E+00  0.00000000E+00
  0.00000000E+00  0.00000000E+00  0.00000000E+00
  0.00000000E+00  0.00000000E+00  0.00000000E+00
  0.00000000E+00  0.00000000E+00  0.00000000E+00
  0.00000000E+00  0.00000000E+00  0.00000000E+00
  0.00000000E+00  0.00000000E+00  0.00000000E+00
  0.00000000E+00  0.00000000E+00  0.00000000E+00
  0.00000000E+00  0.00000000E+00  0.00000000E+00
  0.00000000E+00  0.00000000E+00  0.00000000E+00
  0.00000000E+00  0.00000000E+00  0.00000000E+00
  0.00000000E+00  0.00000000E+00  0.00000000E+00
  0.00000000E+00  0.00000000E+00  0.00000000E+00
  0.00000000E+00  0.00000000E+00  0.00000000E+00
  0.00000000E+00  0.00000000E+00  0.00000000E+00
  0.00000000E+00  0.00000000E+00  0.00000000E+00
  0.00000000E+00  0.00000000E+00  0.00000000E+00
  0.00000000E+00  0.00000000E+00  0.00000000E+00
  0.00000000E+00  0.00000000E+00  0.00000000E+00
  0.00000000E+00  0.00000000E+00  0.00000000E+00
  0.00000000E+00  0.00000000E+00  0.00000000E+00
  0.00000000E+00  0.00000000E+00  0.00000000E+00
  0.00000000E+00  0.00000000E+00  0.00000000E+00
  0.00000000E+00  0.00000000E+00  0.00000000E+00
  0.00000000E+00  0.00000000E+00  0.00000000E+00
  0.00000000E+00  0.00000000E+00  0.00000000E+00
  0.00000000E+00  0.00000000E+00  0.00000000E+00
  0.00000000E+00  0.00000000E+00  0.00000000E+00
  0.00000000E+00  0.00000000E+00  0.00000000E+00
  0.00000000E+00  0.00000000E+00  0.00000000E+00
  0.00000000E+00  0.00000000E+00  0.00000000E+00
  0.00000000E+00  0.00000000E+00  0.00000000E+00
  0.00000000E+00  0.00000000E+00  0.00000000E+00
  0.00000000E+00  0.00000000E+00  0.00000000E+00
  0.00000000E+00  0.00000000E+00  0.00000000E+00
  0.00000000E+00  0.00000000E+00  0.00000000E+00
  0.00000000E+00  0.00000000E+00  0.00000000E+00
  0.00000000E+00  0.00000000E+00  0.00000000E+00
  0.00000000E+00  0.00000000E+00  0.00000000E+00
  0.00000000E+00  0.00000000E+00  0.00000000E+00
  0.00000000E+00  0.00000000E+00  0.00000000E+00
  0.00000000E+00  0.00000000E+00  0.00000000E+00
  0.00000000E+00  0.00000000E+00  0.00000000E+00
  0.00000000E+00  0.00000000E+00  0.00000000E+00
  0.00000000E+00  0.00000000E+00  0.00000000E+00
  0.00000000E+00  0.00000000E+00  0.00000000E+00
  0.00000000E+00  0.00000000E+00  0.00000000E+00
  0.00000000E+00  0.00000000E+00  0.00000000E+00
  0.00000000E+00  0.00000000E+00  0.00000000E+00
  0.00000000E+00  0.00000000E+00  0.00000000E+00
  0.00000000E+00  0.00000000E+00  0.00000000E+00
  0.00000000E+00  0.00000000E+00  0.00000000E+00
  0.00000000E+00  0.00000000E+00  0.00000000E+00
  0.00000000E+00  0.00000000E+00  0.00000000E+00
  0.00000000E+00  0.00000000E+00  0.00000000E+00
  0.00000000E+00  0.00000000E+00  0.00000000E+00
  0.00000000E+00  0.00000000E+00  0.00000000E+00
  0.00000000E+00  0.00000000E+00  0.00000000E+00
  0.00000000E+00  0.00000000E+00  0.00000000E+00
  0.00000000E+00  0.00000000E+00  0.00000000E+00
  0.00000000E+00  0.00000000E+00  0.00000000E+00
  0.00000000E+00  0.00000000E+00  0.00000000E+00
  0.00000000E+00  0.00000000E+00  0.00000000E+00
  0.00000000E+00  0.00000000E+00  0.00000000E+00
  0.00000000E+00  0.00000000E+00  0.00000000E+00
  0.00000000E+00  0.00000000E+00  0.00000000E+00
  0.00000000E+00  0.00000000E+00  0.00000000E+00
  0.00000000E+00  0.00000000E+00  0.00000000E+00
  0.00000000E+00  0.00000000E+00  0.00000000E+00
  0.00000000E+00  0.00000000E+00  0.00000000E+00
  0.00000000E+00  0.00000000E+00  0.00000000E+00
  0.00000000E+00  0.00000000E+00  0.00000000E+00
  0.00000000E+00  0.00000000E+00  0.00000000E+00
  0.00000000E+00  0.00000000E+00  0.00000000E+00
  0.00000000E+00  0.00000000E+00  0.00000000E+00
  0.00000000E+00  0.00000000E+00  0.00000000E+00
  0.00000000E+00  0.00000000E+00  0.00000000E+00
  0.00000000E+00  0.00000000E+00  0.00000000E+00
  0.00000000E+00  0.00000000E+00  0.00000000E+00
  0.00000000E+00  0.00000000E+00  0.00000000E+00
  0.00000000E+00  0.00000000E+00  0.00000000E+00
  0.00000000E+00  0.00000000E+00  0.00000000E+00
  0.00000000E+00  0.00000000E+00  0.00000000E+00
  0.00000000E+00  0.00000000E+00  0.00000000E+00
  0.00000000E+00  0.00000000E+00  0.00000000E+00
  0.00000000E+00  0.00000000E+00  0.00000000E+00
  0.00000000E+00  0.00000000E+00  0.00000000E+00
  0.00000000E+00  0.00000000E+00  0.00000000E+00
  0.00000000E+00  0.00000000E+00  0.00000000E+00
  0.00000000E+00  0.00000000E+00  0.00000000E+00
  0.00000000E+00  0.00000000E+00  0.00000000E+00
  0.00000000E+00  0.00000000E+00  0.00000000E+00
  0.00000000E+00  0.00000000E+00  0.00000000E+00
  0.00000000E+00  0.00000000E+00  0.00000000E+00
  0.00000000E+00  0.00000000E+00  0.00000000E+00
  0.00000000E+00  0.00000000E+00  0.00000000E+00
  0.00000000E+00  0.00000000E+00  0.00000000E+00
  0.00000000E+00  0.00000000E+00  0.00000000E+00
  0.00000000E+00  0.00000000E+00  0.00000000E+00
  0.00000000E+00  0.00000000E+00  0.00000000E+00
  0.00000000E+00  0.00000000E+00  0.00000000E+00
  0.00000000E+00  0.00000000E+00  0.00000000E+00
  0.00000000E+00  0.00000000E+00  0.00000000E+00
  0.00000000E+00  0.00000000E+00  0.00000000E+00
  0.00000000E+00  0.00000000E+00  0.00000000E+00
  0.00000000E+00  0.00000000E+00  0.00000000E+00
  0.00000000E+00  0.00000000E+00  0.00000000E+00
  0.00000000E+00  0.00000000E+00  0.00000000E+00
  0.00000000E+00  0.00000000E+00  0.00000000E+00
  0.00000000E+00  0.00000000E+00  0.00000000E+00
  0.00000000E+00  0.00000000E+00  0.00000000E+00
  0.00000000E+00  0.00000000E+00  0.00000000E+00
  0.00000000E+00  0.00000000E+00  0.00000000E+00
  0.00000000E+00  0.00000000E+00  0.00000000E+00
  0.00000000E+00  0.00000000E+00  0.00000000E+00
  0.00000000E+00  0.00000000E+00  0.00000000E+00
  0.00000000E+00  0.00000000E+00  0.00000000E+00
  0.00000000E+00  0.00000000E+00  0.00000000E+00
  0.00000000E+00  0.00000000E+00  0.00000000E+00
  0.00000000E+00  0.00000000E+00  0.00000000E+00
  0.00000000E+00  0.00000000E+00  0.00000000E+00
  0.00000000E+00  0.00000000E+00  0.00000000E+00
  0.00000000E+00  0.00000000E+00  0.00000000E+00
  0.00000000E+00  0.00000000E+00  0.00000000E+00
  0.00000000E+00  0.00000000E+00  0.00000000E+00
  0.00000000E+00  0.00000000E+00  0.00000000E+00
  0.00000000E+00  0.00000000E+00  0.00000000E+00
  0.00000000E+00  0.00000000E+00  0.00000000E+00
  0.00000000E+00  0.00000000E+00  0.00000000E+00
  0.00000000E+00  0.00000000E+00  0.00000000E+00
  0.00000000E+00  0.00000000E+00  0.00000000E+00
  0.00000000E+00  0.00000000E+00  0.00000000E+00
  0.00000000E+00  0.00000000E+00  0.00000000E+00
  0.00000000E+00  0.00000000E+00  0.00000000E+00
  0.00000000E+00  0.00000000E+00  0.00000000E+00
  0.00000000E+00  0.00000000E+00  0.00000000E+00
  0.00000000E+00  0.00000000E+00  0.00000000E+00
  0.00000000E+00  0.00000000E+00  0.00000000E+00
  0.00000000E+00  0.00000000E+00  0.00000000E+00
  0.00000000E+00  0.00000000E+00  0.00000000E+00
  0.00000000E+00  0.00000000E+00  0.00000000E+00
  0.00000000E+00  0.00000000E+00  0.00000000E+00
  0.00000000E+00  0.00000000E+00  0.00000000E+00
  0.00000000E+00  0.00000000E+00  0.00000000E+00
  0.00000000E+00  0.00000000E+00  0.00000000E+00
  0.00000000E+00  0.00000000E+00  0.00000000E+00
  0.00000000E+00  0.00000000E+00  0.00000000E+00
  0.00000000E+00  0.00000000E+00  0.00000000E+00
  0.00000000E+00  0.00000000E+00  0.00000000E+00
  0.00000000E+00  0.00000000E+00  0.00000000E+00
  0.00000000E+00  0.00000000E+00  0.00000000E+00
  0.00000000E+00  0.00000000E+00  0.00000000E+00
  0.00000000E+00  0.00000000E+00  0.00000000E+00