 N C B 
 1.0
 14.936314146199660   0.000000000000000   0.000000000000000
 -7.468157073099825  12.935227489513863   0.000000000000000
  0.000000000000001   0.000000000000001  13.341276283792837
 N C B 
 143   2 143
Cartesian
  1.244692119093006   0.718677555716065   1.668459915316246 
  4.978452856970775   7.187203527447625   1.663149688893652 
  6.223440300653731   0.718730627314875   1.668551187817246 
  9.957390114957732   7.186187089992869   1.667747568945547 
 11.202406977991201   0.718722688975531   1.667224243428608 
 -3.734153171422935   9.342065651962610   8.338341589092764 
  1.244773441026177   9.342034582149246   8.337406025027382 
  2.489353861402734   2.874709509687760   8.337013950375198 
  6.223440228000427   9.342404690070932   8.338467032709783 
  7.468815788868357   2.874109475045031   8.339385167533777 
 12.446990906495268   2.874549966321584   8.338185591801023 
 -1.244692604625115   9.342037126941113   1.667940266853141 
 -0.000113947132216   2.874429210262311   1.668418865536405 
  4.978930811932093   2.874855128825508   1.669813766317183 
  3.734074022047476   9.342871968328396   1.666572045310851 
  8.712729942727128   9.342001746453720   1.667747568945547 
  9.957948342565462   2.874412654451117   1.667406961316924 
 -4.978805469516238  11.497963473890858   8.337946086595341 
 -0.000060765378337  11.497944907771357   8.338071787038000 
  1.244862703558416   5.030231424644353   8.337013950375198 
  6.224141574390826   5.029607378460775   8.342807523950976 
  4.978902859963613  11.498372403513880   8.338550251527703 
 11.202354958380663   5.030388988049832   8.338233051981204 
 -1.244646611106926   5.030338713671369   1.668459915316246 
 -2.489447591417338  11.498016007039984   1.667940266853141 
  2.489355583166551  11.498225835501239   1.667601860100740 
  3.734293486222925   5.030490347173526   1.668052244627196 
  7.468236442725713  11.498071978647930   1.667724160863424 
  8.713094217003231   5.030197487851516   1.667490180134843 
  0.000163722592464   7.186131691653018   8.337190724099024 
  1.244692119093006   0.718677555716065   8.337497297528381 
  4.978452856970776   7.187203527447626   8.342807523950976 
  6.223440300653732   0.718730627314876   8.337406025027382 
  9.957390114957732   7.186187089992869   8.338209643899081 
 -2.489417038716192   7.186216231970985   1.668011126249286 
 11.202406977991201   0.718722688975532   8.338732969416007 
  3.734068770174858   0.718818438602379   1.668766488745604 
  2.489777288695612   7.186195498910201   1.669813766317183 
  7.467815799462033   7.186040459747749   1.667961472692110 
  8.713047772544654   0.718474752828712   1.667601860100740 
  2.489777288695612   7.186195498910202   8.336143446527444 
 13.691700130596294   0.718650349528956   1.667771621043604 
 -1.244692604625115   9.342037126941113   8.338016945991487 
 -0.000113947132216   2.874429210262312   8.337538347308223 
  4.978930811932094   2.874855128825509   8.336143446527444 
  3.734074022047476   9.342871968328396   8.339385167533777 
  8.712729942727128   9.342001746453720   8.338209643899081 
  9.957948342565462   2.874412654451118   8.338550251527703 
 -3.734153171422935   9.342065651962610   1.667615623751865 
  1.244773441026177   9.342034582149246   1.668551187817246 
  2.489353861402734   2.874709509687759   1.668943262469430 
  6.223440228000426   9.342404690070932   1.667490180134843 
  7.468815788868356   2.874109475045030   1.666572045310851 
 12.446990906495268   2.874549966321583   1.667771621043604 
 -1.244646611106925   5.030338713671370   8.337497297528381 
 -2.489447591417337  11.498016007039984   8.338016945991487 
  2.489355583166552  11.498225835501239   8.338355352743887 
  3.734293486222925   5.030490347173527   8.337904968217432 
  7.468236442725714  11.498071978647930   8.338233051981204 
 -4.978805469516239  11.497963473890858   1.668011126249286 
  8.713094217003231   5.030197487851517   8.338467032709783 
 -0.000060765378338  11.497944907771357   1.667885425806626 
  1.244862703558416   5.030231424644352   1.668943262469430 
  0.000163722592464   7.186131691653017   1.668766488745604 
  6.224141574390825   5.029607378460774   1.663149688893652 
  4.978902859963612  11.498372403513880   1.667406961316924 
 11.202354958380663   5.030388988049832   1.667724160863424 
 -2.489417038716192   7.186216231970986   8.337946086595341 
  3.734068770174859   0.718818438602379   8.337190724099024 
  7.467815799462034   7.186040459747750   8.337995740152518 
  8.713047772544654   0.718474752828712   8.338355352743887 
 13.691700130596294   0.718650349528957   8.338185591801023 
 -0.000534602060402   1.436704459207129   5.002978606422314 
  3.722785112727273   7.936604653784752   5.002978606422314 
  4.970895656064929   1.451480517303199   5.002978606422314 
  8.714677953090934   7.905916659787809   5.002978606422314 
  9.959869135202929   1.435269432805252   5.002978606422314 
 -4.978842405624822  10.060704332270221  11.673616748318732 
 -0.000058484898832  10.060721113028812  11.673616748318732 
  1.244600591631471   3.593065484281824  11.673616748318732 
  4.978703671452803  10.060693944441267  11.673616748318732 
  6.223376490635218   3.592985378464257  11.673616748318732 
 11.202179982170067   3.593109801689730  11.673616748318732 
 -2.488175903363572  10.061430963080953   5.002978606422314 
 -1.245430432659739   3.592927287935854   5.002978606422314 
  3.707412235029580   3.619986535131499   5.002978606422314 
  2.482325892319017  10.070550552361210   5.002978606422314 
  7.472786651292842  10.068299013954569   5.002978606422314 
  8.721551724144447   3.588408044245344   5.002978606422314 
 -6.223526530601020  12.216563689785279  11.673616748318732 
 -1.244731942309190  12.216558780095985  11.673616748318732 
 -0.000077097475554   5.748959040206206  11.673616748318732 
  4.978661806542994   5.748926731881494  11.673616748318732 
  3.733978216137103  12.216553859622671  11.673616748318732 
  9.957503424940461   5.748961517860891  11.673616748318732 
 -2.484899718087476   5.749554535164346   5.002978606422314 
 -3.733049918557426  12.219673392048128   5.002978606422314 
  1.242805479977971  12.215514069094638   5.002978606422314 
  2.499320727263015   5.712462406775695   5.002978606422314 
  6.225125600884510  12.220146986238024   5.002978606422314 
  7.483310467903911   5.744720303550381   5.002978606422314 
 -1.244753562529431   7.904820226583949  11.673616748318732 
 -0.000061461865115   1.437179943082642  11.673616748318732 
  3.733919167460394   7.904851945477493  11.673616748318732 
  4.978722269663534   1.437194286037280  11.673616748318732 
  8.712789473239349   7.904826345437145  11.673616748318732 
 -3.731335536091429   7.906087335959014   5.002978606422314 
  9.957449406169252   1.437185559045769  11.673616748318732 
  2.489713798321910   1.439271791130090   5.002978606422314 
  1.253081138081861   7.890924155567116   5.002978606422314 
  6.227343263429511   7.920119314340307   5.002978606422314 
  7.473129863566374   1.426224503544205   5.002978606422314 
  1.244622205680543   7.904845317402058  11.673616748318732 
 12.448296915150555   1.438037579575203   5.002978606422314 
 -2.489435399840255  10.060703792451047  11.673616748318732 
 -1.244782081446819   3.593099297426782  11.673616748318732 
  3.734022506928531   3.593063800948272  11.673616748318732 
  2.489245610447091  10.060721070071219  11.673616748318732 
  7.468112741283531  10.060712661843347  11.673616748318732 
  8.712782680279446   3.593079381677041  11.673616748318732 
 -4.976338054699940  10.062494953740185   5.002978606422314 
  0.001229397257362  10.057226543311437   5.002978606422314 
  1.235769453380076   3.587966824235018   5.002978606422314 
  4.979042696499820  10.070623827911080   5.002978606422314 
  6.245308115301690   3.567466650064631   5.002978606422314 
 11.206134837470875   3.592785915500515   5.002978606422314 
 -2.489451527129043   5.748956064498837  11.673616748318732 
 -3.734144416827120  12.216571666124867  11.673616748318732 
  1.244585313597261  12.216541656513730  11.673616748318732 
  2.489310091470436   5.748968945333488  11.673616748318732 
  6.223428666901842  12.216560037984731  11.673616748318732 
 -6.220732335280426  12.220206436715591   5.002978606422314 
  7.468079572294954   5.748954324855266  11.673616748318732 
 -1.247114387381636  12.219421403619016   5.002978606422314 
  0.001917142196640   5.748261998439046   5.002978606422314 
 -1.241520139949457   7.904217226928258   5.002978606422314 
  3.733528666652795  12.219607469556367   5.002978606422314 
  9.966410353595542   5.749216066608255   5.002978606422314 
 -3.734138435235362   7.904813815172953  11.673616748318732 
  2.489320334363673   1.437196208029155  11.673616748318732 
  6.223394585635289   7.904811961168011  11.673616748318732 
  7.468077141261237   1.437131896375128  11.673616748318732 
 12.446866820547815   1.437211914071328  11.673616748318732 
  3.673573446344666   4.995433615804745   5.002978606422314 
  4.937088084408865   5.724924132216080   5.002978606422314 
  1.244339202271388   0.719368523414503   5.002978606422314 
  4.969833764552503   7.225607222452317   5.002978606422314 
  6.222001626908026   0.722951670716989   5.002978606422314 
  9.960065085826939   7.186467012844857   5.002978606422314 
 11.203226312112776   0.719195731751246   5.002978606422314 
 -3.734210278712053   9.342032681053935  11.673616748318732 
  1.244720611180600   9.342159100616827  11.673616748318732 
  2.489427851766970   2.874495945621943  11.673616748318732 
  6.223342748023951   9.341940678930172  11.673616748318732 
  7.468068805949844   2.874519103236776  11.673616748318732 
 12.446710441148138   2.874435108700811  11.673616748318732 
 -1.244115404808930   9.341905627242134   5.002978606422314 
 -0.008148131947484   2.869790671496506   5.002978606422314 
  4.982515220845508   2.888176361340897   5.002978606422314 
  3.727492288460553   9.360968332453291   5.002978606422314 
  8.714309848462653   9.344178377754842   5.002978606422314 
  9.962235369482091   2.872121790730263   5.002978606422314 
 -4.978879779464527  11.497861781632604  11.673616748318732 
  0.000002566006514  11.497981472163493  11.673616748318732 
  1.244714746834200   5.030402284212325  11.673616748318732 
  6.223426587056337   5.030354363119659  11.673616748318732 
  4.978667916761276  11.497809343569221  11.673616748318732 
 11.202020823065942   5.030321955881281  11.673616748318732 
 -1.244224673937685   5.029687594889193   5.002978606422314 
 -2.489272873589098  11.498581626593257   5.002978606422314 
  2.487324919703350  11.502840278444562   5.002978606422314 
  7.470109270790322  11.502581741998130   5.002978606422314 
  8.723716473144821   5.028431557437529   5.002978606422314 
 -0.000023982755207   7.186279620768477  11.673616748318732 
  1.244588615792456   0.718494513444783  11.673616748318732 
  4.978742270994421   7.186210837923031  11.673616748318732 
  6.223521721887106   0.718622616092740  11.673616748318732 
  9.957336010542701   7.186160284422731  11.673616748318732 
 -2.487735822015444   7.186406900246199   5.002978606422314 
 11.202075029909221   0.718531038661042  11.673616748318732 
  3.733115910712632   0.719861882375965   5.002978606422314 
  2.503106018920366   7.182639071829076   5.002978606422314 
  7.468241348039816   7.186286150333670   5.002978606422314 
  8.716028665626171   0.714408925211575   5.002978606422314 
  2.489516759634575   7.186325568352773  11.673616748318732 
 13.690947977852769   0.719160591766921   5.002978606422314 
 -1.244727013715383   9.342116693038642  11.673616748318732 
 -0.000131825719743   2.874418888054982  11.673616748318732 
  4.978913190843097   2.874564469318941  11.673616748318732 
  3.734055279008384   9.342020248048890  11.673616748318732 
  8.712679676214908   9.341968293440916  11.673616748318732 
  9.957343246748408   2.874490717641702  11.673616748318732 
 -3.732950779946567   9.342759853005163   5.002978606422314 
  1.247709634970023   9.338678132436666   5.002978606422314 
  2.474127767872370   2.868930108530058   5.002978606422314 
  6.227222015471400   9.352486798942033   5.002978606422314 
  7.481196833123187   2.859361344495367   5.002978606422314 
 12.447056712863725   2.873643461819081   5.002978606422314 
 -1.244856882014097   5.030340598319358  11.673616748318732 
 -2.489395889700678  11.497946424844836  11.673616748318732 
  2.489323537943634  11.497920601291723  11.673616748318732 
  3.734245681478321   5.030462747091368  11.673616748318732 
  7.468011323507517  11.497816125061359  11.673616748318732 
 -4.977799737595841  11.499324116125376   5.002978606422314 
  8.712643631579461   5.030345073285899  11.673616748318732 
 -0.000644856698884  11.497607682490191   5.002978606422314 
  1.232244548572003   5.019934941425510   5.002978606422314 
  0.000590941676696   7.184784769265701   5.002978606422314 
  6.253090603654994   5.002941177966550   5.002978606422314 
  4.979062427243059  11.503230509590818   5.002978606422314 
 11.207196942039356   5.029756023055501   5.002978606422314 
 -2.489542261769359   7.186202723797154  11.673616748318732 
  3.734103027872971   0.718581916445141  11.673616748318732 
  7.467957726123096   7.186122401143701  11.673616748318732 
  8.712767409353589   0.718599617956456  11.673616748318732 
 13.691460428305380   0.718464888223746  11.673616748318732 
 -0.000287584835730   1.437012233307678   1.667689072961859 
  3.735099510529587   7.905437936228756   1.666959493269803 
  4.979012930295519   1.437535703702691   1.668230494716761 
  8.712243472863795   7.904511111973332   1.668098074427996 
  9.957713551242819   1.437318359547778   1.667610242614075 
 -4.979102979808666  10.060421942953399   8.338249062318065 
  0.000094919149945  10.060749899789695   8.338229313515752 
  1.244525832284246   3.593022321952466   8.338893114543563 
  4.978821811945261  10.060966531989234   8.338366688942882 
  6.224474145046782   3.593714590171741   8.338997719574825 
 11.202108663725706   3.593078905331933   8.338304214797450 
 -2.489585032978702  10.060617401718336   1.667608620028401 
 -1.245040383857656   3.592987324077241   1.667689072961859 
  3.734596858857994   3.593835882782165   1.667408199583520 
  2.489912455772559  10.061024232956237   1.667702850125949 
  7.467871796900504  10.060540979168508   1.667866513757357 
  8.713077818267031   3.593045400570636   1.667590523901745 
 -6.223680559533142  12.216328504655527   8.338205960788454 
 -1.244630310218577  12.216677238518812   8.338229313515752 
 -0.000058862079705   5.748954076492249   8.338155867904876 
  4.980032373113143   5.749718028859642   8.333577692519015 
  3.734225297282269  12.216716215715644   8.338346970230551 
  9.957234271191208   5.748838695241606   8.338090699087257 
 -2.489732217892008   5.748940264095485   1.667751252056175 
 -3.734185138682865  12.216444266274205   1.667694814010300 
  1.244944405546300  12.216748978347290   1.667646152073435 
  2.490265909917112   5.749080307778182   1.667408199583520 
  6.223366250648991  12.216513722578936   1.667652998047179 
  7.468005174314229   5.748698868785875   1.667778016727407 
 -1.244884254964413   7.904848660347714   8.338262398834328 
 -0.000287584835730   1.437012233307679   8.338268139882770 
  3.735099510529587   7.905437936228757   8.338997719574825 
  4.979012930295520   1.437535703702691   8.337726718127866 
  8.712243472863795   7.904511111973333   8.337859138416633 
 -3.734513278649461   7.904729345968673   1.667708150526564 
  9.957713551242819   1.437318359547779   8.338346970230551 
  2.489325153359221   1.437214482202172   1.667801344939752 
  1.245063212368083   7.904926328060532   1.668230494716761 
  6.223136155199223   7.904875258661514   1.667778016727407 
  7.468673110683875   1.437557819924879   1.667702850125949 
  1.245063212368084   7.904926328060533   8.337726718127866 
 12.446833257928759   1.437192536684189   1.667551998655887 
 -2.489585032978702  10.060617401718336   8.338348592816226 
 -1.245040383857656   3.592987324077241   8.338268139882770 
  3.734596858857995   3.593835882782166   8.338549013261108 
  2.489912455772559  10.061024232956237   8.338254362718679 
  7.467871796900504  10.060540979168508   8.338090699087257 
  8.713077818267031   3.593045400570637   8.338366688942882 
 -4.979102979808667  10.060421942953399   1.667708150526564 
  0.000094919149945  10.060749899789695   1.667727899328861 
  1.244525832284245   3.593022321952466   1.667064098301066 
  4.978821811945260  10.060966531989234   1.667590523901745 
  6.224474145046782   3.593714590171740   1.666959493269803 
 11.202108663725706   3.593078905331932   1.667652998047179 
 -2.489732217892008   5.748940264095486   8.338205960788454 
 -3.734185138682865  12.216444266274205   8.338262398834328 
  1.244944405546300  12.216748978347290   8.338311060771193 
  2.490265909917113   5.749080307778183   8.338549013261108 
  6.223366250648992  12.216513722578936   8.338304214797450 
 -6.223680559533143  12.216328504655527   1.667751252056175 
  7.468005174314230   5.748698868785876   8.338179196117220 
 -1.244630310218577  12.216677238518812   1.667727899328861 
 -0.000058862079705   5.748954076492248   1.667801344939752 
 -1.244884254964414   7.904848660347713   1.667694814010300 
  4.980032373113142   5.749718028859641   1.672379520325614 
  3.734225297282268  12.216716215715644   1.667610242614075 
  9.957234271191208   5.748838695241605   1.667866513757357 
 -3.734513278649461   7.904729345968674   8.338249062318065 
  2.489325153359221   1.437214482202173   8.338155867904876 
  6.223136155199223   7.904875258661515   8.338179196117220 
  7.468673110683876   1.437557819924880   8.338254362718679 
 12.446833257928759   1.437192536684189   8.338405214188741 
Generated by cif2cell 2.0.0.  :  Failed to get author information, No journal information. Species order: N C B 
 1.0
 14.936314146199660   0.000000000000000   0.000000000000000
 -7.468157073099825  12.935227489513863   0.000000000000000
  0.000000000000001   0.000000000000001  13.341276283792837
 N C B 
 143   2 143
Cartesian
  1.244692119093006   0.718677555716065   1.668459915316246 
  4.978452856970775   7.187203527447625   1.663149688893652 
  6.223440300653731   0.718730627314875   1.668551187817246 
  9.957390114957732   7.186187089992869   1.667747568945547 
 11.202406977991201   0.718722688975531   1.667224243428608 
 -3.734153171422935   9.342065651962610   8.338341589092764 
  1.244773441026177   9.342034582149246   8.337406025027382 
  2.489353861402734   2.874709509687760   8.337013950375198 
  6.223440228000427   9.342404690070932   8.338467032709783 
  7.468815788868357   2.874109475045031   8.339385167533777 
 12.446990906495268   2.874549966321584   8.338185591801023 
 -1.244692604625115   9.342037126941113   1.667940266853141 
 -0.000113947132216   2.874429210262311   1.668418865536405 
  4.978930811932093   2.874855128825508   1.669813766317183 
  3.734074022047476   9.342871968328396   1.666572045310851 
  8.712729942727128   9.342001746453720   1.667747568945547 
  9.957948342565462   2.874412654451117   1.667406961316924 
 -4.978805469516238  11.497963473890858   8.337946086595341 
 -0.000060765378337  11.497944907771357   8.338071787038000 
  1.244862703558416   5.030231424644353   8.337013950375198 
  6.224141574390826   5.029607378460775   8.342807523950976 
  4.978902859963613  11.498372403513880   8.338550251527703 
 11.202354958380663   5.030388988049832   8.338233051981204 
 -1.244646611106926   5.030338713671369   1.668459915316246 
 -2.489447591417338  11.498016007039984   1.667940266853141 
  2.489355583166551  11.498225835501239   1.667601860100740 
  3.734293486222925   5.030490347173526   1.668052244627196 
  7.468236442725713  11.498071978647930   1.667724160863424 
  8.713094217003231   5.030197487851516   1.667490180134843 
  0.000163722592464   7.186131691653018   8.337190724099024 
  1.244692119093006   0.718677555716065   8.337497297528381 
  4.978452856970776   7.187203527447626   8.342807523950976 
  6.223440300653732   0.718730627314876   8.337406025027382 
  9.957390114957732   7.186187089992869   8.338209643899081 
 -2.489417038716192   7.186216231970985   1.668011126249286 
 11.202406977991201   0.718722688975532   8.338732969416007 
  3.734068770174858   0.718818438602379   1.668766488745604 
  2.489777288695612   7.186195498910201   1.669813766317183 
  7.467815799462033   7.186040459747749   1.667961472692110 
  8.713047772544654   0.718474752828712   1.667601860100740 
  2.489777288695612   7.186195498910202   8.336143446527444 
 13.691700130596294   0.718650349528956   1.667771621043604 
 -1.244692604625115   9.342037126941113   8.338016945991487 
 -0.000113947132216   2.874429210262312   8.337538347308223 
  4.978930811932094   2.874855128825509   8.336143446527444 
  3.734074022047476   9.342871968328396   8.339385167533777 
  8.712729942727128   9.342001746453720   8.338209643899081 
  9.957948342565462   2.874412654451118   8.338550251527703 
 -3.734153171422935   9.342065651962610   1.667615623751865 
  1.244773441026177   9.342034582149246   1.668551187817246 
  2.489353861402734   2.874709509687759   1.668943262469430 
  6.223440228000426   9.342404690070932   1.667490180134843 
  7.468815788868356   2.874109475045030   1.666572045310851 
 12.446990906495268   2.874549966321583   1.667771621043604 
 -1.244646611106925   5.030338713671370   8.337497297528381 
 -2.489447591417337  11.498016007039984   8.338016945991487 
  2.489355583166552  11.498225835501239   8.338355352743887 
  3.734293486222925   5.030490347173527   8.337904968217432 
  7.468236442725714  11.498071978647930   8.338233051981204 
 -4.978805469516239  11.497963473890858   1.668011126249286 
  8.713094217003231   5.030197487851517   8.338467032709783 
 -0.000060765378338  11.497944907771357   1.667885425806626 
  1.244862703558416   5.030231424644352   1.668943262469430 
  0.000163722592464   7.186131691653017   1.668766488745604 
  6.224141574390825   5.029607378460774   1.663149688893652 
  4.978902859963612  11.498372403513880   1.667406961316924 
 11.202354958380663   5.030388988049832   1.667724160863424 
 -2.489417038716192   7.186216231970986   8.337946086595341 
  3.734068770174859   0.718818438602379   8.337190724099024 
  7.467815799462034   7.186040459747750   8.337995740152518 
  8.713047772544654   0.718474752828712   8.338355352743887 
 13.691700130596294   0.718650349528957   8.338185591801023 
 -0.000534602060402   1.436704459207129   5.002978606422314 
  3.722785112727273   7.936604653784752   5.002978606422314 
  4.970895656064929   1.451480517303199   5.002978606422314 
  8.714677953090934   7.905916659787809   5.002978606422314 
  9.959869135202929   1.435269432805252   5.002978606422314 
 -4.978842405624822  10.060704332270221  11.673616748318732 
 -0.000058484898832  10.060721113028812  11.673616748318732 
  1.244600591631471   3.593065484281824  11.673616748318732 
  4.978703671452803  10.060693944441267  11.673616748318732 
  6.223376490635218   3.592985378464257  11.673616748318732 
 11.202179982170067   3.593109801689730  11.673616748318732 
 -2.488175903363572  10.061430963080953   5.002978606422314 
 -1.245430432659739   3.592927287935854   5.002978606422314 
  3.707412235029580   3.619986535131499   5.002978606422314 
  2.482325892319017  10.070550552361210   5.002978606422314 
  7.472786651292842  10.068299013954569   5.002978606422314 
  8.721551724144447   3.588408044245344   5.002978606422314 
 -6.223526530601020  12.216563689785279  11.673616748318732 
 -1.244731942309190  12.216558780095985  11.673616748318732 
 -0.000077097475554   5.748959040206206  11.673616748318732 
  4.978661806542994   5.748926731881494  11.673616748318732 
  3.733978216137103  12.216553859622671  11.673616748318732 
  9.957503424940461   5.748961517860891  11.673616748318732 
 -2.484899718087476   5.749554535164346   5.002978606422314 
 -3.733049918557426  12.219673392048128   5.002978606422314 
  1.242805479977971  12.215514069094638   5.002978606422314 
  2.499320727263015   5.712462406775695   5.002978606422314 
  6.225125600884510  12.220146986238024   5.002978606422314 
  7.483310467903911   5.744720303550381   5.002978606422314 
 -1.244753562529431   7.904820226583949  11.673616748318732 
 -0.000061461865115   1.437179943082642  11.673616748318732 
  3.733919167460394   7.904851945477493  11.673616748318732 
  4.978722269663534   1.437194286037280  11.673616748318732 
  8.712789473239349   7.904826345437145  11.673616748318732 
 -3.731335536091429   7.906087335959014   5.002978606422314 
  9.957449406169252   1.437185559045769  11.673616748318732 
  2.489713798321910   1.439271791130090   5.002978606422314 
  1.253081138081861   7.890924155567116   5.002978606422314 
  6.227343263429511   7.920119314340307   5.002978606422314 
  7.473129863566374   1.426224503544205   5.002978606422314 
  1.244622205680543   7.904845317402058  11.673616748318732 
 12.448296915150555   1.438037579575203   5.002978606422314 
 -2.489435399840255  10.060703792451047  11.673616748318732 
 -1.244782081446819   3.593099297426782  11.673616748318732 
  3.734022506928531   3.593063800948272  11.673616748318732 
  2.489245610447091  10.060721070071219  11.673616748318732 
  7.468112741283531  10.060712661843347  11.673616748318732 
  8.712782680279446   3.593079381677041  11.673616748318732 
 -4.976338054699940  10.062494953740185   5.002978606422314 
  0.001229397257362  10.057226543311437   5.002978606422314 
  1.235769453380076   3.587966824235018   5.002978606422314 
  4.979042696499820  10.070623827911080   5.002978606422314 
  6.245308115301690   3.567466650064631   5.002978606422314 
 11.206134837470875   3.592785915500515   5.002978606422314 
 -2.489451527129043   5.748956064498837  11.673616748318732 
 -3.734144416827120  12.216571666124867  11.673616748318732 
  1.244585313597261  12.216541656513730  11.673616748318732 
  2.489310091470436   5.748968945333488  11.673616748318732 
  6.223428666901842  12.216560037984731  11.673616748318732 
 -6.220732335280426  12.220206436715591   5.002978606422314 
  7.468079572294954   5.748954324855266  11.673616748318732 
 -1.247114387381636  12.219421403619016   5.002978606422314 
  0.001917142196640   5.748261998439046   5.002978606422314 
 -1.241520139949457   7.904217226928258   5.002978606422314 
  3.733528666652795  12.219607469556367   5.002978606422314 
  9.966410353595542   5.749216066608255   5.002978606422314 
 -3.734138435235362   7.904813815172953  11.673616748318732 
  2.489320334363673   1.437196208029155  11.673616748318732 
  6.223394585635289   7.904811961168011  11.673616748318732 
  7.468077141261237   1.437131896375128  11.673616748318732 
 12.446866820547815   1.437211914071328  11.673616748318732 
  3.673573446344666   4.995433615804745   5.002978606422314 
  4.937088084408865   5.724924132216080   5.002978606422314 
  1.244339202271388   0.719368523414503   5.002978606422314 
  4.969833764552503   7.225607222452317   5.002978606422314 
  6.222001626908026   0.722951670716989   5.002978606422314 
  9.960065085826939   7.186467012844857   5.002978606422314 
 11.203226312112776   0.719195731751246   5.002978606422314 
 -3.734210278712053   9.342032681053935  11.673616748318732 
  1.244720611180600   9.342159100616827  11.673616748318732 
  2.489427851766970   2.874495945621943  11.673616748318732 
  6.223342748023951   9.341940678930172  11.673616748318732 
  7.468068805949844   2.874519103236776  11.673616748318732 
 12.446710441148138   2.874435108700811  11.673616748318732 
 -1.244115404808930   9.341905627242134   5.002978606422314 
 -0.008148131947484   2.869790671496506   5.002978606422314 
  4.982515220845508   2.888176361340897   5.002978606422314 
  3.727492288460553   9.360968332453291   5.002978606422314 
  8.714309848462653   9.344178377754842   5.002978606422314 
  9.962235369482091   2.872121790730263   5.002978606422314 
 -4.978879779464527  11.497861781632604  11.673616748318732 
  0.000002566006514  11.497981472163493  11.673616748318732 
  1.244714746834200   5.030402284212325  11.673616748318732 
  6.223426587056337   5.030354363119659  11.673616748318732 
  4.978667916761276  11.497809343569221  11.673616748318732 
 11.202020823065942   5.030321955881281  11.673616748318732 
 -1.244224673937685   5.029687594889193   5.002978606422314 
 -2.489272873589098  11.498581626593257   5.002978606422314 
  2.487324919703350  11.502840278444562   5.002978606422314 
  7.470109270790322  11.502581741998130   5.002978606422314 
  8.723716473144821   5.028431557437529   5.002978606422314 
 -0.000023982755207   7.186279620768477  11.673616748318732 
  1.244588615792456   0.718494513444783  11.673616748318732 
  4.978742270994421   7.186210837923031  11.673616748318732 
  6.223521721887106   0.718622616092740  11.673616748318732 
  9.957336010542701   7.186160284422731  11.673616748318732 
 -2.487735822015444   7.186406900246199   5.002978606422314 
 11.202075029909221   0.718531038661042  11.673616748318732 
  3.733115910712632   0.719861882375965   5.002978606422314 
  2.503106018920366   7.182639071829076   5.002978606422314 
  7.468241348039816   7.186286150333670   5.002978606422314 
  8.716028665626171   0.714408925211575   5.002978606422314 
  2.489516759634575   7.186325568352773  11.673616748318732 
 13.690947977852769   0.719160591766921   5.002978606422314 
 -1.244727013715383   9.342116693038642  11.673616748318732 
 -0.000131825719743   2.874418888054982  11.673616748318732 
  4.978913190843097   2.874564469318941  11.673616748318732 
  3.734055279008384   9.342020248048890  11.673616748318732 
  8.712679676214908   9.341968293440916  11.673616748318732 
  9.957343246748408   2.874490717641702  11.673616748318732 
 -3.732950779946567   9.342759853005163   5.002978606422314 
  1.247709634970023   9.338678132436666   5.002978606422314 