Species order: X N B                    
   2.51242800000000     
     5.9449720136058266    0.0000000000000000    0.0000000000000000
    -2.9724860068029120    5.1484967885702053   -0.0000000000000001
     0.0000000000000000    0.0000000000000009    5.3101128803662583
   N    B 
   145   143
Direct
  0.4444444444444429  0.3888888888888857  0.3750000000000000
  0.1111175531396934  0.0555500733713996  0.1251511715122606
  0.6111033253954276  0.5555485791842150  0.1253702824444105
  0.4444325202317062  0.0555500733713996  0.1251511715122606
  0.9444517362977857  0.5555630587720033  0.1251084368199472
  0.7777777777777786  0.0555555555555571  0.1251039215618968
  0.1111111111111143  0.7222222222222214  0.6249039963172737
  0.4444325202317062  0.7222157801936423  0.6248488284877393
  0.2777847541491203  0.2222300079379085  0.6246297175555895
  0.7777832599619361  0.7222157801936423  0.6248488284877393
  0.6111088538157570  0.2222244795175792  0.6248338999374857
  0.9444524367199237  0.2222331236380226  0.6248851612201876
  0.2777702745613325  0.7222220108591179  0.1251084368199472
  0.1111156257018298  0.2222244795175792  0.1251661000625140
  0.4444452537887879  0.2222300079379085  0.1253702824444105
  0.6111088538157570  0.7222177076315058  0.1251661000625140
  0.9444517362977857  0.7222220108591179  0.1251084368199472
  0.7777806869180988  0.2222331236380226  0.1251148387798124
  0.1111113224742176  0.8888815970355429  0.6248915631800525
  0.4444306416279570  0.8888819874806427  0.6248892592481428
  0.2777847541491203  0.3888880795445407  0.6246297175555895
  0.6111033253954276  0.3888880795445407  0.6246297175555895
  0.7777806869180988  0.8888808966134049  0.6248851612201876
  0.9444513458526859  0.3889026917053716  0.6248892592481428
  0.1111175531396934  0.3889008131016224  0.1251511715122606
  0.2777702745613325  0.8888815970355429  0.1251084368199472
  0.6111002096953126  0.8888808966134049  0.1251148387798124
  0.4444444444444429  0.3888888888888857  0.1255717746020495
  0.9444513458526859  0.8888819874806427  0.1251107407518572
  0.7777832599619361  0.3889008131016224  0.1251511715122606
  0.2777742844754698  0.5555590488578659  0.6248258556724605
  0.1111175531396934  0.0555500733713996  0.6248488284877393
  0.6111033253954276  0.5555485791842150  0.6246297175555895
  0.4444325202317062  0.0555500733713996  0.6248488284877393
  0.9444517362977857  0.5555630587720033  0.6248915631800525
  0.1111113224742176  0.5555630587720033  0.1251084368199472
  0.7777777777777786  0.0555555555555571  0.6248960784381036
  0.2777742844754698  0.0555485689509395  0.1251741443275393
  0.4444452537887879  0.5555485791842150  0.1253702824444105
  0.7777847643823962  0.5555590488578659  0.1251741443275393
  0.6111002096953126  0.0555526464152369  0.1251148387798124
  0.4444452537887879  0.5555485791842150  0.6246297175555895
  0.9444524367199237  0.0555526464152369  0.1251148387798124
  0.2777702745613325  0.7222220108591179  0.6248915631800525
  0.1111156257018298  0.2222244795175792  0.6248338999374857
  0.4444452537887879  0.2222300079379085  0.6246297175555895
  0.6111088538157570  0.7222177076315058  0.6248338999374857
  0.9444517362977857  0.7222220108591179  0.6248915631800525
  0.7777806869180988  0.2222331236380226  0.6248851612201876
  0.1111111111111143  0.7222222222222214  0.1250960036827263
  0.4444325202317062  0.7222157801936423  0.1251511715122606
  0.2777847541491203  0.2222300079379085  0.1253702824444105
  0.7777832599619361  0.7222157801936423  0.1251511715122606
  0.6111088538157570  0.2222244795175792  0.1251661000625140
  0.9444524367199237  0.2222331236380226  0.1251148387798124
  0.1111175531396934  0.3889008131016224  0.6248488284877393
  0.2777702745613325  0.8888815970355429  0.6248915631800525
  0.6111002096953126  0.8888808966134049  0.6248851612201876
  0.4444444444444429  0.3888888888888857  0.6244282253979506
  0.9444513458526859  0.8888819874806427  0.6248892592481428
  0.1111113224742176  0.8888815970355429  0.1251084368199472
  0.7777832599619361  0.3889008131016224  0.6248488284877393
  0.4444306416279570  0.8888819874806427  0.1251107407518572
  0.2777847541491203  0.3888880795445407  0.1253702824444105
  0.2777742844754698  0.5555590488578659  0.1251741443275393
  0.6111033253954276  0.3888880795445407  0.1253702824444105
  0.7777806869180988  0.8888808966134049  0.1251148387798124
  0.9444513458526859  0.3889026917053716  0.1251107407518572
  0.1111113224742176  0.5555630587720033  0.6248915631800525
  0.2777742844754698  0.0555485689509395  0.6248258556724605
  0.7777847643823962  0.5555590488578659  0.6248258556724605
  0.6111002096953126  0.0555526464152369  0.6248851612201876
  0.9444524367199237  0.0555526464152369  0.6248851612201876
  0.0557321352584321  0.1112452183032111  0.3750000000000000
  0.5556106032776273  0.6112212065552542  0.3750000000000000
  0.3892628313347390  0.1132226786029766  0.3750000000000000
  0.8880850690184741  0.6107092011759082  0.3750000000000000
  0.7221881735415768  0.1111451597917587  0.3750000000000000
  0.0555537587664290  0.7777795745669067  0.8750000000000000
  0.3888942969915506  0.7777793752473710  0.8750000000000000
  0.2222234771043054  0.2777784052188206  0.8750000000000000
  0.7222211609754587  0.7777785137786767  0.8750000000000000
  0.5555549281145149  0.2777784052188206  0.8750000000000000
  0.8888881488568103  0.2777762977136276  0.8750000000000000
  0.2223901902764830  0.7778617618049094  0.3750000000000000
  0.0557321352584321  0.2778202502885567  0.3750000000000000
  0.3914077029109726  0.2828154058219525  0.3750000000000000
  0.5555130830447789  0.7776011980749034  0.3750000000000000
  0.8882869363028955  0.7773268461220324  0.3750000000000000
  0.7220881150301249  0.2778202502885567  0.3750000000000000
  0.0555539580859649  0.9444482550775156  0.8750000000000000
  0.3888942969915506  0.9444482550775156  0.8750000000000000
  0.2222245515560100  0.4444398814486389  0.8750000000000000
  0.5555512367231528  0.4444422850282407  0.8750000000000000
  0.7222221702778379  0.9444443405556755  0.8750000000000000
  0.8888850782558130  0.4444390363417779  0.8750000000000000
  0.0560064872113032  0.4442934235141985  0.3750000000000000
  0.2226241321574273  0.9452482643148545  0.3750000000000000
  0.5554883125096969  0.9444108229215129  0.3750000000000000
  0.3914077029109726  0.4419256304223560  0.3750000000000000
  0.8889225104118157  0.9444108229215129  0.3750000000000000
  0.7201106547303593  0.4440705019985896  0.3750000000000000
  0.2222251203920082  0.6111082129413272  0.8750000000000000
  0.0555548195546588  0.1111121723578771  0.8750000000000000
  0.5555549281145149  0.6111098562290301  0.8750000000000000
  0.3888934518846897  0.1111180034407067  0.8750000000000000
  0.8888830925493121  0.6111082129413272  0.8750000000000000
  0.0554715715284263  0.6109431430568526  0.3750000000000000
  0.7222221702778379  0.1111111630554978  0.8750000000000000
  0.2239598472682305  0.1132226786029766  0.3750000000000000
  0.3892628313347390  0.6093734860651053  0.3750000000000000
  0.7201106547303593  0.6093734860651053  0.3750000000000000
  0.5555130830447789  0.1112452183032111  0.3750000000000000
  0.3888934518846897  0.6111087817773260  0.8750000000000000
  0.8889569862501748  0.1111451597917587  0.3750000000000000
  0.2222258158004776  0.7777795745669067  0.8750000000000000
  0.0555548195546588  0.2777759805301174  0.8750000000000000
  0.3888910483050879  0.2777820966101829  0.8750000000000000
  0.5555573528032181  0.7777785137786767  0.8750000000000000
  0.8888850782558130  0.7777793752473710  0.8750000000000000
  0.7222211609754587  0.2777759805301174  0.8750000000000000
  0.0554715715284263  0.7778617618049094  0.3750000000000000
  0.3890399098191301  0.7773268461220324  0.3750000000000000
  0.2221121267780814  0.2777227300557086  0.3750000000000000
  0.7220881150301249  0.7776011980749034  0.3750000000000000
  0.5556106032776273  0.2777227300557086  0.3750000000000000
  0.8889225104118157  0.2778450208236387  0.3750000000000000
  0.0555539580859649  0.4444390363417779  0.8750000000000000
  0.2222251203920082  0.9444502407840165  0.8750000000000000
  0.5555570356197080  0.9444451844765183  0.8750000000000000
  0.3888910483050879  0.4444422850282407  0.8750000000000000
  0.8888881488568103  0.9444451844765183  0.8750000000000000
  0.0560064872113032  0.9450463970304331  0.3750000000000000
  0.7222153298926289  0.4444398814486389  0.8750000000000000
  0.3890399098191301  0.9450463970304331  0.3750000000000000
  0.2239598472682305  0.4440705019985896  0.3750000000000000
  0.2226241321574273  0.6107092011759082  0.3750000000000000
  0.5505179275113834  0.4419256304223560  0.3750000000000000
  0.7221881735415768  0.9443763470831538  0.3750000000000000
  0.8882869363028955  0.4442934235141985  0.3750000000000000
  0.0555537587664290  0.6111075175328582  0.8750000000000000
  0.2222245515560100  0.1111180034407067  0.8750000000000000
  0.7222153298926289  0.6111087817773260  0.8750000000000000
  0.5555573528032181  0.1111121723578771  0.8750000000000000
  0.8888889927776531  0.1111111630554978  0.8750000000000000
  0.1115711843891261  0.0561771775039307  0.3750000000000000
  0.6097078318492697  0.5558586268704859  0.3750000000000000
  0.4446059931148044  0.0561771775039307  0.3750000000000000
  0.9442266568999179  0.5554540630326574  0.3750000000000000
  0.7777777777777786  0.0555555555555571  0.3750000000000000
  0.1111111111111143  0.7222222222222214  0.8750000000000000
  0.4444545738058537  0.7222547100042375  0.8750000000000000
  0.2777438059441418  0.2221939517397113  0.8750000000000000
  0.7778001361983835  0.7222547100042375  0.8750000000000000
  0.6111339750079943  0.2221993583253415  0.8750000000000000
  0.9444213914144951  0.2222081125804629  0.8750000000000000
  0.2778792703006782  0.7221059272005961  0.3750000000000000
  0.1100949674218713  0.2217141503776000  0.3750000000000000
  0.4461507950212162  0.2236255014840660  0.3750000000000000
  0.6116191829557359  0.7232383659114645  0.3750000000000000
  0.9442266568999179  0.7221059272005961  0.3750000000000000
  0.7778973073312011  0.2221593535758057  0.3750000000000000
  0.1111007674473201  0.8888780532700452  0.8750000000000000
  0.4444550626629098  0.8888941979981192  0.8750000000000000
  0.2777438059441418  0.3888831875377590  0.8750000000000000
  0.6111393815936244  0.3888831875377590  0.8750000000000000
  0.7777867211659676  0.8889119419188335  0.8750000000000000
  0.9444391353352094  0.3888782706704187  0.8750000000000000
  0.1115711843891261  0.3887273402185242  0.3750000000000000
  0.2778792703006782  0.8891066764334107  0.3750000000000000
  0.6111739797575302  0.8890712870887245  0.3750000000000000
  0.9444407683225832  0.8888925650107454  0.3750000000000000
  0.7771561558294051  0.3887273402185242  0.3750000000000000
  0.2777633729614818  0.5555699603718540  0.8750000000000000
  0.1110786233290983  0.0555331971349519  0.8750000000000000
  0.6111393815936244  0.5555895273891939  0.8750000000000000
  0.4444545738058537  0.0555331971349519  0.8750000000000000
  0.9444552800632834  0.5555560475106034  0.8750000000000000
  0.1112274061327396  0.5554540630326574  0.3750000000000000
  0.7777777777777786  0.0555555555555571  0.8750000000000000
  0.2780587835842612  0.0561175671685222  0.3750000000000000
  0.4461507950212162  0.5558586268704859  0.3750000000000000
  0.7772157661648134  0.5552745497490745  0.3750000000000000
  0.6111739797575302  0.0554360260021343  0.3750000000000000
  0.4444501457955696  0.5555895273891939  0.8750000000000000
  0.9442620462446041  0.0554360260021343  0.3750000000000000
  0.2777772858227324  0.7222325658860157  0.8750000000000000
  0.1110653833173545  0.2221993583253415  0.8750000000000000
  0.4444501457955696  0.2221939517397113  0.8750000000000000
  0.6111339750079943  0.7222679500159813  0.8750000000000000
  0.9444552800632834  0.7222325658860157  0.8750000000000000
  0.7777867211659676  0.2222081125804629  0.8750000000000000
  0.1111111111111143  0.7222222222222214  0.3750000000000000
  0.4446059931148044  0.7217621489442098  0.3750000000000000
  0.2774747064628498  0.2236255014840660  0.3750000000000000
  0.7771561558294051  0.7217621489442098  0.3750000000000000
  0.6116191829557359  0.2217141503776000  0.3750000000000000
  0.9442620462446041  0.2221593535758057  0.3750000000000000
  0.1110786233290983  0.3888787595274749  0.8750000000000000
  0.2777772858227324  0.8888780532700452  0.8750000000000000
  0.6111252207528727  0.8889119419188335  0.8750000000000000
  0.4444444444444429  0.3888888888888857  0.8750000000000000
  0.9444391353352094  0.8888941979981192  0.8750000000000000
  0.1112274061327396  0.8891066764334107  0.3750000000000000
  0.7778001361983835  0.3888787595274749  0.8750000000000000
  0.4444517966881622  0.8888925650107454  0.3750000000000000
  0.2774747064628498  0.3871825383121124  0.3750000000000000
  0.2780587835842612  0.5552745497490745  0.3750000000000000
  0.6097078318492697  0.3871825383121124  0.3750000000000000
  0.7778973073312011  0.8890712870887245  0.3750000000000000
  0.9444407683225832  0.3888815366451664  0.3750000000000000
  0.1111007674473201  0.5555560475106034  0.8750000000000000
  0.2777633729614818  0.0555267459229633  0.8750000000000000
  0.7778065874103721  0.5555699603718540  0.8750000000000000
  0.6111252207528727  0.0555466121673680  0.8750000000000000
  0.9444213914144951  0.0555466121673680  0.8750000000000000
  0.0554868419601017  0.1110432470874322  0.1248619930047620
  0.5556169204356545  0.6112338408713089  0.1247526538813964
  0.3888357300254758  0.1109643455526821  0.1248340263214704
  0.8889937897067380  0.6111635615200404  0.1248863945069966
  0.7222315923022734  0.1111017410310624  0.1249057637541183
  0.0555718624556242  0.7777614708777113  0.6250862176555764
  0.3888455712170658  0.7778039495651364  0.6251044908517499
  0.2220994924620268  0.2777164128976812  0.6252473461186034
  0.7222900862459035  0.7778464913732341  0.6251380069952381
  0.5556169204356545  0.2777164128976812  0.6252473461186034
  0.8888975751283000  0.2777951502566068  0.6250965680728546
  0.2221896084220872  0.7777614708777113  0.1249137823444238
  0.0554868419601017  0.2777769282060051  0.1248619930047620
  0.3888452884205667  0.2776905768411407  0.1246431676303956
  0.5555564051273302  0.7778464913732341  0.1248619930047620
  0.8889583783480639  0.7778039495651364  0.1248955091482501
  0.7222900862459035  0.2777769282060051  0.1248619930047620
  0.0555293837681991  0.9443749549852647  0.6251044908517499
  0.3888455712170658  0.9443749549852647  0.6251044908517499
  0.2221286155271990  0.4444976033078528  0.6251659736785294
  0.5556427564921952  0.4444880449127619  0.6253568323696045
  0.7222315923022734  0.9444631846045466  0.6250942362458816
  0.8889583783480639  0.4444877621162628  0.6251044908517499
  0.0555293837681991  0.4444877621162628  0.1248955091482501
  0.2221697718132953  0.9443395436265906  0.1248863945069966
  0.5555381830767290  0.9444357582050286  0.1249034319271451
  0.3888452884205667  0.4444880449127619  0.1246431676303956
  0.8888975751283000  0.9444357582050286  0.1249034319271451
  0.7223689877806537  0.4444976033078528  0.1248340263214704
  0.2221697718132953  0.6111635615200404  0.6251136054930034
  0.0554868419601017  0.1110432470874322  0.6251380069952381
  0.5556169204356545  0.6112338408713089  0.6252473461186034
  0.3888357300254758  0.1109643455526821  0.6251659736785294
  0.8889937897067380  0.6111635615200404  0.6251136054930034
  0.0555718624556242  0.6111437249112482  0.1249137823444238
  0.7222315923022734  0.1111017410310624  0.6250942362458816
  0.2221286155271990  0.1109643455526821  0.1248340263214704
  0.3888357300254758  0.6112047178061366  0.1248340263214704
  0.7223689877806537  0.6112047178061366  0.1248340263214704
  0.5555564051273302  0.1110432470874322  0.1248619930047620
  0.3888357300254758  0.6112047178061366  0.6251659736785294
  0.8888701487287820  0.1111017410310624  0.1249057637541183
  0.2221896084220872  0.7777614708777113  0.6250862176555764
  0.0554868419601017  0.2777769282060051  0.6251380069952381
  0.3888452884205667  0.2776905768411407  0.6253568323696045
  0.5555564051273302  0.7778464913732341  0.6251380069952381
  0.8889583783480639  0.7778039495651364  0.6251044908517499
  0.7222900862459035  0.2777769282060051  0.6251380069952381
  0.0555718624556242  0.7777614708777113  0.1249137823444238
  0.3888455712170658  0.7778039495651364  0.1248955091482501
  0.2220994924620268  0.2777164128976812  0.1247526538813964
  0.7222900862459035  0.7778464913732341  0.1248619930047620
  0.5556169204356545  0.2777164128976812  0.1247526538813964
  0.8888975751283000  0.2777951502566068  0.1249034319271451
  0.0555293837681991  0.4444877621162628  0.6251044908517499
  0.2221697718132953  0.9443395436265906  0.6251136054930034
  0.5555381830767290  0.9444357582050286  0.6250965680728546
  0.3888452884205667  0.4444880449127619  0.6253568323696045
  0.8888975751283000  0.9444357582050286  0.6250965680728546
  0.0555293837681991  0.9443749549852647  0.1248955091482501
  0.7223689877806537  0.4444976033078528  0.6251659736785294
  0.3888455712170658  0.9443749549852647  0.1248955091482501
  0.2221286155271990  0.4444976033078528  0.1248340263214704
  0.2221697718132953  0.6111635615200404  0.1248863945069966
  0.5556427564921952  0.4444880449127619  0.1246431676303956
  0.7222315923022734  0.9444631846045466  0.1249057637541183
  0.8889583783480639  0.4444877621162628  0.1248955091482501
  0.0555718624556242  0.6111437249112482  0.6250862176555764
  0.2221286155271990  0.1109643455526821  0.6251659736785294
  0.7223689877806537  0.6112047178061366  0.6251659736785294
  0.5555564051273302  0.1110432470874322  0.6251380069952381
  0.8888701487287820  0.1111017410310624  0.6250942362458816
 
  0.00000000E+00  0.00000000E+00  0.00000000E+00
  0.00000000E+00  0.00000000E+00  0.00000000E+00
  0.00000000E+00  0.00000000E+00  0.00000000E+00
  0.00000000E+00  0.00000000E+00  0.00000000E+00
  0.00000000E+00  0.00000000E+00  0.00000000E+00
  0.00000000E+00  0.00000000E+00  0.00000000E+00
  0.00000000E+00  0.00000000E+00  0.00000000E+00
  0.00000000E+00  0.00000000E+00  0.00000000E+00
  0.00000000E+00  0.00000000E+00  0.00000000E+00
  0.00000000E+00  0.00000000E+00  0.00000000E+00
  0.00000000E+00  0.00000000E+00  0.00000000E+00
  0.00000000E+00  0.00000000E+00  0.00000000E+00
  0.00000000E+00  0.00000000E+00  0.00000000E+00
  0.00000000E+00  0.00000000E+00  0.00000000E+00
  0.00000000E+00  0.00000000E+00  0.00000000E+00
  0.00000000E+00  0.00000000E+00  0.00000000E+00
  0.00000000E+00  0.00000000E+00  0.00000000E+00
  0.00000000E+00  0.00000000E+00  0.00000000E+00
  0.00000000E+00  0.00000000E+00  0.00000000E+00
  0.00000000E+00  0.00000000E+00  0.00000000E+00
  0.00000000E+00  0.00000000E+00  0.00000000E+00
  0.00000000E+00  0.00000000E+00  0.00000000E+00
  0.00000000E+00  0.00000000E+00  0.00000000E+00
  0.00000000E+00  0.00000000E+00  0.00000000E+00
  0.00000000E+00  0.00000000E+00  0.00000000E+00
  0.00000000E+00  0.00000000E+00  0.00000000E+00
  0.00000000E+00  0.00000000E+00  0.00000000E+00
  0.00000000E+00  0.00000000E+00  0.00000000E+00
  0.00000000E+00  0.00000000E+00  0.00000000E+00
  0.00000000E+00  0.00000000E+00  0.00000000E+00
  0.00000000E+00  0.00000000E+00  0.00000000E+00
  0.00000000E+00  0.00000000E+00  0.00000000E+00
  0.00000000E+00  0.00000000E+00  0.00000000E+00
  0.00000000E+00  0.00000000E+00  0.00000000E+00
  0.00000000E+00  0.00000000E+00  0.00000000E+00
  0.00000000E+00  0.00000000E+00  0.00000000E+00
  0.00000000E+00  0.00000000E+00  0.00000000E+00
  0.00000000E+00  0.00000000E+00  0.00000000E+00
  0.00000000E+00  0.00000000E+00  0.00000000E+00
  0.00000000E+00  0.00000000E+00  0.00000000E+00
  0.00000000E+00  0.00000000E+00  0.00000000E+00
  0.00000000E+00  0.00000000E+00  0.00000000E+00
  0.00000000E+00  0.00000000E+00  0.00000000E+00
  0.00000000E+00  0.00000000E+00  0.00000000E+00
  0.00000000E+00  0.00000000E+00  0.00000000E+00
  0.00000000E+00  0.00000000E+00  0.00000000E+00
  0.00000000E+00  0.00000000E+00  0.00000000E+00
  0.00000000E+00  0.00000000E+00  0.00000000E+00
  0.00000000E+00  0.00000000E+00  0.00000000E+00
  0.00000000E+00  0.00000000E+00  0.00000000E+00
  0.00000000E+00  0.00000000E+00  0.00000000E+00
  0.00000000E+00  0.00000000E+00  0.00000000E+00
  0.00000000E+00  0.00000000E+00  0.00000000E+00
  0.00000000E+00  0.00000000E+00  0.00000000E+00
  0.00000000E+00  0.00000000E+00  0.00000000E+00
  0.00000000E+00  0.00000000E+00  0.00000000E+00
  0.00000000E+00  0.00000000E+00  0.00000000E+00
  0.00000000E+00  0.00000000E+00  0.00000000E+00
  0.00000000E+00  0.00000000E+00  0.00000000E+00
  0.00000000E+00  0.00000000E+00  0.00000000E+00
  0.00000000E+00  0.00000000E+00  0.00000000E+00
  0.00000000E+00  0.00000000E+00  0.00000000E+00
  0.00000000E+00  0.00000000E+00  0.00000000E+00
  0.00000000E+00  0.00000000E+00  0.00000000E+00
  0.00000000E+00  0.00000000E+00  0.00000000E+00
  0.00000000E+00  0.00000000E+00  0.00000000E+00
  0.00000000E+00  0.00000000E+00  0.00000000E+00
  0.00000000E+00  0.00000000E+00  0.00000000E+00
  0.00000000E+00  0.00000000E+00  0.00000000E+00
  0.00000000E+00  0.00000000E+00  0.00000000E+00
  0.00000000E+00  0.00000000E+00  0.00000000E+00
  0.00000000E+00  0.00000000E+00  0.00000000E+00
  0.00000000E+00  0.00000000E+00  0.00000000E+00
  0.00000000E+00  0.00000000E+00  0.00000000E+00
  0.00000000E+00  0.00000000E+00  0.00000000E+00
  0.00000000E+00  0.00000000E+00  0.00000000E+00
  0.00000000E+00  0.00000000E+00  0.00000000E+00
  0.00000000E+00  0.00000000E+00  0.00000000E+00
  0.00000000E+00  0.00000000E+00  0.00000000E+00
  0.00000000E+00  0.00000000E+00  0.00000000E+00
  0.00000000E+00  0.00000000E+00  0.00000000E+00
  0.00000000E+00  0.00000000E+00  0.00000000E+00
  0.00000000E+00  0.00000000E+00  0.00000000E+00
  0.00000000E+00  0.00000000E+00  0.00000000E+00
  0.00000000E+00  0.00000000E+00  0.00000000E+00
  0.00000000E+00  0.00000000E+00  0.00000000E+00
  0.00000000E+00  0.00000000E+00  0.00000000E+00
  0.00000000E+00  0.00000000E+00  0.00000000E+00
  0.00000000E+00  0.00000000E+00  0.00000000E+00
  0.00000000E+00  0.00000000E+00  0.00000000E+00
  0.00000000E+00  0.00000000E+00  0.00000000E+00
  0.00000000E+00  0.00000000E+00  0.00000000E+00
  0.00000000E+00  0.00000000E+00  0.00000000E+00
  0.00000000E+00  0.00000000E+00  0.00000000E+00
  0.00000000E+00  0.00000000E+00  0.00000000E+00
  0.00000000E+00  0.00000000E+00  0.00000000E+00
  0.00000000E+00  0.00000000E+00  0.00000000E+00
  0.00000000E+00  0.00000000E+00  0.00000000E+00
  0.00000000E+00  0.00000000E+00  0.00000000E+00
  0.00000000E+00  0.00000000E+00  0.00000000E+00
  0.00000000E+00  0.00000000E+00  0.00000000E+00
  0.00000000E+00  0.00000000E+00  0.00000000E+00
  0.00000000E+00  0.00000000E+00  0.00000000E+00
  0.00000000E+00  0.00000000E+00  0.00000000E+00
  0.00000000E+00  0.00000000E+00  0.00000000E+00
  0.00000000E+00  0.00000000E+00  0.00000000E+00
  0.00000000E+00  0.00000000E+00  0.00000000E+00
  0.00000000E+00  0.00000000E+00  0.00000000E+00
  0.00000000E+00  0.00000000E+00  0.00000000E+00
  0.00000000E+00  0.00000000E+00  0.00000000E+00
  0.00000000E+00  0.00000000E+00  0.00000000E+00
  0.00000000E+00  0.00000000E+00  0.00000000E+00
  0.00000000E+00  0.00000000E+00  0.00000000E+00
  0.00000000E+00  0.00000000E+00  0.00000000E+00
  0.00000000E+00  0.00000000E+00  0.00000000E+00
  0.00000000E+00  0.00000000E+00  0.00000000E+00
  0.00000000E+00  0.00000000E+00  0.00000000E+00
  0.00000000E+00  0.00000000E+00  0.00000000E+00
  0.00000000E+00  0.00000000E+00  0.00000000E+00
  0.00000000E+00  0.00000000E+00  0.00000000E+00
  0.00000000E+00  0.00000000E+00  0.00000000E+00
  0.00000000E+00  0.00000000E+00  0.00000000E+00
  0.00000000E+00  0.00000000E+00  0.00000000E+00
  0.00000000E+00  0.00000000E+00  0.00000000E+00
  0.00000000E+00  0.00000000E+00  0.00000000E+00
  0.00000000E+00  0.00000000E+00  0.00000000E+00
  0.00000000E+00  0.00000000E+00  0.00000000E+00
  0.00000000E+00  0.00000000E+00  0.00000000E+00
  0.00000000E+00  0.00000000E+00  0.00000000E+00
  0.00000000E+00  0.00000000E+00  0.00000000E+00
  0.00000000E+00  0.00000000E+00  0.00000000E+00
  0.00000000E+00  0.00000000E+00  0.00000000E+00
  0.00000000E+00  0.00000000E+00  0.00000000E+00
  0.00000000E+00  0.00000000E+00  0.00000000E+00
  0.00000000E+00  0.00000000E+00  0.00000000E+00
  0.00000000E+00  0.00000000E+00  0.00000000E+00
  0.00000000E+00  0.00000000E+00  0.00000000E+00
  0.00000000E+00  0.00000000E+00  0.00000000E+00
  0.00000000E+00  0.00000000E+00  0.00000000E+00
  0.00000000E+00  0.00000000E+00  0.00000000E+00
  0.00000000E+00  0.00000000E+00  0.00000000E+00
  0.00000000E+00  0.00000000E+00  0.00000000E+00
  0.00000000E+00  0.00000000E+00  0.00000000E+00
  0.00000000E+00  0.00000000E+00  0.00000000E+00
  0.00000000E+00  0.00000000E+00  0.00000000E+00
  0.00000000E+00  0.00000000E+00  0.00000000E+00
  0.00000000E+00  0.00000000E+00  0.00000000E+00
  0.00000000E+00  0.00000000E+00  0.00000000E+00
  0.00000000E+00  0.00000000E+00  0.00000000E+00
  0.00000000E+00  0.00000000E+00  0.00000000E+00
  0.00000000E+00  0.00000000E+00  0.00000000E+00
  0.00000000E+00  0.00000000E+00  0.00000000E+00
  0.00000000E+00  0.00000000E+00  0.00000000E+00
  0.00000000E+00  0.00000000E+00  0.00000000E+00
  0.00000000E+00  0.00000000E+00  0.00000000E+00
  0.00000000E+00  0.00000000E+00  0.00000000E+00
  0.00000000E+00  0.00000000E+00  0.00000000E+00
  0.00000000E+00  0.00000000E+00  0.00000000E+00
  0.00000000E+00  0.00000000E+00  0.00000000E+00
  0.00000000E+00  0.00000000E+00  0.00000000E+00
  0.00000000E+00  0.00000000E+00  0.00000000E+00
  0.00000000E+00  0.00000000E+00  0.00000000E+00
  0.00000000E+00  0.00000000E+00  0.00000000E+00
  0.00000000E+00  0.00000000E+00  0.00000000E+00
  0.00000000E+00  0.00000000E+00  0.00000000E+00
  0.00000000E+00  0.00000000E+00  0.00000000E+00
  0.00000000E+00  0.00000000E+00  0.00000000E+00
  0.00000000E+00  0.00000000E+00  0.00000000E+00
  0.00000000E+00  0.00000000E+00  0.00000000E+00
  0.00000000E+00  0.00000000E+00  0.00000000E+00
  0.00000000E+00  0.00000000E+00  0.00000000E+00
  0.00000000E+00  0.00000000E+00  0.00000000E+00
  0.00000000E+00  0.00000000E+00  0.00000000E+00
  0.00000000E+00  0.00000000E+00  0.00000000E+00
  0.00000000E+00  0.00000000E+00  0.00000000E+00
  0.00000000E+00  0.00000000E+00  0.00000000E+00
  0.00000000E+00  0.00000000E+00  0.00000000E+00
  0.00000000E+00  0.00000000E+00  0.00000000E+00
  0.00000000E+00  0.00000000E+00  0.00000000E+00
  0.00000000E+00  0.00000000E+00  0.00000000E+00
  0.00000000E+00  0.00000000E+00  0.00000000E+00
  0.00000000E+00  0.00000000E+00  0.00000000E+00
  0.00000000E+00  0.00000000E+00  0.00000000E+00
  0.00000000E+00  0.00000000E+00  0.00000000E+00
  0.00000000E+00  0.00000000E+00  0.00000000E+00
  0.00000000E+00  0.00000000E+00  0.00000000E+00
  0.00000000E+00  0.00000000E+00  0.00000000E+00
  0.00000000E+00  0.00000000E+00  0.00000000E+00
  0.00000000E+00  0.00000000E+00  0.00000000E+00
  0.00000000E+00  0.00000000E+00  0.00000000E+00
  0.00000000E+00  0.00000000E+00  0.00000000E+00
  0.00000000E+00  0.00000000E+00  0.00000000E+00
  0.00000000E+00  0.00000000E+00  0.00000000E+00
  0.00000000E+00  0.00000000E+00  0.00000000E+00
  0.00000000E+00  0.00000000E+00  0.00000000E+00
  0.00000000E+00  0.00000000E+00  0.00000000E+00
  0.00000000E+00  0.00000000E+00  0.00000000E+00
  0.00000000E+00  0.00000000E+00  0.00000000E+00
  0.00000000E+00  0.00000000E+00  0.00000000E+00
  0.00000000E+00  0.00000000E+00  0.00000000E+00
  0.00000000E+00  0.00000000E+00  0.00000000E+00
  0.00000000E+00  0.00000000E+00  0.00000000E+00
  0.00000000E+00  0.00000000E+00  0.00000000E+00
  0.00000000E+00  0.00000000E+00  0.00000000E+00
  0.00000000E+00  0.00000000E+00  0.00000000E+00
  0.00000000E+00  0.00000000E+00  0.00000000E+00
  0.00000000E+00  0.00000000E+00  0.00000000E+00
  0.00000000E+00  0.00000000E+00  0.00000000E+00
  0.00000000E+00  0.00000000E+00  0.00000000E+00
  0.00000000E+00  0.00000000E+00  0.00000000E+00
  0.00000000E+00  0.00000000E+00  0.00000000E+00
  0.00000000E+00  0.00000000E+00  0.00000000E+00
  0.00000000E+00  0.00000000E+00  0.00000000E+00
  0.00000000E+00  0.00000000E+00  0.00000000E+00
  0.00000000E+00  0.00000000E+00  0.00000000E+00
  0.00000000E+00  0.00000000E+00  0.00000000E+00
  0.00000000E+00  0.00000000E+00  0.00000000E+00
  0.00000000E+00  0.00000000E+00  0.00000000E+00
  0.00000000E+00  0.00000000E+00  0.00000000E+00
  0.00000000E+00  0.00000000E+00  0.00000000E+00
  0.00000000E+00  0.00000000E+00  0.00000000E+00
  0.00000000E+00  0.00000000E+00  0.00000000E+00
  0.00000000E+00  0.00000000E+00  0.00000000E+00
  0.00000000E+00  0.00000000E+00  0.00000000E+00
  0.00000000E+00  0.00000000E+00  0.00000000E+00
  0.00000000E+00  0.00000000E+00  0.00000000E+00
  0.00000000E+00  0.00000000E+00  0.00000000E+00
  0.00000000E+00  0.00000000E+00  0.00000000E+00
  0.00000000E+00  0.00000000E+00  0.00000000E+00
  0.00000000E+00  0.00000000E+00  0.00000000E+00
  0.00000000E+00  0.00000000E+00  0.00000000E+00
  0.00000000E+00  0.00000000E+00  0.00000000E+00
  0.00000000E+00  0.00000000E+00  0.00000000E+00
  0.00000000E+00  0.00000000E+00  0.00000000E+00
  0.00000000E+00  0.00000000E+00  0.00000000E+00
  0.00000000E+00  0.00000000E+00  0.00000000E+00
  0.00000000E+00  0.00000000E+00  0.00000000E+00
  0.00000000E+00  0.00000000E+00  0.00000000E+00
  0.00000000E+00  0.00000000E+00  0.00000000E+00
  0.00000000E+00  0.00000000E+00  0.00000000E+00
  0.00000000E+00  0.00000000E+00  0.00000000E+00
  0.00000000E+00  0.00000000E+00  0.00000000E+00
  0.00000000E+00  0.00000000E+00  0.00000000E+00
  0.00000000E+00  0.00000000E+00  0.00000000E+00
  0.00000000E+00  0.00000000E+00  0.00000000E+00
  0.00000000E+00  0.00000000E+00  0.00000000E+00
  0.00000000E+00  0.00000000E+00  0.00000000E+00