 N P B 
 1.0
 17.527899999999772   0.000000000000000   0.000000000000000
 -8.763949999999658  15.179606674993195   0.000000000000000
  0.000000000000001   0.000000000000002  15.000000000000000
 N P B 
  48   1  48
Cartesian
  8.791534088539031  13.709566114236258   1.658502715188060 
 16.332451069761888   0.728119618428526   1.659827621748375 
 15.095194831451892   2.905858257788500   1.662955335835890 
 13.843358026034025   5.068086175366616   1.662261335776575 
 12.562518049385822   7.226566490504260   1.659185178060225 
 11.276746769567826   9.383512554252750   1.658175829973415 
 10.022644410069592  11.537963127152592   1.657327156577220 
 -6.234799654468736  13.711307460290318   1.658725237116975 
  1.299325347812824   0.704080959873180   1.659936628564500 
  0.063223824561161   2.882026247822545   1.663351709218785 
 -1.172691742666796   5.075045141454437   1.664308370783610 
 -2.465421049562155   7.239421499311773   1.661215975021230 
 -3.739803486144721   9.399459487275521   1.660021896103965 
 -4.994785130328018  11.554126836692323   1.658974186991730 
 -3.728465707713434  13.724655386064123   1.660848646582275 
  3.802979623994889   0.696847459180162   1.660846295267550 
  2.580160143378362   2.866818402876845   1.663100685864405 
  1.329148517351503   5.026118490031767   1.663976521485225 
  0.027748825237482   7.261532942215147   1.661850554732865 
 -1.241044332419168   9.427856729014040   1.661163676556250 
 -2.488878622081232  11.577992546146231   1.661612162100660 
 -1.222167882054184  13.754741007344162   1.663457852604435 
  6.314796110614421   0.704662736036460   1.663584146760225 
  5.099769636640087   2.834668413140529   1.662838259870175 
  3.940987853319373   4.978716383374524   1.664992223956725 
  1.226334432180504   9.535467379991580   1.662122801649105 
  0.007054738322387  11.633951360001978   1.662740489026965 
  1.289862897321411  13.775560437160475   1.662106447202280 
  8.819413089158330   0.731816610571754   1.663129400970945 
  7.587116795224235   2.870393808739415   1.663602112511235 
  6.358811224258716   5.017919013612431   1.661219366030670 
  4.137002829348426   8.226427162267163   1.658530174486110 
  3.795714343328067   9.581236472211444   1.657656526774440 
  2.530303525127400  11.642284783744374   1.661297228467785 
  3.798328657415367  13.788407304932139   1.659569984733525 
 11.326233575992180   0.748832338216965   1.660036919506380 
 10.089619874253808   2.889544163231381   1.660837388440740 
  8.852473843353961   5.029273143889566   1.659752289829860 
  7.546111037215552   7.169227850644052   1.659217293025500 
  6.156531418895097   9.334733867995629   1.661214771183855 
  5.041300477521753  11.661401405138292   1.660059009663750 
  6.310080661131845  13.761443773436808   1.658444910679950 
 13.833601659238408   0.747859644071690   1.659575406770745 
 12.591541671066459   2.903745706388305   1.660147789079355 
 11.342365486995593   5.055833835566758   1.659516939604365 
 10.060595395794131   7.209308706725820   1.659164492377185 
  8.750364138136511   9.359661398093456   1.658704774145220 
  7.508617911175636  11.519138251150375   1.658508214032345 
  2.760726000181194   7.327213170016009   1.657998523322775 
  7.561308687200681  14.461823650802939   1.658886501962205 
 15.088219773171804   1.461285602948392   1.661194658158665 
 13.841543311749422   3.626439398289256   1.662218945550630 
 12.580947708365784   5.784364343097748   1.660285494323850 
 11.289039054889123   7.934625101838302   1.659049657368195 
  9.996346332071020  10.082084083870626   1.658123105696970 
  8.764325465041406  12.245128343173130   1.658084677065150 
 -7.482972845634627  14.432988341422897   1.658993039129100 
  0.057254386448451   1.438971393687044   1.661374416326940 
 -1.178055710874738   3.626123247027928   1.664363936371440 
 -2.435393077748666   5.793112868650900   1.663236464310765 
 -3.726170132169544   7.953501692118084   1.660191288633735 
 -5.005006529749874  10.106734987225785   1.659202495284255 
 -6.253843817941970  12.262504160401708   1.658467536404190 
 -4.981186301394668  14.436146920220759   1.660364460703725 
  2.557912390868571   1.425621139141045   1.661516632191660 
  1.321594483089663   3.587972452508726   1.663716267075840 
  0.089306516484256   5.801303268071650   1.663528605077820 
 -1.227729054623599   7.974156983568600   1.661487291025215 
 -2.495751384519309  10.131851265289804   1.661236435816935 
 -3.744642526192347  12.282334474947458   1.660417603386660 
 -2.473922392461930  14.453318722708547   1.662761317469040 
  5.067136809128403   1.410071563219000   1.662693740258940 
  3.874144774771415   3.555873628870131   1.663930749539460 
  2.667826528019964   5.589906319043492   1.664578341881595 
  1.194264821776422   8.115721458511828   1.662300501292710 
 -0.016064233807208  10.204289854982271   1.662315532873860 
 -1.244179262987180  12.321931130083989   1.663057433840400 
  0.035638621892053  14.478572034887710   1.663354374831825 
  7.567024192749496   1.441668761025213   1.664267679009510 
  6.339486364045827   3.593053629817124   1.662745262396565 
  5.188774419655743   5.825836076080050   1.663840273563330 
  2.510797221323010  10.205734370327026   1.660849524940365 
  1.274353143024966  12.340774123844525   1.662646818846840 
  2.547475372794786  14.494484995369108   1.660727957585940 
 10.073475227438385   1.458467092441425   1.661556899315805 
  8.836100378081881   3.607660602700554   1.661779531252890 
  7.604888148154950   5.786479248934692   1.660235673331995 
  5.545046845011300   7.812735948328105   1.661634699588015 
  5.054821021760795  10.237512685325516   1.660087678404195 
  3.789770881751310  12.353871221925811   1.660487403634950 
  5.062169205706399  14.486039942511090   1.659226009442865 
 12.581964276265397   1.465669439365013   1.659981531774885 
 11.335759506839988   3.620349185483964   1.660226980825950 
 10.078003755324206   5.773526139249891   1.659452892208290 
  8.741378354632824   7.887931613017539   1.659425762370315 
  7.457519940324744  10.016885889372134   1.659609607662330 
  6.306142334626767  12.315828910024353   1.659314806853985 
