Species order: X N B                    
   2.51242800000000     
     5.9449720136058266    0.0000000000000000    0.0000000000000000
    -2.9724860068029120    5.1484967885702053   -0.0000000000000001
     0.0000000000000000    0.0000000000000009    5.3101128803662583
   S    N    B 
     1   144   143
Direct
  0.4444444444444429  0.3888888888888857  0.3750000000000000
  0.1111163907819033  0.0555825780344402  0.1251450737814478
  0.6110642775951707  0.5555312157110631  0.1244562845190322
  0.4444661872525370  0.0555825780344402  0.1251450737814478
  0.9444249836586490  0.5555399288307070  0.1249154096414514
  0.7777777777777786  0.0555555555555571  0.1247785825677693
  0.1111111111111143  0.7222222222222214  0.6251603057975483
  0.4444661872525370  0.7222169425514313  0.6248549262185525
  0.2778021176222726  0.2222690557381642  0.6255437154809684
  0.7777507552988944  0.7222169425514313  0.6248549262185525
  0.6111180431091153  0.2222152902242212  0.6248655490532246
  0.9444305950948467  0.2222096033925974  0.6251559677913328
  0.2777934045026290  0.7222183881612785  0.1249154096414514
  0.1110972471151131  0.2222152902242212  0.1251344509467762
  0.4444669381158915  0.2222690557381642  0.1244562845190322
  0.6111180431091153  0.7222360862182217  0.1251344509467762
  0.9444249836586490  0.7222183881612785  0.1249154096414514
  0.7777790082977499  0.2222096033925974  0.1248440322086669
  0.1111149451720575  0.8889083496746796  0.6250845903585487
  0.4444628589746597  0.8888980961539940  0.6251455710988182
  0.2778021176222726  0.3888663952174371  0.6255437154809684
  0.6110642775951707  0.3888663952174371  0.6255437154809684
  0.7777790082977499  0.8889027382384819  0.6251559677913328
  0.9444352371793346  0.3888704743586689  0.6251455710988182
  0.1111163907819033  0.3888671460807916  0.1251450737814478
  0.2777934045026290  0.8889083496746796  0.1249154096414514
  0.6111237299407374  0.8889027382384819  0.1248440322086669
  0.4444444444444429  0.3888888888888857  0.1182871668258667
  0.9444352371793346  0.8888980961539940  0.1248544289011809
  0.7777507552988944  0.3888671460807916  0.1251450737814478
  0.2777969235166645  0.5555364098166691  0.6248092165876852
  0.1111163907819033  0.0555825780344402  0.6248549262185525
  0.6110642775951707  0.5555312157110631  0.6255437154809684
  0.4444661872525370  0.0555825780344402  0.6248549262185525
  0.9444249836586490  0.5555399288307070  0.6250845903585487
  0.1111149451720575  0.5555399288307070  0.1249154096414514
  0.7777777777777786  0.0555555555555571  0.6252214174322315
  0.2777969235166645  0.0555938470333284  0.1251907834123143
  0.4444669381158915  0.5555312157110631  0.1244562845190322
  0.7777394863000068  0.5555364098166691  0.1251907834123143
  0.6111237299407374  0.0555543250355853  0.1248440322086669
  0.4444669381158915  0.5555312157110631  0.6255437154809684
  0.9444305950948467  0.0555543250355853  0.1248440322086669
  0.2777934045026290  0.7222183881612785  0.6250845903585487
  0.1110972471151131  0.2222152902242212  0.6248655490532246
  0.4444669381158915  0.2222690557381642  0.6255437154809684
  0.6111180431091153  0.7222360862182217  0.6248655490532246
  0.9444249836586490  0.7222183881612785  0.6250845903585487
  0.7777790082977499  0.2222096033925974  0.6251559677913328
  0.1111111111111143  0.7222222222222214  0.1248396942024520
  0.4444661872525370  0.7222169425514313  0.1251450737814478
  0.2778021176222726  0.2222690557381642  0.1244562845190322
  0.7777507552988944  0.7222169425514313  0.1251450737814478
  0.6111180431091153  0.2222152902242212  0.1251344509467762
  0.9444305950948467  0.2222096033925974  0.1248440322086669
  0.1111163907819033  0.3888671460807916  0.6248549262185525
  0.2777934045026290  0.8889083496746796  0.6250845903585487
  0.6111237299407374  0.8889027382384819  0.6251559677913328
  0.4444444444444429  0.3888888888888857  0.6317128331741341
  0.9444352371793346  0.8888980961539940  0.6251455710988182
  0.1111149451720575  0.8889083496746796  0.1249154096414514
  0.7777507552988944  0.3888671460807916  0.6248549262185525
  0.4444628589746597  0.8888980961539940  0.1248544289011809
  0.2778021176222726  0.3888663952174371  0.1244562845190322
  0.2777969235166645  0.5555364098166691  0.1251907834123143
  0.6110642775951707  0.3888663952174371  0.1244562845190322
  0.7777790082977499  0.8889027382384819  0.1248440322086669
  0.9444352371793346  0.3888704743586689  0.1248544289011809
  0.1111149451720575  0.5555399288307070  0.6250845903585487
  0.2777969235166645  0.0555938470333284  0.6248092165876852
  0.7777394863000068  0.5555364098166691  0.6248092165876852
  0.6111237299407374  0.0555543250355853  0.6251559677913328
  0.9444305950948467  0.0555543250355853  0.6251559677913328
  0.0543958554086492  0.1103406426300919  0.3750000000000000
  0.5560449068594777  0.6120898137189570  0.3750000000000000
  0.3874384003676429  0.1036201180793556  0.3750000000000000
  0.8915727378326068  0.6124530355829749  0.3750000000000000
  0.7224318198063963  0.1109015135269384  0.3750000000000000
  0.0555569207834250  0.7777764125499115  0.8750000000000000
  0.3888834515583087  0.7777772506986509  0.8750000000000000
  0.2222237816981050  0.2777785575157203  0.8750000000000000
  0.7222233399638563  0.7777735738532074  0.8750000000000000
  0.5555547758176154  0.2777785575157203  0.8750000000000000
  0.8888923403661512  0.2777846807323112  0.8750000000000000
  0.2216867233298853  0.7775100283316119  0.3750000000000000
  0.0543958554086493  0.2773885461118931  0.3750000000000000
  0.3759909630142253  0.2519819260284583  0.3750000000000000
  0.5559447872214413  0.7789374779246869  0.3750000000000000
  0.8910004132133911  0.7794364754381664  0.3750000000000000
  0.7229926907032450  0.2773885461118931  0.3750000000000000
  0.0555560826346853  0.9444395341929951  0.8750000000000000
  0.3888834515583087  0.9444395341929951  0.8750000000000000
  0.2222187373890137  0.4444518172459526  0.8750000000000000
  0.5555820154322335  0.4444576743827811  0.8750000000000000
  0.7222205994337050  0.9444411988674113  0.8750000000000000
  0.8888937991403335  0.4444498817750199  0.8750000000000000
  0.0538968578951699  0.4448972711085607  0.3750000000000000
  0.2208802977503613  0.9417605955007218  0.3750000000000000
  0.5558747182934155  0.9446040258133711  0.3750000000000000
  0.3759909630142253  0.4573423703191033  0.3750000000000000
  0.8887293075199575  0.9446040258133711  0.3750000000000000
  0.7297132152539809  0.4458949329656857  0.3750000000000000
  0.2222175571861185  0.6111157761472175  0.8750000000000000
  0.0555597594801280  0.1111099933694798  0.8750000000000000
  0.5555547758176154  0.6111095516352307  0.8750000000000000
  0.3888815160873760  0.1111002534763966  0.8750000000000000
  0.8888982189610910  0.6111157761472175  0.8750000000000000
  0.0558233050017252  0.6116466100034498  0.3750000000000000
  0.7222205994337050  0.1111127338996306  0.8750000000000000
  0.2161817177117057  0.1036201180793556  0.3750000000000000
  0.3874384003676429  0.6171516156216308  0.3750000000000000
  0.7297132152539809  0.6171516156216308  0.3750000000000000
  0.5559447872214413  0.1103406426300919  0.3750000000000000
  0.3888815160873760  0.6111145959443226  0.8750000000000000
  0.8884696937205337  0.1109015135269384  0.3750000000000000
  0.2222194917664859  0.7777764125499115  0.8750000000000000
  0.0555597594801280  0.2777830994439830  0.8750000000000000
  0.3888756589505475  0.2777513179011010  0.8750000000000000
  0.5555502338893522  0.7777735738532074  0.8750000000000000
  0.8888937991403335  0.7777772506986509  0.8750000000000000
  0.7222233399638563  0.2777830994439830  0.8750000000000000
  0.0558233050017252  0.7775100283316119  0.3750000000000000
  0.3884360622247679  0.7794364754381664  0.3750000000000000
  0.2212435196143794  0.2772884264738572  0.3750000000000000
  0.7229926907032450  0.7789374779246869  0.3750000000000000
  0.5560449068594777  0.2772884264738572  0.3750000000000000
  0.8887293075199575  0.2774586150399199  0.3750000000000000
  0.0555560826346853  0.4444498817750199  0.8750000000000000
  0.2222175571861185  0.9444351143722376  0.8750000000000000
  0.5555486526010252  0.9444409929671774  0.8750000000000000
  0.3888756589505475  0.4444576743827811  0.8750000000000000
  0.8888923403661512  0.9444409929671774  0.8750000000000000
  0.0538968578951699  0.9423329201199375  0.3750000000000000
  0.7222330798569385  0.4444518172459526  0.8750000000000000
  0.3884360622247679  0.9423329201199375  0.3750000000000000
  0.2161817177117057  0.4458949329656857  0.3750000000000000
  0.2208802977503613  0.6124530355829749  0.3750000000000000
  0.5813514073048780  0.4573423703191033  0.3750000000000000
  0.7224318198063963  0.9448636396127948  0.3750000000000000
  0.8910004132133911  0.4448972711085607  0.3750000000000000
  0.0555569207834250  0.6111138415668509  0.8750000000000000
  0.2222187373890137  0.1111002534763966  0.8750000000000000
  0.7222330798569385  0.6111145959443226  0.8750000000000000
  0.5555502338893522  0.1111099933694798  0.8750000000000000
  0.8888921344659173  0.1111127338996306  0.8750000000000000
  0.1075896055340038  0.0521672367430120  0.3750000000000000
  0.6195762867935898  0.5618982201676588  0.3750000000000000
  0.4445776312090088  0.0521672367430120  0.3750000000000000
  0.9455193002545766  0.5559059293598212  0.3750000000000000
  0.7777777777777786  0.0555555555555571  0.3750000000000000
  0.1111111111111143  0.7222222222222214  0.8750000000000000
  0.4444305919080919  0.7221743138014247  0.8750000000000000
  0.2778467511880754  0.2222748168519606  0.8750000000000000
  0.7777437218933322  0.7221743138014247  0.8750000000000000
  0.6110732222904269  0.2222601110429079  0.8750000000000000
  0.9444767482712710  0.2222432382467449  0.8750000000000000
  0.2774274039735155  0.7229467042280912  0.3750000000000000
  0.1107817217868805  0.2220575275601046  0.3750000000000000
  0.4423219333740688  0.2137570465397453  0.3750000000000000
  0.6112758057732310  0.7225516115464548  0.3750000000000000
  0.9455193002545766  0.7229467042280912  0.3750000000000000
  0.7778235744524249  0.2218191930826427  0.3750000000000000
  0.1111232164939030  0.8889038664338861  0.8750000000000000
  0.4444312630590667  0.8888822981961977  0.8750000000000000
  0.2778467511880754  0.3889052676694434  0.8750000000000000
  0.6110585164813747  0.3889052676694434  0.8750000000000000
  0.7777664899754723  0.8888565850620576  0.8750000000000000
  0.9444510351371309  0.3889020702742619  0.8750000000000000
  0.1075896055340038  0.3887557021243198  0.3750000000000000
  0.2774274039735155  0.8878140330787520  0.3750000000000000
  0.6115141402506936  0.8893377147031128  0.3750000000000000
  0.9442781484353204  0.8890551848980082  0.3750000000000000
  0.7811660965903225  0.3887557021243198  0.3750000000000000
  0.2777988695295436  0.5555344638037911  0.8750000000000000
  0.1111590195319119  0.0555896114400035  0.8750000000000000
  0.6110585164813747  0.5554865821452591  0.8750000000000000
  0.4444305919080919  0.0555896114400035  0.8750000000000000
  0.9444294668994425  0.5555526833933446  0.8750000000000000
  0.1103866291052441  0.5559059293598212  0.3750000000000000
  0.7777777777777786  0.0555555555555571  0.8750000000000000
  0.2760187483208031  0.0520374966416058  0.3750000000000000
  0.4423219333740688  0.5618982201676588  0.3750000000000000
  0.7812958366917294  0.5573145850125348  0.3750000000000000
  0.6115141402506936  0.0555097588809102  0.3750000000000000
  0.4444280656638852  0.5554865821452591  0.8750000000000000
  0.9439956186302157  0.0555097588809102  0.3750000000000000
  0.2777806499399906  0.7222101168394313  0.8750000000000000
  0.1111868887524870  0.2222601110429079  0.8750000000000000
  0.4444280656638852  0.2222748168519606  0.8750000000000000
  0.6110732222904269  0.7221464445808488  0.8750000000000000
  0.9444294668994425  0.7222101168394313  0.8750000000000000
  0.7777664899754723  0.2222432382467449  0.8750000000000000
  0.1111111111111143  0.7222222222222214  0.3750000000000000
  0.4445776312090088  0.7257437277993314  0.3750000000000000
  0.2714351131656778  0.2137570465397453  0.3750000000000000
  0.7811660965903225  0.7257437277993314  0.3750000000000000
  0.6112758057732310  0.2220575275601046  0.3750000000000000
  0.9439956186302157  0.2218191930826427  0.3750000000000000
  0.1111590195319119  0.3889027414252367  0.8750000000000000
  0.2777806499399906  0.8889038664338861  0.8750000000000000
  0.6110900950865924  0.8888565850620576  0.8750000000000000
  0.4444444444444429  0.3888888888888857  0.8750000000000000
  0.9444510351371309  0.8888822981961977  0.8750000000000000
  0.1103866291052441  0.8878140330787520  0.3750000000000000
  0.7777437218933322  0.3889027414252367  0.8750000000000000
  0.4447770364626880  0.8890551848980082  0.3750000000000000
  0.2714351131656778  0.3910113999592598  0.3750000000000000
  0.2760187483208031  0.5573145850125348  0.3750000000000000
  0.6195762867935898  0.3910113999592598  0.3750000000000000
  0.7778235744524249  0.8893377147031128  0.3750000000000000
  0.9442781484353204  0.3885562968706406  0.3750000000000000
  0.1111232164939030  0.5555526833933446  0.8750000000000000
  0.2777988695295436  0.0555977390590872  0.8750000000000000
  0.7777355942742484  0.5555344638037911  0.8750000000000000
  0.6110900950865924  0.0555668433578630  0.8750000000000000
  0.9444767482712710  0.0555668433578630  0.8750000000000000
  0.0556325020407162  0.1111963885406129  0.1252725276154363
  0.5554562752568337  0.6109125505136701  0.1251519028273569
  0.3889788739905100  0.1113665166447562  0.1254463654510838
  0.8887351169295267  0.6110342251314357  0.1252071702406070
  0.7222137610152943  0.1111195723180430  0.1249959991635692
  0.0555334001992797  0.7777999331340565  0.6249961695907430
  0.3889515969984670  0.7777404798867654  0.6248550202558194
  0.2224207828196665  0.2778770580765006  0.6248480971726418
  0.7221369447927236  0.7777008312926204  0.6247274723845652
  0.5554562752568337  0.2778770580765006  0.6248480971726418
  0.8888766303821118  0.2777532607642281  0.6249973706886282
  0.2222665329347761  0.7777999331340565  0.1250038304092579
  0.0556325020407162  0.2777694468334395  0.1252725276154363
  0.3890901237312073  0.2781802474624211  0.1234952205984980
  0.5555638864998972  0.7777008312926204  0.1252725276154363
  0.8887888828882921  0.7777404798867654  0.1251449797441804
  0.7221369447927236  0.2777694468334395  0.1252725276154363
  0.0555928534465706  0.9445444504450365  0.6248550202558194
  0.3889515969984670  0.9445444504450365  0.6248550202558194
  0.2223876426542382  0.4443544593428186  0.6245536345489168
  0.5551530858709139  0.4442432096021213  0.6265047794015024
  0.7222137610152943  0.9444275220305857  0.6250040008364313
  0.8887888828882921  0.4443817363348616  0.6248550202558194
  0.0555928534465706  0.4443817363348616  0.1251449797441804
  0.2222991082019006  0.9445982164038019  0.1252071702406070
  0.5555800725691074  0.9444567029512168  0.1250026293113714
  0.3890901237312073  0.4442432096021213  0.1234952205984980
  0.8888766303821118  0.9444567029512168  0.1250026293113714
  0.7219668166885798  0.4443544593428186  0.1254463654510838
  0.2222991082019006  0.6110342251314357  0.6247928297593907
  0.0556325020407162  0.1111963885406129  0.6247274723845652
  0.5554562752568337  0.6109125505136701  0.6248480971726418
  0.3889788739905100  0.1113665166447562  0.6245536345489168
  0.8887351169295267  0.6110342251314357  0.6247928297593907
  0.0555334001992797  0.6110668003985584  0.1250038304092579
  0.7222137610152943  0.1111195723180430  0.6250040008364313
  0.2223876426542382  0.1113665166447562  0.1254463654510838
  0.3889788739905100  0.6109456906790965  0.1254463654510838
  0.7219668166885798  0.6109456906790965  0.1254463654510838
  0.5555638864998972  0.1111963885406129  0.1252725276154363
  0.3889788739905100  0.6109456906790965  0.6245536345489168
  0.8889058113027429  0.1111195723180430  0.1249959991635692
  0.2222665329347761  0.7777999331340565  0.6249961695907430
  0.0556325020407162  0.2777694468334395  0.6247274723845652
  0.3890901237312073  0.2781802474624211  0.6265047794015024
  0.5555638864998972  0.7777008312926204  0.6247274723845652
  0.8887888828882921  0.7777404798867654  0.6248550202558194
  0.7221369447927236  0.2777694468334395  0.6247274723845652
  0.0555334001992797  0.7777999331340565  0.1250038304092579
  0.3889515969984670  0.7777404798867654  0.1251449797441804
  0.2224207828196665  0.2778770580765006  0.1251519028273569
  0.7221369447927236  0.7777008312926204  0.1252725276154363
  0.5554562752568337  0.2778770580765006  0.1251519028273569
  0.8888766303821118  0.2777532607642281  0.1250026293113714
  0.0555928534465706  0.4443817363348616  0.6248550202558194
  0.2222991082019006  0.9445982164038019  0.6247928297593907
  0.5555800725691074  0.9444567029512168  0.6249973706886282
  0.3890901237312073  0.4442432096021213  0.6265047794015024
  0.8888766303821118  0.9444567029512168  0.6249973706886282
  0.0555928534465706  0.9445444504450365  0.1251449797441804
  0.7219668166885798  0.4443544593428186  0.6245536345489168
  0.3889515969984670  0.9445444504450365  0.1251449797441804
  0.2223876426542382  0.4443544593428186  0.1254463654510838
  0.2222991082019006  0.6110342251314357  0.1252071702406070
  0.5551530858709139  0.4442432096021213  0.1234952205984980
  0.7222137610152943  0.9444275220305857  0.1249959991635692
  0.8887888828882921  0.4443817363348616  0.1251449797441804
  0.0555334001992797  0.6110668003985584  0.6249961695907430
  0.2223876426542382  0.1113665166447562  0.6245536345489168
  0.7219668166885798  0.6109456906790965  0.6245536345489168
  0.5555638864998972  0.1111963885406129  0.6247274723845652
  0.8889058113027429  0.1111195723180430  0.6250040008364313
 
  0.00000000E+00  0.00000000E+00  0.00000000E+00
  0.00000000E+00  0.00000000E+00  0.00000000E+00
  0.00000000E+00  0.00000000E+00  0.00000000E+00
  0.00000000E+00  0.00000000E+00  0.00000000E+00
  0.00000000E+00  0.00000000E+00  0.00000000E+00
  0.00000000E+00  0.00000000E+00  0.00000000E+00
  0.00000000E+00  0.00000000E+00  0.00000000E+00
  0.00000000E+00  0.00000000E+00  0.00000000E+00
  0.00000000E+00  0.00000000E+00  0.00000000E+00
  0.00000000E+00  0.00000000E+00  0.00000000E+00
  0.00000000E+00  0.00000000E+00  0.00000000E+00
  0.00000000E+00  0.00000000E+00  0.00000000E+00
  0.00000000E+00  0.00000000E+00  0.00000000E+00
  0.00000000E+00  0.00000000E+00  0.00000000E+00
  0.00000000E+00  0.00000000E+00  0.00000000E+00
  0.00000000E+00  0.00000000E+00  0.00000000E+00
  0.00000000E+00  0.00000000E+00  0.00000000E+00
  0.00000000E+00  0.00000000E+00  0.00000000E+00
  0.00000000E+00  0.00000000E+00  0.00000000E+00
  0.00000000E+00  0.00000000E+00  0.00000000E+00
  0.00000000E+00  0.00000000E+00  0.00000000E+00
  0.00000000E+00  0.00000000E+00  0.00000000E+00
  0.00000000E+00  0.00000000E+00  0.00000000E+00
  0.00000000E+00  0.00000000E+00  0.00000000E+00
  0.00000000E+00  0.00000000E+00  0.00000000E+00
  0.00000000E+00  0.00000000E+00  0.00000000E+00
  0.00000000E+00  0.00000000E+00  0.00000000E+00
  0.00000000E+00  0.00000000E+00  0.00000000E+00
  0.00000000E+00  0.00000000E+00  0.00000000E+00
  0.00000000E+00  0.00000000E+00  0.00000000E+00
  0.00000000E+00  0.00000000E+00  0.00000000E+00
  0.00000000E+00  0.00000000E+00  0.00000000E+00
  0.00000000E+00  0.00000000E+00  0.00000000E+00
  0.00000000E+00  0.00000000E+00  0.00000000E+00
  0.00000000E+00  0.00000000E+00  0.00000000E+00
  0.00000000E+00  0.00000000E+00  0.00000000E+00
  0.00000000E+00  0.00000000E+00  0.00000000E+00
  0.00000000E+00  0.00000000E+00  0.00000000E+00
  0.00000000E+00  0.00000000E+00  0.00000000E+00
  0.00000000E+00  0.00000000E+00  0.00000000E+00
  0.00000000E+00  0.00000000E+00  0.00000000E+00
  0.00000000E+00  0.00000000E+00  0.00000000E+00
  0.00000000E+00  0.00000000E+00  0.00000000E+00
  0.00000000E+00  0.00000000E+00  0.00000000E+00
  0.00000000E+00  0.00000000E+00  0.00000000E+00
  0.00000000E+00  0.00000000E+00  0.00000000E+00
  0.00000000E+00  0.00000000E+00  0.00000000E+00
  0.00000000E+00  0.00000000E+00  0.00000000E+00
  0.00000000E+00  0.00000000E+00  0.00000000E+00
  0.00000000E+00  0.00000000E+00  0.00000000E+00
  0.00000000E+00  0.00000000E+00  0.00000000E+00
  0.00000000E+00  0.00000000E+00  0.00000000E+00
  0.00000000E+00  0.00000000E+00  0.00000000E+00
  0.00000000E+00  0.00000000E+00  0.00000000E+00
  0.00000000E+00  0.00000000E+00  0.00000000E+00
  0.00000000E+00  0.00000000E+00  0.00000000E+00
  0.00000000E+00  0.00000000E+00  0.00000000E+00
  0.00000000E+00  0.00000000E+00  0.00000000E+00
  0.00000000E+00  0.00000000E+00  0.00000000E+00
  0.00000000E+00  0.00000000E+00  0.00000000E+00
  0.00000000E+00  0.00000000E+00  0.00000000E+00
  0.00000000E+00  0.00000000E+00  0.00000000E+00
  0.00000000E+00  0.00000000E+00  0.00000000E+00
  0.00000000E+00  0.00000000E+00  0.00000000E+00
  0.00000000E+00  0.00000000E+00  0.00000000E+00
  0.00000000E+00  0.00000000E+00  0.00000000E+00
  0.00000000E+00  0.00000000E+00  0.00000000E+00
  0.00000000E+00  0.00000000E+00  0.00000000E+00
  0.00000000E+00  0.00000000E+00  0.00000000E+00
  0.00000000E+00  0.00000000E+00  0.00000000E+00
  0.00000000E+00  0.00000000E+00  0.00000000E+00
  0.00000000E+00  0.00000000E+00  0.00000000E+00
  0.00000000E+00  0.00000000E+00  0.00000000E+00
  0.00000000E+00  0.00000000E+00  0.00000000E+00
  0.00000000E+00  0.00000000E+00  0.00000000E+00
  0.00000000E+00  0.00000000E+00  0.00000000E+00
  0.00000000E+00  0.00000000E+00  0.00000000E+00
  0.00000000E+00  0.00000000E+00  0.00000000E+00
  0.00000000E+00  0.00000000E+00  0.00000000E+00
  0.00000000E+00  0.00000000E+00  0.00000000E+00
  0.00000000E+00  0.00000000E+00  0.00000000E+00
  0.00000000E+00  0.00000000E+00  0.00000000E+00
  0.00000000E+00  0.00000000E+00  0.00000000E+00
  0.00000000E+00  0.00000000E+00  0.00000000E+00
  0.00000000E+00  0.00000000E+00  0.00000000E+00
  0.00000000E+00  0.00000000E+00  0.00000000E+00
  0.00000000E+00  0.00000000E+00  0.00000000E+00
  0.00000000E+00  0.00000000E+00  0.00000000E+00
  0.00000000E+00  0.00000000E+00  0.00000000E+00
  0.00000000E+00  0.00000000E+00  0.00000000E+00
  0.00000000E+00  0.00000000E+00  0.00000000E+00
  0.00000000E+00  0.00000000E+00  0.00000000E+00
  0.00000000E+00  0.00000000E+00  0.00000000E+00
  0.00000000E+00  0.00000000E+00  0.00000000E+00
  0.00000000E+00  0.00000000E+00  0.00000000E+00
  0.00000000E+00  0.00000000E+00  0.00000000E+00
  0.00000000E+00  0.00000000E+00  0.00000000E+00
  0.00000000E+00  0.00000000E+00  0.00000000E+00
  0.00000000E+00  0.00000000E+00  0.00000000E+00
  0.00000000E+00  0.00000000E+00  0.00000000E+00
  0.00000000E+00  0.00000000E+00  0.00000000E+00
  0.00000000E+00  0.00000000E+00  0.00000000E+00
  0.00000000E+00  0.00000000E+00  0.00000000E+00
  0.00000000E+00  0.00000000E+00  0.00000000E+00
  0.00000000E+00  0.00000000E+00  0.00000000E+00
  0.00000000E+00  0.00000000E+00  0.00000000E+00
  0.00000000E+00  0.00000000E+00  0.00000000E+00
  0.00000000E+00  0.00000000E+00  0.00000000E+00
  0.00000000E+00  0.00000000E+00  0.00000000E+00
  0.00000000E+00  0.00000000E+00  0.00000000E+00
  0.00000000E+00  0.00000000E+00  0.00000000E+00
  0.00000000E+00  0.00000000E+00  0.00000000E+00
  0.00000000E+00  0.00000000E+00  0.00000000E+00
  0.00000000E+00  0.00000000E+00  0.00000000E+00
  0.00000000E+00  0.00000000E+00  0.00000000E+00
  0.00000000E+00  0.00000000E+00  0.00000000E+00
  0.00000000E+00  0.00000000E+00  0.00000000E+00
  0.00000000E+00  0.00000000E+00  0.00000000E+00
  0.00000000E+00  0.00000000E+00  0.00000000E+00
  0.00000000E+00  0.00000000E+00  0.00000000E+00
  0.00000000E+00  0.00000000E+00  0.00000000E+00
  0.00000000E+00  0.00000000E+00  0.00000000E+00
  0.00000000E+00  0.00000000E+00  0.00000000E+00
  0.00000000E+00  0.00000000E+00  0.00000000E+00
  0.00000000E+00  0.00000000E+00  0.00000000E+00
  0.00000000E+00  0.00000000E+00  0.00000000E+00
  0.00000000E+00  0.00000000E+00  0.00000000E+00
  0.00000000E+00  0.00000000E+00  0.00000000E+00
  0.00000000E+00  0.00000000E+00  0.00000000E+00
  0.00000000E+00  0.00000000E+00  0.00000000E+00
  0.00000000E+00  0.00000000E+00  0.00000000E+00
  0.00000000E+00  0.00000000E+00  0.00000000E+00
  0.00000000E+00  0.00000000E+00  0.00000000E+00
  0.00000000E+00  0.00000000E+00  0.00000000E+00
  0.00000000E+00  0.00000000E+00  0.00000000E+00
  0.00000000E+00  0.00000000E+00  0.00000000E+00
  0.00000000E+00  0.00000000E+00  0.00000000E+00
  0.00000000E+00  0.00000000E+00  0.00000000E+00
  0.00000000E+00  0.00000000E+00  0.00000000E+00
  0.00000000E+00  0.00000000E+00  0.00000000E+00
  0.00000000E+00  0.00000000E+00  0.00000000E+00
  0.00000000E+00  0.00000000E+00  0.00000000E+00
  0.00000000E+00  0.00000000E+00  0.00000000E+00
  0.00000000E+00  0.00000000E+00  0.00000000E+00
  0.00000000E+00  0.00000000E+00  0.00000000E+00
  0.00000000E+00  0.00000000E+00  0.00000000E+00
  0.00000000E+00  0.00000000E+00  0.00000000E+00
  0.00000000E+00  0.00000000E+00  0.00000000E+00
  0.00000000E+00  0.00000000E+00  0.00000000E+00
  0.00000000E+00  0.00000000E+00  0.00000000E+00
  0.00000000E+00  0.00000000E+00  0.00000000E+00
  0.00000000E+00  0.00000000E+00  0.00000000E+00
  0.00000000E+00  0.00000000E+00  0.00000000E+00
  0.00000000E+00  0.00000000E+00  0.00000000E+00
  0.00000000E+00  0.00000000E+00  0.00000000E+00
  0.00000000E+00  0.00000000E+00  0.00000000E+00
  0.00000000E+00  0.00000000E+00  0.00000000E+00
  0.00000000E+00  0.00000000E+00  0.00000000E+00
  0.00000000E+00  0.00000000E+00  0.00000000E+00
  0.00000000E+00  0.00000000E+00  0.00000000E+00
  0.00000000E+00  0.00000000E+00  0.00000000E+00
  0.00000000E+00  0.00000000E+00  0.00000000E+00
  0.00000000E+00  0.00000000E+00  0.00000000E+00
  0.00000000E+00  0.00000000E+00  0.00000000E+00
  0.00000000E+00  0.00000000E+00  0.00000000E+00
  0.00000000E+00  0.00000000E+00  0.00000000E+00
  0.00000000E+00  0.00000000E+00  0.00000000E+00
  0.00000000E+00  0.00000000E+00  0.00000000E+00
  0.00000000E+00  0.00000000E+00  0.00000000E+00
  0.00000000E+00  0.00000000E+00  0.00000000E+00
  0.00000000E+00  0.00000000E+00  0.00000000E+00
  0.00000000E+00  0.00000000E+00  0.00000000E+00
  0.00000000E+00  0.00000000E+00  0.00000000E+00
  0.00000000E+00  0.00000000E+00  0.00000000E+00
  0.00000000E+00  0.00000000E+00  0.00000000E+00
  0.00000000E+00  0.00000000E+00  0.00000000E+00
  0.00000000E+00  0.00000000E+00  0.00000000E+00
  0.00000000E+00  0.00000000E+00  0.00000000E+00
  0.00000000E+00  0.00000000E+00  0.00000000E+00
  0.00000000E+00  0.00000000E+00  0.00000000E+00
  0.00000000E+00  0.00000000E+00  0.00000000E+00
  0.00000000E+00  0.00000000E+00  0.00000000E+00
  0.00000000E+00  0.00000000E+00  0.00000000E+00
  0.00000000E+00  0.00000000E+00  0.00000000E+00
  0.00000000E+00  0.00000000E+00  0.00000000E+00
  0.00000000E+00  0.00000000E+00  0.00000000E+00
  0.00000000E+00  0.00000000E+00  0.00000000E+00
  0.00000000E+00  0.00000000E+00  0.00000000E+00
  0.00000000E+00  0.00000000E+00  0.00000000E+00
  0.00000000E+00  0.00000000E+00  0.00000000E+00
  0.00000000E+00  0.00000000E+00  0.00000000E+00
  0.00000000E+00  0.00000000E+00  0.00000000E+00
  0.00000000E+00  0.00000000E+00  0.00000000E+00
  0.00000000E+00  0.00000000E+00  0.00000000E+00
  0.00000000E+00  0.00000000E+00  0.00000000E+00
  0.00000000E+00  0.00000000E+00  0.00000000E+00
  0.00000000E+00  0.00000000E+00  0.00000000E+00
  0.00000000E+00  0.00000000E+00  0.00000000E+00
  0.00000000E+00  0.00000000E+00  0.00000000E+00
  0.00000000E+00  0.00000000E+00  0.00000000E+00
  0.00000000E+00  0.00000000E+00  0.00000000E+00
  0.00000000E+00  0.00000000E+00  0.00000000E+00
  0.00000000E+00  0.00000000E+00  0.00000000E+00
  0.00000000E+00  0.00000000E+00  0.00000000E+00
  0.00000000E+00  0.00000000E+00  0.00000000E+00
  0.00000000E+00  0.00000000E+00  0.00000000E+00
  0.00000000E+00  0.00000000E+00  0.00000000E+00
  0.00000000E+00  0.00000000E+00  0.00000000E+00
  0.00000000E+00  0.00000000E+00  0.00000000E+00
  0.00000000E+00  0.00000000E+00  0.00000000E+00
  0.00000000E+00  0.00000000E+00  0.00000000E+00
  0.00000000E+00  0.00000000E+00  0.00000000E+00
  0.00000000E+00  0.00000000E+00  0.00000000E+00
  0.00000000E+00  0.00000000E+00  0.00000000E+00
  0.00000000E+00  0.00000000E+00  0.00000000E+00
  0.00000000E+00  0.00000000E+00  0.00000000E+00
  0.00000000E+00  0.00000000E+00  0.00000000E+00
  0.00000000E+00  0.00000000E+00  0.00000000E+00
  0.00000000E+00  0.00000000E+00  0.00000000E+00
  0.00000000E+00  0.00000000E+00  0.00000000E+00
  0.00000000E+00  0.00000000E+00  0.00000000E+00
  0.00000000E+00  0.00000000E+00  0.00000000E+00
  0.00000000E+00  0.00000000E+00  0.00000000E+00
  0.00000000E+00  0.00000000E+00  0.00000000E+00
  0.00000000E+00  0.00000000E+00  0.00000000E+00
  0.00000000E+00  0.00000000E+00  0.00000000E+00
  0.00000000E+00  0.00000000E+00  0.00000000E+00
  0.00000000E+00  0.00000000E+00  0.00000000E+00
  0.00000000E+00  0.00000000E+00  0.00000000E+00
  0.00000000E+00  0.00000000E+00  0.00000000E+00
  0.00000000E+00  0.00000000E+00  0.00000000E+00
  0.00000000E+00  0.00000000E+00  0.00000000E+00
  0.00000000E+00  0.00000000E+00  0.00000000E+00
  0.00000000E+00  0.00000000E+00  0.00000000E+00
  0.00000000E+00  0.00000000E+00  0.00000000E+00
  0.00000000E+00  0.00000000E+00  0.00000000E+00
  0.00000000E+00  0.00000000E+00  0.00000000E+00
  0.00000000E+00  0.00000000E+00  0.00000000E+00
  0.00000000E+00  0.00000000E+00  0.00000000E+00
  0.00000000E+00  0.00000000E+00  0.00000000E+00
  0.00000000E+00  0.00000000E+00  0.00000000E+00
  0.00000000E+00  0.00000000E+00  0.00000000E+00
  0.00000000E+00  0.00000000E+00  0.00000000E+00
  0.00000000E+00  0.00000000E+00  0.00000000E+00
  0.00000000E+00  0.00000000E+00  0.00000000E+00
  0.00000000E+00  0.00000000E+00  0.00000000E+00
  0.00000000E+00  0.00000000E+00  0.00000000E+00