Species order: X N B                    
   2.51242800000000     
     5.9449720136058266    0.0000000000000000    0.0000000000000000
    -2.9724860068029120    5.1484967885702053   -0.0000000000000001
     0.0000000000000000    0.0000000000000009    5.3101128803662583
   Al   N    B 
     1   143   143
Direct
  0.4870613782845306  0.4101973558089300  0.3750000000000000
  0.1111747986849645  0.0555951081087755  0.1248635439104329
  0.6112670965961103  0.5557176350477951  0.1231038913896692
  0.4445212732063232  0.0555760653041271  0.1248531901595333
  0.9444807597040141  0.5555628491504113  0.1249743923481862
  0.7778626906143828  0.0555980119738596  0.1248543525488550
  0.1111441860363677  0.7222387596848485  0.6250967114259779
  0.4445212732063232  0.7222785412355323  0.6251468098404660
  0.2778518635164902  0.2222558029368203  0.6250037537711867
  0.7778556294984149  0.7223014081692182  0.6253112594270428
  0.6112022495669541  0.2222193125010541  0.6254199308823944
  0.9445216443188477  0.2222506045890500  0.6251199226543847
  0.2778299355300079  0.7222474673832948  0.1249017942442602
  0.1111853514922547  0.2222593424127917  0.1248829378712976
  0.4445503167254895  0.2222442288423449  0.1247375742607860
  0.6112022495669541  0.7223162703992289  0.1245800691176046
  0.9444807597040141  0.7222512438869393  0.1249743923481862
  0.7778593977398400  0.2222309314695665  0.1248865533141869
  0.1111552880309659  0.8889205897740832  0.6250918248319813
  0.4445115703972216  0.8889224518652754  0.6250981927164656
  0.2778518635164902  0.3889293939129985  0.6250037537711867
  0.6112670965961103  0.3888827948816433  0.6268961086103307
  0.7778593977398400  0.8889617996036023  0.6251134466858129
  0.9445062490997028  0.3888973490510421  0.6250427363842458
  0.1111747986849645  0.3889130239095178  0.1248635439104329
  0.2778299355300079  0.8889158014800431  0.1249017942442602
  0.6111919107371951  0.8889484270980251  0.1248937801796782
  0.4445753787414672  0.3889543560373974  0.1263358217877908
  0.9445062490997028  0.8889422333819884  0.1249572636157537
  0.7778556294984149  0.3888875546625254  0.1246887405729572
  0.2778479242053155  0.5555907047236058  0.6250836337401060
  0.1111747986849645  0.0555951081087755  0.6251364560895671
  0.6112670965961103  0.5557176350477951  0.6268961086103307
  0.4445212732063232  0.0555760653041271  0.6251468098404660
  0.9444807597040141  0.5555628491504113  0.6250256076518134
  0.1111552880309659  0.5555680315902122  0.1249081751680187
  0.7778626906143828  0.0555980119738596  0.6251456474511442
  0.2778479242053155  0.0555905528150452  0.1249163662598939
  0.4445503167254895  0.5556394212164815  0.1247375742607860
  0.7778335847476693  0.5555834590405018  0.1245058446671168
  0.6111919107371951  0.0555768169724980  0.1248937801796782
  0.4445503167254895  0.5556394212164815  0.6252624257392132
  0.9445216443188477  0.0556043730631335  0.1248800773456157
  0.2778299355300079  0.7222474673832948  0.6250982057557397
  0.1111853514922547  0.2222593424127917  0.6251170621287024
  0.4445503167254895  0.2222442288423449  0.6252624257392132
  0.6112022495669541  0.7223162703992289  0.6254199308823944
  0.9444807597040141  0.7222512438869393  0.6250256076518134
  0.7778593977398400  0.2222309314695665  0.6251134466858129
  0.1111441860363677  0.7222387596848485  0.1249032885740219
  0.4445212732063232  0.7222785412355323  0.1248531901595333
  0.2778518635164902  0.2222558029368203  0.1249962462288133
  0.7778556294984149  0.7223014081692182  0.1246887405729572
  0.6112022495669541  0.2222193125010541  0.1245800691176046
  0.9445216443188477  0.2222506045890500  0.1248800773456157
  0.1111747986849645  0.3889130239095178  0.6251364560895671
  0.2778299355300079  0.8889158014800431  0.6250982057557397
  0.6111919107371951  0.8889484270980251  0.6251062198203213
  0.4445753787414672  0.3889543560373974  0.6236641782122085
  0.9445062490997028  0.8889422333819884  0.6250427363842458
  0.1111552880309659  0.8889205897740832  0.1249081751680187
  0.7778556294984149  0.3888875546625254  0.6253112594270428
  0.4445115703972216  0.8889224518652754  0.1249018072835337
  0.2778518635164902  0.3889293939129985  0.1249962462288133
  0.2778479242053155  0.5555907047236058  0.1249163662598939
  0.6112670965961103  0.3888827948816433  0.1231038913896692
  0.7778593977398400  0.8889617996036023  0.1248865533141869
  0.9445062490997028  0.3888973490510421  0.1249572636157537
  0.1111552880309659  0.5555680315902122  0.6250918248319813
  0.2778479242053155  0.0555905528150452  0.6250836337401060
  0.7778335847476693  0.5555834590405018  0.6254941553328831
  0.6111919107371951  0.0555768169724980  0.6251062198203213
  0.9445216443188477  0.0556043730631335  0.6251199226543847
  0.0586558830890282  0.1127702641652100  0.3750000000000000
  0.5563721446153417  0.6197313773618891  0.3750000000000000
  0.3885260238725862  0.1059590621697531  0.3750000000000000
  0.8866501219323243  0.6099917276328346  0.3750000000000000
  0.7245508567646749  0.1114869153507633  0.3750000000000000
  0.0555436744485801  0.7777719730832108  0.8750000000000000
  0.3888697306447516  0.7777711492239499  0.8750000000000000
  0.2222075992821128  0.2777704663077240  0.8750000000000000
  0.7222064182343280  0.7777690007635192  0.8750000000000000
  0.5555341062921108  0.2777608759798397  0.8750000000000000
  0.8888753495511400  0.2777737556526965  0.8750000000000000
  0.2212096615363096  0.7772714974348232  0.3750000000000000
  0.0586558830890282  0.2792189522571539  0.3750000000000000
  0.3914426925236305  0.2719900434750142  0.3750000000000000
  0.5565482509435079  0.7819801677383791  0.3750000000000000
  0.8889086982492359  0.7781270921469544  0.3750000000000000
  0.7240984281955171  0.2766800252617126  0.3750000000000000
  0.0555410194869547  0.9444348630244390  0.8750000000000000
  0.3888697306447516  0.9444319147541375  0.8750000000000000
  0.2222065597762795  0.4444392900455247  0.8750000000000000
  0.5555284517898481  0.4444308925615884  0.8750000000000000
  0.7222020573838365  0.9444340167747572  0.8750000000000000
  0.8888800010118429  0.4444407407316791  0.8750000000000000
  0.0562807939785517  0.4451311970784009  0.3750000000000000
  0.2214906256147655  0.9427391308669383  0.3750000000000000
  0.5566304002546146  0.9449818667939709  0.3750000000000000
  0.3914426925236305  0.4527859823819520  0.3750000000000000
  0.8912835096197574  0.9462252327872378  0.3750000000000000
  0.7205872528377367  0.4421637938250714  0.3750000000000000
  0.2222051883585815  0.6111047484290757  0.8750000000000000
  0.0555406144505395  0.1111012358382883  0.8750000000000000
  0.5555341062921108  0.6111065636456074  0.8750000000000000
  0.3888714541397517  0.1110975612039114  0.8750000000000000
  0.8888853194732571  0.6111093264032998  0.8750000000000000
  0.0543540664436298  0.6108412130119879  0.3750000000000000
  0.7222020573838365  0.1111013739424153  0.8750000000000000
  0.2235099169029566  0.1104076826600744  0.3750000000000000
  0.3885260238725862  0.6159002950361770  0.3750000000000000
  0.7205872528377367  0.6117567923460016  0.3750000000000000
  0.5565482509435079  0.1079014165384648  0.3750000000000000
  0.3888714541397517  0.6111072262691837  0.8750000000000000
  0.8918518750198713  0.1125926041766068  0.3750000000000000
  0.2222054837695601  0.7777694085514484  0.8750000000000000
  0.0555406144505395  0.2777727119455869  0.8750000000000000
  0.3888756275631878  0.2777716825035710  0.8750000000000000
  0.5555342195938431  0.7777712262134997  0.8750000000000000
  0.8888800010118429  0.7777725936134996  0.8750000000000000
  0.7222064182343280  0.2777707508041451  0.8750000000000000
  0.0543540664436298  0.7768461867649773  0.3750000000000000
  0.3886029207859403  0.7792238438763989  0.3750000000000000
  0.2267946418433642  0.2800639875883502  0.3750000000000000
  0.7240984281955171  0.7807517362671397  0.3750000000000000
  0.5563721446153417  0.2699741005867887  0.3750000000000000
  0.8912835096197574  0.2783916101658562  0.3750000000000000
  0.0555410194869547  0.4444394897958445  0.8750000000000000
  0.2222051883585815  0.9444337732628413  0.8750000000000000
  0.5555322450143078  0.9444327891738186  0.8750000000000000
  0.3888756275631878  0.4444372783929523  0.8750000000000000
  0.8888753495511400  0.9444349272317799  0.8750000000000000
  0.0562807939785517  0.9444829302334790  0.3750000000000000
  0.7222152553603799  0.4444422018080421  0.8750000000000000
  0.3886029207859403  0.9427124102428766  0.3750000000000000
  0.2235099169029566  0.4464355675762174  0.3750000000000000
  0.2214906256147655  0.6120848280811626  0.3750000000000000
  0.7245508567646749  0.9463972747472471  0.3750000000000000
  0.8889086982492359  0.4441149394356169  0.3750000000000000
  0.0555436744485801  0.6111050346987051  0.8750000000000000
  0.2222065597762795  0.1111006030640896  0.8750000000000000
  0.7222152553603799  0.6111063868856759  0.8750000000000000
  0.5555342195938431  0.1110963267136797  0.8750000000000000
  0.8888737724346634  0.1111035528840031  0.8750000000000000
  0.1131406761627008  0.0560385006971474  0.3750000000000000
  0.6084896476363387  0.5610950246243341  0.3750000000000000
  0.4451639688126093  0.0529303275996117  0.3750000000000000
  0.9429586487502234  0.5551048294417290  0.3750000000000000
  0.7806972344830766  0.0570152839082057  0.3750000000000000
  0.1110895899475172  0.7222114616404229  0.8750000000000000
  0.4444268551672526  0.7221908463504094  0.8750000000000000
  0.2778012073168524  0.2222435919076800  0.8750000000000000
  0.7777327867913238  0.7221702310323432  0.8750000000000000
  0.6110746674666540  0.2222406087731243  0.8750000000000000
  0.9444399779163849  0.2222264807122639  0.8750000000000000
  0.2774223141851658  0.7227748322414553  0.3750000000000000
  0.1159460939454680  0.2246397136393985  0.3750000000000000
  0.4444388718381380  0.2163862381707861  0.3750000000000000
  0.6128426909335283  0.7279089370375278  0.3750000000000000
  0.9429586487502234  0.7211871526418310  0.3750000000000000
  0.7802161789907687  0.2225084070354289  0.3750000000000000
  0.1110997722720711  0.8888855432503373  0.8750000000000000
  0.4444215933908789  0.8888774633621035  0.8750000000000000
  0.2778012073168524  0.3888909487425008  0.8750000000000000
  0.6110737982417085  0.3888908670612576  0.8750000000000000
  0.7777473134303724  0.8888500221366837  0.8750000000000000
  0.9444254141792143  0.3888921114680378  0.8750000000000000
  0.1131406761627008  0.3904355087988817  0.3750000000000000
  0.2774223141851658  0.8879808152770384  0.3750000000000000
  0.6131617651728249  0.8914436216958699  0.3750000000000000
  0.9453426764217302  0.8892768778766581  0.3750000000000000
  0.7774325142408690  0.3881223954701132  0.3750000000000000
  0.2777829707872341  0.5555411236824787  0.8750000000000000
  0.1111208245167392  0.0555625642034748  0.8750000000000000
  0.6110737982417085  0.5555162645137793  0.8750000000000000
  0.4444268551672526  0.0555693421501789  0.8750000000000000
  0.9444119212230095  0.5555463328885398  0.8750000000000000
  0.1106474877121943  0.5560287328298547  0.3750000000000000
  0.7777550191640207  0.0555441762486784  0.8750000000000000
  0.2779249176512212  0.0538053760747750  0.3750000000000000
  0.4444388718381380  0.5613859670006891  0.3750000000000000
  0.7741164299134071  0.5537248816233725  0.3750000000000000
  0.6131617651728249  0.0550514768102840  0.3750000000000000
  0.4444451970411816  0.5555306435808723  0.8750000000000000
  0.9477222812831676  0.0573976899175980  0.3750000000000000
  0.2777645109009011  0.7222081500029388  0.8750000000000000
  0.1111307158717115  0.2222320246025199  0.8750000000000000
  0.4444451970411816  0.2222478867936451  0.8750000000000000
  0.6110746674666540  0.7221673920268581  0.8750000000000000
  0.9444119212230095  0.7221989216678072  0.8750000000000000
  0.7777473134303724  0.2222306246270167  0.8750000000000000
  0.1100607947421545  0.7216970640377419  0.3750000000000000
  0.4451639688126093  0.7255669745463332  0.3750000000000000
  0.2826880271566855  0.2230956274408122  0.3750000000000000
  0.7774325142408690  0.7226434521040843  0.3750000000000000
  0.6128426909335283  0.2182670872293298  0.3750000000000000
  0.9477222812831676  0.2236579246989053  0.3750000000000000
  0.1111208245167392  0.3888915936465926  0.8750000000000000
  0.2777645109009011  0.8888896942312907  0.8750000000000000
  0.6110795086170535  0.8888587460484266  0.8750000000000000
  0.4444557117520720  0.3888945225427006  0.8750000000000000
  0.9444254141792143  0.8888666360445059  0.8750000000000000
  0.1106474877121943  0.8879520882156682  0.3750000000000000
  0.7777327867913238  0.3888958890923092  0.8750000000000000
  0.4451999719569139  0.8892666526451208  0.3750000000000000
  0.2826880271566855  0.3929257330492025  0.3750000000000000
  0.2779249176512212  0.5574528749097826  0.3750000000000000
  0.6084896476363387  0.3807279563453319  0.3750000000000000
  0.7802161789907687  0.8910411052886675  0.3750000000000000
  0.9453426764217302  0.3893991318783996  0.3750000000000000
  0.1110997722720711  0.5555475623550626  0.8750000000000000
  0.2777829707872341  0.0555751804380904  0.8750000000000000
  0.7777281405231568  0.5555307369282458  0.8750000000000000
  0.6110795086170535  0.0555540959019526  0.8750000000000000
  0.9444399779163849  0.0555468305374579  0.8750000000000000
  0.0556828552210346  0.1112014041053422  0.1251276341320665
  0.5556697961328292  0.6110758739295725  0.1247669570339739
  0.3890269876121953  0.1112789305575299  0.1252066951920834
  0.8887921037421215  0.6110627185377328  0.1251578123894659
  0.7222904473992443  0.1111525824156343  0.1250796540120057
  0.0555508915037565  0.7777966965816265  0.6248767532553313
  0.3889815176833833  0.7777835714080831  0.6249075220102176
  0.2224071484640855  0.2778702408987104  0.6245451020237057
  0.7222395738476803  0.7777620937979717  0.6249859269189473
  0.5556697961328292  0.2779272555365915  0.6252330429660262
  0.8889439317825449  0.2777898435568111  0.6248859703393237
  0.2222737768007264  0.7778035550670315  0.1250676783670663
  0.0556828552210346  0.2778147844490278  0.1251276341320665
  0.3890158569804698  0.2778212242601278  0.1261789354306912
  0.5556451295145954  0.7777641233857959  0.1250850962420426
  0.8888627993039805  0.7777778163559578  0.1251533209037169
  0.7222395738476803  0.2778108133830447  0.1250140730810530
  0.0556214554746807  0.9445263232031992  0.6248764605826546
  0.3889815176833833  0.9445312796086368  0.6249075220102176
  0.2223742233104800  0.4444430528070575  0.6247376479880463
  0.5558541396144241  0.4445937364738763  0.6243810480459865
  0.7222904473992443  0.9444711983169460  0.6249203459879940
  0.8888627993039805  0.4444183162813595  0.6248466790962818
  0.0556214554746807  0.4444284656048105  0.1251235394173455
  0.2223091414272907  0.9445562922461217  0.1251226872920962
  0.5556407322383468  0.9444870327858385  0.1251024656867372
  0.3890158569804698  0.4445279660536776  0.1261789354306912
  0.8889439317825449  0.9444874215590697  0.1251140296606762
  0.7221547114868437  0.4444177474638777  0.1245495333591880
  0.2223091414272907  0.6110861825145031  0.6248773127079041
  0.0556828552210346  0.1112014041053422  0.6248723658679335
  0.5556697961328292  0.6110758739295725  0.6252330429660262
  0.3890269876121953  0.1112789305575299  0.6247933048079164
  0.8887921037421215  0.6110627185377328  0.6248421876105338
  0.0555508915037565  0.6110875282554672  0.1251232467446693
  0.7222904473992443  0.1111525824156343  0.6249203459879940
  0.2223742233104800  0.1112645038367583  0.1252623520119527
  0.3890269876121953  0.6110813903880091  0.1252066951920834
  0.7221547114868437  0.6110702973563016  0.1245495333591880
  0.5556451295145954  0.1112143394621345  0.1250850962420426
  0.3890269876121953  0.6110813903880091  0.6247933048079164
  0.8889769464937616  0.1111551399135521  0.1250598758973856
  0.2222737768007264  0.7778035550670315  0.6249323216329344
  0.0556828552210345  0.2778147844490278  0.6248723658679335
  0.3890158569804698  0.2778212242601278  0.6238210645693084
  0.5556451295145954  0.7777641233857959  0.6249149037579579
  0.8888627993039805  0.7777778163559578  0.6248466790962818
  0.7222395738476803  0.2778108133830447  0.6249859269189473
  0.0555508915037565  0.7777966965816265  0.1251232467446693
  0.3889815176833833  0.7777835714080831  0.1250924779897827
  0.2224071484640855  0.2778702408987104  0.1254548979762938
  0.7222395738476803  0.7777620937979717  0.1250140730810530
  0.5556697961328292  0.2779272555365915  0.1247669570339739
  0.8889439317825449  0.2777898435568111  0.1251140296606762
  0.0556214554746807  0.4444284656048105  0.6248764605826546
  0.2223091414272907  0.9445562922461217  0.6248773127079041
  0.5556407322383468  0.9444870327858385  0.6248975343132620
  0.3890158569804698  0.4445279660536776  0.6238210645693084
  0.8889439317825449  0.9444874215590697  0.6248859703393237
  0.0556214554746807  0.9445263232031992  0.1251235394173455
  0.7221547114868437  0.4444177474638777  0.6254504666408122
  0.3889815176833833  0.9445312796086368  0.1250924779897827
  0.2223742233104800  0.4444430528070575  0.1252623520119527
  0.2223091414272907  0.6110861825145031  0.1251226872920962
  0.5558541396144241  0.4445937364738763  0.1256189519540130
  0.7222904473992443  0.9444711983169460  0.1250796540120057
  0.8888627993039805  0.4444183162813595  0.1251533209037169
  0.0555508915037565  0.6110875282554672  0.6248767532553313
  0.2223742233104800  0.1112645038367583  0.6247376479880463
  0.7221547114868437  0.6110702973563016  0.6254504666408122
  0.5556451295145954  0.1112143394621345  0.6249149037579579
  0.8889769464937616  0.1111551399135521  0.6249401241026139
 
  0.00000000E+00  0.00000000E+00  0.00000000E+00
  0.00000000E+00  0.00000000E+00  0.00000000E+00
  0.00000000E+00  0.00000000E+00  0.00000000E+00
  0.00000000E+00  0.00000000E+00  0.00000000E+00
  0.00000000E+00  0.00000000E+00  0.00000000E+00
  0.00000000E+00  0.00000000E+00  0.00000000E+00
  0.00000000E+00  0.00000000E+00  0.00000000E+00
  0.00000000E+00  0.00000000E+00  0.00000000E+00
  0.00000000E+00  0.00000000E+00  0.00000000E+00
  0.00000000E+00  0.00000000E+00  0.00000000E+00
  0.00000000E+00  0.00000000E+00  0.00000000E+00
  0.00000000E+00  0.00000000E+00  0.00000000E+00
  0.00000000E+00  0.00000000E+00  0.00000000E+00
  0.00000000E+00  0.00000000E+00  0.00000000E+00
  0.00000000E+00  0.00000000E+00  0.00000000E+00
  0.00000000E+00  0.00000000E+00  0.00000000E+00
  0.00000000E+00  0.00000000E+00  0.00000000E+00
  0.00000000E+00  0.00000000E+00  0.00000000E+00
  0.00000000E+00  0.00000000E+00  0.00000000E+00
  0.00000000E+00  0.00000000E+00  0.00000000E+00
  0.00000000E+00  0.00000000E+00  0.00000000E+00
  0.00000000E+00  0.00000000E+00  0.00000000E+00
  0.00000000E+00  0.00000000E+00  0.00000000E+00
  0.00000000E+00  0.00000000E+00  0.00000000E+00
  0.00000000E+00  0.00000000E+00  0.00000000E+00
  0.00000000E+00  0.00000000E+00  0.00000000E+00
  0.00000000E+00  0.00000000E+00  0.00000000E+00
  0.00000000E+00  0.00000000E+00  0.00000000E+00
  0.00000000E+00  0.00000000E+00  0.00000000E+00
  0.00000000E+00  0.00000000E+00  0.00000000E+00
  0.00000000E+00  0.00000000E+00  0.00000000E+00
  0.00000000E+00  0.00000000E+00  0.00000000E+00
  0.00000000E+00  0.00000000E+00  0.00000000E+00
  0.00000000E+00  0.00000000E+00  0.00000000E+00
  0.00000000E+00  0.00000000E+00  0.00000000E+00
  0.00000000E+00  0.00000000E+00  0.00000000E+00
  0.00000000E+00  0.00000000E+00  0.00000000E+00
  0.00000000E+00  0.00000000E+00  0.00000000E+00
  0.00000000E+00  0.00000000E+00  0.00000000E+00
  0.00000000E+00  0.00000000E+00  0.00000000E+00
  0.00000000E+00  0.00000000E+00  0.00000000E+00
  0.00000000E+00  0.00000000E+00  0.00000000E+00
  0.00000000E+00  0.00000000E+00  0.00000000E+00
  0.00000000E+00  0.00000000E+00  0.00000000E+00
  0.00000000E+00  0.00000000E+00  0.00000000E+00
  0.00000000E+00  0.00000000E+00  0.00000000E+00
  0.00000000E+00  0.00000000E+00  0.00000000E+00
  0.00000000E+00  0.00000000E+00  0.00000000E+00
  0.00000000E+00  0.00000000E+00  0.00000000E+00
  0.00000000E+00  0.00000000E+00  0.00000000E+00
  0.00000000E+00  0.00000000E+00  0.00000000E+00
  0.00000000E+00  0.00000000E+00  0.00000000E+00
  0.00000000E+00  0.00000000E+00  0.00000000E+00
  0.00000000E+00  0.00000000E+00  0.00000000E+00
  0.00000000E+00  0.00000000E+00  0.00000000E+00
  0.00000000E+00  0.00000000E+00  0.00000000E+00
  0.00000000E+00  0.00000000E+00  0.00000000E+00
  0.00000000E+00  0.00000000E+00  0.00000000E+00
  0.00000000E+00  0.00000000E+00  0.00000000E+00
  0.00000000E+00  0.00000000E+00  0.00000000E+00
  0.00000000E+00  0.00000000E+00  0.00000000E+00
  0.00000000E+00  0.00000000E+00  0.00000000E+00
  0.00000000E+00  0.00000000E+00  0.00000000E+00
  0.00000000E+00  0.00000000E+00  0.00000000E+00
  0.00000000E+00  0.00000000E+00  0.00000000E+00
  0.00000000E+00  0.00000000E+00  0.00000000E+00
  0.00000000E+00  0.00000000E+00  0.00000000E+00
  0.00000000E+00  0.00000000E+00  0.00000000E+00
  0.00000000E+00  0.00000000E+00  0.00000000E+00
  0.00000000E+00  0.00000000E+00  0.00000000E+00
  0.00000000E+00  0.00000000E+00  0.00000000E+00
  0.00000000E+00  0.00000000E+00  0.00000000E+00
  0.00000000E+00  0.00000000E+00  0.00000000E+00
  0.00000000E+00  0.00000000E+00  0.00000000E+00
  0.00000000E+00  0.00000000E+00  0.00000000E+00
  0.00000000E+00  0.00000000E+00  0.00000000E+00
  0.00000000E+00  0.00000000E+00  0.00000000E+00
  0.00000000E+00  0.00000000E+00  0.00000000E+00
  0.00000000E+00  0.00000000E+00  0.00000000E+00
  0.00000000E+00  0.00000000E+00  0.00000000E+00
  0.00000000E+00  0.00000000E+00  0.00000000E+00
  0.00000000E+00  0.00000000E+00  0.00000000E+00
  0.00000000E+00  0.00000000E+00  0.00000000E+00
  0.00000000E+00  0.00000000E+00  0.00000000E+00
  0.00000000E+00  0.00000000E+00  0.00000000E+00
  0.00000000E+00  0.00000000E+00  0.00000000E+00
  0.00000000E+00  0.00000000E+00  0.00000000E+00
  0.00000000E+00  0.00000000E+00  0.00000000E+00
  0.00000000E+00  0.00000000E+00  0.00000000E+00
  0.00000000E+00  0.00000000E+00  0.00000000E+00
  0.00000000E+00  0.00000000E+00  0.00000000E+00
  0.00000000E+00  0.00000000E+00  0.00000000E+00
  0.00000000E+00  0.00000000E+00  0.00000000E+00
  0.00000000E+00  0.00000000E+00  0.00000000E+00
  0.00000000E+00  0.00000000E+00  0.00000000E+00
  0.00000000E+00  0.00000000E+00  0.00000000E+00
  0.00000000E+00  0.00000000E+00  0.00000000E+00
  0.00000000E+00  0.00000000E+00  0.00000000E+00
  0.00000000E+00  0.00000000E+00  0.00000000E+00
  0.00000000E+00  0.00000000E+00  0.00000000E+00
  0.00000000E+00  0.00000000E+00  0.00000000E+00
  0.00000000E+00  0.00000000E+00  0.00000000E+00
  0.00000000E+00  0.00000000E+00  0.00000000E+00
  0.00000000E+00  0.00000000E+00  0.00000000E+00
  0.00000000E+00  0.00000000E+00  0.00000000E+00
  0.00000000E+00  0.00000000E+00  0.00000000E+00
  0.00000000E+00  0.00000000E+00  0.00000000E+00
  0.00000000E+00  0.00000000E+00  0.00000000E+00
  0.00000000E+00  0.00000000E+00  0.00000000E+00
  0.00000000E+00  0.00000000E+00  0.00000000E+00
  0.00000000E+00  0.00000000E+00  0.00000000E+00
  0.00000000E+00  0.00000000E+00  0.00000000E+00
  0.00000000E+00  0.00000000E+00  0.00000000E+00
  0.00000000E+00  0.00000000E+00  0.00000000E+00
  0.00000000E+00  0.00000000E+00  0.00000000E+00
  0.00000000E+00  0.00000000E+00  0.00000000E+00
  0.00000000E+00  0.00000000E+00  0.00000000E+00
  0.00000000E+00  0.00000000E+00  0.00000000E+00
  0.00000000E+00  0.00000000E+00  0.00000000E+00
  0.00000000E+00  0.00000000E+00  0.00000000E+00
  0.00000000E+00  0.00000000E+00  0.00000000E+00
  0.00000000E+00  0.00000000E+00  0.00000000E+00
  0.00000000E+00  0.00000000E+00  0.00000000E+00
  0.00000000E+00  0.00000000E+00  0.00000000E+00
  0.00000000E+00  0.00000000E+00  0.00000000E+00
  0.00000000E+00  0.00000000E+00  0.00000000E+00
  0.00000000E+00  0.00000000E+00  0.00000000E+00
  0.00000000E+00  0.00000000E+00  0.00000000E+00
  0.00000000E+00  0.00000000E+00  0.00000000E+00
  0.00000000E+00  0.00000000E+00  0.00000000E+00
  0.00000000E+00  0.00000000E+00  0.00000000E+00
  0.00000000E+00  0.00000000E+00  0.00000000E+00
  0.00000000E+00  0.00000000E+00  0.00000000E+00
  0.00000000E+00  0.00000000E+00  0.00000000E+00
  0.00000000E+00  0.00000000E+00  0.00000000E+00
  0.00000000E+00  0.00000000E+00  0.00000000E+00
  0.00000000E+00  0.00000000E+00  0.00000000E+00
  0.00000000E+00  0.00000000E+00  0.00000000E+00
  0.00000000E+00  0.00000000E+00  0.00000000E+00
  0.00000000E+00  0.00000000E+00  0.00000000E+00
  0.00000000E+00  0.00000000E+00  0.00000000E+00
  0.00000000E+00  0.00000000E+00  0.00000000E+00
  0.00000000E+00  0.00000000E+00  0.00000000E+00
  0.00000000E+00  0.00000000E+00  0.00000000E+00
  0.00000000E+00  0.00000000E+00  0.00000000E+00
  0.00000000E+00  0.00000000E+00  0.00000000E+00
  0.00000000E+00  0.00000000E+00  0.00000000E+00
  0.00000000E+00  0.00000000E+00  0.00000000E+00
  0.00000000E+00  0.00000000E+00  0.00000000E+00
  0.00000000E+00  0.00000000E+00  0.00000000E+00
  0.00000000E+00  0.00000000E+00  0.00000000E+00
  0.00000000E+00  0.00000000E+00  0.00000000E+00
  0.00000000E+00  0.00000000E+00  0.00000000E+00
  0.00000000E+00  0.00000000E+00  0.00000000E+00
  0.00000000E+00  0.00000000E+00  0.00000000E+00
  0.00000000E+00  0.00000000E+00  0.00000000E+00
  0.00000000E+00  0.00000000E+00  0.00000000E+00
  0.00000000E+00  0.00000000E+00  0.00000000E+00
  0.00000000E+00  0.00000000E+00  0.00000000E+00
  0.00000000E+00  0.00000000E+00  0.00000000E+00
  0.00000000E+00  0.00000000E+00  0.00000000E+00
  0.00000000E+00  0.00000000E+00  0.00000000E+00
  0.00000000E+00  0.00000000E+00  0.00000000E+00
  0.00000000E+00  0.00000000E+00  0.00000000E+00
  0.00000000E+00  0.00000000E+00  0.00000000E+00
  0.00000000E+00  0.00000000E+00  0.00000000E+00
  0.00000000E+00  0.00000000E+00  0.00000000E+00
  0.00000000E+00  0.00000000E+00  0.00000000E+00
  0.00000000E+00  0.00000000E+00  0.00000000E+00
  0.00000000E+00  0.00000000E+00  0.00000000E+00
  0.00000000E+00  0.00000000E+00  0.00000000E+00
  0.00000000E+00  0.00000000E+00  0.00000000E+00
  0.00000000E+00  0.00000000E+00  0.00000000E+00
  0.00000000E+00  0.00000000E+00  0.00000000E+00
  0.00000000E+00  0.00000000E+00  0.00000000E+00
  0.00000000E+00  0.00000000E+00  0.00000000E+00
  0.00000000E+00  0.00000000E+00  0.00000000E+00
  0.00000000E+00  0.00000000E+00  0.00000000E+00
  0.00000000E+00  0.00000000E+00  0.00000000E+00
  0.00000000E+00  0.00000000E+00  0.00000000E+00
  0.00000000E+00  0.00000000E+00  0.00000000E+00
  0.00000000E+00  0.00000000E+00  0.00000000E+00
  0.00000000E+00  0.00000000E+00  0.00000000E+00
  0.00000000E+00  0.00000000E+00  0.00000000E+00
  0.00000000E+00  0.00000000E+00  0.00000000E+00
  0.00000000E+00  0.00000000E+00  0.00000000E+00
  0.00000000E+00  0.00000000E+00  0.00000000E+00
  0.00000000E+00  0.00000000E+00  0.00000000E+00
  0.00000000E+00  0.00000000E+00  0.00000000E+00
  0.00000000E+00  0.00000000E+00  0.00000000E+00
  0.00000000E+00  0.00000000E+00  0.00000000E+00
  0.00000000E+00  0.00000000E+00  0.00000000E+00
  0.00000000E+00  0.00000000E+00  0.00000000E+00
  0.00000000E+00  0.00000000E+00  0.00000000E+00
  0.00000000E+00  0.00000000E+00  0.00000000E+00
  0.00000000E+00  0.00000000E+00  0.00000000E+00
  0.00000000E+00  0.00000000E+00  0.00000000E+00
  0.00000000E+00  0.00000000E+00  0.00000000E+00
  0.00000000E+00  0.00000000E+00  0.00000000E+00
  0.00000000E+00  0.00000000E+00  0.00000000E+00
  0.00000000E+00  0.00000000E+00  0.00000000E+00
  0.00000000E+00  0.00000000E+00  0.00000000E+00
  0.00000000E+00  0.00000000E+00  0.00000000E+00
  0.00000000E+00  0.00000000E+00  0.00000000E+00
  0.00000000E+00  0.00000000E+00  0.00000000E+00
  0.00000000E+00  0.00000000E+00  0.00000000E+00
  0.00000000E+00  0.00000000E+00  0.00000000E+00
  0.00000000E+00  0.00000000E+00  0.00000000E+00
  0.00000000E+00  0.00000000E+00  0.00000000E+00
  0.00000000E+00  0.00000000E+00  0.00000000E+00
  0.00000000E+00  0.00000000E+00  0.00000000E+00
  0.00000000E+00  0.00000000E+00  0.00000000E+00
  0.00000000E+00  0.00000000E+00  0.00000000E+00
  0.00000000E+00  0.00000000E+00  0.00000000E+00
  0.00000000E+00  0.00000000E+00  0.00000000E+00
  0.00000000E+00  0.00000000E+00  0.00000000E+00
  0.00000000E+00  0.00000000E+00  0.00000000E+00
  0.00000000E+00  0.00000000E+00  0.00000000E+00
  0.00000000E+00  0.00000000E+00  0.00000000E+00
  0.00000000E+00  0.00000000E+00  0.00000000E+00
  0.00000000E+00  0.00000000E+00  0.00000000E+00
  0.00000000E+00  0.00000000E+00  0.00000000E+00
  0.00000000E+00  0.00000000E+00  0.00000000E+00
  0.00000000E+00  0.00000000E+00  0.00000000E+00
  0.00000000E+00  0.00000000E+00  0.00000000E+00
  0.00000000E+00  0.00000000E+00  0.00000000E+00
  0.00000000E+00  0.00000000E+00  0.00000000E+00
  0.00000000E+00  0.00000000E+00  0.00000000E+00
  0.00000000E+00  0.00000000E+00  0.00000000E+00
  0.00000000E+00  0.00000000E+00  0.00000000E+00
  0.00000000E+00  0.00000000E+00  0.00000000E+00
  0.00000000E+00  0.00000000E+00  0.00000000E+00
  0.00000000E+00  0.00000000E+00  0.00000000E+00
  0.00000000E+00  0.00000000E+00  0.00000000E+00
  0.00000000E+00  0.00000000E+00  0.00000000E+00
  0.00000000E+00  0.00000000E+00  0.00000000E+00
  0.00000000E+00  0.00000000E+00  0.00000000E+00
  0.00000000E+00  0.00000000E+00  0.00000000E+00
  0.00000000E+00  0.00000000E+00  0.00000000E+00
  0.00000000E+00  0.00000000E+00  0.00000000E+00
  0.00000000E+00  0.00000000E+00  0.00000000E+00
  0.00000000E+00  0.00000000E+00  0.00000000E+00
  0.00000000E+00  0.00000000E+00  0.00000000E+00
  0.00000000E+00  0.00000000E+00  0.00000000E+00
  0.00000000E+00  0.00000000E+00  0.00000000E+00
  0.00000000E+00  0.00000000E+00  0.00000000E+00
  0.00000000E+00  0.00000000E+00  0.00000000E+00
  0.00000000E+00  0.00000000E+00  0.00000000E+00