 Si N B 
 1.0
 17.527899999999772   0.000000000000000   0.000000000000000
 -8.763949999999658  15.179606674993195   0.000000000000000
  0.000000000000001   0.000000000000002  15.000000000000000
 Si N B 
   1  48  48
Cartesian
  4.213588440440940   7.687040834477682   1.812092292060675 
  8.780390189649481  13.742041557722175   1.627406884726785 
 16.274520662043336   0.723597365663970   1.624843697755140 
 15.013500118790203   2.890173032293497   1.641452451526185 
 13.762721282370940   5.059868891664398   1.667062566020895 
 12.522971069023676   7.227940233508068   1.680256666023105 
 11.288295799720743   9.395548305202448   1.671308962155375 
 10.041089970890351  11.568503572905581   1.645997859086985 
 -6.241202809619870  13.723007085798143   1.632960979146045 
  1.253083562434073   0.704326169283242   1.624061382565710 
 -0.014312893406504   2.867892834819792   1.630520666938560 
 -1.261297585034898   5.046738596519171   1.658363748937740 
 -2.488635830090356   7.219262422205786   1.677691305122985 
 -3.729890548362718   9.386741646653356   1.672335524727960 
 -4.981645683725194  11.555011487680753   1.652357551584255 
 -3.733663194056438  13.716344251261789   1.640923439741190 
  3.765912832857037   0.699296493824137   1.630786149100800 
  2.487313503790561   2.843618705041024   1.632953558046675 
  1.222659566823109   5.007894700410608   1.659275100523575 
  0.029845467947661   7.204543019348704   1.691017840686825 
 -1.213968497442447   9.377863480311902   1.687722975675810 
 -2.473373658300671  11.547788191708594   1.662365844948165 
 -1.230042308571531  13.716443292407678   1.650472628343030 
  6.271555567850135   0.706000729344756   1.644099139688115 
  5.006000900151301   2.863568464379771   1.653406980415500 
  3.709043605789388   4.972682800494683   1.670029484770605 
  2.534876375779375   7.133910063991769   1.732576514619390 
  1.310584543608014   9.363165176180352   1.715838459244755 
  0.035542673017499  11.542080514329795   1.676900448072930 
  1.267678611228260  13.725266987706688   1.652831594219670 
  8.765991360210366   0.720610532845887   1.651393577529000 
  7.498310062954154   2.896789497590651   1.671796228098585 
  6.215061511334634   5.077640847975820   1.707038567119155 
  3.853035846618297   9.417381746946932   1.729123934079915 
  2.539546965960385  11.551537992807576   1.677152132399490 
  3.762745127152550  13.748666251343030   1.641328488984570 
 11.263137321093083   0.731149473899008   1.647076988849160 
  9.999910767653354   2.902472803814371   1.671037856995575 
  8.730758721368852   5.079077192200478   1.700592468140835 
  7.473987317448795   7.258139691538731   1.715042908987365 
  6.311819001907523   9.480909258475306   1.673985971994615 
  5.038170723189871  11.616727884251631   1.652977153136310 
  6.273055560576887  13.758031618185710   1.626680672691645 
 13.767844754217052   0.732716754160375   1.633873999907400 
 12.507381144719021   2.898855883911936   1.658040811341720 
 11.250446475613492   5.068383584238465   1.684445966128290 
 10.004533615257619   7.237704627287052   1.694251595760375 
  8.786929792921455   9.412388253000115   1.673083859225190 
  7.544748133667088  11.603504299911894   1.640071639375905 
  7.525016467463528  14.465531605905202   1.624982415087195 
 15.020595048688785   1.447745847756936   1.632635956902585 
 13.761964645297208   3.615899271766019   1.655982264750705 
 12.510612145178774   5.784108571419099   1.678389784491630 
 11.270340932488939   7.951654398930729   1.682801544107805 
 10.042586763995288  10.124540778586368   1.663459071702990 
  8.795147215758705  12.305355343596251   1.637077661436540 
 -7.495523158977409  14.447144935665269   1.627227008464515 
 -0.001074828169986   1.429844358382733   1.625144397349560 
 -1.260721641649973   3.603003406574584   1.642524399082995 
 -2.507503007315675   5.775202695939885   1.668382312429335 
 -3.741661187054408   7.942728184645176   1.677284912291385 
 -4.981534430418623  10.110966994590326   1.665362699157780 
 -6.233286741587815  12.281006297293787   1.643395114123770 
 -4.988315164249283  14.437109291929765   1.634168998824195 
  2.504822193845519   1.409708221828794   1.628420728842210 
  1.236202816704596   3.571808425006495   1.638622164510540 
 -0.006486519891216   5.759015429260831   1.670336922046995 
 -1.223093704852871   7.932246974646357   1.686515888170920 
 -2.469640178265285  10.102062578955062   1.674199435583565 
 -3.726933891382359  12.271528829872187   1.651114777367370 
 -2.482981308802281  14.438385830517481   1.644246532579305 
  5.017134143111295   1.420085910704598   1.641496820677575 
  3.736990191096388   3.545274215268394   1.649720962941315 
  2.465517983529387   5.707945207072600   1.686464887701480 
  1.308571519769243   7.909163014334156   1.715724792921585 
  0.049958548722771  10.090987915542870   1.694413238153535 
 -1.219454223759341  12.267320456308173   1.662864424070325 
  0.014589597724763  14.448709367518935   1.650602141946780 
  7.512947013771498   1.443685593460563   1.655016154171575 
  6.241315654908485   3.614473078109812   1.678080662985015 
  4.920747451700744   5.712893356055735   1.708892533077180 
  2.568730737039016  10.091964952693838   1.709543411577765 
  1.282909510198173  12.272700056087242   1.668785038281600 
  2.508784328160955  14.463813041995586   1.646249016167475 
 10.010207314992895   1.453291517319374   1.656457005442335 
  8.745244164938333   3.627722949799075   1.682719908381345 
  7.471171502852190   5.806129265164921   1.711562784717825 
  6.276655608868432   8.061401212907038   1.712817245090730 
  5.053295557643056  10.190356502224637   1.684158467108145 
  3.773271463822971  12.305775547976141   1.657111689126555 
  5.013288824998220  14.470153299430011   1.632201234701715 
 12.513663250147404   1.453873464463892   1.646422102260600 
 11.253680027144672   3.622558660677291   1.672656412343595 
  9.994981369460763   5.792374817231579   1.695438921306975 
  8.754334390149388   7.967077381731334   1.695677120867325 
  7.561984504361092  10.170388916780839   1.660426079397840 
  6.288659449961338  12.322989517921730   1.637352132857340 
