 N B C 
 1.0
 14.936314146199660   0.000000000000000   0.000000000000000
 -7.468157073099825  12.935227489513863   0.000000000000000
  0.000000000000001   0.000000000000001  13.341276283792837
 N B C 
 143 143   1
Cartesian
  1.244995375169963   0.718660719282069   1.670798174691915 
  4.978483381329840   7.186271693419030   1.676955376358036 
  6.223699979613119   0.718547754637593   1.670594104521282 
  9.957479093217710   7.186325517152801   1.670312972159100 
 11.202577754229722   0.718821286682811   1.668944265077136 
 -3.734055901847671   9.342121810578064   8.336248389115358 
  1.244744908121701   9.342350907063521   8.335363108323346 
  2.489567791291098   2.874654961517015   8.328206617047288 
  6.223506849961174   9.342028184105940   8.334652809289002 
  7.468350904762526   2.874397819397301   8.334772422062015 
 12.447239498893463   2.874784073220984   8.336681117122605 
 -1.244644692605504   9.342172306175177   1.670166677026489 
  0.000298816840274   2.874667519652871   1.671491095453601 
  4.979099719983764   2.874425537144910   1.677989597914847 
  3.734091293528655   9.342325194706811   1.671184790782614 
  8.712894313294189   9.342009590307281   1.670312972159100 
  9.957774758956916   2.874686846147043   1.669049886542936 
 -4.978608622663585  11.497937693177111   8.335831401096947 
  0.000134596102235  11.498057699774824   8.336860007927005 
  1.244922428401011   5.030443967447663   8.328206617047288 
  6.223349844629537   5.030099730345367   8.329001836486604 
  4.979053525133533  11.498084979851210   8.336907326301704 
 11.202347779706820   5.030623812539684   8.336422896967587 
 -1.244509563847996   5.030609759354864   1.670798174691915 
 -2.489306566756714  11.497989910448990   1.670166677026489 
  2.489541233057198  11.498157844695475   1.668717834303893 
  3.734293026891423   5.030490081978428   1.676092712601011 
  7.468436217362433  11.497948349489091   1.669534315877028 
  8.712801464253239   5.030443437144482   1.671304403555638 
  0.000174620400599   7.186380055865902   8.332676851462018 
  1.244995375169964   0.718660719282070   8.335159038152714 
  4.978483381329841   7.186271693419031   8.329001836486604 
  6.223699979613120   0.718547754637594   8.335363108323346 
  9.957479093217710   7.186325517152802   8.335644240685529 
 -2.489340942042897   7.186399596702910   1.670125811747694 
 11.202577754229722   0.718821286682812   8.337012947767493 
  3.734289308796667   0.718703694274640   1.673280361382609 
  2.489489705412780   7.186556573414178   1.677989597914847 
  7.467880356920122   7.186077732013522   1.673753254053743 
  8.713081715724917   0.718669525753180   1.668717834303893 
  2.489489705412780   7.186556573414179   8.327967614929779 
 13.692027169317525   0.718748583411193   1.669276095722023 
 -1.244644692605503   9.342172306175177   8.335790535818123 
  0.000298816840275   2.874667519652872   8.334466117391040 
  4.979099719983765   2.874425537144911   8.327967614929779 
  3.734091293528655   9.342325194706811   8.334772422062015 
  8.712894313294189   9.342009590307281   8.335644240685529 
  9.957774758956916   2.874686846147044   8.336907326301704 
 -3.734055901847672   9.342121810578064   1.669708823729257 
  1.244744908121700   9.342350907063521   1.670594104521282 
  2.489567791291097   2.874654961517014   1.677750595797340 
  6.223506849961173   9.342028184105940   1.671304403555638 
  7.468350904762525   2.874397819397300   1.671184790782614 
 12.447239498893463   2.874784073220984   1.669276095722023 
 -1.244509563847995   5.030609759354864   8.335159038152714 
 -2.489306566756714  11.497989910448990   8.335790535818123 
  2.489541233057199  11.498157844695475   8.337239378540735 
  3.734293026891423   5.030490081978429   8.329864500243630 
  7.468436217362434  11.497948349489091   8.336422896967587 
 -4.978608622663586  11.497937693177111   1.670125811747694 
  8.712801464253239   5.030443437144483   8.334652809289002 
  0.000134596102234  11.498057699774824   1.669097204917623 
  1.244922428401011   5.030443967447662   1.677750595797340 
  0.000174620400599   7.186380055865901   1.673280361382609 
  6.223349844629536   5.030099730345366   1.676955376358036 
  4.979053525133533  11.498084979851210   1.669049886542936 
 11.202347779706820   5.030623812539683   1.669534315877028 
 -2.489340942042897   7.186399596702911   8.335831401096947 
  3.734289308796667   0.718703694274641   8.332676851462018 
  7.467880356920123   7.186077732013523   8.332203958790885 
  8.713081715724917   0.718669525753180   8.337239378540735 
 13.692027169317525   0.718748583411194   8.336681117122605 
  0.016693489340598   1.448937777648734   5.002978606422314 
  3.698500185043338   7.976396448812409   5.002978606422314 
  4.990930548008620   1.414153789752958   5.002978606422314 
  8.678835531504669   7.885223028036579   5.002978606422314 
  9.972012644432676   1.436823886525762   5.002978606422314 
 -4.978853864208232  10.060723513665911  11.673616748318732 
 -0.000002163224394  10.060720839336460  11.673616748318732 
  1.244635079257038   3.593085395721677  11.673616748318732 
  4.978713609444369  10.060728915511273  11.673616748318732 
  6.223418723194144   3.593097451214295  11.673616748318732 
 11.202205718304324   3.593082178467666  11.673616748318732 
 -2.501984848375590  10.053458364960981   5.002978606422314 
 -1.226222022416240   3.601730593527064   5.002978606422314 
  3.792429631984261   3.559708037789801   5.002978606422314 
  2.475232472564257  10.090319182182705   5.002978606422314 
  7.454377903650486  10.055025752723763   5.002978606422314 
  8.729836903382356   3.579517537853862   5.002978606422314 
 -6.223549238934202  12.216605506431552  11.673616748318732 
 -1.244704018496487  12.216607692942983  11.673616748318732 
 -0.000030626020567   5.748922717537551  11.673616748318732 
  4.978731513536511   5.748966977232896  11.673616748318732 
  3.734013649518579  12.216590607764330  11.673616748318732 
  9.957515668848121   5.748932034784253  11.673616748318732 
 -2.484726407166603   5.748898795928367   5.002978606422314 
 -3.739102132997899  12.210432565957561   5.002978606422314 
  1.246199746761926  12.217473749935994   5.002978606422314 
  2.489626715740441   5.816228880973014   5.002978606422314 
  6.231965379543759  12.228359048974594   5.002978606422314 
  7.431355779413943   5.718565610313733   5.002978606422314 
 -1.244700826160358   7.904783177661384  11.673616748318732 
 -0.000085207575911   1.437206080147846  11.673616748318732 
  3.734037341588440   7.904832483571411  11.673616748318732 
  4.978738184450078   1.437283144779911  11.673616748318732 
  8.712771237451834   7.904815817000315  11.673616748318732 
 -3.751635860301973   7.895945652697101   5.002978606422314 
  9.957498947684208   1.437197871183441  11.673616748318732 
  2.507440645290056   1.453666832905592   5.002978606422314 
  1.230772689755056   7.926938244727550   5.002978606422314 
  6.178715290413401   7.888202580880610   5.002978606422314 
  7.486703289312420   1.410197106926127   5.002978606422314 
  1.244707117002282   7.904814670640186  11.673616748318732 
 12.463048554676663   1.446554442626572   5.002978606422314 
 -2.489420731007340  10.060712261505689  11.673616748318732 
 -1.244771318939771   3.593065664505400  11.673616748318732 
  3.734048771933715   3.593103272496529  11.673616748318732 
  2.489339739495615  10.060729589044183  11.673616748318732 
  7.468093330144057  10.060738006916663  11.673616748318732 
  8.712817935110259   3.593070502695184  11.673616748318732 
 -4.995271172147156  10.049985198899737   5.002978606422314 
 -0.011182227141406  10.064886483315771   5.002978606422314 
  1.267812042775207   3.606466621847890   5.002978606422314 
  4.975485881731237  10.082244256801769   5.002978606422314 
  6.267626356815857   3.526539388247447   5.002978606422314 
 11.216666581747841   3.594603306207401   5.002978606422314 
 -2.489426667017661   5.748915490182288  11.673616748318732 
 -3.734150133950706  12.216635861621469  11.673616748318732 
  1.244650999943347  12.216579580543394  11.673616748318732 
  2.489357407336536   5.748971955721094  11.673616748318732 
  6.223417612556981  12.216596137741735  11.673616748318732 
 -6.221213566656658  12.220684397993901   5.002978606422314 
  7.468077669377522   5.748935655347468  11.673616748318732 
 -1.246686496945802  12.204842651585286   5.002978606422314 
  0.023247037546844   5.756416377354695   5.002978606422314 
 -1.252549037316078   7.903596268518941   5.002978606422314 
  3.740946617678638  12.229346830180164   5.002978606422314 
  9.945710998357434   5.739910254113494   5.002978606422314 
 -3.734127552951165   7.904794301050861  11.673616748318732 
  2.489312113737386   1.437254614824038  11.673616748318732 
  6.223377465908483   7.904819647947179  11.673616748318732 
  7.468131583432485   1.437209155035928  11.673616748318732 
 12.446876776723121   1.437217662271829  11.673616748318732 
  1.254510102863498   0.724906740397366   5.002978606422314 
  4.890479558010570   7.246938753024450   5.002978606422314 
  6.239759417140867   0.696687337909124   5.002978606422314 
  9.937580399128176   7.176355036242752   5.002978606422314 
 11.218027278809226   0.727741073857631   5.002978606422314 
 -3.734118993760262   9.342085384445365  11.673616748318732 
  1.244585734247533   9.342296147070588  11.673616748318732 
  2.489108191385533   2.874288770640827  11.673616748318732 
  6.223475291917573   9.342375164512346  11.673616748318732 
  7.468424986508015   2.874299411642129  11.673616748318732 
 12.446784251572312   2.874351791326464  11.673616748318732 
 -1.255291835216557   9.342700828969965   5.002978606422314 
  0.012262349732444   2.881574668588625   5.002978606422314 
  5.028786566456283   2.836831510661323   5.002978606422314 
  3.719433256871663   9.405202489995741   5.002978606422314 
  8.694310276493381   9.329762056178621   5.002978606422314 
  9.979473361869438   2.869875330168521   5.002978606422314 
 -4.978886503318278  11.497920647774670  11.673616748318732 
  0.000019700178801  11.497991364582486  11.673616748318732 
  1.244375497846808   5.030229037691974  11.673616748318732 
  6.223690794899139   5.030280496466460  11.673616748318732 
  4.978715641474862  11.498165523077134  11.673616748318732 
 11.202247632317862   5.030241681218973  11.673616748318732 
 -1.234342987042808   5.035726744689908   5.002978606422314 
 -2.494172423895483  11.488504953072720   5.002978606422314 
  2.491034959287488  11.520546761072776   5.002978606422314 
  7.467727724655577  11.499903765917642   5.002978606422314 
  8.707479554944058   5.012526298045969   5.002978606422314 
 -0.000215858739780   7.186247419691794  11.673616748318732 
  1.244462426698668   0.718445738014166  11.673616748318732 
  4.978810404517653   7.186476581953386  11.673616748318732 
  6.223572969131029   0.718437286015438  11.673616748318732 
  9.957614187350028   7.186209539113719  11.673616748318732 
 -2.500787624431751   7.184179740055406   5.002978606422314 
 11.202223709833373   0.718616879055276  11.673616748318732 
  3.739133772146461   0.706482808477512   5.002978606422314 
  2.481775746683723   7.248383657935085   5.002978606422314 
  7.432855120762226   7.165855902489347   5.002978606422314 
  8.733217949186001   0.708768672426273   5.002978606422314 
  2.489228237303379   7.186408432699753  11.673616748318732 
 13.704526974257060   0.728816833351878   5.002978606422314 
 -1.244799543143616   9.342126075091960  11.673616748318732 
 -0.000326793240392   2.874306323504400  11.673616748318732 
  4.978840692307052   2.874273169477077  11.673616748318732 
  3.734043110785500   9.342438555257935  11.673616748318732 
  8.712861420432215   9.342184574277326  11.673616748318732 
  9.957675569607307   2.874353958702191  11.673616748318732 
 -3.748785356998962   9.333617755681457   5.002978606422314 
  1.233842950661391   9.367188996297301   5.002978606422314 
  2.502977406716854   2.896260228316452   5.002978606422314 
  6.205329197684145   9.346377844996784   5.002978606422314 
  7.515475221475498   2.830264939638277   5.002978606422314 
 12.462208761583515   2.880575096870629   5.002978606422314 
 -1.244962217322986   5.030255703073766  11.673616748318732 
 -2.489424029318290  11.497878921490818  11.673616748318732 
  2.489351689285512  11.498136125038558  11.673616748318732 
  3.733966267237452   5.030301427204231  11.673616748318732 
  7.468055208236660  11.498052684966449  11.673616748318732 
 -4.986254416107527  11.489134503763090   5.002978606422314 
  8.713086179077999   5.030242616873830  11.673616748318732 
  0.000006042099065  11.497983479086454   5.002978606422314 
  1.270337946017742   5.031254401661629   5.002978606422314 
 -0.007986745481552   7.196685927093066   5.002978606422314 
  6.231887147761104   4.923552653918001   5.002978606422314 
  4.985735931521648  11.519282279189401   5.002978606422314 
 11.203686973655474   5.029032531642912   5.002978606422314 
 -2.489494644121774   7.186167467697946  11.673616748318732 
  3.733979202930247   0.718431847506467  11.673616748318732 
  7.468305561690320   7.186323224102064  11.673616748318732 
  8.712968134064404   0.718516235860257  11.673616748318732 
 13.691425178554699   0.718570468613332  11.673616748318732 
 -0.000051478043776   1.436908425062989   1.666505625563617 
  3.733655387417671   7.906019284995851   1.668558722003542 
  4.979284532600813   1.436158244859482   1.668805676511051 
  8.713640448183211   7.905317656050049   1.667626321132675 
  9.958021491200837   1.437257307058170   1.665723003424499 
 -4.978456747092711  10.060632173257936   8.339024354119664 
 -0.000409902473773  10.061139191677780   8.339440912244797 
  1.244303909500157   3.592894194773394   8.336190345573144 
  4.979081133824234  10.061628275859343   8.339737033667658 
  6.224255546291595   3.592173268487068   8.337398490841098 
 11.202553821740093   3.593365263457954   8.339873902846865 
 -2.489564653114657  10.060629168038277   1.666955204158102 
 -1.245012231038754   3.593243702679513   1.666505625563617 
  3.734161056524535   3.593212011727546   1.674273891958835 
  2.489053303029130  10.061681467113367   1.665862427343472 
  7.468786037229310  10.061084407530288   1.666909526420435 
  8.713780566208785   3.592939107970607   1.666220179176983 
 -6.223221133200191  12.216195460597723   8.339121806269807 
 -1.244545584365866  12.216045404224252   8.339440912244797 
 -0.000716720843539   5.749280212549212   8.336960579119481 
  4.978353520339901   5.748748742759081   8.335797108145242 
  3.734326394254313  12.217013425786933   8.340234209420142 
  9.958162014122049   5.749358736410628   8.339047686424191 
 -2.489617724259466   5.749404660999981   1.666835406574821 
 -3.733958468702739  12.215746723018610   1.667474501524802 
  1.244757089486758  12.216640831369812   1.665569751877338 
  2.489507720568397   5.749014827413688   1.674273891958835 
  6.223836823067876  12.216756061665121   1.666083309997763 
  7.469220609958882   5.749142799682274   1.668318530918430 
 -1.245375010153928   7.905393733936563   8.338482711319799 
 -0.000051478043776   1.436908425062990   8.339451587281022 
  3.733655387417671   7.906019284995851   8.337398490841098 
  4.979284532600814   1.436158244859482   8.337151536333591 
  8.713640448183211   7.905317656050050   8.338330891711953 
 -3.734008097507124   7.905183884765205   1.666932858724950 
  9.958021491200837   1.437257307058171   8.340234209420142 
  2.489278666087723   1.436481691772109   1.668996633725147 
  1.244006099169829   7.905850271978274   1.668805676511051 
  6.224128328455362   7.905705891358236   1.668318530918430 
  7.468812715788461   1.436485154744788   1.665862427343472 
  1.244006099169829   7.905850271978275   8.337151536333591 
 12.447160974991160   1.437381744218376   1.666117828568501 
 -2.489564653114657  10.060629168038277   8.339002008686512 
 -1.245012231038754   3.593243702679514   8.339451587281022 
  3.734161056524536   3.593212011727547   8.331683320885793 
  2.489053303029130  10.061681467113367   8.340094785501169 
  7.468786037229311  10.061084407530288   8.339047686424191 
  8.713780566208785   3.592939107970608   8.339737033667658 
 -4.978456747092712  10.060632173257936   1.666932858724950 
 -0.000409902473773  10.061139191677780   1.666516300599831 
  1.244303909500156   3.592894194773393   1.669766867271470 
  4.979081133824233  10.061628275859343   1.666220179176983 
  6.224255546291594   3.592173268487068   1.668558722003542 
 11.202553821740093   3.593365263457953   1.666083309997763 
 -2.489617724259466   5.749404660999982   8.339121806269807 
 -3.733958468702739  12.215746723018610   8.338482711319799 
  1.244757089486759  12.216640831369812   8.340387460967275 
  2.489507720568398   5.749014827413689   8.331683320885793 
  6.223836823067877  12.216756061665121   8.339873902846865 
 -6.223221133200192  12.216195460597723   1.666835406574821 
  7.469220609958882   5.749142799682275   8.337638681926197 
 -1.244545584365866  12.216045404224252   1.666516300599831 
 -0.000716720843539   5.749280212549211   1.668996633725147 
 -1.245375010153928   7.905393733936562   1.667474501524802 
  4.978353520339900   5.748748742759080   1.670160104699372 
  3.734326394254313  12.217013425786933   1.665723003424499 
  9.958162014122049   5.749358736410627   1.666909526420435 
 -3.734008097507124   7.905183884765206   8.339024354119664 
  2.489278666087724   1.436481691772110   8.336960579119481 
  6.224128328455363   7.905705891358237   8.337638681926197 
  7.468812715788462   1.436485154744789   8.340094785501169 
 12.447160974991160   1.437381744218377   8.339839384276113 
  4.905661987031896   5.706780266435906   5.002978606422314 
Generated by cif2cell 2.0.0.  :  Failed to get author information, No journal information. Species order: N B C 
 1.0
 14.936314146199660   0.000000000000000   0.000000000000000
 -7.468157073099825  12.935227489513863   0.000000000000000
  0.000000000000001   0.000000000000001  13.341276283792837
 N B C 
 143 143   1
Cartesian
  1.244995375169963   0.718660719282069   1.670798174691915 
  4.978483381329840   7.186271693419030   1.676955376358036 
  6.223699979613119   0.718547754637593   1.670594104521282 
  9.957479093217710   7.186325517152801   1.670312972159100 
 11.202577754229722   0.718821286682811   1.668944265077136 
 -3.734055901847671   9.342121810578064   8.336248389115358 
  1.244744908121701   9.342350907063521   8.335363108323346 
  2.489567791291098   2.874654961517015   8.328206617047288 
  6.223506849961174   9.342028184105940   8.334652809289002 
  7.468350904762526   2.874397819397301   8.334772422062015 
 12.447239498893463   2.874784073220984   8.336681117122605 
 -1.244644692605504   9.342172306175177   1.670166677026489 
  0.000298816840274   2.874667519652871   1.671491095453601 
  4.979099719983764   2.874425537144910   1.677989597914847 
  3.734091293528655   9.342325194706811   1.671184790782614 
  8.712894313294189   9.342009590307281   1.670312972159100 
  9.957774758956916   2.874686846147043   1.669049886542936 
 -4.978608622663585  11.497937693177111   8.335831401096947 
  0.000134596102235  11.498057699774824   8.336860007927005 
  1.244922428401011   5.030443967447663   8.328206617047288 
  6.223349844629537   5.030099730345367   8.329001836486604 
  4.979053525133533  11.498084979851210   8.336907326301704 
 11.202347779706820   5.030623812539684   8.336422896967587 
 -1.244509563847996   5.030609759354864   1.670798174691915 
 -2.489306566756714  11.497989910448990   1.670166677026489 
  2.489541233057198  11.498157844695475   1.668717834303893 
  3.734293026891423   5.030490081978428   1.676092712601011 
  7.468436217362433  11.497948349489091   1.669534315877028 
  8.712801464253239   5.030443437144482   1.671304403555638 
  0.000174620400599   7.186380055865902   8.332676851462018 
  1.244995375169964   0.718660719282070   8.335159038152714 
  4.978483381329841   7.186271693419031   8.329001836486604 
  6.223699979613120   0.718547754637594   8.335363108323346 
  9.957479093217710   7.186325517152802   8.335644240685529 
 -2.489340942042897   7.186399596702910   1.670125811747694 
 11.202577754229722   0.718821286682812   8.337012947767493 
  3.734289308796667   0.718703694274640   1.673280361382609 
  2.489489705412780   7.186556573414178   1.677989597914847 
  7.467880356920122   7.186077732013522   1.673753254053743 
  8.713081715724917   0.718669525753180   1.668717834303893 
  2.489489705412780   7.186556573414179   8.327967614929779 
 13.692027169317525   0.718748583411193   1.669276095722023 
 -1.244644692605503   9.342172306175177   8.335790535818123 
  0.000298816840275   2.874667519652872   8.334466117391040 
  4.979099719983765   2.874425537144911   8.327967614929779 
  3.734091293528655   9.342325194706811   8.334772422062015 
  8.712894313294189   9.342009590307281   8.335644240685529 
  9.957774758956916   2.874686846147044   8.336907326301704 
 -3.734055901847672   9.342121810578064   1.669708823729257 
  1.244744908121700   9.342350907063521   1.670594104521282 
  2.489567791291097   2.874654961517014   1.677750595797340 
  6.223506849961173   9.342028184105940   1.671304403555638 
  7.468350904762525   2.874397819397300   1.671184790782614 
 12.447239498893463   2.874784073220984   1.669276095722023 
 -1.244509563847995   5.030609759354864   8.335159038152714 
 -2.489306566756714  11.497989910448990   8.335790535818123 
  2.489541233057199  11.498157844695475   8.337239378540735 
  3.734293026891423   5.030490081978429   8.329864500243630 
  7.468436217362434  11.497948349489091   8.336422896967587 
 -4.978608622663586  11.497937693177111   1.670125811747694 
  8.712801464253239   5.030443437144483   8.334652809289002 
  0.000134596102234  11.498057699774824   1.669097204917623 
  1.244922428401011   5.030443967447662   1.677750595797340 
  0.000174620400599   7.186380055865901   1.673280361382609 
  6.223349844629536   5.030099730345366   1.676955376358036 
  4.979053525133533  11.498084979851210   1.669049886542936 
 11.202347779706820   5.030623812539683   1.669534315877028 
 -2.489340942042897   7.186399596702911   8.335831401096947 
  3.734289308796667   0.718703694274641   8.332676851462018 
  7.467880356920123   7.186077732013523   8.332203958790885 
  8.713081715724917   0.718669525753180   8.337239378540735 
 13.692027169317525   0.718748583411194   8.336681117122605 
  0.016693489340598   1.448937777648734   5.002978606422314 
  3.698500185043338   7.976396448812409   5.002978606422314 
  4.990930548008620   1.414153789752958   5.002978606422314 
  8.678835531504669   7.885223028036579   5.002978606422314 
  9.972012644432676   1.436823886525762   5.002978606422314 
 -4.978853864208232  10.060723513665911  11.673616748318732 
 -0.000002163224394  10.060720839336460  11.673616748318732 
  1.244635079257038   3.593085395721677  11.673616748318732 
  4.978713609444369  10.060728915511273  11.673616748318732 
  6.223418723194144   3.593097451214295  11.673616748318732 
 11.202205718304324   3.593082178467666  11.673616748318732 
 -2.501984848375590  10.053458364960981   5.002978606422314 
 -1.226222022416240   3.601730593527064   5.002978606422314 
  3.792429631984261   3.559708037789801   5.002978606422314 
  2.475232472564257  10.090319182182705   5.002978606422314 
  7.454377903650486  10.055025752723763   5.002978606422314 
  8.729836903382356   3.579517537853862   5.002978606422314 
 -6.223549238934202  12.216605506431552  11.673616748318732 
 -1.244704018496487  12.216607692942983  11.673616748318732 
 -0.000030626020567   5.748922717537551  11.673616748318732 
  4.978731513536511   5.748966977232896  11.673616748318732 
  3.734013649518579  12.216590607764330  11.673616748318732 
  9.957515668848121   5.748932034784253  11.673616748318732 
 -2.484726407166603   5.748898795928367   5.002978606422314 
 -3.739102132997899  12.210432565957561   5.002978606422314 
  1.246199746761926  12.217473749935994   5.002978606422314 
  2.489626715740441   5.816228880973014   5.002978606422314 
  6.231965379543759  12.228359048974594   5.002978606422314 
  7.431355779413943   5.718565610313733   5.002978606422314 
 -1.244700826160358   7.904783177661384  11.673616748318732 
 -0.000085207575911   1.437206080147846  11.673616748318732 
  3.734037341588440   7.904832483571411  11.673616748318732 
  4.978738184450078   1.437283144779911  11.673616748318732 
  8.712771237451834   7.904815817000315  11.673616748318732 
 -3.751635860301973   7.895945652697101   5.002978606422314 
  9.957498947684208   1.437197871183441  11.673616748318732 
  2.507440645290056   1.453666832905592   5.002978606422314 
  1.230772689755056   7.926938244727550   5.002978606422314 
  6.178715290413401   7.888202580880610   5.002978606422314 
  7.486703289312420   1.410197106926127   5.002978606422314 
  1.244707117002282   7.904814670640186  11.673616748318732 
 12.463048554676663   1.446554442626572   5.002978606422314 
 -2.489420731007340  10.060712261505689  11.673616748318732 
 -1.244771318939771   3.593065664505400  11.673616748318732 
  3.734048771933715   3.593103272496529  11.673616748318732 
  2.489339739495615  10.060729589044183  11.673616748318732 
  7.468093330144057  10.060738006916663  11.673616748318732 
  8.712817935110259   3.593070502695184  11.673616748318732 
 -4.995271172147156  10.049985198899737   5.002978606422314 
 -0.011182227141406  10.064886483315771   5.002978606422314 
  1.267812042775207   3.606466621847890   5.002978606422314 
  4.975485881731237  10.082244256801769   5.002978606422314 
  6.267626356815857   3.526539388247447   5.002978606422314 
 11.216666581747841   3.594603306207401   5.002978606422314 
 -2.489426667017661   5.748915490182288  11.673616748318732 
 -3.734150133950706  12.216635861621469  11.673616748318732 
  1.244650999943347  12.216579580543394  11.673616748318732 
  2.489357407336536   5.748971955721094  11.673616748318732 
  6.223417612556981  12.216596137741735  11.673616748318732 
 -6.221213566656658  12.220684397993901   5.002978606422314 
  7.468077669377522   5.748935655347468  11.673616748318732 
 -1.246686496945802  12.204842651585286   5.002978606422314 
  0.023247037546844   5.756416377354695   5.002978606422314 
 -1.252549037316078   7.903596268518941   5.002978606422314 
  3.740946617678638  12.229346830180164   5.002978606422314 
  9.945710998357434   5.739910254113494   5.002978606422314 
 -3.734127552951165   7.904794301050861  11.673616748318732 
  2.489312113737386   1.437254614824038  11.673616748318732 
  6.223377465908483   7.904819647947179  11.673616748318732 
  7.468131583432485   1.437209155035928  11.673616748318732 
 12.446876776723121   1.437217662271829  11.673616748318732 
  1.254510102863498   0.724906740397366   5.002978606422314 
  4.890479558010570   7.246938753024450   5.002978606422314 
  6.239759417140867   0.696687337909124   5.002978606422314 
  9.937580399128176   7.176355036242752   5.002978606422314 
 11.218027278809226   0.727741073857631   5.002978606422314 
 -3.734118993760262   9.342085384445365  11.673616748318732 
  1.244585734247533   9.342296147070588  11.673616748318732 
  2.489108191385533   2.874288770640827  11.673616748318732 
  6.223475291917573   9.342375164512346  11.673616748318732 
  7.468424986508015   2.874299411642129  11.673616748318732 
 12.446784251572312   2.874351791326464  11.673616748318732 
 -1.255291835216557   9.342700828969965   5.002978606422314 
  0.012262349732444   2.881574668588625   5.002978606422314 
  5.028786566456283   2.836831510661323   5.002978606422314 
  3.719433256871663   9.405202489995741   5.002978606422314 
  8.694310276493381   9.329762056178621   5.002978606422314 
  9.979473361869438   2.869875330168521   5.002978606422314 
 -4.978886503318278  11.497920647774670  11.673616748318732 
  0.000019700178801  11.497991364582486  11.673616748318732 
  1.244375497846808   5.030229037691974  11.673616748318732 
  6.223690794899139   5.030280496466460  11.673616748318732 
  4.978715641474862  11.498165523077134  11.673616748318732 
 11.202247632317862   5.030241681218973  11.673616748318732 
 -1.234342987042808   5.035726744689908   5.002978606422314 
 -2.494172423895483  11.488504953072720   5.002978606422314 
  2.491034959287488  11.520546761072776   5.002978606422314 
  7.467727724655577  11.499903765917642   5.002978606422314 
  8.707479554944058   5.012526298045969   5.002978606422314 
 -0.000215858739780   7.186247419691794  11.673616748318732 
  1.244462426698668   0.718445738014166  11.673616748318732 
  4.978810404517653   7.186476581953386  11.673616748318732 
  6.223572969131029   0.718437286015438  11.673616748318732 
  9.957614187350028   7.186209539113719  11.673616748318732 
 -2.500787624431751   7.184179740055406   5.002978606422314 
 11.202223709833373   0.718616879055276  11.673616748318732 
  3.739133772146461   0.706482808477512   5.002978606422314 
  2.481775746683723   7.248383657935085   5.002978606422314 
  7.432855120762226   7.165855902489347   5.002978606422314 
  8.733217949186001   0.708768672426273   5.002978606422314 
  2.489228237303379   7.186408432699753  11.673616748318732 
 13.704526974257060   0.728816833351878   5.002978606422314 
 -1.244799543143616   9.342126075091960  11.673616748318732 
 -0.000326793240392   2.874306323504400  11.673616748318732 
  4.978840692307052   2.874273169477077  11.673616748318732 
  3.734043110785500   9.342438555257935  11.673616748318732 
  8.712861420432215   9.342184574277326  11.673616748318732 
  9.957675569607307   2.874353958702191  11.673616748318732 
 -3.748785356998962   9.333617755681457   5.002978606422314 
  1.233842950661391   9.367188996297301   5.002978606422314 
  2.502977406716854   2.896260228316452   5.002978606422314 
  6.205329197684145   9.346377844996784   5.002978606422314 
  7.515475221475498   2.830264939638277   5.002978606422314 