Species order: X N B                    
   2.51242800000000     
     5.9449720136058266    0.0000000000000000    0.0000000000000000
    -2.9724860068029120    5.1484967885702053   -0.0000000000000001
     0.0000000000000000    0.0000000000000009    5.3101128803662583
   Sn   N    B 
     1   143   143
Direct
  0.4963188710050532  0.4148261021691876  0.3750000000000000
  0.1114203392944518  0.0556994581330280  0.1248945076750721
  0.6114677705988997  0.5558055569067009  0.1240425734320370
  0.4447477228101535  0.0556688699830488  0.1247700767418029
  0.9447208947479102  0.5556928221898427  0.1249952919311386
  0.7781046491838507  0.0557189912585931  0.1249502410943779
  0.1113852941558334  0.7223593137445775  0.6249107099655334
  0.4447477228101535  0.7224121861604406  0.6252299232581968
  0.2780997615053007  0.2223605086457083  0.6243776874803967
  0.7780923006985024  0.7224086743150342  0.6255250379968539
  0.6114135450442381  0.2223218821081053  0.6255931015131813
  0.9447717088751275  0.2223853168721160  0.6250571184612219
  0.2780664276426117  0.7223780898138418  0.1250060886250847
  0.1114518608389792  0.2223925970861503  0.1250276485494486
  0.4447646523848391  0.2223265650737603  0.1251888563881703
  0.6114135450442381  0.7224249962694602  0.1244068984868180
  0.9447208947479102  0.7223614058914104  0.1249952919311386
  0.7780920762950159  0.2223627740506540  0.1248099008257540
  0.1113955461641528  0.8890221613241226  0.6249728192740768
  0.4447492402360074  0.8890412867846706  0.6250320187543057
  0.2780997615053007  0.3890725861929219  0.6243776874803967
  0.6114677705988997  0.3889955470255280  0.6259574265679625
  0.7780920762950159  0.8890626355776894  0.6251900991742452
  0.9447503954610273  0.3890354324607098  0.6250549783719411
  0.1114203392944518  0.3890542144947526  0.1248945076750721
  0.2780664276426117  0.8890216711620994  0.1250060886250847
  0.6114272942977752  0.8890673344624987  0.1248560432069709
  0.4448872059969922  0.3891102696651639  0.1294482973855447
  0.9447503954610273  0.8890482963336387  0.1249450216280598
  0.7780923006985024  0.3890169597167987  0.1244749620031461
  0.2780785274834945  0.5557320763828054  0.6250175780342344
  0.1114203392944518  0.0556994581330280  0.6251054923249282
  0.6114677705988997  0.5558055569067009  0.6259574265679625
  0.4447477228101535  0.0556688699830488  0.6252299232581968
  0.9447208947479102  0.5556928221898427  0.6250047080688623
  0.1113955461641528  0.5557067181733667  0.1250271807259228
  0.7781046491838507  0.0557189912585931  0.6250497589056228
  0.2780785274834945  0.0556797844340261  0.1249824219657654
  0.4447646523848391  0.5557714206444210  0.1251888563881703
  0.7780537931027454  0.5556935632180358  0.1244261075926783
  0.6114272942977752  0.0556932931686053  0.1248560432069709
  0.4447646523848391  0.5557714206444210  0.6248111436118308
  0.9447717088751275  0.0557197253363392  0.1249428815387778
  0.2780664276426117  0.7223780898138418  0.6249939113749152
  0.1114518608389792  0.2223925970861503  0.6249723514505501
  0.4447646523848391  0.2223265650737603  0.6248111436118308
  0.6114135450442381  0.7224249962694602  0.6255931015131813
  0.9447208947479102  0.7223614058914104  0.6250047080688623
  0.7780920762950159  0.2223627740506540  0.6251900991742452
  0.1113852941558334  0.7223593137445775  0.1250892900344675
  0.4447477228101535  0.7224121861604406  0.1247700767418029
  0.2780997615053007  0.2223605086457083  0.1256223125196028
  0.7780923006985024  0.7224086743150342  0.1244749620031461
  0.6114135450442381  0.2223218821081053  0.1244068984868180
  0.9447717088751275  0.2223853168721160  0.1249428815387778
  0.1114203392944518  0.3890542144947526  0.6251054923249282
  0.2780664276426117  0.8890216711620994  0.6249939113749152
  0.6114272942977752  0.8890673344624987  0.6251439567930275
  0.4448872059969922  0.3891102696651639  0.6205517026144560
  0.9447503954610273  0.8890482963336387  0.6250549783719411
  0.1113955461641528  0.8890221613241226  0.1250271807259228
  0.7780923006985024  0.3890169597167987  0.6255250379968539
  0.4447492402360074  0.8890412867846706  0.1249679812456944
  0.2780997615053007  0.3890725861929219  0.1256223125196028
  0.2780785274834945  0.5557320763828054  0.1249824219657654
  0.6114677705988997  0.3889955470255280  0.1240425734320370
  0.7780920762950159  0.8890626355776894  0.1248099008257540
  0.9447503954610273  0.3890354324607098  0.1249450216280598
  0.1113955461641528  0.5557067181733667  0.6249728192740768
  0.2780785274834945  0.0556797844340261  0.6250175780342344
  0.7780537931027454  0.5556935632180358  0.6255738924073221
  0.6114272942977752  0.0556932931686053  0.6251439567930275
  0.9447717088751275  0.0557197253363392  0.6250571184612219
  0.0569176943591140  0.1119783552392966  0.3750000000000000
  0.5543083827601284  0.6243525811670676  0.3750000000000000
  0.3853892151769452  0.1020716176527376  0.3750000000000000
  0.8826742638474321  0.6080037985903908  0.3750000000000000
  0.7228539718127098  0.1099930368474350  0.3750000000000000
  0.0556611077996761  0.7778322080978870  0.8750000000000000
  0.3889961317963134  0.7778304363122781  0.8750000000000000
  0.2223326860961761  0.2778330097147565  0.8750000000000000
  0.7223288354847709  0.7778314448355684  0.8750000000000000
  0.5556582131952356  0.2778288850736403  0.8750000000000000
  0.8889980323274627  0.2778322002506903  0.8750000000000000
  0.2178385114957735  0.7755859224145553  0.3750000000000000
  0.0569176943591140  0.2782726724531462  0.3750000000000000
  0.3864274225393748  0.2646557226121762  0.3750000000000000
  0.5541761174133444  0.7833178773318378  0.3750000000000000
  0.8871722750080188  0.7780638922479309  0.3750000000000000
  0.7225343832405937  0.2741236708546557  0.3750000000000000
  0.0556624690802832  0.9445000893624841  0.8750000000000000
  0.3889961317963134  0.9444990288173715  0.8750000000000000
  0.2223307312845562  0.4444928994546861  0.8750000000000000
  0.5556450383979969  0.4444891858656628  0.8750000000000000
  0.7223279164853161  0.9444977410868576  0.8750000000000000
  0.8889982010363449  0.4444974372606250  0.8750000000000000
  0.0538720905050730  0.4439842915361216  0.3750000000000000
  0.2182570293318245  0.9405225399567643  0.3750000000000000
  0.5541857230308534  0.9437595281820911  0.3750000000000000
  0.3864274225393748  0.4551050332605338  0.3750000000000000
  0.8897230423974450  0.9460174619191456  0.3750000000000000
  0.7192707487777174  0.4389406821521133  0.3750000000000000
  0.2223293776223019  0.6111602747863375  0.8750000000000000
  0.0556629616017749  0.1111655624667558  0.8750000000000000
  0.5556582131952356  0.6111626614549308  0.8750000000000000
  0.3889988836082726  0.1111728189576383  0.8750000000000000
  0.8889935094085873  0.6111634213709622  0.8750000000000000
  0.0509766183138311  0.6092957048747855  0.3750000000000000
  0.7223279164853161  0.1111635087317964  0.8750000000000000
  0.2203291544910443  0.1079103607490254  0.3750000000000000
  0.3853892151769452  0.6166509308575503  0.3750000000000000
  0.7192707487777174  0.6136633999589375  0.3750000000000000
  0.5541761174133444  0.1041915734148422  0.3750000000000000
  0.3889988836082726  0.6111593979839794  0.8750000000000000
  0.8903335982511121  0.1118334657922242  0.3750000000000000
  0.2223285183569312  0.7778309258451290  0.8750000000000000
  0.0556629616017749  0.2778307324683552  0.8750000000000000
  0.3890017104785493  0.2778452125660120  0.8750000000000000
  0.5556604040373694  0.7778315701036673  0.8750000000000000
  0.8889982010363449  0.7778340971090620  0.8750000000000000
  0.7223288354847709  0.2778307239825318  0.8750000000000000
  0.0509766183138311  0.7750142467723742  0.3750000000000000
  0.3855175337956860  0.7784202208922125  0.3750000000000000
  0.2250615343281375  0.2791974338307398  0.3750000000000000
  0.7225343832405937  0.7817440457192745  0.3750000000000000
  0.5543083827601284  0.2632891349264042  0.3750000000000000
  0.8897230423974450  0.2770389138116435  0.3750000000000000
  0.0556624690802832  0.4444957130511272  0.8750000000000000
  0.2223293776223019  0.9445024361692999  0.8750000000000000
  0.5556592965264727  0.9444963149298984  0.8750000000000000
  0.3890017104785493  0.4444898312458734  0.8750000000000000
  0.8889980323274627  0.9444991654101104  0.8750000000000000
  0.0538720905050730  0.9432211323022799  0.3750000000000000
  0.7223260465369222  0.4444956477936288  0.8750000000000000
  0.3855175337956860  0.9404306462368009  0.3750000000000000
  0.2203291544910443  0.4457521270753539  0.3750000000000000
  0.2182570293318245  0.6110678227083961  0.3750000000000000
  0.7228539718127098  0.9461942682986030  0.3750000000000000
  0.8871722750080188  0.4424417160934226  0.3750000000000000
  0.0556611077996761  0.6111622330351246  0.8750000000000000
  0.2223307312845562  0.1111711651631997  0.8750000000000000
  0.7223260465369222  0.6111637320766335  0.8750000000000000
  0.5556604040373694  0.1111621672670369  0.8750000000000000
  0.8889972570281539  0.1111652951807478  0.8750000000000000
  0.1102350728781697  0.0542933037773218  0.3750000000000000
  0.6107937491771324  0.5737386530893460  0.3750000000000000
  0.4426158726708673  0.0497105507582825  0.3750000000000000
  0.9399541983710025  0.5534265030504255  0.3750000000000000
  0.7794335264797446  0.0563834299065368  0.3750000000000000
  0.1112181705618405  0.7222757519475880  0.8750000000000000
  0.4445484721435479  0.7222747534402026  0.8750000000000000
  0.2778677626840957  0.2222713166604454  0.8750000000000000
  0.7778928584899055  0.7222885264062605  0.8750000000000000
  0.6112196789233699  0.2222666166226585  0.8750000000000000
  0.9445572504827252  0.2222752652140416  0.8750000000000000
  0.2742622225438027  0.7216325356132897  0.3750000000000000
  0.1137797203156159  0.2235565268244760  0.3750000000000000
  0.4410208444495461  0.2107157551282108  0.3750000000000000
  0.6117932801745587  0.7322494770363206  0.3750000000000000
  0.9399541983710025  0.7198610286539109  0.3750000000000000
  0.7791052310179305  0.2204879505951991  0.3750000000000000
  0.1112180810223067  0.8889492471712768  0.8750000000000000
  0.4445498741592155  0.8889416037462738  0.8750000000000000
  0.2778677626840957  0.3889297793569796  0.8750000000000000
  0.6112233204073296  0.3889250435890922  0.8750000000000000
  0.7778926804600835  0.8889536370433603  0.8750000000000000
  0.9445586550700951  0.3889379428384851  0.8750000000000000
  0.1102350728781697  0.3892751024341771  0.3750000000000000
  0.2742622225438027  0.8859630202638487  0.3750000000000000
  0.6115855634195563  0.8920890657114626  0.3750000000000000
  0.9435436473845745  0.8890682578615399  0.3750000000000000
  0.7770149524783659  0.3853634112012554  0.3750000000000000
  0.2778784928810792  0.5555986864751673  0.8750000000000000
  0.1112161884999543  0.0556145804568387  0.8750000000000000
  0.6112233204073296  0.5556316101515661  0.8750000000000000
  0.4445484721435479  0.0556070520366814  0.8750000000000000
  0.9445574968551580  0.5556077552963695  0.8750000000000000
  0.1075138794553714  0.5547531673804839  0.3750000000000000
  0.7778917502366812  0.0556125417850049  0.8750000000000000
  0.2745102933421564  0.0509696917909273  0.3750000000000000
  0.4410208444495461  0.5636384226546788  0.3750000000000000
  0.7708938193333954  0.5521135763333646  0.3750000000000000
  0.6115855634195563  0.0528298310414239  0.3750000000000000
  0.4445456069307890  0.5556087573234239  0.8750000000000000
  0.9461536798156788  0.0569425724282369  0.3750000000000000
  0.2778820131964635  0.7222711180463954  0.8750000000000000
  0.1112139564608204  0.2222736448970746  0.8750000000000000
  0.4445456069307890  0.2222701829407014  0.8750000000000000
  0.6112196789233699  0.7222863956340331  0.8750000000000000
  0.9445574968551580  0.7222830748921246  0.8750000000000000
  0.7778926804600835  0.2222723767500531  0.8750000000000000
  0.1067959114836552  0.7200646224084961  0.3750000000000000
  0.4426158726708673  0.7262386552459185  0.3750000000000000
  0.2781150249706866  0.2195919372131544  0.3750000000000000
  0.7770149524783659  0.7249848746104314  0.3750000000000000
  0.6117932801745587  0.2128771364715708  0.3750000000000000
  0.9461536798156788  0.2225444407207761  0.3750000000000000
  0.1112161884999543  0.3889349413764436  0.8750000000000000
  0.2778820131964635  0.8889442284833879  0.8750000000000000
  0.6112204776237153  0.8889475594788622  0.8750000000000000
  0.4445225308056622  0.3889279320694919  0.8750000000000000
  0.9445586550700951  0.8889540455649376  0.8750000000000000
  0.1075138794553714  0.8860940454082155  0.3750000000000000
  0.7778928584899055  0.3889376654169728  0.8750000000000000
  0.4426663725248954  0.8879998529291090  0.3750000000000000
  0.2781150249706866  0.3918564210908541  0.3750000000000000
  0.2745102933421564  0.5568739348845647  0.3750000000000000
  0.6107937491771324  0.3703884294211151  0.3750000000000000
  0.7791052310179305  0.8919506137560612  0.3750000000000000
  0.9435436473845745  0.3878087228563703  0.3750000000000000
  0.1112180810223067  0.5556021671843577  0.8750000000000000
  0.2778784928810792  0.0556131397392468  0.8750000000000000
  0.7778892330473527  0.5556112831903480  0.8750000000000000
  0.6112204776237153  0.0556062514781816  0.8750000000000000
  0.9445572504827252  0.0556153186020180  0.8750000000000000
  0.0558960502937692  0.1112876187732944  0.1250147727207021
  0.5558374922428880  0.6113639970427260  0.1245221018109340
  0.3891505509975430  0.1111647267000762  0.1249611279352836
  0.8892079190474708  0.6112706261904068  0.1248044618336697
  0.7225452309629341  0.1112498077738777  0.1248934623839750
  0.0558554718563145  0.7779336040940210  0.6249367486094238
  0.3891725658473014  0.7779436625230836  0.6250715108737630
  0.2225466145936913  0.2779399739635174  0.6243493615673729
  0.7225315467979030  0.7779833819904168  0.6254778280051962
  0.5558374922428880  0.2778068285334956  0.6254778981890682
  0.8892200958490706  0.2779183858875453  0.6250801686826674
  0.2225063411669973  0.7779198372501691  0.1250493562713859
  0.0558960502937692  0.2779417648538108  0.1250147727207021
  0.3890477563288334  0.2776308377277939  0.1269883527833024
  0.5558465579298424  0.7779788493547977  0.1246911284902758
  0.8892185021691911  0.7779741444854744  0.1248098542171957
  0.7225315467979030  0.2778814981408209  0.1245221719948039
  0.0558741747845479  0.9446187178280656  0.6250200769826294
  0.3891725658473014  0.9445622366575469  0.6250715108737630
  0.2225202748007069  0.4446119407091436  0.6248124332355175
  0.5561747994703721  0.4447540664018503  0.6247137779518428
  0.7225452309629341  0.9446287565223941  0.6251065376160257
  0.8892185021691911  0.4445776910170545  0.6251901457828045
  0.0558741747845479  0.4445887902898094  0.1249799230173637
  0.2225105631836804  0.9445789364571499  0.1250201107298550
  0.5558615150888376  0.9445974242110812  0.1249204561663355
  0.3890477563288334  0.4447502519343757  0.1269883527833024
  0.8892200958490706  0.9446350432948624  0.1249198313173327
  0.7226094992395840  0.4445899455812293  0.1240965072227542
  0.2225105631836804  0.6112649600598619  0.6249798892701457
  0.0558960502937692  0.1112876187732944  0.6249852272792975
  0.5558374922428880  0.6113639970427260  0.6254778981890682
  0.3891505509975430  0.1111647267000762  0.6250388720647180
  0.8892079190474708  0.6112706261904068  0.6251955381663298
  0.0558554718563145  0.6112552010956357  0.1250632513905761
  0.7225452309629341  0.1112498077738777  0.6251065376160257
  0.2225202748007069  0.1112416674248993  0.1251875667644811
  0.3891505509975430  0.6113191576308101  0.1249611279352836
  0.7226094992395840  0.6113528869916912  0.1240965072227542
  0.5558465579298424  0.1112010419083791  0.1246911284902758
  0.3891505509975430  0.6113191576308101  0.6250388720647180
  0.8892273094564116  0.1112803213948775  0.1249821405891916
  0.2225063411669973  0.7779198372501691  0.6249506437286126
  0.0558960502937692  0.2779417648538108  0.6249852272792975
  0.3890477563288334  0.2776308377277939  0.6230116472166989
  0.5558465579298424  0.7779788493547977  0.6253088715097249
  0.8892185021691911  0.7779741444854744  0.6251901457828045
  0.7225315467979030  0.2778814981408209  0.6254778280051962
  0.0558554718563146  0.7779336040940210  0.1250632513905761
  0.3891725658473014  0.7779436625230836  0.1249284891262365
  0.2225466145936913  0.2779399739635174  0.1256506384326267
  0.7225315467979030  0.7779833819904168  0.1245221719948039
  0.5558374922428880  0.2778068285334956  0.1245221018109340
  0.8892200958490706  0.2779183858875453  0.1249198313173327
  0.0558741747845479  0.4445887902898094  0.6250200769826294
  0.2225105631836804  0.9445789364571499  0.6249798892701457
  0.5558615150888376  0.9445974242110812  0.6250795438336652
  0.3890477563288334  0.4447502519343757  0.6230116472166989
  0.8892200958490706  0.9446350432948624  0.6250801686826674
  0.0558741747845479  0.9446187178280656  0.1249799230173637
  0.7226094992395840  0.4445899455812293  0.6259034927772459
  0.3891725658473014  0.9445622366575469  0.1249284891262365
  0.2225202748007069  0.4446119407091436  0.1251875667644811
  0.2225105631836804  0.6112649600598619  0.1250201107298550
  0.5561747994703721  0.4447540664018503  0.1252862220481580
  0.7225452309629341  0.9446287565223941  0.1248934623839750
  0.8892185021691911  0.4445776910170545  0.1248098542171957
  0.0558554718563145  0.6112552010956357  0.6249367486094238
  0.2225202748007069  0.1112416674248993  0.6248124332355175
  0.7226094992395840  0.6113528869916912  0.6259034927772459
  0.5558465579298424  0.1112010419083791  0.6253088715097249
  0.8892273094564116  0.1112803213948775  0.6250178594108081
 
  0.00000000E+00  0.00000000E+00  0.00000000E+00
  0.00000000E+00  0.00000000E+00  0.00000000E+00
  0.00000000E+00  0.00000000E+00  0.00000000E+00
  0.00000000E+00  0.00000000E+00  0.00000000E+00
  0.00000000E+00  0.00000000E+00  0.00000000E+00
  0.00000000E+00  0.00000000E+00  0.00000000E+00
  0.00000000E+00  0.00000000E+00  0.00000000E+00
  0.00000000E+00  0.00000000E+00  0.00000000E+00
  0.00000000E+00  0.00000000E+00  0.00000000E+00
  0.00000000E+00  0.00000000E+00  0.00000000E+00
  0.00000000E+00  0.00000000E+00  0.00000000E+00
  0.00000000E+00  0.00000000E+00  0.00000000E+00
  0.00000000E+00  0.00000000E+00  0.00000000E+00
  0.00000000E+00  0.00000000E+00  0.00000000E+00
  0.00000000E+00  0.00000000E+00  0.00000000E+00
  0.00000000E+00  0.00000000E+00  0.00000000E+00
  0.00000000E+00  0.00000000E+00  0.00000000E+00
  0.00000000E+00  0.00000000E+00  0.00000000E+00
  0.00000000E+00  0.00000000E+00  0.00000000E+00
  0.00000000E+00  0.00000000E+00  0.00000000E+00
  0.00000000E+00  0.00000000E+00  0.00000000E+00
  0.00000000E+00  0.00000000E+00  0.00000000E+00
  0.00000000E+00  0.00000000E+00  0.00000000E+00
  0.00000000E+00  0.00000000E+00  0.00000000E+00
  0.00000000E+00  0.00000000E+00  0.00000000E+00
  0.00000000E+00  0.00000000E+00  0.00000000E+00
  0.00000000E+00  0.00000000E+00  0.00000000E+00
  0.00000000E+00  0.00000000E+00  0.00000000E+00
  0.00000000E+00  0.00000000E+00  0.00000000E+00
  0.00000000E+00  0.00000000E+00  0.00000000E+00
  0.00000000E+00  0.00000000E+00  0.00000000E+00
  0.00000000E+00  0.00000000E+00  0.00000000E+00
  0.00000000E+00  0.00000000E+00  0.00000000E+00
  0.00000000E+00  0.00000000E+00  0.00000000E+00
  0.00000000E+00  0.00000000E+00  0.00000000E+00
  0.00000000E+00  0.00000000E+00  0.00000000E+00
  0.00000000E+00  0.00000000E+00  0.00000000E+00
  0.00000000E+00  0.00000000E+00  0.00000000E+00
  0.00000000E+00  0.00000000E+00  0.00000000E+00
  0.00000000E+00  0.00000000E+00  0.00000000E+00
  0.00000000E+00  0.00000000E+00  0.00000000E+00
  0.00000000E+00  0.00000000E+00  0.00000000E+00
  0.00000000E+00  0.00000000E+00  0.00000000E+00
  0.00000000E+00  0.00000000E+00  0.00000000E+00
  0.00000000E+00  0.00000000E+00  0.00000000E+00
  0.00000000E+00  0.00000000E+00  0.00000000E+00
  0.00000000E+00  0.00000000E+00  0.00000000E+00
  0.00000000E+00  0.00000000E+00  0.00000000E+00
  0.00000000E+00  0.00000000E+00  0.00000000E+00
  0.00000000E+00  0.00000000E+00  0.00000000E+00
  0.00000000E+00  0.00000000E+00  0.00000000E+00
  0.00000000E+00  0.00000000E+00  0.00000000E+00
  0.00000000E+00  0.00000000E+00  0.00000000E+00
  0.00000000E+00  0.00000000E+00  0.00000000E+00
  0.00000000E+00  0.00000000E+00  0.00000000E+00
  0.00000000E+00  0.00000000E+00  0.00000000E+00
  0.00000000E+00  0.00000000E+00  0.00000000E+00
  0.00000000E+00  0.00000000E+00  0.00000000E+00
  0.00000000E+00  0.00000000E+00  0.00000000E+00
  0.00000000E+00  0.00000000E+00  0.00000000E+00
  0.00000000E+00  0.00000000E+00  0.00000000E+00
  0.00000000E+00  0.00000000E+00  0.00000000E+00
  0.00000000E+00  0.00000000E+00  0.00000000E+00
  0.00000000E+00  0.00000000E+00  0.00000000E+00
  0.00000000E+00  0.00000000E+00  0.00000000E+00
  0.00000000E+00  0.00000000E+00  0.00000000E+00
  0.00000000E+00  0.00000000E+00  0.00000000E+00
  0.00000000E+00  0.00000000E+00  0.00000000E+00
  0.00000000E+00  0.00000000E+00  0.00000000E+00
  0.00000000E+00  0.00000000E+00  0.00000000E+00
  0.00000000E+00  0.00000000E+00  0.00000000E+00
  0.00000000E+00  0.00000000E+00  0.00000000E+00
  0.00000000E+00  0.00000000E+00  0.00000000E+00
  0.00000000E+00  0.00000000E+00  0.00000000E+00
  0.00000000E+00  0.00000000E+00  0.00000000E+00
  0.00000000E+00  0.00000000E+00  0.00000000E+00
  0.00000000E+00  0.00000000E+00  0.00000000E+00
  0.00000000E+00  0.00000000E+00  0.00000000E+00
  0.00000000E+00  0.00000000E+00  0.00000000E+00
  0.00000000E+00  0.00000000E+00  0.00000000E+00
  0.00000000E+00  0.00000000E+00  0.00000000E+00
  0.00000000E+00  0.00000000E+00  0.00000000E+00
  0.00000000E+00  0.00000000E+00  0.00000000E+00
  0.00000000E+00  0.00000000E+00  0.00000000E+00
  0.00000000E+00  0.00000000E+00  0.00000000E+00
  0.00000000E+00  0.00000000E+00  0.00000000E+00
  0.00000000E+00  0.00000000E+00  0.00000000E+00
  0.00000000E+00  0.00000000E+00  0.00000000E+00
  0.00000000E+00  0.00000000E+00  0.00000000E+00
  0.00000000E+00  0.00000000E+00  0.00000000E+00
  0.00000000E+00  0.00000000E+00  0.00000000E+00
  0.00000000E+00  0.00000000E+00  0.00000000E+00
  0.00000000E+00  0.00000000E+00  0.00000000E+00
  0.00000000E+00  0.00000000E+00  0.00000000E+00
  0.00000000E+00  0.00000000E+00  0.00000000E+00
  0.00000000E+00  0.00000000E+00  0.00000000E+00
  0.00000000E+00  0.00000000E+00  0.00000000E+00
  0.00000000E+00  0.00000000E+00  0.00000000E+00
  0.00000000E+00  0.00000000E+00  0.00000000E+00
  0.00000000E+00  0.00000000E+00  0.00000000E+00
  0.00000000E+00  0.00000000E+00  0.00000000E+00
  0.00000000E+00  0.00000000E+00  0.00000000E+00
  0.00000000E+00  0.00000000E+00  0.00000000E+00
  0.00000000E+00  0.00000000E+00  0.00000000E+00
  0.00000000E+00  0.00000000E+00  0.00000000E+00
  0.00000000E+00  0.00000000E+00  0.00000000E+00
  0.00000000E+00  0.00000000E+00  0.00000000E+00
  0.00000000E+00  0.00000000E+00  0.00000000E+00
  0.00000000E+00  0.00000000E+00  0.00000000E+00
  0.00000000E+00  0.00000000E+00  0.00000000E+00
  0.00000000E+00  0.00000000E+00  0.00000000E+00
  0.00000000E+00  0.00000000E+00  0.00000000E+00
  0.00000000E+00  0.00000000E+00  0.00000000E+00
  0.00000000E+00  0.00000000E+00  0.00000000E+00
  0.00000000E+00  0.00000000E+00  0.00000000E+00
  0.00000000E+00  0.00000000E+00  0.00000000E+00
  0.00000000E+00  0.00000000E+00  0.00000000E+00
  0.00000000E+00  0.00000000E+00  0.00000000E+00
  0.00000000E+00  0.00000000E+00  0.00000000E+00
  0.00000000E+00  0.00000000E+00  0.00000000E+00
  0.00000000E+00  0.00000000E+00  0.00000000E+00
  0.00000000E+00  0.00000000E+00  0.00000000E+00
  0.00000000E+00  0.00000000E+00  0.00000000E+00
  0.00000000E+00  0.00000000E+00  0.00000000E+00
  0.00000000E+00  0.00000000E+00  0.00000000E+00
  0.00000000E+00  0.00000000E+00  0.00000000E+00
  0.00000000E+00  0.00000000E+00  0.00000000E+00
  0.00000000E+00  0.00000000E+00  0.00000000E+00
  0.00000000E+00  0.00000000E+00  0.00000000E+00
  0.00000000E+00  0.00000000E+00  0.00000000E+00
  0.00000000E+00  0.00000000E+00  0.00000000E+00
  0.00000000E+00  0.00000000E+00  0.00000000E+00
  0.00000000E+00  0.00000000E+00  0.00000000E+00
  0.00000000E+00  0.00000000E+00  0.00000000E+00
  0.00000000E+00  0.00000000E+00  0.00000000E+00
  0.00000000E+00  0.00000000E+00  0.00000000E+00
  0.00000000E+00  0.00000000E+00  0.00000000E+00
  0.00000000E+00  0.00000000E+00  0.00000000E+00
  0.00000000E+00  0.00000000E+00  0.00000000E+00
  0.00000000E+00  0.00000000E+00  0.00000000E+00
  0.00000000E+00  0.00000000E+00  0.00000000E+00
  0.00000000E+00  0.00000000E+00  0.00000000E+00
  0.00000000E+00  0.00000000E+00  0.00000000E+00
  0.00000000E+00  0.00000000E+00  0.00000000E+00
  0.00000000E+00  0.00000000E+00  0.00000000E+00
  0.00000000E+00  0.00000000E+00  0.00000000E+00
  0.00000000E+00  0.00000000E+00  0.00000000E+00
  0.00000000E+00  0.00000000E+00  0.00000000E+00
  0.00000000E+00  0.00000000E+00  0.00000000E+00
  0.00000000E+00  0.00000000E+00  0.00000000E+00
  0.00000000E+00  0.00000000E+00  0.00000000E+00
  0.00000000E+00  0.00000000E+00  0.00000000E+00
  0.00000000E+00  0.00000000E+00  0.00000000E+00
  0.00000000E+00  0.00000000E+00  0.00000000E+00
  0.00000000E+00  0.00000000E+00  0.00000000E+00
  0.00000000E+00  0.00000000E+00  0.00000000E+00
  0.00000000E+00  0.00000000E+00  0.00000000E+00
  0.00000000E+00  0.00000000E+00  0.00000000E+00
  0.00000000E+00  0.00000000E+00  0.00000000E+00
  0.00000000E+00  0.00000000E+00  0.00000000E+00
  0.00000000E+00  0.00000000E+00  0.00000000E+00
  0.00000000E+00  0.00000000E+00  0.00000000E+00
  0.00000000E+00  0.00000000E+00  0.00000000E+00
  0.00000000E+00  0.00000000E+00  0.00000000E+00
  0.00000000E+00  0.00000000E+00  0.00000000E+00
  0.00000000E+00  0.00000000E+00  0.00000000E+00
  0.00000000E+00  0.00000000E+00  0.00000000E+00
  0.00000000E+00  0.00000000E+00  0.00000000E+00
  0.00000000E+00  0.00000000E+00  0.00000000E+00
  0.00000000E+00  0.00000000E+00  0.00000000E+00
  0.00000000E+00  0.00000000E+00  0.00000000E+00
  0.00000000E+00  0.00000000E+00  0.00000000E+00
  0.00000000E+00  0.00000000E+00  0.00000000E+00
  0.00000000E+00  0.00000000E+00  0.00000000E+00
  0.00000000E+00  0.00000000E+00  0.00000000E+00
  0.00000000E+00  0.00000000E+00  0.00000000E+00
  0.00000000E+00  0.00000000E+00  0.00000000E+00
  0.00000000E+00  0.00000000E+00  0.00000000E+00
  0.00000000E+00  0.00000000E+00  0.00000000E+00
  0.00000000E+00  0.00000000E+00  0.00000000E+00
  0.00000000E+00  0.00000000E+00  0.00000000E+00
  0.00000000E+00  0.00000000E+00  0.00000000E+00
  0.00000000E+00  0.00000000E+00  0.00000000E+00
  0.00000000E+00  0.00000000E+00  0.00000000E+00
  0.00000000E+00  0.00000000E+00  0.00000000E+00
  0.00000000E+00  0.00000000E+00  0.00000000E+00
  0.00000000E+00  0.00000000E+00  0.00000000E+00
  0.00000000E+00  0.00000000E+00  0.00000000E+00
  0.00000000E+00  0.00000000E+00  0.00000000E+00
  0.00000000E+00  0.00000000E+00  0.00000000E+00
  0.00000000E+00  0.00000000E+00  0.00000000E+00
  0.00000000E+00  0.00000000E+00  0.00000000E+00
  0.00000000E+00  0.00000000E+00  0.00000000E+00
  0.00000000E+00  0.00000000E+00  0.00000000E+00
  0.00000000E+00  0.00000000E+00  0.00000000E+00
  0.00000000E+00  0.00000000E+00  0.00000000E+00
  0.00000000E+00  0.00000000E+00  0.00000000E+00
  0.00000000E+00  0.00000000E+00  0.00000000E+00
  0.00000000E+00  0.00000000E+00  0.00000000E+00
  0.00000000E+00  0.00000000E+00  0.00000000E+00
  0.00000000E+00  0.00000000E+00  0.00000000E+00
  0.00000000E+00  0.00000000E+00  0.00000000E+00
  0.00000000E+00  0.00000000E+00  0.00000000E+00
  0.00000000E+00  0.00000000E+00  0.00000000E+00
  0.00000000E+00  0.00000000E+00  0.00000000E+00
  0.00000000E+00  0.00000000E+00  0.00000000E+00
  0.00000000E+00  0.00000000E+00  0.00000000E+00
  0.00000000E+00  0.00000000E+00  0.00000000E+00
  0.00000000E+00  0.00000000E+00  0.00000000E+00
  0.00000000E+00  0.00000000E+00  0.00000000E+00
  0.00000000E+00  0.00000000E+00  0.00000000E+00
  0.00000000E+00  0.00000000E+00  0.00000000E+00
  0.00000000E+00  0.00000000E+00  0.00000000E+00
  0.00000000E+00  0.00000000E+00  0.00000000E+00
  0.00000000E+00  0.00000000E+00  0.00000000E+00
  0.00000000E+00  0.00000000E+00  0.00000000E+00
  0.00000000E+00  0.00000000E+00  0.00000000E+00
  0.00000000E+00  0.00000000E+00  0.00000000E+00
  0.00000000E+00  0.00000000E+00  0.00000000E+00
  0.00000000E+00  0.00000000E+00  0.00000000E+00
  0.00000000E+00  0.00000000E+00  0.00000000E+00
  0.00000000E+00  0.00000000E+00  0.00000000E+00
  0.00000000E+00  0.00000000E+00  0.00000000E+00
  0.00000000E+00  0.00000000E+00  0.00000000E+00
  0.00000000E+00  0.00000000E+00  0.00000000E+00
  0.00000000E+00  0.00000000E+00  0.00000000E+00
  0.00000000E+00  0.00000000E+00  0.00000000E+00
  0.00000000E+00  0.00000000E+00  0.00000000E+00
  0.00000000E+00  0.00000000E+00  0.00000000E+00
  0.00000000E+00  0.00000000E+00  0.00000000E+00
  0.00000000E+00  0.00000000E+00  0.00000000E+00
  0.00000000E+00  0.00000000E+00  0.00000000E+00
  0.00000000E+00  0.00000000E+00  0.00000000E+00
  0.00000000E+00  0.00000000E+00  0.00000000E+00
  0.00000000E+00  0.00000000E+00  0.00000000E+00
  0.00000000E+00  0.00000000E+00  0.00000000E+00
  0.00000000E+00  0.00000000E+00  0.00000000E+00
  0.00000000E+00  0.00000000E+00  0.00000000E+00
  0.00000000E+00  0.00000000E+00  0.00000000E+00
  0.00000000E+00  0.00000000E+00  0.00000000E+00
  0.00000000E+00  0.00000000E+00  0.00000000E+00
  0.00000000E+00  0.00000000E+00  0.00000000E+00
  0.00000000E+00  0.00000000E+00  0.00000000E+00
  0.00000000E+00  0.00000000E+00  0.00000000E+00
  0.00000000E+00  0.00000000E+00  0.00000000E+00
  0.00000000E+00  0.00000000E+00  0.00000000E+00
  0.00000000E+00  0.00000000E+00  0.00000000E+00
  0.00000000E+00  0.00000000E+00  0.00000000E+00