 N B Sn 
 1.0
 14.936314146199660   0.000000000000000   0.000000000000000
 -7.468157073099825  12.935227489513863   0.000000000000000
  0.000000000000001   0.000000000000001  13.341276283792837
 N B Sn 
 143 143   1
Cartesian
  1.248236887754088   0.720485161993371   1.666252133221421 
  4.982231510860552   7.189471318524120   1.654886243109467 
  6.227147838584006   0.720089497314909   1.664592065762429 
  9.960646783925728   7.188013069315596   1.667596723826667 
 11.205897300154630   0.720737827416135   1.666995688166622 
 -3.731007073482726   9.343882052455234   8.337106434351309 
  1.247804025931784   9.344565969182343   8.341365147082200 
  2.493162196405861   2.876283764016248   8.329995234111637 
  6.226769587217587   9.344520542663096   8.345302354346041 
  7.471930045651825   2.875784120965221   8.346210408522207 
 12.450598563048763   2.876604664068447   8.339059710542591 
 -1.241545524114034   9.344124925182523   1.667740765503552 
  0.003817158735547   2.876698835293148   1.668028402411150 
  4.982774859651656   2.875844696191293   1.670179120726640 
  3.737081436348452   9.344731670856669   1.659746804322408 
  8.715939621691341   9.343909114850447   1.667596723826667 
  9.961187562390624   2.876313067544579   1.665123369869168 
 -4.975518270239966  11.499703899946825   8.337935051796391 
  0.003414394269913  11.499951292129854   8.338724848417982 
  1.248130215300468   5.032742412338938   8.329995234111637 
  6.227994866018486   5.031745893183094   8.351070969735149 
  4.982168275892823  11.500227443624169   8.340833842975446 
 11.205710979734359   5.032261820360691   8.339031159020221 
 -1.241308793820197   5.032504770243753   1.666252133221421 
 -2.486065964846706  11.499697559589537   1.667740765503552 
  2.492775642864320  11.500288224768132   1.665738968125376 
  3.739038455780439   5.033229856624982   1.727005499887134 
  7.471536373760845  11.500041962240354   1.666926053824420 
  8.716591278707273   5.032022871215846   1.660654858498586 
  0.003173806819385   7.188520831231478   8.338532190781764 
  1.248236887754089   0.720485161993371   8.339705079623206 
  4.982231510860553   7.189471318524121   8.351070969735149 
  6.227147838584007   0.720089497314909   8.341365147082200 
  9.960646783925728   7.188013069315597   8.338360489017974 
 -2.486266185900246   7.188192817023671   1.668022161048238 
 11.205897300154630   0.720737827416136   8.338961524678018 
  3.737642867856438   0.720230678221219   1.667425022062849 
  2.492556303032875   7.189029758205887   1.670179120726640 
  7.471249061802014   7.188022654683849   1.660003078310851 
  8.716543883891099   0.720405416776094   1.665738968125376 
  2.492556303032875   7.189029758205888   8.335778092118002 
 13.695283379319042   0.720747322878775   1.666897502302037 
 -1.241545524114034   9.344124925182523   8.338216447341075 
  0.003817158735548   2.876698835293149   8.337928810433464 
  4.982774859651657   2.875844696191294   8.335778092118002 
  3.737081436348453   9.344731670856669   8.346210408522207 
  8.715939621691341   9.343909114850447   8.338360489017974 
  9.961187562390624   2.876313067544580   8.340833842975446 
 -3.731007073482727   9.343882052455234   1.668850778493332 
  1.247804025931783   9.344565969182343   1.664592065762429 
  2.493162196405860   2.876283764016247   1.675961978732992 
  6.226769587217587   9.344520542663096   1.660654858498586 
  7.471930045651824   2.875784120965220   1.659746804322408 
 12.450598563048763   2.876604664068446   1.666897502302037 
 -1.241308793820197   5.032504770243754   8.339705079623206 
 -2.486065964846705  11.499697559589537   8.338216447341075 
  2.492775642864320  11.500288224768132   8.340218244719226 
  3.739038455780439   5.033229856624983   8.278951712957507 
  7.471536373760846  11.500041962240354   8.339031159020221 
 -4.975518270239967  11.499703899946825   1.668022161048238 
  8.716591278707273   5.032022871215847   8.345302354346041 
  0.003414394269912  11.499951292129854   1.667232364426645 
  1.248130215300468   5.032742412338937   1.675961978732992 
  0.003173806819385   7.188520831231477   1.667425022062849 
  6.227994866018485   5.031745893183093   1.654886243109467 
  4.982168275892822  11.500227443624169   1.665123369869168 
 11.205710979734359   5.032261820360690   1.666926053824420 
 -2.486266185900246   7.188192817023672   8.337935051796391 
  3.737642867856438   0.720230678221220   8.338532190781764 
  7.471249061802015   7.188022654683849   8.345954134533777 
  8.716543883891099   0.720405416776095   8.340218244719226 
 13.695283379319042   0.720747322878775   8.339059710542591 
  0.013868617710663   1.448465498921904   5.002978606422314 
  3.616560993626183   8.076142671061195   5.002978606422314 
  4.994007513104153   1.320319594560846   5.002978606422314 
  8.643232224676378   7.864667449255277   5.002978606422314 
  9.975328728698891   1.422784953884053   5.002978606422314 
 -4.977601314769644  10.061436560417057  11.673616748318732 
  0.001208551548356  10.061413641967142  11.673616748318732 
  1.245930287859015   3.593833184756686  11.673616748318732 
  4.979962997230910  10.061426687445326  11.673616748318732 
  6.224615877025887   3.593779831585537  11.673616748318732 
 11.203459374759269   3.593822714154847  11.673616748318732 
 -2.538493051435519  10.032380344096719   5.002978606422314 
 -1.228043463606250   3.599520322296422   5.002978606422314 
  3.795310870991873   3.423381978390176   5.002978606422314 
  2.427407635925629  10.132394939890439   5.002978606422314 
  7.440380441103443  10.064433447603591   5.002978606422314 
  8.744801898114844   3.545852042765597   5.002978606422314 
 -6.222282898579618  12.217323519769906  11.673616748318732 
 -1.243498676432147  12.217309801377606  11.673616748318732 
  0.001258855815267   5.749616771919977  11.673616748318732 
  4.979773789950621   5.749568735801162  11.673616748318732 
  3.735259191569927  12.217293144290474  11.673616748318732 
  9.958779726032526   5.749675469472101  11.673616748318732 
 -2.511093959684433   5.743037812790384   5.002978606422314 
 -3.764014504471467  12.165873013356135   5.002978606422314 
  1.229347658829181  12.207744192431617   5.002978606422314 
  2.373005504606353   5.886887136847781   5.002978606422314 
  6.224175864853343  12.236951078976672   5.002978606422314 
  7.465175899830673   5.677797578039980   5.002978606422314 
 -1.243459500847459   7.905497186915074  11.673616748318732 
  0.001197599170737   1.437951839507254  11.673616748318732 
  3.735226877240874   7.905528059016279  11.673616748318732 
  4.979953453859193   1.438045703867588  11.673616748318732 
  8.714021902327719   7.905537888703013  11.673616748318732 
 -3.788913242723674   7.881378550939046   5.002978606422314 
  9.958730133188595   1.437925273978343  11.673616748318732 
  2.485013943156206   1.395845064764146   5.002978606422314 
  1.151048375522787   7.976520072262894   5.002978606422314 
  6.160319199010415   7.937875680457384   5.002978606422314 
  7.499229546051483   1.347741704611367   5.002978606422314 
  1.245975147248640   7.905485845277110  11.673616748318732 
 12.463112429829465   1.446591320963185   5.002978606422314 
 -2.488194936687846  10.061419974185934  11.673616748318732 
 -1.243484069016089   3.593803728056439  11.673616748318732 
  3.735260061664829   3.593991031413703  11.673616748318732 
  2.490550011356332  10.061428307816685  11.673616748318732 
  7.469369192061952  10.061460995206337  11.673616748318732 
  8.714046917224520   3.593803618290388  11.673616748318732 
 -5.026525343539943  10.024985589614893   5.002978606422314 
 -0.055153484859597  10.069042639678408   5.002978606422314 
  1.276499488696392   3.611482321089117   5.002978606422314 
  4.953813205120063  10.112037069951736   5.002978606422314 
  6.313039523506196   3.405704855790346   5.002978606422314 
 11.220212740654443   3.583561373601427   5.002978606422314 
 -2.488171679049091   5.749653166430005  11.673616748318732 
 -3.732911121142017  12.217353876249943  11.673616748318732 
  1.245854976315272  12.217274696625763  11.673616748318732 
  2.490731873976802   5.749577083940995  11.673616748318732 
  6.224685763501954  12.217311568235759  11.673616748318732 
 -6.239473103204228  12.200779919246845   5.002978606422314 
  7.469325431025823   5.749652322309423  11.673616748318732 
 -1.265072788812693  12.164684347183554   5.002978606422314 
 -0.038041433622306   5.765905167654397   5.002978606422314 
 -1.303594927586965   7.904301298255029   5.002978606422314 
  3.730446587502068  12.239238109716545   5.002978606422314 
  9.946859569840887   5.723084248519334   5.002978606422314 
 -3.732883761631306   7.905522517308627  11.673616748318732 
  2.490557923382129   1.438024311660312  11.673616748318732 
  6.224621998527702   7.905541907751562  11.673616748318732 
  7.469341827569946   1.437907921826516  11.673616748318732 
 12.448142420594978   1.437948382101936  11.673616748318732 
  1.241034757810996   0.702296235516943   5.002978606422314 
  4.838236936064758   7.421439997237967   5.002978606422314 
  6.239803519053227   0.643017282687404   5.002978606422314 
  9.906375136711617   7.158697715683399   5.002978606422314 
 11.220783696719570   0.729332492480116   5.002978606422314 
 -3.732879231358615   9.342801161601738  11.673616748318732 
  1.245854324523238   9.342788245681563  11.673616748318732 
  2.490363088886401   2.875130045396630  11.673616748318732 
  6.224687939190706   9.342966402130729  11.673616748318732 
  7.469447131694269   2.875069249338659  11.673616748318732 
 12.448217228197194   2.875181120835662  11.673616748318732 
 -1.292798410670189   9.334481011992620   5.002978606422314 
  0.029894389058935   2.891754531240206   5.002978606422314 
  5.013567520646354   2.725656228208107   5.002978606422314 
  3.669382514018710   9.471813564542371   5.002978606422314 
  8.663415957117937   9.311566166473796   5.002978606422314 
  9.990321835660442   2.852061799645593   5.002978606422314 
 -4.977624411002272  11.498760738792559  11.673616748318732 
  0.001181048505125  11.498661869351345  11.673616748318732 
  1.245731511907330   5.030895173428970  11.673616748318732 
  6.224870211901596   5.030833915194002  11.673616748318732 
  4.980004055237941  11.498817522786601  11.673616748318732 
 11.203575152832656   5.031000769919344  11.673616748318732 
 -1.260661931187897   5.035362005989892   5.002978606422314 
 -2.520044281939182  11.460133214409668   5.002978606422314 
  2.472572836586929  11.539375005885654   5.002978606422314 
  7.453362929569852  11.500300169144792   5.002978606422314 
  8.727784941434747   4.984763390023310   5.002978606422314 
  0.001182203939812   7.186795402431375  11.673616748318732 
  1.245821507172050   0.719387249943086  11.673616748318732 
  4.979879387695870   7.187221277675389  11.673616748318732 
  6.224633434167153   0.719289868115705  11.673616748318732 
  9.958841514590935   7.186912709696697  11.673616748318732 
 -2.537122712175029   7.175858420594922   5.002978606422314 
 11.203512355987407   0.719360879259136  11.673616748318732 
  3.719522313461733   0.659304558386049   5.002978606422314 
  2.377885604901304   7.290791218869038   5.002978606422314 
  7.391041348678812   7.141714709921154   5.002978606422314 
  8.740292626152325   0.683365882753401   5.002978606422314 
  2.490499366550125   7.186925671144592  11.673616748318732 
 13.706792517269353   0.736565128197366   5.002978606422314 
 -1.243501114253132   9.342741221035643  11.673616748318732 
  0.001152097838810   2.875160161667089  11.673616748318732 
  4.979924198563470   2.875115380473832  11.673616748318732 
  3.735220882380665   9.342938840107232  11.673616748318732 
  8.714084047640723   9.342895885555217  11.673616748318732 
  9.958884424800505   2.875143757896869  11.673616748318732 
 -3.782418419479361   9.314199698004797   5.002978606422314 
  1.187385370373071   9.394062217284580   5.002978606422314 
  2.514066302646236   2.840471662715192   5.002978606422314 
  6.191438507298995   9.377844279542609   5.002978606422314 
  7.548136732779758   2.753614187576060   5.002978606422314 
 12.470051753261881   2.878662967249871   5.002978606422314 
 -1.243467303837885   5.030961945325043  11.673616748318732 
 -2.488242082858710  11.498695820923016  11.673616748318732 
  2.490581062441119  11.498738908107237  11.673616748318732 
  3.734953278366220   5.030871278345074  11.673616748318732 
  7.469376358592290  11.498822807106146  11.673616748318732 
 -5.011628434024935  11.461828054458888   5.002978606422314 
  8.714204529511772   5.030997181408975  11.673616748318732 
 -0.019918380573652  11.486480108292879   5.002978606422314 
  1.227568078931100   5.068751950036936   5.002978606422314 
 -0.058650037909233   7.203291030712580   5.002978606422314 
  6.356888347269090   4.791058594045873   5.002978606422314 
  4.975733198453205  11.537584098346162   5.002978606422314 
 11.196847871377441   5.016394052564982   5.002978606422314 
 -2.488136057800789   7.186840426196586  11.673616748318732 
  3.735152801243356   0.719368613933285  11.673616748318732 
  7.469405621289516   7.186958343807863  11.673616748318732 
  8.714104846092654   0.719279512709402  11.673616748318732 
 13.692859887290220   0.719396798018896  11.673616748318732 
  0.003767549429297   1.439530665598852   1.667856622422453 
  3.736401039622377   7.908132380646142   1.661283763698251 
  4.982279239881612   1.437941028675119   1.667140932519007 
  8.716423769619457   7.906924607430505   1.665050806773070 
  9.961331515693288   1.439041571719800   1.666238187704098 
 -4.975455473386666  10.062748140693575   8.337453823093515 
  0.002998234832908  10.062878248761692   8.339251723694691 
  1.248326765291770   3.595216791647653   8.329617330279993 
  4.981856066547187  10.063392029107407   8.344672512803976 
  6.227458366907735   3.593494525221142   8.344673449146404 
 11.206132537404940   3.594937544973895   8.339367229915291 
 -2.486202923672769  10.062570063436537   1.668318011127003 
 -1.240831790383327   3.595239957221014   1.667856622422453 
  3.737548801914132   3.591218044113324   1.694186699305785 
  2.492230559792788  10.063333398434548   1.663538795326684 
  7.471613783184183  10.063272539879533   1.665122748051518 
  8.716695487689092   3.594460393578444   1.661284700040651 
 -6.220006731688480  12.218858005958937   8.338565529942722 
 -1.241335448099190  12.218127409169401   8.339251723694691 
  0.003200918530403   5.751156597627029   8.335795297343900 
  4.985708298300191   5.752995025794285   8.334479109947548 
  3.737526625024564  12.218987858753769   8.339719025140543 
  9.961470865300752   5.750713570068411   8.340834464793122 
 -2.485704691582055   5.750857141686452   1.667391682901813 
 -3.730776192844321  12.218343424876295   1.667927838277369 
  1.248120276295526  12.218582568179162   1.666598319212521 
  2.489474766654947   5.752945684789757   1.694186699305785 
  6.226987816635013  12.219069179585818   1.666589982929336 
  7.472854938948929   5.750872085643786   1.655605788712454 
 -1.241535062449886   7.906851314742921   8.338029374567272 
  0.003767549429298   1.439530665598853   8.338100590422174 
  3.736401039622378   7.908132380646143   8.344673449146404 
  4.982279239881612   1.437941028675120   8.338816280325647 
  8.716423769619457   7.906924607430506   8.340906406071557 
 -3.730674979101295   7.906725080320596   1.668503389751113 
  9.961331515693288   1.439041571719801   8.339719025140543 
  2.492862482919358   1.438936274453912   1.670161915500703 
  1.247047388884033   7.907552372652512   1.667140932519007 
  6.227443098523455   7.907988669608584   1.655605788712454 
  7.471831958659756   1.438410774155847   1.663538795326684 
  1.247047388884033   7.907552372652513   8.338816280325647 
 12.450719522098897   1.439436272348951   1.667421268140249 
 -2.486202923672769  10.062570063436537   8.337639201717611 
 -1.240831790383327   3.595239957221015   8.338100590422174 
  3.737548801914133   3.591218044113325   8.311770513538855 
  2.492230559792789  10.063333398434548   8.342418417517957 
  7.471613783184184  10.063272539879533   8.340834464793122 
  8.716695487689092   3.594460393578445   8.344672512803976 
 -4.975455473386667  10.062748140693575   1.668503389751113 
  0.002998234832908  10.062878248761692   1.666705489149924 
  1.248326765291770   3.595216791647653   1.676339882564635 
  4.981856066547186  10.063392029107407   1.661284700040651 
  6.227458366907734   3.593494525221141   1.661283763698251 
 11.206132537404940   3.594937544973894   1.666589982929336 
 -2.485704691582054   5.750857141686453   8.338565529942722 
 -3.730776192844321  12.218343424876295   8.338029374567272 
  1.248120276295527  12.218582568179162   8.339358893632120 
  2.489474766654948   5.752945684789758   8.311770513538855 
  6.226987816635014  12.219069179585818   8.339367229915291 
 -6.220006731688481  12.218858005958937   1.667391682901813 
  7.472854938948930   5.750872085643786   8.350351424132173 
 -1.241335448099190  12.218127409169401   1.666705489149924 
  0.003200918530402   5.751156597627028   1.670161915500703 
 -1.241535062449887   7.906851314742920   1.667927838277369 
  4.985708298300191   5.752995025794284   1.671478102897094 
  3.737526625024564  12.218987858753769   1.666238187704098 
  9.961470865300752   5.750713570068410   1.665122748051518 
 -3.730674979101295   7.906725080320597   8.337453823093515 
  2.492862482919358   1.438936274453913   8.335795297343900 
  6.227443098523456   7.907988669608585   8.350351424132173 
  7.471831958659757   1.438410774155848   8.342418417517957 
 12.450719522098897   1.439436272348952   8.338535944704379 
  4.315188084997365   5.365870000146768   5.002978606422314 
Generated by cif2cell 2.0.0.  :  Failed to get author information, No journal information. Species order: N B Sn 
 1.0
 14.936314146199660   0.000000000000000   0.000000000000000
 -7.468157073099825  12.935227489513863   0.000000000000000
  0.000000000000001   0.000000000000001  13.341276283792837
 N B Sn 
 143 143   1
Cartesian
  1.248236887754088   0.720485161993371   1.666252133221421 
  4.982231510860552   7.189471318524120   1.654886243109467 
  6.227147838584006   0.720089497314909   1.664592065762429 
  9.960646783925728   7.188013069315596   1.667596723826667 
 11.205897300154630   0.720737827416135   1.666995688166622 
 -3.731007073482726   9.343882052455234   8.337106434351309 
  1.247804025931784   9.344565969182343   8.341365147082200 
  2.493162196405861   2.876283764016248   8.329995234111637 
  6.226769587217587   9.344520542663096   8.345302354346041 
  7.471930045651825   2.875784120965221   8.346210408522207 
 12.450598563048763   2.876604664068447   8.339059710542591 
 -1.241545524114034   9.344124925182523   1.667740765503552 
  0.003817158735547   2.876698835293148   1.668028402411150 
  4.982774859651656   2.875844696191293   1.670179120726640 
  3.737081436348452   9.344731670856669   1.659746804322408 
  8.715939621691341   9.343909114850447   1.667596723826667 
  9.961187562390624   2.876313067544579   1.665123369869168 
 -4.975518270239966  11.499703899946825   8.337935051796391 
  0.003414394269913  11.499951292129854   8.338724848417982 
  1.248130215300468   5.032742412338938   8.329995234111637 
  6.227994866018486   5.031745893183094   8.351070969735149 
  4.982168275892823  11.500227443624169   8.340833842975446 
 11.205710979734359   5.032261820360691   8.339031159020221 
 -1.241308793820197   5.032504770243753   1.666252133221421 
 -2.486065964846706  11.499697559589537   1.667740765503552 
  2.492775642864320  11.500288224768132   1.665738968125376 
  3.739038455780439   5.033229856624982   1.727005499887134 
  7.471536373760845  11.500041962240354   1.666926053824420 
  8.716591278707273   5.032022871215846   1.660654858498586 
  0.003173806819385   7.188520831231478   8.338532190781764 
  1.248236887754089   0.720485161993371   8.339705079623206 
  4.982231510860553   7.189471318524121   8.351070969735149 
  6.227147838584007   0.720089497314909   8.341365147082200 
  9.960646783925728   7.188013069315597   8.338360489017974 
 -2.486266185900246   7.188192817023671   1.668022161048238 
 11.205897300154630   0.720737827416136   8.338961524678018 
  3.737642867856438   0.720230678221219   1.667425022062849 
  2.492556303032875   7.189029758205887   1.670179120726640 
  7.471249061802014   7.188022654683849   1.660003078310851 
  8.716543883891099   0.720405416776094   1.665738968125376 
  2.492556303032875   7.189029758205888   8.335778092118002 
 13.695283379319042   0.720747322878775   1.666897502302037 
 -1.241545524114034   9.344124925182523   8.338216447341075 
  0.003817158735548   2.876698835293149   8.337928810433464 
  4.982774859651657   2.875844696191294   8.335778092118002 
  3.737081436348453   9.344731670856669   8.346210408522207 
  8.715939621691341   9.343909114850447   8.338360489017974 
  9.961187562390624   2.876313067544580   8.340833842975446 
 -3.731007073482727   9.343882052455234   1.668850778493332 
  1.247804025931783   9.344565969182343   1.664592065762429 
  2.493162196405860   2.876283764016247   1.675961978732992 
  6.226769587217587   9.344520542663096   1.660654858498586 
  7.471930045651824   2.875784120965220   1.659746804322408 
 12.450598563048763   2.876604664068446   1.666897502302037 
 -1.241308793820197   5.032504770243754   8.339705079623206 
 -2.486065964846705  11.499697559589537   8.338216447341075 
  2.492775642864320  11.500288224768132   8.340218244719226 
  3.739038455780439   5.033229856624983   8.278951712957507 
  7.471536373760846  11.500041962240354   8.339031159020221 
 -4.975518270239967  11.499703899946825   1.668022161048238 
  8.716591278707273   5.032022871215847   8.345302354346041 
  0.003414394269912  11.499951292129854   1.667232364426645 
  1.248130215300468   5.032742412338937   1.675961978732992 
  0.003173806819385   7.188520831231477   1.667425022062849 
  6.227994866018485   5.031745893183093   1.654886243109467 
  4.982168275892822  11.500227443624169   1.665123369869168 
 11.205710979734359   5.032261820360690   1.666926053824420 
 -2.486266185900246   7.188192817023672   8.337935051796391 
  3.737642867856438   0.720230678221220   8.338532190781764 
  7.471249061802015   7.188022654683849   8.345954134533777 
  8.716543883891099   0.720405416776095   8.340218244719226 
 13.695283379319042   0.720747322878775   8.339059710542591 
  0.013868617710663   1.448465498921904   5.002978606422314 
  3.616560993626183   8.076142671061195   5.002978606422314 
  4.994007513104153   1.320319594560846   5.002978606422314 
  8.643232224676378   7.864667449255277   5.002978606422314 
  9.975328728698891   1.422784953884053   5.002978606422314 
 -4.977601314769644  10.061436560417057  11.673616748318732 
  0.001208551548356  10.061413641967142  11.673616748318732 
  1.245930287859015   3.593833184756686  11.673616748318732 
  4.979962997230910  10.061426687445326  11.673616748318732 
  6.224615877025887   3.593779831585537  11.673616748318732 
 11.203459374759269   3.593822714154847  11.673616748318732 
 -2.538493051435519  10.032380344096719   5.002978606422314 
 -1.228043463606250   3.599520322296422   5.002978606422314 
  3.795310870991873   3.423381978390176   5.002978606422314 
  2.427407635925629  10.132394939890439   5.002978606422314 
  7.440380441103443  10.064433447603591   5.002978606422314 
  8.744801898114844   3.545852042765597   5.002978606422314 
 -6.222282898579618  12.217323519769906  11.673616748318732 
 -1.243498676432147  12.217309801377606  11.673616748318732 
  0.001258855815267   5.749616771919977  11.673616748318732 
  4.979773789950621   5.749568735801162  11.673616748318732 
  3.735259191569927  12.217293144290474  11.673616748318732 
  9.958779726032526   5.749675469472101  11.673616748318732 
 -2.511093959684433   5.743037812790384   5.002978606422314 
 -3.764014504471467  12.165873013356135   5.002978606422314 
  1.229347658829181  12.207744192431617   5.002978606422314 
  2.373005504606353   5.886887136847781   5.002978606422314 
  6.224175864853343  12.236951078976672   5.002978606422314 
  7.465175899830673   5.677797578039980   5.002978606422314 
 -1.243459500847459   7.905497186915074  11.673616748318732 
  0.001197599170737   1.437951839507254  11.673616748318732 
  3.735226877240874   7.905528059016279  11.673616748318732 
  4.979953453859193   1.438045703867588  11.673616748318732 
  8.714021902327719   7.905537888703013  11.673616748318732 
 -3.788913242723674   7.881378550939046   5.002978606422314 
  9.958730133188595   1.437925273978343  11.673616748318732 
  2.485013943156206   1.395845064764146   5.002978606422314 
  1.151048375522787   7.976520072262894   5.002978606422314 
  6.160319199010415   7.937875680457384   5.002978606422314 
  7.499229546051483   1.347741704611367   5.002978606422314 
  1.245975147248640   7.905485845277110  11.673616748318732 
 12.463112429829465   1.446591320963185   5.002978606422314 
 -2.488194936687846  10.061419974185934  11.673616748318732 
 -1.243484069016089   3.593803728056439  11.673616748318732 
  3.735260061664829   3.593991031413703  11.673616748318732 
  2.490550011356332  10.061428307816685  11.673616748318732 
  7.469369192061952  10.061460995206337  11.673616748318732 
  8.714046917224520   3.593803618290388  11.673616748318732 
 -5.026525343539943  10.024985589614893   5.002978606422314 
 -0.055153484859597  10.069042639678408   5.002978606422314 
  1.276499488696392   3.611482321089117   5.002978606422314 
  4.953813205120063  10.112037069951736   5.002978606422314 
  6.313039523506196   3.405704855790346   5.002978606422314 
 11.220212740654443   3.583561373601427   5.002978606422314 
 -2.488171679049091   5.749653166430005  11.673616748318732 
 -3.732911121142017  12.217353876249943  11.673616748318732 
  1.245854976315272  12.217274696625763  11.673616748318732 
  2.490731873976802   5.749577083940995  11.673616748318732 
  6.224685763501954  12.217311568235759  11.673616748318732 
 -6.239473103204228  12.200779919246845   5.002978606422314 
  7.469325431025823   5.749652322309423  11.673616748318732 
 -1.265072788812693  12.164684347183554   5.002978606422314 
 -0.038041433622306   5.765905167654397   5.002978606422314 
 -1.303594927586965   7.904301298255029   5.002978606422314 
  3.730446587502068  12.239238109716545   5.002978606422314 
  9.946859569840887   5.723084248519334   5.002978606422314 
 -3.732883761631306   7.905522517308627  11.673616748318732 
  2.490557923382129   1.438024311660312  11.673616748318732 
  6.224621998527702   7.905541907751562  11.673616748318732 
  7.469341827569946   1.437907921826516  11.673616748318732 
 12.448142420594978   1.437948382101936  11.673616748318732 
  1.241034757810996   0.702296235516943   5.002978606422314 
  4.838236936064758   7.421439997237967   5.002978606422314 
  6.239803519053227   0.643017282687404   5.002978606422314 
  9.906375136711617   7.158697715683399   5.002978606422314 
 11.220783696719570   0.729332492480116   5.002978606422314 
 -3.732879231358615   9.342801161601738  11.673616748318732 
  1.245854324523238   9.342788245681563  11.673616748318732 
  2.490363088886401   2.875130045396630  11.673616748318732 
  6.224687939190706   9.342966402130729  11.673616748318732 
  7.469447131694269   2.875069249338659  11.673616748318732 
 12.448217228197194   2.875181120835662  11.673616748318732 
 -1.292798410670189   9.334481011992620   5.002978606422314 
  0.029894389058935   2.891754531240206   5.002978606422314 
  5.013567520646354   2.725656228208107   5.002978606422314 
  3.669382514018710   9.471813564542371   5.002978606422314 
  8.663415957117937   9.311566166473796   5.002978606422314 
  9.990321835660442   2.852061799645593   5.002978606422314 
 -4.977624411002272  11.498760738792559  11.673616748318732 
  0.001181048505125  11.498661869351345  11.673616748318732 
  1.245731511907330   5.030895173428970  11.673616748318732 
  6.224870211901596   5.030833915194002  11.673616748318732 
  4.980004055237941  11.498817522786601  11.673616748318732 
 11.203575152832656   5.031000769919344  11.673616748318732 
 -1.260661931187897   5.035362005989892   5.002978606422314 
 -2.520044281939182  11.460133214409668   5.002978606422314 
  2.472572836586929  11.539375005885654   5.002978606422314 
  7.453362929569852  11.500300169144792   5.002978606422314 
  8.727784941434747   4.984763390023310   5.002978606422314 
  0.001182203939812   7.186795402431375  11.673616748318732 
  1.245821507172050   0.719387249943086  11.673616748318732 
  4.979879387695870   7.187221277675389  11.673616748318732 
  6.224633434167153   0.719289868115705  11.673616748318732 
  9.958841514590935   7.186912709696697  11.673616748318732 
 -2.537122712175029   7.175858420594922   5.002978606422314 
 11.203512355987407   0.719360879259136  11.673616748318732 
  3.719522313461733   0.659304558386049   5.002978606422314 
  2.377885604901304   7.290791218869038   5.002978606422314 
  7.391041348678812   7.141714709921154   5.002978606422314 
  8.740292626152325   0.683365882753401   5.002978606422314 
  2.490499366550125   7.186925671144592  11.673616748318732 
 13.706792517269353   0.736565128197366   5.002978606422314 
 -1.243501114253132   9.342741221035643  11.673616748318732 
  0.001152097838810   2.875160161667089  11.673616748318732 
  4.979924198563470   2.875115380473832  11.673616748318732 
  3.735220882380665   9.342938840107232  11.673616748318732 
  8.714084047640723   9.342895885555217  11.673616748318732 
  9.958884424800505   2.875143757896869  11.673616748318732 
 -3.782418419479361   9.314199698004797   5.002978606422314 
  1.187385370373071   9.394062217284580   5.002978606422314 
  2.514066302646236   2.840471662715192   5.002978606422314 
  6.191438507298995   9.377844279542609   5.002978606422314 
  7.548136732779758   2.753614187576060   5.002978606422314 