Species order:X N B                     
   2.51242800000000     
     5.9449720136058266    0.0000000000000000    0.0000000000000000
    -2.9724860068029120    5.1484967885702053   -0.0000000000000001
     0.0000000000000000    0.0000000000000009    5.3101128803662583
   C    N    B 
     4   142   142
Direct
  0.7170592042380801  0.6086197073149778  0.3750000000000000
  0.6057869643534348  0.5527490456667336  0.3750000000000000
  0.4418174270617292  0.3885537524528085  0.3750000000000000
  0.5522399535022317  0.4463642422255798  0.3750000000000000
  0.1111105872729799  0.0555654101038848  0.1250571789413730
  0.6111192175809674  0.5556137203959081  0.1240010536841833
  0.4444353594658801  0.0555673950513065  0.1250601215367575
  0.9444327172705040  0.5555476141537681  0.1249956736259960
  0.7777850383153466  0.0555790385618951  0.1249871599209801
  0.1110907906052697  0.7222124113504433  0.6250044755461511
  0.4444469915582995  0.7222251526268310  0.6248991695499674
  0.2777752215776499  0.2222434792017529  0.6249080284097954
  0.7777913148605003  0.7222911094093534  0.6253771470994881
  0.6111065268859528  0.2222257379956267  0.6249896164024157
  0.9444455691452787  0.2222335869990166  0.6250055587388268
  0.2777669446231316  0.7222167467441785  0.1250310217956448
  0.1111009703805778  0.2222203540780628  0.1250451797699504
  0.4444491180085152  0.2222578938532787  0.1251110742284519
  0.6111401698697035  0.7222588664984104  0.1249949110614739
  0.9444136738195326  0.7222109394675242  0.1250201809515628
  0.7777777075959531  0.2222272983426442  0.1250163104928402
  0.1110934636641522  0.8888829016942366  0.6249571605659798
  0.4444341212672878  0.8888907189224362  0.6249718758364557
  0.2777811220937927  0.3888883187922035  0.6248879907684730
  0.6110965980293788  0.3888995384256751  0.6252599426658086
  0.7778082242290939  0.8889477568873040  0.6250642625003410
  0.9444482631888907  0.3888929813231442  0.6249961394920250
  0.1111131908693291  0.3888914794081254  0.1250674503210372
  0.2777666609505792  0.8888893904094793  0.1250119711007930
  0.6111140911879218  0.8889013464266133  0.1250696194424155
  0.4444435333933513  0.3889182198045859  0.1245213168431059
  0.9444498238717474  0.8889124711553217  0.1250050937725537
  0.7777737342924587  0.3888885214209597  0.1249616252319364
  0.2777797985513595  0.5555514895506501  0.6248963112156355
  0.1111105872729799  0.0555654101038848  0.6249428210586274
  0.6111192175809674  0.5556137203959081  0.6259989463158168
  0.4444353594658801  0.0555673950513065  0.6249398784632423
  0.9444327172705040  0.5555476141537681  0.6250043263740043
  0.1111044764468514  0.5555507820945847  0.1250286714591152
  0.7777850383153466  0.0555790385618951  0.6250128400790204
  0.2777729364947055  0.0555656933694541  0.1250758521624529
  0.4444612163828410  0.5555707229996325  0.1250159361149605
  0.7777607463902447  0.5555352045734974  0.1246129344946934
  0.6111003141191066  0.0555541513057466  0.1250183695554346
  0.4444612163828410  0.5555707229996325  0.6249840638850400
  0.9444555079132070  0.0555773516046699  0.1250139697115479
  0.2777669446231316  0.7222167467441785  0.6249689782043554
  0.1111009703805778  0.2222203540780628  0.6249548202300494
  0.4444491180085152  0.2222578938532787  0.6248889257715481
  0.6111401698697035  0.7222588664984104  0.6250050889385260
  0.9444136738195326  0.7222109394675242  0.6249798190484377
  0.7777777075959531  0.2222272983426442  0.6249836895071598
  0.1110907906052697  0.7222124113504433  0.1249955244538494
  0.4444469915582995  0.7222251526268310  0.1251008304500322
  0.2777752215776499  0.2222434792017529  0.1250919715902039
  0.7777913148605003  0.7222911094093534  0.1246228529005119
  0.6111065268859528  0.2222257379956267  0.1250103835975846
  0.9444455691452787  0.2222335869990166  0.1249944412611733
  0.1111131908693291  0.3888914794081254  0.6249325496789625
  0.2777666609505792  0.8888893904094793  0.6249880288992071
  0.6111140911879218  0.8889013464266133  0.6249303805575849
  0.4444435333933513  0.3889182198045859  0.6254786831568938
  0.9444498238717474  0.8889124711553217  0.6249949062274460
  0.1110934636641522  0.8888829016942366  0.1250428394340131
  0.7777737342924587  0.3888885214209597  0.6250383747680639
  0.4444341212672878  0.8888907189224362  0.1250281241635439
  0.2777811220937927  0.3888883187922035  0.1251120092315267
  0.2777797985513595  0.5555514895506501  0.1251036887843648
  0.6110965980293788  0.3888995384256751  0.1247400573341916
  0.7778082242290939  0.8889477568873040  0.1249357374996589
  0.9444482631888907  0.3888929813231442  0.1250038605079750
  0.1111044764468514  0.5555507820945847  0.6249713285408917
  0.2777729364947055  0.0555656933694541  0.6249241478375472
  0.7777607463902447  0.5555352045734974  0.6253870655053061
  0.6111003141191066  0.0555541513057466  0.6249816304445655
  0.9444555079132070  0.0555773516046699  0.6249860302884513
  0.0557756571527510  0.1113223261866308  0.3750000000000000
  0.5551723827264631  0.6100829808092547  0.3750000000000000
  0.3892385056716423  0.1127186364123786  0.3750000000000000
  0.8893407946891650  0.6105332059588483  0.3750000000000000
  0.7221511084173781  0.1108474627668678  0.3750000000000000
  0.0555549213773039  0.7777735749725967  0.8750000000000000
  0.3888868051790006  0.7777730204000780  0.8750000000000000
  0.2222190298180471  0.2777698235187541  0.8750000000000000
  0.7222179282009176  0.7777744623645836  0.8750000000000000
  0.5555503572119098  0.2777635115975408  0.8750000000000000
  0.8888848008640245  0.2777730852597126  0.8750000000000000
  0.2224751412782421  0.7779967258244519  0.3750000000000000
  0.0557173017378272  0.2778344343177118  0.3750000000000000
  0.3894998609474586  0.2812202785524012  0.3750000000000000
  0.5554179361033069  0.7770506617464374  0.3750000000000000
  0.8893093761208772  0.7787352448821611  0.3750000000000000
  0.7224739402162261  0.2766580668524798  0.3750000000000000
  0.0555542814158147  0.9444416697961752  0.8750000000000000
  0.3888883781168425  0.9444371057687463  0.8750000000000000
  0.2222195729608181  0.4444386461175551  0.8750000000000000
  0.5555501049665864  0.4444328526886411  0.8750000000000000
  0.7222167430078260  0.9444385662319577  0.8750000000000000
  0.8888870387468875  0.4444389124344649  0.8750000000000000
  0.0562061362414871  0.4444812233649674  0.3750000000000000
  0.2225810835185242  0.9449413786293989  0.3750000000000000
  0.5553877831763113  0.9440600835359093  0.3750000000000000
  0.3882931532055580  0.4420139125841277  0.3750000000000000
  0.8892498320560904  0.9451006601596106  0.3750000000000000
  0.7233560754880067  0.4420946099230374  0.3750000000000000
  0.2222176004413016  0.6111040167208740  0.8750000000000000
  0.0555517442807943  0.1111024238058021  0.8750000000000000
  0.5555475381502112  0.6111032152883339  0.8750000000000000
  0.3888873685574373  0.1111001288733628  0.8750000000000000
  0.8888901266851866  0.6111060310431508  0.8750000000000000
  0.0562215813165219  0.6112102078307542  0.3750000000000000
  0.7222143232931285  0.1111020617065092  0.8750000000000000
  0.2230972500162008  0.1121271090463478  0.3750000000000000
  0.3890433642816878  0.6100853681515683  0.3750000000000000
  0.5555001138736309  0.1107506779993748  0.3750000000000000
  0.3888857346753997  0.6111045903244567  0.8750000000000000
  0.8890583988155236  0.1112469153263602  0.3750000000000000
  0.2222203003511197  0.7777716433483208  0.8750000000000000
  0.0555516232781864  0.2777715303143507  0.8750000000000000
  0.3888867810818894  0.2777678472403162  0.8750000000000000
  0.5555505253594195  0.7777707160009182  0.8750000000000000
  0.8888907468475000  0.7777763211656492  0.8750000000000000
  0.7222166061205642  0.2777691394384506  0.8750000000000000
  0.0555561700178933  0.7778448378995738  0.3750000000000000
  0.3890324272533342  0.7775367857043741  0.3750000000000000
  0.2217309989116226  0.2776292781158642  0.3750000000000000
  0.7225115386283895  0.7802403576928310  0.3750000000000000
  0.5561239956633821  0.2775309160750051  0.3750000000000000
  0.8892226775000747  0.2775914998182549  0.3750000000000000
  0.0555514602859626  0.4444395756483005  0.8750000000000000
  0.2222209543726795  0.9444378127001796  0.8750000000000000
  0.5555497038616559  0.9444363885353105  0.8750000000000000
  0.3888863413500659  0.4444386025997545  0.8750000000000000
  0.8888891671201464  0.9444409654136593  0.8750000000000000
  0.0562523219819350  0.9451954701051887  0.3750000000000000
  0.7222167024598959  0.4444342117732601  0.8750000000000000
  0.3890116369502417  0.9448940332985016  0.3750000000000000
  0.2226320249201126  0.4444359931437279  0.3750000000000000
  0.2227099579062863  0.6111394351243682  0.3750000000000000
  0.7220954865920693  0.9451319017321561  0.3750000000000000
  0.8898141681209432  0.4440725127589512  0.3750000000000000
  0.0555523814031945  0.6111034612352546  0.8750000000000000
  0.2222195107594858  0.1111027920408664  0.8750000000000000
  0.7222191860560405  0.6111054179577935  0.8750000000000000
  0.5555489346726147  0.1110971453140078  0.8750000000000000
  0.8888852588482491  0.1111037495524016  0.8750000000000000
  0.1116951962449884  0.0561588047957082  0.3750000000000000
  0.4445131956797431  0.0562195791788723  0.3750000000000000
  0.9450662324390676  0.5554245727012458  0.3750000000000000
  0.7778681706963879  0.0558158765480791  0.3750000000000000
  0.1110968745060404  0.7222131359852365  0.8750000000000000
  0.4444493934629640  0.7222199510313138  0.8750000000000000
  0.2777840122662706  0.2222153650424886  0.8750000000000000
  0.7777723257208042  0.7222058224691204  0.8750000000000000
  0.6111094036946890  0.2222204686323044  0.8750000000000000
  0.9444303728358819  0.2222123775834764  0.8750000000000000
  0.2779378396184371  0.7223076232826159  0.3750000000000000
  0.1107221044078677  0.2220420754017641  0.3750000000000000
  0.4453499618939267  0.2240863480969110  0.3750000000000000
  0.6117741340511561  0.7223772985847664  0.3750000000000000
  0.9440393228557823  0.7219958676179983  0.3750000000000000
  0.7780684654812646  0.2216583572112955  0.3750000000000000
  0.1110990713479093  0.8888756072780294  0.8750000000000000
  0.4444450665831514  0.8888848933361271  0.8750000000000000
  0.2777848848478567  0.3888858008918623  0.8750000000000000
  0.6111154571023844  0.3888931214123730  0.8750000000000000
  0.7777732947568400  0.8888727936897796  0.8750000000000000
  0.9444300519542930  0.3888868926595850  0.8750000000000000
  0.1113673032608103  0.3888341348107498  0.3750000000000000
  0.2779189912798392  0.8891568876399998  0.3750000000000000
  0.6110553108897666  0.8886401252934299  0.3750000000000000
  0.9449965508807016  0.8895568934213842  0.3750000000000000
  0.7788054194794782  0.3874264406518613  0.3750000000000000
  0.2777771341256637  0.5555544808041097  0.8750000000000000
  0.1111018239608993  0.0555412467782375  0.8750000000000000
  0.6111211512754210  0.5555473453936878  0.8750000000000000
  0.4444467460889404  0.0555492422879422  0.8750000000000000
  0.9444292019433786  0.5555520973581929  0.8750000000000000
  0.1115475024216043  0.5556079383648082  0.3750000000000000
  0.7777694975457696  0.0555445714915345  0.8750000000000000
  0.2781047152551538  0.0561147894361417  0.3750000000000000
  0.4440722651299374  0.5542575244522902  0.3750000000000000
  0.7779330946357064  0.5526293588493572  0.3750000000000000
  0.6110594026353164  0.0552258595728374  0.3750000000000000
  0.4444593432268306  0.5555544033191118  0.8750000000000000
  0.9446647454632422  0.0558376060560451  0.3750000000000000
  0.2777727604803293  0.7222186436318527  0.8750000000000000
  0.1111028763975467  0.2222091351524681  0.8750000000000000
  0.4444549952373964  0.2222209282646765  0.8750000000000000
  0.6111190057461432  0.7222114456291064  0.8750000000000000
  0.9444285324308265  0.7222088032070402  0.8750000000000000
  0.7777680677744044  0.2222193146177509  0.8750000000000000
  0.1112472540727823  0.7223488336296905  0.3750000000000000
  0.4444337457241267  0.7216972455118774  0.3750000000000000
  0.2778250641820372  0.2229960016882662  0.3750000000000000
  0.7779562458792081  0.7249777828216922  0.3750000000000000
  0.6114083032259064  0.2216569246942123  0.3750000000000000
  0.9446058261632647  0.2221619405200350  0.3750000000000000
  0.1111004028879560  0.3888838530222848  0.8750000000000000
  0.2777731558638416  0.8888805270643683  0.8750000000000000
  0.6111117618291413  0.8888813837534627  0.8750000000000000
  0.4444661014666282  0.3888911990403717  0.8750000000000000
  0.9444317430742162  0.8888704024623373  0.8750000000000000
  0.1112895533022442  0.8891158865927939  0.3750000000000000
  0.7777685702553369  0.3888912620690679  0.8750000000000000
  0.4443935104469849  0.8888989109795308  0.3750000000000000
  0.2767052192338270  0.3879951610463744  0.3750000000000000
  0.2779265581306624  0.5554542789756376  0.3750000000000000
  0.6128206413123658  0.3884251863636896  0.3750000000000000
  0.7780551601752316  0.8904103876700611  0.3750000000000000
  0.9450999012348731  0.3886816588548040  0.3750000000000000
  0.1110971075846784  0.5555517112156919  0.8750000000000000
  0.2777764134175577  0.0555450037034922  0.8750000000000000
  0.7777697639386748  0.5555520384593715  0.8750000000000000
  0.6111076573775500  0.0555495933528926  0.8750000000000000
  0.9444335008664160  0.0555388007059076  0.8750000000000000
  0.0555316948561537  0.1110959947096956  0.1250070052426442
  0.5556635514871164  0.6111265039796220  0.1246263280191388
  0.3888924013776505  0.1111391816593318  0.1250360952682364
  0.8888141482889385  0.6110843959443917  0.1250036424286128
  0.7222286389406325  0.1111260638296945  0.1249983286430366
  0.0554843108856584  0.7777395855978212  0.6249631015500150
  0.3888801841971979  0.7777804877712702  0.6249934043041512
  0.2221993972645508  0.2777650256461823  0.6250333208317470
  0.7222852872136274  0.7778090020183943  0.6251140597966605
  0.5556019686118073  0.2778647848107731  0.6250507940894853
  0.8888804018713842  0.2777894441476325  0.6250027898368298
  0.2221785530407804  0.7777637509892472  0.1249948424734653
  0.0555297177032074  0.2777693345560235  0.1249918077517183
  0.3889383506801390  0.2778666858868895  0.1248448409033776
  0.5555978835477448  0.7777923537982392  0.1250197049625313
  0.8888439249719952  0.7777621144332402  0.1249984785309353
  0.7222300546496105  0.2778107307243362  0.1249936091025229
  0.0555156957460426  0.9444206926409588  0.6249687234523510
  0.3888744346051980  0.9444498532887300  0.6250001235204741
  0.2222084089225017  0.4444419877578647  0.6249895162706030
  0.5556270878592715  0.4445747385937833  0.6252908916653938
  0.7222538503935260  0.9444627317758197  0.6250025889771875
  0.8888635474972574  0.4444549489168211  0.6249990184270398
  0.0555279127220072  0.4444455805639153  0.1250058703417815
  0.2221843229564335  0.9444255984059566  0.1250135343918291
  0.5555622112641814  0.9444546371144742  0.1250073195528272
  0.3889453207355903  0.4444519688837520  0.1247322476036909
  0.8888912128629166  0.9444491030437806  0.1249925883684404
  0.7222202954444759  0.4444964438126236  0.1248746575450363
  0.2221933368878789  0.6111071821132783  0.6249917350461841
  0.0555316948561537  0.1110959947096956  0.6249929947573556
  0.5556635514871164  0.6111265039796220  0.6253736719808538
  0.3888924013776505  0.1111391816593318  0.6249639047317637
  0.8888141482889385  0.6110843959443917  0.6249963575713872
  0.0555026598704260  0.6110967614717830  0.1250189549531258
  0.7222286389406325  0.1111260638296945  0.6250016713569634
  0.2222032349963871  0.1111077570088153  0.1250242482400253
  0.3889101384531783  0.6111150315604131  0.1250025393311163
  0.7222090761757188  0.6111317419563089  0.1248992136423075
  0.5555684093210979  0.1111403323896466  0.1250085052742299
  0.3889101384531783  0.6111150315604131  0.6249974606688835
  0.8888882592808540  0.1111142815485179  0.1249921895923279
  0.2221785530407804  0.7777637509892472  0.6250051575265351
  0.0555297177032074  0.2777693345560235  0.6250081922482815
  0.3889383506801390  0.2778666858868895  0.6251551590966227
  0.5555978835477448  0.7777923537982392  0.6249802950374688
  0.8888439249719952  0.7777621144332402  0.6250015214690647
  0.7222300546496105  0.2778107307243362  0.6250063908974771
  0.0554843108856584  0.7777395855978212  0.1250368984499857
  0.3888801841971979  0.7777804877712702  0.1250065956958489
  0.2221993972645508  0.2777650256461823  0.1249666791682528
  0.7222852872136274  0.7778090020183943  0.1248859402033391
  0.5556019686118073  0.2778647848107731  0.1249492059105144
  0.8888804018713842  0.2777894441476325  0.1249972101631701
  0.0555279127220072  0.4444455805639153  0.6249941296582189
  0.2221843229564335  0.9444255984059566  0.6249864656081705
  0.5555622112641814  0.9444546371144742  0.6249926804471727
  0.3889453207355903  0.4444519688837520  0.6252677523963096
  0.8888912128629166  0.9444491030437806  0.6250074116315594
  0.0555156957460426  0.9444206926409588  0.1250312765476485
  0.7222202954444759  0.4444964438126236  0.6251253424549635
  0.3888744346051980  0.9444498532887300  0.1249998764795255
  0.2222084089225017  0.4444419877578647  0.1250104837293970
  0.2221933368878789  0.6111071821132783  0.1250082649538160
  0.5556270878592715  0.4445747385937833  0.1247091083346069
  0.7222538503935260  0.9444627317758197  0.1249974110228125
  0.8888635474972574  0.4444549489168211  0.1250009815729599
  0.0555026598704260  0.6110967614717830  0.6249810450468744
  0.2222032349963871  0.1111077570088153  0.6249757517599746
  0.7222090761757188  0.6111317419563089  0.6251007863576921
  0.5555684093210979  0.1111403323896466  0.6249914947257703
  0.8888882592808540  0.1111142815485179  0.6250078104076725
 
  0.00000000E+00  0.00000000E+00  0.00000000E+00
  0.00000000E+00  0.00000000E+00  0.00000000E+00
  0.00000000E+00  0.00000000E+00  0.00000000E+00
  0.00000000E+00  0.00000000E+00  0.00000000E+00
  0.00000000E+00  0.00000000E+00  0.00000000E+00
  0.00000000E+00  0.00000000E+00  0.00000000E+00
  0.00000000E+00  0.00000000E+00  0.00000000E+00
  0.00000000E+00  0.00000000E+00  0.00000000E+00
  0.00000000E+00  0.00000000E+00  0.00000000E+00
  0.00000000E+00  0.00000000E+00  0.00000000E+00
  0.00000000E+00  0.00000000E+00  0.00000000E+00
  0.00000000E+00  0.00000000E+00  0.00000000E+00
  0.00000000E+00  0.00000000E+00  0.00000000E+00
  0.00000000E+00  0.00000000E+00  0.00000000E+00
  0.00000000E+00  0.00000000E+00  0.00000000E+00
  0.00000000E+00  0.00000000E+00  0.00000000E+00
  0.00000000E+00  0.00000000E+00  0.00000000E+00
  0.00000000E+00  0.00000000E+00  0.00000000E+00
  0.00000000E+00  0.00000000E+00  0.00000000E+00
  0.00000000E+00  0.00000000E+00  0.00000000E+00
  0.00000000E+00  0.00000000E+00  0.00000000E+00
  0.00000000E+00  0.00000000E+00  0.00000000E+00
  0.00000000E+00  0.00000000E+00  0.00000000E+00
  0.00000000E+00  0.00000000E+00  0.00000000E+00
  0.00000000E+00  0.00000000E+00  0.00000000E+00
  0.00000000E+00  0.00000000E+00  0.00000000E+00
  0.00000000E+00  0.00000000E+00  0.00000000E+00
  0.00000000E+00  0.00000000E+00  0.00000000E+00
  0.00000000E+00  0.00000000E+00  0.00000000E+00
  0.00000000E+00  0.00000000E+00  0.00000000E+00
  0.00000000E+00  0.00000000E+00  0.00000000E+00
  0.00000000E+00  0.00000000E+00  0.00000000E+00
  0.00000000E+00  0.00000000E+00  0.00000000E+00
  0.00000000E+00  0.00000000E+00  0.00000000E+00
  0.00000000E+00  0.00000000E+00  0.00000000E+00
  0.00000000E+00  0.00000000E+00  0.00000000E+00
  0.00000000E+00  0.00000000E+00  0.00000000E+00
  0.00000000E+00  0.00000000E+00  0.00000000E+00
  0.00000000E+00  0.00000000E+00  0.00000000E+00
  0.00000000E+00  0.00000000E+00  0.00000000E+00
  0.00000000E+00  0.00000000E+00  0.00000000E+00
  0.00000000E+00  0.00000000E+00  0.00000000E+00
  0.00000000E+00  0.00000000E+00  0.00000000E+00
  0.00000000E+00  0.00000000E+00  0.00000000E+00
  0.00000000E+00  0.00000000E+00  0.00000000E+00
  0.00000000E+00  0.00000000E+00  0.00000000E+00
  0.00000000E+00  0.00000000E+00  0.00000000E+00
  0.00000000E+00  0.00000000E+00  0.00000000E+00
  0.00000000E+00  0.00000000E+00  0.00000000E+00
  0.00000000E+00  0.00000000E+00  0.00000000E+00
  0.00000000E+00  0.00000000E+00  0.00000000E+00
  0.00000000E+00  0.00000000E+00  0.00000000E+00
  0.00000000E+00  0.00000000E+00  0.00000000E+00
  0.00000000E+00  0.00000000E+00  0.00000000E+00
  0.00000000E+00  0.00000000E+00  0.00000000E+00
  0.00000000E+00  0.00000000E+00  0.00000000E+00
  0.00000000E+00  0.00000000E+00  0.00000000E+00
  0.00000000E+00  0.00000000E+00  0.00000000E+00
  0.00000000E+00  0.00000000E+00  0.00000000E+00
  0.00000000E+00  0.00000000E+00  0.00000000E+00
  0.00000000E+00  0.00000000E+00  0.00000000E+00
  0.00000000E+00  0.00000000E+00  0.00000000E+00
  0.00000000E+00  0.00000000E+00  0.00000000E+00
  0.00000000E+00  0.00000000E+00  0.00000000E+00
  0.00000000E+00  0.00000000E+00  0.00000000E+00
  0.00000000E+00  0.00000000E+00  0.00000000E+00
  0.00000000E+00  0.00000000E+00  0.00000000E+00
  0.00000000E+00  0.00000000E+00  0.00000000E+00
  0.00000000E+00  0.00000000E+00  0.00000000E+00
  0.00000000E+00  0.00000000E+00  0.00000000E+00
  0.00000000E+00  0.00000000E+00  0.00000000E+00
  0.00000000E+00  0.00000000E+00  0.00000000E+00
  0.00000000E+00  0.00000000E+00  0.00000000E+00
  0.00000000E+00  0.00000000E+00  0.00000000E+00
  0.00000000E+00  0.00000000E+00  0.00000000E+00
  0.00000000E+00  0.00000000E+00  0.00000000E+00
  0.00000000E+00  0.00000000E+00  0.00000000E+00
  0.00000000E+00  0.00000000E+00  0.00000000E+00
  0.00000000E+00  0.00000000E+00  0.00000000E+00
  0.00000000E+00  0.00000000E+00  0.00000000E+00
  0.00000000E+00  0.00000000E+00  0.00000000E+00
  0.00000000E+00  0.00000000E+00  0.00000000E+00
  0.00000000E+00  0.00000000E+00  0.00000000E+00
  0.00000000E+00  0.00000000E+00  0.00000000E+00
  0.00000000E+00  0.00000000E+00  0.00000000E+00
  0.00000000E+00  0.00000000E+00  0.00000000E+00
  0.00000000E+00  0.00000000E+00  0.00000000E+00
  0.00000000E+00  0.00000000E+00  0.00000000E+00
  0.00000000E+00  0.00000000E+00  0.00000000E+00
  0.00000000E+00  0.00000000E+00  0.00000000E+00
  0.00000000E+00  0.00000000E+00  0.00000000E+00
  0.00000000E+00  0.00000000E+00  0.00000000E+00
  0.00000000E+00  0.00000000E+00  0.00000000E+00
  0.00000000E+00  0.00000000E+00  0.00000000E+00
  0.00000000E+00  0.00000000E+00  0.00000000E+00
  0.00000000E+00  0.00000000E+00  0.00000000E+00
  0.00000000E+00  0.00000000E+00  0.00000000E+00
  0.00000000E+00  0.00000000E+00  0.00000000E+00
  0.00000000E+00  0.00000000E+00  0.00000000E+00
  0.00000000E+00  0.00000000E+00  0.00000000E+00
  0.00000000E+00  0.00000000E+00  0.00000000E+00
  0.00000000E+00  0.00000000E+00  0.00000000E+00
  0.00000000E+00  0.00000000E+00  0.00000000E+00
  0.00000000E+00  0.00000000E+00  0.00000000E+00
  0.00000000E+00  0.00000000E+00  0.00000000E+00
  0.00000000E+00  0.00000000E+00  0.00000000E+00
  0.00000000E+00  0.00000000E+00  0.00000000E+00
  0.00000000E+00  0.00000000E+00  0.00000000E+00
  0.00000000E+00  0.00000000E+00  0.00000000E+00
  0.00000000E+00  0.00000000E+00  0.00000000E+00
  0.00000000E+00  0.00000000E+00  0.00000000E+00
  0.00000000E+00  0.00000000E+00  0.00000000E+00
  0.00000000E+00  0.00000000E+00  0.00000000E+00
  0.00000000E+00  0.00000000E+00  0.00000000E+00
  0.00000000E+00  0.00000000E+00  0.00000000E+00
  0.00000000E+00  0.00000000E+00  0.00000000E+00
  0.00000000E+00  0.00000000E+00  0.00000000E+00
  0.00000000E+00  0.00000000E+00  0.00000000E+00
  0.00000000E+00  0.00000000E+00  0.00000000E+00
  0.00000000E+00  0.00000000E+00  0.00000000E+00
  0.00000000E+00  0.00000000E+00  0.00000000E+00
  0.00000000E+00  0.00000000E+00  0.00000000E+00
  0.00000000E+00  0.00000000E+00  0.00000000E+00
  0.00000000E+00  0.00000000E+00  0.00000000E+00
  0.00000000E+00  0.00000000E+00  0.00000000E+00
  0.00000000E+00  0.00000000E+00  0.00000000E+00
  0.00000000E+00  0.00000000E+00  0.00000000E+00
  0.00000000E+00  0.00000000E+00  0.00000000E+00
  0.00000000E+00  0.00000000E+00  0.00000000E+00
  0.00000000E+00  0.00000000E+00  0.00000000E+00
  0.00000000E+00  0.00000000E+00  0.00000000E+00
  0.00000000E+00  0.00000000E+00  0.00000000E+00
  0.00000000E+00  0.00000000E+00  0.00000000E+00
  0.00000000E+00  0.00000000E+00  0.00000000E+00
  0.00000000E+00  0.00000000E+00  0.00000000E+00
  0.00000000E+00  0.00000000E+00  0.00000000E+00
  0.00000000E+00  0.00000000E+00  0.00000000E+00
  0.00000000E+00  0.00000000E+00  0.00000000E+00
  0.00000000E+00  0.00000000E+00  0.00000000E+00
  0.00000000E+00  0.00000000E+00  0.00000000E+00
  0.00000000E+00  0.00000000E+00  0.00000000E+00
  0.00000000E+00  0.00000000E+00  0.00000000E+00
  0.00000000E+00  0.00000000E+00  0.00000000E+00
  0.00000000E+00  0.00000000E+00  0.00000000E+00
  0.00000000E+00  0.00000000E+00  0.00000000E+00
  0.00000000E+00  0.00000000E+00  0.00000000E+00
  0.00000000E+00  0.00000000E+00  0.00000000E+00
  0.00000000E+00  0.00000000E+00  0.00000000E+00
  0.00000000E+00  0.00000000E+00  0.00000000E+00
  0.00000000E+00  0.00000000E+00  0.00000000E+00
  0.00000000E+00  0.00000000E+00  0.00000000E+00
  0.00000000E+00  0.00000000E+00  0.00000000E+00
  0.00000000E+00  0.00000000E+00  0.00000000E+00
  0.00000000E+00  0.00000000E+00  0.00000000E+00
  0.00000000E+00  0.00000000E+00  0.00000000E+00
  0.00000000E+00  0.00000000E+00  0.00000000E+00
  0.00000000E+00  0.00000000E+00  0.00000000E+00
  0.00000000E+00  0.00000000E+00  0.00000000E+00
  0.00000000E+00  0.00000000E+00  0.00000000E+00
  0.00000000E+00  0.00000000E+00  0.00000000E+00
  0.00000000E+00  0.00000000E+00  0.00000000E+00
  0.00000000E+00  0.00000000E+00  0.00000000E+00
  0.00000000E+00  0.00000000E+00  0.00000000E+00
  0.00000000E+00  0.00000000E+00  0.00000000E+00
  0.00000000E+00  0.00000000E+00  0.00000000E+00
  0.00000000E+00  0.00000000E+00  0.00000000E+00
  0.00000000E+00  0.00000000E+00  0.00000000E+00
  0.00000000E+00  0.00000000E+00  0.00000000E+00
  0.00000000E+00  0.00000000E+00  0.00000000E+00
  0.00000000E+00  0.00000000E+00  0.00000000E+00
  0.00000000E+00  0.00000000E+00  0.00000000E+00
  0.00000000E+00  0.00000000E+00  0.00000000E+00
  0.00000000E+00  0.00000000E+00  0.00000000E+00
  0.00000000E+00  0.00000000E+00  0.00000000E+00
  0.00000000E+00  0.00000000E+00  0.00000000E+00
  0.00000000E+00  0.00000000E+00  0.00000000E+00
  0.00000000E+00  0.00000000E+00  0.00000000E+00
  0.00000000E+00  0.00000000E+00  0.00000000E+00
  0.00000000E+00  0.00000000E+00  0.00000000E+00
  0.00000000E+00  0.00000000E+00  0.00000000E+00
  0.00000000E+00  0.00000000E+00  0.00000000E+00
  0.00000000E+00  0.00000000E+00  0.00000000E+00
  0.00000000E+00  0.00000000E+00  0.00000000E+00
  0.00000000E+00  0.00000000E+00  0.00000000E+00
  0.00000000E+00  0.00000000E+00  0.00000000E+00
  0.00000000E+00  0.00000000E+00  0.00000000E+00
  0.00000000E+00  0.00000000E+00  0.00000000E+00
  0.00000000E+00  0.00000000E+00  0.00000000E+00
  0.00000000E+00  0.00000000E+00  0.00000000E+00
  0.00000000E+00  0.00000000E+00  0.00000000E+00
  0.00000000E+00  0.00000000E+00  0.00000000E+00
  0.00000000E+00  0.00000000E+00  0.00000000E+00
  0.00000000E+00  0.00000000E+00  0.00000000E+00
  0.00000000E+00  0.00000000E+00  0.00000000E+00
  0.00000000E+00  0.00000000E+00  0.00000000E+00
  0.00000000E+00  0.00000000E+00  0.00000000E+00
  0.00000000E+00  0.00000000E+00  0.00000000E+00
  0.00000000E+00  0.00000000E+00  0.00000000E+00
  0.00000000E+00  0.00000000E+00  0.00000000E+00
  0.00000000E+00  0.00000000E+00  0.00000000E+00
  0.00000000E+00  0.00000000E+00  0.00000000E+00
  0.00000000E+00  0.00000000E+00  0.00000000E+00
  0.00000000E+00  0.00000000E+00  0.00000000E+00
  0.00000000E+00  0.00000000E+00  0.00000000E+00
  0.00000000E+00  0.00000000E+00  0.00000000E+00
  0.00000000E+00  0.00000000E+00  0.00000000E+00
  0.00000000E+00  0.00000000E+00  0.00000000E+00
  0.00000000E+00  0.00000000E+00  0.00000000E+00
  0.00000000E+00  0.00000000E+00  0.00000000E+00
  0.00000000E+00  0.00000000E+00  0.00000000E+00
  0.00000000E+00  0.00000000E+00  0.00000000E+00
  0.00000000E+00  0.00000000E+00  0.00000000E+00
  0.00000000E+00  0.00000000E+00  0.00000000E+00
  0.00000000E+00  0.00000000E+00  0.00000000E+00
  0.00000000E+00  0.00000000E+00  0.00000000E+00
  0.00000000E+00  0.00000000E+00  0.00000000E+00
  0.00000000E+00  0.00000000E+00  0.00000000E+00
  0.00000000E+00  0.00000000E+00  0.00000000E+00
  0.00000000E+00  0.00000000E+00  0.00000000E+00
  0.00000000E+00  0.00000000E+00  0.00000000E+00
  0.00000000E+00  0.00000000E+00  0.00000000E+00
  0.00000000E+00  0.00000000E+00  0.00000000E+00
  0.00000000E+00  0.00000000E+00  0.00000000E+00
  0.00000000E+00  0.00000000E+00  0.00000000E+00
  0.00000000E+00  0.00000000E+00  0.00000000E+00
  0.00000000E+00  0.00000000E+00  0.00000000E+00
  0.00000000E+00  0.00000000E+00  0.00000000E+00
  0.00000000E+00  0.00000000E+00  0.00000000E+00
  0.00000000E+00  0.00000000E+00  0.00000000E+00
  0.00000000E+00  0.00000000E+00  0.00000000E+00
  0.00000000E+00  0.00000000E+00  0.00000000E+00
  0.00000000E+00  0.00000000E+00  0.00000000E+00
  0.00000000E+00  0.00000000E+00  0.00000000E+00
  0.00000000E+00  0.00000000E+00  0.00000000E+00
  0.00000000E+00  0.00000000E+00  0.00000000E+00
  0.00000000E+00  0.00000000E+00  0.00000000E+00
  0.00000000E+00  0.00000000E+00  0.00000000E+00
  0.00000000E+00  0.00000000E+00  0.00000000E+00
  0.00000000E+00  0.00000000E+00  0.00000000E+00
  0.00000000E+00  0.00000000E+00  0.00000000E+00
  0.00000000E+00  0.00000000E+00  0.00000000E+00
  0.00000000E+00  0.00000000E+00  0.00000000E+00
  0.00000000E+00  0.00000000E+00  0.00000000E+00
  0.00000000E+00  0.00000000E+00  0.00000000E+00
  0.00000000E+00  0.00000000E+00  0.00000000E+00
  0.00000000E+00  0.00000000E+00  0.00000000E+00
  0.00000000E+00  0.00000000E+00  0.00000000E+00