 B N C 
 1.0
 14.936314146199660   0.000000000000000   0.000000000000000
 -7.468157073099825  12.935227489513863   0.000000000000000
  0.000000000000001   0.000000000000001  13.341276283792837
 B N C 
 142 142   4
Cartesian
  1.248911764484663   0.726426915571686   5.002978606422314 
  6.219532084912374   0.727213046043447   5.002978606422314 
  9.967808185483008   7.184543201156649   5.002978606422314 
 11.201641628617109   0.721991060676024   5.002978606422314 
 -3.734223321510618   9.341991209884252  11.673616748318732 
  1.244783727222412   9.342079364055611  11.673616748318732 
  2.489530021807280   2.874406298489963  11.673616748318732 
  6.223505269879620   9.341896607889533  11.673616748318732 
  7.468144666676725   2.874472314585233  11.673616748318732 
 12.446791798508839   2.874367655028014  11.673616748318732 
 -1.242939900114959   9.343213424570719   5.002978606422314 
 -0.004464961573213   2.872164757565608   5.002978606422314 
  4.978374890320686   2.898607889927936   5.002978606422314 
  3.742823520834766   9.344114690454429   5.002978606422314 
  8.708489347039368   9.339180794127740   5.002978606422314 
  9.966095599460452   2.867201275480040   5.002978606422314 
 -4.978852022595894  11.497808190021091  11.673616748318732 
  0.000039131874789  11.497928307295069  11.673616748318732 
  1.244822060594841   5.030326301978029  11.673616748318732 
  6.223497531523928   5.030420994576180  11.673616748318732 
  4.978824623732576  11.497771795617028  11.673616748318732 
 11.202035547049494   5.030340424241891  11.673616748318732 
 -1.240457367031009   5.029657989465354   5.002978606422314 
 -2.489277938573493  11.501446615491517   5.002978606422314 
  2.490410047002815  11.494762176980618   5.002978606422314 
  7.471414745499700  11.506620781270840   5.002978606422314 
  8.739120891048202   5.011449145284464   5.002978606422314 
 -0.000001587377558   7.186223592019926  11.673616748318732 
  1.244660989920087   0.718438662127726  11.673616748318732 
  4.978982659893191   7.186131293862887  11.673616748318732 
  6.223545754142614   0.718542085864655  11.673616748318732 
  9.957340923709916   7.186192761604781  11.673616748318732 
 -2.483258816376507   7.186915077728591   5.002978606422314 
 11.202193964218679   0.718481668050573  11.673616748318732 
  3.734785330957354   0.725857566882667   5.002978606422314 
  2.493520604038036   7.169447166565165   5.002978606422314 
  7.492330231110728   7.148386474100626   5.002978606422314 
  8.714539805963284   0.714359056878594   5.002978606422314 
  2.489616829010147   7.186222589733850  11.673616748318732 
 13.692805388466308   0.722272136804800   5.002978606422314 
 -1.244741059972516   9.342062452546163  11.673616748318732 
 -0.000025259976145   2.874325713445307  11.673616748318732 
  4.978938635502772   2.874478260034527  11.673616748318732 
  3.734276934588929   9.341969344743161  11.673616748318732 
  8.712712467095518   9.341935164412613  11.673616748318732 
  9.957419446919253   2.874457387144464  11.673616748318732 
 -3.732990616383816   9.343746489785042   5.002978606422314 
  1.248453654601597   9.335318049251667   5.002978606422314 
  2.484313269029784   2.884504011089739   5.002978606422314 
  6.205550923829947   9.377752545641963   5.002978606422314 
  7.476817758620395   2.867182745545676   5.002978606422314 
 12.449789096436712   2.873715240138501   5.002978606422314 
 -1.244815178258831   5.030301105841930  11.673616748318732 
 -2.489392277972834  11.497871828576587  11.673616748318732 
  2.489451459892412  11.497882910044918  11.673616748318732 
  3.734384760062584   5.030396128257029  11.673616748318732 
  7.468105420981225  11.497740864546074  11.673616748318732 
 -4.977801367950847  11.500916257618599   5.002978606422314 
  8.712694668886446   5.030396943547549  11.673616748318732 
 -0.000835612733888  11.498109628701366   5.002978606422314 
  1.235347274072506   5.018805672965416   5.002978606422314 
  0.002978579496115   7.184927458573776   5.002978606422314 
  6.252461311004931   5.024368148271149   5.002978606422314 
  4.971551660809236  11.517660923538468   5.002978606422314 
 11.213573344625656   5.027685678288511   5.002978606422314 
 -2.489566141969290   7.186187766763688  11.673616748318732 
  3.734136960925687   0.718487258810560  11.673616748318732 
  7.468063642108218   7.186191999735132  11.673616748318732 
  8.712842859233008   0.718546626969659  11.673616748318732 
 13.691582971812609   0.718407021625694  11.673616748318732 
 -0.000243499241861   1.437051964743747   1.667752994351653 
  3.735576641350372   7.905060353847710   1.662674274337926 
  4.978614210438899   1.437610597761867   1.668141092420179 
  8.711933082597422   7.904515676832873   1.667708130120575 
  9.957526937004008   1.437440915651343   1.667637237439092 
 -4.979550289638500  10.060238467308054   8.337805404954830 
 -0.000150254666703  10.060767546226433   8.338209682369918 
  1.244447159700263   3.592953795364017   8.338742219792866 
  4.979480153056396  10.061136384499674   8.339819380630638 
  6.223507685382978   3.594244202852166   8.338975335351927 
 11.202021718607575   3.593269654235240   8.338334897354459 
 -2.489933193385822  10.060551052143524   1.667590727487660 
 -1.245015712489910   3.593009532093042   1.667550240426389 
  3.734153333678339   3.594268793704213   1.665589515098127 
  2.489909059211495  10.060921035984673   1.667922424823393 
  7.467602454229163  10.060529882919273   1.667639237134951 
  8.712720808431557   3.593545000947365   1.667574272745163 
 -6.223882204020674  12.216296505115055   8.337880408307134 
 -1.244949133337307  12.216673704727716   8.338299325291294 
 -0.000187972862760   5.748958217539720   8.338157811040153 
  4.978866753853500   5.750675379801742   8.342178543447197 
  3.734414372189223  12.216840290887944   8.338332217630480 
  9.957085808097116   5.749125873079344   8.338284581934470 
 -2.489807057797706   5.749004691303301   1.667737853325699 
 -3.734503866714003  12.216359962301315   1.667840101534828 
  1.244716136810764  12.216735584601984   1.667757187650644 
  2.490172381128822   5.749087325673669   1.664087376779299 
  6.223464148037761  12.216664000138628   1.667560654849749 
  7.467739954692858   5.749662618996208   1.665987307152341 
 -1.245094943571645   7.904810421111029   8.338187412338192 
 -0.000243499241860   1.437051964743747   8.338204218492974 
  3.735576641350372   7.905060353847711   8.343282938506610 
  4.978614210438900   1.437610597761867   8.337816120424449 
  8.711933082597422   7.904515676832874   8.338249082724055 
 -3.734761437759541   7.904675627742704   1.667912418740705 
  9.957526937004008   1.437440915651344   8.338319975405536 
  2.489127140826224   1.437204112758651   1.667983037943674 
  1.244980957153150   7.904911955495387   1.667693413392099 
  6.223113799710353   7.905128108267742   1.666314916830485 
  7.468130831881951   1.437625482720270   1.667773006687476 
  1.244980957153151   7.904911955495388   8.338263799452529 
 12.446895373818441   1.437288509163973   1.667555334667463 
 -2.489933193385822  10.060551052143524   8.338366485356968 
 -1.245015712489910   3.593009532093042   8.338406972418237 
  3.734153333678340   3.594268793704214   8.340367697746514 
  2.489909059211496  10.060921035984673   8.338034788021234 
  7.467602454229164  10.060529882919273   8.338317975709677 
  8.712720808431557   3.593545000947366   8.338382940099466 
 -4.979550289638500  10.060238467308054   1.668151807889812 
 -0.000150254666703  10.060767546226433   1.667747530474710 
  1.244447159700263   3.592953795364016   1.667214993051762 
  4.979480153056395  10.061136384499674   1.666137832213977 
  6.223507685382977   3.594244202852165   1.666981877492688 
 11.202021718607575   3.593269654235239   1.667622315490169 
 -2.489807057797706   5.749004691303302   8.338219359518943 
 -3.734503866714003  12.216359962301315   8.338117111309799 
  1.244716136810764  12.216735584601984   8.338200025193984 
  2.490172381128822   5.749087325673670   8.341869836065342 
  6.223464148037761  12.216664000138628   8.338396557994866 
 -6.223882204020675  12.216296505115055   1.668076804537493 
  7.467739954692859   5.749662618996209   8.339969905692286 
 -1.244949133337308  12.216673704727716   1.667657887553321 
 -0.000187972862760   5.748958217539719   1.667799401804474 
 -1.245094943571646   7.904810421111028   1.667769800506437 
  4.978866753853499   5.750675379801741   1.663778669397444 
  3.734414372189223  12.216840290887944   1.667624995214160 
  9.957085808097116   5.749125873079343   1.667672630910157 
 -3.734761437759541   7.904675627742705   8.338044794103922 
  2.489127140826224   1.437204112758651   8.337974174900953 
  6.223113799710354   7.905128108267743   8.339642296014128 
  7.468130831881952   1.437625482720271   8.338184206157152 
 12.446895373818441   1.437288509163974   8.338401878177176 
  1.244611425990942   0.718751220241885   1.668422375528577 
  4.978458078683057   7.186989869616218   1.654332316682113 
  6.223240112275411   0.718776895988330   1.668461633506586 
  9.957426911015018   7.186134770335660   1.667601816123210 
 11.202168680539856   0.718927507446576   1.667488232432393 
 -3.734308780877293   9.341981836568344   8.338357386868244 
  1.244709005287433   9.342146647876929   8.336952470478815 
  2.489188760363113   2.874769961535719   8.337070658975339 
  6.223151961369543   9.342999813863329   8.343329301024424 
  7.468062345324733   2.874540474998541   8.338159146926335 
 12.446860380113167   2.874642003642956   8.338371838041004 
 -1.244813761187534   9.342037915872563   1.668073405820624 
 -0.000137513542897   2.874470832800065   1.668262291267446 
  4.978574786543909   2.874956418332389   1.669141407443892 
  3.734238902086561   9.342582744475356   1.667591642539238 
  8.712474580280624   9.341962797427950   1.667928775124576 
  9.957503806610694   2.874560658442167   1.667877138265408 
 -4.978990256568120  11.497902544954144   8.337726144645421 
 -0.000167857194969  11.498003662579235   8.337922465134431 
  1.244747054842846   5.030358871591735   8.336803331266387 
  6.223167923221740   5.030504000103045   8.341765644293027 
  4.978786504369311  11.498741461630342   8.339155021142259 
 11.202262084674615   5.030419182490134   8.338246173267033 
 -1.244681127999102   5.030399754877694   1.668559408842490 
 -2.489555480891164  11.497986477961913   1.667819245237205 
  2.489337167548242  11.498141131763411   1.668588347690100 
  3.733845880919058   5.030745647989076   1.661273291225583 
  7.468061305846090  11.498285032660021   1.667727492901074 
  8.712792268157715   5.030361492640802   1.667147567091036 
  0.000060548472325   7.186184899475943   8.336914336650780 
  1.244611425990942   0.718751220241886   8.337534837316051 
  4.978458078683058   7.186989869616219   8.351624896162514 
  6.223240112275412   0.718776895988331   8.337495579338027 
  9.957426911015018   7.186134770335661   8.338355396721418 
 -2.489449139506607   7.186175748370802   1.668042049331617 
 11.202168680539856   0.718927507446576   8.338468980412236 
  3.733930514838514   0.718754884346460   1.668671500130113 
  2.489522929119244   7.186433688513945   1.667872143586690 
  7.468054671275902   7.185974249591807   1.662495587627878 
  8.712699138510201   0.718605585126711   1.667904608788373 
  2.489522929119244   7.186433688513945   8.338085069257952 
 13.691623771809645   0.718905686271105   1.667845909255471 
 -1.244813761187534   9.342037915872563   8.337883807024005 
 -0.000137513542897   2.874470832800066   8.337694921577169 
  4.978574786543910   2.874956418332390   8.336815805400736 
  3.734238902086561   9.342582744475356   8.338365570305390 
  8.712474580280624   9.341962797427950   8.338028437720064 
  9.957503806610694   2.874560658442168   8.338080074579219 
 -3.734308780877293   9.341981836568344   1.667599825976383 
  1.244709005287433   9.342146647876929   1.669004742365801 
  2.489188760363113   2.874769961535718   1.668886553869276 
  6.223151961369542   9.342999813863329   1.662627911820204 
  7.468062345324732   2.874540474998540   1.667798065918306 
 12.446860380113167   2.874642003642955   1.667585374803624 
 -1.244681127999102   5.030399754877695   8.337397804002137 
 -2.489555480891164  11.497986477961913   8.338137967607423 
  2.489337167548242  11.498141131763411   8.337368865154541 
  3.733845880919059   5.030745647989077   8.344683921619044 
  7.468061305846091  11.498285032660021   8.338229719943554 
 -4.978990256568121  11.497902544954144   1.668231068199113 
  8.712792268157715   5.030361492640803   8.338809645753592 
 -0.000167857194969  11.498003662579235   1.668034747710196 
  1.244747054842846   5.030358871591734   1.669153881578241 
  0.000060548472325   7.186184899475943   1.669042876193849 
  6.223167923221739   5.030504000103044   1.664191568551614 
  4.978786504369310  11.498741461630342   1.666802191702368 
 11.202262084674615   5.030419182490133   1.667711039577595 
 -2.489449139506606   7.186175748370803   8.337915163513104 
  3.733930514838514   0.718754884346461   8.337285712714515 
  7.468054671275903   7.185974249591808   8.343461625216737 
  8.712699138510201   0.718605585126712   8.338052604056255 
 13.691623771809645   0.718905686271106   8.338111303589143 
  0.001710119239603   1.439979613885939   5.002978606422314 
  3.736033585388178   7.891562144248436   5.002978606422314 
  4.971988116715687   1.458041204301924   5.002978606422314 
  8.723915612064342   7.897385908979921   5.002978606422314 
  9.958449553250691   1.433837147524856   5.002978606422314 
 -4.978749467142901  10.060678127603010  11.673616748318732 
  0.000004405898448  10.060670954081317  11.673616748318732 
  1.244704566420787   3.593015856937203  11.673616748318732 
  4.978732005241901  10.060689606220235  11.673616748318732 
  6.223493125564306   3.592934210800416  11.673616748318732 
 11.202209594088117   3.593058048298519  11.673616748318732 
 -2.487243150962412  10.063564634636231   5.002978606422314 
 -1.242700073665729   3.593851612320003   5.002978606422314 
  3.717495070642116   3.637648277739764   5.002978606422314 
  2.492760380394292  10.051327080567450   5.002978606422314 
  7.467287087763415  10.073117546653039   5.002978606422314 
  8.724971834717751   3.578635031545964   5.002978606422314 
 -6.223462537025519  12.216567849389861  11.673616748318732 
 -1.244645668185542  12.216508812656796  11.673616748318732 
  0.000003732615385   5.748914992662122  11.673616748318732 
  4.978776539410519   5.748840053341175  11.673616748318732 
  3.734040596696583  12.216527704080685  11.673616748318732 
  9.957556443750411   5.748918437531938  11.673616748318732 
 -2.479943084286193   5.749465739043274   5.002978606422314 
 -3.732429654041667  12.223031696826130   5.002978606422314 
  1.245057412192893  12.211631944306443   5.002978606422314 
  2.498639189422965   5.717550512805791   5.002978606422314 
  6.223954666082737  12.225092039654301   5.002978606422314 
  7.502641594974951   5.718594351242378   5.002978606422314 
 -1.244708895867745   7.904769476040190  11.673616748318732 
  0.000007951763456   1.437135126564431  11.673616748318732 
  3.734017753309776   7.904759109327967  11.673616748318732 
  4.978830690994900   1.437105441091259  11.673616748318732 
  8.712906345476298   7.904795531757080  11.673616748318732 
 -3.724870636422377   7.906143082203851   5.002978606422314 
  9.957492365621738   1.437130442727702  11.673616748318732 
  2.494867748884507   1.450389663256040   5.002978606422314 
  1.254660548049841   7.891593025064349   5.002978606422314 
  7.470020749814603   1.432585214539814   5.002978606422314 
  1.244694431452061   7.904776895733025  11.673616748318732 
 12.448446101470836   1.439004157253153   5.002978606422314 
 -2.489368583821066  10.060653141603577  11.673616748318732 
 -1.244704922208558   3.593037934726528  11.673616748318732 
  3.734121216495993   3.592990293326024  11.673616748318732 
  2.489363296902387  10.060641146153955  11.673616748318732 
  7.468195702361493  10.060713650234868  11.673616748318732 
  8.712830547232770   3.593007008202862  11.673616748318732 
 -4.979263019786962  10.061599929775026   5.002978606422314 
  0.003943700760939  10.057615204551469   5.002978606422314 
  1.238464798634068   3.591197870178215   5.002978606422314 
  4.964701769186036  10.092586523256436   5.002978606422314 
  6.233798229578628   3.589925534803371   5.002978606422314 
 11.208612334265817   3.590709199304475   5.002978606422314 
 -2.489410498332058   5.748927016353767  11.673616748318732 
 -3.734047946641141  12.216517956975716  11.673616748318732 
  1.244665605573050  12.216499535079151  11.673616748318732 
  2.489391268006867   5.748914429749466  11.673616748318732 
  6.223494365281026  12.216558738041774  11.673616748318732 
 -6.218665882952628  12.226318427868620   5.002978606422314 
  7.468151047391399   5.748857633409900  11.673616748318732 
 -1.246217042091842  12.222419274200410   5.002978606422314 
  0.006184057474882   5.748880675842146   5.002978606422314 
 -1.237619400299089   7.905227621146699   5.002978606422314 
  3.727051534358759  12.225496156502301   5.002978606422314 
  9.974140669663752   5.744178974377079   5.002978606422314 
 -3.734068816212234   7.904762290707342  11.673616748318732 
  2.489407319897347   1.437139889768753  11.673616748318732 
  6.223461395814532   7.904787601358505  11.673616748318732 
  7.468162480278723   1.437066848072274  11.673616748318732 
 12.446929213015764   1.437152275398295  11.673616748318732 
  6.164953963911606   7.872634368720587   5.002978606422314 
  4.920207710210363   7.149934650310892   5.002978606422314 
  3.697343431199724   5.026031179881327   5.002978606422314 
  4.914911156836220   5.773823016372348   5.002978606422314 
Generated by cif2cell 2.0.0.  :  Failed to get author information, No journal information. Species order: B N C 
 1.0
 14.936314146199660   0.000000000000000   0.000000000000000
 -7.468157073099825  12.935227489513863   0.000000000000000
  0.000000000000001   0.000000000000001  13.341276283792837
 B N C 
 142 142   4
Cartesian
  1.248911764484663   0.726426915571686   5.002978606422314 
  6.219532084912374   0.727213046043447   5.002978606422314 
  9.967808185483008   7.184543201156649   5.002978606422314 
 11.201641628617109   0.721991060676024   5.002978606422314 
 -3.734223321510618   9.341991209884252  11.673616748318732 
  1.244783727222412   9.342079364055611  11.673616748318732 
  2.489530021807280   2.874406298489963  11.673616748318732 
  6.223505269879620   9.341896607889533  11.673616748318732 
  7.468144666676725   2.874472314585233  11.673616748318732 
 12.446791798508839   2.874367655028014  11.673616748318732 
 -1.242939900114959   9.343213424570719   5.002978606422314 
 -0.004464961573213   2.872164757565608   5.002978606422314 
  4.978374890320686   2.898607889927936   5.002978606422314 
  3.742823520834766   9.344114690454429   5.002978606422314 
  8.708489347039368   9.339180794127740   5.002978606422314 
  9.966095599460452   2.867201275480040   5.002978606422314 
 -4.978852022595894  11.497808190021091  11.673616748318732 
  0.000039131874789  11.497928307295069  11.673616748318732 
  1.244822060594841   5.030326301978029  11.673616748318732 
  6.223497531523928   5.030420994576180  11.673616748318732 
  4.978824623732576  11.497771795617028  11.673616748318732 
 11.202035547049494   5.030340424241891  11.673616748318732 
 -1.240457367031009   5.029657989465354   5.002978606422314 
 -2.489277938573493  11.501446615491517   5.002978606422314 
  2.490410047002815  11.494762176980618   5.002978606422314 
  7.471414745499700  11.506620781270840   5.002978606422314 
  8.739120891048202   5.011449145284464   5.002978606422314 
 -0.000001587377558   7.186223592019926  11.673616748318732 
  1.244660989920087   0.718438662127726  11.673616748318732 
  4.978982659893191   7.186131293862887  11.673616748318732 
  6.223545754142614   0.718542085864655  11.673616748318732 
  9.957340923709916   7.186192761604781  11.673616748318732 
 -2.483258816376507   7.186915077728591   5.002978606422314 
 11.202193964218679   0.718481668050573  11.673616748318732 
  3.734785330957354   0.725857566882667   5.002978606422314 
  2.493520604038036   7.169447166565165   5.002978606422314 
  7.492330231110728   7.148386474100626   5.002978606422314 
  8.714539805963284   0.714359056878594   5.002978606422314 
  2.489616829010147   7.186222589733850  11.673616748318732 
 13.692805388466308   0.722272136804800   5.002978606422314 
 -1.244741059972516   9.342062452546163  11.673616748318732 
 -0.000025259976145   2.874325713445307  11.673616748318732 
  4.978938635502772   2.874478260034527  11.673616748318732 
  3.734276934588929   9.341969344743161  11.673616748318732 
  8.712712467095518   9.341935164412613  11.673616748318732 
  9.957419446919253   2.874457387144464  11.673616748318732 
 -3.732990616383816   9.343746489785042   5.002978606422314 
  1.248453654601597   9.335318049251667   5.002978606422314 
  2.484313269029784   2.884504011089739   5.002978606422314 
  6.205550923829947   9.377752545641963   5.002978606422314 
  7.476817758620395   2.867182745545676   5.002978606422314 
 12.449789096436712   2.873715240138501   5.002978606422314 
 -1.244815178258831   5.030301105841930  11.673616748318732 
 -2.489392277972834  11.497871828576587  11.673616748318732 
  2.489451459892412  11.497882910044918  11.673616748318732 
  3.734384760062584   5.030396128257029  11.673616748318732 
  7.468105420981225  11.497740864546074  11.673616748318732 
 -4.977801367950847  11.500916257618599   5.002978606422314 
  8.712694668886446   5.030396943547549  11.673616748318732 
 -0.000835612733888  11.498109628701366   5.002978606422314 
  1.235347274072506   5.018805672965416   5.002978606422314 
  0.002978579496115   7.184927458573776   5.002978606422314 
  6.252461311004931   5.024368148271149   5.002978606422314 
  4.971551660809236  11.517660923538468   5.002978606422314 
 11.213573344625656   5.027685678288511   5.002978606422314 
 -2.489566141969290   7.186187766763688  11.673616748318732 
  3.734136960925687   0.718487258810560  11.673616748318732 
  7.468063642108218   7.186191999735132  11.673616748318732 
  8.712842859233008   0.718546626969659  11.673616748318732 
 13.691582971812609   0.718407021625694  11.673616748318732 
 -0.000243499241861   1.437051964743747   1.667752994351653 
  3.735576641350372   7.905060353847710   1.662674274337926 
  4.978614210438899   1.437610597761867   1.668141092420179 
  8.711933082597422   7.904515676832873   1.667708130120575 
  9.957526937004008   1.437440915651343   1.667637237439092 
 -4.979550289638500  10.060238467308054   8.337805404954830 
 -0.000150254666703  10.060767546226433   8.338209682369918 
  1.244447159700263   3.592953795364017   8.338742219792866 
  4.979480153056396  10.061136384499674   8.339819380630638 
  6.223507685382978   3.594244202852166   8.338975335351927 
 11.202021718607575   3.593269654235240   8.338334897354459 
 -2.489933193385822  10.060551052143524   1.667590727487660 
 -1.245015712489910   3.593009532093042   1.667550240426389 
  3.734153333678339   3.594268793704213   1.665589515098127 
  2.489909059211495  10.060921035984673   1.667922424823393 
  7.467602454229163  10.060529882919273   1.667639237134951 
  8.712720808431557   3.593545000947365   1.667574272745163 
 -6.223882204020674  12.216296505115055   8.337880408307134 
 -1.244949133337307  12.216673704727716   8.338299325291294 
 -0.000187972862760   5.748958217539720   8.338157811040153 
  4.978866753853500   5.750675379801742   8.342178543447197 
  3.734414372189223  12.216840290887944   8.338332217630480 
  9.957085808097116   5.749125873079344   8.338284581934470 
 -2.489807057797706   5.749004691303301   1.667737853325699 
 -3.734503866714003  12.216359962301315   1.667840101534828 
  1.244716136810764  12.216735584601984   1.667757187650644 
  2.490172381128822   5.749087325673669   1.664087376779299 
  6.223464148037761  12.216664000138628   1.667560654849749 
  7.467739954692858   5.749662618996208   1.665987307152341 
 -1.245094943571645   7.904810421111029   8.338187412338192 
 -0.000243499241860   1.437051964743747   8.338204218492974 
  3.735576641350372   7.905060353847711   8.343282938506610 
  4.978614210438900   1.437610597761867   8.337816120424449 
  8.711933082597422   7.904515676832874   8.338249082724055 
 -3.734761437759541   7.904675627742704   1.667912418740705 
  9.957526937004008   1.437440915651344   8.338319975405536 
  2.489127140826224   1.437204112758651   1.667983037943674 
  1.244980957153150   7.904911955495387   1.667693413392099 
  6.223113799710353   7.905128108267742   1.666314916830485 
  7.468130831881951   1.437625482720270   1.667773006687476 
  1.244980957153151   7.904911955495388   8.338263799452529 
 12.446895373818441   1.437288509163973   1.667555334667463 
 -2.489933193385822  10.060551052143524   8.338366485356968 
 -1.245015712489910   3.593009532093042   8.338406972418237 
  3.734153333678340   3.594268793704214   8.340367697746514 
  2.489909059211496  10.060921035984673   8.338034788021234 
  7.467602454229164  10.060529882919273   8.338317975709677 
  8.712720808431557   3.593545000947366   8.338382940099466 
 -4.979550289638500  10.060238467308054   1.668151807889812 
 -0.000150254666703  10.060767546226433   1.667747530474710 
  1.244447159700263   3.592953795364016   1.667214993051762 
  4.979480153056395  10.061136384499674   1.666137832213977 
  6.223507685382977   3.594244202852165   1.666981877492688 
 11.202021718607575   3.593269654235239   1.667622315490169 
 -2.489807057797706   5.749004691303302   8.338219359518943 
 -3.734503866714003  12.216359962301315   8.338117111309799 
  1.244716136810764  12.216735584601984   8.338200025193984 
  2.490172381128822   5.749087325673670   8.341869836065342 
  6.223464148037761  12.216664000138628   8.338396557994866 
 -6.223882204020675  12.216296505115055   1.668076804537493 
  7.467739954692859   5.749662618996209   8.339969905692286 
 -1.244949133337308  12.216673704727716   1.667657887553321 
 -0.000187972862760   5.748958217539719   1.667799401804474 
 -1.245094943571646   7.904810421111028   1.667769800506437 
  4.978866753853499   5.750675379801741   1.663778669397444 
  3.734414372189223  12.216840290887944   1.667624995214160 
  9.957085808097116   5.749125873079343   1.667672630910157 
 -3.734761437759541   7.904675627742705   8.338044794103922 
  2.489127140826224   1.437204112758651   8.337974174900953 
  6.223113799710354   7.905128108267743   8.339642296014128 
  7.468130831881952   1.437625482720271   8.338184206157152 
 12.446895373818441   1.437288509163974   8.338401878177176 
  1.244611425990942   0.718751220241885   1.668422375528577 
  4.978458078683057   7.186989869616218   1.654332316682113 
  6.223240112275411   0.718776895988330   1.668461633506586 
  9.957426911015018   7.186134770335660   1.667601816123210 
 11.202168680539856   0.718927507446576   1.667488232432393 
 -3.734308780877293   9.341981836568344   8.338357386868244 
  1.244709005287433   9.342146647876929   8.336952470478815 
  2.489188760363113   2.874769961535719   8.337070658975339 
  6.223151961369543   9.342999813863329   8.343329301024424 
  7.468062345324733   2.874540474998541   8.338159146926335 
 12.446860380113167   2.874642003642956   8.338371838041004 
 -1.244813761187534   9.342037915872563   1.668073405820624 
 -0.000137513542897   2.874470832800065   1.668262291267446 
  4.978574786543909   2.874956418332389   1.669141407443892 
  3.734238902086561   9.342582744475356   1.667591642539238 
  8.712474580280624   9.341962797427950   1.667928775124576 
  9.957503806610694   2.874560658442167   1.667877138265408 
 -4.978990256568120  11.497902544954144   8.337726144645421 
 -0.000167857194969  11.498003662579235   8.337922465134431 
  1.244747054842846   5.030358871591735   8.336803331266387 
  6.223167923221740   5.030504000103045   8.341765644293027 
  4.978786504369311  11.498741461630342   8.339155021142259 
 11.202262084674615   5.030419182490134   8.338246173267033 
 -1.244681127999102   5.030399754877694   1.668559408842490 
 -2.489555480891164  11.497986477961913   1.667819245237205 
  2.489337167548242  11.498141131763411   1.668588347690100 
  3.733845880919058   5.030745647989076   1.661273291225583 
  7.468061305846090  11.498285032660021   1.667727492901074 
  8.712792268157715   5.030361492640802   1.667147567091036 
  0.000060548472325   7.186184899475943   8.336914336650780 
  1.244611425990942   0.718751220241886   8.337534837316051 
  4.978458078683058   7.186989869616219   8.351624896162514 
  6.223240112275412   0.718776895988331   8.337495579338027 
  9.957426911015018   7.186134770335661   8.338355396721418 
 -2.489449139506607   7.186175748370802   1.668042049331617 
 11.202168680539856   0.718927507446576   8.338468980412236 
  3.733930514838514   0.718754884346460   1.668671500130113 
  2.489522929119244   7.186433688513945   1.667872143586690 
  7.468054671275902   7.185974249591807   1.662495587627878 
  8.712699138510201   0.718605585126711   1.667904608788373 
  2.489522929119244   7.186433688513945   8.338085069257952 
 13.691623771809645   0.718905686271105   1.667845909255471 
 -1.244813761187534   9.342037915872563   8.337883807024005 
 -0.000137513542897   2.874470832800066   8.337694921577169 
  4.978574786543910   2.874956418332390   8.336815805400736 
  3.734238902086561   9.342582744475356   8.338365570305390 
  8.712474580280624   9.341962797427950   8.338028437720064 
  9.957503806610694   2.874560658442168   8.338080074579219 
 -3.734308780877293   9.341981836568344   1.667599825976383 
  1.244709005287433   9.342146647876929   1.669004742365801 
  2.489188760363113   2.874769961535718   1.668886553869276 
  6.223151961369542   9.342999813863329   1.662627911820204 