 As B N 
 1.0
 17.527899999999772   0.000000000000000   0.000000000000000
 -8.763949999999658  15.179606674993195   0.000000000000000
  0.000000000000001   0.000000000000002  15.000000000000000
 As B N 
   1  48  48
Cartesian
  2.709316634806775   7.315924323378241   1.661355449843220 
  7.557833429788676  14.462889573880785   1.659985552855305 
 15.080763877818047   1.458375405810370   1.660967738236215 
 13.831348219467241   3.623936183425566   1.660231100519295 
 12.568834720200440   5.785735561014561   1.659767112249435 
 11.278293436852966   7.943974187785873   1.661213890386585 
 10.012841856000781  10.099761506636456   1.662012680795085 
  8.774665975999536  12.263235297347052   1.659924369990900 
 -7.483072381735093  14.441381574247636   1.659420363278445 
  0.048540578797888   1.433884789945316   1.660733451868005 
 -1.191242390774617   3.621076810899658   1.661736176895225 
 -2.455756950985035   5.793407990607046   1.659873940811685 
 -3.753057234206294   7.959990451021747   1.659591991689480 
 -5.010399165566806  10.119737783328796   1.660808677343355 
 -6.252149967884685  12.274853580845770   1.660295154773655 
 -4.983754805043564  14.440584761130392   1.660017735936795 
  2.555994852959347   1.425037221717401   1.660666132361265 
  1.307559619468546   3.567437468142258   1.662175450972530 
  0.064842795764507   5.796557578874022   1.662049407095445 
 -1.278433167274807   7.981190200334883   1.660395548623005 
 -2.514757144682137  10.142155198410769   1.661153135670660 
 -3.751596442446618  12.290749747511693   1.660473754440690 
 -2.477765214833195  14.453452499729915   1.661023799519670 
  5.067603876452988   1.401385790520540   1.661127616616340 
  3.882838760456230   3.543267217175085   1.662586434114240 
  2.661619818665814   5.509677026967449   1.665584365048845 
  1.090781909009825   8.143469226099791   1.661092671967770 
 -0.046429345751701  10.222848552646250   1.661821124329740 
 -1.256977961529882  12.330109728736247   1.662630303314805 
  0.031647720255368  14.477869013120534   1.661997488458545 
  7.568914968257330   1.430563621187455   1.662238450461195 
  6.346382458504838   3.566836920285859   1.661894839519110 
  5.226817282006644   5.826122350542501   1.662757307753070 
  2.485358048234423  10.233877260976291   1.660542737425050 
  1.262653894510084  12.351568083418345   1.661616868833810 
  2.548044450206877  14.487530719022422   1.660630401557175 
 10.073291559482154   1.451458874272631   1.660640115822555 
  8.835863200648294   3.596478917929352   1.661584228457685 
  7.601940341068369   5.741511156229157   1.661711079394680 
  6.154441112212559   7.730892105448354   1.662302752644975 
  5.083781064649128  10.208633178416790   1.659999907605840 
  3.795465183659599  12.342092895625706   1.659981320506005 
  5.060041704004712  14.482121389862762   1.660342448324130 
 12.577838948829234   1.461360009121082   1.659846692740890 
 11.330668276240935   3.616700481397084   1.659986892589530 
 10.074973226705740   5.773770862758892   1.661261473751145 
  8.763248461104949   7.923199024906462   1.662895815532485 
  7.491850932054009  10.057540822267905   1.660841959352760 
  6.311362655612787  12.317420379289466   1.659679494420975 
  8.792603320362364  13.718616199152423   1.659165158530980 
 16.324700322600339   0.725610674506328   1.660410591462705 
 15.083977183421373   2.903533092222689   1.660837981822770 
 13.826955596028423   5.067646484075730   1.659232040771250 
 12.538436429469289   7.229391173178514   1.659583576527900 
 11.273331667989380   9.389044947632856   1.661456276194530 
 10.026528738582890  11.547964098489665   1.660531412970045 
 -6.237132490056133  13.718715091005757   1.659340109986605 
  1.295575950423959   0.708125529955455   1.659637752392460 
  0.049321576671124   2.874153977254798   1.661250622354875 
 -1.190529742596881   5.073029468516591   1.660860699348765 
 -2.502295068152799   7.240704178278553   1.659042609348390 
 -3.755490948965731   9.404970616992257   1.659945703173405 
 -5.000312135811368  11.561411835276173   1.660086913976310 
 -3.733299048503604  13.729256885263561   1.659774806942460 
  3.800631051148720   0.697733383814900   1.660049881855530 
  2.578375133310182   2.864713625314291   1.661575217525610 
  1.311517970666969   5.005125872790487   1.663250377847535 
 -0.033576121678985   7.264027085271874   1.660612958397210 
 -1.265284447718018   9.435582656034569   1.660900843107075 
 -2.500295585007957  11.584857264543826   1.661326839141975 
 -1.227409523443610  13.758241060058575   1.661713384672755 
  6.315489504210871   0.701481773100560   1.661143321484460 
  5.105591267684277   2.822360790157833   1.661362348029495 
  3.957555349729064   4.964691658048377   1.664309397782205 
  1.198773802842484   9.551654572175346   1.660746021020805 
 -0.006854176690441  11.644724027056540   1.662365892171510 
  1.285606876806761  13.779299390447436   1.661192819837400 
  8.819902064017528   0.728320705988624   1.661484231659130 
  7.593829586006091   2.859466331514417   1.661939521803450 
  6.379131483767443   4.991988085264250   1.661447190342180 
  4.098770375152023   8.310215862807171   1.669983302081280 
  3.780125259228182   9.611153623358549   1.661308093685445 
  2.519302428421534  11.656934406315795   1.659734079832815 
  3.801237339715584  13.776412043984456   1.660095368105520 
 11.325296719345310   0.742526847461797   1.659677850344385 
 10.086886441920193   2.886543213835404   1.660319594012460 
  8.848609833765870   5.032733881932848   1.661111432645880 
  7.528148977753503   7.182411801127015   1.662433938172620 
  6.236398042277252   9.317039985023266   1.660328128392465 
  5.057820650644417  11.636691141800263   1.659111807705915 
  6.308485310946597  13.757980741540363   1.659783086952225 
 13.828390880749742   0.743158408155345   1.660057147239810 
 12.583401564822449   2.901278415801922   1.659393291844680 
 11.328615843739145   5.059868891664398   1.659927113168115 
 10.038957391404422   7.216071326701733   1.661943251552025 
  8.766078184792633   9.370418766256229   1.662244790042790 
  7.524037566543861  11.536261816613496   1.659725768159970 
