 N B C 
 1.0
 14.936314146199660   0.000000000000000   0.000000000000000
 -7.468157073099825  12.935227489513863   0.000000000000000
  0.000000000000001   0.000000000000001  13.341276283792837
 N B C 
 143 143   2
Cartesian
  1.244616265147871   0.718602402180144   1.668392555476367 
  4.978766968504941   7.186379743050230   1.662956211038304 
  6.223367764002833   0.718691043981380   1.668091470819174 
  9.957501329823010   7.186193377510800   1.667574940904509 
 11.202236142641937   0.718624057140645   1.667820327644101 
 -3.734147141657342   9.342069133249398   8.338220197003952 
  1.244702892528354   9.341991555233612   8.337865742025453 
  2.489200220761278   2.874518986217917   8.336644137713392 
  6.223443157050172   9.342157031390952   8.338755213701644 
  7.468076006749970   2.874543916596481   8.338146925367681 
 12.446910041902269   2.874477862381910   8.338040969044810 
 -1.244711916930713   9.342056475986482   1.667910009663074 
 -0.000172392412353   2.874395466864023   1.668445724047652 
  4.978613407503501   2.874649792017326   1.668298096098713 
  3.734080368408296   9.342014077444885   1.667810287476934 
  8.712790995310044   9.342094917593327   1.667574940904509 
  9.957583869833407   2.874479401822736   1.667700792672583 
 -4.978846817196906  11.497972914180611   8.338129364629323 
 -0.000030086960661  11.497962619964103   8.338063372362251 
  1.244620885072786   5.030193629680720   8.336644137713392 
  6.223585211942589   5.030291299227568   8.343001001806323 
  4.978778428517034  11.498023387183141   8.338256420172046 
 11.202257810225312   5.030345486534351   8.338196982328004 
 -1.244749622950776   5.030310598995851   1.668392555476367 
 -2.489440490805263  11.497989607569966   1.667910009663074 
  2.489359669752639  11.497935444706936   1.667860802408478 
  3.733506170155103   5.030035790029900   1.660040582412994 
  7.468150195230534  11.498009596635194   1.667760230516624 
  8.712881202819773   5.030323853822996   1.667201999142983 
  0.000001264093727   7.186119374726751   8.337635146746138 
  1.244616265147871   0.718602402180145   8.337564657368262 
  4.978766968504942   7.186379743050231   8.343001001806323 
  6.223367764002834   0.718691043981380   8.337865742025453 
  9.957501329823010   7.186193377510801   8.338382271940119 
 -2.489429537025778   7.186175703684260   1.667827848215305 
 11.202236142641937   0.718624057140646   8.338136885200528 
  3.733976874154445   0.718683903878546   1.668322066098505 
  2.489440759589106   7.186023287015844   1.668298096098713 
  7.468121154127102   7.186216756345808   1.667096762486044 
  8.712798330032737   0.718623487313347   1.667860802408478 
  2.489440759589107   7.186023287015845   8.337659116745913 
 13.691597254456383   0.718616370706888   1.667916243799818 
 -1.244711916930713   9.342056475986482   8.338047203181567 
 -0.000172392412352   2.874395466864024   8.337511488796975 
  4.978613407503502   2.874649792017327   8.337659116745913 
  3.734080368408297   9.342014077444885   8.338146925367681 
  8.712790995310044   9.342094917593327   8.338382271940119 
  9.957583869833407   2.874479401822736   8.338256420172046 
 -3.734147141657343   9.342069133249398   1.667737015840675 
  1.244702892528354   9.341991555233612   1.668091470819174 
  2.489200220761277   2.874518986217916   1.669313075131234 
  6.223443157050172   9.342157031390952   1.667201999142983 
  7.468076006749969   2.874543916596480   1.667810287476934 
 12.446910041902269   2.874477862381909   1.667916243799818 
 -1.244749622950776   5.030310598995852   8.337564657368262 
 -2.489440490805263  11.497989607569966   8.338047203181567 
  2.489359669752640  11.497935444706936   8.338096410436149 
  3.733506170155104   5.030035790029901   8.345916630431635 
  7.468150195230534  11.498009596635194   8.338196982328004 
 -4.978846817196906  11.497972914180611   1.667827848215305 
  8.712881202819773   5.030323853822997   8.338755213701644 
 -0.000030086960661  11.497962619964103   1.667893840482377 
  1.244620885072786   5.030193629680719   1.669313075131234 
  0.000001264093727   7.186119374726750   1.668322066098505 
  6.223585211942588   5.030291299227567   1.662956211038304 
  4.978778428517034  11.498023387183141   1.667700792672583 
 11.202257810225312   5.030345486534350   1.667760230516624 
 -2.489429537025778   7.186175703684261   8.338129364629323 
  3.733976874154446   0.718683903878546   8.337635146746138 
  7.468121154127103   7.186216756345809   8.338860450358583 
  8.712798330032737   0.718623487313348   8.338096410436149 
 13.691597254456383   0.718616370706889   8.338040969044810 
  0.000732423849082   1.437961060652200   5.002978606422314 
  3.719304289222455   7.930092468529997   5.002978606422314 
  4.971035189738394   1.450876889591288   5.002978606422314 
  8.709124117319906   7.902710151210362   5.002978606422314 
  9.958941619231444   1.435597993739399   5.002978606422314 
 -4.978807322940227  10.060721334449134  11.673616748318732 
 -0.000034260253262  10.060742740915352  11.673616748318732 
  1.244655358469557   3.593097103930484  11.673616748318732 
  4.978710340004210  10.060712261115963  11.673616748318732 
  6.223401345334698   3.593059493382423  11.673616748318732 
 11.202203870575417   3.593108553990128  11.673616748318732 
 -2.488808381684390  10.061065801552113   5.002978606422314 
 -1.243708670931134   3.593396263838185   5.002978606422314 
  3.719127347999891   3.636449836005026   5.002978606422314 
  2.482417493772694  10.068325723921181   5.002978606422314 
  7.469999106151104  10.065862758359986   5.002978606422314 
  8.718249488928135   3.588359215372887   5.002978606422314 
 -6.223501324168296  12.216576161544459  11.673616748318732 
 -1.244701099687225  12.216568945311163  11.673616748318732 
 -0.000055512331567   5.748981905549147  11.673616748318732 
  4.978713617685503   5.748956645058507  11.673616748318732 
  3.734001957044888  12.216566151178675  11.673616748318732 
  9.957543550575377   5.748971831925353  11.673616748318732 
 -2.482315503527353   5.748519064328139   5.002978606422314 
 -3.734138813291887  12.221429990910085   5.002978606422314 
  1.242751174425983  12.215482715769520   5.002978606422314 
  2.519435920534739   5.714376341779516   5.002978606422314 
  6.224919666816829  12.219422988366160   5.002978606422314 
  7.473159727148393   5.740040299942250   5.002978606422314 
 -1.244746370275341   7.904851591553747  11.673616748318732 
 -0.000039786055551   1.437204112680200  11.673616748318732 
  3.733995780212059   7.904836412819576  11.673616748318732 
  4.978751566154881   1.437192440741667  11.673616748318732 
  8.712838809292611   7.904854829620760  11.673616748318732 
 -3.732896668849723   7.904482350338920   5.002978606422314 
  9.957471921422895   1.437199973497018  11.673616748318732 
  2.493575218928465   1.450576064295827   5.002978606422314 
  1.252628147985641   7.891346809128988   5.002978606422314 
  6.218214891037317   7.913668516782848   5.002978606422314 
  7.471248906345085   1.427416246950126   5.002978606422314 
  1.244635255853331   7.904871611555627  11.673616748318732 
 12.448219040250489   1.437992618480678   5.002978606422314 
 -2.489414215497188  10.060716023237212  11.673616748318732 
 -1.244750312056554   3.593105984429733  11.673616748318732 
  3.734052655904662   3.593064743602859  11.673616748318732 
  2.489307673468113  10.060718413695218  11.673616748318732 
  7.468141736342889  10.060742254630195  11.673616748318732 
  8.712801877260750   3.593075998474616  11.673616748318732 
 -4.978508579398788  10.061945465922856   5.002978606422314 
  0.000836804771249  10.057086349149074   5.002978606422314 
  1.239498647262616   3.590119875327022   5.002978606422314 
  4.977349291847672  10.067788422760723   5.002978606422314 
  6.237927985684522   3.567708261110734   5.002978606422314 
 11.205404869887708   3.592969570302342   5.002978606422314 
 -2.489428123052393   5.748971658030311  11.673616748318732 
 -3.734113657839440  12.216562212314720  11.673616748318732 
  1.244628403503666  12.216566534482851  11.673616748318732 
  2.489325982321313   5.748994583785436  11.673616748318732 
  6.223439530565017  12.216581349800332  11.673616748318732 
 -6.220336972049458  12.222962167591696   5.002978606422314 
  7.468126011900034   5.748965533895428  11.673616748318732 
 -1.247432095330761  12.219151505633887   5.002978606422314 
  0.013637640232765   5.745953950196150   5.002978606422314 
 -1.240543328077988   7.902395916995214   5.002978606422314 
  3.733349450782723  12.218639936695558   5.002978606422314 
  9.962906721789651   5.748020109498608   5.002978606422314 
 -3.734106169574259   7.904835696579680  11.673616748318732 
  2.489350928903520   1.437203468640720  11.673616748318732 
  6.223427512751308   7.904846574525762  11.673616748318732 
  7.468105872282641   1.437186972715982  11.673616748318732 
 12.446881662440116   1.437220483041844  11.673616748318732 
  1.247248730918595   0.724300125080407   5.002978606422314 
  4.956699997541602   7.211201246862695   5.002978606422314 
  6.219685604480449   0.723112677051871   5.002978606422314 
  9.955717718838859   7.185767064148420   5.002978606422314 
 11.203007074619563   0.719069154925455   5.002978606422314 
 -3.734187979435338   9.342045555547273  11.673616748318732 
  1.244715436160970   9.342116296413252  11.673616748318732 
  2.489544076086453   2.874545532248098  11.673616748318732 
  6.223418516453780   9.341889928725548  11.673616748318732 
  7.468030997884976   2.874604675319441  11.673616748318732 
 12.446758964497436   2.874466768538279  11.673616748318732 
 -1.244148056402636   9.340810927860579   5.002978606422314 
 -0.005956110960640   2.871056235403252   5.002978606422314 
  4.983688528435271   2.891499194289049   5.002978606422314 
  3.726783763388226   9.360642698560293   5.002978606422314 
  8.711529991616153   9.340763421851809   5.002978606422314 
  9.960972118570004   2.873022506271488   5.002978606422314 
 -4.978826507135141  11.497849260921893  11.673616748318732 
 -0.000008287679908  11.497975205784726  11.673616748318732 
  1.244815802271880   5.030478144112458  11.673616748318732 
  6.223355895036152   5.030504258218046  11.673616748318732 
  4.978708601965719  11.497808424281335  11.673616748318732 
 11.202043519380290   5.030392947128560  11.673616748318732 
 -1.238499017290071   5.029741519777774   5.002978606422314 
 -2.490237236859869  11.499100699174386   5.002978606422314 
  2.486789078016416  11.502393553823847   5.002978606422314 
  7.470492190903975  11.501480710266348   5.002978606422314 
  8.716366629537493   5.029062971704532   5.002978606422314 
 -0.000000863492894   7.186320713268196  11.673616748318732 
  1.244667561858237   0.718505502224785  11.673616748318732 
  4.978836737947428   7.186074669288525  11.673616748318732 
  6.223482064849606   0.718639536496062  11.673616748318732 
  9.957354896230079   7.186203677273973  11.673616748318732 
 -2.487565378202774   7.186063898936228   5.002978606422314 
 11.202104760441962   0.718548203592125  11.673616748318732 
  3.734325874687654   0.723617708710749   5.002978606422314 
  2.506570330460879   7.181993769534189   5.002978606422314 
  7.458285893578256   7.180538366020400   5.002978606422314 
  8.715373869912721   0.714168235008549   5.002978606422314 
  2.489542230956280   7.186275329931836  11.673616748318732 
 13.691546758662771   0.718693873718444   5.002978606422314 
 -1.244728319059010   9.342125996797977  11.673616748318732 
 -0.000054135557634   2.874463742490938  11.673616748318732 
  4.978882418755179   2.874611647341062  11.673616748318732 
  3.734110482573391   9.341944719262914  11.673616748318732 
  8.712726698370131   9.341962952500309  11.673616748318732 
  9.957362793223913   2.874526411706342  11.673616748318732 
 -3.734105453863835   9.342093201708209   5.002978606422314 
  1.246691059332413   9.336591895011209   5.002978606422314 
  2.480904247277185   2.885041603259455   5.002978606422314 
  6.224093914463263   9.345805940530759   5.002978606422314 
  7.480560563363360   2.858910560730000   5.002978606422314 
 12.446951913582341   2.874395380236080   5.002978606422314 
 -1.244807892418568   5.030403473227853  11.673616748318732 
 -2.489388485080565  11.497940642504441  11.673616748318732 
  2.489338295090343  11.497902388636318  11.673616748318732 
  3.734350334104832   5.030523168313507  11.673616748318732 
  7.468084151888288  11.497800285022503  11.673616748318732 
 -4.978011563537459  11.499643225452026   5.002978606422314 
  8.712637564827926   5.030436065773247  11.673616748318732 
 -0.001661434007674  11.497020761307368   5.002978606422314 
  1.249585752003008   5.017747797373603   5.002978606422314 
  0.004448564682326   7.183954715638354   5.002978606422314 
  6.234047779322639   4.998769989882521   5.002978606422314 
  4.979210844327291  11.501686144438997   5.002978606422314 
 11.206434880646029   5.030638157467538   5.002978606422314 
 -2.489526468858216   7.186255119343077  11.673616748318732 
  3.734150174652774   0.718581392063786  11.673616748318732 
  7.467996475105735   7.186144772879269  11.673616748318732 
  8.712759015304691   0.718621504348096  11.673616748318732 
 13.691512108203549   0.718491080758193  11.673616748318732 
 -0.000224569305328   1.436962302760872   1.667575750482451 
  3.735247295745530   7.904350021414920   1.666945696691180 
  4.978871745150423   1.437716225840635   1.667752492962223 
  8.712201502280433   7.904486880245731   1.667993083025407 
  9.957501207110621   1.437400267695086   1.667666756051942 
 -4.979140968053581  10.060400815483883   8.338272929135117 
  0.000070030675615  10.060673008232888   8.338308325144506 
  1.244494898643429   3.593004462406666   8.338700159138943 
  4.979022177067876  10.060386003273445   8.338242623012929 
  6.223605875788827   3.594386533329956   8.339011516153446 
 11.201959418370851   3.593225822303004   8.338307661201830 
 -2.489592249849339  10.060613235056062   1.667635906843660 
 -1.245052117214467   3.593066862400895   1.667575750482451 
  3.734428122196017   3.594286575209924   1.664249811999019 
  2.489757337810686  10.060535004475977   1.667687361728581 
  7.467887955325158  10.060302033234329   1.667788115922290 
  8.712675248212784   3.593509186214838   1.667714589831697 
 -6.223640199654534  12.216233660519789   8.338306821952369 
 -1.244709344497272  12.216694130246182   8.338308325144506 
 -0.000171185731265   5.749008642412583   8.338284387177932 
  4.978933659020991   5.749083685982785   8.335819638711616 
  3.734190059752508  12.216491366229176   8.338290456792686 
  9.957035417154398   5.748972161814943   8.338169096922337 
 -2.489794175383707   5.749022638843614   1.667650390892259 
 -3.734205155368865  12.216448381260117   1.667636368892629 
  1.244772440917624  12.216649694522571   1.667612883380019 
  2.490571852677856   5.748708831328480   1.664249811999019 
  6.223418861800752  12.216311013824713   1.667649551642798 
  7.467451677031132   5.748956948637106   1.667521731647561 
 -1.244890699625078   7.904829267896184   8.338320843951999 
 -0.000224569305328   1.436962302760872   8.338381462362175 
  3.735247295745531   7.904350021414921   8.339011516153446 
  4.978871745150424   1.437716225840636   8.338204719882405 
  8.712201502280433   7.904486880245732   8.337964129819236 
 -3.734550569697245   7.904707010918304   1.667684283709511 
  9.957501207110621   1.437400267695087   8.338290456792686 
  2.489316247006632   1.437089924106308   1.667672825666708 
  1.245148956552933   7.904713797069283   1.667752492962223 
  6.223082910265053   7.904266876027798   1.667521731647561 
  7.468171867410786   1.437668098069433   1.667687361728581 
  1.245148956552934   7.904713797069284   8.338204719882405 
 12.446786052422087   1.437165282572205   1.667642803569354 
 -2.489592249849339  10.060613235056062   8.338321306000955 
 -1.245052117214466   3.593066862400896   8.338381462362175 
  3.734428122196018   3.594286575209925   8.341707400845609 
  2.489757337810687  10.060535004475977   8.338269851116047 
  7.467887955325159  10.060302033234329   8.338169096922337 
  8.712675248212784   3.593509186214839   8.338242623012929 
 -4.979140968053581  10.060400815483883   1.667684283709511 
  0.000070030675614  10.060673008232888   1.667648887700122 
  1.244494898643429   3.593004462406665   1.667257053705685 
  4.979022177067875  10.060386003273445   1.667714589831697 
  6.223605875788826   3.594386533329955   1.666945696691180 
 11.201959418370851   3.593225822303003   1.667649551642798 
 -2.489794175383706   5.749022638843615   8.338306821952369 
 -3.734205155368864  12.216448381260117   8.338320843951999 
  1.244772440917625  12.216649694522571   8.338344329464608 
  2.490571852677856   5.748708831328481   8.341707400845609 
  6.223418861800753  12.216311013824713   8.338307661201830 
 -6.223640199654535  12.216233660519789   1.667650390892259 
  7.467451677031133   5.748956948637107   8.338435481197081 
 -1.244709344497273  12.216694130246182   1.667648887700122 
 -0.000171185731265   5.749008642412583   1.667672825666708 
 -1.244890699625079   7.904829267896183   1.667636368892629 
  4.978933659020990   5.749083685982784   1.670137574133012 
  3.734190059752508  12.216491366229176   1.667666756051942 
  9.957035417154398   5.748972161814942   1.667788115922290 
 -3.734550569697244   7.904707010918305   8.338272929135117 
  2.489316247006632   1.437089924106309   8.338284387177932 
  6.223082910265054   7.904266876027799   8.338435481197081 
  7.468171867410787   1.437668098069434   8.338269851116047 
 12.446786052422087   1.437165282572205   8.338314409275274 
  3.734581916841104   5.030656872668652   5.002978606422314 
  4.916187883929763   5.712857395843344   5.002978606422314 
Generated by cif2cell 2.0.0.  :  Failed to get author information, No journal information. Species order: N B C 
 1.0
 14.936314146199660   0.000000000000000   0.000000000000000
 -7.468157073099825  12.935227489513863   0.000000000000000
  0.000000000000001   0.000000000000001  13.341276283792837
 N B C 
 143 143   2
Cartesian
  1.244616265147871   0.718602402180144   1.668392555476367 
  4.978766968504941   7.186379743050230   1.662956211038304 
  6.223367764002833   0.718691043981380   1.668091470819174 
  9.957501329823010   7.186193377510800   1.667574940904509 
 11.202236142641937   0.718624057140645   1.667820327644101 
 -3.734147141657342   9.342069133249398   8.338220197003952 
  1.244702892528354   9.341991555233612   8.337865742025453 
  2.489200220761278   2.874518986217917   8.336644137713392 
  6.223443157050172   9.342157031390952   8.338755213701644 
  7.468076006749970   2.874543916596481   8.338146925367681 
 12.446910041902269   2.874477862381910   8.338040969044810 
 -1.244711916930713   9.342056475986482   1.667910009663074 
 -0.000172392412353   2.874395466864023   1.668445724047652 
  4.978613407503501   2.874649792017326   1.668298096098713 
  3.734080368408296   9.342014077444885   1.667810287476934 
  8.712790995310044   9.342094917593327   1.667574940904509 
  9.957583869833407   2.874479401822736   1.667700792672583 
 -4.978846817196906  11.497972914180611   8.338129364629323 
 -0.000030086960661  11.497962619964103   8.338063372362251 
  1.244620885072786   5.030193629680720   8.336644137713392 
  6.223585211942589   5.030291299227568   8.343001001806323 
  4.978778428517034  11.498023387183141   8.338256420172046 
 11.202257810225312   5.030345486534351   8.338196982328004 
 -1.244749622950776   5.030310598995851   1.668392555476367 
 -2.489440490805263  11.497989607569966   1.667910009663074 
  2.489359669752639  11.497935444706936   1.667860802408478 
  3.733506170155103   5.030035790029900   1.660040582412994 
  7.468150195230534  11.498009596635194   1.667760230516624 
  8.712881202819773   5.030323853822996   1.667201999142983 
  0.000001264093727   7.186119374726751   8.337635146746138 
  1.244616265147871   0.718602402180145   8.337564657368262 
  4.978766968504942   7.186379743050231   8.343001001806323 
  6.223367764002834   0.718691043981380   8.337865742025453 
  9.957501329823010   7.186193377510801   8.338382271940119 
 -2.489429537025778   7.186175703684260   1.667827848215305 
 11.202236142641937   0.718624057140646   8.338136885200528 
  3.733976874154445   0.718683903878546   1.668322066098505 
  2.489440759589106   7.186023287015844   1.668298096098713 
  7.468121154127102   7.186216756345808   1.667096762486044 
  8.712798330032737   0.718623487313347   1.667860802408478 
  2.489440759589107   7.186023287015845   8.337659116745913 
 13.691597254456383   0.718616370706888   1.667916243799818 
 -1.244711916930713   9.342056475986482   8.338047203181567 
 -0.000172392412352   2.874395466864024   8.337511488796975 
  4.978613407503502   2.874649792017327   8.337659116745913 
  3.734080368408297   9.342014077444885   8.338146925367681 
  8.712790995310044   9.342094917593327   8.338382271940119 
  9.957583869833407   2.874479401822736   8.338256420172046 
 -3.734147141657343   9.342069133249398   1.667737015840675 
  1.244702892528354   9.341991555233612   1.668091470819174 
  2.489200220761277   2.874518986217916   1.669313075131234 
  6.223443157050172   9.342157031390952   1.667201999142983 
  7.468076006749969   2.874543916596480   1.667810287476934 
 12.446910041902269   2.874477862381909   1.667916243799818 
 -1.244749622950776   5.030310598995852   8.337564657368262 
 -2.489440490805263  11.497989607569966   8.338047203181567 
  2.489359669752640  11.497935444706936   8.338096410436149 
  3.733506170155104   5.030035790029901   8.345916630431635 
  7.468150195230534  11.498009596635194   8.338196982328004 
 -4.978846817196906  11.497972914180611   1.667827848215305 
  8.712881202819773   5.030323853822997   8.338755213701644 
 -0.000030086960661  11.497962619964103   1.667893840482377 
  1.244620885072786   5.030193629680719   1.669313075131234 
  0.000001264093727   7.186119374726750   1.668322066098505 
  6.223585211942588   5.030291299227567   1.662956211038304 
  4.978778428517034  11.498023387183141   1.667700792672583 
 11.202257810225312   5.030345486534350   1.667760230516624 
 -2.489429537025778   7.186175703684261   8.338129364629323 
  3.733976874154446   0.718683903878546   8.337635146746138 
  7.468121154127103   7.186216756345809   8.338860450358583 
  8.712798330032737   0.718623487313348   8.338096410436149 
 13.691597254456383   0.718616370706889   8.338040969044810 
  0.000732423849082   1.437961060652200   5.002978606422314 
  3.719304289222455   7.930092468529997   5.002978606422314 
  4.971035189738394   1.450876889591288   5.002978606422314 
  8.709124117319906   7.902710151210362   5.002978606422314 
  9.958941619231444   1.435597993739399   5.002978606422314 
 -4.978807322940227  10.060721334449134  11.673616748318732 
 -0.000034260253262  10.060742740915352  11.673616748318732 
  1.244655358469557   3.593097103930484  11.673616748318732 
  4.978710340004210  10.060712261115963  11.673616748318732 
  6.223401345334698   3.593059493382423  11.673616748318732 
 11.202203870575417   3.593108553990128  11.673616748318732 
 -2.488808381684390  10.061065801552113   5.002978606422314 
 -1.243708670931134   3.593396263838185   5.002978606422314 
  3.719127347999891   3.636449836005026   5.002978606422314 
  2.482417493772694  10.068325723921181   5.002978606422314 
  7.469999106151104  10.065862758359986   5.002978606422314 
  8.718249488928135   3.588359215372887   5.002978606422314 
 -6.223501324168296  12.216576161544459  11.673616748318732 
 -1.244701099687225  12.216568945311163  11.673616748318732 
 -0.000055512331567   5.748981905549147  11.673616748318732 
  4.978713617685503   5.748956645058507  11.673616748318732 
  3.734001957044888  12.216566151178675  11.673616748318732 
  9.957543550575377   5.748971831925353  11.673616748318732 
 -2.482315503527353   5.748519064328139   5.002978606422314 
 -3.734138813291887  12.221429990910085   5.002978606422314 
  1.242751174425983  12.215482715769520   5.002978606422314 
  2.519435920534739   5.714376341779516   5.002978606422314 
  6.224919666816829  12.219422988366160   5.002978606422314 
  7.473159727148393   5.740040299942250   5.002978606422314 
 -1.244746370275341   7.904851591553747  11.673616748318732 
 -0.000039786055551   1.437204112680200  11.673616748318732 
  3.733995780212059   7.904836412819576  11.673616748318732 
  4.978751566154881   1.437192440741667  11.673616748318732 
  8.712838809292611   7.904854829620760  11.673616748318732 
 -3.732896668849723   7.904482350338920   5.002978606422314 
  9.957471921422895   1.437199973497018  11.673616748318732 
  2.493575218928465   1.450576064295827   5.002978606422314 
  1.252628147985641   7.891346809128988   5.002978606422314 
  6.218214891037317   7.913668516782848   5.002978606422314 
  7.471248906345085   1.427416246950126   5.002978606422314 
  1.244635255853331   7.904871611555627  11.673616748318732 
 12.448219040250489   1.437992618480678   5.002978606422314 
 -2.489414215497188  10.060716023237212  11.673616748318732 
 -1.244750312056554   3.593105984429733  11.673616748318732 
  3.734052655904662   3.593064743602859  11.673616748318732 
  2.489307673468113  10.060718413695218  11.673616748318732 
  7.468141736342889  10.060742254630195  11.673616748318732 
  8.712801877260750   3.593075998474616  11.673616748318732 
 -4.978508579398788  10.061945465922856   5.002978606422314 
  0.000836804771249  10.057086349149074   5.002978606422314 
  1.239498647262616   3.590119875327022   5.002978606422314 
  4.977349291847672  10.067788422760723   5.002978606422314 
  6.237927985684522   3.567708261110734   5.002978606422314 
 11.205404869887708   3.592969570302342   5.002978606422314 
 -2.489428123052393   5.748971658030311  11.673616748318732 
 -3.734113657839440  12.216562212314720  11.673616748318732 
  1.244628403503666  12.216566534482851  11.673616748318732 
  2.489325982321313   5.748994583785436  11.673616748318732 
  6.223439530565017  12.216581349800332  11.673616748318732 
 -6.220336972049458  12.222962167591696   5.002978606422314 
  7.468126011900034   5.748965533895428  11.673616748318732 
 -1.247432095330761  12.219151505633887   5.002978606422314 
  0.013637640232765   5.745953950196150   5.002978606422314 
 -1.240543328077988   7.902395916995214   5.002978606422314 
  3.733349450782723  12.218639936695558   5.002978606422314 
  9.962906721789651   5.748020109498608   5.002978606422314 
 -3.734106169574259   7.904835696579680  11.673616748318732 
  2.489350928903520   1.437203468640720  11.673616748318732 
  6.223427512751308   7.904846574525762  11.673616748318732 
  7.468105872282641   1.437186972715982  11.673616748318732 
 12.446881662440116   1.437220483041844  11.673616748318732 
  1.247248730918595   0.724300125080407   5.002978606422314 
  4.956699997541602   7.211201246862695   5.002978606422314 
  6.219685604480449   0.723112677051871   5.002978606422314 
  9.955717718838859   7.185767064148420   5.002978606422314 
 11.203007074619563   0.719069154925455   5.002978606422314 
 -3.734187979435338   9.342045555547273  11.673616748318732 
  1.244715436160970   9.342116296413252  11.673616748318732 
  2.489544076086453   2.874545532248098  11.673616748318732 
  6.223418516453780   9.341889928725548  11.673616748318732 
  7.468030997884976   2.874604675319441  11.673616748318732 
 12.446758964497436   2.874466768538279  11.673616748318732 
 -1.244148056402636   9.340810927860579   5.002978606422314 
 -0.005956110960640   2.871056235403252   5.002978606422314 
  4.983688528435271   2.891499194289049   5.002978606422314 
  3.726783763388226   9.360642698560293   5.002978606422314 
  8.711529991616153   9.340763421851809   5.002978606422314 
  9.960972118570004   2.873022506271488   5.002978606422314 
 -4.978826507135141  11.497849260921893  11.673616748318732 
 -0.000008287679908  11.497975205784726  11.673616748318732 
  1.244815802271880   5.030478144112458  11.673616748318732 
  6.223355895036152   5.030504258218046  11.673616748318732 
  4.978708601965719  11.497808424281335  11.673616748318732 
 11.202043519380290   5.030392947128560  11.673616748318732 
 -1.238499017290071   5.029741519777774   5.002978606422314 
 -2.490237236859869  11.499100699174386   5.002978606422314 
  2.486789078016416  11.502393553823847   5.002978606422314 
  7.470492190903975  11.501480710266348   5.002978606422314 
  8.716366629537493   5.029062971704532   5.002978606422314 
 -0.000000863492894   7.186320713268196  11.673616748318732 
  1.244667561858237   0.718505502224785  11.673616748318732 
  4.978836737947428   7.186074669288525  11.673616748318732 
  6.223482064849606   0.718639536496062  11.673616748318732 
  9.957354896230079   7.186203677273973  11.673616748318732 
 -2.487565378202774   7.186063898936228   5.002978606422314 
 11.202104760441962   0.718548203592125  11.673616748318732 
  3.734325874687654   0.723617708710749   5.002978606422314 
  2.506570330460879   7.181993769534189   5.002978606422314 
  7.458285893578256   7.180538366020400   5.002978606422314 
  8.715373869912721   0.714168235008549   5.002978606422314 
  2.489542230956280   7.186275329931836  11.673616748318732 
 13.691546758662771   0.718693873718444   5.002978606422314 
 -1.244728319059010   9.342125996797977  11.673616748318732 
 -0.000054135557634   2.874463742490938  11.673616748318732 
  4.978882418755179   2.874611647341062  11.673616748318732 
  3.734110482573391   9.341944719262914  11.673616748318732 
  8.712726698370131   9.341962952500309  11.673616748318732 
  9.957362793223913   2.874526411706342  11.673616748318732 
 -3.734105453863835   9.342093201708209   5.002978606422314 
  1.246691059332413   9.336591895011209   5.002978606422314 
  2.480904247277185   2.885041603259455   5.002978606422314 
  6.224093914463263   9.345805940530759   5.002978606422314 