Species order:X N B                     
   2.51242800000000     
     5.9449720136058266    0.0000000000000000    0.0000000000000000
    -2.9724860068029120    5.1484967885702053   -0.0000000000000001
     0.0000000000000000    0.0000000000000009    5.3101128803662583
   C    N    B 
     2   143   143
Direct
  0.4444893801437744  0.3889113567385516  0.3750000000000000
  0.5499688583713880  0.4416510958523583  0.3750000000000000
  0.1111051588258887  0.0555539052376687  0.1250549437689974
  0.6111163141260184  0.5555665525694063  0.1246474606824904
  0.4444405873318265  0.0555607579815656  0.1250323758638888
  0.9444399650878216  0.5555521449728195  0.1249936591846389
  0.7777778253568696  0.0555555793451026  0.1250120522329783
  0.1111049868775345  0.7222191601054316  0.6249941924321991
  0.4444405873318265  0.7222131626835966  0.6249676241361107
  0.2777662876286303  0.2222240767352712  0.6248760583603881
  0.7777782336542031  0.7222259553582892  0.6250342947946950
  0.6111075745629494  0.2222260040595939  0.6249887003312404
  0.9444425493097486  0.2222208975228421  0.6249807583382394
  0.2777744806151103  0.7222181815943906  0.1250187743798746
  0.1110957220032239  0.2222145276682762  0.1250589290377344
  0.4444398513430847  0.2222341891047303  0.1250478635335199
  0.6111075745629494  0.7222149038366844  0.1250112996687593
  0.9444399650878216  0.7222211534483362  0.1249936591846389
  0.7777799269983634  0.2222210165343416  0.1250030924476485
  0.1111057871236918  0.8888883418170742  0.6249873840599940
  0.4444417586447762  0.8888875459890522  0.6249824375866826
  0.2777662876286303  0.3888755442266880  0.6248760583603881
  0.6111163141260184  0.3888830948899395  0.6253525393175097
  0.7777799269983634  0.8888922437973503  0.6249969075523514
  0.9444451283573148  0.3888872840166339  0.6249924523680961
  0.1111051588258887  0.3888845869215485  0.1250549437689974
  0.2777744806151103  0.8888896323540491  0.1250187743798746
  0.6111076470764712  0.8888854451170577  0.1250150860330071
  0.4443933505008091  0.3888633419170688  0.1244289187256867
  0.9444451283573148  0.8888911776740094  0.1250075476319038
  0.7777782336542031  0.3888856116292431  0.1249657052053051
  0.2777732966052137  0.5555464239459482  0.6249503397868167
  0.1111051588258887  0.0555539052376687  0.6249450562310030
  0.6111163141260184  0.5555665525694063  0.6253525393175097
  0.4444405873318265  0.0555607579815656  0.6249676241361107
  0.9444399650878216  0.5555521449728195  0.6250063408153609
  0.1111057871236918  0.5555507786399456  0.1250126159400058
  0.7777778253568696  0.0555555793451026  0.6249879477670218
  0.2777732966052137  0.0555602059926014  0.1250496602131836
  0.4444398513430847  0.5555389955716901  0.1250478635335199
  0.7777745713666674  0.5555539523500012  0.1249578171551139
  0.6111076470764712  0.0555555352927429  0.1250150860330071
  0.4444398513430847  0.5555389955716901  0.6249521364664802
  0.9444425493097486  0.0555549851202424  0.1250192416617606
  0.2777744806151103  0.7222181815943906  0.6249812256201257
  0.1110957220032239  0.2222145276682762  0.6249410709622660
  0.4444398513430847  0.2222341891047303  0.6249521364664802
  0.6111075745629494  0.7222149038366844  0.6249887003312404
  0.9444399650878216  0.7222211534483362  0.6250063408153609
  0.7777799269983634  0.2222210165343416  0.6249969075523514
  0.1111049868775345  0.7222191601054316  0.1250058075678014
  0.4444405873318265  0.7222131626835966  0.1250323758638888
  0.2777662876286303  0.2222240767352712  0.1251239416396125
  0.7777782336542031  0.7222259553582892  0.1249657052053051
  0.6111075745629494  0.2222260040595939  0.1250112996687593
  0.9444425493097486  0.2222208975228421  0.1250192416617606
  0.1111051588258887  0.3888845869215485  0.6249450562310030
  0.2777744806151103  0.8888896323540491  0.6249812256201257
  0.6111076470764712  0.8888854451170577  0.6249849139669931
  0.4443933505008091  0.3888633419170688  0.6255710812743135
  0.9444451283573148  0.8888911776740094  0.6249924523680961
  0.1111057871236918  0.8888883418170742  0.1250126159400058
  0.7777782336542031  0.3888856116292431  0.6250342947946950
  0.4444417586447762  0.8888875459890522  0.1250175624133173
  0.2777662876286303  0.3888755442266880  0.1251239416396125
  0.2777732966052137  0.5555464239459482  0.1250496602131836
  0.6111163141260184  0.3888830948899395  0.1246474606824904
  0.7777799269983634  0.8888922437973503  0.1250030924476485
  0.9444451283573148  0.3888872840166339  0.1250075476319038
  0.1111057871236918  0.5555507786399456  0.6249873840599940
  0.2777732966052137  0.0555602059926014  0.6249503397868167
  0.7777745713666674  0.5555539523500012  0.6250421828448861
  0.6111076470764712  0.0555555352927429  0.6249849139669931
  0.9444425493097486  0.0555549851202424  0.6249807583382394
  0.0556321741205637  0.1111662753374772  0.3750000000000000
  0.5555416971956287  0.6130616933454512  0.3750000000000000
  0.3888977759605353  0.1121647756691918  0.3750000000000000
  0.8885562944473535  0.6109448138903480  0.3750000000000000
  0.7222521166716196  0.1109835907333820  0.3750000000000000
  0.0555527180015068  0.7777769152189254  0.8750000000000000
  0.3888869913023115  0.7777785701156968  0.8750000000000000
  0.2222188758324138  0.2777761045828747  0.8750000000000000
  0.7222173533986304  0.7777762137752755  0.8750000000000000
  0.5555490551304880  0.2777731969766429  0.8750000000000000
  0.8888863699232800  0.2777769897671251  0.8750000000000000
  0.2222737574129651  0.7778035453731502  0.3750000000000000
  0.0556321741205637  0.2777992321164220  0.3750000000000000
  0.3895628186952951  0.2811276291006836  0.3750000000000000
  0.5553825381262503  0.7783647973785711  0.3750000000000000
  0.8892105207023470  0.7781743897832508  0.3750000000000000
  0.7223997528612573  0.2774098266367440  0.3750000000000000
  0.0555520058799795  0.9444423123944291  0.8750000000000000
  0.3888869913023115  0.9444417545199500  0.8750000000000000
  0.2222181929166237  0.4444438190367847  0.8750000000000000
  0.5555503990508108  0.4444418661920697  0.8750000000000000
  0.7222156421867562  0.9444415385104138  0.8750000000000000
  0.8888882394509030  0.4444430402624033  0.8750000000000000
  0.0560107076963853  0.4444080375848250  0.3750000000000000
  0.2224047411782233  0.9448175535233199  0.3750000000000000
  0.5553822266631514  0.9443577799982401  0.3750000000000000
  0.3895628186952949  0.4417685229279466  0.3750000000000000
  0.8890953074839245  0.9446623956379597  0.3750000000000000
  0.7222112118085021  0.4437525590172653  0.3750000000000000
  0.2222182655991294  0.6111103649287914  0.8750000000000000
  0.0555512147882822  0.1111077570027499  0.8750000000000000
  0.5555490551304880  0.6111091914871807  0.8750000000000000
  0.3888854339724950  0.1111068546654284  0.8750000000000000
  0.8888878971829276  0.6111106152581355  0.8750000000000000
  0.0556200368974192  0.6110818195309523  0.3750000000000000
  0.7222156421867562  0.1111074370096782  0.8750000000000000
  0.2230179191147522  0.1121415193874058  0.3750000000000000
  0.3888977759605353  0.6100663336246865  0.3750000000000000
  0.7222112118085021  0.6117919861245720  0.3750000000000000
  0.5553825381262503  0.1103510740810146  0.3750000000000000
  0.3888854339724950  0.6111119126404100  0.8750000000000000
  0.8890040967035714  0.1111687150184570  0.3750000000000000
  0.2222196759033533  0.7777765046183445  0.8750000000000000
  0.0555512147882822  0.2777767911188679  0.8750000000000000
  0.3888850686979828  0.2777736028620778  0.8750000000000000
  0.5555497880290169  0.7777766894205060  0.8750000000000000
  0.8888882394509030  0.7777785325218354  0.8750000000000000
  0.7222173533986304  0.2777744729566907  0.8750000000000000
  0.0556200368974192  0.7778715506998023  0.3750000000000000
  0.3888039752560590  0.7774959008105579  0.3750000000000000
  0.2217585470742421  0.2775459402037889  0.3750000000000000
  0.7223997528612573  0.7783232595578490  0.3750000000000000
  0.5555416971956287  0.2758133371835135  0.3750000000000000
  0.8890953074839245  0.2777662451793010  0.3750000000000000
  0.0555520058799795  0.4444430268188787  0.8750000000000000
  0.2222182655991294  0.9444412340036741  0.8750000000000000
  0.5555498029526608  0.9444415681429946  0.8750000000000000
  0.3888850686979828  0.4444447991692406  0.8750000000000000
  0.8888863699232800  0.9444427134894907  0.8750000000000000
  0.0560107076963853  0.9449360034448891  0.3750000000000000
  0.7222191971103592  0.4444425533726342  0.8750000000000000
  0.3888039752560590  0.9446414077788367  0.3750000000000000
  0.2230179191147522  0.4442097330606821  0.3750000000000000
  0.2224047411782233  0.6109205209882399  0.3750000000000000
  0.7222521166716196  0.9446018592715727  0.3750000000000000
  0.8892105207023470  0.4443694642524317  0.3750000000000000
  0.0555527180015068  0.6111091361159168  0.8750000000000000
  0.2222181929166237  0.1111077072131748  0.8750000000000000
  0.7222191971103592  0.6111099770710602  0.8750000000000000
  0.5555497880290169  0.1111064319418471  0.8750000000000000
  0.8888847118006844  0.1111090225670134  0.8750000000000000
  0.1115016453729045  0.0559943863119205  0.3750000000000000
  0.6105983637816564  0.5574854599742114  0.3750000000000000
  0.4443649777491803  0.0559025867645595  0.3750000000000000
  0.9443040719150614  0.5555191874262494  0.3750000000000000
  0.7778466448322395  0.0555899890827879  0.3750000000000000
  0.1111013413750277  0.7222173373541785  0.8750000000000000
  0.4444462489017055  0.7222228062078211  0.8750000000000000
  0.2777903351733814  0.2222261289628181  0.8750000000000000
  0.7777662593216859  0.7222053061145378  0.8750000000000000
  0.6111069097536896  0.2222307012110746  0.8750000000000000
  0.9444320057153323  0.2222200398770336  0.8750000000000000
  0.2777640860146631  0.7221218904292834  0.3750000000000000
  0.1105794216191023  0.2219563774762155  0.3750000000000000
  0.4454309343990613  0.2235367871676853  0.3750000000000000
  0.6113391333238112  0.7236550502222431  0.3750000000000000
  0.9443040719150614  0.7221182178221482  0.3750000000000000
  0.7779504583404979  0.2221083864663796  0.3750000000000000
  0.1111023671915764  0.8888787823981288  0.8750000000000000
  0.4444437046206973  0.8888885189770133  0.8750000000000000
  0.2777903351733814  0.3888975395438920  0.8750000000000000
  0.6111091928928334  0.3888995583800984  0.8750000000000000
  0.7777669428418542  0.8888756253882821  0.8750000000000000
  0.9444326159358195  0.3888909531128481  0.8750000000000000
  0.1115016453729045  0.3888405923943127  0.3750000000000000
  0.2777640860146631  0.8889755289187069  0.3750000000000000
  0.6111078679316611  0.8892300937999299  0.3750000000000000
  0.9447361000133904  0.8891595234479021  0.3750000000000000
  0.7779628478809939  0.3887881350197679  0.3750000000000000
  0.2777809367280291  0.5555619890793485  0.8750000000000000
  0.1111048476041984  0.0555464140702013  0.8750000000000000
  0.6111091928928334  0.5555429678460638  0.8750000000000000
  0.4444462489017055  0.0555567760272203  0.8750000000000000
  0.9444305593522091  0.5555529412296444  0.8750000000000000
  0.1112262725596575  0.5555421352088100  0.3750000000000000
  0.7777660971443457  0.0555497152388409  0.8750000000000000
  0.2779873744593561  0.0559416298860889  0.3750000000000000
  0.4454309343990613  0.5552274805647121  0.3750000000000000
  0.7768965983538193  0.5551149658435779  0.3750000000000000
  0.6111078679316611  0.0552111074650602  0.3750000000000000
  0.4444563874449738  0.5555584805723357  0.8750000000000000
  0.9444421643815148  0.0555609767436301  0.3750000000000000
  0.2777760697441754  0.7222235561277378  0.8750000000000000
  0.1111062785437971  0.2222198059385628  0.8750000000000000
  0.4444563874449738  0.2222312402059733  0.8750000000000000
  0.6111069097536896  0.7222095418759432  0.8750000000000000
  0.9444305593522091  0.7222109514558994  0.8750000000000000
  0.7777669428418542  0.2222246507869008  0.8750000000000000
  0.1111087082591384  0.7222210207962336  0.3750000000000000
  0.4443649777491803  0.7217957243179567  0.3750000000000000
  0.2776176071924230  0.2230375620064085  0.3750000000000000
  0.7779628478809939  0.7225080461945553  0.3750000000000000
  0.6113391333238112  0.2210174164348964  0.3750000000000000
  0.9444421643815148  0.2222145209712202  0.3750000000000000
  0.1111048476041984  0.3888917668673258  0.8750000000000000
  0.2777760697441754  0.8888858469497666  0.8750000000000000
  0.6111049382693871  0.8888828896095767  0.8750000000000000
  0.4444687072402256  0.3889010202867769  0.8750000000000000
  0.9444326159358195  0.8888749961562995  0.8750000000000000
  0.1112262725596575  0.8890174706841751  0.3750000000000000
  0.7777662593216859  0.3888942865404757  0.8750000000000000
  0.4442961317267341  0.8888147325300314  0.3750000000000000
  0.2776176071924230  0.3879133785193427  0.3750000000000000
  0.2779873744593561  0.5553790779066033  0.3750000000000000
  0.6105983637816564  0.3864462371407729  0.3750000000000000
  0.7779504583404979  0.8891754052074474  0.3750000000000000
  0.9447361000133904  0.3889099098988171  0.3750000000000000
  0.1111023671915764  0.5555569181267759  0.8750000000000000
  0.2777809367280291  0.0555522809820166  0.8750000000000000
  0.7777634415327923  0.5555483874330641  0.8750000000000000
  0.6111049382693871  0.0555553819931390  0.8750000000000000
  0.9444320057153323  0.0555452991716342  0.8750000000000000
  0.0555294964266688  0.1110890630973258  0.1249937198668351
  0.5556140442111649  0.6110715894113727  0.1249464939659638
  0.3889137265257506  0.1111473475828807  0.1250069676608247
  0.8888310061270370  0.6110821697301897  0.1250250011726165
  0.7222253450890573  0.1111229214067044  0.1250005412209210
  0.0555179907710045  0.7777521364536885  0.6249981449874147
  0.3888912782197713  0.7777731792029734  0.6250007981075987
  0.2222045519213907  0.2777689426273632  0.6250301681608159
  0.7222256199635436  0.7777509913473920  0.6249958733814948
  0.5556140442111649  0.2778757881331271  0.6250535060340364
  0.8888745365277831  0.2777860555769823  0.6250007483415451
  0.2222037831513735  0.7777685582423545  0.1249982289077945
  0.0555294964266688  0.2777737666626787  0.1249937198668351
  0.3889574353533721  0.2778680605442529  0.1247444229920319
  0.5555728039469409  0.7777625103719054  0.1250020857265738
  0.8888542322015803  0.7777444997693211  0.1250096377921761
  0.7222256199635436  0.2778079619494876  0.1250041266185053
  0.0555294689581043  0.9444158342343082  0.6250006854353100
  0.3888912782197713  0.9444514323501334  0.6250007981075987
  0.2222114819661570  0.4444458860173205  0.6249990038289956
  0.5555700416777972  0.4444516875055629  0.6248142577511930
  0.7222253450890573  0.9444357570156887  0.6249994587790786
  0.8888542322015803  0.4444430657655953  0.6249903622078242
  0.0555294689581043  0.4444469680571246  0.1249993145646902
  0.2222077397145033  0.9444324339222917  0.1249982635408347
  0.5555626608695069  0.9444479971014176  0.1249965031760765
  0.3889574353533721  0.4444227081424553  0.1247444229920319
  0.8888745365277831  0.9444218142841362  0.1249992516584552
  0.7221737179135868  0.4444418896612046  0.1249896708662943
  0.2222077397145033  0.6111086391255472  0.6250017364591650
  0.0555294964266688  0.1110890630973258  0.6250062801331648
  0.5556140442111649  0.6110715894113727  0.6250535060340364
  0.3889137265257506  0.1111473475828807  0.6249930323391754
  0.8888310061270370  0.6110821697301897  0.6249749988273836
  0.0555179907710045  0.6110991876506516  0.1250018550125852
  0.7222253450890573  0.1111229214067044  0.6249994587790786
  0.2222114819661570  0.1110989292821724  0.1250009961710046
  0.3889137265257506  0.6110997122762131  0.1250069676608247
  0.7221737179135868  0.6110651615857172  0.1249896708662943
  0.5555728039469409  0.1111436269083713  0.1250020857265738
  0.3889137265257506  0.6110997122762131  0.6249930323391754
  0.8888761768955671  0.1111047551144550  0.1249987458542651
  0.2222037831513735  0.7777685582423545  0.6250017710922050
  0.0555294964266688  0.2777737666626787  0.6250062801331648
  0.3889574353533721  0.2778680605442529  0.6252555770079677
  0.5555728039469409  0.7777625103719054  0.6249979142734264
  0.8888542322015803  0.7777444997693211  0.6249903622078242
  0.7222256199635436  0.2778079619494876  0.6249958733814948
  0.0555179907710045  0.7777521364536885  0.1250018550125852
  0.3888912782197713  0.7777731792029734  0.1249992018924012
  0.2222045519213907  0.2777689426273632  0.1249698318391842
  0.7222256199635436  0.7777509913473920  0.1250041266185053
  0.5556140442111649  0.2778757881331271  0.1249464939659638
  0.8888745365277831  0.2777860555769823  0.1249992516584552
  0.0555294689581043  0.4444469680571246  0.6250006854353100
  0.2222077397145033  0.9444324339222917  0.6250017364591650
  0.5555626608695069  0.9444479971014176  0.6250034968239238
  0.3889574353533721  0.4444227081424553  0.6252555770079677
  0.8888745365277831  0.9444218142841362  0.6250007483415451
  0.0555294689581043  0.9444158342343082  0.1249993145646902
  0.7221737179135868  0.4444418896612046  0.6250103291337066
  0.3888912782197713  0.9444514323501334  0.1249992018924012
  0.2222114819661570  0.4444458860173205  0.1250009961710046
  0.2222077397145033  0.6111086391255472  0.1249982635408347
  0.5555700416777972  0.4444516875055629  0.1251857422488068
  0.7222253450890573  0.9444357570156887  0.1250005412209210
  0.8888542322015803  0.4444430657655953  0.1250096377921761
  0.0555179907710045  0.6110991876506516  0.6249981449874147
  0.2222114819661570  0.1110989292821724  0.6249990038289956
  0.7221737179135868  0.6110651615857172  0.6250103291337066
  0.5555728039469409  0.1111436269083713  0.6249979142734264
  0.8888761768955671  0.1111047551144550  0.6250012541457349
 
  0.00000000E+00  0.00000000E+00  0.00000000E+00
  0.00000000E+00  0.00000000E+00  0.00000000E+00
  0.00000000E+00  0.00000000E+00  0.00000000E+00
  0.00000000E+00  0.00000000E+00  0.00000000E+00
  0.00000000E+00  0.00000000E+00  0.00000000E+00
  0.00000000E+00  0.00000000E+00  0.00000000E+00
  0.00000000E+00  0.00000000E+00  0.00000000E+00
  0.00000000E+00  0.00000000E+00  0.00000000E+00
  0.00000000E+00  0.00000000E+00  0.00000000E+00
  0.00000000E+00  0.00000000E+00  0.00000000E+00
  0.00000000E+00  0.00000000E+00  0.00000000E+00
  0.00000000E+00  0.00000000E+00  0.00000000E+00
  0.00000000E+00  0.00000000E+00  0.00000000E+00
  0.00000000E+00  0.00000000E+00  0.00000000E+00
  0.00000000E+00  0.00000000E+00  0.00000000E+00
  0.00000000E+00  0.00000000E+00  0.00000000E+00
  0.00000000E+00  0.00000000E+00  0.00000000E+00
  0.00000000E+00  0.00000000E+00  0.00000000E+00
  0.00000000E+00  0.00000000E+00  0.00000000E+00
  0.00000000E+00  0.00000000E+00  0.00000000E+00
  0.00000000E+00  0.00000000E+00  0.00000000E+00
  0.00000000E+00  0.00000000E+00  0.00000000E+00
  0.00000000E+00  0.00000000E+00  0.00000000E+00
  0.00000000E+00  0.00000000E+00  0.00000000E+00
  0.00000000E+00  0.00000000E+00  0.00000000E+00
  0.00000000E+00  0.00000000E+00  0.00000000E+00
  0.00000000E+00  0.00000000E+00  0.00000000E+00
  0.00000000E+00  0.00000000E+00  0.00000000E+00
  0.00000000E+00  0.00000000E+00  0.00000000E+00
  0.00000000E+00  0.00000000E+00  0.00000000E+00
  0.00000000E+00  0.00000000E+00  0.00000000E+00
  0.00000000E+00  0.00000000E+00  0.00000000E+00
  0.00000000E+00  0.00000000E+00  0.00000000E+00
  0.00000000E+00  0.00000000E+00  0.00000000E+00
  0.00000000E+00  0.00000000E+00  0.00000000E+00
  0.00000000E+00  0.00000000E+00  0.00000000E+00
  0.00000000E+00  0.00000000E+00  0.00000000E+00
  0.00000000E+00  0.00000000E+00  0.00000000E+00
  0.00000000E+00  0.00000000E+00  0.00000000E+00
  0.00000000E+00  0.00000000E+00  0.00000000E+00
  0.00000000E+00  0.00000000E+00  0.00000000E+00
  0.00000000E+00  0.00000000E+00  0.00000000E+00
  0.00000000E+00  0.00000000E+00  0.00000000E+00
  0.00000000E+00  0.00000000E+00  0.00000000E+00
  0.00000000E+00  0.00000000E+00  0.00000000E+00
  0.00000000E+00  0.00000000E+00  0.00000000E+00
  0.00000000E+00  0.00000000E+00  0.00000000E+00
  0.00000000E+00  0.00000000E+00  0.00000000E+00
  0.00000000E+00  0.00000000E+00  0.00000000E+00
  0.00000000E+00  0.00000000E+00  0.00000000E+00
  0.00000000E+00  0.00000000E+00  0.00000000E+00
  0.00000000E+00  0.00000000E+00  0.00000000E+00
  0.00000000E+00  0.00000000E+00  0.00000000E+00
  0.00000000E+00  0.00000000E+00  0.00000000E+00
  0.00000000E+00  0.00000000E+00  0.00000000E+00
  0.00000000E+00  0.00000000E+00  0.00000000E+00
  0.00000000E+00  0.00000000E+00  0.00000000E+00
  0.00000000E+00  0.00000000E+00  0.00000000E+00
  0.00000000E+00  0.00000000E+00  0.00000000E+00
  0.00000000E+00  0.00000000E+00  0.00000000E+00
  0.00000000E+00  0.00000000E+00  0.00000000E+00
  0.00000000E+00  0.00000000E+00  0.00000000E+00
  0.00000000E+00  0.00000000E+00  0.00000000E+00
  0.00000000E+00  0.00000000E+00  0.00000000E+00
  0.00000000E+00  0.00000000E+00  0.00000000E+00
  0.00000000E+00  0.00000000E+00  0.00000000E+00
  0.00000000E+00  0.00000000E+00  0.00000000E+00
  0.00000000E+00  0.00000000E+00  0.00000000E+00
  0.00000000E+00  0.00000000E+00  0.00000000E+00
  0.00000000E+00  0.00000000E+00  0.00000000E+00
  0.00000000E+00  0.00000000E+00  0.00000000E+00
  0.00000000E+00  0.00000000E+00  0.00000000E+00
  0.00000000E+00  0.00000000E+00  0.00000000E+00
  0.00000000E+00  0.00000000E+00  0.00000000E+00
  0.00000000E+00  0.00000000E+00  0.00000000E+00
  0.00000000E+00  0.00000000E+00  0.00000000E+00
  0.00000000E+00  0.00000000E+00  0.00000000E+00
  0.00000000E+00  0.00000000E+00  0.00000000E+00
  0.00000000E+00  0.00000000E+00  0.00000000E+00
  0.00000000E+00  0.00000000E+00  0.00000000E+00
  0.00000000E+00  0.00000000E+00  0.00000000E+00
  0.00000000E+00  0.00000000E+00  0.00000000E+00
  0.00000000E+00  0.00000000E+00  0.00000000E+00
  0.00000000E+00  0.00000000E+00  0.00000000E+00
  0.00000000E+00  0.00000000E+00  0.00000000E+00
  0.00000000E+00  0.00000000E+00  0.00000000E+00
  0.00000000E+00  0.00000000E+00  0.00000000E+00
  0.00000000E+00  0.00000000E+00  0.00000000E+00
  0.00000000E+00  0.00000000E+00  0.00000000E+00
  0.00000000E+00  0.00000000E+00  0.00000000E+00
  0.00000000E+00  0.00000000E+00  0.00000000E+00
  0.00000000E+00  0.00000000E+00  0.00000000E+00
  0.00000000E+00  0.00000000E+00  0.00000000E+00
  0.00000000E+00  0.00000000E+00  0.00000000E+00
  0.00000000E+00  0.00000000E+00  0.00000000E+00
  0.00000000E+00  0.00000000E+00  0.00000000E+00
  0.00000000E+00  0.00000000E+00  0.00000000E+00
  0.00000000E+00  0.00000000E+00  0.00000000E+00
  0.00000000E+00  0.00000000E+00  0.00000000E+00
  0.00000000E+00  0.00000000E+00  0.00000000E+00
  0.00000000E+00  0.00000000E+00  0.00000000E+00
  0.00000000E+00  0.00000000E+00  0.00000000E+00
  0.00000000E+00  0.00000000E+00  0.00000000E+00
  0.00000000E+00  0.00000000E+00  0.00000000E+00
  0.00000000E+00  0.00000000E+00  0.00000000E+00
  0.00000000E+00  0.00000000E+00  0.00000000E+00
  0.00000000E+00  0.00000000E+00  0.00000000E+00
  0.00000000E+00  0.00000000E+00  0.00000000E+00
  0.00000000E+00  0.00000000E+00  0.00000000E+00
  0.00000000E+00  0.00000000E+00  0.00000000E+00
  0.00000000E+00  0.00000000E+00  0.00000000E+00
  0.00000000E+00  0.00000000E+00  0.00000000E+00
  0.00000000E+00  0.00000000E+00  0.00000000E+00
  0.00000000E+00  0.00000000E+00  0.00000000E+00
  0.00000000E+00  0.00000000E+00  0.00000000E+00
  0.00000000E+00  0.00000000E+00  0.00000000E+00
  0.00000000E+00  0.00000000E+00  0.00000000E+00
  0.00000000E+00  0.00000000E+00  0.00000000E+00
  0.00000000E+00  0.00000000E+00  0.00000000E+00
  0.00000000E+00  0.00000000E+00  0.00000000E+00
  0.00000000E+00  0.00000000E+00  0.00000000E+00
  0.00000000E+00  0.00000000E+00  0.00000000E+00
  0.00000000E+00  0.00000000E+00  0.00000000E+00
  0.00000000E+00  0.00000000E+00  0.00000000E+00
  0.00000000E+00  0.00000000E+00  0.00000000E+00
  0.00000000E+00  0.00000000E+00  0.00000000E+00
  0.00000000E+00  0.00000000E+00  0.00000000E+00
  0.00000000E+00  0.00000000E+00  0.00000000E+00
  0.00000000E+00  0.00000000E+00  0.00000000E+00
  0.00000000E+00  0.00000000E+00  0.00000000E+00
  0.00000000E+00  0.00000000E+00  0.00000000E+00
  0.00000000E+00  0.00000000E+00  0.00000000E+00
  0.00000000E+00  0.00000000E+00  0.00000000E+00
  0.00000000E+00  0.00000000E+00  0.00000000E+00
  0.00000000E+00  0.00000000E+00  0.00000000E+00
  0.00000000E+00  0.00000000E+00  0.00000000E+00
  0.00000000E+00  0.00000000E+00  0.00000000E+00
  0.00000000E+00  0.00000000E+00  0.00000000E+00
  0.00000000E+00  0.00000000E+00  0.00000000E+00
  0.00000000E+00  0.00000000E+00  0.00000000E+00
  0.00000000E+00  0.00000000E+00  0.00000000E+00
  0.00000000E+00  0.00000000E+00  0.00000000E+00
  0.00000000E+00  0.00000000E+00  0.00000000E+00
  0.00000000E+00  0.00000000E+00  0.00000000E+00
  0.00000000E+00  0.00000000E+00  0.00000000E+00
  0.00000000E+00  0.00000000E+00  0.00000000E+00
  0.00000000E+00  0.00000000E+00  0.00000000E+00
  0.00000000E+00  0.00000000E+00  0.00000000E+00
  0.00000000E+00  0.00000000E+00  0.00000000E+00
  0.00000000E+00  0.00000000E+00  0.00000000E+00
  0.00000000E+00  0.00000000E+00  0.00000000E+00
  0.00000000E+00  0.00000000E+00  0.00000000E+00
  0.00000000E+00  0.00000000E+00  0.00000000E+00
  0.00000000E+00  0.00000000E+00  0.00000000E+00
  0.00000000E+00  0.00000000E+00  0.00000000E+00
  0.00000000E+00  0.00000000E+00  0.00000000E+00
  0.00000000E+00  0.00000000E+00  0.00000000E+00
  0.00000000E+00  0.00000000E+00  0.00000000E+00
  0.00000000E+00  0.00000000E+00  0.00000000E+00
  0.00000000E+00  0.00000000E+00  0.00000000E+00
  0.00000000E+00  0.00000000E+00  0.00000000E+00
  0.00000000E+00  0.00000000E+00  0.00000000E+00
  0.00000000E+00  0.00000000E+00  0.00000000E+00
  0.00000000E+00  0.00000000E+00  0.00000000E+00
  0.00000000E+00  0.00000000E+00  0.00000000E+00
  0.00000000E+00  0.00000000E+00  0.00000000E+00
  0.00000000E+00  0.00000000E+00  0.00000000E+00
  0.00000000E+00  0.00000000E+00  0.00000000E+00
  0.00000000E+00  0.00000000E+00  0.00000000E+00
  0.00000000E+00  0.00000000E+00  0.00000000E+00
  0.00000000E+00  0.00000000E+00  0.00000000E+00
  0.00000000E+00  0.00000000E+00  0.00000000E+00
  0.00000000E+00  0.00000000E+00  0.00000000E+00
  0.00000000E+00  0.00000000E+00  0.00000000E+00
  0.00000000E+00  0.00000000E+00  0.00000000E+00
  0.00000000E+00  0.00000000E+00  0.00000000E+00
  0.00000000E+00  0.00000000E+00  0.00000000E+00
  0.00000000E+00  0.00000000E+00  0.00000000E+00
  0.00000000E+00  0.00000000E+00  0.00000000E+00
  0.00000000E+00  0.00000000E+00  0.00000000E+00
  0.00000000E+00  0.00000000E+00  0.00000000E+00
  0.00000000E+00  0.00000000E+00  0.00000000E+00
  0.00000000E+00  0.00000000E+00  0.00000000E+00
  0.00000000E+00  0.00000000E+00  0.00000000E+00
  0.00000000E+00  0.00000000E+00  0.00000000E+00
  0.00000000E+00  0.00000000E+00  0.00000000E+00
  0.00000000E+00  0.00000000E+00  0.00000000E+00
  0.00000000E+00  0.00000000E+00  0.00000000E+00
  0.00000000E+00  0.00000000E+00  0.00000000E+00
  0.00000000E+00  0.00000000E+00  0.00000000E+00
  0.00000000E+00  0.00000000E+00  0.00000000E+00
  0.00000000E+00  0.00000000E+00  0.00000000E+00
  0.00000000E+00  0.00000000E+00  0.00000000E+00
  0.00000000E+00  0.00000000E+00  0.00000000E+00
  0.00000000E+00  0.00000000E+00  0.00000000E+00
  0.00000000E+00  0.00000000E+00  0.00000000E+00
  0.00000000E+00  0.00000000E+00  0.00000000E+00
  0.00000000E+00  0.00000000E+00  0.00000000E+00
  0.00000000E+00  0.00000000E+00  0.00000000E+00
  0.00000000E+00  0.00000000E+00  0.00000000E+00
  0.00000000E+00  0.00000000E+00  0.00000000E+00
  0.00000000E+00  0.00000000E+00  0.00000000E+00
  0.00000000E+00  0.00000000E+00  0.00000000E+00
  0.00000000E+00  0.00000000E+00  0.00000000E+00
  0.00000000E+00  0.00000000E+00  0.00000000E+00
  0.00000000E+00  0.00000000E+00  0.00000000E+00
  0.00000000E+00  0.00000000E+00  0.00000000E+00
  0.00000000E+00  0.00000000E+00  0.00000000E+00
  0.00000000E+00  0.00000000E+00  0.00000000E+00
  0.00000000E+00  0.00000000E+00  0.00000000E+00
  0.00000000E+00  0.00000000E+00  0.00000000E+00
  0.00000000E+00  0.00000000E+00  0.00000000E+00
  0.00000000E+00  0.00000000E+00  0.00000000E+00
  0.00000000E+00  0.00000000E+00  0.00000000E+00
  0.00000000E+00  0.00000000E+00  0.00000000E+00
  0.00000000E+00  0.00000000E+00  0.00000000E+00
  0.00000000E+00  0.00000000E+00  0.00000000E+00
  0.00000000E+00  0.00000000E+00  0.00000000E+00
  0.00000000E+00  0.00000000E+00  0.00000000E+00
  0.00000000E+00  0.00000000E+00  0.00000000E+00
  0.00000000E+00  0.00000000E+00  0.00000000E+00
  0.00000000E+00  0.00000000E+00  0.00000000E+00
  0.00000000E+00  0.00000000E+00  0.00000000E+00
  0.00000000E+00  0.00000000E+00  0.00000000E+00
  0.00000000E+00  0.00000000E+00  0.00000000E+00
  0.00000000E+00  0.00000000E+00  0.00000000E+00
  0.00000000E+00  0.00000000E+00  0.00000000E+00
  0.00000000E+00  0.00000000E+00  0.00000000E+00
  0.00000000E+00  0.00000000E+00  0.00000000E+00
  0.00000000E+00  0.00000000E+00  0.00000000E+00
  0.00000000E+00  0.00000000E+00  0.00000000E+00
  0.00000000E+00  0.00000000E+00  0.00000000E+00
  0.00000000E+00  0.00000000E+00  0.00000000E+00
  0.00000000E+00  0.00000000E+00  0.00000000E+00
  0.00000000E+00  0.00000000E+00  0.00000000E+00
  0.00000000E+00  0.00000000E+00  0.00000000E+00
  0.00000000E+00  0.00000000E+00  0.00000000E+00
  0.00000000E+00  0.00000000E+00  0.00000000E+00
  0.00000000E+00  0.00000000E+00  0.00000000E+00
  0.00000000E+00  0.00000000E+00  0.00000000E+00
  0.00000000E+00  0.00000000E+00  0.00000000E+00
  0.00000000E+00  0.00000000E+00  0.00000000E+00
  0.00000000E+00  0.00000000E+00  0.00000000E+00
  0.00000000E+00  0.00000000E+00  0.00000000E+00
  0.00000000E+00  0.00000000E+00  0.00000000E+00
  0.00000000E+00  0.00000000E+00  0.00000000E+00
  0.00000000E+00  0.00000000E+00  0.00000000E+00