 O B N 
 1.0
 14.936314146199660   0.000000000000000   0.000000000000000
 -7.468157073099825  12.935227489513863   0.000000000000000
  0.000000000000001   0.000000000000001  13.341276283792837
 O B N 
   1 143 144
Cartesian
  3.734078536549917   5.030366245922021   5.002978606422314 
  1.242403730730546   0.720988863656208   5.002978606422314 
  4.959195931274982   7.211820659602073   5.002978606422314 
  6.225753342369286   0.720988863656208   5.002978606422314 
  9.956865104864272   7.185657899001546   5.002978606422314 
 11.202235609649751   0.718623749417456   5.002978606422314 
 -3.734078536549858   9.342108742426666  11.673616748318732 
  1.244630310955350   9.342399651243433  11.673616748318732 
  2.489176006845009   2.874245987547336  11.673616748318732 
  6.223526762144489   9.342399651243433  11.673616748318732 
  7.468513626602588   2.874289141408983  11.673616748318732 
 12.446760488294679   2.874372543413466  11.673616748318732 
 -1.243852071738627   9.341811669871188   5.002978606422314 
 -0.017280626490252   2.864518023313797   5.002978606422314 
  5.010714778631925   2.878656252631981   5.002978606422314 
  3.734078536549973   9.362062691138558   5.002978606422314 
  8.712009144838465   9.341811669871188   5.002978606422314 
  9.961551526420179   2.872564421434795   5.002978606422314 
 -4.978820425526185  11.497882866227934  11.673616748318732 
  0.000069454101350  11.498020090023044  11.673616748318732 
  1.244372354330730   5.030309159149396  11.673616748318732 
  6.223784718769211   5.030309159149396  11.673616748318732 
  4.978749317005708  11.498186681384956  11.673616748318732 
 11.202235609649748   5.030286047233815  11.673616748318732 
 -1.243789153896023   5.027201257245682   5.002978606422314 
 -2.489222576524057  11.498856658407270   5.002978606422314 
  2.489053237953238  11.502416968774734   5.002978606422314 
  7.467510946122580  11.498353032263202   5.002978606422314 
  8.711946226995947   5.027201257245682   5.002978606422314 
 -0.000219422879474   7.186364178032925  11.673616748318732 
  1.244472178371815   0.718424138490403  11.673616748318732 
  4.978882189064259   7.186543591069411  11.673616748318732 
  6.223684894728018   0.718424138490403  11.673616748318732 
  9.957651398104826   7.186243583517907  11.673616748318732 
 -2.488708031764420   7.185657899001546   5.002978606422314 
 11.202235609649751   0.718623749417457  11.673616748318732 
  3.734078536549909   0.719636223714880   5.002978606422314 
  2.508961141824872   7.211820659602073   5.002978606422314 
  7.467280244637593   7.185731257025676   5.002978606422314 
  8.716526227823428   0.716117347556625   5.002978606422314 
  2.489274884035579   7.186543591069411  11.673616748318732 
 13.687944991476060   0.716117347556625   5.002978606422314 
 -1.244752436028667   9.342199777534166  11.673616748318732 
 -0.000356553502636   2.874289141408983  11.673616748318732 
  4.978981066254810   2.874245987547336  11.673616748318732 
  3.734078536549985   9.342520454948191  11.673616748318732 
  8.712909509128508   9.342199777534166  11.673616748318732 
  9.957710731004813   2.874372543413466  11.673616748318732 
 -3.734078536549858   9.342108742426664   5.002978606422314 
  1.247885651923304   9.342908616864252   5.002978606422314 
  2.457442294467906   2.878656252631981   5.002978606422314 
  6.220271421176534   9.342908616864252   5.002978606422314 
  7.485437699590190   2.864518023313797   5.002978606422314 
 12.442919692879327   2.872564421434795   5.002978606422314 
 -1.244976047222701   5.030274948032322  11.673616748318732 
 -2.489336647573530  11.497882866227934  11.673616748318732 
  2.489407756094251  11.498186681384956  11.673616748318732 
  3.734078536549918   5.030366245922021  11.673616748318732 
  7.468087618998507  11.498020090023044  11.673616748318732 
 -4.978934496575658  11.498856658407270   5.002978606422314 
  8.713133120322640   5.030274948032322  11.673616748318732 
  0.000646126977260  11.498353032263202   5.002978606422314 
  1.232324899742912   5.000621825532101   5.002978606422314 
  0.000876828462244   7.185731257025676   5.002978606422314 
  6.235832173357057   5.000621825532101   5.002978606422314 
  4.979103835146722  11.502416968774734   5.002978606422314 
 11.202235609649755   5.029620162753512   5.002978606422314 
 -2.489494325005003   7.186243583517907  11.673616748318732 
  3.734078536549924   0.718370381700381  11.673616748318732 
  7.468376495979313   7.186364178032925  11.673616748318732 
  8.713039950549085   0.718539512967721  11.673616748318732 
 13.691431268750407   0.718539512967721  11.673616748318732 
 -0.000548993673333   1.436448168064599   1.668227878185899 
  3.734078536549911   7.906324607565818   1.667371870621176 
  4.979059353043796   1.435606338372079   1.668134799300772 
  8.713887404095054   7.905460236112212   1.668495492765992 
  9.957767372493198   1.437117821137736   1.668679085165056 
 -4.978435148533936  10.060538367323566   8.337179806327468 
 -0.000762704267011  10.061050215087697   8.337374336550454 
  1.243425535140172   3.592387065100207   8.338585342223466 
  4.979189125982987  10.061607599696899   8.337729334658729 
  6.224731537959648   3.592387065100207   8.338585342223466 
 11.202235609649687   3.593302572561517   8.337267910114468 
 -2.489721924565870  10.060538367323566   1.668777406517160 
 -1.245659583106408   3.593042970004732   1.668227878185899 
  3.734078536549857   3.592184549467856   1.668420436037308 
  2.488967947116834  10.061607599696899   1.668227878185899 
  7.468919777366761  10.061050215087697   1.668582876294174 
  8.713816656206225   3.593042970004732   1.668227878185899 
 -6.223358031849965  12.215784357203846   8.337374336550454 
 -1.244799041249839  12.215784357203846   8.337374336550454 
 -0.001565272141166   5.749561185388980   8.337822413543856 
  4.979580420937098   5.749457094149142   8.337536776807321 
  3.734078536549929  12.216863095490758   8.337278127679571 
  9.958199272666874   5.749491654988460   8.337374336550454 
 -2.490042199567025   5.749491654988459   1.668582876294174 
 -3.734078536549917  12.215405755055643   1.668495492765992 
  1.244533647986058  12.216511827359243   1.668689302730147 
  2.488576652162736   5.749457094149141   1.668420436037308 
  6.223623425113782  12.216511827359243   1.668689302730147 
  7.469722345240985   5.749561185388979   1.668134799300772 
 -1.245730330995323   7.905460236112213   8.337461720078634 
 -0.000548993673333   1.436448168064600   8.337729334658729 
  3.734078536549911   7.906324607565819   8.338585342223466 
  4.979059353043797   1.435606338372079   8.337822413543856 
  8.713887404095054   7.905460236112213   8.337461720078634 
 -3.734078536549904   7.905249492632935   1.668777406517160 
  9.957767372493198   1.437117821137737   8.337278127679571 
  2.489097720055915   1.435606338372079   1.668134799300772 
  1.243415544352716   7.905931214005186   1.668134799300772 
  6.224741528746986   7.905931214005186   1.668134799300772 
  7.468706066773148   1.436448168064599   1.668227878185899 
  1.243415544352716   7.905931214005187   8.337822413543856 
 12.446703846806201   1.437117821137736   1.668679085165056 
 -2.489721924565869  10.060538367323566   8.337179806327468 
 -1.245659583106408   3.593042970004733   8.337729334658729 
  3.734078536549857   3.592184549467857   8.337536776807321 
  2.488967947116835  10.061607599696899   8.337729334658729 
  7.468919777366762  10.061050215087697   8.337374336550454 
  8.713816656206225   3.593042970004733   8.337729334658729 
 -4.978435148533937  10.060538367323566   1.668777406517160 
 -0.000762704267012  10.061050215087697   1.668582876294174 
  1.243425535140172   3.592387065100206   1.667371870621176 
  4.979189125982987  10.061607599696899   1.668227878185899 
  6.224731537959647   3.592387065100206   1.667371870621176 
 11.202235609649687   3.593302572561516   1.668689302730147 
 -2.490042199567024   5.749491654988460   8.337374336550454 
 -3.734078536549917  12.215405755055643   8.337461720078634 
  1.244533647986059  12.216511827359243   8.337267910114468 
  2.488576652162736   5.749457094149142   8.337536776807321 
  6.223623425113783  12.216511827359243   8.337267910114468 
 -6.223358031849965  12.215784357203846   1.668582876294174 
  7.469722345240986   5.749561185388980   8.337822413543856 
 -1.244799041249840  12.215784357203846   1.668582876294174 
 -0.001565272141166   5.749561185388979   1.668134799300772 
 -1.245730330995323   7.905460236112212   1.668495492765992 
  4.979580420937097   5.749457094149141   1.668420436037308 
  3.734078536549928  12.216863095490758   1.668679085165056 
  9.958199272666874   5.749491654988459   1.668582876294174 
 -3.734078536549903   7.905249492632936   8.337179806327468 
  2.489097720055915   1.435606338372079   8.337822413543856 
  6.224741528746986   7.905931214005187   8.337822413543856 
  7.468706066773149   1.436448168064600   8.337729334658729 
 12.446703846806201   1.437117821137737   8.337278127679571 
  1.244783871479779   0.718552561128193   1.667824534032430 
  4.978658224486706   7.186231140863867   1.671465180450767 
  6.223373201620037   0.718552561128193   1.667824534032430 
  9.957600242616474   7.186332833413098   1.667079208932404 
 11.202235609649751   0.718623749417456   1.666834012431408 
 -3.734078536549858   9.342108742426664   8.339127323656355 
  1.244585681668107   9.342065505774839   8.338132678812197 
  2.489334614371650   2.874596171663816   8.334492032393859 
  6.223571391431717   9.342065505774839   8.338132678812197 
  7.468232801905009   2.874451275623717   8.338034882320418 
 12.446895008375257   2.874588972578104   8.338869795597654 
 -1.244804150961013   9.342110850634112   1.667079208932404 
 -0.000075728805057   2.874451275623716   1.667922330524223 
  4.978822458728183   2.874596171663815   1.671465180450767 
  3.734078536549985   9.342196186518695   1.667922330524223 
  8.712961224060852   9.342110850634112   1.667079208932404 
  9.957576210924250   2.874588972578103   1.667087417246974 
 -4.978717555105479  11.497882543232805   8.338878003912210 
 -0.000145711380607  11.497895864174122   8.338859968251647 
  1.244754926434924   5.030271425238459   8.334492032393859 
  6.223402146665017   5.030271425238459   8.334492032393859 
  4.978869490120124  11.497961968995547   8.338869795597654 
 11.202235609649755   5.030534498931667   8.338859968251647 
 -1.244708983401971   5.030480670863108   1.667824534032430 
 -2.489439517994235  11.497882543232805   1.667079208932404 
  2.489287582979834  11.497961968995547   1.667087417246974 
  3.734078536549917   5.030366245922020   1.677063712055840 
  7.468302784480461  11.497895864174122   1.667097244592981 
  8.712866056501895   5.030480670863108   1.667824534032430 
 -0.000054994117934   7.186269245043170   8.337746505025123 
  1.244783871479780   0.718552561128193   8.338132678812197 
  4.978658224486707   7.186231140863867   8.334492032393859 
  6.223373201620038   0.718552561128193   8.338132678812197 
  9.957600242616474   7.186332833413099   8.338878003912210 
 -2.489443169516636   7.186332833413098   1.667079208932404 
 11.202235609649751   0.718623749417456   8.339123200413233 
  3.734078536549900   0.718560247679880   1.668210707819503 
  2.489498848613146   7.186231140863867   1.671465180450767 
  7.468212067217784   7.186269245043169   1.668210707819503 
  8.712785257354104   0.718547796192490   1.667087417246974 
  2.489498848613147   7.186231140863867   8.334492032393859 
 13.691685961945401   0.718547796192490   1.667087417246974 
 -1.244804150961012   9.342110850634112   8.338878003912210 
 -0.000075728805056   2.874451275623717   8.338034882320418 
  4.978822458728184   2.874596171663816   8.334492032393859 
  3.734078536549986   9.342196186518695   8.338034882320418 
  8.712961224060852   9.342110850634112   8.338878003912210 
  9.957576210924250   2.874588972578104   8.338869795597654 
 -3.734078536549859   9.342108742426664   1.666829889188273 
  1.244585681668107   9.342065505774839   1.667824534032430 
  2.489334614371650   2.874596171663815   1.671465180450767 
  6.223571391431716   9.342065505774839   1.667824534032430 
  7.468232801905008   2.874451275623716   1.667922330524223 
 12.446895008375257   2.874588972578103   1.667087417246974 
 -1.244708983401971   5.030480670863109   8.338132678812197 
 -2.489439517994235  11.497882543232805   8.338878003912210 
  2.489287582979835  11.497961968995547   8.338869795597654 
  3.734078536549917   5.030366245922021   8.328893500788787 
  7.468302784480462  11.497895864174122   8.338859968251647 
 -4.978717555105480  11.497882543232805   1.667079208932404 
  8.712866056501895   5.030480670863109   8.338132678812197 
 -0.000145711380607  11.497895864174122   1.667097244592981 
  1.244754926434924   5.030271425238458   1.671465180450767 
 -0.000054994117934   7.186269245043169   1.668210707819503 
  6.223402146665016   5.030271425238458   1.671465180450767 
  4.978869490120124  11.497961968995547   1.667087417246974 
 11.202235609649755   5.030534498931666   1.667097244592981 
 -2.489443169516635   7.186332833413099   8.338878003912210 
  3.734078536549900   0.718560247679881   8.337746505025123 
  7.468212067217785   7.186269245043170   8.337746505025123 
  8.712785257354104   0.718547796192491   8.338869795597654 
 13.691685961945401   0.718547796192491   8.338869795597654 
 -0.001225714909833   1.436137430697848   5.002978606422314 
  3.734078536549918   7.916235411592057   5.002978606422314 
  4.972176037592563   1.452464439525239   5.002978606422314 
  8.707614660522617   7.901838665922135   5.002978606422314 
  9.957749283679821   1.437128264719010   5.002978606422314 
 -4.978790926252357  10.060743775685070  11.673616748318732 
  0.000027279875197  10.060767665562368  11.673616748318732 
  1.244668653718411   3.593104779945989  11.673616748318732 
  4.978767636804712  10.060782631670362  11.673616748318732 
  6.223488419381423   3.593104779945989  11.673616748318732 
 11.202235609649694   3.593107989218460  11.673616748318732 
 -2.488236465583958  10.061395997466651   5.002978606422314 
 -1.246267050178169   3.592612280906018   5.002978606422314 
  3.734078536549865   3.571761762527693   5.002978606422314 
  2.489037201281590  10.062349026162364   5.002978606422314 
  7.464774867696067  10.057179099392483   5.002978606422314 
  8.714424123277990   3.592612280906018   5.002978606422314 
 -6.223508328854312  12.216609778302267  11.673616748318732 
 -1.244648744245507  12.216609778302267  11.673616748318732 
  0.000006729384843   5.748950075643642  11.673616748318732 
  4.978746633827579   5.748975706937014  11.673616748318732 
  3.734078536549929  12.216620792585545  11.673616748318732 
  9.957559585528976   5.748948783415386  11.673616748318732 
 -2.484617260198640   5.747837615764842   5.002978606422314 
 -3.734078536549910  12.222648895435839   5.002978606422314 
  1.244264072340530  12.216356187787731   5.002978606422314 
  2.470889999856482   5.759668487619231   5.002978606422314 
  6.223893000759325  12.216356187787731   5.002978606422314 
  7.451681143657170   5.747093260855443   5.002978606422314 
 -1.244680125620085   7.904853899756123  11.673616748318732 
 -0.000045294994177   1.437225672413677  11.673616748318732 
  3.734078536549919   7.904889177874270  11.673616748318732 
  4.978802588844771   1.437273286501060  11.673616748318732 
  8.712837198719832   7.904853899756123  11.673616748318732 
 -3.734078536549912   7.903534232346780   5.002978606422314 
  9.957557532021871   1.437238972590345  11.673616748318732 
  2.495981035507164   1.452464439525239   5.002978606422314 
  1.254573430485310   7.891541037385564   5.002978606422314 
  6.213583642614419   7.891541037385564   5.002978606422314 
  7.469382788009665   1.436137430697848   5.002978606422314 
  1.244730781679705   7.904875375621532  11.673616748318732 
 12.446721935619568   1.437128264719010   5.002978606422314 
 -2.489366146847464  10.060743775685070  11.673616748318732 
 -1.244734395248977   3.593090433682196  11.673616748318732 
  3.734078536549865   3.593147323892101  11.673616748318732 
  2.489389436295127  10.060782631670362  11.673616748318732 
  7.468129793224524  10.060767665562368  11.673616748318732 
  8.712891468348793   3.593090433682196  11.673616748318732 
 -4.979920607515863  10.061395997466651   5.002978606422314 
  0.003382205403695  10.057179099392483   5.002978606422314 
  1.234842527081532   3.587431663087094   5.002978606422314 
  4.979119871818249  10.062349026162364   5.002978606422314 
  6.233314546018301   3.587431663087094   5.002978606422314 
 11.202235609649703   3.593613851704541   5.002978606422314 
 -2.489402512429155   5.748948783415386  11.673616748318732 
 -3.734078536549909  12.216618427767836  11.673616748318732 
  1.244702162104283  12.216609119030780  11.673616748318732 
  2.489410439272258   5.748975706937014  11.673616748318732 
  6.223454910995545  12.216609119030780  11.673616748318732 
 -6.222078002152283  12.221309512122666   5.002978606422314 
  7.468150343714993   5.748950075643642  11.673616748318732 
 -1.246079070947523  12.221309512122666   5.002978606422314 
  0.016475929442663   5.747093260855443   5.002978606422314 
 -1.239457587422901   7.901838665922135   5.002978606422314 
  4.997267073243339   5.759668487619231   5.002978606422314 
  3.734078536549928  12.216842208328211   5.002978606422314 
  9.952774333298491   5.747837615764842   5.002978606422314 
 -3.734078536549919   7.904838675909960  11.673616748318732 
  2.489354484254958   1.437273286501060  11.673616748318732 
  6.223426291420043   7.904875375621532  11.673616748318732 
  7.468202368094010   1.437225672413677  11.673616748318732 
 12.446913687277517   1.437238972590345  11.673616748318732 
Generated by cif2cell 2.0.0.  :  Failed to get author information, No journal information. Species order: O B N 
 1.0
 14.936314146199660   0.000000000000000   0.000000000000000
 -7.468157073099825  12.935227489513863   0.000000000000000
  0.000000000000001   0.000000000000001  13.341276283792837
 O B N 
   1 143 144
Cartesian
  3.734078536549917   5.030366245922021   5.002978606422314 
  1.242403730730546   0.720988863656208   5.002978606422314 
  4.959195931274982   7.211820659602073   5.002978606422314 
  6.225753342369286   0.720988863656208   5.002978606422314 
  9.956865104864272   7.185657899001546   5.002978606422314 
 11.202235609649751   0.718623749417456   5.002978606422314 
 -3.734078536549858   9.342108742426666  11.673616748318732 
  1.244630310955350   9.342399651243433  11.673616748318732 
  2.489176006845009   2.874245987547336  11.673616748318732 
  6.223526762144489   9.342399651243433  11.673616748318732 
  7.468513626602588   2.874289141408983  11.673616748318732 
 12.446760488294679   2.874372543413466  11.673616748318732 
 -1.243852071738627   9.341811669871188   5.002978606422314 
 -0.017280626490252   2.864518023313797   5.002978606422314 
  5.010714778631925   2.878656252631981   5.002978606422314 
  3.734078536549973   9.362062691138558   5.002978606422314 
  8.712009144838465   9.341811669871188   5.002978606422314 
  9.961551526420179   2.872564421434795   5.002978606422314 
 -4.978820425526185  11.497882866227934  11.673616748318732 
  0.000069454101350  11.498020090023044  11.673616748318732 
  1.244372354330730   5.030309159149396  11.673616748318732 
  6.223784718769211   5.030309159149396  11.673616748318732 
  4.978749317005708  11.498186681384956  11.673616748318732 
 11.202235609649748   5.030286047233815  11.673616748318732 
 -1.243789153896023   5.027201257245682   5.002978606422314 
 -2.489222576524057  11.498856658407270   5.002978606422314 
  2.489053237953238  11.502416968774734   5.002978606422314 
  7.467510946122580  11.498353032263202   5.002978606422314 
  8.711946226995947   5.027201257245682   5.002978606422314 
 -0.000219422879474   7.186364178032925  11.673616748318732 
  1.244472178371815   0.718424138490403  11.673616748318732 
  4.978882189064259   7.186543591069411  11.673616748318732 
  6.223684894728018   0.718424138490403  11.673616748318732 
  9.957651398104826   7.186243583517907  11.673616748318732 
 -2.488708031764420   7.185657899001546   5.002978606422314 
 11.202235609649751   0.718623749417457  11.673616748318732 
  3.734078536549909   0.719636223714880   5.002978606422314 
  2.508961141824872   7.211820659602073   5.002978606422314 
  7.467280244637593   7.185731257025676   5.002978606422314 
  8.716526227823428   0.716117347556625   5.002978606422314 
  2.489274884035579   7.186543591069411  11.673616748318732 
 13.687944991476060   0.716117347556625   5.002978606422314 
 -1.244752436028667   9.342199777534166  11.673616748318732 
 -0.000356553502636   2.874289141408983  11.673616748318732 
  4.978981066254810   2.874245987547336  11.673616748318732 
  3.734078536549985   9.342520454948191  11.673616748318732 
  8.712909509128508   9.342199777534166  11.673616748318732 
  9.957710731004813   2.874372543413466  11.673616748318732 
 -3.734078536549858   9.342108742426664   5.002978606422314 
  1.247885651923304   9.342908616864252   5.002978606422314 
  2.457442294467906   2.878656252631981   5.002978606422314 
  6.220271421176534   9.342908616864252   5.002978606422314 
  7.485437699590190   2.864518023313797   5.002978606422314 
 12.442919692879327   2.872564421434795   5.002978606422314 
 -1.244976047222701   5.030274948032322  11.673616748318732 
 -2.489336647573530  11.497882866227934  11.673616748318732 
  2.489407756094251  11.498186681384956  11.673616748318732 
  3.734078536549918   5.030366245922021  11.673616748318732 
  7.468087618998507  11.498020090023044  11.673616748318732 
 -4.978934496575658  11.498856658407270   5.002978606422314 
  8.713133120322640   5.030274948032322  11.673616748318732 
  0.000646126977260  11.498353032263202   5.002978606422314 
  1.232324899742912   5.000621825532101   5.002978606422314 
  0.000876828462244   7.185731257025676   5.002978606422314 
  6.235832173357057   5.000621825532101   5.002978606422314 
  4.979103835146722  11.502416968774734   5.002978606422314 
 11.202235609649755   5.029620162753512   5.002978606422314 
 -2.489494325005003   7.186243583517907  11.673616748318732 
  3.734078536549924   0.718370381700381  11.673616748318732 
  7.468376495979313   7.186364178032925  11.673616748318732 
  8.713039950549085   0.718539512967721  11.673616748318732 
 13.691431268750407   0.718539512967721  11.673616748318732 
 -0.000548993673333   1.436448168064599   1.668227878185899 
  3.734078536549911   7.906324607565818   1.667371870621176 
  4.979059353043796   1.435606338372079   1.668134799300772 
  8.713887404095054   7.905460236112212   1.668495492765992 
  9.957767372493198   1.437117821137736   1.668679085165056 
 -4.978435148533936  10.060538367323566   8.337179806327468 
 -0.000762704267011  10.061050215087697   8.337374336550454 
  1.243425535140172   3.592387065100207   8.338585342223466 
  4.979189125982987  10.061607599696899   8.337729334658729 
  6.224731537959648   3.592387065100207   8.338585342223466 
 11.202235609649687   3.593302572561517   8.337267910114468 
 -2.489721924565870  10.060538367323566   1.668777406517160 
 -1.245659583106408   3.593042970004732   1.668227878185899 
  3.734078536549857   3.592184549467856   1.668420436037308 
  2.488967947116834  10.061607599696899   1.668227878185899 
  7.468919777366761  10.061050215087697   1.668582876294174 
  8.713816656206225   3.593042970004732   1.668227878185899 
 -6.223358031849965  12.215784357203846   8.337374336550454 
 -1.244799041249839  12.215784357203846   8.337374336550454 
 -0.001565272141166   5.749561185388980   8.337822413543856 
  4.979580420937098   5.749457094149142   8.337536776807321 
  3.734078536549929  12.216863095490758   8.337278127679571 
  9.958199272666874   5.749491654988460   8.337374336550454 
 -2.490042199567025   5.749491654988459   1.668582876294174 
 -3.734078536549917  12.215405755055643   1.668495492765992 
  1.244533647986058  12.216511827359243   1.668689302730147 
  2.488576652162736   5.749457094149141   1.668420436037308 
  6.223623425113782  12.216511827359243   1.668689302730147 
  7.469722345240985   5.749561185388979   1.668134799300772 
 -1.245730330995323   7.905460236112213   8.337461720078634 
 -0.000548993673333   1.436448168064600   8.337729334658729 
  3.734078536549911   7.906324607565819   8.338585342223466 
  4.979059353043797   1.435606338372079   8.337822413543856 
  8.713887404095054   7.905460236112213   8.337461720078634 
 -3.734078536549904   7.905249492632935   1.668777406517160 
  9.957767372493198   1.437117821137737   8.337278127679571 
  2.489097720055915   1.435606338372079   1.668134799300772 
  1.243415544352716   7.905931214005186   1.668134799300772 
  6.224741528746986   7.905931214005186   1.668134799300772 
  7.468706066773148   1.436448168064599   1.668227878185899 
  1.243415544352716   7.905931214005187   8.337822413543856 
 12.446703846806201   1.437117821137736   1.668679085165056 
 -2.489721924565869  10.060538367323566   8.337179806327468 
 -1.245659583106408   3.593042970004733   8.337729334658729 
  3.734078536549857   3.592184549467857   8.337536776807321 
  2.488967947116835  10.061607599696899   8.337729334658729 
  7.468919777366762  10.061050215087697   8.337374336550454 
  8.713816656206225   3.593042970004733   8.337729334658729 
 -4.978435148533937  10.060538367323566   1.668777406517160 
 -0.000762704267012  10.061050215087697   1.668582876294174 
  1.243425535140172   3.592387065100206   1.667371870621176 
  4.979189125982987  10.061607599696899   1.668227878185899 
  6.224731537959647   3.592387065100206   1.667371870621176 
 11.202235609649687   3.593302572561516   1.668689302730147 
 -2.490042199567024   5.749491654988460   8.337374336550454 
 -3.734078536549917  12.215405755055643   8.337461720078634 
  1.244533647986059  12.216511827359243   8.337267910114468 
  2.488576652162736   5.749457094149142   8.337536776807321 
  6.223623425113783  12.216511827359243   8.337267910114468 
 -6.223358031849965  12.215784357203846   1.668582876294174 
  7.469722345240986   5.749561185388980   8.337822413543856 
 -1.244799041249840  12.215784357203846   1.668582876294174 
 -0.001565272141166   5.749561185388979   1.668134799300772 
 -1.245730330995323   7.905460236112212   1.668495492765992 
  4.979580420937097   5.749457094149141   1.668420436037308 
  3.734078536549928  12.216863095490758   1.668679085165056 
  9.958199272666874   5.749491654988459   1.668582876294174 
 -3.734078536549903   7.905249492632936   8.337179806327468 
  2.489097720055915   1.435606338372079   8.337822413543856 
  6.224741528746986   7.905931214005187   8.337822413543856 
  7.468706066773149   1.436448168064600   8.337729334658729 
 12.446703846806201   1.437117821137737   8.337278127679571 
  1.244783871479779   0.718552561128193   1.667824534032430 
  4.978658224486706   7.186231140863867   1.671465180450767 
  6.223373201620037   0.718552561128193   1.667824534032430 
  9.957600242616474   7.186332833413098   1.667079208932404 
 11.202235609649751   0.718623749417456   1.666834012431408 
 -3.734078536549858   9.342108742426664   8.339127323656355 
  1.244585681668107   9.342065505774839   8.338132678812197 
  2.489334614371650   2.874596171663816   8.334492032393859 
  6.223571391431717   9.342065505774839   8.338132678812197 
  7.468232801905009   2.874451275623717   8.338034882320418 
 12.446895008375257   2.874588972578104   8.338869795597654 
 -1.244804150961013   9.342110850634112   1.667079208932404 
 -0.000075728805057   2.874451275623716   1.667922330524223 
  4.978822458728183   2.874596171663815   1.671465180450767 
  3.734078536549985   9.342196186518695   1.667922330524223 
  8.712961224060852   9.342110850634112   1.667079208932404 
  9.957576210924250   2.874588972578103   1.667087417246974 
 -4.978717555105479  11.497882543232805   8.338878003912210 
 -0.000145711380607  11.497895864174122   8.338859968251647 
  1.244754926434924   5.030271425238459   8.334492032393859 
  6.223402146665017   5.030271425238459   8.334492032393859 
  4.978869490120124  11.497961968995547   8.338869795597654 
 11.202235609649755   5.030534498931667   8.338859968251647 
 -1.244708983401971   5.030480670863108   1.667824534032430 
 -2.489439517994235  11.497882543232805   1.667079208932404 
  2.489287582979834  11.497961968995547   1.667087417246974 
  3.734078536549917   5.030366245922020   1.677063712055840 
  7.468302784480461  11.497895864174122   1.667097244592981 
  8.712866056501895   5.030480670863108   1.667824534032430 
 -0.000054994117934   7.186269245043170   8.337746505025123 
  1.244783871479780   0.718552561128193   8.338132678812197 
  4.978658224486707   7.186231140863867   8.334492032393859 
  6.223373201620038   0.718552561128193   8.338132678812197 
  9.957600242616474   7.186332833413099   8.338878003912210 
 -2.489443169516636   7.186332833413098   1.667079208932404 
 11.202235609649751   0.718623749417456   8.339123200413233 
  3.734078536549900   0.718560247679880   1.668210707819503 
  2.489498848613146   7.186231140863867   1.671465180450767 
  7.468212067217784   7.186269245043169   1.668210707819503 
  8.712785257354104   0.718547796192490   1.667087417246974 
  2.489498848613147   7.186231140863867   8.334492032393859 
 13.691685961945401   0.718547796192490   1.667087417246974 
 -1.244804150961012   9.342110850634112   8.338878003912210 
 -0.000075728805056   2.874451275623717   8.338034882320418 
  4.978822458728184   2.874596171663816   8.334492032393859 
  3.734078536549986   9.342196186518695   8.338034882320418 
  8.712961224060852   9.342110850634112   8.338878003912210 
  9.957576210924250   2.874588972578104   8.338869795597654 
 -3.734078536549859   9.342108742426664   1.666829889188273 
  1.244585681668107   9.342065505774839   1.667824534032430 