 Al B N Se 
 1.0
 17.527899999999772   0.000000000000000   0.000000000000000
 -8.763949999999658  15.179606674993195   0.000000000000000
  0.000000000000001   0.000000000000002  15.000000000000000
 Al B N Se 
   1  49  47   1
Cartesian
  3.795071276287160   9.580632796721698   1.665070067678100 
  7.565285502766876  14.505169285536310   1.667681157262770 
 15.019076425772333   1.439301631343030   1.666072792723755 
 13.749767843433936   3.592181492089885   1.665824206864605 
 12.509317627961886   5.764397727470914   1.664638653557715 
 11.315443057862780   7.955108738926359   1.658590723266495 
 10.142159222968743  10.160918976583964   1.660568120011230 
  8.875728112177882  12.366782721619634   1.664347344047505 
 -7.467279150882352  14.480100567083085   1.661845032555315 
  0.000376149087182   1.431778965802010   1.666354954940520 
 -1.292058949075417   3.576350305947002   1.667034762191340 
 -2.557815042589748   5.751283789614085   1.670140346332830 
 -3.788772006019049   7.942939733833390   1.672989927062745 
 -4.980040805993136  10.136833497541987   1.664975898458715 
 -6.203047715248974  12.318765673403778   1.660219034813955 
 -4.984367831567078  14.461068600307529   1.664868222702195 
  2.505636572454199   1.413309944944822   1.667219764998360 
  1.200049538901939   3.536070636878347   1.667313655287390 
 -0.096111434555635   5.720114709268390   1.660153683296520 
 -1.371796951908413   7.929298623318238   1.665562074035430 
 -2.566466893014975  10.129370395767888   1.675594563190455 
 -3.747522104838029  12.304118741921497   1.671852101276370 
 -2.504083378043889  14.456937420489929   1.672622307657570 
  5.016141725457434   1.416941383781102   1.665392930956290 
  3.720196455852875   3.514513583014217   1.663348734180435 
  2.373850462913778   5.636696303407682   1.649484680037675 
  1.026709999792825   7.891401460450227   1.641958988507250 
 -0.172083531085196  10.127065052336819   1.649469360096015 
 -1.284523067734246  12.304618852509314   1.672173154067805 
 -0.014444554635062  14.467610383553692   1.673366069698635 
  7.523775276318199   1.417681592206260   1.666864859633070 
  6.292983030159002   3.525747509689188   1.660497286348905 
  5.004521245289995   5.462836572517706   1.664307595173765 
  3.251427371466026   7.848742212311253   1.698108926594670 
  2.076128314991403  10.256081471425098   1.693295343496650 
  1.188125125862659  12.346259292306542   1.649564713122585 
  2.502861594151797  14.463139171653690   1.666902309615120 
 10.018317802477240   1.434750661176582   1.669832433407070 
  8.779812442587462   3.591311621853204   1.660582992007920 
  7.559519738435700   5.762157428912137   1.669469095718700 
  6.618328846557143   8.164817380396013   1.691956854578625 
  5.435838173648026  10.329990326689598   1.652114669294340 
  3.796163140727590  12.323335593353981   1.651055697843480 
  5.030578783266220  14.478111002616503   1.666722585975270 
 12.515853395568806   1.438155585615483   1.668531406163790 
 11.266790625128962   3.596798216611767   1.663761587146845 
 10.044218653964878   5.769899231463815   1.659920642436765 
  8.904613137070530   7.976179202900614   1.671104529523725 
  7.788713604642540  10.257108472113407   1.680106034202870 
  6.389816903245256  12.412257032230304   1.665066515503860 
  8.819744771043116  13.787697674026528   1.663100220078420 
 16.282985000739558   0.742052808763092   1.665202583888610 
 14.994999780221802   2.870375260090519   1.664888497471320 
 13.739150746169615   5.030394577816799   1.667121740094435 
 12.520319863779916   7.207339813290896   1.664904553699725 
 11.334712550613421   9.400052874493346   1.655201001047895 
 10.095658951985214  11.602496237041224   1.658992726914720 
 -6.224728145679887  13.753319856723067   1.660042386756180 
  1.259991364805882   0.724464532892545   1.664848912354620 
 -0.040222274897821   2.854353197789961   1.668354469483890 
 -1.321344158480273   5.012600863190380   1.667552632599960 
 -2.577290614462791   7.194537548944358   1.674690797844945 
 -3.776234162781308   9.388410961112413   1.675905302311545 
 -4.978101806034859  11.578586391800895   1.664109983998005 
 -3.742632117336498  13.741181944600362   1.669374553391430 
  3.766429000532547   0.715067723823509   1.665716689312080 
  2.471485219070158   2.838949204007249   1.668654579842850 
  1.148198164314855   4.958809945721737   1.660240933234455 
 -0.164226906138191   7.168476066544191   1.653111158584680 
 -1.366650222481104   9.378744148921443   1.665381663227610 
 -2.519441049064735  11.572027461007760   1.678051361699775 
 -1.257325153634394  13.741147966824101   1.676678919181515 
  6.269342693121910   0.713402446455180   1.667274682820385 
  5.010379545234189   2.854062794152171   1.662217160106915 
  3.684426940423745   4.947238450826329   1.657805083736730 
  2.190076801424112   7.045089828116128   1.635526597812975 
  1.015693127490755   9.360611148193628   1.643172993497925 
 -0.049159774366494  11.577100663522383   1.655523590058150 
  1.235159785279020  13.762846158833863   1.665647061112680 
  8.769250335405987   0.716914483252754   1.672667575880955 
  7.539259785451000   2.851076973949725   1.659397841664060 
  6.315973067759546   4.963620138272578   1.663639465157160 
  2.449062730404895  11.635806145682361   1.644639275202720 
  3.768743828419924  13.747003489090440   1.660957776312840 
 11.271457913716192   0.716737784726701   1.671367439900790 
 10.020367790125540   2.876186745013708   1.663844559638460 
  8.787161216806645   5.044441775694665   1.660766674896300 
  7.657103237372802   7.236044633678931   1.682290881160275 
  6.596574214926849   9.552783607759324   1.688712380364015 
  5.148899347981981  11.713831983430939   1.647039109354950 
  6.317753716656864  13.815431560119311   1.671367229350335 
 13.768972404616084   0.725702403536939   1.667303669172585 
 12.507143967008586   2.873990692332982   1.665651623927580 
 11.268859230403901   5.038396909756592   1.661144678051400 
 10.087939933366624   7.216426939365083   1.657984207831650 
  8.934176651884671   9.428497605884710   1.672591568999175 
  7.645187156630464  11.673108893950753   1.671090505638240 
  4.986570200276203   7.287517243472784   1.671151311787845 
