B Sb N                                  
   1.0000000000000000     
     8.7639499999999995  -15.1796066749929999    0.0000000000000000
     8.7639499999999995   15.1796066749929999    0.0000000000000000
     0.0000000000000000    0.0000000000000000   15.0000000000000000
   B    Sb   N 
    47     1    49
Selective dynamics
Direct
  0.9106390234185536  0.9555020004204399  0.1108014628150531   T   T   T
  0.9092572703251831  0.0964625440865787  0.1108145350476180   T   T   T
  0.9087958214764080  0.2379424688544408  0.1107491382862603   T   T   T
  0.9089780681950288  0.3800757537387907  0.1106693665441666   T   T   T
  0.9091216006061077  0.5227870755419795  0.1107150133291756   T   T   T
  0.9093787757092298  0.6658018111989639  0.1108242877119778   T   T   T
  0.9049078740773190  0.8075918825090226  0.1107199329630969   T   T   T
  0.0509713201349553  0.9541465647847966  0.1106638966997175   T   T   T
  0.0530879100714719  0.0979421474810331  0.1107267284347893   T   T   T
  0.0517503839172977  0.2389369016062965  0.1107915468908043   T   T   T
  0.0505586803757065  0.3810076347980044  0.1106811297203062   T   T   T
  0.0497003062313528  0.5242595697836879  0.1106533577050076   T   T   T
  0.0499993840863879  0.6677629910849098  0.1106917993838307   T   T   T
  0.0496590940280029  0.8108914221844967  0.1107097051193374   T   T   T
  0.1935517230590463  0.9553236661367392  0.1106666825373539   T   T   T
  0.1967889643251822  0.1003203745423525  0.1106643867497632   T   T   T
  0.1960634461698831  0.2413918638532526  0.1106959099096976   T   T   T
  0.1927161186990130  0.3815398498389610  0.1106733011456911   T   T   T
  0.1896637774286619  0.5248051945830997  0.1106683460628680   T   T   T
  0.1898591237256368  0.6686593642998316  0.1106822701727669   T   T   T
  0.1920749598926208  0.8119159075892010  0.1107038610954084   T   T   T
  0.3355131107397464  0.9550270187804696  0.1106980368649869   T   T   T
  0.3375463530273179  0.0989919715253881  0.1107099971806615   T   T   T
  0.3443539269973079  0.2479817301941295  0.1107385042909917   T   T   T
  0.3382250272471792  0.3846765919742096  0.1106789921567925   T   T   T
  0.3285833482440245  0.5253012079436040  0.1108556048497453   T   T   T
  0.3283352494881032  0.6693898358674548  0.1108960715331323   T   T   T
  0.3340927163161029  0.8123071029382902  0.1107832437080541   T   T   T
  0.4777742884735776  0.9536661792456699  0.1107079511862705   T   T   T
  0.4790870054352550  0.0957382773063216  0.1107152567885772   T   T   T
  0.4811938417419701  0.2386889443097296  0.1107554373494283   T   T   T
  0.4989385499991569  0.3953377916388495  0.1108725739801748   T   T   T
  0.4639705140102255  0.6669677326265664  0.1109496834011579   T   T   T
  0.4765479298730523  0.8114005184961871  0.1107976143942508   T   T   T
  0.6210263512897987  0.9556456922765909  0.1108005059375530   T   T   T
  0.6218317998226931  0.0950332012642782  0.1106800574535682   T   T   T
  0.6229033569618079  0.2345525663265090  0.1106723481597418   T   T   T
  0.6253026840688478  0.3727449531328915  0.1109122142910368   T   T   T
  0.6138714855792944  0.4971895408857442  0.1108547226694770   T   T   T
  0.6207612723874323  0.8174255792879357  0.1106827107500015   T   T   T
  0.7658597172330008  0.9550275599856433  0.1108583220840395   T   T   T
  0.7655096711792497  0.0957527767362703  0.1107350664296785   T   T   T
  0.7660004278621468  0.2366867910494462  0.1106689356410427   T   T   T
  0.7673175738237998  0.3778673651515503  0.1106783164689292   T   T   T
  0.7673684107379938  0.5187129850091423  0.1109503504155188   T   T   T
  0.7645144555319027  0.6564854146118182  0.1107509144877078   T   T   T
  0.7688776613765266  0.8155204705141583  0.1106472297051708   T   T   T
  0.6143132469663695  0.6577544691555227  0.1102113925693405   T   T   T
  0.9550619975961663  0.9047284032955962  0.1106906869709894   T   T   T
  0.9580662320329396  0.0502216251246332  0.1107705450470833   T   T   T
  0.9566314051470123  0.1910876254182449  0.1108126738953997   T   T   T
  0.9559904004330029  0.3327139197509106  0.1106843673115704   T   T   T
  0.9556898489891185  0.4751904963099682  0.1106656046603659   T   T   T
  0.9560992717216996  0.6183714799413266  0.1107126593779874   T   T   T
  0.9543920545669756  0.7615904837646468  0.1107314617677380   T   T   T
  0.0981534574693024  0.9065185676049842  0.1106521112431231   T   T   T
  0.1004031118896997  0.0503528563979460  0.1106395361400968   T   T   T
  0.1003810264350296  0.1925953228613623  0.1107343260857611   T   T   T
  0.0977840942518566  0.3334572005297076  0.1107075592058095   T   T   T
  0.0957094652303938  0.4760451815230972  0.1106261236189606   T   T   T
  0.0958544905750929  0.6196869827821320  0.1106366963571711   T   T   T
  0.0970008994931655  0.7633300186717235  0.1106849177113048   T   T   T
  0.2402999241972002  0.9072710224075173  0.1106710966652492   T   T   T
  0.2422727078076621  0.0508415536369752  0.1106619892161279   T   T   T
  0.2463931708963458  0.1964947034524309  0.1106790222699558   T   T   T
  0.2418130390795309  0.3353418681631261  0.1106428750715636   T   T   T
  0.2351232431974458  0.4760536822100305  0.1106513615179501   T   T   T
  0.2344857125725612  0.6202015071792457  0.1106683880395699   T   T   T
  0.2387145429677001  0.7641847457678096  0.1107193715548270   T   T   T
  0.3825287580752286  0.9073288707847411  0.1107099103716834   T   T   T
  0.3839064048270709  0.0499732451742768  0.1107021006666370   T   T   T
  0.3863841800835573  0.1942358144095978  0.1107193820515108   T   T   T
  0.3960818992657159  0.3457953841805345  0.1107555675069597   T   T   T
  0.3741554154393135  0.4770282000721714  0.1107673552421537   T   T   T
  0.3705503743061535  0.6206550497437071  0.1111682566905753   T   T   T
  0.3806100755186439  0.7649629159580673  0.1108084077607772   T   T   T
  0.5254294538156373  0.9067983713365948  0.1107314596501690   T   T   T
  0.5265238497044590  0.0482915243286195  0.1106825101462490   T   T   T
  0.5278751491368197  0.1897960582895571  0.1106970605917607   T   T   T
  0.5310452654030474  0.3320368828758353  0.1108194166321887   T   T   T
  0.4637564597551956  0.5203945120344458  0.1111896537241696   T   T   T
  0.4919213393280137  0.6075524446827391  0.1108807779859013   T   T   T
  0.5238397566655024  0.7640760041952381  0.1107494513934384   T   T   T
  0.6699714485878105  0.9112702693415290  0.1108910984228811   T   T   T
  0.6701773320869190  0.0494885550685726  0.1106994304863159   T   T   T
  0.6709152988727420  0.1887368284411522  0.1106505111923498   T   T   T
  0.6729518584423964  0.3276437875960633  0.1106803006516063   T   T   T
  0.6738343733566026  0.4649530976571464  0.1111037739568416   T   T   T
  0.6728246219769303  0.5917658651742753  0.1104220155203393   T   T   T
  0.6782181079861902  0.7836892316951097  0.1102881643434655   T   T   T
  0.8167731123568484  0.9100502829289501  0.1108791600542263   T   T   T
  0.8140372283911632  0.0495171178655783  0.1107786080564694   T   T   T
  0.8138278417091511  0.1901987598161320  0.1107025265981115   T   T   T
  0.8145712337404981  0.3312318688015413  0.1106319725906065   T   T   T
  0.8152758227246050  0.4727410953928483  0.1107263991863147   T   T   T
  0.8160323187326075  0.6147226517539691  0.1109628810351772   T   T   T
  0.8081683027052641  0.7572468055663424  0.1106778908988016   T   T   T

  0.00000000E+00  0.00000000E+00  0.00000000E+00
  0.00000000E+00  0.00000000E+00  0.00000000E+00
  0.00000000E+00  0.00000000E+00  0.00000000E+00
  0.00000000E+00  0.00000000E+00  0.00000000E+00
  0.00000000E+00  0.00000000E+00  0.00000000E+00
  0.00000000E+00  0.00000000E+00  0.00000000E+00
  0.00000000E+00  0.00000000E+00  0.00000000E+00
  0.00000000E+00  0.00000000E+00  0.00000000E+00
  0.00000000E+00  0.00000000E+00  0.00000000E+00
  0.00000000E+00  0.00000000E+00  0.00000000E+00
  0.00000000E+00  0.00000000E+00  0.00000000E+00
  0.00000000E+00  0.00000000E+00  0.00000000E+00
  0.00000000E+00  0.00000000E+00  0.00000000E+00
  0.00000000E+00  0.00000000E+00  0.00000000E+00
  0.00000000E+00  0.00000000E+00  0.00000000E+00
  0.00000000E+00  0.00000000E+00  0.00000000E+00
  0.00000000E+00  0.00000000E+00  0.00000000E+00
  0.00000000E+00  0.00000000E+00  0.00000000E+00
  0.00000000E+00  0.00000000E+00  0.00000000E+00
  0.00000000E+00  0.00000000E+00  0.00000000E+00
  0.00000000E+00  0.00000000E+00  0.00000000E+00
  0.00000000E+00  0.00000000E+00  0.00000000E+00
  0.00000000E+00  0.00000000E+00  0.00000000E+00
  0.00000000E+00  0.00000000E+00  0.00000000E+00
  0.00000000E+00  0.00000000E+00  0.00000000E+00
  0.00000000E+00  0.00000000E+00  0.00000000E+00
  0.00000000E+00  0.00000000E+00  0.00000000E+00
  0.00000000E+00  0.00000000E+00  0.00000000E+00
  0.00000000E+00  0.00000000E+00  0.00000000E+00
  0.00000000E+00  0.00000000E+00  0.00000000E+00
  0.00000000E+00  0.00000000E+00  0.00000000E+00
  0.00000000E+00  0.00000000E+00  0.00000000E+00
  0.00000000E+00  0.00000000E+00  0.00000000E+00
  0.00000000E+00  0.00000000E+00  0.00000000E+00
  0.00000000E+00  0.00000000E+00  0.00000000E+00
  0.00000000E+00  0.00000000E+00  0.00000000E+00
  0.00000000E+00  0.00000000E+00  0.00000000E+00
  0.00000000E+00  0.00000000E+00  0.00000000E+00
  0.00000000E+00  0.00000000E+00  0.00000000E+00
  0.00000000E+00  0.00000000E+00  0.00000000E+00
  0.00000000E+00  0.00000000E+00  0.00000000E+00
  0.00000000E+00  0.00000000E+00  0.00000000E+00
  0.00000000E+00  0.00000000E+00  0.00000000E+00
  0.00000000E+00  0.00000000E+00  0.00000000E+00
  0.00000000E+00  0.00000000E+00  0.00000000E+00
  0.00000000E+00  0.00000000E+00  0.00000000E+00
  0.00000000E+00  0.00000000E+00  0.00000000E+00
  0.00000000E+00  0.00000000E+00  0.00000000E+00
  0.00000000E+00  0.00000000E+00  0.00000000E+00
  0.00000000E+00  0.00000000E+00  0.00000000E+00
  0.00000000E+00  0.00000000E+00  0.00000000E+00
  0.00000000E+00  0.00000000E+00  0.00000000E+00
  0.00000000E+00  0.00000000E+00  0.00000000E+00
  0.00000000E+00  0.00000000E+00  0.00000000E+00
  0.00000000E+00  0.00000000E+00  0.00000000E+00
  0.00000000E+00  0.00000000E+00  0.00000000E+00
  0.00000000E+00  0.00000000E+00  0.00000000E+00
  0.00000000E+00  0.00000000E+00  0.00000000E+00
  0.00000000E+00  0.00000000E+00  0.00000000E+00
  0.00000000E+00  0.00000000E+00  0.00000000E+00
  0.00000000E+00  0.00000000E+00  0.00000000E+00
  0.00000000E+00  0.00000000E+00  0.00000000E+00
  0.00000000E+00  0.00000000E+00  0.00000000E+00
  0.00000000E+00  0.00000000E+00  0.00000000E+00
  0.00000000E+00  0.00000000E+00  0.00000000E+00
  0.00000000E+00  0.00000000E+00  0.00000000E+00
  0.00000000E+00  0.00000000E+00  0.00000000E+00
  0.00000000E+00  0.00000000E+00  0.00000000E+00
  0.00000000E+00  0.00000000E+00  0.00000000E+00
  0.00000000E+00  0.00000000E+00  0.00000000E+00
  0.00000000E+00  0.00000000E+00  0.00000000E+00
  0.00000000E+00  0.00000000E+00  0.00000000E+00
  0.00000000E+00  0.00000000E+00  0.00000000E+00
  0.00000000E+00  0.00000000E+00  0.00000000E+00
  0.00000000E+00  0.00000000E+00  0.00000000E+00
  0.00000000E+00  0.00000000E+00  0.00000000E+00
  0.00000000E+00  0.00000000E+00  0.00000000E+00
  0.00000000E+00  0.00000000E+00  0.00000000E+00
  0.00000000E+00  0.00000000E+00  0.00000000E+00
  0.00000000E+00  0.00000000E+00  0.00000000E+00
  0.00000000E+00  0.00000000E+00  0.00000000E+00
  0.00000000E+00  0.00000000E+00  0.00000000E+00
  0.00000000E+00  0.00000000E+00  0.00000000E+00
  0.00000000E+00  0.00000000E+00  0.00000000E+00
  0.00000000E+00  0.00000000E+00  0.00000000E+00
  0.00000000E+00  0.00000000E+00  0.00000000E+00
  0.00000000E+00  0.00000000E+00  0.00000000E+00
  0.00000000E+00  0.00000000E+00  0.00000000E+00
  0.00000000E+00  0.00000000E+00  0.00000000E+00
  0.00000000E+00  0.00000000E+00  0.00000000E+00
  0.00000000E+00  0.00000000E+00  0.00000000E+00
  0.00000000E+00  0.00000000E+00  0.00000000E+00
  0.00000000E+00  0.00000000E+00  0.00000000E+00
  0.00000000E+00  0.00000000E+00  0.00000000E+00
  0.00000000E+00  0.00000000E+00  0.00000000E+00
  0.00000000E+00  0.00000000E+00  0.00000000E+00
  0.00000000E+00  0.00000000E+00  0.00000000E+00
