 B N Ga 
 1.0
 17.527899999999772   0.000000000000000   0.000000000000000
 -8.763949999999658  15.179606674993195   0.000000000000000
  0.000000000000001   0.000000000000002  15.000000000000000
 B N Ga 
  48  48   1
Cartesian
  7.527143188052930  14.471982264900239   1.665128877024345 
 15.018804722096020   1.448647288093664   1.665394993017885 
 13.760201840936551   3.614367878189755   1.665538332590880 
 12.511117452933187   5.781701976143592   1.664734661217060 
 11.273255235898414   7.949723240982166   1.664935141386135 
 10.041485994538567  10.123542562289682   1.666110159345675 
  8.798356991575069  12.312254176040639   1.665645207997410 
 -7.495032954077181  14.447017530924095   1.665203752287330 
 -0.005564976834312   1.424949004726629   1.665128877024345 
 -1.268422092380654   3.598190834917690   1.664727513352920 
 -2.514089362037800   5.772447868712629   1.665012169558485 
 -3.744911964130972   7.941679034082161   1.664835779370990 
 -4.982087326959451  10.110212278718231   1.665737346231480 
 -6.233331935212504  12.280583545496667   1.665918738236715 
 -4.987995577642733  14.437569389320267   1.665918738236715 
  2.500421315145969   1.403909601664780   1.665645207997410 
  1.219979739533203   3.554733909368669   1.664709609489975 
 -0.021662974020473   5.749746450575091   1.665072913061940 
 -1.233268006530911   7.929323348633399   1.665537262497675 
 -2.468294459433400  10.101115893644026   1.665144983450715 
 -3.726728765720020  12.271386093387656   1.665253864678230 
 -2.482776620824812  14.439145405613996   1.665737346231480 
  5.017465675711548   1.421684111792596   1.666110159345675 
  3.723132767767187   3.533077208704229   1.665046294731150 
  2.432051122262095   5.675960692667434   1.665424438141875 
  1.292844558852543   7.895117559924208   1.666939996123155 
  0.056787406937715  10.086972012630453   1.665857257357065 
 -1.218002486504960  12.266685115021374   1.665144983450715 
  0.013815939395372  14.451986734786283   1.664835779370990 
  7.515933051881228   1.441850317828402   1.664935141386135 
  6.252467000877759   3.605384080019908   1.665428458175760 
  4.922082072020985   5.628072513068878   1.666754216033340 
  2.573017620336765  10.112442344895838   1.666939996123155 
  1.280338255675150  12.283017104967309   1.665537262497675 
  2.507836536315454  14.470678676506260   1.665012169558485 
 10.012425651676242   1.453840823910628   1.664734661217060 
  8.754874622139429   3.624790817515849   1.664836124535270 
  7.486114192619875   5.797648193009007   1.665470653959825 
  6.350954979003855   8.102952985552221   1.666754216033340 
  5.064467124051152  10.235438954453564   1.665424438141875 
  3.773709735133099  12.323524816489330   1.665072913061940 
  5.013631996767424  14.479027693217803   1.664727513352920 
 12.513934232994158   1.455769061406057   1.665538332590880 
 11.257646524225322   3.620152986099197   1.665363224385555 
 10.002244093357126   5.785298117475159   1.664836124535270 
  8.767847010393666   7.962150056874644   1.665428458175760 
  7.565799481265960  10.188771193067890   1.665046294731150 
  6.295467714220337  12.345736954731068   1.664709609489975 
  8.782962623881144  13.748444680319524   1.664969897165430 
 16.271606565656395   0.725335539541935   1.665033940963215 
 15.007560616327654   2.887491518713792   1.665026069369190 
 13.759055648014071   5.056614603872063   1.664808538684560 
 12.524249599523042   7.225777449455869   1.664293767779580 
 11.291317395987424   9.395124399962071   1.665652186076025 
 10.044294140456730  11.571326002108844   1.665922412369490 
 -6.240262716381183  13.722569329488151   1.665208012478400 
  1.248941242597903   0.699136862627167   1.664969897165430 
 -0.029935068364303   2.854465236786705   1.664572647178680 
 -1.277855307723058   5.038371492106677   1.664480847086940 
 -2.499538662984478   7.216518623753517   1.664802489146925 
 -3.731012439947059   9.386622699210214   1.664966481937680 
 -4.980867760799415  11.555134472956480   1.665419581565835 
 -3.733511591785886  13.715618732822165   1.665419581565835 
  3.765047083269867   0.695351065784061   1.665922412369490 
  2.472328618373700   2.826525406855736   1.664773149123945 
  1.186576815827955   4.975957491808401   1.664507760752115 
  0.000505733372197   7.196072118449282   1.665648375357285 
 -1.218161443281736   9.378076036028233   1.665263103265440 
 -2.474511011022103  11.548411568697817   1.664802588036945 
 -1.230597646889895  13.717468160781968   1.664966481937680 
  6.273204582250608   0.703498048457855   1.665652186076025 
  5.006945069371079   2.855359141390082   1.665259719462510 
  3.672027282803802   4.939383115032051   1.664959664431770 
  2.445185922378137   7.073044830937601   1.666279432573740 
  1.308747803553082   9.364146073688712   1.666818959762475 
  0.033229478875851  11.545548693335816   1.665263103265440 
  1.264504499775476  13.736032623566313   1.664802489146925 
  8.768380252761540   0.720420914305130   1.664293767779580 
  7.509873695333070   2.887048094314184   1.664735987090400 
  6.246166866009499   5.054901380373993   1.665709486658670 
  3.861118741812610   9.525512414332733   1.666279432573740 
  2.532233890965746  11.581153918384796   1.665648375357285 
  3.761676926592548  13.767097368352681   1.664480847086940 
 11.264333406227960   0.735628930357103   1.664808538684560 
 10.012197348904875   2.897841062947857   1.664732806413660 
  8.751658086387277   5.066979818329941   1.664610142885995 
  7.509372710306300   7.242838083113949   1.665709486658670 
  6.322344671081942   9.529867487743385   1.664959664431770 
  5.047945098177973  11.664043543604299   1.664507760752115 
  6.276955342880321  13.778319866831206   1.664572647178680 
 13.767101586084639   0.738953453625550   1.665026069369190 
 12.509212477944857   2.897554778879614   1.665546127785615 
 11.258705694147016   5.062923495490614   1.664732806413660 
 10.018642142391068   7.232362509013628   1.664735987090400 
  8.794621267652861   9.415806759433378   1.665259719462510 
  7.552283788746881  11.625265862114361   1.664773149123945 
  4.259459954621966   7.660551618957822   1.669468925145630 
