Species order:X N B                     
   2.51242800000000     
     5.9449720136058266    0.0000000000000000    0.0000000000000000
    -2.9724860068029120    5.1484967885702053   -0.0000000000000001
     0.0000000000000000    0.0000000000000009    5.3101128803662583
   C    N    B 
     4   142   142
Direct
  0.7154126316978262  0.4410436761901765  0.3750000000000000
  0.6059134881307756  0.3849848463657199  0.3750000000000000
  0.4421622269348542  0.3863563394375507  0.3750000000000000
  0.5517839788063310  0.4391319598077160  0.3750000000000000
  0.1111182936450675  0.0555461017687436  0.1251597085804288
  0.6111111549700093  0.5555219119910306  0.1251802598896204
  0.4444322596398495  0.0555370884124716  0.1252252643846745
  0.9444303938755120  0.5555429032756700  0.1252992447533132
  0.7777813857529904  0.0555533598680203  0.1251162969554767
  0.1110998092619013  0.7222036959402891  0.6248573150477960
  0.4444365244330864  0.7221995690001363  0.6248227048351073
  0.2777979190053521  0.2222252191445512  0.6245944837587156
  0.7777802477974050  0.7222092015188657  0.6248234911563584
  0.6111025549025324  0.2222211607965170  0.6246977266537235
  0.9444575978240413  0.2222340572470344  0.6248830918151491
  0.2777699708426209  0.7222099453794534  0.1251207969154437
  0.1111287607043499  0.2222295375547420  0.1251828583066140
  0.4444327737338251  0.2222141144610006  0.1253492973861536
  0.6111068048414114  0.7221920811177046  0.1252279393561419
  0.9444388789652371  0.7222027832931202  0.1251881532021861
  0.7777778493777789  0.2222229472218382  0.1251804190001432
  0.1111051494436094  0.8888695243381659  0.6248861817037579
  0.4444330357087756  0.8888705864831079  0.6248813346800297
  0.2777967611705748  0.3888921944321295  0.6246313835162038
  0.6110936537253637  0.3888489878817107  0.6257847076167391
  0.7777843872698463  0.8888813173633607  0.6248969719227362
  0.9444513626910962  0.3888992220039160  0.6248233932575636
  0.1111221514440046  0.3889018155878400  0.1251593234936339
  0.2777677184708929  0.8888665090881093  0.1251210180610615
  0.6111020330476430  0.8888707246236088  0.1251269760393524
  0.4444420782426881  0.3888726112667037  0.1249819452205105
  0.9444499757621700  0.8888798669579024  0.1251041600665964
  0.7777707547320285  0.3888812304212588  0.1251914636164790
  0.2777803008102657  0.5555537485945121  0.6247808726030543
  0.1111182936450675  0.0555461017687436  0.6248402914195712
  0.6111111549700093  0.5555219119910306  0.6248197401103798
  0.4444322596398495  0.0555370884124716  0.6247747356153259
  0.9444303938755120  0.5555429032756700  0.6247007552466869
  0.1111061061871116  0.5555565395255703  0.1251570961112959
  0.7777813857529904  0.0555533598680203  0.6248837030445226
  0.2777710408271870  0.0555354576769568  0.1252278388806990
  0.4444469751173112  0.5555243029201368  0.1254114051815555
  0.7777622917156636  0.5555323221487385  0.1252588076290711
  0.6110989376735954  0.0555465727987233  0.1251961202732683
  0.4444469751173112  0.5555243029201368  0.6245885948184438
  0.9444592643896034  0.0555570869654139  0.1251077554474115
  0.2777699708426209  0.7222099453794534  0.6248792030845570
  0.1111287607043499  0.2222295375547420  0.6248171416933871
  0.4444327737338251  0.2222141144610006  0.6246507026138458
  0.6111068048414114  0.7221920811177046  0.6247720606438587
  0.9444388789652371  0.7222027832931202  0.6248118467978138
  0.7777778493777789  0.2222229472218382  0.6248195809998555
  0.1110998092619013  0.7222036959402891  0.1251426849522037
  0.4444365244330864  0.7221995690001363  0.1251772951648928
  0.2777979190053521  0.2222252191445512  0.1254055162412852
  0.7777802477974050  0.7222092015188657  0.1251765088436418
  0.6111025549025324  0.2222211607965170  0.1253022733462775
  0.9444575978240413  0.2222340572470344  0.1251169081848506
  0.1111221514440046  0.3889018155878400  0.6248406765063669
  0.2777677184708929  0.8888665090881093  0.6248789819389381
  0.6111020330476430  0.8888707246236088  0.6248730239606480
  0.4444420782426881  0.3888726112667037  0.6250180547794897
  0.9444499757621700  0.8888798669579024  0.6248958399334030
  0.1111051494436094  0.8888695243381659  0.1251138182962421
  0.7777707547320285  0.3888812304212588  0.6248085363835207
  0.4444330357087756  0.8888705864831079  0.1251186653199702
  0.2777967611705748  0.3888921944321295  0.1253686164837958
  0.2777803008102657  0.5555537485945121  0.1252191273969452
  0.6110936537253637  0.3888489878817107  0.1242152923832609
  0.7777843872698463  0.8888813173633607  0.1251030280772638
  0.9444513626910962  0.3888992220039160  0.1251766067424357
  0.1111061061871116  0.5555565395255703  0.6248429038887041
  0.2777710408271870  0.0555354576769568  0.6247721611193008
  0.7777622917156636  0.5555323221487385  0.6247411923709291
  0.6110989376735954  0.0555465727987233  0.6248038797267309
  0.9444592643896034  0.0555570869654139  0.6248922445525890
  0.0557879283420272  0.1113222716749079  0.3750000000000000
  0.5563572020921552  0.6120710555034430  0.3750000000000000
  0.3892833591649694  0.1127514697031021  0.3750000000000000
  0.8883531318854111  0.6117576431851848  0.3750000000000000
  0.7220464489208579  0.1103860718843892  0.3750000000000000
  0.0555565096549414  0.7777805965301666  0.8750000000000000
  0.3888947289337034  0.7777812509870496  0.8750000000000000
  0.2222237047391747  0.2777774578135053  0.8750000000000000
  0.7222222334279537  0.7777798494348283  0.8750000000000000
  0.5555546515218733  0.2777744434901626  0.8750000000000000
  0.8888891947716168  0.2777775430375882  0.8750000000000000
  0.2222914423438272  0.7776334321430294  0.3750000000000000
  0.0557975886464218  0.2777913147455903  0.3750000000000000
  0.3893656548155515  0.2812368526766064  0.3750000000000000
  0.5555334814219863  0.7781082513562202  0.3750000000000000
  0.8897964398760577  0.7792698356704102  0.3750000000000000
  0.7223334729022897  0.2757064495759507  0.3750000000000000
  0.0555555427132007  0.9444496894028082  0.8750000000000000
  0.3888964301859921  0.9444492167031950  0.8750000000000000
  0.2222244886862659  0.4444414207710549  0.8750000000000000
  0.5555538615169751  0.4444489160378701  0.8750000000000000
  0.7222237202969927  0.9444460169881039  0.8750000000000000
  0.8888902470850639  0.4444438032676063  0.8750000000000000
  0.0562100415606899  0.4442107093396539  0.3750000000000000
  0.2227747889599594  0.9451148660360195  0.3750000000000000
  0.5553437066172953  0.9446541367046304  0.3750000000000000
  0.3908157556362599  0.4406140456640442  0.3750000000000000
  0.8893104465929744  0.9451692698491166  0.3750000000000000
  0.2222227261922808  0.6111075705197707  0.8750000000000000
  0.0555546288668470  0.1111107250343844  0.8750000000000000
  0.5555551332127027  0.6111101100220747  0.8750000000000000
  0.3888941116010396  0.1111130008442638  0.8750000000000000
  0.8888892675916361  0.6111107918013157  0.8750000000000000
  0.0550203606242540  0.6106854418141141  0.3750000000000000
  0.7222217304929811  0.1111096543474076  0.8750000000000000
  0.2230653182444734  0.1121467465762801  0.3750000000000000
  0.3895477775678746  0.6094276162626157  0.3750000000000000
  0.7231253958526206  0.6149865424230577  0.3750000000000000
  0.5553648043261070  0.1117051977241654  0.3750000000000000
  0.3888941584073706  0.6111092798853247  0.8750000000000000
  0.8890601904123763  0.1112235769489082  0.3750000000000000
  0.2222249255753131  0.7777790326922900  0.8750000000000000
  0.0555548970273217  0.2777754433900848  0.8750000000000000
  0.3888918565936804  0.2777804147221998  0.8750000000000000
  0.5555583800278214  0.7777794848035043  0.8750000000000000
  0.8888895887300767  0.7777824531396631  0.8750000000000000
  0.7222217824811658  0.2777756591350137  0.8750000000000000
  0.0559564797354170  0.7782678362735711  0.3750000000000000
  0.3889734195351000  0.7772613983520020  0.3750000000000000
  0.2218168744747157  0.2774526403732505  0.3750000000000000
  0.7225879881107055  0.7795127268024307  0.3750000000000000
  0.5552709923339106  0.2788280309123923  0.3750000000000000
  0.8891522268714398  0.2774551243519542  0.3750000000000000
  0.0555545662562652  0.4444419366845003  0.8750000000000000
  0.2222261131990427  0.9444493178683641  0.8750000000000000
  0.5555589422400409  0.9444484820022742  0.8750000000000000
  0.3888927645357224  0.4444464016239472  0.8750000000000000
  0.8888913191812572  0.9444483778716102  0.8750000000000000
  0.0563591445934800  0.9453226476622711  0.3750000000000000
  0.7222237400899043  0.4444460824554305  0.8750000000000000
  0.3889820179882758  0.9448440077107571  0.3750000000000000
  0.2235689928286008  0.4439593451933528  0.3750000000000000
  0.2225649808326714  0.6106132295577704  0.3750000000000000
  0.7221758095491024  0.9448070686035210  0.3750000000000000
  0.8887134039077941  0.4435341081326327  0.3750000000000000
  0.0555537156684095  0.6111072633766784  0.8750000000000000
  0.2222231323915660  0.1111143084977136  0.8750000000000000
  0.7222187159274546  0.6111111902728568  0.8750000000000000
  0.5555582004946796  0.1111110734192766  0.8750000000000000
  0.8888900692130147  0.1111103794185829  0.8750000000000000
  0.1112754569582514  0.0559458525120408  0.3750000000000000
  0.6129109095003926  0.5585971174420824  0.3750000000000000
  0.4443313162195939  0.0557928892932131  0.3750000000000000
  0.9437348521690980  0.5552581648933480  0.3750000000000000
  0.7779304976197631  0.0554114232402408  0.3750000000000000
  0.1111114083198345  0.7222241423428796  0.8750000000000000
  0.4444550197987976  0.7222454238635847  0.8750000000000000
  0.2777509270707427  0.2222009301474806  0.8750000000000000
  0.7777944613508485  0.7222490755173373  0.8750000000000000
  0.6111272845009451  0.2222047223945326  0.8750000000000000
  0.9444297391405976  0.2222077295048727  0.8750000000000000
  0.2778434450671757  0.7219448433976432  0.3750000000000000
  0.1100815709708369  0.2217028618492637  0.3750000000000000
  0.4443691131590572  0.2228399007731890  0.3750000000000000
  0.6118716027433951  0.7239507695539654  0.3750000000000000
  0.9449484211057034  0.7232737149803831  0.3750000000000000
  0.7783246677376006  0.2206652466705586  0.3750000000000000
  0.1110997890822314  0.8888805745467760  0.8750000000000000
  0.4444537820510088  0.8888887724732139  0.8750000000000000
  0.2777578323284268  0.3888903218895846  0.8750000000000000
  0.6111283632335276  0.3888966888071070  0.8750000000000000
  0.7777853068801748  0.8889027343675876  0.8750000000000000
  0.9444466995723403  0.3888844613319976  0.8750000000000000
  0.1116573229783659  0.3886908933228043  0.3750000000000000
  0.2778096086744173  0.8888475634027746  0.3750000000000000
  0.6111532260407282  0.8893765034067767  0.3750000000000000
  0.9452554140722538  0.8901180924801665  0.3750000000000000
  0.7781471990229285  0.3854987839408053  0.3750000000000000
  0.2777721390280687  0.5555688271839445  0.8750000000000000
  0.1110816813233163  0.0555350839428447  0.8750000000000000
  0.6111332245413830  0.5555863539446243  0.8750000000000000
  0.4444497375298114  0.0555322809028521  0.8750000000000000
  0.9444565146341206  0.5555633776385986  0.8750000000000000
  0.1111653777521391  0.5553396953310553  0.3750000000000000
  0.7777800814455594  0.0555486344271945  0.8750000000000000
  0.2778837330656543  0.0557947180273972  0.3750000000000000
  0.4463802722269733  0.5554964875943756  0.3750000000000000
  0.7776847890066059  0.5597307894686826  0.3750000000000000
  0.6110731240085912  0.0554914286163346  0.3750000000000000
  0.4444550114266311  0.5555864506352843  0.8750000000000000
  0.9445142010284305  0.0558029310809626  0.3750000000000000
  0.2777790708731434  0.7222286761739752  0.8750000000000000
  0.1110753829734989  0.2222028928619171  0.8750000000000000
  0.4444465795248471  0.2222009014244676  0.8750000000000000
  0.6111293542951302  0.7222550882303628  0.8750000000000000
  0.9444536663067554  0.7222364927499823  0.8750000000000000
  0.7777876867856837  0.2222078554665045  0.8750000000000000
  0.1110459899519239  0.7221440777302779  0.3750000000000000
  0.4446479169254378  0.7217262538608915  0.3750000000000000
  0.2758618491301591  0.2219731318774970  0.3750000000000000
  0.7790664224182235  0.7255285314541846  0.3750000000000000
  0.6120522789173030  0.2219315915063356  0.3750000000000000
  0.9445877651523447  0.2220244616315607  0.3750000000000000
  0.1110900974820306  0.3888828952156325  0.8750000000000000
  0.2777761941372406  0.8888778372127948  0.8750000000000000
  0.6111236099401876  0.8889008751633222  0.8750000000000000
  0.4444530320489479  0.3889019188681991  0.8750000000000000
  0.9444385184821091  0.8888931168406465  0.8750000000000000
  0.1114963111854212  0.8893381603040109  0.3750000000000000
  0.7778005554615159  0.3888886662347187  0.8750000000000000
  0.4443314967425208  0.8887084994458094  0.3750000000000000
  0.2772170845671441  0.3873149064990862  0.3750000000000000
  0.2782097622323344  0.5551905400413046  0.3750000000000000
  0.7782674006204147  0.8902063198747550  0.3750000000000000
  0.9450351239121637  0.3885417888910090  0.3750000000000000
  0.1111072661693656  0.5555583774887132  0.8750000000000000
  0.2777619751951128  0.0555292255627299  0.8750000000000000
  0.7778026909956428  0.5555810603880701  0.8750000000000000
  0.6111231933123144  0.0555427149279850  0.8750000000000000
  0.9444260546997666  0.0555446459072068  0.8750000000000000
  0.0554964524390382  0.1110508802407734  0.1248694379586059
  0.5556207666161176  0.6111898477391702  0.1248787932155135
  0.3888248314059957  0.1109631958217766  0.1248648978331036
  0.8889597083733742  0.6111520413270418  0.1250171715204831
  0.7222366096873932  0.1110777256577964  0.1249182722352438
  0.0555526705614741  0.7777463054795258  0.6250522740986078
  0.3888548927885249  0.7777686589652150  0.6250919260029767
  0.2221212576393362  0.2777413639351545  0.6252038324915670
  0.7222731195033331  0.7778187105615016  0.6250796515191845
  0.5556140220621032  0.2777753577990484  0.6256976965984568
  0.8889201952409622  0.2777924641923746  0.6250914849157631
  0.2221903516239430  0.7777392310263072  0.1249208294097705
  0.0555137118643858  0.2777872913318671  0.1248736139017380
  0.3888606782691398  0.2777394700900626  0.1244059577133069
  0.5555601681515410  0.7778024641159458  0.1249226147636205
  0.8889254616587782  0.7777904615161572  0.1249392506771805
  0.7222899383727617  0.2777603706950909  0.1248356590407195
  0.0555188142472822  0.9443714307612350  0.6251039307523125
  0.3888396229700598  0.9443449397567950  0.6250986839939925
  0.2221558705588220  0.4444935227396599  0.6251089607640061
  0.5556442521243837  0.4444722843635758  0.6257095640740756
  0.7222310487964797  0.9444369338379490  0.6250891417926052
  0.8889604067188767  0.4444781484641068  0.6250129157373333
  0.0555506035561974  0.4444823960696000  0.1249302061774062
  0.2221583787905914  0.9443246972988285  0.1248949138016070
  0.5555358177350211  0.9443968138555401  0.1249161237606785
  0.3888765145690716  0.4444785253105286  0.1245390038402478
  0.8888909919945326  0.9444282162901760  0.1249038497316629
  0.7222698035636551  0.4444608618365969  0.1244531654174654
  0.2221885864836998  0.6111467043668115  0.6250765872382936
  0.0554964524390382  0.1110508802407734  0.6251305620413942
  0.5556207666161176  0.6111898477391702  0.6251212067844866
  0.3888248314059957  0.1109631958217766  0.6251351021668959
  0.8889597083733742  0.6111520413270418  0.6249828284795168
  0.0555764700229829  0.6111333879308467  0.1249874916979785
  0.7222366096873932  0.1110777256577964  0.6250817277647561
  0.2221272296123708  0.1109706790121802  0.1248660354570745
  0.3888585882320066  0.6111748266500355  0.1249273960885932
  0.7223103960532028  0.6111896746512030  0.1249082499830873
  0.5555424827496942  0.1110154341237507  0.1249132451280112
  0.3888585882320066  0.6111748266500355  0.6250726039114075
  0.8888828132135742  0.1110957918890687  0.1249005795907887
  0.2221903516239430  0.7777392310263072  0.6250791705902298
  0.0555137118643858  0.2777872913318671  0.6251263860982622
  0.3888606782691398  0.2777394700900626  0.6255940422866932
  0.5555601681515410  0.7778024641159458  0.6250773852363789
  0.8889254616587782  0.7777904615161572  0.6250607493228191
  0.7222899383727617  0.2777603706950909  0.6251643409592809
  0.0555526705614741  0.7777463054795258  0.1249477259013926
  0.3888548927885249  0.7777686589652150  0.1249080739970240
  0.2221212576393362  0.2777413639351545  0.1247961675084340
  0.7222731195033331  0.7778187105615016  0.1249203484808154
  0.5556140220621032  0.2777753577990484  0.1243023034015434
  0.8889201952409622  0.2777924641923746  0.1249085150842365
  0.0555506035561974  0.4444823960696000  0.6250697938225934
  0.2221583787905914  0.9443246972988285  0.6251050861983933
  0.5555358177350211  0.9443968138555401  0.6250838762393206
  0.3888765145690716  0.4444785253105286  0.6254609961597523
  0.8888909919945326  0.9444282162901760  0.6250961502683378
  0.0555188142472822  0.9443714307612350  0.1248960692476865
  0.7222698035636551  0.4444608618365969  0.6255468345825345
  0.3888396229700598  0.9443449397567950  0.1249013160060073
  0.2221558705588220  0.4444935227396599  0.1248910392359943
  0.2221885864836998  0.6111467043668115  0.1249234127617065
  0.5556442521243837  0.4444722843635758  0.1242904359259244
  0.7222310487964797  0.9444369338379490  0.1249108582073954
  0.8889604067188767  0.4444781484641068  0.1249870842626664
  0.0555764700229829  0.6111333879308467  0.6250125083020212
  0.2221272296123708  0.1109706790121802  0.6251339645429240
  0.7223103960532028  0.6111896746512030  0.6250917500169130
  0.5555424827496942  0.1110154341237507  0.6250867548719882
  0.8888828132135742  0.1110957918890687  0.6250994204092107
 
  0.00000000E+00  0.00000000E+00  0.00000000E+00
  0.00000000E+00  0.00000000E+00  0.00000000E+00
  0.00000000E+00  0.00000000E+00  0.00000000E+00
  0.00000000E+00  0.00000000E+00  0.00000000E+00
  0.00000000E+00  0.00000000E+00  0.00000000E+00
  0.00000000E+00  0.00000000E+00  0.00000000E+00
  0.00000000E+00  0.00000000E+00  0.00000000E+00
  0.00000000E+00  0.00000000E+00  0.00000000E+00
  0.00000000E+00  0.00000000E+00  0.00000000E+00
  0.00000000E+00  0.00000000E+00  0.00000000E+00
  0.00000000E+00  0.00000000E+00  0.00000000E+00
  0.00000000E+00  0.00000000E+00  0.00000000E+00
  0.00000000E+00  0.00000000E+00  0.00000000E+00
  0.00000000E+00  0.00000000E+00  0.00000000E+00
  0.00000000E+00  0.00000000E+00  0.00000000E+00
  0.00000000E+00  0.00000000E+00  0.00000000E+00
  0.00000000E+00  0.00000000E+00  0.00000000E+00
  0.00000000E+00  0.00000000E+00  0.00000000E+00
  0.00000000E+00  0.00000000E+00  0.00000000E+00
  0.00000000E+00  0.00000000E+00  0.00000000E+00
  0.00000000E+00  0.00000000E+00  0.00000000E+00
  0.00000000E+00  0.00000000E+00  0.00000000E+00
  0.00000000E+00  0.00000000E+00  0.00000000E+00
  0.00000000E+00  0.00000000E+00  0.00000000E+00
  0.00000000E+00  0.00000000E+00  0.00000000E+00
  0.00000000E+00  0.00000000E+00  0.00000000E+00
  0.00000000E+00  0.00000000E+00  0.00000000E+00
  0.00000000E+00  0.00000000E+00  0.00000000E+00
  0.00000000E+00  0.00000000E+00  0.00000000E+00
  0.00000000E+00  0.00000000E+00  0.00000000E+00
  0.00000000E+00  0.00000000E+00  0.00000000E+00
  0.00000000E+00  0.00000000E+00  0.00000000E+00
  0.00000000E+00  0.00000000E+00  0.00000000E+00
  0.00000000E+00  0.00000000E+00  0.00000000E+00
  0.00000000E+00  0.00000000E+00  0.00000000E+00
  0.00000000E+00  0.00000000E+00  0.00000000E+00
  0.00000000E+00  0.00000000E+00  0.00000000E+00
  0.00000000E+00  0.00000000E+00  0.00000000E+00
  0.00000000E+00  0.00000000E+00  0.00000000E+00
  0.00000000E+00  0.00000000E+00  0.00000000E+00
  0.00000000E+00  0.00000000E+00  0.00000000E+00
  0.00000000E+00  0.00000000E+00  0.00000000E+00
  0.00000000E+00  0.00000000E+00  0.00000000E+00
  0.00000000E+00  0.00000000E+00  0.00000000E+00
  0.00000000E+00  0.00000000E+00  0.00000000E+00
  0.00000000E+00  0.00000000E+00  0.00000000E+00
  0.00000000E+00  0.00000000E+00  0.00000000E+00
  0.00000000E+00  0.00000000E+00  0.00000000E+00
  0.00000000E+00  0.00000000E+00  0.00000000E+00
  0.00000000E+00  0.00000000E+00  0.00000000E+00
  0.00000000E+00  0.00000000E+00  0.00000000E+00
  0.00000000E+00  0.00000000E+00  0.00000000E+00
  0.00000000E+00  0.00000000E+00  0.00000000E+00
  0.00000000E+00  0.00000000E+00  0.00000000E+00
  0.00000000E+00  0.00000000E+00  0.00000000E+00
  0.00000000E+00  0.00000000E+00  0.00000000E+00
  0.00000000E+00  0.00000000E+00  0.00000000E+00
  0.00000000E+00  0.00000000E+00  0.00000000E+00
  0.00000000E+00  0.00000000E+00  0.00000000E+00
  0.00000000E+00  0.00000000E+00  0.00000000E+00
  0.00000000E+00  0.00000000E+00  0.00000000E+00
  0.00000000E+00  0.00000000E+00  0.00000000E+00
  0.00000000E+00  0.00000000E+00  0.00000000E+00
  0.00000000E+00  0.00000000E+00  0.00000000E+00
  0.00000000E+00  0.00000000E+00  0.00000000E+00
  0.00000000E+00  0.00000000E+00  0.00000000E+00
  0.00000000E+00  0.00000000E+00  0.00000000E+00
  0.00000000E+00  0.00000000E+00  0.00000000E+00
  0.00000000E+00  0.00000000E+00  0.00000000E+00
  0.00000000E+00  0.00000000E+00  0.00000000E+00
  0.00000000E+00  0.00000000E+00  0.00000000E+00
  0.00000000E+00  0.00000000E+00  0.00000000E+00
  0.00000000E+00  0.00000000E+00  0.00000000E+00
  0.00000000E+00  0.00000000E+00  0.00000000E+00
  0.00000000E+00  0.00000000E+00  0.00000000E+00
  0.00000000E+00  0.00000000E+00  0.00000000E+00
  0.00000000E+00  0.00000000E+00  0.00000000E+00
  0.00000000E+00  0.00000000E+00  0.00000000E+00
  0.00000000E+00  0.00000000E+00  0.00000000E+00
  0.00000000E+00  0.00000000E+00  0.00000000E+00
  0.00000000E+00  0.00000000E+00  0.00000000E+00
  0.00000000E+00  0.00000000E+00  0.00000000E+00
  0.00000000E+00  0.00000000E+00  0.00000000E+00
  0.00000000E+00  0.00000000E+00  0.00000000E+00
  0.00000000E+00  0.00000000E+00  0.00000000E+00
  0.00000000E+00  0.00000000E+00  0.00000000E+00
  0.00000000E+00  0.00000000E+00  0.00000000E+00
  0.00000000E+00  0.00000000E+00  0.00000000E+00
  0.00000000E+00  0.00000000E+00  0.00000000E+00
  0.00000000E+00  0.00000000E+00  0.00000000E+00
  0.00000000E+00  0.00000000E+00  0.00000000E+00
  0.00000000E+00  0.00000000E+00  0.00000000E+00
  0.00000000E+00  0.00000000E+00  0.00000000E+00
  0.00000000E+00  0.00000000E+00  0.00000000E+00
  0.00000000E+00  0.00000000E+00  0.00000000E+00
  0.00000000E+00  0.00000000E+00  0.00000000E+00
  0.00000000E+00  0.00000000E+00  0.00000000E+00
  0.00000000E+00  0.00000000E+00  0.00000000E+00
  0.00000000E+00  0.00000000E+00  0.00000000E+00
  0.00000000E+00  0.00000000E+00  0.00000000E+00
  0.00000000E+00  0.00000000E+00  0.00000000E+00
  0.00000000E+00  0.00000000E+00  0.00000000E+00
  0.00000000E+00  0.00000000E+00  0.00000000E+00
  0.00000000E+00  0.00000000E+00  0.00000000E+00
  0.00000000E+00  0.00000000E+00  0.00000000E+00
  0.00000000E+00  0.00000000E+00  0.00000000E+00
  0.00000000E+00  0.00000000E+00  0.00000000E+00
  0.00000000E+00  0.00000000E+00  0.00000000E+00
  0.00000000E+00  0.00000000E+00  0.00000000E+00
  0.00000000E+00  0.00000000E+00  0.00000000E+00
  0.00000000E+00  0.00000000E+00  0.00000000E+00
  0.00000000E+00  0.00000000E+00  0.00000000E+00
  0.00000000E+00  0.00000000E+00  0.00000000E+00
  0.00000000E+00  0.00000000E+00  0.00000000E+00
  0.00000000E+00  0.00000000E+00  0.00000000E+00
  0.00000000E+00  0.00000000E+00  0.00000000E+00
  0.00000000E+00  0.00000000E+00  0.00000000E+00
  0.00000000E+00  0.00000000E+00  0.00000000E+00
  0.00000000E+00  0.00000000E+00  0.00000000E+00
  0.00000000E+00  0.00000000E+00  0.00000000E+00
  0.00000000E+00  0.00000000E+00  0.00000000E+00
  0.00000000E+00  0.00000000E+00  0.00000000E+00
  0.00000000E+00  0.00000000E+00  0.00000000E+00
  0.00000000E+00  0.00000000E+00  0.00000000E+00
  0.00000000E+00  0.00000000E+00  0.00000000E+00
  0.00000000E+00  0.00000000E+00  0.00000000E+00
  0.00000000E+00  0.00000000E+00  0.00000000E+00
  0.00000000E+00  0.00000000E+00  0.00000000E+00
  0.00000000E+00  0.00000000E+00  0.00000000E+00
  0.00000000E+00  0.00000000E+00  0.00000000E+00
  0.00000000E+00  0.00000000E+00  0.00000000E+00
  0.00000000E+00  0.00000000E+00  0.00000000E+00
  0.00000000E+00  0.00000000E+00  0.00000000E+00
  0.00000000E+00  0.00000000E+00  0.00000000E+00
  0.00000000E+00  0.00000000E+00  0.00000000E+00
  0.00000000E+00  0.00000000E+00  0.00000000E+00
  0.00000000E+00  0.00000000E+00  0.00000000E+00
  0.00000000E+00  0.00000000E+00  0.00000000E+00
  0.00000000E+00  0.00000000E+00  0.00000000E+00
  0.00000000E+00  0.00000000E+00  0.00000000E+00
  0.00000000E+00  0.00000000E+00  0.00000000E+00
  0.00000000E+00  0.00000000E+00  0.00000000E+00
  0.00000000E+00  0.00000000E+00  0.00000000E+00
  0.00000000E+00  0.00000000E+00  0.00000000E+00
  0.00000000E+00  0.00000000E+00  0.00000000E+00
  0.00000000E+00  0.00000000E+00  0.00000000E+00
  0.00000000E+00  0.00000000E+00  0.00000000E+00
  0.00000000E+00  0.00000000E+00  0.00000000E+00
  0.00000000E+00  0.00000000E+00  0.00000000E+00
  0.00000000E+00  0.00000000E+00  0.00000000E+00
  0.00000000E+00  0.00000000E+00  0.00000000E+00
  0.00000000E+00  0.00000000E+00  0.00000000E+00
  0.00000000E+00  0.00000000E+00  0.00000000E+00
  0.00000000E+00  0.00000000E+00  0.00000000E+00
  0.00000000E+00  0.00000000E+00  0.00000000E+00
  0.00000000E+00  0.00000000E+00  0.00000000E+00
  0.00000000E+00  0.00000000E+00  0.00000000E+00
  0.00000000E+00  0.00000000E+00  0.00000000E+00
  0.00000000E+00  0.00000000E+00  0.00000000E+00
  0.00000000E+00  0.00000000E+00  0.00000000E+00
  0.00000000E+00  0.00000000E+00  0.00000000E+00
  0.00000000E+00  0.00000000E+00  0.00000000E+00
  0.00000000E+00  0.00000000E+00  0.00000000E+00
  0.00000000E+00  0.00000000E+00  0.00000000E+00
  0.00000000E+00  0.00000000E+00  0.00000000E+00
  0.00000000E+00  0.00000000E+00  0.00000000E+00
  0.00000000E+00  0.00000000E+00  0.00000000E+00
  0.00000000E+00  0.00000000E+00  0.00000000E+00
  0.00000000E+00  0.00000000E+00  0.00000000E+00
  0.00000000E+00  0.00000000E+00  0.00000000E+00
  0.00000000E+00  0.00000000E+00  0.00000000E+00
  0.00000000E+00  0.00000000E+00  0.00000000E+00
  0.00000000E+00  0.00000000E+00  0.00000000E+00
  0.00000000E+00  0.00000000E+00  0.00000000E+00
  0.00000000E+00  0.00000000E+00  0.00000000E+00
  0.00000000E+00  0.00000000E+00  0.00000000E+00
  0.00000000E+00  0.00000000E+00  0.00000000E+00
  0.00000000E+00  0.00000000E+00  0.00000000E+00
  0.00000000E+00  0.00000000E+00  0.00000000E+00
  0.00000000E+00  0.00000000E+00  0.00000000E+00
  0.00000000E+00  0.00000000E+00  0.00000000E+00
  0.00000000E+00  0.00000000E+00  0.00000000E+00
  0.00000000E+00  0.00000000E+00  0.00000000E+00
  0.00000000E+00  0.00000000E+00  0.00000000E+00
  0.00000000E+00  0.00000000E+00  0.00000000E+00
  0.00000000E+00  0.00000000E+00  0.00000000E+00
  0.00000000E+00  0.00000000E+00  0.00000000E+00
  0.00000000E+00  0.00000000E+00  0.00000000E+00
  0.00000000E+00  0.00000000E+00  0.00000000E+00
  0.00000000E+00  0.00000000E+00  0.00000000E+00
  0.00000000E+00  0.00000000E+00  0.00000000E+00
  0.00000000E+00  0.00000000E+00  0.00000000E+00
  0.00000000E+00  0.00000000E+00  0.00000000E+00
  0.00000000E+00  0.00000000E+00  0.00000000E+00
  0.00000000E+00  0.00000000E+00  0.00000000E+00
  0.00000000E+00  0.00000000E+00  0.00000000E+00
  0.00000000E+00  0.00000000E+00  0.00000000E+00
  0.00000000E+00  0.00000000E+00  0.00000000E+00
  0.00000000E+00  0.00000000E+00  0.00000000E+00
  0.00000000E+00  0.00000000E+00  0.00000000E+00
  0.00000000E+00  0.00000000E+00  0.00000000E+00
  0.00000000E+00  0.00000000E+00  0.00000000E+00
  0.00000000E+00  0.00000000E+00  0.00000000E+00
  0.00000000E+00  0.00000000E+00  0.00000000E+00
  0.00000000E+00  0.00000000E+00  0.00000000E+00
  0.00000000E+00  0.00000000E+00  0.00000000E+00
  0.00000000E+00  0.00000000E+00  0.00000000E+00
  0.00000000E+00  0.00000000E+00  0.00000000E+00
  0.00000000E+00  0.00000000E+00  0.00000000E+00
  0.00000000E+00  0.00000000E+00  0.00000000E+00
  0.00000000E+00  0.00000000E+00  0.00000000E+00
  0.00000000E+00  0.00000000E+00  0.00000000E+00
  0.00000000E+00  0.00000000E+00  0.00000000E+00
  0.00000000E+00  0.00000000E+00  0.00000000E+00
  0.00000000E+00  0.00000000E+00  0.00000000E+00
  0.00000000E+00  0.00000000E+00  0.00000000E+00
  0.00000000E+00  0.00000000E+00  0.00000000E+00
  0.00000000E+00  0.00000000E+00  0.00000000E+00
  0.00000000E+00  0.00000000E+00  0.00000000E+00
  0.00000000E+00  0.00000000E+00  0.00000000E+00
  0.00000000E+00  0.00000000E+00  0.00000000E+00
  0.00000000E+00  0.00000000E+00  0.00000000E+00
  0.00000000E+00  0.00000000E+00  0.00000000E+00
  0.00000000E+00  0.00000000E+00  0.00000000E+00
  0.00000000E+00  0.00000000E+00  0.00000000E+00
  0.00000000E+00  0.00000000E+00  0.00000000E+00
  0.00000000E+00  0.00000000E+00  0.00000000E+00
  0.00000000E+00  0.00000000E+00  0.00000000E+00
  0.00000000E+00  0.00000000E+00  0.00000000E+00
  0.00000000E+00  0.00000000E+00  0.00000000E+00
  0.00000000E+00  0.00000000E+00  0.00000000E+00
  0.00000000E+00  0.00000000E+00  0.00000000E+00
  0.00000000E+00  0.00000000E+00  0.00000000E+00
  0.00000000E+00  0.00000000E+00  0.00000000E+00
  0.00000000E+00  0.00000000E+00  0.00000000E+00
  0.00000000E+00  0.00000000E+00  0.00000000E+00
  0.00000000E+00  0.00000000E+00  0.00000000E+00
  0.00000000E+00  0.00000000E+00  0.00000000E+00
  0.00000000E+00  0.00000000E+00  0.00000000E+00
  0.00000000E+00  0.00000000E+00  0.00000000E+00
  0.00000000E+00  0.00000000E+00  0.00000000E+00
  0.00000000E+00  0.00000000E+00  0.00000000E+00
  0.00000000E+00  0.00000000E+00  0.00000000E+00
  0.00000000E+00  0.00000000E+00  0.00000000E+00
  0.00000000E+00  0.00000000E+00  0.00000000E+00
  0.00000000E+00  0.00000000E+00  0.00000000E+00
  0.00000000E+00  0.00000000E+00  0.00000000E+00