 B C N 
 1.0
 14.936314146199660   0.000000000000000   0.000000000000000
 -7.468157073099825  12.935227489513863   0.000000000000000
  0.000000000000001   0.000000000000001  13.341276283792837
 B C N 
 142   4 142
Cartesian
  1.244232767741958   0.723672329338041   5.002978606422314 
  4.982938874292561   7.225580789100023   5.002978606422314 
  6.220002063246452   0.721693715304973   5.002978606422314 
  9.949165031170256   7.182390678305458   5.002978606422314 
 11.205593083956073   0.716759365130253   5.002978606422314 
 -3.734088437109715   9.342133579624196  11.673616748318732 
  1.244677528829424   9.342408860935839  11.673616748318732 
  2.489143652996539   2.874219579839247  11.673616748318732 
  6.223512874045822   9.342456095907833  11.673616748318732 
  7.468529335393135   2.874268633417561  11.673616748318732 
 12.446817046018099   2.874307531073895  11.673616748318732 
 -1.241640509622344   9.338520784229972   5.002978606422314 
 -0.011498870118459   2.867776953096494   5.002978606422314 
  4.973033289883666   2.882484810241897   5.002978606422314 
  3.732528415493526   9.364467895389163   5.002978606422314 
  8.712524759272211   9.355710040457065   5.002978606422314 
  9.977339022355226   2.854355164713373   5.002978606422314 
 -4.978878398633816  11.497872442772337  11.673616748318732 
  0.000140338835574  11.497978484815754  11.673616748318732 
  1.244384232145067   5.030384782112056  11.673616748318732 
  6.223663659688893   5.030467139638610  11.673616748318732 
  4.978780438895526  11.498159085095667  11.673616748318732 
 11.202302358638747   5.030308974466452  11.673616748318732 
 -1.235055791489635   5.027805128232836   5.002978606422314 
 -2.488601629540093  11.497445436114992   5.002978606422314 
  2.486373151041572  11.504287395395062   5.002978606422314 
  7.471090084729348  11.513880018763087   5.002978606422314 
  8.743685546632911   4.986514467205267   5.002978606422314 
 -0.000183336742466   7.186409165706743  11.673616748318732 
  1.244406158180138   0.718358944449950  11.673616748318732 
  4.978871668000787   7.186635878343280  11.673616748318732 
  6.223717105531242   0.718322686489978  11.673616748318732 
  9.957664631733117   7.186338674597978  11.673616748318732 
 -2.486963069372817   7.183445293064517   5.002978606422314 
 11.202321706029135   0.718534223047610  11.673616748318732 
  3.733875015109383   0.721717370397661   5.002978606422314 
  2.518740951738145   7.185473436659170   5.002978606422314 
  7.435586860921373   7.240245094662606   5.002978606422314 
  8.712761441374441   0.717794252870413   5.002978606422314 
  2.489312793490599   7.186637129058964  11.673616748318732 
 13.690815767655428   0.721823608113921   5.002978606422314 
 -1.244721730563470   9.342192225760810  11.673616748318732 
 -0.000389291988349   2.874244967996974  11.673616748318732 
  4.978962499364727   2.874219208300540  11.673616748318732 
  3.734105573966294   9.342533871718654  11.673616748318732 
  8.712881084706130   9.342293334949650  11.673616748318732 
  9.957798061376399   2.874309160416261  11.673616748318732 
 -3.734467611300857   9.341097925646329   5.002978606422314 
  1.251435944038571   9.335693278845271   5.002978606422314 
  2.462629024690540   2.871272957395286   5.002978606422314 
  6.218019792079178   9.384876604492799   5.002978606422314 
  7.484385126953908   2.870735623244320   5.002978606422314 
 12.450546045437170   2.871936919441084   5.002978606422314 
 -1.244961949988608   5.030288716394996  11.673616748318732 
 -2.489326809132833  11.497837034734577  11.673616748318732 
  2.489482862090648  11.498135035865534  11.673616748318732 
  3.734109493776399   5.030534791668619  11.673616748318732 
  7.468036986056948  11.498034680196797  11.673616748318732 
 -4.976373142244102  11.503791418638130   5.002978606422314 
  8.713191796072621   5.030363365839720  11.673616748318732 
 -0.000339845662766  11.495646612196044   5.002978606422314 
  1.248072903300314   5.010006425645470   5.002978606422314 
  0.009178248714071   7.181515935460336   5.002978606422314 
  4.976245761121926  11.515021260182902   5.002978606422314 
 11.213650381043557   5.025876428487873   5.002978606422314 
 -2.489464194931121   7.186273996521720  11.673616748318732 
  3.734039140733068   0.718283164970442  11.673616748318732 
  7.468338710652921   7.186567404985025  11.673616748318732 
  8.713126277992826   0.718457652978705  11.673616748318732 
 13.691428100646931   0.718482630634219  11.673616748318732 
 -0.000432969114990   1.436468398825159   1.665917671207691 
  3.734464531930537   7.905879719787504   1.666042482274793 
  4.978919253992911   1.435334180918160   1.665857100139006 
  8.713602027402803   7.905390685246067   1.667888625473081 
  9.958006987641980   1.436815650401402   1.666569182784438 
 -4.978579433177663  10.060325390506611   8.338995080562539 
 -0.000439675710238  10.060614537929181   8.339524087573905 
  1.243456751085361   3.592647725749079   8.341017062956132 
  4.979225907388125  10.061261966713367   8.339360330294394 
  6.224355574473284   3.593087444111795   8.347605840452800 
 11.202593530708029   3.593308719201006   8.339518202907518 
 -2.489573847106557  10.060233880844860   1.666603298756309 
 -1.245388884749244   3.593241807073563   1.665973383618761 
  3.733943261700049   3.592623228431997   1.659734253203077 
  2.489270224764948  10.061051815244205   1.666627117655286 
  7.468608611329604  10.060896558885469   1.666849061974310 
  8.713991347141391   3.592893582512702   1.665467017331593 
 -6.223467729651008  12.215659291494266   8.339684246251513 
 -1.244685580120087  12.215316624325409   8.339614247799160 
 -0.001357573706215   5.749624834252907   8.339751353027221 
  4.979888268993290   5.749350111026752   8.347764167723824 
  3.734266463424892  12.216506588692823   8.339486942654100 
  9.958359269996031   5.749425964501142   8.338469989790692 
 -2.489743084349187   5.749480908244479   1.666728396803976 
 -3.734137831608414  12.215054783526670   1.666257551467730 
  1.244753747948002  12.215987627593488   1.666540519391664 
  2.488946343044042   5.749430839095338   1.661509258341086 
  6.223616834634864  12.216393825229229   1.666376768179460 
  7.468745155299644   5.749202358041773   1.660364064226973 
 -1.245461055498059   7.905321650451389   8.339319448876415 
 -0.000432969114990   1.436468398825160   8.340039541636935 
  3.734464531930537   7.905879719787505   8.339914730569834 
  4.978919253992911   1.435334180918161   8.340100112705622 
  8.713602027402803   7.905390685246068   8.338068587371547 
 -3.733932518283092   7.905149399322832   1.667492658761001 
  9.958006987641980   1.436815650401403   8.339388030060190 
  2.489015620543895   1.435430977688370   1.665872277494710 
  1.243764427733929   7.905685418582416   1.666690906632740 
  6.224194494764573   7.905877480855276   1.666435473149426 
  7.468676344334596   1.436009895237860   1.666502114757934 
  1.243764427733929   7.905685418582417   8.339266306211901 
 12.446952113327679   1.437049341212797   1.666333140326573 
 -2.489573847106556  10.060233880844860   8.339353914088333 
 -1.245388884749243   3.593241807073563   8.339983829225867 
  3.733943261700050   3.592623228431997   8.346222959641551 
  2.489270224764949  10.061051815244205   8.339330095189343 
  7.468608611329605  10.060896558885469   8.339108150870304 
  8.713991347141391   3.592893582512703   8.340490195513034 
 -4.978579433177664  10.060325390506611   1.666962132282102 
 -0.000439675710238  10.060614537929181   1.666433125270737 
  1.243456751085361   3.592647725749078   1.664940149888509 
  4.979225907388124  10.061261966713367   1.666596882550234 
  6.224355574473283   3.593087444111795   1.658351372391827 
 11.202593530708029   3.593308719201005   1.666439009937111 
 -2.489743084349186   5.749480908244480   8.339228816040638 
 -3.734137831608413  12.215054783526670   8.339699661376898 
  1.244753747948002  12.215987627593488   8.339416693452950 
  2.488946343044042   5.749430839095339   8.344447954503542 
  6.223616834634865  12.216393825229229   8.339580444665181 
 -6.223467729651009  12.215659291494266   1.666272966593101 
  7.468745155299644   5.749202358041773   8.345593148617642 
 -1.244685580120088  12.215316624325409   1.666342965045456 
 -0.001357573706216   5.749624834252906   1.666205859817407 
 -1.245461055498059   7.905321650451389   1.666637763968225 
  4.979888268993289   5.749350111026751   1.658193045120803 
  3.734266463424891  12.216506588692823   1.666470270190529 
  9.958359269996031   5.749425964501141   1.667487223053923 
 -3.733932518283091   7.905149399322833   8.338464554083627 
  2.489015620543895   1.435430977688371   8.340084935349905 
  6.224194494764574   7.905877480855277   8.339521739695202 
  7.468676344334597   1.436009895237860   8.339455098086679 
 12.446952113327679   1.437049341212798   8.339624072518054 
  7.391844361312554   5.705000284331416   5.002978606422314 
  6.174986900718487   4.979866567756134   5.002978606422314 
  3.718904095974702   4.997607142640559   5.002978606422314 
  4.962112396629152   5.680271798028866   5.002978606422314 
  1.244870728465029   0.718501462534392   1.669790251770500 
  4.979023292581201   7.185802307013684   1.670064432464411 
  6.223420147039199   0.718384872720570   1.670664849866939 
  9.957427389635118   7.186073834055788   1.671651842404529 
 11.202305897240345   0.718595347699669   1.669211085288087 
 -3.734108987336688   9.341869100755337   8.336394078001629 
  1.244743727559702   9.341815717845623   8.335932333591906 
  2.489664145248929   2.874533763541840   8.332887573157988 
  6.223598361230161   9.341940316666694   8.335942824120963 
  7.468037201774481   2.874481267886788   8.334264965144616 
 12.447036532351865   2.874648086408032   8.336737972976589 
 -1.244717766962493   9.341949938672608   1.669271120497273 
  0.000208987816870   2.874589623160052   1.670099098663428 
  4.978657614700745   2.874390121933920   1.672319608407992 
  3.734239315255770   9.341718860382965   1.670700537400345 
  8.712911963846524   9.341857295456590   1.670169739328148 
  9.957538419162210   2.874504375704707   1.670066555201858 
 -4.978715809898746  11.497729505810158   8.336779196034207 
 -0.000033719218762  11.497743244896609   8.336714530551498 
  1.244951701118884   5.030409003875859   8.333379863017440 
  6.223501465574484   5.029850117317152   8.348766678487435 
  4.978926648858361  11.497882051273843   8.336923151326756 
 11.202261773428997   5.030499907115610   8.335941518026104 
 -1.244624482254458   5.030533455713678   1.669785114221175 
 -2.489368804133508  11.497690502864733   1.669274070862048 
  2.489385751811710  11.497745031775414   1.669353557896521 
  3.734164758056403   5.030155691176108   1.667418661672686 
  7.468307067796740  11.497863289949279   1.669049163700300 
  8.712802214838101   5.030267181901044   1.670213904479845 
  0.000051179474747   7.186214120722206   8.335374238226519 
  1.244870728465029   0.718501462534393   8.336166961074127 
  4.979023292581202   7.185802307013685   8.335892780380217 
  6.223420147039199   0.718384872720570   8.335292362977690 
  9.957427389635118   7.186073834055789   8.334305370440099 
 -2.489467794593025   7.186250222050349   1.669755398098014 
 11.202305897240345   0.718595347699669   8.336746127556541 
  3.734128005453714   0.718363778785708   1.670699196929700 
  2.489656889548470   7.185833234225583   1.673148205665814 
  7.468099279142670   7.185936964771828   1.671112359557894 
  8.712735176968465   0.718507555414325   1.670276030224626 
  2.489656889548470   7.185833234225584   8.332809007178801 
 13.691831219230174   0.718643558552336   1.669097130669112 
 -1.244717766962493   9.341949938672608   8.336686092347369 
  0.000208987816871   2.874589623160053   8.335858114181212 
  4.978657614700746   2.874390121933921   8.333637604436637 
  3.734239315255771   9.341718860382965   8.335256675444297 
  8.712911963846524   9.341857295456590   8.335787473516479 
  9.957538419162210   2.874504375704708   8.335890657642743 
 -3.734108987336688   9.341869100755337   1.669563134842998 
  1.244743727559702   9.341815717845623   1.670024879252723 
  2.489664145248929   2.874533763541839   1.673069639686653 
  6.223598361230160   9.341940316666694   1.670014388723665 
  7.468037201774480   2.874481267886787   1.671692247700013 
 12.447036532351865   2.874648086408031   1.669219239868039 
 -1.244624482254457   5.030533455713679   8.336172098623466 
 -2.489368804133508  11.497690502864733   8.336683141982565 
  2.489385751811711  11.497745031775414   8.336603654948107 
  3.734164758056403   5.030155691176109   8.338538551171942 
  7.468307067796741  11.497863289949279   8.336908049144315 
 -4.978715809898747  11.497729505810158   1.669178016810420 
  8.712802214838101   5.030267181901045   8.335743308364782 
 -0.000033719218763  11.497743244896609   1.669242682293129 
  1.244951701118883   5.030409003875858   1.672577349827187 
  0.000051179474746   7.186214120722205   1.670582974618096 
  6.223501465574483   5.029850117317151   1.657190534357193 
  4.978926648858360  11.497882051273843   1.669034061517872 
 11.202261773428997   5.030499907115609   1.670015694818524 
 -2.489467794593025   7.186250222050350   8.336201814746614 
  3.734128005453714   0.718363778785709   8.335258015914928 
  7.468099279142671   7.185936964771829   8.334844853286732 
  8.712735176968465   0.718507555414326   8.335681182619989 
 13.691831219230174   0.718643558552336   8.336860082175528 
  0.001893812679687   1.439978908764401   5.002978606422314 
  3.738883165551405   7.917278342683902   5.002978606422314 
  4.972412858410228   1.458465910386655   5.002978606422314 
  8.700019280624517   7.913224283049219   5.002978606422314 
  9.960332065714736   1.427868951498402   5.002978606422314 
 -4.978778182223993  10.060768953047509  11.673616748318732 
  0.000061290271584  10.060777418596173  11.673616748318732 
  1.244717378399021   3.593114608276529  11.673616748318732 
  4.978756077978635  10.060759289199343  11.673616748318732 
  6.223475625635747   3.593075617318373  11.673616748318732 
 11.202241931486874   3.593115710669430  11.673616748318732 
 -2.487273801678625  10.058865348221524   5.002978606422314 
 -1.241178859439595   3.593293850845354   5.002978606422314 
  3.715366747532695   3.637862667806794   5.002978606422314 
  2.486587956247466  10.065007242760540   5.002978606422314 
  7.470569617043552  10.080032600112839   5.002978606422314 
  8.729980598084126   3.566325645591109   5.002978606422314 
 -6.223503589573530  12.216671584826035  11.673616748318732 
 -1.244615846311973  12.216665470349007  11.673616748318732 
  0.000056433886772   5.748950883436349  11.673616748318732 
  4.978712684812071   5.749047836417696  11.673616748318732 
  3.734089168262257  12.216624081306403  11.673616748318732 
  9.957567838987194   5.748981701571230  11.673616748318732 
 -2.477864511980222   5.745966578586746   5.002978606422314 
 -3.730832039919409  12.225275795897325   5.002978606422314 
  1.239962588487166  12.219316157184718   5.002978606422314 
  2.546771997834521   5.699442915739460   5.002978606422314 
  6.224347635909496  12.225979521596045   5.002978606422314 
 -1.244658876369257   7.904815445237375  11.673616748318732 
 -0.000010958032025   1.437242504844582  11.673616748318732 
  3.734079704594562   7.904848294277388  11.673616748318732 
  4.978835277311926   1.437271942963102  11.673616748318732 
  8.712857959695375   7.904857113246967  11.673616748318732 
 -3.738893411002115   7.899355114399847   5.002978606422314 
  9.957546298850840   1.437228655264977  11.673616748318732 
  2.494244149752673   1.450643679173042   5.002978606422314 
  1.267106817773669   7.883084854749097   5.002978606422314 
  6.208011982891768   7.954990829231824   5.002978606422314 
  7.460871220671701   1.444932144323201   5.002978606422314 
  1.244785228581897   7.904837556269679  11.673616748318732 
 12.448647155992886   1.438702270031576   5.002978606422314 
 -2.489354684800950  10.060748724448812  11.673616748318732 
 -1.244685247927247   3.593088551251331  11.673616748318732 
  3.734103170005832   3.593152856563164  11.673616748318732 
  2.489415129902084  10.060754572610216  11.673616748318732 
  7.468132609810740  10.060792968713699  11.673616748318732 
  8.712859172862853   3.593091341961067  11.673616748318732 
 -4.976442886388922  10.067071509970370   5.002978606422314 
  0.005118978947805  10.054053006500801   5.002978606422314 
  1.241066621428778   3.588913020794281   5.002978606422314 
  4.971277704450969  10.083174452160716   5.002978606422314 
  6.211370446534440   3.606704010304995   5.002978606422314 
 11.208578534947982   3.588945151623884   5.002978606422314 
 -2.489381739173095   5.748957556894125  11.673616748318732 
 -3.734056815193092  12.216666778943480  11.673616748318732 
  1.244713276983970  12.216655966825456  11.673616748318732 
  2.489428962387954   5.749015311901599  11.673616748318732 
  6.223471151741567  12.216654619871628  11.673616748318732 
 -6.218020128841135  12.227963498501037   5.002978606422314 
  7.468167511525032   5.749011183384225  11.673616748318732 
 -1.246285841265498  12.221772181842633   5.002978606422314 
  0.023738586262937   5.742715126171635   5.002978606422314 
 -1.235855037590506   7.898421032436506   5.002978606422314 
  3.730677168105347  12.221294366087276   5.002978606422314 
  9.961720199893488   5.737214588054250   5.002978606422314 
 -3.734077282197203   7.904811472271595  11.673616748318732 
  2.489375407023149   1.437288857757955  11.673616748318732 
  6.223411265270712   7.904862267566998  11.673616748318732 
  7.468196860230027   1.437247011282426  11.673616748318732 
 12.446951549253056   1.437238034225572  11.673616748318732 
Generated by cif2cell 2.0.0.  :  Failed to get author information, No journal information. Species order: B C N 
 1.0
 14.936314146199660   0.000000000000000   0.000000000000000
 -7.468157073099825  12.935227489513863   0.000000000000000
  0.000000000000001   0.000000000000001  13.341276283792837
 B C N 
 142   4 142
Cartesian
  1.244232767741958   0.723672329338041   5.002978606422314 
  4.982938874292561   7.225580789100023   5.002978606422314 
  6.220002063246452   0.721693715304973   5.002978606422314 
  9.949165031170256   7.182390678305458   5.002978606422314 
 11.205593083956073   0.716759365130253   5.002978606422314 
 -3.734088437109715   9.342133579624196  11.673616748318732 
  1.244677528829424   9.342408860935839  11.673616748318732 
  2.489143652996539   2.874219579839247  11.673616748318732 
  6.223512874045822   9.342456095907833  11.673616748318732 
  7.468529335393135   2.874268633417561  11.673616748318732 
 12.446817046018099   2.874307531073895  11.673616748318732 
 -1.241640509622344   9.338520784229972   5.002978606422314 
 -0.011498870118459   2.867776953096494   5.002978606422314 
  4.973033289883666   2.882484810241897   5.002978606422314 
  3.732528415493526   9.364467895389163   5.002978606422314 
  8.712524759272211   9.355710040457065   5.002978606422314 
  9.977339022355226   2.854355164713373   5.002978606422314 
 -4.978878398633816  11.497872442772337  11.673616748318732 
  0.000140338835574  11.497978484815754  11.673616748318732 
  1.244384232145067   5.030384782112056  11.673616748318732 
  6.223663659688893   5.030467139638610  11.673616748318732 
  4.978780438895526  11.498159085095667  11.673616748318732 
 11.202302358638747   5.030308974466452  11.673616748318732 
 -1.235055791489635   5.027805128232836   5.002978606422314 
 -2.488601629540093  11.497445436114992   5.002978606422314 
  2.486373151041572  11.504287395395062   5.002978606422314 
  7.471090084729348  11.513880018763087   5.002978606422314 
  8.743685546632911   4.986514467205267   5.002978606422314 
 -0.000183336742466   7.186409165706743  11.673616748318732 
  1.244406158180138   0.718358944449950  11.673616748318732 
  4.978871668000787   7.186635878343280  11.673616748318732 
  6.223717105531242   0.718322686489978  11.673616748318732 
  9.957664631733117   7.186338674597978  11.673616748318732 
 -2.486963069372817   7.183445293064517   5.002978606422314 
 11.202321706029135   0.718534223047610  11.673616748318732 
  3.733875015109383   0.721717370397661   5.002978606422314 
  2.518740951738145   7.185473436659170   5.002978606422314 
  7.435586860921373   7.240245094662606   5.002978606422314 
  8.712761441374441   0.717794252870413   5.002978606422314 
  2.489312793490599   7.186637129058964  11.673616748318732 
 13.690815767655428   0.721823608113921   5.002978606422314 
 -1.244721730563470   9.342192225760810  11.673616748318732 
 -0.000389291988349   2.874244967996974  11.673616748318732 
  4.978962499364727   2.874219208300540  11.673616748318732 
  3.734105573966294   9.342533871718654  11.673616748318732 
  8.712881084706130   9.342293334949650  11.673616748318732 
  9.957798061376399   2.874309160416261  11.673616748318732 
 -3.734467611300857   9.341097925646329   5.002978606422314 
  1.251435944038571   9.335693278845271   5.002978606422314 
  2.462629024690540   2.871272957395286   5.002978606422314 
  6.218019792079178   9.384876604492799   5.002978606422314 
  7.484385126953908   2.870735623244320   5.002978606422314 
 12.450546045437170   2.871936919441084   5.002978606422314 
 -1.244961949988608   5.030288716394996  11.673616748318732 
 -2.489326809132833  11.497837034734577  11.673616748318732 
  2.489482862090648  11.498135035865534  11.673616748318732 
  3.734109493776399   5.030534791668619  11.673616748318732 
  7.468036986056948  11.498034680196797  11.673616748318732 
 -4.976373142244102  11.503791418638130   5.002978606422314 
  8.713191796072621   5.030363365839720  11.673616748318732 
 -0.000339845662766  11.495646612196044   5.002978606422314 
  1.248072903300314   5.010006425645470   5.002978606422314 
  0.009178248714071   7.181515935460336   5.002978606422314 
  4.976245761121926  11.515021260182902   5.002978606422314 
 11.213650381043557   5.025876428487873   5.002978606422314 
 -2.489464194931121   7.186273996521720  11.673616748318732 
  3.734039140733068   0.718283164970442  11.673616748318732 
  7.468338710652921   7.186567404985025  11.673616748318732 
  8.713126277992826   0.718457652978705  11.673616748318732 
 13.691428100646931   0.718482630634219  11.673616748318732 
 -0.000432969114990   1.436468398825159   1.665917671207691 
  3.734464531930537   7.905879719787504   1.666042482274793 
  4.978919253992911   1.435334180918160   1.665857100139006 
  8.713602027402803   7.905390685246067   1.667888625473081 
  9.958006987641980   1.436815650401402   1.666569182784438 
 -4.978579433177663  10.060325390506611   8.338995080562539 
 -0.000439675710238  10.060614537929181   8.339524087573905 
  1.243456751085361   3.592647725749079   8.341017062956132 
  4.979225907388125  10.061261966713367   8.339360330294394 
  6.224355574473284   3.593087444111795   8.347605840452800 
 11.202593530708029   3.593308719201006   8.339518202907518 
 -2.489573847106557  10.060233880844860   1.666603298756309 
 -1.245388884749244   3.593241807073563   1.665973383618761 
  3.733943261700049   3.592623228431997   1.659734253203077 
  2.489270224764948  10.061051815244205   1.666627117655286 
  7.468608611329604  10.060896558885469   1.666849061974310 
  8.713991347141391   3.592893582512702   1.665467017331593 
 -6.223467729651008  12.215659291494266   8.339684246251513 
 -1.244685580120087  12.215316624325409   8.339614247799160 
 -0.001357573706215   5.749624834252907   8.339751353027221 
  4.979888268993290   5.749350111026752   8.347764167723824 
  3.734266463424892  12.216506588692823   8.339486942654100 
  9.958359269996031   5.749425964501142   8.338469989790692 
 -2.489743084349187   5.749480908244479   1.666728396803976 
 -3.734137831608414  12.215054783526670   1.666257551467730 
  1.244753747948002  12.215987627593488   1.666540519391664 
  2.488946343044042   5.749430839095338   1.661509258341086 
  6.223616834634864  12.216393825229229   1.666376768179460 
  7.468745155299644   5.749202358041773   1.660364064226973 
 -1.245461055498059   7.905321650451389   8.339319448876415 
 -0.000432969114990   1.436468398825160   8.340039541636935 
  3.734464531930537   7.905879719787505   8.339914730569834 
  4.978919253992911   1.435334180918161   8.340100112705622 
  8.713602027402803   7.905390685246068   8.338068587371547 
 -3.733932518283092   7.905149399322832   1.667492658761001 
  9.958006987641980   1.436815650401403   8.339388030060190 
  2.489015620543895   1.435430977688370   1.665872277494710 
  1.243764427733929   7.905685418582416   1.666690906632740 
  6.224194494764573   7.905877480855276   1.666435473149426 
  7.468676344334596   1.436009895237860   1.666502114757934 
  1.243764427733929   7.905685418582417   8.339266306211901 
 12.446952113327679   1.437049341212797   1.666333140326573 
 -2.489573847106556  10.060233880844860   8.339353914088333 
 -1.245388884749243   3.593241807073563   8.339983829225867 
  3.733943261700050   3.592623228431997   8.346222959641551 
  2.489270224764949  10.061051815244205   8.339330095189343 
  7.468608611329605  10.060896558885469   8.339108150870304 
  8.713991347141391   3.592893582512703   8.340490195513034 
 -4.978579433177664  10.060325390506611   1.666962132282102 
 -0.000439675710238  10.060614537929181   1.666433125270737 
  1.243456751085361   3.592647725749078   1.664940149888509 
  4.979225907388124  10.061261966713367   1.666596882550234 
  6.224355574473283   3.593087444111795   1.658351372391827 
 11.202593530708029   3.593308719201005   1.666439009937111 
 -2.489743084349186   5.749480908244480   8.339228816040638 
 -3.734137831608413  12.215054783526670   8.339699661376898 
  1.244753747948002  12.215987627593488   8.339416693452950 
  2.488946343044042   5.749430839095339   8.344447954503542 
  6.223616834634865  12.216393825229229   8.339580444665181 
 -6.223467729651009  12.215659291494266   1.666272966593101 
  7.468745155299644   5.749202358041773   8.345593148617642 
 -1.244685580120088  12.215316624325409   1.666342965045456 
 -0.001357573706216   5.749624834252906   1.666205859817407 
 -1.245461055498059   7.905321650451389   1.666637763968225 
  4.979888268993289   5.749350111026751   1.658193045120803 
  3.734266463424891  12.216506588692823   1.666470270190529 
  9.958359269996031   5.749425964501141   1.667487223053923 
 -3.733932518283091   7.905149399322833   8.338464554083627 
  2.489015620543895   1.435430977688371   8.340084935349905 
  6.224194494764574   7.905877480855277   8.339521739695202 
  7.468676344334597   1.436009895237860   8.339455098086679 
 12.446952113327679   1.437049341212798   8.339624072518054 
  7.391844361312554   5.705000284331416   5.002978606422314 
  6.174986900718487   4.979866567756134   5.002978606422314 
  3.718904095974702   4.997607142640559   5.002978606422314 
  4.962112396629152   5.680271798028866   5.002978606422314 
  1.244870728465029   0.718501462534392   1.669790251770500 
  4.979023292581201   7.185802307013684   1.670064432464411 
  6.223420147039199   0.718384872720570   1.670664849866939 
  9.957427389635118   7.186073834055788   1.671651842404529 
 11.202305897240345   0.718595347699669   1.669211085288087 
 -3.734108987336688   9.341869100755337   8.336394078001629 
  1.244743727559702   9.341815717845623   8.335932333591906 
  2.489664145248929   2.874533763541840   8.332887573157988 
  6.223598361230161   9.341940316666694   8.335942824120963 
  7.468037201774481   2.874481267886788   8.334264965144616 
 12.447036532351865   2.874648086408032   8.336737972976589 
 -1.244717766962493   9.341949938672608   1.669271120497273 
  0.000208987816870   2.874589623160052   1.670099098663428 
  4.978657614700745   2.874390121933920   1.672319608407992 
  3.734239315255770   9.341718860382965   1.670700537400345 
  8.712911963846524   9.341857295456590   1.670169739328148 
  9.957538419162210   2.874504375704707   1.670066555201858 
 -4.978715809898746  11.497729505810158   8.336779196034207 
 -0.000033719218762  11.497743244896609   8.336714530551498 
  1.244951701118884   5.030409003875859   8.333379863017440 
  6.223501465574484   5.029850117317152   8.348766678487435 
  4.978926648858361  11.497882051273843   8.336923151326756 
 11.202261773428997   5.030499907115610   8.335941518026104 
 -1.244624482254458   5.030533455713678   1.669785114221175 
 -2.489368804133508  11.497690502864733   1.669274070862048 
  2.489385751811710  11.497745031775414   1.669353557896521 
  3.734164758056403   5.030155691176108   1.667418661672686 
  7.468307067796740  11.497863289949279   1.669049163700300 
  8.712802214838101   5.030267181901044   1.670213904479845 
  0.000051179474747   7.186214120722206   8.335374238226519 
  1.244870728465029   0.718501462534393   8.336166961074127 
  4.979023292581202   7.185802307013685   8.335892780380217 
  6.223420147039199   0.718384872720570   8.335292362977690 
  9.957427389635118   7.186073834055789   8.334305370440099 
 -2.489467794593025   7.186250222050349   1.669755398098014 
 11.202305897240345   0.718595347699669   8.336746127556541 
  3.734128005453714   0.718363778785708   1.670699196929700 
  2.489656889548470   7.185833234225583   1.673148205665814 
  7.468099279142670   7.185936964771828   1.671112359557894 
  8.712735176968465   0.718507555414325   1.670276030224626 
  2.489656889548470   7.185833234225584   8.332809007178801 
 13.691831219230174   0.718643558552336   1.669097130669112 
 -1.244717766962493   9.341949938672608   8.336686092347369 
  0.000208987816871   2.874589623160053   8.335858114181212 
  4.978657614700746   2.874390121933921   8.333637604436637 
  3.734239315255771   9.341718860382965   8.335256675444297 
  8.712911963846524   9.341857295456590   8.335787473516479 
  9.957538419162210   2.874504375704708   8.335890657642743 