 N B C 
 1.0
 17.527899999999772   0.000000000000000   0.000000000000000
 -8.763949999999658  15.179606674993195   0.000000000000000
  0.000000000000001   0.000000000000002  15.000000000000000
 N B C 
  47  47   4
Cartesian
  8.762068694708095  13.732691642772490   1.664981695237080 
 16.277523455752085   0.724971731909033   1.664319265628370 
 15.026620022578630   2.892568444126244   1.664410468568175 
 13.772652386892094   5.059868891664398   1.664459111567055 
 12.517533660560668   7.226380735365653   1.664068495739670 
 11.300645062776214   9.402963697706442   1.666028253792750 
 10.037286361585817  11.591026786408607   1.665129313815660 
 -6.252537664776221  13.749200345868053   1.664131032326190 
  1.255504713704261   0.730108102213899   1.663667276149140 
  0.005570726718909   2.895291136885527   1.664146304408850 
 -1.244082395149148   5.059868891664398   1.664180086189710 
 -2.503737272157097   7.226262936858865   1.664552385291000 
 -3.741099526991360   9.396647760953128   1.665606848393625 
 -4.996476037547550  11.573251220852635   1.665194512707390 
 -3.751628504065154  13.740044749897317   1.664191798759335 
  3.757825400295434   0.729401102369750   1.665204342392325 
  2.514382021009188   2.906937512225059   1.664754040008600 
  1.273347317991906   5.059868891664398   1.665018572400810 
 -0.001701383532944   7.226873584245125   1.665355327777170 
 -1.249147085659352   9.396193880925432   1.665540697176600 
 -2.498637053778468  11.568489590338265   1.665455267951220 
 -1.250323833352990  13.737052235585992   1.664883553102485 
  6.261170534044628   0.724313215793845   1.664053939312260 
  5.006647904391415   2.885101447926372   1.665315577591500 
  3.801717796811062   5.080122560887233   1.666580220950115 
  2.496317640264359   7.232047267728992   1.666007150649240 
  1.244608892323884   9.397871144607352   1.665905747945850 
 -0.000693272624968  11.567971694398480   1.665821503901325 
  1.250003814312308  13.737593495678576   1.664767498261935 
  8.762096483606031   0.725808293997704   1.662570439520745 
  7.506153481925311   2.893530721186350   1.664127406195890 
  6.225192840364452   5.046902537461540   1.665819838281075 
  3.732341273568835   9.398851960525311   1.665862343066730 
  2.497161777864155  11.569236448297657   1.664670723506520 
  3.757115012120131  13.731961475786068   1.664792220371535 
 11.267652007938208   0.723329806902988   1.663976736021195 
 10.010895225381596   2.891691733136788   1.663863739658370 
  8.740418720569723   5.059868891664398   1.665911785175805 
  7.484868030359936   7.218353668440425   1.666846371976755 
  6.230782241877365   9.350147401213443   1.667124891918825 
  5.002855908778429  11.552783095192293   1.665010050125415 
  6.252016799199775  13.741687309175711   1.664058020451825 
 13.770752506444214   0.725738089369098   1.664606166750120 
 12.520630647156052   2.889016593028253   1.664575723404450 
 11.267280635365275   5.047725059685451   1.664121122133300 
 10.016210124449485   7.195751438920369   1.664045429444160 
  7.481938588100015  11.573100604393575   1.664855897547510 
  7.509002985936769  14.458383427201136   1.664639025115050 
 15.024780690001348   1.446847035747928   1.664848508959545 
 13.773135956440120   3.613092572404081   1.664877816188370 
 12.518410482659744   5.778502666772286   1.664162436374175 
 11.265949312399766   7.949165515125884   1.664800008403500 
 10.073124201487644  10.153575655126117   1.667624476777950 
  8.758822356230347  12.284301711167295   1.665248085085830 
 -7.510534288681753  14.462030138080459   1.664453180926185 
  0.002215763241587   1.449697402481389   1.664164413545805 
 -1.247636962359933   3.615259055040233   1.664297124399705 
 -2.499716514202247   5.780988688816737   1.664647640934075 
 -3.754148086049407   7.950452494315469   1.664920758058860 
 -4.983741961627493  10.124951284132386   1.665914540610345 
 -6.244119399083107  12.308340760053992   1.665062319673035 
 -5.002402084098239  14.466173602323110   1.664540276983875 
  2.508975626699534   1.456355254310865   1.664714878353555 
  1.258658730178776   3.620014067233192   1.664738752516755 
  0.011661264490534   5.781941536433338   1.664898391339065 
 -1.252649697965859   7.949944061592070   1.665601730987325 
 -2.494199708298955  10.119737783328796   1.665990957524145 
 -3.747839757332380  12.294821839790654   1.664958793230630 
 -2.500795963642064  14.459966122506698   1.664644175898090 
  5.008382945951050   1.444964057180051   1.665247858363875 
  3.771183199356962   3.626537439006880   1.665869107767375 
  2.526999287848163   5.792406357679145   1.666025968229370 
  1.244773158181649   7.952444802104488   1.666010336187255 
  0.000000000000152  10.119737783328796   1.666196902536330 
 -1.249816802785522  12.292007798565614   1.665821579607195 
 -0.000507267860870  14.460216929394354   1.664141191448145 
  7.510313359794375   1.447596328474730   1.663511834584725 
  6.248936437062722   3.607080652804192   1.665269935608630 
  3.736235207277486   7.960036787910473   1.668478402324710 
  2.489697456156970  10.125768244117918   1.665570787203390 
  1.248816091385413  12.292946058531200   1.665495505129800 
  2.503030177908585  14.456588107071582   1.664664655645905 
 10.013850396481905   1.445873085235608   1.663449890701920 
  8.755745130440067   3.611925584734557   1.664782412980395 
  7.478498810024449   5.773597872521782   1.666131732294555 
  4.986914918860775  10.096597369364879   1.665953583151155 
  3.753344063544925  12.283314954020883   1.664822489956425 
  5.002896178971881  14.460932015631668   1.664570222498685 
 12.519158105333405   1.445127264091940   1.664838768041190 
 11.267882698516948   3.606649371032816   1.664609360872455 
 10.012730240586727   5.760765169077452   1.664773165810680 
  8.756132157212226   7.889582576534945   1.667764408038915 
  7.448061156972238  10.129978817976530   1.668099509384490 
  6.241301073890519  12.298135750616721   1.664797081987710 
  5.024404595564320   5.788792670518980   1.670228730782625 
  5.062110649810180   7.194331207437726   1.672262572699725 
  6.250044286613217   7.923974155924305   1.669215388915275 
  8.766049317113140   9.397222889203764   1.670479131815100 
