B N O                                   
   1.0000000000000000     
     8.7639499999999995  -15.1796066749929999    0.0000000000000000
     8.7639499999999995   15.1796066749929999    0.0000000000000000
     0.0000000000000000    0.0000000000000000   15.0000000000000000
   B    N    O 
    48    47     2
Selective dynamics
Direct
  0.9042344439715990  0.9514867495500414  0.1110156267706014   T   T   T
  0.9042315892705828  0.0942807665636388  0.1111138038069575   T   T   T
  0.9042338859217690  0.2370445098882348  0.1106243138002448   T   T   T
  0.9043314542944522  0.3798588479266438  0.1102168458887215   T   T   T
  0.9043226403195557  0.5226932982007090  0.1104600308605594   T   T   T
  0.9035631304246615  0.6654261975715842  0.1107032507607610   T   T   T
  0.9035214783242350  0.8080676825572901  0.1107226867975350   T   T   T
  0.0469612553594952  0.9515022805319026  0.1106424785843749   T   T   T
  0.0470130094806475  0.0943419489363632  0.1108462552863901   T   T   T
  0.0470102151992014  0.2371251430892355  0.1107094170356880   T   T   T
  0.0470553676897165  0.3798517265517727  0.1101668868345976   T   T   T
  0.0471294614388587  0.5227122693550861  0.1099989627091936   T   T   T
  0.0470695033449778  0.6655906290928441  0.1104092935803855   T   T   T
  0.0468455506929363  0.8084919301654583  0.1105587467329589   T   T   T
  0.1899111890042909  0.9516106927079770  0.1107989126102317   T   T   T
  0.1903663257794825  0.0950329191742089  0.1113379698818107   T   T   T
  0.1898561584044895  0.2375569426435423  0.1114991133340645   T   T   T
  0.1900137463531431  0.3799520348834199  0.1107581671228585   T   T   T
  0.1899722823035284  0.5223008371816663  0.1094813778574567   T   T   T
  0.1904594041041978  0.6654213580531156  0.1098323441880963   T   T   T
  0.1899439618281877  0.8084915672416290  0.1105085729180262   T   T   T
  0.3327554614841283  0.9514446038878258  0.1109241642166464   T   T   T
  0.3329329637167989  0.0946032991632195  0.1114374049233834   T   T   T
  0.3339739497122823  0.2389176822716566  0.1127829640919709   T   T   T
  0.3337513517769546  0.3840100240998539  0.1153692141631664   T   T   T
  0.3338776340363159  0.5197038905826081  0.1133255366867586   T   T   T
  0.3340531764798577  0.6650420152427594  0.1095602952235566   T   T   T
  0.3328982778618140  0.8083768185703788  0.1101564384462189   T   T   T
  0.4755766318261707  0.9515376984390532  0.1110886353826932   T   T   T
  0.4756647070284246  0.0941214102597948  0.1111467481042983   T   T   T
  0.4757445495250067  0.2366407792568851  0.1119841714268939   T   T   T
  0.4766951956874437  0.3801960151411055  0.1130910231089271   T   T   T
  0.4767906696457149  0.6665056193209973  0.1096138347103729   T   T   T
  0.4756755198620830  0.8090727817985499  0.1104457259673103   T   T   T
  0.6184908065518560  0.9517236977558231  0.1115674959243246   T   T   T
  0.6185223320176777  0.0942173600269539  0.1111088811313972   T   T   T
  0.6186303579359933  0.2367552660729071  0.1109099816845844   T   T   T
  0.6186879524037577  0.3792267859613761  0.1116329326436760   T   T   T
  0.6169644194265590  0.5200692342018862  0.1114781382362111   T   T   T
  0.6169855576085934  0.6668465468175505  0.1100485839292549   T   T   T
  0.6186893840401527  0.8093989666677506  0.1111003581902593   T   T   T
  0.7614810354701284  0.9516680904349946  0.1116630374017916   T   T   T
  0.7614037919760391  0.0942814674361704  0.1113423190699609   T   T   T
  0.7614780853694653  0.2369571123308661  0.1105298885942760   T   T   T
  0.7615692127516476  0.3796741945656602  0.1105980625640706   T   T   T
  0.7615440563885997  0.5224530146806219  0.1110222621267890   T   T   T
  0.7589833872340604  0.6644300621434190  0.1109519495529923   T   T   T
  0.7615103701611090  0.8089406973072205  0.1113303474296919   T   T   T
  0.9514901426042424  0.9034691109570727  0.1106719527925443   T   T   T
  0.9516108241237947  0.0464431498059340  0.1109107458684192   T   T   T
  0.9514062872207816  0.1891884711040876  0.1107851895239098   T   T   T
  0.9514489908258310  0.3320958425733446  0.1102757644938666   T   T   T
  0.9517050292088971  0.4751117052336316  0.1101761565659346   T   T   T
  0.9515707380370007  0.6180183835610751  0.1105451691370518   T   T   T
  0.9514459309718138  0.7607174632146358  0.1105844378326345   T   T   T
  0.0944877473338992  0.9037041723842631  0.1105576307651277   T   T   T
  0.0945962560976520  0.0465351680677027  0.1108135252937366   T   T   T
  0.0939193543378499  0.1888439973570888  0.1108596093337733   T   T   T
  0.0937102173548307  0.3318152109300514  0.1104389534240210   T   T   T
  0.0940219497708758  0.4750746509886903  0.1097570686254775   T   T   T
  0.0946828845008366  0.6181446462046559  0.1100677138848429   T   T   T
  0.0945241020670821  0.7609429505922660  0.1105289308484533   T   T   T
  0.2374334384486274  0.9038079030411432  0.1107502844422072   T   T   T
  0.2375489274202471  0.0466216319607466  0.1111391529270690   T   T   T
  0.2378396647219285  0.1896221727734946  0.1120416831895283   T   T   T
  0.2358837283596281  0.3309560995057756  0.1117767251574253   T   T   T
  0.2359736193244061  0.4748632806574150  0.1099159114938770   T   T   T
  0.2379374649221513  0.6182443432085165  0.1093643495926892   T   T   T
  0.2375381929924283  0.7610377323064182  0.1101518345078916   T   T   T
  0.3803734822960217  0.9039114721212462  0.1107852703315879   T   T   T
  0.3804454133091448  0.0465916885890384  0.1111274578103719   T   T   T
  0.3806919284790096  0.1894015157339224  0.1120678046352560   T   T   T
  0.3818140940034065  0.3331979588124407  0.1140866562475924   T   T   T
  0.3773908373869670  0.4736830266487470  0.1192855740211133   T   T   T
  0.3819204301631865  0.6185697415526178  0.1102288611606435   T   T   T
  0.3806556751418562  0.7612882446771864  0.1095853615238874   T   T   T
  0.5234332236354469  0.9044827776458417  0.1111949599636876   T   T   T
  0.5233621147776049  0.0466831152051949  0.1111194496142668   T   T   T
  0.5235508278708446  0.1890214016220739  0.1112352977822090   T   T   T
  0.5238724538020066  0.3312704696572648  0.1123813152419085   T   T   T
  0.5238692370612967  0.7625855188038386  0.1103809674958622   T   T   T
  0.6664844085380657  0.9046244150824981  0.1116745930184958   T   T   T
  0.6662391009867350  0.0468725522039080  0.1115109150397820   T   T   T
  0.6663124702517227  0.1892906412153010  0.1106451069315163   T   T   T
  0.6665578234669342  0.3318268232597839  0.1109568763061834   T   T   T
  0.6670466180549078  0.4746078987817509  0.1114713576463076   T   T   T
  0.6631920201862633  0.6165620305854524  0.1108301920010478   T   T   T
  0.6670439905085552  0.7623704506231437  0.1112438087938221   T   T   T
  0.8091974993164007  0.9041308891983372  0.1114403851731961   T   T   T
  0.8089898906793966  0.0467448714570795  0.1115235760958077   T   T   T
  0.8089156734817773  0.1893525461717638  0.1107636857917912   T   T   T
  0.8090742392591420  0.3320966858805887  0.1102665010286008   T   T   T
  0.8092650103485651  0.4749535998450580  0.1106634684949722   T   T   T
  0.8081805360643717  0.6177750538650887  0.1108902375312413   T   T   T
  0.8081621727653198  0.7602763899248532  0.1109385804517546   T   T   T
  0.5280664213223031  0.6274869339227079  0.1078759703001219   T   T   T
  0.5280133918268373  0.4704633103657987  0.1120416812514374   T   T   T

  0.00000000E+00  0.00000000E+00  0.00000000E+00
  0.00000000E+00  0.00000000E+00  0.00000000E+00
  0.00000000E+00  0.00000000E+00  0.00000000E+00
  0.00000000E+00  0.00000000E+00  0.00000000E+00
  0.00000000E+00  0.00000000E+00  0.00000000E+00
  0.00000000E+00  0.00000000E+00  0.00000000E+00
  0.00000000E+00  0.00000000E+00  0.00000000E+00
  0.00000000E+00  0.00000000E+00  0.00000000E+00
  0.00000000E+00  0.00000000E+00  0.00000000E+00
  0.00000000E+00  0.00000000E+00  0.00000000E+00
  0.00000000E+00  0.00000000E+00  0.00000000E+00
  0.00000000E+00  0.00000000E+00  0.00000000E+00
  0.00000000E+00  0.00000000E+00  0.00000000E+00
  0.00000000E+00  0.00000000E+00  0.00000000E+00
  0.00000000E+00  0.00000000E+00  0.00000000E+00
  0.00000000E+00  0.00000000E+00  0.00000000E+00
  0.00000000E+00  0.00000000E+00  0.00000000E+00
  0.00000000E+00  0.00000000E+00  0.00000000E+00
  0.00000000E+00  0.00000000E+00  0.00000000E+00
  0.00000000E+00  0.00000000E+00  0.00000000E+00
  0.00000000E+00  0.00000000E+00  0.00000000E+00
  0.00000000E+00  0.00000000E+00  0.00000000E+00
  0.00000000E+00  0.00000000E+00  0.00000000E+00
  0.00000000E+00  0.00000000E+00  0.00000000E+00
  0.00000000E+00  0.00000000E+00  0.00000000E+00
  0.00000000E+00  0.00000000E+00  0.00000000E+00
  0.00000000E+00  0.00000000E+00  0.00000000E+00
  0.00000000E+00  0.00000000E+00  0.00000000E+00
  0.00000000E+00  0.00000000E+00  0.00000000E+00
  0.00000000E+00  0.00000000E+00  0.00000000E+00
  0.00000000E+00  0.00000000E+00  0.00000000E+00
  0.00000000E+00  0.00000000E+00  0.00000000E+00
  0.00000000E+00  0.00000000E+00  0.00000000E+00
  0.00000000E+00  0.00000000E+00  0.00000000E+00
  0.00000000E+00  0.00000000E+00  0.00000000E+00
  0.00000000E+00  0.00000000E+00  0.00000000E+00
  0.00000000E+00  0.00000000E+00  0.00000000E+00
  0.00000000E+00  0.00000000E+00  0.00000000E+00
  0.00000000E+00  0.00000000E+00  0.00000000E+00
  0.00000000E+00  0.00000000E+00  0.00000000E+00
  0.00000000E+00  0.00000000E+00  0.00000000E+00
  0.00000000E+00  0.00000000E+00  0.00000000E+00
  0.00000000E+00  0.00000000E+00  0.00000000E+00
  0.00000000E+00  0.00000000E+00  0.00000000E+00
  0.00000000E+00  0.00000000E+00  0.00000000E+00
  0.00000000E+00  0.00000000E+00  0.00000000E+00
  0.00000000E+00  0.00000000E+00  0.00000000E+00
  0.00000000E+00  0.00000000E+00  0.00000000E+00
  0.00000000E+00  0.00000000E+00  0.00000000E+00
  0.00000000E+00  0.00000000E+00  0.00000000E+00
  0.00000000E+00  0.00000000E+00  0.00000000E+00
  0.00000000E+00  0.00000000E+00  0.00000000E+00
  0.00000000E+00  0.00000000E+00  0.00000000E+00
  0.00000000E+00  0.00000000E+00  0.00000000E+00
  0.00000000E+00  0.00000000E+00  0.00000000E+00
  0.00000000E+00  0.00000000E+00  0.00000000E+00
  0.00000000E+00  0.00000000E+00  0.00000000E+00
  0.00000000E+00  0.00000000E+00  0.00000000E+00
  0.00000000E+00  0.00000000E+00  0.00000000E+00
  0.00000000E+00  0.00000000E+00  0.00000000E+00
  0.00000000E+00  0.00000000E+00  0.00000000E+00
  0.00000000E+00  0.00000000E+00  0.00000000E+00
  0.00000000E+00  0.00000000E+00  0.00000000E+00
  0.00000000E+00  0.00000000E+00  0.00000000E+00
  0.00000000E+00  0.00000000E+00  0.00000000E+00
  0.00000000E+00  0.00000000E+00  0.00000000E+00
  0.00000000E+00  0.00000000E+00  0.00000000E+00
  0.00000000E+00  0.00000000E+00  0.00000000E+00
  0.00000000E+00  0.00000000E+00  0.00000000E+00
  0.00000000E+00  0.00000000E+00  0.00000000E+00
  0.00000000E+00  0.00000000E+00  0.00000000E+00
  0.00000000E+00  0.00000000E+00  0.00000000E+00
  0.00000000E+00  0.00000000E+00  0.00000000E+00
  0.00000000E+00  0.00000000E+00  0.00000000E+00
  0.00000000E+00  0.00000000E+00  0.00000000E+00
  0.00000000E+00  0.00000000E+00  0.00000000E+00
  0.00000000E+00  0.00000000E+00  0.00000000E+00
  0.00000000E+00  0.00000000E+00  0.00000000E+00
  0.00000000E+00  0.00000000E+00  0.00000000E+00
  0.00000000E+00  0.00000000E+00  0.00000000E+00
  0.00000000E+00  0.00000000E+00  0.00000000E+00
  0.00000000E+00  0.00000000E+00  0.00000000E+00
  0.00000000E+00  0.00000000E+00  0.00000000E+00
  0.00000000E+00  0.00000000E+00  0.00000000E+00
  0.00000000E+00  0.00000000E+00  0.00000000E+00
  0.00000000E+00  0.00000000E+00  0.00000000E+00
  0.00000000E+00  0.00000000E+00  0.00000000E+00
  0.00000000E+00  0.00000000E+00  0.00000000E+00
  0.00000000E+00  0.00000000E+00  0.00000000E+00
  0.00000000E+00  0.00000000E+00  0.00000000E+00
  0.00000000E+00  0.00000000E+00  0.00000000E+00
  0.00000000E+00  0.00000000E+00  0.00000000E+00
  0.00000000E+00  0.00000000E+00  0.00000000E+00
  0.00000000E+00  0.00000000E+00  0.00000000E+00
  0.00000000E+00  0.00000000E+00  0.00000000E+00
  0.00000000E+00  0.00000000E+00  0.00000000E+00
  0.00000000E+00  0.00000000E+00  0.00000000E+00
