 N Ga B 
 1.0
 17.527899999999772   0.000000000000000   0.000000000000000
 -8.763949999999658  15.179606674993195   0.000000000000000
  0.000000000000001   0.000000000000002  15.000000000000000
 N Ga B 
  48   1  48
Cartesian
  8.780376589371061  13.745961745456134   1.664901598953210 
 16.271833818086346   0.725204335290319   1.665022440243585 
 15.009671768078995   2.888319948269686   1.665086690888175 
 13.759102637050781   5.059868891664398   1.664836226002575 
 12.524811648037872   7.226302911380214   1.664565065774085 
 11.290486182285509   9.396062080093825   1.665781194915150 
 10.042044497740385  11.570892118188281   1.665714534421170 
 -6.242595418461475  13.723916115662137   1.664911768788750 
  1.249798510010498   0.702617901639658   1.664901598953210 
 -0.023738160723840   2.860101777869914   1.664730697364970 
 -1.272702560644503   5.040852214260220   1.664478858135540 
 -2.500882460024795   7.217365158137164   1.664902197392580 
 -3.733176119332327   9.388148732415040   1.665179603543265 
 -4.983269566123993  11.556665020647158   1.665097964760285 
 -3.736037987629989  13.716933483402856   1.665097964760285 
  3.764298016409211   0.697516255486134   1.665714534421170 
  2.481087890723771   2.835571772892876   1.665025567341840 
  1.202207419714660   4.987781734766382   1.664441250482295 
 -0.002318348980088   7.199962495412088   1.665311006038875 
 -1.222459459774780   9.379869501982281   1.665307814792220 
 -2.477360435970773  11.550056684958978   1.664949136700655 
 -1.233001070104935  13.718578945492828   1.665179603543265 
  6.271976920584912   0.703749060573808   1.665781194915150 
  5.009204463717024   2.856846445479956   1.665304220159340 
  3.703050433573658   4.957697386930659   1.664731859405415 
  2.454565670553976   7.102303050232925   1.665953779111410 
  1.300048497669854   9.369168620282146   1.666428738007440 
  0.029527283552292  11.548374151827668   1.665307814792220 
  1.263099480973886  13.736773118748934   1.664902197392580 
  8.768206213643742   0.719671435050971   1.664565065774085 
  7.510795729630137   2.884645519617653   1.664910411722985 
  6.244653373691939   5.049339563182539   1.665603410972910 
  3.840470254721282   9.502760204483694   1.665953779111410 
  2.527452684509535  11.581654456962761   1.665311006038875 
  3.762104931727126  13.761394597406605   1.664478858135540 
 11.261514032186005   0.733961092761430   1.664836226002575 
 10.008662235238909   2.897297860776060   1.664964627268560 
  8.750684901375516   5.067541686958452   1.664630280928095 
  7.513432639126531   7.246929714505130   1.665603410972910 
  6.321995621750879   9.493843515121949   1.664731859405415 
  5.045520305339325  11.644594922082945   1.664441250482295 
  6.275172408933027  13.770134916848040   1.664730697364970 
 13.767439720919668   0.736710927799683   1.665086690888175 
 12.509923999829908   2.897143981527746   1.665570054160350 
 11.259159854205048   5.063223271538894   1.664964627268560 
 10.021183850261252   7.232765291237564   1.664910411722985 
  8.794462921700877   9.413106414487668   1.665304220159340 
  7.548829042121803  11.613156926721963   1.665025567341840 
  4.283207703028196   7.646840850022838   1.668097907614635 
  7.524736114079284  14.469263056850428   1.665149771956695 
 15.019162066582329   1.448440975158300   1.665430933462515 
 13.761682440317612   3.614836624382143   1.665562775128080 
 12.512575942720336   5.782592622862791   1.664839251546000 
 11.274197971029540   7.950505005617169   1.665202130591100 
 10.039633363280988  10.123242531978923   1.666086871022625 
  8.793148467129551  12.307254251783419   1.665742096005315 
 -7.497500698837642  14.448442284025838   1.664981114523375 
 -0.004413610571842   1.428393195961502   1.665149771956695 
 -1.264750543641407   3.600797215088071   1.664800289291160 
 -2.511297407357080   5.773727073031982   1.665049710818415 
 -3.745190012065955   7.943123854725631   1.665048051674745 
 -4.983632231820562  10.111641828353349   1.665739149905040 
 -6.236019021785412  12.281732195045128   1.665590307014970 
 -4.990333880618175  14.439322149780327   1.665590307014970 
  2.502147114346987   1.410920278279424   1.665742096005315 
  1.228893975524983   3.564614826753020   1.665001352056200 
 -0.014180056820030   5.754974702102579   1.664788566711690 
 -1.235034758706147   7.930882763636470   1.665527084283540 
 -2.470679785884189  10.102562549465697   1.665382698963960 
 -3.728954309342894  12.272671011597415   1.664963219722365 
 -2.484787099555339  14.439768557652572   1.665739149905040 
  5.016799193953791   1.423438552680898   1.666086871022625 
  3.733786834111024   3.549200191074664   1.664978160574530 
  2.449475286862954   5.701117797324971   1.665210955933260 
  1.290962065136895   7.898947563044170   1.666514665894035 
  0.052287627795590  10.089569961329442   1.665872593463205 
 -1.220447990422452  12.268027540413241   1.665382698963960 
  0.012425664046713  14.451505121039730   1.665048051674745 
  7.515727391413089   1.440643002938321   1.665202130591100 
  6.253002153972000   3.606758673888698   1.665377592515715 
  4.944054621720135   5.691868345816957   1.667666379808965 
  2.568759493480480  10.112157630716073   1.666514665894035 
  1.278104386579827  12.283767449731720   1.665527084283540 
  2.508124690218597  14.467621170666879   1.665049710818415 
 10.012383573885201   1.452132411344182   1.664839251546000 
  8.753660879341972   3.622864888853197   1.665073778529885 
  7.485026380674226   5.798276241528665   1.665399100315455 
  6.306692442038079   8.052026282952712   1.667666379808965 
  5.051392514632489  10.207770632940727   1.665210955933260 
  3.772923395093160  12.314430294335587   1.664788566711690 
  5.013210579697589  14.474544848653178   1.664800289291160 
 12.514268586574181   1.454252451633021   1.665562775128080 
 11.258058368657316   3.619915207605510   1.665459967553805 
 10.003305125106122   5.787312213902757   1.665073778529885 
  8.766924153730491   7.960999303765754   1.665377592515715 
  7.557163602120299  10.171483009775304   1.664978160574530 
  6.291367706748517  12.333076541214758   1.665001352056200 
