 B N Ga 
 1.0
 17.527899999999772   0.000000000000000   0.000000000000000
 -8.763949999999658  15.179606674993195   0.000000000000000
  0.000000000000001   0.000000000000002  15.000000000000000
 B N Ga 
  47  49   1
Cartesian
  7.523704970801024  14.520883007480535   1.665516513686325 
 15.029698140202987   1.491987967098216   1.665843046899240 
 13.768517751818990   3.641618261123448   1.666451895678960 
 12.492902907948682   5.791341106193199   1.664736832424415 
 11.170218822059299   7.939004600012439   1.665219041468235 
  9.961740673290112  10.108165233933882   1.666874827612395 
  8.762168285686091  12.335843794286475   1.666038255827925 
 -7.508208293271872  14.474355949766947   1.665487019506635 
  0.012944747625681   1.472737772923081   1.664750563769805 
 -1.241837576152338   3.639794770445938   1.665104150428020 
 -2.511299948606428   5.796628251285538   1.664867134352895 
 -3.803193740355550   7.944996723708340   1.665151663193340 
 -5.051980318130198  10.097435716521060   1.665153349341585 
 -6.287056201469824  12.268926094914233   1.665505228514115 
 -5.023777289166549  14.417147790013320   1.666013511902325 
  2.517896880652025   1.441178844369019   1.664934028456425 
  1.270460219009132   3.607476290799604   1.663269136547880 
  0.016092619381351   5.789754735963013   1.664482001403705 
 -1.264810672556842   7.949459215856062   1.666513042520955 
 -2.529043961638531  10.099665619283476   1.666266420737850 
 -3.782067321992681  12.252433146463590   1.665312944295390 
 -2.519307507777691  14.400963017103336   1.665586102524570 
  4.999902011325585   1.365849887710101   1.666186841118540 
  3.802285761679712   3.589554684601547   1.664018551271415 
  2.525800991823102   5.744922135683434   1.666447956201030 
  1.267405371090650   7.953207856906199   1.669815019430790 
 -0.007918679161961  10.114396562507695   1.667798181276345 
 -1.272084038728477  12.259936165743644   1.665115999933860 
 -0.014000283291427  14.427609186491145   1.664925487234275 
  7.519492341830103   1.350995253211110   1.666046502616575 
  6.289291669913585   3.422585523260370   1.662774585368715 
  5.211309256057826   5.628680246881979   1.662292091007030 
  2.470322535883083  10.217418611949759   1.670146150753890 
  1.221216813973450  12.319249293706761   1.664257086942465 
  2.485353120938974  14.493074172834069   1.664227764730740 
 10.012851513670331   1.423146944172803   1.666208914824150 
  8.772544110633079   3.527933231146430   1.664808190511880 
  7.515326829210103   5.581496359414137   1.661445612912675 
  4.971451719320222  10.351870481191138   1.666320748809915 
  3.723291661963218  12.394666404163535   1.662814586264910 
  5.003843325544871  14.528248763153776   1.664265267334995 
 12.515025121676695   1.478542253882684   1.666112284319790 
 11.258648357574303   3.616055860121484   1.665910879956705 
  9.981378141226767   5.761748773217351   1.664458767253200 
  8.591624460076940   7.952118886460057   1.666475350608030 
  7.500883055353823  10.209126862369537   1.665103282806570 
  6.269380556407842  12.410530757395490   1.663461372392925 
  8.764568414958106  13.774022136067384   1.665719200977240 
 16.285489703703796   0.774546678539953   1.665168446604165 
 15.027318506568957   2.931275902153099   1.666055747937525 
 13.754291530246622   5.083844538607020   1.665093513546630 
 12.444409853706199   7.231522052650964   1.664361043244940 
 11.198895589596670   9.376590790240742   1.665428148859650 
  9.979455802742084  11.553376857733056   1.666042365174165 
 -6.278921784563224  13.713742657426410   1.665416707549425 
  1.261380518250768   0.740231635976973   1.664534550198480 
  0.014211744886699   2.912044827769776   1.663842409302735 
 -1.245305683052503   5.081825467112972   1.664008076940210 
 -2.531661904468959   7.236052613781453   1.664975125627245 
 -3.796524659538188   9.382718577042919   1.665223975004745 
 -5.043641800921287  11.536872528229848   1.664954370773415 
 -3.776673878490090  13.692523021657074   1.665207057538830 
  3.745598461789348   0.681033879528578   1.665946356483690 
  2.536840974382522   2.897246069514678   1.663691537284785 
  1.277477727114726   5.044015590189440   1.663041202605765 
  0.006356579598138   7.234834792832595   1.666245859544085 
 -1.265004904761250   9.389716009654617   1.667097473837235 
 -2.528214271517519  11.538377402960467   1.665264728277630 
 -1.264817930843292  13.699177562430670   1.664566325163390 
  6.254051957964746   0.659191988867979   1.666144162018635 
  5.011260640093605   2.805121376938789   1.664780963187345 
  3.861470732543448   5.079348158130738   1.663987045436070 
  2.488019305274457   7.153521746423911   1.671526706937225 
  1.264625981936640   9.408025021652701   1.669526706878595 
 -0.013302958695569  11.558463471626769   1.665419408616195 
  1.240317850984628  13.749878489606335   1.663816019950575 
  8.771263801127136   0.679354986886164   1.665729654390705 
  7.544031714689390   2.777623996880460   1.665050268720510 
  6.334049978414505   4.825339370794306   1.658774512486335 
  5.814247572147116   7.057262202218621   1.666261275756840 
  3.768395172444794   9.659099848869584   1.675318564983780 
  2.477916819090057  11.647660417993416   1.663712307113010 
  3.744037667543617  13.815769913228390   1.663136375166495 
 11.266790609028160   0.745529197803771   1.665506120588010 
 10.023206710593573   2.863903484012905   1.665697959004530 
  8.769924783538340   4.982902524237006   1.663131921909300 
  7.197880988449886   7.033380048602141   1.664795844849045 
  6.213524601467581   9.702655068573849   1.653299929909995 
  5.005242973204884  11.752754406821561   1.661953290309540 
  6.267796316476115  13.830700844007833   1.664066069361810 
 13.772666224507956   0.780894508594993   1.665311036059860 
 12.513782815010945   2.920324335760915   1.666409197596945 
 11.235611959094028   5.068649453401783   1.664500865891190 
  9.856472370050220   7.213925336641197   1.665028485362415 
  8.675021888155001   9.376555962910640   1.667965766130735 
  7.503742157995281  11.651555665071024   1.665006116636010 
  4.126678995839460   7.941011595707324   1.675782710127645 
