B C N                                   
   1.0000000000000000     
     8.7639499999999995  -15.1796066749929999    0.0000000000000000
     8.7639499999999995   15.1796066749929999    0.0000000000000000
     0.0000000000000000    0.0000000000000000   15.0000000000000000
   B    C    N 
    48     2    47
Selective dynamics
Direct
  0.9050242004709095  0.9531343305500437  0.1109977745085006   T   T   T
  0.9055611063132821  0.0966915154792806  0.1110033514267065   T   T   T
  0.9054421127790117  0.2396343159095664  0.1110849418938652   T   T   T
  0.9051228232234546  0.3822480041261070  0.1110453597102261   T   T   T
  0.9044187841673345  0.5245057868754552  0.1110254346022976   T   T   T
  0.9029263325358244  0.6666919272179154  0.1110621191352305   T   T   T
  0.9040867470056768  0.8095927654592310  0.1110441659340851   T   T   T
  0.0468769631219461  0.9512338518421303  0.1109959679765331   T   T   T
  0.0470314555708973  0.0944982484877702  0.1109734807335291   T   T   T
  0.0479332034035543  0.2385571863576885  0.1109929272674723   T   T   T
  0.0485659082771671  0.3819085302941110  0.1110450634241945   T   T   T
  0.0486812775034699  0.5243120647250181  0.1110321391405501   T   T   T
  0.0478218251875659  0.6662728194569947  0.1110325365111522   T   T   T
  0.0470730355074924  0.8085404387356323  0.1110199572481241   T   T   T
  0.1898675825295300  0.9505569825414636  0.1110549189905618   T   T   T
  0.1889255007511252  0.0926540973161922  0.1110506697030591   T   T   T
  0.1887262115032683  0.2355763908608565  0.1109783121766981   T   T   T
  0.1910675752652601  0.3806912504779512  0.1109813583043175   T   T   T
  0.1928497239664190  0.5241582293094003  0.1109924606917321   T   T   T
  0.1929897656321938  0.6661414568722849  0.1110012265386694   T   T   T
  0.1908046207931108  0.8082675685183907  0.1109939717358217   T   T   T
  0.3333555306926516  0.9508922788591105  0.1110453597032130   T   T   T
  0.3323757636711940  0.0928562911026271  0.1111070270163136   T   T   T
  0.3305091652868833  0.2335326012069469  0.1110222003210782   T   T   T
  0.3299415404682320  0.3748563834536965  0.1110655343653406   T   T   T
  0.3363932439416464  0.5238906502446868  0.1110597512109137   T   T   T
  0.3394437722891535  0.6662578734629280  0.1110406527209411   T   T   T
  0.3346692191997625  0.8085420086139438  0.1109928371152977   T   T   T
  0.4768579552686711  0.9525143802277649  0.1109835164693544   T   T   T
  0.4760031653308966  0.0944878375284938  0.1110192155347464   T   T   T
  0.4751060383711784  0.2361106147389589  0.1110474427026483   T   T   T
  0.4717186549808819  0.3752702918523313  0.1112287396715508   T   T   T
  0.4905031997901609  0.6700363608076121  0.1111039500458330   T   T   T
  0.4782263620609384  0.8104258140276112  0.1110212271484654   T   T   T
  0.6202133151512768  0.9549483543589803  0.1109733677504147   T   T   T
  0.6194561431976292  0.0967251510066278  0.1109796003605767   T   T   T
  0.6187662782086839  0.2390984552317044  0.1110149890922985   T   T   T
  0.6174529491998868  0.3820013267077534  0.1110431118037070   T   T   T
  0.6176987601317041  0.5273156524062036  0.1111841478898654   T   T   T
  0.6119889532465769  0.6720828915549658  0.1110934705024163   T   T   T
  0.6219599438065627  0.8146642535370474  0.1110113124715073   T   T   T
  0.7635484657230203  0.9551767793641004  0.1109750003763240   T   T   T
  0.7627900363551982  0.0973468176230833  0.1110141075652076   T   T   T
  0.7622147302166510  0.2397681369492103  0.1110328208768833   T   T   T
  0.7613752594862323  0.3823169919589190  0.1110181400062298   T   T   T
  0.7603117275484137  0.5249399577253263  0.1110503784929746   T   T   T
  0.7580190569421346  0.6682331076351857  0.1110377854511191   T   T   T
  0.7625815975678081  0.8117421257059534  0.1110414730543145   T   T   T
  0.4665733111063158  0.5102257033574288  0.1111112653837161   T   T   T
  0.5183049749328058  0.4746013257233587  0.1114648977490578   T   T   T
  0.9518486891310102  0.9046309759450921  0.1109749603610807   T   T   T
  0.9522998356420611  0.0481008847109056  0.1109475656664609   T   T   T
  0.9529416084861755  0.1917746500572321  0.1109973822115967   T   T   T
  0.9531740375433572  0.3348057986787117  0.1110427786042996   T   T   T
  0.9529886912332319  0.4773543518716224  0.1109976250491844   T   T   T
  0.9518735884008768  0.6195404483652817  0.1110048382918623   T   T   T
  0.9515831495865980  0.7617608439797282  0.1110169217872084   T   T   T
  0.0946121069156040  0.9035539578447622  0.1109775725620015   T   T   T
  0.0940830381909015  0.0461617283689641  0.1109676632325713   T   T   T
  0.0942028588689876  0.1895051631852678  0.1109279600035395   T   T   T
  0.0959574655531886  0.3339548408383988  0.1109625209095816   T   T   T
  0.0971192544627492  0.4771302419031776  0.1109842545755106   T   T   T
  0.0968974557224199  0.6192971120952321  0.1109889235792589   T   T   T
  0.0953539526802182  0.7612484181269694  0.1109814099779869   T   T   T
  0.2380438002995876  0.9033113213507183  0.1109909150835389   T   T   T
  0.2371091496358609  0.0455139776457211  0.1110669468322559   T   T   T
  0.2358164683744396  0.1873778511989661  0.1109711239793939   T   T   T
  0.2359774765099796  0.3305678465841113  0.1109552880014652   T   T   T
  0.2408284073689236  0.4766076526333926  0.1109671923758243   T   T   T
  0.2426069517612667  0.6192369407373538  0.1109697233509230   T   T   T
  0.2394197838756986  0.7611350900894361  0.1109466942114976   T   T   T
  0.3816024376460647  0.9037915596471029  0.1109636180758613   T   T   T
  0.3806494854401636  0.0460028405748890  0.1110399099478236   T   T   T
  0.3795764643159011  0.1876794596358237  0.1110393234238879   T   T   T
  0.3770365094073641  0.3278299640044522  0.1110394234036627   T   T   T
  0.3782334647727258  0.4704941322527397  0.1110495054790729   T   T   T
  0.3911060282907305  0.6195530204997149  0.1110509248290741   T   T   T
  0.3834367553966446  0.7613831499595374  0.1109900633899424   T   T   T
  0.5250743632894557  0.9056874630527257  0.1109529307249136   T   T   T
  0.5241778493153973  0.0477076880225793  0.1109433661507254   T   T   T
  0.5234296536788385  0.1895900497907204  0.1109962508742486   T   T   T
  0.5219880642874500  0.3308221910682986  0.1110383530209143   T   T   T
  0.5271957000181093  0.7641756760232573  0.1110187517545798   T   T   T
  0.6686457173032980  0.9085394728636440  0.1109349473427739   T   T   T
  0.6675615216249934  0.0497822577634960  0.1109526251128872   T   T   T
  0.6668998699055639  0.1919449083024921  0.1109737898499426   T   T   T
  0.6659248559921548  0.3346467972275454  0.1109941600133020   T   T   T
  0.6650630440759703  0.4782613905962753  0.1110488572272008   T   T   T
  0.6610893765885947  0.6230358608200959  0.1110460093876953   T   T   T
  0.6676186309464869  0.7658396847778866  0.1110117985898831   T   T   T
  0.8101932711918568  0.9066882413011446  0.1109783145392610   T   T   T
  0.8106218860676155  0.0499103311975971  0.1109586355166018   T   T   T
  0.8101975432288901  0.1923940112989503  0.1110245602094581   T   T   T
  0.8096439792496043  0.3349641061872223  0.1109946353640686   T   T   T
  0.8088581793709310  0.4775772399150217  0.1110067615558322   T   T   T
  0.8068150472135457  0.6202656645455845  0.1110365646825319   T   T   T
  0.8087400285758665  0.7631701402611236  0.1110283520571666   T   T   T

  0.00000000E+00  0.00000000E+00  0.00000000E+00
  0.00000000E+00  0.00000000E+00  0.00000000E+00
  0.00000000E+00  0.00000000E+00  0.00000000E+00
  0.00000000E+00  0.00000000E+00  0.00000000E+00
  0.00000000E+00  0.00000000E+00  0.00000000E+00
  0.00000000E+00  0.00000000E+00  0.00000000E+00
  0.00000000E+00  0.00000000E+00  0.00000000E+00
  0.00000000E+00  0.00000000E+00  0.00000000E+00
  0.00000000E+00  0.00000000E+00  0.00000000E+00
  0.00000000E+00  0.00000000E+00  0.00000000E+00
  0.00000000E+00  0.00000000E+00  0.00000000E+00
  0.00000000E+00  0.00000000E+00  0.00000000E+00
  0.00000000E+00  0.00000000E+00  0.00000000E+00
  0.00000000E+00  0.00000000E+00  0.00000000E+00
  0.00000000E+00  0.00000000E+00  0.00000000E+00
  0.00000000E+00  0.00000000E+00  0.00000000E+00
  0.00000000E+00  0.00000000E+00  0.00000000E+00
  0.00000000E+00  0.00000000E+00  0.00000000E+00
  0.00000000E+00  0.00000000E+00  0.00000000E+00
  0.00000000E+00  0.00000000E+00  0.00000000E+00
  0.00000000E+00  0.00000000E+00  0.00000000E+00
  0.00000000E+00  0.00000000E+00  0.00000000E+00
  0.00000000E+00  0.00000000E+00  0.00000000E+00
  0.00000000E+00  0.00000000E+00  0.00000000E+00
  0.00000000E+00  0.00000000E+00  0.00000000E+00
  0.00000000E+00  0.00000000E+00  0.00000000E+00
  0.00000000E+00  0.00000000E+00  0.00000000E+00
  0.00000000E+00  0.00000000E+00  0.00000000E+00
  0.00000000E+00  0.00000000E+00  0.00000000E+00
  0.00000000E+00  0.00000000E+00  0.00000000E+00
  0.00000000E+00  0.00000000E+00  0.00000000E+00
  0.00000000E+00  0.00000000E+00  0.00000000E+00
  0.00000000E+00  0.00000000E+00  0.00000000E+00
  0.00000000E+00  0.00000000E+00  0.00000000E+00
  0.00000000E+00  0.00000000E+00  0.00000000E+00
  0.00000000E+00  0.00000000E+00  0.00000000E+00
  0.00000000E+00  0.00000000E+00  0.00000000E+00
  0.00000000E+00  0.00000000E+00  0.00000000E+00
  0.00000000E+00  0.00000000E+00  0.00000000E+00
  0.00000000E+00  0.00000000E+00  0.00000000E+00
  0.00000000E+00  0.00000000E+00  0.00000000E+00
  0.00000000E+00  0.00000000E+00  0.00000000E+00
  0.00000000E+00  0.00000000E+00  0.00000000E+00
  0.00000000E+00  0.00000000E+00  0.00000000E+00
  0.00000000E+00  0.00000000E+00  0.00000000E+00
  0.00000000E+00  0.00000000E+00  0.00000000E+00
  0.00000000E+00  0.00000000E+00  0.00000000E+00
  0.00000000E+00  0.00000000E+00  0.00000000E+00
  0.00000000E+00  0.00000000E+00  0.00000000E+00
  0.00000000E+00  0.00000000E+00  0.00000000E+00
  0.00000000E+00  0.00000000E+00  0.00000000E+00
  0.00000000E+00  0.00000000E+00  0.00000000E+00
  0.00000000E+00  0.00000000E+00  0.00000000E+00
  0.00000000E+00  0.00000000E+00  0.00000000E+00
  0.00000000E+00  0.00000000E+00  0.00000000E+00
  0.00000000E+00  0.00000000E+00  0.00000000E+00
  0.00000000E+00  0.00000000E+00  0.00000000E+00
  0.00000000E+00  0.00000000E+00  0.00000000E+00
  0.00000000E+00  0.00000000E+00  0.00000000E+00
  0.00000000E+00  0.00000000E+00  0.00000000E+00
  0.00000000E+00  0.00000000E+00  0.00000000E+00
  0.00000000E+00  0.00000000E+00  0.00000000E+00
  0.00000000E+00  0.00000000E+00  0.00000000E+00
  0.00000000E+00  0.00000000E+00  0.00000000E+00
  0.00000000E+00  0.00000000E+00  0.00000000E+00
  0.00000000E+00  0.00000000E+00  0.00000000E+00
  0.00000000E+00  0.00000000E+00  0.00000000E+00
  0.00000000E+00  0.00000000E+00  0.00000000E+00
  0.00000000E+00  0.00000000E+00  0.00000000E+00
  0.00000000E+00  0.00000000E+00  0.00000000E+00
  0.00000000E+00  0.00000000E+00  0.00000000E+00
  0.00000000E+00  0.00000000E+00  0.00000000E+00
  0.00000000E+00  0.00000000E+00  0.00000000E+00
  0.00000000E+00  0.00000000E+00  0.00000000E+00
  0.00000000E+00  0.00000000E+00  0.00000000E+00
  0.00000000E+00  0.00000000E+00  0.00000000E+00
  0.00000000E+00  0.00000000E+00  0.00000000E+00
  0.00000000E+00  0.00000000E+00  0.00000000E+00
  0.00000000E+00  0.00000000E+00  0.00000000E+00
  0.00000000E+00  0.00000000E+00  0.00000000E+00
  0.00000000E+00  0.00000000E+00  0.00000000E+00
  0.00000000E+00  0.00000000E+00  0.00000000E+00
  0.00000000E+00  0.00000000E+00  0.00000000E+00
  0.00000000E+00  0.00000000E+00  0.00000000E+00
  0.00000000E+00  0.00000000E+00  0.00000000E+00
  0.00000000E+00  0.00000000E+00  0.00000000E+00
  0.00000000E+00  0.00000000E+00  0.00000000E+00
  0.00000000E+00  0.00000000E+00  0.00000000E+00
  0.00000000E+00  0.00000000E+00  0.00000000E+00
  0.00000000E+00  0.00000000E+00  0.00000000E+00
  0.00000000E+00  0.00000000E+00  0.00000000E+00
  0.00000000E+00  0.00000000E+00  0.00000000E+00
  0.00000000E+00  0.00000000E+00  0.00000000E+00
  0.00000000E+00  0.00000000E+00  0.00000000E+00
  0.00000000E+00  0.00000000E+00  0.00000000E+00
  0.00000000E+00  0.00000000E+00  0.00000000E+00
  0.00000000E+00  0.00000000E+00  0.00000000E+00
