Species order:X N B                     
   2.51242800000000     
     5.9449720136058266    0.0000000000000000    0.0000000000000000
    -2.9724860068029120    5.1484967885702053   -0.0000000000000001
     0.0000000000000000    0.0000000000000009    5.3101128803662583
   C    O    N    B 
     1     1   144   142
Direct
  0.6200092249425271  0.3915244879805987  0.3750000000000000
  0.4314126905847238  0.3835371936604544  0.3750000000000000
  0.5820833026557006  0.4534053399422562  0.3750000000000000
  0.1110422970250070  0.0555239013462516  0.1250118566689230
  0.6111188419800573  0.5556045166938017  0.1251296243996031
  0.4443956708417287  0.0555537300647556  0.1250924773526189
  0.9443988432366635  0.5555155795142153  0.1250574951567174
  0.7776989730026183  0.0555128431111976  0.1249999902295841
  0.1110686458905524  0.7221829236318731  0.6249771689991378
  0.4443873566060713  0.7221676909643927  0.6249352234372537
  0.2776897312706748  0.2221979071230775  0.6247829576218019
  0.7777657645236991  0.7222525245420550  0.6250561473556744
  0.6110701440806811  0.2222177408057737  0.6247759387959951
  0.9443601682806717  0.2221662580625562  0.6250297504389204
  0.2777265311519479  0.7221756444344221  0.1250059289384741
  0.1110028981789642  0.2221591508215556  0.1249706280901546
  0.4444052488274548  0.2222461408013029  0.1252889576176794
  0.6110808658589717  0.7222156384988191  0.1250991118536378
  0.9444083522209278  0.7221978438771186  0.1250366813338958
  0.7777164590359790  0.2221735315866678  0.1250178916014000
  0.1110714843681897  0.8888667645707347  0.6249805843005056
  0.4443843955106914  0.8888553262443268  0.6249719965214113
  0.2776969279447639  0.3888207159247666  0.6247661651087322
  0.6110809527097383  0.3888875556674412  0.6245392734315486
  0.7777336002991534  0.8888877934341695  0.6250409580537541
  0.9443839724717475  0.3888409338435794  0.6249565921916531
  0.1110357448334073  0.3888291225576099  0.1250133364561075
  0.2777364410084992  0.8888668887147623  0.1250170957896227
  0.6110427337645241  0.8888537045141469  0.1250275478874610
  0.4443910158082053  0.3888708220502587  0.1254644848291941
  0.9444084612193163  0.8888817427241393  0.1249855072759858
  0.7777277661341609  0.3888507314278078  0.1251442325500128
  0.2777224027240212  0.5554947509691650  0.6249271600873141
  0.1110422970250071  0.0555239013462516  0.6249881433310764
  0.6111188419800573  0.5556045166938017  0.6248703756003962
  0.4443956708417287  0.0555537300647556  0.6249075226473813
  0.9443988432366635  0.5555155795142153  0.6249425048432827
  0.1110573978091134  0.5555039439867340  0.1250253473559019
  0.7776989730026183  0.0555128431111976  0.6250000097704224
  0.2777322781871929  0.0555523014244071  0.1251003814636909
  0.4444113653506764  0.5555134155431557  0.1253521532924566
  0.7777394081122904  0.5555447097556376  0.1252098999695400
  0.6110378768156294  0.0555243395250770  0.1250635148727444
  0.4444113653506764  0.5555134155431557  0.6246478467075423
  0.9443673557196228  0.0555174198921153  0.1249486955442333
  0.2777265311519479  0.7221756444344221  0.6249940710615254
  0.1110028981789642  0.2221591508215556  0.6250293719098448
  0.4444052488274548  0.2222461408013029  0.6247110423823208
  0.6110808658589717  0.7222156384988191  0.6249008881463625
  0.9444083522209278  0.7221978438771186  0.6249633186661043
  0.7777164590359790  0.2221735315866678  0.6249821083985998
  0.1110686458905524  0.7221829236318731  0.1250228310008614
  0.4443873566060713  0.7221676909643927  0.1250647765627455
  0.2776897312706748  0.2221979071230775  0.1252170423781980
  0.7777657645236991  0.7222525245420550  0.1249438526443251
  0.6110701440806811  0.2222177408057737  0.1252240612040044
  0.9443601682806717  0.2221662580625562  0.1249702495610797
  0.1110357448334073  0.3888291225576099  0.6249866635438927
  0.2777364410084992  0.8888668887147623  0.6249829042103774
  0.6110427337645241  0.8888537045141469  0.6249724521125392
  0.4443910158082053  0.3888708220502587  0.6245355151708062
  0.9444084612193163  0.8888817427241393  0.6250144927240143
  0.1110714843681897  0.8888667645707347  0.1250194156994945
  0.7777277661341609  0.3888507314278078  0.6248557674499868
  0.4443843955106914  0.8888553262443268  0.1250280034785887
  0.2776969279447639  0.3888207159247666  0.1252338348912680
  0.2777224027240212  0.5554947509691650  0.1250728399126868
  0.6110809527097383  0.3888875556674412  0.1254607265684509
  0.7777336002991534  0.8888877934341695  0.1249590419462453
  0.9443839724717475  0.3888409338435794  0.1250434078083471
  0.1110573978091134  0.5555039439867340  0.6249746526440985
  0.2777322781871929  0.0555523014244071  0.6248996185363093
  0.7777394081122904  0.5555447097556376  0.6247901000304598
  0.6110378768156294  0.0555243395250770  0.6249364851272564
  0.9443673557196228  0.0555174198921153  0.6250513044557667
  0.0529491005536960  0.1094878215895022  0.3750000000000000
  0.5552402634746214  0.6072902694451807  0.3750000000000000
  0.3903683520313426  0.1157862760749409  0.3750000000000000
  0.8918627173137084  0.6120264212467157  0.3750000000000000
  0.7211349922472469  0.1105483175454465  0.3750000000000000
  0.0555282962011095  0.7777578798181399  0.8750000000000000
  0.3888621790883999  0.7777611117852492  0.8750000000000000
  0.2221960201179845  0.2777573968446562  0.8750000000000000
  0.7221926620440369  0.7777571577173766  0.8750000000000000
  0.5555279856051797  0.2777537972061135  0.8750000000000000
  0.8888637014235853  0.2777613434232468  0.8750000000000000
  0.2236292964204825  0.7789269900091046  0.3750000000000000
  0.0528207466321577  0.2767085737449907  0.3750000000000000
  0.3806794424708245  0.2749215093633488  0.3750000000000000
  0.5549980308819900  0.7758735378435335  0.3750000000000000
  0.8913848977093157  0.7792627551272565  0.3750000000000000
  0.7227038051180771  0.2779025298442752  0.3750000000000000
  0.0555262987323837  0.9444238533751129  0.8750000000000000
  0.3888625743175440  0.9444249272354138  0.8750000000000000
  0.2221974486901696  0.4444263430360842  0.8750000000000000
  0.5555266212029198  0.4444212480058304  0.8750000000000000
  0.7221925809202746  0.9444245050906482  0.8750000000000000
  0.8888642410279404  0.4444259158820601  0.8750000000000000
  0.0551943943552178  0.4445479822089405  0.3750000000000000
  0.2236255457874108  0.9462124542301635  0.3750000000000000
  0.5551557285666990  0.9444260554340944  0.3750000000000000
  0.3791986081603002  0.4401680919166738  0.3750000000000000
  0.8877180666783836  0.9433865579666156  0.3750000000000000
  0.7268200401541719  0.4442852396209017  0.3750000000000000
  0.2221934707765877  0.6110919288301238  0.8750000000000000
  0.0555265193672644  0.1110884547656630  0.8750000000000000
  0.5555258937411027  0.6110872696864225  0.8750000000000000
  0.3888614046884188  0.1110870811999555  0.8750000000000000
  0.8888639129759853  0.6110903234757279  0.8750000000000000
  0.0574198398668420  0.6121128735235579  0.3750000000000000
  0.7221910098132118  0.1110889225079176  0.8750000000000000
  0.2202962344699608  0.1102329202469931  0.3750000000000000
  0.3884268082398565  0.6084982666229554  0.3750000000000000
  0.7288896744440353  0.6151242476842632  0.3750000000000000
  0.5555326318862953  0.1131861227321019  0.3750000000000000
  0.3888638045785520  0.6110911940787667  0.8750000000000000
  0.8869546231262841  0.1099057936642765  0.3750000000000000
  0.2221942628489134  0.7777581616469594  0.8750000000000000
  0.0555295358617359  0.2777600707208912  0.8750000000000000
  0.3888610606044623  0.2777552755489184  0.8750000000000000
  0.5555268118767824  0.7777576362379764  0.8750000000000000
  0.8888639344680931  0.7777597632007889  0.8750000000000000
  0.7221948805580436  0.2777551343648326  0.8750000000000000
  0.0574678247166102  0.7790065123117585  0.3750000000000000
  0.3893145499467831  0.7775047709118780  0.3750000000000000
  0.2167125564604487  0.2752364208785359  0.3750000000000000
  0.7218855855198790  0.7766972089120759  0.3750000000000000
  0.5591992781363759  0.2843550252826572  0.3750000000000000
  0.8879154003456741  0.2773082317187155  0.3750000000000000
  0.0555282906021409  0.4444273287528958  0.8750000000000000
  0.2221938623737235  0.9444228645476712  0.8750000000000000
  0.5555254840910979  0.9444252237625610  0.8750000000000000
  0.3888647981680773  0.4444245296432607  0.8750000000000000
  0.8888628469102493  0.9444256244826086  0.8750000000000000
  0.0557654509149153  0.9446405225661405  0.3750000000000000
  0.7221953699832511  0.4444230665683651  0.8750000000000000
  0.3896547698820974  0.9462891858560147  0.3750000000000000
  0.2192571842329054  0.4437294597575320  0.3750000000000000
  0.2228193996029170  0.6113533120114171  0.3750000000000000
  0.7209486855850664  0.9432471033149045  0.3750000000000000
  0.8909760751029329  0.4451753185403800  0.3750000000000000
  0.0555274717647209  0.6110901243548853  0.8750000000000000
  0.2221912256428325  0.1110866410573787  0.8750000000000000
  0.7221971949986691  0.6110906525118742  0.8750000000000000
  0.5555261005696627  0.1110869235133760  0.8750000000000000
  0.8888617969126753  0.1110909487878257  0.8750000000000000
  0.1095159612764008  0.0549225929959796  0.3750000000000000
  0.6178303406761079  0.5576827662181136  0.3750000000000000
  0.4445251950874669  0.0580567354390665  0.3750000000000000
  0.9468488113114639  0.5563953864664910  0.3750000000000000
  0.7760943727539973  0.0543016520922375  0.3750000000000000
  0.1110815102321501  0.7222045461318369  0.8750000000000000
  0.4444212845993553  0.7221979453027030  0.8750000000000000
  0.2777648448452853  0.2222093084009295  0.8750000000000000
  0.7777398218475514  0.7221902261393376  0.8750000000000000
  0.6110771494157005  0.2222071841191063  0.8750000000000000
  0.9444196319444849  0.2222029001817196  0.8750000000000000
  0.2784394443601739  0.7225776556169169  0.3750000000000000
  0.1067149960174937  0.2200234432333550  0.3750000000000000
  0.4460295055670387  0.2284717892976920  0.3750000000000000
  0.6102441269162023  0.7193461393584836  0.3750000000000000
  0.9465792602577425  0.7234010239945416  0.3750000000000000
  0.7771105470384834  0.2214892901679252  0.3750000000000000
  0.1110808894986278  0.8888700114669590  0.8750000000000000
  0.4444168527976546  0.8888695123387227  0.8750000000000000
  0.2777715183935157  0.3888742850667002  0.8750000000000000
  0.6110725342874068  0.3888775495805217  0.8750000000000000
  0.7777445669858487  0.8888569496620649  0.8750000000000000
  0.9444174143128562  0.3888726285287716  0.8750000000000000
  0.1087693934017998  0.3878857858191722  0.3750000000000000
  0.2787430387410976  0.8902162091098995  0.3750000000000000
  0.6100300655458615  0.8875532145282504  0.3750000000000000
  0.9449932545112528  0.8894416818211168  0.3750000000000000
  0.7810226647949974  0.3886197658237804  0.3750000000000000
  0.2777621681944179  0.5555390117445880  0.8750000000000000
  0.1110846127471790  0.0555351172800547  0.8750000000000000
  0.6110765323179641  0.5555235112778190  0.8750000000000000
  0.4444146373150941  0.0555385541014092  0.8750000000000000
  0.9444120433698228  0.5555386022193416  0.8750000000000000
  0.1118975966958930  0.5558248683600167  0.3750000000000000
  0.7777473052740759  0.0555300544839295  0.8750000000000000
  0.2786273636150232  0.0575321928311894  0.3750000000000000
  0.4439552205075404  0.5518553691585442  0.3750000000000000
  0.7815425362737435  0.5571158109038004  0.3750000000000000
  0.6102547558491881  0.0558925237417244  0.3750000000000000
  0.4444291436570723  0.5555299873697185  0.8750000000000000
  0.9421794998969112  0.0540455882295037  0.3750000000000000
  0.2777533222385870  0.7222047032840978  0.8750000000000000
  0.1110931736534855  0.2222047255341623  0.8750000000000000
  0.4444175837004004  0.2222110250657472  0.8750000000000000
  0.6110797324853831  0.7221858164770828  0.8750000000000000
  0.9444096407173149  0.7222017504733201  0.8750000000000000
  0.7777473990044539  0.2222035445919162  0.8750000000000000
  0.1127728160916155  0.7233170233066401  0.3750000000000000
  0.4440391732691774  0.7204558413662530  0.3750000000000000
  0.2716664964937530  0.2200465044041864  0.3750000000000000
  0.7808782471749389  0.7242991055774459  0.3750000000000000
  0.6118588001536787  0.2242644677442965  0.3750000000000000
  0.9422251115953266  0.2209393985621917  0.3750000000000000
  0.1110927368906295  0.3888737465264169  0.8750000000000000
  0.2777504484465527  0.8888720989673441  0.8750000000000000
  0.6110808558400114  0.8888612469727021  0.8750000000000000
  0.4444315930395644  0.3888755099710184  0.8750000000000000
  0.9444119249119707  0.8888635054372438  0.8750000000000000
  0.1123714015780579  0.8901181743845424  0.3750000000000000
  0.7777423348217176  0.3888738974780937  0.8750000000000000
  0.4443299091404410  0.8892056605167283  0.3750000000000000
  0.2705958192384603  0.3853296601535152  0.3750000000000000
  0.2772356710916915  0.5548102058726581  0.3750000000000000
  0.7765094357616849  0.8875178945416642  0.3750000000000000
  0.9446958491299676  0.3885553683157975  0.3750000000000000
  0.1110857107584220  0.5555396043857246  0.8750000000000000
  0.2777523386441800  0.0555389374469977  0.8750000000000000
  0.7777383475215208  0.5555359643551521  0.8750000000000000
  0.6110794733880915  0.0555339759013354  0.8750000000000000
  0.9444164701560663  0.0555304889228161  0.8750000000000000
  0.0554621036751793  0.1110567926918986  0.1249481288116047
  0.5555564999868976  0.6110657599562930  0.1252808006520567
  0.3888590177400674  0.1111584365525696  0.1251224603312505
  0.8888140914311865  0.6110799422868198  0.1250511420941783
  0.7221578534159685  0.1110634524807359  0.1249859795963956
  0.0555037666545566  0.7777458384527191  0.6250025562308810
  0.3888479279814502  0.7777237903141477  0.6249966027550985
  0.2221448245782482  0.2777344680762551  0.6249622117519218
  0.7221827729375213  0.7777543064348846  0.6249836491390012
  0.5555223541394070  0.2778597955687024  0.6247171894790083
  0.8888202344794076  0.2777215342951347  0.6250293382454671
  0.2221828447230660  0.7777435126803185  0.1249912316513627
  0.0554643723265052  0.2777104653518854  0.1249476893790251
  0.3888890252642827  0.2778847367643076  0.1254187257642077
  0.5555188683442437  0.7777204652942493  0.1250515121400891
  0.8888233777274287  0.7777577838118811  0.1249914082915342
  0.7221714779931786  0.2777566617195814  0.1250228449529296
  0.0554935897852696  0.9444151868066650  0.6250203543774070
  0.3888454629016402  0.9444279851011178  0.6249871851396087
  0.2221736347937032  0.4443804098475077  0.6249656021609603
  0.5554920917110481  0.4444745092499608  0.6240362435565361
  0.7221610373345224  0.9443937866530200  0.6250118357262908
  0.8888309302767479  0.4444107160223164  0.6249850835482661
  0.0554994870604332  0.4443942319966074  0.1249830586754761
  0.2221817934102612  0.9444340506271812  0.1250098766035978
  0.5554970605532307  0.9443976926157143  0.1250073277431983
  0.3889013659109482  0.4443859347619004  0.1254830185735650
  0.8888177681194659  0.9444033686573973  0.1249680832606519
  0.7221222920233220  0.4444347453446596  0.1252316771393866
  0.2221837439055010  0.6110578494651966  0.6250028087766494
  0.0554621036751793  0.1110567926918986  0.6250518711883959
  0.5555564999868976  0.6110657599562930  0.6247191993479435
  0.3888590177400674  0.1111584365525696  0.6248775396687500
  0.8888140914311865  0.6110799422868198  0.6249488579058216
  0.0555081371073199  0.6110710290577283  0.1249945905640969
  0.7221578534159685  0.1110634524807359  0.6250140204036043
  0.2221665467363895  0.1111136010711400  0.1250375812460398
  0.3888711364338283  0.6110356450094299  0.1251328915349914
  0.7221399209410563  0.6111089567635493  0.1251501466072442
  0.5554989719862033  0.1111051922443702  0.1250480443981848
  0.3888711364338283  0.6110356450094299  0.6248671084650080
  0.8888044413892159  0.1110500462523584  0.1249591611899792
  0.2221828447230660  0.7777435126803185  0.6250087683486367
  0.0554643723265052  0.2777104653518854  0.6250523106209745
  0.3888890252642827  0.2778847367643076  0.6245812742357920
  0.5555188683442437  0.7777204652942493  0.6249484878599111
  0.8888233777274287  0.7777577838118811  0.6250085917084650
  0.7221714779931786  0.2777566617195814  0.6249771550470707
  0.0555037666545566  0.7777458384527191  0.1249974437691192
  0.3888479279814502  0.7777237903141477  0.1250033972449015
  0.2221448245782482  0.2777344680762551  0.1250377882480783
  0.7221827729375213  0.7777543064348846  0.1250163508609992
  0.5555223541394070  0.2778597955687024  0.1252828105209993
  0.8888202344794076  0.2777215342951347  0.1249706617545326
  0.0554994870604332  0.4443942319966074  0.6250169413245239
  0.2221817934102612  0.9444340506271812  0.6249901233964023
  0.5554970605532307  0.9443976926157143  0.6249926722568019
  0.3889013659109482  0.4443859347619004  0.6245169814264344
  0.8888177681194659  0.9444033686573973  0.6250319167393474
  0.0554935897852696  0.9444151868066650  0.1249796456225929
  0.7221222920233220  0.4444347453446596  0.6247683228606132
  0.3888454629016402  0.9444279851011178  0.1250128148603915
  0.2221736347937032  0.4443804098475077  0.1250343978390394
  0.2221837439055010  0.6110578494651966  0.1249971912233505
  0.5554920917110481  0.4444745092499608  0.1259637564434709
  0.7221610373345224  0.9443937866530200  0.1249881642737097
  0.8888309302767479  0.4444107160223164  0.1250149164517337
  0.0555081371073199  0.6110710290577283  0.6250054094359035
  0.2221665467363895  0.1111136010711400  0.6249624187539603
  0.7221399209410563  0.6111089567635493  0.6248498533927556
  0.5554989719862033  0.1111051922443702  0.6249519556018157
  0.8888044413892159  0.1110500462523584  0.6250408388100205
 
  0.00000000E+00  0.00000000E+00  0.00000000E+00
  0.00000000E+00  0.00000000E+00  0.00000000E+00
  0.00000000E+00  0.00000000E+00  0.00000000E+00
  0.00000000E+00  0.00000000E+00  0.00000000E+00
  0.00000000E+00  0.00000000E+00  0.00000000E+00
  0.00000000E+00  0.00000000E+00  0.00000000E+00
  0.00000000E+00  0.00000000E+00  0.00000000E+00
  0.00000000E+00  0.00000000E+00  0.00000000E+00
  0.00000000E+00  0.00000000E+00  0.00000000E+00
  0.00000000E+00  0.00000000E+00  0.00000000E+00
  0.00000000E+00  0.00000000E+00  0.00000000E+00
  0.00000000E+00  0.00000000E+00  0.00000000E+00
  0.00000000E+00  0.00000000E+00  0.00000000E+00
  0.00000000E+00  0.00000000E+00  0.00000000E+00
  0.00000000E+00  0.00000000E+00  0.00000000E+00
  0.00000000E+00  0.00000000E+00  0.00000000E+00
  0.00000000E+00  0.00000000E+00  0.00000000E+00
  0.00000000E+00  0.00000000E+00  0.00000000E+00
  0.00000000E+00  0.00000000E+00  0.00000000E+00
  0.00000000E+00  0.00000000E+00  0.00000000E+00
  0.00000000E+00  0.00000000E+00  0.00000000E+00
  0.00000000E+00  0.00000000E+00  0.00000000E+00
  0.00000000E+00  0.00000000E+00  0.00000000E+00
  0.00000000E+00  0.00000000E+00  0.00000000E+00
  0.00000000E+00  0.00000000E+00  0.00000000E+00
  0.00000000E+00  0.00000000E+00  0.00000000E+00
  0.00000000E+00  0.00000000E+00  0.00000000E+00
  0.00000000E+00  0.00000000E+00  0.00000000E+00
  0.00000000E+00  0.00000000E+00  0.00000000E+00
  0.00000000E+00  0.00000000E+00  0.00000000E+00
  0.00000000E+00  0.00000000E+00  0.00000000E+00
  0.00000000E+00  0.00000000E+00  0.00000000E+00
  0.00000000E+00  0.00000000E+00  0.00000000E+00
  0.00000000E+00  0.00000000E+00  0.00000000E+00
  0.00000000E+00  0.00000000E+00  0.00000000E+00
  0.00000000E+00  0.00000000E+00  0.00000000E+00
  0.00000000E+00  0.00000000E+00  0.00000000E+00
  0.00000000E+00  0.00000000E+00  0.00000000E+00
  0.00000000E+00  0.00000000E+00  0.00000000E+00
  0.00000000E+00  0.00000000E+00  0.00000000E+00
  0.00000000E+00  0.00000000E+00  0.00000000E+00
  0.00000000E+00  0.00000000E+00  0.00000000E+00
  0.00000000E+00  0.00000000E+00  0.00000000E+00
  0.00000000E+00  0.00000000E+00  0.00000000E+00
  0.00000000E+00  0.00000000E+00  0.00000000E+00
  0.00000000E+00  0.00000000E+00  0.00000000E+00
  0.00000000E+00  0.00000000E+00  0.00000000E+00
  0.00000000E+00  0.00000000E+00  0.00000000E+00
  0.00000000E+00  0.00000000E+00  0.00000000E+00
  0.00000000E+00  0.00000000E+00  0.00000000E+00
  0.00000000E+00  0.00000000E+00  0.00000000E+00
  0.00000000E+00  0.00000000E+00  0.00000000E+00
  0.00000000E+00  0.00000000E+00  0.00000000E+00
  0.00000000E+00  0.00000000E+00  0.00000000E+00
  0.00000000E+00  0.00000000E+00  0.00000000E+00
  0.00000000E+00  0.00000000E+00  0.00000000E+00
  0.00000000E+00  0.00000000E+00  0.00000000E+00
  0.00000000E+00  0.00000000E+00  0.00000000E+00
  0.00000000E+00  0.00000000E+00  0.00000000E+00
  0.00000000E+00  0.00000000E+00  0.00000000E+00
  0.00000000E+00  0.00000000E+00  0.00000000E+00
  0.00000000E+00  0.00000000E+00  0.00000000E+00
  0.00000000E+00  0.00000000E+00  0.00000000E+00
  0.00000000E+00  0.00000000E+00  0.00000000E+00
  0.00000000E+00  0.00000000E+00  0.00000000E+00
  0.00000000E+00  0.00000000E+00  0.00000000E+00
  0.00000000E+00  0.00000000E+00  0.00000000E+00
  0.00000000E+00  0.00000000E+00  0.00000000E+00
  0.00000000E+00  0.00000000E+00  0.00000000E+00
  0.00000000E+00  0.00000000E+00  0.00000000E+00
  0.00000000E+00  0.00000000E+00  0.00000000E+00
  0.00000000E+00  0.00000000E+00  0.00000000E+00
  0.00000000E+00  0.00000000E+00  0.00000000E+00
  0.00000000E+00  0.00000000E+00  0.00000000E+00
  0.00000000E+00  0.00000000E+00  0.00000000E+00
  0.00000000E+00  0.00000000E+00  0.00000000E+00
  0.00000000E+00  0.00000000E+00  0.00000000E+00
  0.00000000E+00  0.00000000E+00  0.00000000E+00
  0.00000000E+00  0.00000000E+00  0.00000000E+00
  0.00000000E+00  0.00000000E+00  0.00000000E+00
  0.00000000E+00  0.00000000E+00  0.00000000E+00
  0.00000000E+00  0.00000000E+00  0.00000000E+00
  0.00000000E+00  0.00000000E+00  0.00000000E+00
  0.00000000E+00  0.00000000E+00  0.00000000E+00
  0.00000000E+00  0.00000000E+00  0.00000000E+00
  0.00000000E+00  0.00000000E+00  0.00000000E+00
  0.00000000E+00  0.00000000E+00  0.00000000E+00
  0.00000000E+00  0.00000000E+00  0.00000000E+00
  0.00000000E+00  0.00000000E+00  0.00000000E+00
  0.00000000E+00  0.00000000E+00  0.00000000E+00
  0.00000000E+00  0.00000000E+00  0.00000000E+00
  0.00000000E+00  0.00000000E+00  0.00000000E+00
  0.00000000E+00  0.00000000E+00  0.00000000E+00
  0.00000000E+00  0.00000000E+00  0.00000000E+00
  0.00000000E+00  0.00000000E+00  0.00000000E+00
  0.00000000E+00  0.00000000E+00  0.00000000E+00
  0.00000000E+00  0.00000000E+00  0.00000000E+00
  0.00000000E+00  0.00000000E+00  0.00000000E+00
  0.00000000E+00  0.00000000E+00  0.00000000E+00
  0.00000000E+00  0.00000000E+00  0.00000000E+00
  0.00000000E+00  0.00000000E+00  0.00000000E+00
  0.00000000E+00  0.00000000E+00  0.00000000E+00
  0.00000000E+00  0.00000000E+00  0.00000000E+00
  0.00000000E+00  0.00000000E+00  0.00000000E+00
  0.00000000E+00  0.00000000E+00  0.00000000E+00
  0.00000000E+00  0.00000000E+00  0.00000000E+00
  0.00000000E+00  0.00000000E+00  0.00000000E+00
  0.00000000E+00  0.00000000E+00  0.00000000E+00
  0.00000000E+00  0.00000000E+00  0.00000000E+00
  0.00000000E+00  0.00000000E+00  0.00000000E+00
  0.00000000E+00  0.00000000E+00  0.00000000E+00
  0.00000000E+00  0.00000000E+00  0.00000000E+00
  0.00000000E+00  0.00000000E+00  0.00000000E+00
  0.00000000E+00  0.00000000E+00  0.00000000E+00
  0.00000000E+00  0.00000000E+00  0.00000000E+00
  0.00000000E+00  0.00000000E+00  0.00000000E+00
  0.00000000E+00  0.00000000E+00  0.00000000E+00
  0.00000000E+00  0.00000000E+00  0.00000000E+00
  0.00000000E+00  0.00000000E+00  0.00000000E+00
  0.00000000E+00  0.00000000E+00  0.00000000E+00
  0.00000000E+00  0.00000000E+00  0.00000000E+00
  0.00000000E+00  0.00000000E+00  0.00000000E+00
  0.00000000E+00  0.00000000E+00  0.00000000E+00
  0.00000000E+00  0.00000000E+00  0.00000000E+00
  0.00000000E+00  0.00000000E+00  0.00000000E+00
  0.00000000E+00  0.00000000E+00  0.00000000E+00
  0.00000000E+00  0.00000000E+00  0.00000000E+00
  0.00000000E+00  0.00000000E+00  0.00000000E+00
  0.00000000E+00  0.00000000E+00  0.00000000E+00
  0.00000000E+00  0.00000000E+00  0.00000000E+00
  0.00000000E+00  0.00000000E+00  0.00000000E+00
  0.00000000E+00  0.00000000E+00  0.00000000E+00
  0.00000000E+00  0.00000000E+00  0.00000000E+00
  0.00000000E+00  0.00000000E+00  0.00000000E+00
  0.00000000E+00  0.00000000E+00  0.00000000E+00
  0.00000000E+00  0.00000000E+00  0.00000000E+00
  0.00000000E+00  0.00000000E+00  0.00000000E+00
  0.00000000E+00  0.00000000E+00  0.00000000E+00
  0.00000000E+00  0.00000000E+00  0.00000000E+00
  0.00000000E+00  0.00000000E+00  0.00000000E+00
  0.00000000E+00  0.00000000E+00  0.00000000E+00
  0.00000000E+00  0.00000000E+00  0.00000000E+00
  0.00000000E+00  0.00000000E+00  0.00000000E+00
  0.00000000E+00  0.00000000E+00  0.00000000E+00
  0.00000000E+00  0.00000000E+00  0.00000000E+00
  0.00000000E+00  0.00000000E+00  0.00000000E+00
  0.00000000E+00  0.00000000E+00  0.00000000E+00
  0.00000000E+00  0.00000000E+00  0.00000000E+00
  0.00000000E+00  0.00000000E+00  0.00000000E+00
  0.00000000E+00  0.00000000E+00  0.00000000E+00
  0.00000000E+00  0.00000000E+00  0.00000000E+00
  0.00000000E+00  0.00000000E+00  0.00000000E+00
  0.00000000E+00  0.00000000E+00  0.00000000E+00
  0.00000000E+00  0.00000000E+00  0.00000000E+00
  0.00000000E+00  0.00000000E+00  0.00000000E+00
  0.00000000E+00  0.00000000E+00  0.00000000E+00
  0.00000000E+00  0.00000000E+00  0.00000000E+00
  0.00000000E+00  0.00000000E+00  0.00000000E+00
  0.00000000E+00  0.00000000E+00  0.00000000E+00
  0.00000000E+00  0.00000000E+00  0.00000000E+00
  0.00000000E+00  0.00000000E+00  0.00000000E+00
  0.00000000E+00  0.00000000E+00  0.00000000E+00
  0.00000000E+00  0.00000000E+00  0.00000000E+00
  0.00000000E+00  0.00000000E+00  0.00000000E+00
  0.00000000E+00  0.00000000E+00  0.00000000E+00
  0.00000000E+00  0.00000000E+00  0.00000000E+00
  0.00000000E+00  0.00000000E+00  0.00000000E+00
  0.00000000E+00  0.00000000E+00  0.00000000E+00
  0.00000000E+00  0.00000000E+00  0.00000000E+00
  0.00000000E+00  0.00000000E+00  0.00000000E+00
  0.00000000E+00  0.00000000E+00  0.00000000E+00
  0.00000000E+00  0.00000000E+00  0.00000000E+00
  0.00000000E+00  0.00000000E+00  0.00000000E+00
  0.00000000E+00  0.00000000E+00  0.00000000E+00
  0.00000000E+00  0.00000000E+00  0.00000000E+00
  0.00000000E+00  0.00000000E+00  0.00000000E+00
  0.00000000E+00  0.00000000E+00  0.00000000E+00
  0.00000000E+00  0.00000000E+00  0.00000000E+00
  0.00000000E+00  0.00000000E+00  0.00000000E+00
  0.00000000E+00  0.00000000E+00  0.00000000E+00
  0.00000000E+00  0.00000000E+00  0.00000000E+00
  0.00000000E+00  0.00000000E+00  0.00000000E+00
  0.00000000E+00  0.00000000E+00  0.00000000E+00
  0.00000000E+00  0.00000000E+00  0.00000000E+00
  0.00000000E+00  0.00000000E+00  0.00000000E+00
  0.00000000E+00  0.00000000E+00  0.00000000E+00
  0.00000000E+00  0.00000000E+00  0.00000000E+00
  0.00000000E+00  0.00000000E+00  0.00000000E+00
  0.00000000E+00  0.00000000E+00  0.00000000E+00
  0.00000000E+00  0.00000000E+00  0.00000000E+00
  0.00000000E+00  0.00000000E+00  0.00000000E+00
  0.00000000E+00  0.00000000E+00  0.00000000E+00
  0.00000000E+00  0.00000000E+00  0.00000000E+00
  0.00000000E+00  0.00000000E+00  0.00000000E+00
  0.00000000E+00  0.00000000E+00  0.00000000E+00
  0.00000000E+00  0.00000000E+00  0.00000000E+00
  0.00000000E+00  0.00000000E+00  0.00000000E+00
  0.00000000E+00  0.00000000E+00  0.00000000E+00
  0.00000000E+00  0.00000000E+00  0.00000000E+00
  0.00000000E+00  0.00000000E+00  0.00000000E+00
  0.00000000E+00  0.00000000E+00  0.00000000E+00
  0.00000000E+00  0.00000000E+00  0.00000000E+00
  0.00000000E+00  0.00000000E+00  0.00000000E+00
  0.00000000E+00  0.00000000E+00  0.00000000E+00
  0.00000000E+00  0.00000000E+00  0.00000000E+00
  0.00000000E+00  0.00000000E+00  0.00000000E+00
  0.00000000E+00  0.00000000E+00  0.00000000E+00
  0.00000000E+00  0.00000000E+00  0.00000000E+00
  0.00000000E+00  0.00000000E+00  0.00000000E+00
  0.00000000E+00  0.00000000E+00  0.00000000E+00
  0.00000000E+00  0.00000000E+00  0.00000000E+00
  0.00000000E+00  0.00000000E+00  0.00000000E+00
  0.00000000E+00  0.00000000E+00  0.00000000E+00
  0.00000000E+00  0.00000000E+00  0.00000000E+00
  0.00000000E+00  0.00000000E+00  0.00000000E+00
  0.00000000E+00  0.00000000E+00  0.00000000E+00
  0.00000000E+00  0.00000000E+00  0.00000000E+00
  0.00000000E+00  0.00000000E+00  0.00000000E+00
  0.00000000E+00  0.00000000E+00  0.00000000E+00
  0.00000000E+00  0.00000000E+00  0.00000000E+00
  0.00000000E+00  0.00000000E+00  0.00000000E+00
  0.00000000E+00  0.00000000E+00  0.00000000E+00
  0.00000000E+00  0.00000000E+00  0.00000000E+00
  0.00000000E+00  0.00000000E+00  0.00000000E+00
  0.00000000E+00  0.00000000E+00  0.00000000E+00
  0.00000000E+00  0.00000000E+00  0.00000000E+00
  0.00000000E+00  0.00000000E+00  0.00000000E+00
  0.00000000E+00  0.00000000E+00  0.00000000E+00
  0.00000000E+00  0.00000000E+00  0.00000000E+00
  0.00000000E+00  0.00000000E+00  0.00000000E+00
  0.00000000E+00  0.00000000E+00  0.00000000E+00
  0.00000000E+00  0.00000000E+00  0.00000000E+00
  0.00000000E+00  0.00000000E+00  0.00000000E+00
  0.00000000E+00  0.00000000E+00  0.00000000E+00
  0.00000000E+00  0.00000000E+00  0.00000000E+00
  0.00000000E+00  0.00000000E+00  0.00000000E+00
  0.00000000E+00  0.00000000E+00  0.00000000E+00
  0.00000000E+00  0.00000000E+00  0.00000000E+00
  0.00000000E+00  0.00000000E+00  0.00000000E+00
  0.00000000E+00  0.00000000E+00  0.00000000E+00
  0.00000000E+00  0.00000000E+00  0.00000000E+00
  0.00000000E+00  0.00000000E+00  0.00000000E+00
  0.00000000E+00  0.00000000E+00  0.00000000E+00
  0.00000000E+00  0.00000000E+00  0.00000000E+00
  0.00000000E+00  0.00000000E+00  0.00000000E+00
  0.00000000E+00  0.00000000E+00  0.00000000E+00
  0.00000000E+00  0.00000000E+00  0.00000000E+00