B C N                                   
   1.0000000000000000     
    17.5278999999999989    0.0000000000000000    0.0000000000000000
    -8.7639499999999995   15.1796066749929999    0.0000000000000000
     0.0000000000000000    0.0000000000000000   15.0000000000000000
   B    C    N 
    46     4    48
Selective dynamics
Direct
  0.9065549810460318  0.9521229970239304  0.1109433453443435   T   T   T
  0.9070555582353522  0.0954122051363533  0.1105760138521232   T   T   T
  0.9071659036748874  0.2383622620909912  0.1105987546154670   T   T   T
  0.9069498432075871  0.3811009447490579  0.1103938456199146   T   T   T
  0.9068624232014346  0.5237714716662236  0.1103740455324634   T   T   T
  0.9076971404431210  0.6674378517126048  0.1113599093066837   T   T   T
  0.9061972045388632  0.8090055707518743  0.1117961176767935   T   T   T
  0.0495306039226896  0.9522980416961764  0.1110858354872620   T   T   T
  0.0499241289159186  0.0955231160500184  0.1106058117268758   T   T   T
  0.0505800966497230  0.2388877703066076  0.1106556998468031   T   T   T
  0.0504345772820636  0.3812213896769636  0.1110934389266701   T   T   T
  0.0506082789928107  0.5236958142207350  0.1111869115123747   T   T   T
  0.0499734888423570  0.6665488589852581  0.1112328681087877   T   T   T
  0.0500030329350012  0.8097346422009659  0.1114768018310220   T   T   T
  0.1925765550737303  0.9522948342069770  0.1107913342787687   T   T   T
  0.1926774590680204  0.0954611929035719  0.1102667117666874   T   T   T
  0.1933510531882789  0.2388589718151430  0.1104225751179142   T   T   T
  0.1944288099312962  0.3821995022033817  0.1121767718912791   T   T   T
  0.1946988997381395  0.5239528809901843  0.1135660083457681   T   T   T
  0.1928998758606552  0.6663728822784004  0.1125387468825269   T   T   T
  0.1927652613008412  0.8093365821277581  0.1111861372963195   T   T   T
  0.3354565758032215  0.9520262968165343  0.1103579424339944   T   T   T
  0.3350896231000621  0.0949724923891184  0.1102075481729890   T   T   T
  0.3357796281013721  0.2389612289874423  0.1100627635390837   T   T   T
  0.3366062028022260  0.3825654632770935  0.1116258947322047   T   T   T
  0.3354604650399015  0.6653580607064502  0.1128367096715089   T   T   T
  0.3355764721920654  0.8087969547853054  0.1105114694713770   T   T   T
  0.4782925878521749  0.9519376254144030  0.1097115885738187   T   T   T
  0.4781856582702188  0.0950413926817556  0.1101617218806457   T   T   T
  0.4772084446150205  0.2374076975807847  0.1099996962276989   T   T   T
  0.4789333925286699  0.3819593697042369  0.1109235157293147   T   T   T
  0.4771605512484312  0.6648331576715978  0.1117681970244802   T   T   T
  0.4781295500708515  0.8086467873277728  0.1091746372001468   T   T   T
  0.6210235809085314  0.9518994201162991  0.1093910829056940   T   T   T
  0.6211516407072568  0.0950735090888609  0.1101419070269473   T   T   T
  0.6210268231367948  0.2381434270605072  0.1101690408888591   T   T   T
  0.6187567613930918  0.3797314690333141  0.1101038399846608   T   T   T
  0.6191962107586126  0.6650173630089807  0.1123286028856647   T   T   T
  0.6204129529044135  0.8083790653285020  0.1092977687518376   T   T   T
  0.7637068495381110  0.9519546202346902  0.1100694111981875   T   T   T
  0.7640549924638181  0.0952276651682790  0.1102833284192524   T   T   T
  0.7640194601165574  0.2383584652049906  0.1103955057742171   T   T   T
  0.7634319540651924  0.3814419097272884  0.1100167926848464   T   T   T
  0.7643939556780762  0.5256847017670395  0.1105238189843129   T   T   T
  0.7630918644181474  0.6652260783735454  0.1124939648669993   T   T   T
  0.7631437987023105  0.8086102132271729  0.1109835942599410   T   T   T
  0.3374113415645297  0.5238704841168069  0.1250251482507279   T   T   T
  0.4780974166242962  0.5245045220493284  0.1242205335997415   T   T   T
  0.6190034964978208  0.5239309708947072  0.1122024735745313   T   T   T
  0.6646963911337400  0.4786466653857935  0.1104259815538822   T   T   T
  0.9540568133159618  0.9044477171583586  0.1113552253938879   T   T   T
  0.9545288721748879  0.0476101753242855  0.1107059936858123   T   T   T
  0.9550964417152878  0.1908952265946285  0.1105918459885148   T   T   T
  0.9550093173836720  0.3336190723066988  0.1106208408475827   T   T   T
  0.9551721354381121  0.4763487938146781  0.1104083923179891   T   T   T
  0.9548635019987474  0.6192771517230223  0.1107912981329676   T   T   T
  0.9548452537076078  0.7624465029365363  0.1117382666873579   T   T   T
  0.0974184574385563  0.9049139443113390  0.1111888579065397   T   T   T
  0.0973793481181484  0.0477587834323287  0.1106040248295582   T   T   T
  0.0980331426776608  0.1910757133067434  0.1104825200337279   T   T   T
  0.0988751244295200  0.3344385992613612  0.1109819468327169   T   T   T
  0.0991019329418091  0.4762993894378835  0.1116177809888139   T   T   T
  0.0977930581465670  0.6189333322592826  0.1116215537552024   T   T   T
  0.0975669378555807  0.7619203590676036  0.1113751974154168   T   T   T
  0.2402450176494767  0.9046116851217394  0.1107469377899995   T   T   T
  0.2400116764486427  0.0475620060214455  0.1103627738152198   T   T   T
  0.2406077371868576  0.1910723244348927  0.1099477219103805   T   T   T
  0.2417554467741389  0.3345784965294057  0.1112417494407464   T   T   T
  0.2444496955050514  0.4774855546833300  0.1148874691535367   T   T   T
  0.2406352066429985  0.6188393794009034  0.1143219252227671   T   T   T
  0.2404403543001054  0.7616204783881262  0.1114434977342719   T   T   T
  0.3830674145288385  0.9041602619123673  0.1100153784927076   T   T   T
  0.3828535656152050  0.0473599149969792  0.1102285962848383   T   T   T
  0.3823096512262625  0.1903080134950544  0.1099804137752062   T   T   T
  0.3838915893188595  0.3351809180188106  0.1106227672282352   T   T   T
  0.3855192985756556  0.4792415261354125  0.1145903295220009   T   T   T
  0.3821253788498012  0.6165296694545913  0.1145270543473705   T   T   T
  0.3831693402205038  0.7607500328669352  0.1101986852374173   T   T   T
  0.5257731416450809  0.9039750022770552  0.1091236259442497   T   T   T
  0.5257898447693596  0.0472268988230075  0.1100266492789793   T   T   T
  0.5254156146538596  0.1902692535727997  0.1101105560169879   T   T   T
  0.5238687657075036  0.3324729215243729  0.1100081398306264   T   T   T
  0.5263320889535276  0.4794045686820894  0.1128328158088514   T   T   T
  0.5244597610711528  0.6168783958599827  0.1138133994686817   T   T   T
  0.5250471451359382  0.7600730070669084  0.1088225006061817   T   T   T
  0.6682741418662416  0.9037916021337111  0.1093250764327924   T   T   T
  0.6687012801940695  0.0472161651977158  0.1099593664972695   T   T   T
  0.6686493322131021  0.1902772456981147  0.1103390258470193   T   T   T
  0.6679270221793302  0.3329836325822753  0.1099837194043116   T   T   T
  0.6659647323895639  0.6163524275033111  0.1135221217567069   T   T   T
  0.6675231154725215  0.7601981628353456  0.1103344584535952   T   T   T
  0.8110371040753952  0.9040416983514701  0.1105772989727730   T   T   T
  0.8116113442187366  0.0474064352079411  0.1103166544791888   T   T   T
  0.8117882121311525  0.1905736477437805  0.1105059972198112   T   T   T
  0.8115534012001906  0.3336551344075796  0.1102121713431468   T   T   T
  0.8117060264014615  0.4768548168147564  0.1100231596815220   T   T   T
  0.8128280557029668  0.6205981504024599  0.1115155308037115   T   T   T
  0.8103174678919469  0.7607956443347423  0.1120680763005137   T   T   T

  0.00000000E+00  0.00000000E+00  0.00000000E+00
  0.00000000E+00  0.00000000E+00  0.00000000E+00
  0.00000000E+00  0.00000000E+00  0.00000000E+00
  0.00000000E+00  0.00000000E+00  0.00000000E+00
  0.00000000E+00  0.00000000E+00  0.00000000E+00
  0.00000000E+00  0.00000000E+00  0.00000000E+00
  0.00000000E+00  0.00000000E+00  0.00000000E+00
  0.00000000E+00  0.00000000E+00  0.00000000E+00
  0.00000000E+00  0.00000000E+00  0.00000000E+00
  0.00000000E+00  0.00000000E+00  0.00000000E+00
  0.00000000E+00  0.00000000E+00  0.00000000E+00
  0.00000000E+00  0.00000000E+00  0.00000000E+00
  0.00000000E+00  0.00000000E+00  0.00000000E+00
  0.00000000E+00  0.00000000E+00  0.00000000E+00
  0.00000000E+00  0.00000000E+00  0.00000000E+00
  0.00000000E+00  0.00000000E+00  0.00000000E+00
  0.00000000E+00  0.00000000E+00  0.00000000E+00
  0.00000000E+00  0.00000000E+00  0.00000000E+00
  0.00000000E+00  0.00000000E+00  0.00000000E+00
  0.00000000E+00  0.00000000E+00  0.00000000E+00
  0.00000000E+00  0.00000000E+00  0.00000000E+00
  0.00000000E+00  0.00000000E+00  0.00000000E+00
  0.00000000E+00  0.00000000E+00  0.00000000E+00
  0.00000000E+00  0.00000000E+00  0.00000000E+00
  0.00000000E+00  0.00000000E+00  0.00000000E+00
  0.00000000E+00  0.00000000E+00  0.00000000E+00
  0.00000000E+00  0.00000000E+00  0.00000000E+00
  0.00000000E+00  0.00000000E+00  0.00000000E+00
  0.00000000E+00  0.00000000E+00  0.00000000E+00
  0.00000000E+00  0.00000000E+00  0.00000000E+00
  0.00000000E+00  0.00000000E+00  0.00000000E+00
  0.00000000E+00  0.00000000E+00  0.00000000E+00
  0.00000000E+00  0.00000000E+00  0.00000000E+00
  0.00000000E+00  0.00000000E+00  0.00000000E+00
  0.00000000E+00  0.00000000E+00  0.00000000E+00
  0.00000000E+00  0.00000000E+00  0.00000000E+00
  0.00000000E+00  0.00000000E+00  0.00000000E+00
  0.00000000E+00  0.00000000E+00  0.00000000E+00
  0.00000000E+00  0.00000000E+00  0.00000000E+00
  0.00000000E+00  0.00000000E+00  0.00000000E+00
  0.00000000E+00  0.00000000E+00  0.00000000E+00
  0.00000000E+00  0.00000000E+00  0.00000000E+00
  0.00000000E+00  0.00000000E+00  0.00000000E+00
  0.00000000E+00  0.00000000E+00  0.00000000E+00
  0.00000000E+00  0.00000000E+00  0.00000000E+00
  0.00000000E+00  0.00000000E+00  0.00000000E+00
  0.00000000E+00  0.00000000E+00  0.00000000E+00
  0.00000000E+00  0.00000000E+00  0.00000000E+00
  0.00000000E+00  0.00000000E+00  0.00000000E+00
  0.00000000E+00  0.00000000E+00  0.00000000E+00
  0.00000000E+00  0.00000000E+00  0.00000000E+00
  0.00000000E+00  0.00000000E+00  0.00000000E+00
  0.00000000E+00  0.00000000E+00  0.00000000E+00
  0.00000000E+00  0.00000000E+00  0.00000000E+00
  0.00000000E+00  0.00000000E+00  0.00000000E+00
  0.00000000E+00  0.00000000E+00  0.00000000E+00
  0.00000000E+00  0.00000000E+00  0.00000000E+00
  0.00000000E+00  0.00000000E+00  0.00000000E+00
  0.00000000E+00  0.00000000E+00  0.00000000E+00
  0.00000000E+00  0.00000000E+00  0.00000000E+00
  0.00000000E+00  0.00000000E+00  0.00000000E+00
  0.00000000E+00  0.00000000E+00  0.00000000E+00
  0.00000000E+00  0.00000000E+00  0.00000000E+00
  0.00000000E+00  0.00000000E+00  0.00000000E+00
  0.00000000E+00  0.00000000E+00  0.00000000E+00
  0.00000000E+00  0.00000000E+00  0.00000000E+00
  0.00000000E+00  0.00000000E+00  0.00000000E+00
  0.00000000E+00  0.00000000E+00  0.00000000E+00
  0.00000000E+00  0.00000000E+00  0.00000000E+00
  0.00000000E+00  0.00000000E+00  0.00000000E+00
  0.00000000E+00  0.00000000E+00  0.00000000E+00
  0.00000000E+00  0.00000000E+00  0.00000000E+00
  0.00000000E+00  0.00000000E+00  0.00000000E+00
  0.00000000E+00  0.00000000E+00  0.00000000E+00
  0.00000000E+00  0.00000000E+00  0.00000000E+00
  0.00000000E+00  0.00000000E+00  0.00000000E+00
  0.00000000E+00  0.00000000E+00  0.00000000E+00
  0.00000000E+00  0.00000000E+00  0.00000000E+00
  0.00000000E+00  0.00000000E+00  0.00000000E+00
  0.00000000E+00  0.00000000E+00  0.00000000E+00
  0.00000000E+00  0.00000000E+00  0.00000000E+00
  0.00000000E+00  0.00000000E+00  0.00000000E+00
  0.00000000E+00  0.00000000E+00  0.00000000E+00
  0.00000000E+00  0.00000000E+00  0.00000000E+00
  0.00000000E+00  0.00000000E+00  0.00000000E+00
  0.00000000E+00  0.00000000E+00  0.00000000E+00
  0.00000000E+00  0.00000000E+00  0.00000000E+00
  0.00000000E+00  0.00000000E+00  0.00000000E+00
  0.00000000E+00  0.00000000E+00  0.00000000E+00
  0.00000000E+00  0.00000000E+00  0.00000000E+00
  0.00000000E+00  0.00000000E+00  0.00000000E+00
  0.00000000E+00  0.00000000E+00  0.00000000E+00
  0.00000000E+00  0.00000000E+00  0.00000000E+00
  0.00000000E+00  0.00000000E+00  0.00000000E+00
  0.00000000E+00  0.00000000E+00  0.00000000E+00
  0.00000000E+00  0.00000000E+00  0.00000000E+00
  0.00000000E+00  0.00000000E+00  0.00000000E+00
  0.00000000E+00  0.00000000E+00  0.00000000E+00
