 B N 
 1.0
 17.527899999999772   0.000000000000000   0.000000000000000
 -8.763949999999658  15.179606674993195   0.000000000000000
  0.000000000000001   0.000000000000002  15.000000000000000
 B N 
  48  49
Cartesian
  7.515973055241300  14.462022781963933   1.665428807321895 
 15.025181020680019   1.449513912361977   1.666057770239415 
 13.774473942364763   3.616249829489043   1.666255124765025 
 12.523189577444299   5.782089100618164   1.665014660282775 
 11.273969015522862   7.951687069106495   1.665334511019930 
 10.024584261882197  10.119737783328796   1.667371603183485 
  8.769367393874067  12.294345379599106   1.666756319374335 
 -7.511220099095089  14.455348788638791   1.664724041466285 
  0.001072568967816   1.443741924472068   1.665232846054440 
 -1.253190719683106   3.613286421272871   1.665344867007480 
 -2.505332727685713   5.781777780998544   1.665457788168885 
 -3.756738187875243   7.952460089627177   1.664759101774155 
 -5.007914943785202  10.119737783328796   1.664526657362220 
 -6.258203487542202  12.288805882772854   1.664328252578880 
 -5.009554110051983  14.451590980173728   1.663861415997990 
  2.500774944388288   1.435405789619588   1.665932483658330 
  1.249150023724732   3.603158022343472   1.665449704373040 
 -0.004560645375584   5.779471787097330   1.665263012501820 
 -1.262158198897938   7.953741887400850   1.666371357904020 
 -2.512624247294470  10.119737783328796   1.665920846576880 
 -3.760449685173316  12.288552397738252   1.663881174179370 
 -2.507025785723383  14.454401380933978   1.664550323027850 
  5.009635875771606   1.431038331657513   1.666025834902455 
  3.753807417907716   3.586360165402313   1.666756557074070 
  2.514680210848510   5.750289933910880   1.664121642459885 
  1.230547005272591   7.975811417587321   1.664793809669175 
 -0.024192141600538  10.131315108460988   1.667729582946345 
 -1.262960173179641  12.296600277377353   1.666079894085645 
 -0.006098337829497  14.461657869878241   1.665414628417455 
  7.512719310777257   1.438072370818029   1.665535110429915 
  6.269700605792316   3.588949326009750   1.666751463871125 
  5.008946969866901   5.719053349308322   1.663568092991670 
  2.449747612487762  10.153502469938644   1.664196089385960 
  1.235274323218960  12.310233614635528   1.666845113144805 
  2.499015539155684  14.467407810780680   1.666019555441070 
 10.016780005417871   1.446873055591693   1.665264758891700 
  8.769681962294435   3.605244204447686   1.666034539872945 
  7.524816764967664   5.771843487665765   1.666413821421840 
  6.293135964321044   7.963682723949187   1.663407690764115 
  5.036113907808844  10.144161476621115   1.662923184204045 
  3.753493598541981  12.306435058807571   1.665743488066095 
  5.011234773813488  14.467254564550032   1.665950141776185 
 12.520723896137975   1.448818794458326   1.665938379937290 
 11.270138990324149   3.614269628966436   1.665972774296100 
 10.025376235161655   5.780420201785555   1.666043468333310 
  8.780055313068001   7.949098257555707   1.667706194567400 
  7.527600900653305  10.128941310200464   1.667680724314785 
  6.266618504841041  12.304441072588796   1.665828379801425 
  8.763984203501373  13.734773654998904   1.665260000936415 
 16.275501092494430   0.724461095647623   1.665115836850650 
 15.023711683493048   2.892436363027108   1.665957491662635 
 13.772189520669908   5.059868891664398   1.665388381340760 
 12.520902468529624   7.227191089775039   1.664127946545705 
 11.268719846986663   9.396149185822768   1.665390923145090 
 10.015087524793525  11.564689099499416   1.666463263626525 
 -6.261300478903308  13.731719729257552   1.663398287432610 
  1.250589988810497   0.718718281508721   1.665095913802725 
 -0.001581423123410   2.888097429140032   1.664928492414615 
 -1.255382508167260   5.059868891664398   1.664966663229465 
 -2.507020377564984   7.228243652229073   1.665306908427315 
 -3.759559711409559   9.397111288239845   1.664574542635365 
 -5.009951429886116  11.564614118225986   1.663417599752820 
 -3.756979117372310  13.732661820385900   1.663410312590685 
  3.755778053393279   0.716922073052038   1.665169597949385 
  2.501400614517070   2.879589460244879   1.666081393953450 
  1.245286603906748   5.049652401548810   1.664743042528155 
 -0.011214304357842   7.227022677215439   1.665915690130845 
 -1.262416508978084   9.400023962929863   1.666582850908770 
 -2.508226328455311  11.567486731045491   1.665257035750110 
 -1.254777388584793  13.737120436125645   1.664676062997585 
  6.261416288631839   0.718035435851265   1.664995567712520 
  5.013234111613071   2.877985692975630   1.666313896373130 
  3.759354029033839   5.029524381768591   1.665876537713025 
  2.378044532035824   7.154738237077185   1.657813708978410 
  1.228644050556066   9.414639992629665   1.666894986458685 
 -0.007979592189623  11.576424231136828   1.667104894505265 
  1.246986090885499  13.746471205704218   1.665952880830380 
  8.765201174622328   0.723856738130743   1.665055661163975 
  7.519494303069539   2.880987695653563   1.666138109540535 
  6.279250741462199   5.034492931167808   1.665874204518360 
  5.154782063270908   7.122928228781887   1.657169375308320 
  3.738814067337154   9.578790008465560   1.658098778300610 
  2.492141517721015  11.596032284681590   1.665769771816680 
  3.754901813319672  13.744753810262205   1.666089400764240 
 11.265508605165284   0.727042289406778   1.665128852047965 
 10.016479303650035   2.890424499773530   1.665388301656365 
  8.771390515023549   5.054047768283441   1.666119926662650 
  7.530940720524332   7.219589470484905   1.666495244963370 
  6.267304028886064   9.401659633726263   1.664991210688710 
  5.010284408156130  11.588016324678302   1.664964167311110 
  6.261410467391141  13.741951239433433   1.665429995818305 
 13.772420834884784   0.727358344669800   1.665925514619285 
 12.520348283149438   2.892344625396203   1.665957450843495 
 11.270451487703863   5.059868891664398   1.665434572433655 
 10.022503583428019   7.225804541450114   1.666238668406865 
  8.767552306408403   9.395566097631452   1.668223926346530 
  7.512645775496530  11.569676728277932   1.666796260534815 
