 B O N 
 1.0
 17.527899999999772   0.000000000000000   0.000000000000000
 -8.763949999999658  15.179606674993195   0.000000000000000
  0.000000000000001   0.000000000000002  15.000000000000000
 B O N 
  49   1  47
Cartesian
  7.495167709224386  14.424500702575573   1.664368277118180 
 15.034059391809281   1.424719110032624   1.665592897446720 
 13.795064444516044   3.595529987297408   1.665743409278595 
 12.543852414794799   5.764882781170523   1.664594244881775 
 11.283920000295133   7.936632186908433   1.664748843130350 
 10.006023132546535  10.105482080753779   1.665027554185890 
  8.738459909469185  12.264280822061675   1.664318677256745 
 -7.527091594085792  14.461000139374292   1.664073767287215 
  0.008920485826563   1.461944186809314   1.664584768813530 
 -1.229443094095110   3.622126779335693   1.665263597409300 
 -2.485778813001287   5.779674573350349   1.664465941258635 
 -3.758097706330477   7.946720885063356   1.664485284133410 
 -5.029425281678362  10.119737783328796   1.664828484347400 
 -6.283212376678921  12.289917384519226   1.663893174125025 
 -5.025757307660001  14.472238588506034   1.664395564801215 
  2.505074634664938   1.480111624143019   1.665319264503405 
  1.288303382565934   3.688441228152319   1.665395738041155 
  0.025371263194398   5.813420593846824   1.664783347874145 
 -1.269068190020881   7.961824668796303   1.664479522358805 
 -2.546362675972388  10.129085543229621   1.665706330628370 
 -3.785576850109080  12.299445847479182   1.665019476712545 
 -2.522410338148715  14.468451081878376   1.664665451271480 
  5.004105868856549   1.465628514161399   1.665626661231075 
  3.773351383917677   3.675280439818069   1.667084198868600 
  2.583712970116942   5.962329371528763   1.667271335004585 
  1.218990988353040   7.997110224475431   1.666076872039785 
 -0.078920823156812  10.146547997987518   1.665538414574505 
 -1.289372753348019  12.303393788388599   1.665583801244820 
 -0.006699765169188  14.443910066399427   1.664487938470980 
  7.521403963944136   1.432049241803331   1.664496996006060 
  6.287264248650756   3.597885581644873   1.666518007059255 
  5.088063840918235   5.780937280680642   1.667313887711475 
  3.492200063010081   8.712582810812968   1.668657787465860 
  2.403934666234653  10.093466738824146   1.667788283624325 
  1.224286588015671  12.270049142600508   1.665874901867715 
  2.506476831633615  14.416103751801465   1.665404472072480 
 10.033794492784878   1.414464154214913   1.664237887072725 
  8.795387143202406   3.581481520303829   1.664220428644620 
  7.568508309001868   5.742803480812432   1.666513182466545 
  6.334526217338256   7.879699748743085   1.667156085255915 
  4.936170998280419   9.934424429898582   1.667630713524660 
  3.736200629358078  12.216351814256448   1.666641398747205 
  5.002579613093074  14.407168716834869   1.665723039932595 
 12.535905018562151   1.411209159463065   1.665808959972825 
 11.295830539999965   3.584673081384089   1.664502065053800 
 10.052198383155984   5.754422844868704   1.664541193778040 
  8.804603421401104   7.923699781842264   1.666255438421550 
  7.497002729182292  10.070097159945666   1.666202612959410 
  6.214038012089635  12.198201834839075   1.665389248405860 
  5.170356515632491   7.155946106195942   1.666347336809355 
  8.750366846617386  13.715417794189429   1.663677628668825 
 16.283999618448767   0.706070236052010   1.664404920784860 
 15.047737125689615   2.877606826708168   1.665670487435835 
 13.794795449917885   5.044182309592700   1.664762179842330 
 12.530537241785506   7.212686718589220   1.664232934100910 
 11.258113606245349   9.384812188294539   1.664338561425585 
  9.996489893961019  11.552989209357872   1.663892187732510 
 -6.276974351730698  13.739830420050705   1.663717916459085 
  1.255173419470118   0.737235881898955   1.664286062224245 
  0.033130007173181   2.923794712936329   1.664582641925295 
 -1.225528348484372   5.069050688418625   1.664379367315110 
 -2.507854332276700   7.225834324935107   1.663899557844975 
 -3.783529293029542   9.395233874663594   1.664897254966815 
 -5.033433732857103  11.568340366845769   1.664298311796090 
 -3.777477571987165  13.747206632725213   1.664314722684285 
  3.749327736426313   0.744495478502008   1.664880337016385 
  2.524699630625899   2.940475313838355   1.665831632577015 
  1.318156215377338   5.159851256160150   1.665539075230905 
 -0.011713885844869   7.250465777898960   1.664338600623300 
 -1.306428301550543   9.406874893750098   1.664813550907620 
 -2.539227059115190  11.576250815717298   1.665683106874305 
 -1.273585161802157  13.744126157503247   1.664550416385405 
  6.253879067583254   0.733635815268739   1.664499322951215 
  5.015031777912615   2.916503280584861   1.666455673129950 
  3.801127036438632   5.143442851920733   1.667393331597390 
  2.565793116284270   7.457741125922462   1.667229841994370 
  1.146583806782647   9.427599268050441   1.665839291178870 
 -0.045451649347178  11.582299486453429   1.665393215834460 
  1.242556914816618  13.712955616397469   1.664726371045170 
  8.771265403171517   0.706769299446087   1.663737061321620 
  7.534690147982465   2.873015356986421   1.664766025303800 
  6.313227096388670   5.036015660817559   1.667088924897675 
  2.472272188810492  11.524699652431094   1.666731611705115 
  3.752139763641625  13.674192243463033   1.665709220313975 
 11.282136847998203   0.685799113187523   1.664841830255220 
 10.043531683676282   2.859518237364100   1.663524720547950 
  8.808187151468388   5.023868386712509   1.664663198940030 
  7.576437890442057   7.181984114427864   1.666926747492585 
  6.252164915494367   9.309735586220201   1.667031895093065 
  4.952388310976028  11.423924523196591   1.666413588829830 
  6.241321606052170  13.666652324082621   1.664692792796535 
 13.783487748150934   0.683141119345500   1.665756699478995 
 12.544541623474855   2.861455097837446   1.665356157284805 
 11.298482461642454   5.032144001374921   1.664190001229565 
 10.047194582141781   7.201179511825444   1.664846434080630 
  8.763391760081124   9.367176868639532   1.665800341220745 
  7.487205628633205  11.514793708118567   1.664909786674185 
