Species order: X N B                    
   2.51242800000000     
     5.9449720136058266    0.0000000000000000    0.0000000000000000
    -2.9724860068029120    5.1484967885702053   -0.0000000000000001
     0.0000000000000000    0.0000000000000009    5.3101128803662583
   Ga   N    B 
     1   143   143
Direct
  0.4928607589433151  0.4130970461383227  0.3750000000000000
  0.1110881928841934  0.0555547061056312  0.1247993986900002
  0.6114483687875033  0.5560812433799991  0.1254989215460312
  0.4445357162786090  0.0555876786431464  0.1246496776359276
  0.9444884440172943  0.5555498704116916  0.1245573219414352
  0.7778924160289107  0.0556128746811238  0.1248887365592410
  0.1111519615150711  0.7222426474241997  0.6251247957530875
  0.4445357162786090  0.7222813709687995  0.6253503223640734
  0.2776036966396888  0.2221268014979479  0.6258570616117455
  0.7779242573421221  0.7224601025831342  0.6259732526678139
  0.6112737013592356  0.2221402388333643  0.6259882479806351
  0.9444819333972255  0.2222097104740157  0.6250354712125523
  0.2778422270273567  0.7222479703797130  0.1249157407000338
  0.1110189800885928  0.2221761567109604  0.1247073229326638
  0.4445216595998137  0.2222528362990919  0.1248976028180456
  0.6112737013592356  0.7224667958591980  0.1240117520193652
  0.9444884440172943  0.7222719069389415  0.1245573219414352
  0.7779087150777946  0.2221696904933909  0.1246422516183792
  0.1111499348285166  0.8889284936796772  0.6251326255624052
  0.4445355197210127  0.8889344265271709  0.6251477180036320
  0.2776036966396888  0.3888102284750703  0.6258570616117455
  0.6114483687875033  0.3887004587408325  0.6245010784539685
  0.7779087150777946  0.8890723579177346  0.6253577483816203
  0.9445091687486635  0.3888621230686163  0.6251908639465115
  0.1110881928841934  0.3888668201118902  0.1247993986900002
  0.2778422270273567  0.8889275899809714  0.1249157407000338
  0.6112274281193413  0.8889983124844321  0.1247269272396639
  0.4439316097929782  0.3886324715631531  0.1261757261033209
  0.9445091687486635  0.8889803790133739  0.1248091360534891
  0.7779242573421221  0.3887974880923157  0.1240267473321882
  0.2778236837372003  0.5555666837680926  0.6253162586528731
  0.1110881928841934  0.0555547061056312  0.6252006013099983
  0.6114483687875033  0.5560812433799991  0.6245010784539685
  0.4445357162786090  0.0555876786431464  0.6253503223640734
  0.9444884440172943  0.5555498704116916  0.6254426780585643
  0.1111499348285166  0.5555547744821683  0.1248673744375932
  0.7778924160289107  0.0556128746811238  0.6251112634407584
  0.2778236837372003  0.0555903333024424  0.1246837413471244
  0.4445216595998137  0.5556021566340589  0.1248976028180456
  0.7778654579804605  0.5555993956568993  0.1245081772377372
  0.6112274281193413  0.0555624489682375  0.1247269272396639
  0.4445216595998137  0.5556021566340589  0.6251023971819536
  0.9444819333972255  0.0556055562565455  0.1249645287874464
  0.2778422270273567  0.7222479703797130  0.6250842592999659
  0.1110189800885928  0.2221761567109604  0.6252926770673380
  0.4445216595998137  0.2222528362990919  0.6251023971819536
  0.6112737013592356  0.7224667958591980  0.6259882479806351
  0.9444884440172943  0.7222719069389415  0.6254426780585643
  0.7779087150777946  0.2221696904933909  0.6253577483816203
  0.1111519615150711  0.7222426474241997  0.1248752042469119
  0.4445357162786090  0.7222813709687995  0.1246496776359276
  0.2776036966396888  0.2221268014979479  0.1241429383882555
  0.7779242573421221  0.7224601025831342  0.1240267473321882
  0.6112737013592356  0.2221402388333643  0.1240117520193652
  0.9444819333972255  0.2222097104740157  0.1249645287874464
  0.1110881928841934  0.3888668201118902  0.6252006013099983
  0.2778422270273567  0.8889275899809714  0.6250842592999659
  0.6112274281193413  0.8889983124844321  0.6252730727603358
  0.4439316097929782  0.3886324715631531  0.6238242738966799
  0.9445091687486635  0.8889803790133739  0.6251908639465115
  0.1111499348285166  0.8889284936796772  0.1248673744375932
  0.7779242573421221  0.3887974880923157  0.6259732526678139
  0.4445355197210127  0.8889344265271709  0.1248522819963691
  0.2776036966396888  0.3888102284750703  0.1241429383882555
  0.2778236837372003  0.5555666837680926  0.1246837413471244
  0.6114483687875033  0.3887004587408325  0.1254989215460312
  0.7779087150777946  0.8890723579177346  0.1246422516183792
  0.9445091687486635  0.3888621230686163  0.1248091360534891
  0.1111499348285166  0.5555547744821683  0.6251326255624052
  0.2778236837372003  0.0555903333024424  0.6253162586528731
  0.7778654579804605  0.5555993956568993  0.6254918227622649
  0.6112274281193413  0.0555624489682375  0.6252730727603358
  0.9444819333972255  0.0556055562565455  0.6250354712125523
  0.0568200730652742  0.1118287587827883  0.3750000000000000
  0.5544853125492346  0.6178673681496196  0.3750000000000000
  0.3867336211790505  0.1046516415459216  0.3750000000000000
  0.8860381799016129  0.6096857566174784  0.3750000000000000
  0.7226738939555669  0.1106463102768575  0.3750000000000000
  0.0556191893401108  0.7778075964761463  0.8750000000000000
  0.3889029765028457  0.7778029574821465  0.8750000000000000
  0.2222762106486655  0.2778047719910002  0.8750000000000000
  0.7222430174149396  0.7777692670805880  0.8750000000000000
  0.5555525837785984  0.2777669217585241  0.8750000000000000
  0.8889185728167045  0.2778029802394209  0.8750000000000000
  0.2195956878372021  0.7764645105852688  0.3750000000000000
  0.0568200730652742  0.2783246476158215  0.3750000000000000
  0.3889332316175410  0.2693602681145097  0.3750000000000000
  0.5547483071784756  0.7807256202379604  0.3750000000000000
  0.8874046115483122  0.7772314274773131  0.3750000000000000
  0.7223175507246954  0.2761242117638510  0.3750000000000000
  0.0555896718110986  0.9444544923329989  0.8750000000000000
  0.3889029765028457  0.9444333523540344  0.8750000000000000
  0.2222551518530776  0.4444777644993895  0.8750000000000000
  0.5555822910956248  0.4444578122144767  0.8750000000000000
  0.7222436485323417  0.9444485196660911  0.8750000000000000
  0.8889408209633566  0.4444825427934884  0.8750000000000000
  0.0544916836940903  0.4443066998857242  0.3750000000000000
  0.2197796024516006  0.9418051538472887  0.3750000000000000
  0.5548418041132706  0.9440875687232988  0.3750000000000000
  0.3889332316175408  0.4529062968363667  0.3750000000000000
  0.8894402698671781  0.9452223834272251  0.3750000000000000
  0.7198617744363337  0.4424221890440003  0.3750000000000000
  0.2222420075890704  0.6111404588194570  0.8750000000000000
  0.0555947999268476  0.1111274290506047  0.8750000000000000
  0.5555525837785984  0.6111189953534076  0.8750000000000000
  0.3888933269318717  0.1110755575867799  0.8750000000000000
  0.8889902186456103  0.6111617759894785  0.8750000000000000
  0.0530248222232642  0.6101517014286785  0.3750000000000000
  0.7222436485323417  0.1111284621995870  0.8750000000000000
  0.2215502836767601  0.1092030313241639  0.3750000000000000
  0.3867336211790505  0.6154153129664729  0.3750000000000000
  0.7198617744363337  0.6107729187256667  0.3750000000000000
  0.5547483071784756  0.1073560202738534  0.3750000000000000
  0.3888933269318717  0.6111511026784345  0.8750000000000000
  0.8899787861488698  0.1116560597411075  0.3750000000000000
  0.2222554711164490  0.7777944022248936  0.8750000000000000
  0.0555947999268476  0.2778007042095775  0.8750000000000000
  0.3889287279889782  0.2777658143025830  0.8750000000000000
  0.5555640302019548  0.7777874125829933  0.8750000000000000
  0.8889408209633566  0.7777916115032033  0.8750000000000000
  0.7222430174149396  0.2778070836676854  0.8750000000000000
  0.0530248222232643  0.7762064541279222  0.3750000000000000
  0.3868484709069347  0.7784499422168888  0.3750000000000000
  0.2250065836131130  0.2791699584732243  0.3750000000000000
  0.7223175507246954  0.7795266722941810  0.3750000000000000
  0.5544853125492346  0.2699512777329536  0.3750000000000000
  0.8894402698671781  0.2775512197732932  0.3750000000000000
  0.0555896718110986  0.4444685128114284  0.8750000000000000
  0.2222420075890704  0.9444348821029521  0.8750000000000000
  0.5555730352183036  0.9444531842758171  0.8750000000000000
  0.3889287279889782  0.4444962470197319  0.8750000000000000
  0.8889185728167045  0.9444489259106189  0.8750000000000000
  0.0544916836940903  0.9435183171416938  0.3750000000000000
  0.7222869899075853  0.4444977805948090  0.8750000000000000
  0.3868484709069347  0.9417318620233828  0.3750000000000000
  0.2215502836767601  0.4456805856859314  0.3750000000000000
  0.2197796024516006  0.6113077819376467  0.3750000000000000
  0.7226738939555669  0.9453609170120458  0.3750000000000000
  0.8874046115483122  0.4435065174043346  0.3750000000000000
  0.0556191893401108  0.6111449261973012  0.8750000000000000
  0.2222551518530776  0.1111107206870229  0.8750000000000000
  0.7222869899075853  0.6111225426461105  0.8750000000000000
  0.5555640302019548  0.1111099509522969  0.8750000000000000
  0.8889204305083511  0.1111268819208458  0.8750000000000000
  0.1114337424806587  0.0551271798736548  0.3750000000000000
  0.6076817755872294  0.5591515196464291  0.3750000000000000
  0.4434032654454152  0.0520330970824254  0.3750000000000000
  0.9416782773277356  0.5544876054669237  0.3750000000000000
  0.7787032948767387  0.0560183141050377  0.3750000000000000
  0.1111340953395178  0.7222337143364251  0.8750000000000000
  0.4444506502843093  0.7221608333206767  0.8750000000000000
  0.2779788194857742  0.2223436260205198  0.8750000000000000
  0.7777116205365346  0.7220696406458530  0.8750000000000000
  0.6110644277472431  0.2223381683494183  0.8750000000000000
  0.9445030812564592  0.2222748880755923  0.8750000000000000
  0.2757423813835099  0.7219290780598211  0.3750000000000000
  0.1145134403283237  0.2239233868308262  0.3750000000000000
  0.4426434641582924  0.2154073610886822  0.3750000000000000
  0.6106040680766577  0.7256804673549108  0.3750000000000000
  0.9416782773277356  0.7205240051941502  0.3750000000000000
  0.7781572920932734  0.2218614390131493  0.3750000000000000
  0.1111585783798410  0.8889049832192834  0.8750000000000000
  0.4444496271108021  0.8888914802220632  0.8750000000000000
  0.2779788194857742  0.3889685267985803  0.8750000000000000
  0.6110582703607476  0.3889773628217267  0.8750000000000000
  0.7777518840165077  0.8887869174302366  0.8750000000000000
  0.9444583210166728  0.3889489466518588  0.8750000000000000
  0.1114337424806587  0.3896398959403328  0.3750000000000000
  0.2757423813835099  0.8871466366570174  0.3750000000000000
  0.6112122893410831  0.8901802198489556  0.3750000000000000
  0.9435406452758982  0.8882609935748667  0.3750000000000000
  0.7757160570555318  0.3878133252643756  0.3750000000000000
  0.2778732067115501  0.5555751718169185  0.8750000000000000
  0.1112214911258417  0.0556083065283716  0.8750000000000000
  0.6110582703607476  0.5554142408723499  0.8750000000000000
  0.4444506502843093  0.0556231502969665  0.8750000000000000
  0.9444403682508844  0.5555928349599044  0.8750000000000000
  0.1090560868680459  0.5552126059976824  0.3750000000000000
  0.7777792559029223  0.0555562946181283  0.8750000000000000
  0.2762974524164483  0.0529907546127733  0.3750000000000000
  0.4426434641582924  0.5605694364029454  0.3750000000000000
  0.7735727327041316  0.5534530330187343  0.3750000000000000
  0.6112122893410831  0.0543654028254560  0.3750000000000000
  0.4445156931092031  0.5555068337993755  0.8750000000000000
  0.9459166957987676  0.0564275966663831  0.3750000000000000
  0.2778144734663792  0.7222239856185491  0.8750000000000000
  0.1112739258169045  0.2223036295751173  0.8750000000000000
  0.4445156931092031  0.2223421926431641  0.8750000000000000
  0.6110644277472431  0.7220595927311545  0.8750000000000000
  0.9444403682508844  0.7221808666243137  0.8750000000000000
  0.7777518840165077  0.2222982999195963  0.8750000000000000
  0.1085320007546684  0.7209326670439985  0.3750000000000000
  0.4434032654454152  0.7247035016963252  0.3750000000000000
  0.2813580283243036  0.2223653474778334  0.3750000000000000
  0.7757160570555318  0.7212360651244819  0.3750000000000000
  0.6106040680766577  0.2182569340550772  0.3750000000000000
  0.9459166957987676  0.2228224324657171  0.3750000000000000
  0.1112214911258417  0.3889465179307989  0.8750000000000000
  0.2778144734663792  0.8889238211811588  0.8750000000000000
  0.6110922919465390  0.8888297474458292  0.8750000000000000
  0.4446127367395540  0.3889730350364413  0.8750000000000000
  0.9444583210166728  0.8888427076981461  0.8750000000000000
  0.1090560868680459  0.8871768142036931  0.3750000000000000
  0.7777116205365346  0.3889753132240115  0.8750000000000000
  0.4434178233096842  0.8883755783215053  0.3750000000000000
  0.2813580283243036  0.3923260141797985  0.3750000000000000
  0.2762974524164483  0.5566400311370104  0.3750000000000000
  0.6076817755872294  0.3818635892741254  0.3750000000000000
  0.7781572920932734  0.8896291864134512  0.3750000000000000
  0.9435406452758982  0.3886129850343591  0.3750000000000000
  0.1111585783798410  0.5555869284938862  0.8750000000000000
  0.2778732067115501  0.0556313682279687  0.8750000000000000
  0.7777198830646082  0.5555266081989725  0.8750000000000000
  0.6110922919465390  0.0555958778340391  0.8750000000000000
  0.9445030812564592  0.0555615265142035  0.8750000000000000
  0.0556560673083255  0.1112048043864155  0.1252063612936844
  0.5558436883297229  0.6109126182454985  0.1256043004650341
  0.3891668811121070  0.1115989265437277  0.1252284720861770
  0.8884966654229284  0.6109149993781319  0.1248841875557127
  0.7223097650080881  0.1111630121216141  0.1250718406049686
  0.0554620130154892  0.7777648929528724  0.6249407962517584
  0.3890553043360639  0.7777424604986712  0.6248764098732743
  0.2223903376462105  0.2778618354897726  0.6249893232689945
  0.7222141978246421  0.7777414749103265  0.6253205893193133
  0.5558436883297229  0.2782644034175621  0.6243956995349645
  0.8889215525934759  0.2777631465251821  0.6248714441000770
  0.2222922948547094  0.7778128140940201  0.1251799414479002
  0.0556560673083255  0.2777845962552454  0.1252063612936844
  0.3890650542443104  0.2782150000601952  0.1261314796393743
  0.5557150215386779  0.7777101316253444  0.1248468282280172
  0.8887360364273492  0.7777289102975548  0.1247925925275951
  0.7222141978246421  0.2778060562476513  0.1246794106806856
  0.0555964034560516  0.9445449643977764  0.6248237843693299
  0.3890553043360639  0.9446461771707273  0.6248764098732743
  0.2223990791785987  0.4443449748134719  0.6249709006938718
  0.5555803796797572  0.4444568565065429  0.6142537736463091
  0.7223097650080881  0.9444800862198096  0.6249281593950320
  0.8887360364273492  0.4443404594631317  0.6252074074724041
  0.0555964034560516  0.4443847723916041  0.1251762156306701
  0.2223595438663725  0.9446650493769482  0.1251449056251001
  0.5556882704696834  0.9445108019015073  0.1251066571132779
  0.3890650542443104  0.4441833875174514  0.1261314796393743
  0.8889215525934759  0.9444917394016276  0.1251285558999229
  0.7217581875015484  0.4441686380734473  0.1252677202726069
  0.2223595438663725  0.6110278278227592  0.6248550943748999
  0.0556560673083255  0.1112048043864155  0.6247936387063165
  0.5558436883297229  0.6109126182454985  0.6243956995349645
  0.3891668811121070  0.1115989265437277  0.6247715279138237
  0.8884966654229284  0.6109149993781319  0.6251158124442898
  0.0554620130154892  0.6110304533959542  0.1250592037482408
  0.7223097650080881  0.1111630121216141  0.6249281593950320
  0.2223990791785987  0.1113874376984621  0.1250290993061285
  0.3891668811121070  0.6109012879017206  0.1252284720861770
  0.7217581875015484  0.6109228827614392  0.1252677202726069
  0.5557150215386779  0.1113382232466700  0.1248468282280172
  0.3891668811121070  0.6109012879017206  0.6247715279138237
  0.8889686210209961  0.1111509771771677  0.1252430249258578
  0.2222922948547094  0.7778128140940201  0.6248200585520982
  0.0556560673083255  0.2777845962552454  0.6247936387063165
  0.3890650542443104  0.2782150000601952  0.6238685203606265
  0.5557150215386779  0.7777101316253444  0.6251531717719845
  0.8887360364273492  0.7777289102975548  0.6252074074724041
  0.7222141978246421  0.2778060562476513  0.6253205893193133
  0.0554620130154892  0.7777648929528724  0.1250592037482408
  0.3890553043360639  0.7777424604986712  0.1251235901267294
  0.2223903376462105  0.2778618354897726  0.1250106767310046
  0.7222141978246421  0.7777414749103265  0.1246794106806856
  0.5558436883297229  0.2782644034175621  0.1256043004650341
  0.8889215525934759  0.2777631465251821  0.1251285558999229
  0.0555964034560516  0.4443847723916041  0.6248237843693299
  0.2223595438663725  0.9446650493769482  0.6248550943748999
  0.5556882704696834  0.9445108019015073  0.6248933428867227
  0.3890650542443104  0.4441833875174514  0.6238685203606265
  0.8889215525934759  0.9444917394016276  0.6248714441000770
  0.0555964034560516  0.9445449643977764  0.1251762156306701
  0.7217581875015484  0.4441686380734473  0.6247322797273918
  0.3890553043360639  0.9446461771707273  0.1251235901267294
  0.2223990791785987  0.4443449748134719  0.1250290993061285
  0.2223595438663725  0.6110278278227592  0.1251449056251001
  0.5555803796797572  0.4444568565065429  0.1357462263536929
  0.7223097650080881  0.9444800862198096  0.1250718406049686
  0.8887360364273492  0.4443404594631317  0.1247925925275951
  0.0554620130154892  0.6110304533959542  0.6249407962517584
  0.2223990791785987  0.1113874376984621  0.6249709006938718
  0.7217581875015484  0.6109228827614392  0.6247322797273918
  0.5557150215386779  0.1113382232466700  0.6251531717719845
  0.8889686210209961  0.1111509771771677  0.6247569750741425
 
  0.00000000E+00  0.00000000E+00  0.00000000E+00
  0.00000000E+00  0.00000000E+00  0.00000000E+00
  0.00000000E+00  0.00000000E+00  0.00000000E+00
  0.00000000E+00  0.00000000E+00  0.00000000E+00
  0.00000000E+00  0.00000000E+00  0.00000000E+00
  0.00000000E+00  0.00000000E+00  0.00000000E+00
  0.00000000E+00  0.00000000E+00  0.00000000E+00
  0.00000000E+00  0.00000000E+00  0.00000000E+00
  0.00000000E+00  0.00000000E+00  0.00000000E+00
  0.00000000E+00  0.00000000E+00  0.00000000E+00
  0.00000000E+00  0.00000000E+00  0.00000000E+00
  0.00000000E+00  0.00000000E+00  0.00000000E+00
  0.00000000E+00  0.00000000E+00  0.00000000E+00
  0.00000000E+00  0.00000000E+00  0.00000000E+00
  0.00000000E+00  0.00000000E+00  0.00000000E+00
  0.00000000E+00  0.00000000E+00  0.00000000E+00
  0.00000000E+00  0.00000000E+00  0.00000000E+00
  0.00000000E+00  0.00000000E+00  0.00000000E+00
  0.00000000E+00  0.00000000E+00  0.00000000E+00
  0.00000000E+00  0.00000000E+00  0.00000000E+00
  0.00000000E+00  0.00000000E+00  0.00000000E+00
  0.00000000E+00  0.00000000E+00  0.00000000E+00
  0.00000000E+00  0.00000000E+00  0.00000000E+00
  0.00000000E+00  0.00000000E+00  0.00000000E+00
  0.00000000E+00  0.00000000E+00  0.00000000E+00
  0.00000000E+00  0.00000000E+00  0.00000000E+00
  0.00000000E+00  0.00000000E+00  0.00000000E+00
  0.00000000E+00  0.00000000E+00  0.00000000E+00
  0.00000000E+00  0.00000000E+00  0.00000000E+00
  0.00000000E+00  0.00000000E+00  0.00000000E+00
  0.00000000E+00  0.00000000E+00  0.00000000E+00
  0.00000000E+00  0.00000000E+00  0.00000000E+00
  0.00000000E+00  0.00000000E+00  0.00000000E+00
  0.00000000E+00  0.00000000E+00  0.00000000E+00
  0.00000000E+00  0.00000000E+00  0.00000000E+00
  0.00000000E+00  0.00000000E+00  0.00000000E+00
  0.00000000E+00  0.00000000E+00  0.00000000E+00
  0.00000000E+00  0.00000000E+00  0.00000000E+00
  0.00000000E+00  0.00000000E+00  0.00000000E+00
  0.00000000E+00  0.00000000E+00  0.00000000E+00
  0.00000000E+00  0.00000000E+00  0.00000000E+00
  0.00000000E+00  0.00000000E+00  0.00000000E+00
  0.00000000E+00  0.00000000E+00  0.00000000E+00
  0.00000000E+00  0.00000000E+00  0.00000000E+00
  0.00000000E+00  0.00000000E+00  0.00000000E+00
  0.00000000E+00  0.00000000E+00  0.00000000E+00
  0.00000000E+00  0.00000000E+00  0.00000000E+00
  0.00000000E+00  0.00000000E+00  0.00000000E+00
  0.00000000E+00  0.00000000E+00  0.00000000E+00
  0.00000000E+00  0.00000000E+00  0.00000000E+00
  0.00000000E+00  0.00000000E+00  0.00000000E+00
  0.00000000E+00  0.00000000E+00  0.00000000E+00
  0.00000000E+00  0.00000000E+00  0.00000000E+00
  0.00000000E+00  0.00000000E+00  0.00000000E+00
  0.00000000E+00  0.00000000E+00  0.00000000E+00
  0.00000000E+00  0.00000000E+00  0.00000000E+00
  0.00000000E+00  0.00000000E+00  0.00000000E+00
  0.00000000E+00  0.00000000E+00  0.00000000E+00
  0.00000000E+00  0.00000000E+00  0.00000000E+00
  0.00000000E+00  0.00000000E+00  0.00000000E+00
  0.00000000E+00  0.00000000E+00  0.00000000E+00
  0.00000000E+00  0.00000000E+00  0.00000000E+00
  0.00000000E+00  0.00000000E+00  0.00000000E+00
  0.00000000E+00  0.00000000E+00  0.00000000E+00
  0.00000000E+00  0.00000000E+00  0.00000000E+00
  0.00000000E+00  0.00000000E+00  0.00000000E+00
  0.00000000E+00  0.00000000E+00  0.00000000E+00
  0.00000000E+00  0.00000000E+00  0.00000000E+00
  0.00000000E+00  0.00000000E+00  0.00000000E+00
  0.00000000E+00  0.00000000E+00  0.00000000E+00
  0.00000000E+00  0.00000000E+00  0.00000000E+00
  0.00000000E+00  0.00000000E+00  0.00000000E+00
  0.00000000E+00  0.00000000E+00  0.00000000E+00
  0.00000000E+00  0.00000000E+00  0.00000000E+00
  0.00000000E+00  0.00000000E+00  0.00000000E+00
  0.00000000E+00  0.00000000E+00  0.00000000E+00
  0.00000000E+00  0.00000000E+00  0.00000000E+00
  0.00000000E+00  0.00000000E+00  0.00000000E+00
  0.00000000E+00  0.00000000E+00  0.00000000E+00
  0.00000000E+00  0.00000000E+00  0.00000000E+00
  0.00000000E+00  0.00000000E+00  0.00000000E+00
  0.00000000E+00  0.00000000E+00  0.00000000E+00
  0.00000000E+00  0.00000000E+00  0.00000000E+00
  0.00000000E+00  0.00000000E+00  0.00000000E+00
  0.00000000E+00  0.00000000E+00  0.00000000E+00
  0.00000000E+00  0.00000000E+00  0.00000000E+00
  0.00000000E+00  0.00000000E+00  0.00000000E+00
  0.00000000E+00  0.00000000E+00  0.00000000E+00
  0.00000000E+00  0.00000000E+00  0.00000000E+00
  0.00000000E+00  0.00000000E+00  0.00000000E+00
  0.00000000E+00  0.00000000E+00  0.00000000E+00
  0.00000000E+00  0.00000000E+00  0.00000000E+00
  0.00000000E+00  0.00000000E+00  0.00000000E+00
  0.00000000E+00  0.00000000E+00  0.00000000E+00
  0.00000000E+00  0.00000000E+00  0.00000000E+00
  0.00000000E+00  0.00000000E+00  0.00000000E+00
  0.00000000E+00  0.00000000E+00  0.00000000E+00
  0.00000000E+00  0.00000000E+00  0.00000000E+00
  0.00000000E+00  0.00000000E+00  0.00000000E+00
  0.00000000E+00  0.00000000E+00  0.00000000E+00
  0.00000000E+00  0.00000000E+00  0.00000000E+00
  0.00000000E+00  0.00000000E+00  0.00000000E+00
  0.00000000E+00  0.00000000E+00  0.00000000E+00
  0.00000000E+00  0.00000000E+00  0.00000000E+00
  0.00000000E+00  0.00000000E+00  0.00000000E+00
  0.00000000E+00  0.00000000E+00  0.00000000E+00
  0.00000000E+00  0.00000000E+00  0.00000000E+00
  0.00000000E+00  0.00000000E+00  0.00000000E+00
  0.00000000E+00  0.00000000E+00  0.00000000E+00
  0.00000000E+00  0.00000000E+00  0.00000000E+00
  0.00000000E+00  0.00000000E+00  0.00000000E+00
  0.00000000E+00  0.00000000E+00  0.00000000E+00
  0.00000000E+00  0.00000000E+00  0.00000000E+00
  0.00000000E+00  0.00000000E+00  0.00000000E+00
  0.00000000E+00  0.00000000E+00  0.00000000E+00
  0.00000000E+00  0.00000000E+00  0.00000000E+00
  0.00000000E+00  0.00000000E+00  0.00000000E+00
  0.00000000E+00  0.00000000E+00  0.00000000E+00
  0.00000000E+00  0.00000000E+00  0.00000000E+00
  0.00000000E+00  0.00000000E+00  0.00000000E+00
  0.00000000E+00  0.00000000E+00  0.00000000E+00
  0.00000000E+00  0.00000000E+00  0.00000000E+00
  0.00000000E+00  0.00000000E+00  0.00000000E+00
  0.00000000E+00  0.00000000E+00  0.00000000E+00
  0.00000000E+00  0.00000000E+00  0.00000000E+00
  0.00000000E+00  0.00000000E+00  0.00000000E+00
  0.00000000E+00  0.00000000E+00  0.00000000E+00
  0.00000000E+00  0.00000000E+00  0.00000000E+00
  0.00000000E+00  0.00000000E+00  0.00000000E+00
  0.00000000E+00  0.00000000E+00  0.00000000E+00
  0.00000000E+00  0.00000000E+00  0.00000000E+00
  0.00000000E+00  0.00000000E+00  0.00000000E+00
  0.00000000E+00  0.00000000E+00  0.00000000E+00
  0.00000000E+00  0.00000000E+00  0.00000000E+00
  0.00000000E+00  0.00000000E+00  0.00000000E+00
  0.00000000E+00  0.00000000E+00  0.00000000E+00
  0.00000000E+00  0.00000000E+00  0.00000000E+00
  0.00000000E+00  0.00000000E+00  0.00000000E+00
  0.00000000E+00  0.00000000E+00  0.00000000E+00
  0.00000000E+00  0.00000000E+00  0.00000000E+00
  0.00000000E+00  0.00000000E+00  0.00000000E+00
  0.00000000E+00  0.00000000E+00  0.00000000E+00
  0.00000000E+00  0.00000000E+00  0.00000000E+00
  0.00000000E+00  0.00000000E+00  0.00000000E+00
  0.00000000E+00  0.00000000E+00  0.00000000E+00
  0.00000000E+00  0.00000000E+00  0.00000000E+00
  0.00000000E+00  0.00000000E+00  0.00000000E+00
  0.00000000E+00  0.00000000E+00  0.00000000E+00
  0.00000000E+00  0.00000000E+00  0.00000000E+00
  0.00000000E+00  0.00000000E+00  0.00000000E+00
  0.00000000E+00  0.00000000E+00  0.00000000E+00
  0.00000000E+00  0.00000000E+00  0.00000000E+00
  0.00000000E+00  0.00000000E+00  0.00000000E+00
  0.00000000E+00  0.00000000E+00  0.00000000E+00
  0.00000000E+00  0.00000000E+00  0.00000000E+00
  0.00000000E+00  0.00000000E+00  0.00000000E+00
  0.00000000E+00  0.00000000E+00  0.00000000E+00
  0.00000000E+00  0.00000000E+00  0.00000000E+00
  0.00000000E+00  0.00000000E+00  0.00000000E+00
  0.00000000E+00  0.00000000E+00  0.00000000E+00
  0.00000000E+00  0.00000000E+00  0.00000000E+00
  0.00000000E+00  0.00000000E+00  0.00000000E+00
  0.00000000E+00  0.00000000E+00  0.00000000E+00
  0.00000000E+00  0.00000000E+00  0.00000000E+00
  0.00000000E+00  0.00000000E+00  0.00000000E+00
  0.00000000E+00  0.00000000E+00  0.00000000E+00
  0.00000000E+00  0.00000000E+00  0.00000000E+00
  0.00000000E+00  0.00000000E+00  0.00000000E+00
  0.00000000E+00  0.00000000E+00  0.00000000E+00
  0.00000000E+00  0.00000000E+00  0.00000000E+00
  0.00000000E+00  0.00000000E+00  0.00000000E+00
  0.00000000E+00  0.00000000E+00  0.00000000E+00
  0.00000000E+00  0.00000000E+00  0.00000000E+00
  0.00000000E+00  0.00000000E+00  0.00000000E+00
  0.00000000E+00  0.00000000E+00  0.00000000E+00
  0.00000000E+00  0.00000000E+00  0.00000000E+00
  0.00000000E+00  0.00000000E+00  0.00000000E+00
  0.00000000E+00  0.00000000E+00  0.00000000E+00
  0.00000000E+00  0.00000000E+00  0.00000000E+00
  0.00000000E+00  0.00000000E+00  0.00000000E+00
  0.00000000E+00  0.00000000E+00  0.00000000E+00
  0.00000000E+00  0.00000000E+00  0.00000000E+00
  0.00000000E+00  0.00000000E+00  0.00000000E+00
  0.00000000E+00  0.00000000E+00  0.00000000E+00
  0.00000000E+00  0.00000000E+00  0.00000000E+00
  0.00000000E+00  0.00000000E+00  0.00000000E+00
  0.00000000E+00  0.00000000E+00  0.00000000E+00
  0.00000000E+00  0.00000000E+00  0.00000000E+00
  0.00000000E+00  0.00000000E+00  0.00000000E+00
  0.00000000E+00  0.00000000E+00  0.00000000E+00
  0.00000000E+00  0.00000000E+00  0.00000000E+00
  0.00000000E+00  0.00000000E+00  0.00000000E+00
  0.00000000E+00  0.00000000E+00  0.00000000E+00
  0.00000000E+00  0.00000000E+00  0.00000000E+00
  0.00000000E+00  0.00000000E+00  0.00000000E+00
  0.00000000E+00  0.00000000E+00  0.00000000E+00
  0.00000000E+00  0.00000000E+00  0.00000000E+00
  0.00000000E+00  0.00000000E+00  0.00000000E+00
  0.00000000E+00  0.00000000E+00  0.00000000E+00
  0.00000000E+00  0.00000000E+00  0.00000000E+00
  0.00000000E+00  0.00000000E+00  0.00000000E+00
  0.00000000E+00  0.00000000E+00  0.00000000E+00
  0.00000000E+00  0.00000000E+00  0.00000000E+00
  0.00000000E+00  0.00000000E+00  0.00000000E+00
  0.00000000E+00  0.00000000E+00  0.00000000E+00
  0.00000000E+00  0.00000000E+00  0.00000000E+00
  0.00000000E+00  0.00000000E+00  0.00000000E+00
  0.00000000E+00  0.00000000E+00  0.00000000E+00
  0.00000000E+00  0.00000000E+00  0.00000000E+00
  0.00000000E+00  0.00000000E+00  0.00000000E+00
  0.00000000E+00  0.00000000E+00  0.00000000E+00
  0.00000000E+00  0.00000000E+00  0.00000000E+00
  0.00000000E+00  0.00000000E+00  0.00000000E+00
  0.00000000E+00  0.00000000E+00  0.00000000E+00
  0.00000000E+00  0.00000000E+00  0.00000000E+00
  0.00000000E+00  0.00000000E+00  0.00000000E+00
  0.00000000E+00  0.00000000E+00  0.00000000E+00
  0.00000000E+00  0.00000000E+00  0.00000000E+00
  0.00000000E+00  0.00000000E+00  0.00000000E+00
  0.00000000E+00  0.00000000E+00  0.00000000E+00
  0.00000000E+00  0.00000000E+00  0.00000000E+00
  0.00000000E+00  0.00000000E+00  0.00000000E+00
  0.00000000E+00  0.00000000E+00  0.00000000E+00
  0.00000000E+00  0.00000000E+00  0.00000000E+00
  0.00000000E+00  0.00000000E+00  0.00000000E+00
  0.00000000E+00  0.00000000E+00  0.00000000E+00
  0.00000000E+00  0.00000000E+00  0.00000000E+00
  0.00000000E+00  0.00000000E+00  0.00000000E+00
  0.00000000E+00  0.00000000E+00  0.00000000E+00
  0.00000000E+00  0.00000000E+00  0.00000000E+00
  0.00000000E+00  0.00000000E+00  0.00000000E+00
  0.00000000E+00  0.00000000E+00  0.00000000E+00
  0.00000000E+00  0.00000000E+00  0.00000000E+00
  0.00000000E+00  0.00000000E+00  0.00000000E+00
  0.00000000E+00  0.00000000E+00  0.00000000E+00
  0.00000000E+00  0.00000000E+00  0.00000000E+00
  0.00000000E+00  0.00000000E+00  0.00000000E+00
  0.00000000E+00  0.00000000E+00  0.00000000E+00
  0.00000000E+00  0.00000000E+00  0.00000000E+00
  0.00000000E+00  0.00000000E+00  0.00000000E+00
  0.00000000E+00  0.00000000E+00  0.00000000E+00
  0.00000000E+00  0.00000000E+00  0.00000000E+00
  0.00000000E+00  0.00000000E+00  0.00000000E+00
  0.00000000E+00  0.00000000E+00  0.00000000E+00
  0.00000000E+00  0.00000000E+00  0.00000000E+00
  0.00000000E+00  0.00000000E+00  0.00000000E+00
  0.00000000E+00  0.00000000E+00  0.00000000E+00
  0.00000000E+00  0.00000000E+00  0.00000000E+00