 N Ga B 
 1.0
 14.936314146199660   0.000000000000000   0.000000000000000
 -7.468157073099825  12.935227489513863   0.000000000000000
  0.000000000000001   0.000000000000001  13.341276283792837
 N Ga B 
 143   1 143
Cartesian
  1.244356875505178   0.718612761589422   1.664983257974504 
  4.979882849425002   7.193037385772012   1.674315785663641 
  6.224587592107175   0.719039268863085   1.662985788026629 
  9.958242413122846   7.186163955545183   1.661753645190016 
 11.203519814348805   0.719365185346165   1.666175139170653 
 -3.733620920699986   9.342372947060781   8.339962611991513 
  1.245614378174305   9.342873844919382   8.342971424818012 
  2.487498177424765   2.873260708894047   8.349731973125046 
  6.223875564472345   9.345185779010361   8.351282110105767 
  7.471197836948312   2.873434523884506   8.351482166717075 
 12.447581841643006   2.874333155360409   8.338770908617301 
 -1.243922502562916   9.342441800701259   1.666535408873779 
 -0.001032073421181   2.873899129802150   1.663754849856845 
  4.979696061149290   2.874890997718440   1.666293426378975 
  3.734680521236145   9.345272358058899   1.654475046127553 
  8.713136056790265   9.342751425540190   1.661753645190016 
  9.959890799981855   2.873815487806898   1.662886715474819 
 -4.978487273625502  11.498492287657507   8.340067071640862 
  0.001020246706356  11.498569030389504   8.340268424069068 
  1.242680163277053   5.029348755574892   8.349731973125046 
  6.229908840128997   5.027928859091060   8.331641427180985 
  4.979356927187601  11.500353204304394   8.343070497369794 
 11.203402243540452   5.030020023947886   8.340844046013542 
 -1.244870346260520   5.030080781271162   1.664983257974504 
 -2.488712082629639  11.498480598109165   1.666535408873779 
  2.490305845809731  11.499395409780060   1.664016396332884 
  3.728333641955417   5.027049429481411   1.683345222252577 
  7.468440553020260  11.499163436252248   1.665113166831086 
  8.715720378910927   5.029183955825665   1.654675102738886 
  0.000602558591945   7.186381440135094   8.342516971435641 
  1.244356875505179   0.718612761589423   8.340973954870098 
  4.979882849425003   7.193037385772013   8.331641427180985 
  6.224587592107176   0.719039268863086   8.342971424818012 
  9.958242413122846   7.186163955545184   8.344203567654599 
 -2.488799974615032   7.186227390812414   1.665890141203739 
 11.203519814348805   0.719365185346166   8.339782073673961 
  3.734504476704632   0.719073607484986   1.663440241408946 
  2.490190976676687   7.186840289726067   1.666293426378975 
  7.469139287388564   7.186804575858409   1.661097992120096 
  8.714535784903262   0.718712917278651   1.664016396332884 
  2.490190976676688   7.186840289726068   8.339663786465653 
 13.691807834370017   0.719270519859384   1.667186304227301 
 -1.243922502562916   9.342441800701259   8.339421803970849 
 -0.001032073421181   2.873899129802151   8.342202362987811 
  4.979696061149291   2.874890997718440   8.339663786465653 
  3.734680521236145   9.345272358058899   8.351482166717075 
  8.713136056790265   9.342751425540190   8.344203567654599 
  9.959890799981855   2.873815487806899   8.343070497369794 
 -3.733620920699987   9.342372947060781   1.665994600853113 
  1.245614378174304   9.342873844919382   1.662985788026629 
  2.487498177424765   2.873260708894046   1.656225239719595 
  6.223875564472344   9.345185779010361   1.654675102738886 
  7.471197836948311   2.873434523884505   1.654475046127553 
 12.447581841643006   2.874333155360409   1.667186304227301 
 -1.244870346260520   5.030080781271163   8.340973954870098 
 -2.488712082629638  11.498480598109165   8.339421803970849 
  2.490305845809731  11.499395409780060   8.341940816511743 
  3.728333641955418   5.027049429481412   8.322611990592064 
  7.468440553020261  11.499163436252248   8.340844046013542 
 -4.978487273625503  11.498492287657507   1.665890141203739 
  8.715720378910927   5.029183955825666   8.351282110105767 
  0.001020246706355  11.498569030389504   1.665688788775573 
  1.242680163277053   5.029348755574891   1.656225239719595 
  0.000602558591944   7.186381440135093   1.663440241408946 
  6.229908840128996   5.027928859091059   1.674315785663641 
  4.979356927187600  11.500353204304394   1.662886715474819 
 11.203402243540452   5.030020023947885   1.665113166831086 
 -2.488799974615031   7.186227390812415   8.340067071640862 
  3.734504476704632   0.719073607484987   8.342516971435641 
  7.469139287388565   7.186804575858410   8.344859220724558 
  8.714535784903262   0.718712917278651   8.341940816511743 
 13.691807834370017   0.719270519859384   8.338770908617301 
  0.013527725233298   1.446530434725335   5.002978606422314 
  3.667636262004923   7.992254965362547   5.002978606422314 
  4.994819959804996   1.353692790547562   5.002978606422314 
  8.680915604886426   7.886423958963461   5.002978606422314 
  9.967760280671213   1.431235194306494   5.002978606422314 
 -4.978043618593246  10.061118203490951  11.673616748318732 
  0.000022371040362  10.061058197048240  11.673616748318732 
  1.245297636589856   3.593467923376116  11.673616748318732 
  4.979145544821137  10.060622404039874  11.673616748318732 
  6.223500914645959   3.592978322008508  11.673616748318732 
 11.202490762178504   3.593444746661837  11.673616748318732 
 -2.518808748051125  10.043745081954500   5.002978606422314 
 -1.229889724597159   3.600192632849427   5.002978606422314 
  3.797604137804784   3.484236344697635   5.002978606422314 
  2.455313425159817  10.098863504669822   5.002978606422314 
  7.450067670321697  10.053665326418640   5.002978606422314 
  8.726622865799232   3.571729494528113   5.002978606422314 
 -6.223029695682876  12.216733711820671  11.673616748318732 
 -1.244399591015545  12.216460261383636  11.673616748318732 
  0.000243007907166   5.749420997830180  11.673616748318732 
  4.979070879885581   5.749162910485895  11.673616748318732 
  3.734368132253500  12.216656454015498  11.673616748318732 
  9.958033913456745   5.749482806151349  11.673616748318732 
 -2.504247317366937   5.747208238137004   5.002978606422314 
 -3.750851636042514  12.182463915811287   5.002978606422314 
  1.236697233693468  12.211987471457926   5.002978606422314 
  2.426853565166264   5.858445981011701   5.002978606422314 
  6.225890056572469  12.226666557811654   5.002978606422314 
  7.448003204416549   5.722831661692849   5.002978606422314 
 -1.244616498357561   7.905240862875556  11.673616748318732 
  0.000464301322846   1.437458575094389  11.673616748318732 
  3.733975268395834   7.904963228059499  11.673616748318732 
  4.979103189374952   1.436787605909598  11.673616748318732 
  8.713985038425475   7.905516605319223  11.673616748318732 
 -3.764713342415413   7.892451061093892   5.002978606422314 
  9.957733213577923   1.437471939111501  11.673616748318732 
  2.493599245388241   1.412566052722570   5.002978606422314 
  1.180356634403174   7.960537073751700   5.002978606422314 
  6.190733511782891   7.900486648150865   5.002978606422314 
  7.484143365942161   1.388674544611151   5.002978606422314 
  1.244460470214458   7.905378543612803  11.673616748318732 
 12.459137741062964   1.444296533333970   5.002978606422314 
 -2.489013229086404  10.060947532849454  11.673616748318732 
 -1.244277897452344   3.593415305698031  11.673616748318732 
  3.734762930976044   3.592963996813976  11.673616748318732 
  2.489440316775466  10.060857120241394  11.673616748318732 
  7.468829434443973  10.060911434229521  11.673616748318732 
  8.712941661158640   3.593497825439918  11.673616748318732 
 -5.004836318308115  10.040407062973578   5.002978606422314 
 -0.035496153578249  10.069427091774381   5.002978606422314 
  1.275883917839804   3.611126921089292   5.002978606422314 
  4.967134219573794  10.083354840268955   5.002978606422314 
  6.265928273495383   3.491881188560699   5.002978606422314 
 11.212163179919372   3.590188167759604   5.002978606422314 
 -2.489055866268111   5.749301325141730  11.673616748318732 
 -3.733711603026921  12.216480049033891  11.673616748318732 
  1.244888656817142  12.216716791803453  11.673616748318732 
  2.489593870578473   5.749660073435383  11.673616748318732 
  6.223874127760827  12.216661708880883  11.673616748318732 
 -6.232438087750712  12.204624072751100   5.002978606422314 
  7.468726140846337   5.749679910577876  11.673616748318732 
 -1.254911177890434  12.181515869395941   5.002978606422314 
 -0.019267982157920   5.764979763507294   5.002978606422314 
 -1.282645350374618   7.907405225473599   5.002978606422314 
  3.733980486362081  12.228458521246253   5.002978606422314 
  9.942377717952811   5.736857695707114   5.002978606422314 
 -3.733380618728585   7.905298649424250  11.673616748318732 
  2.489880454092873   1.437242448610478  11.673616748318732 
  6.224346245579331   7.905009113097584  11.673616748318732 
  7.468292317328985   1.437232491916691  11.673616748318732 
 12.447281791819080   1.437451497846490  11.673616748318732 
  4.276449498917175   5.343504267045414   5.002978606422314 
  1.252710945884354   0.713082612521078   5.002978606422314 
  4.900694524709261   7.232752107733940   5.002978606422314 
  6.234219124132072   0.673059947745128   5.002978606422314 
  9.924202042105197   7.172423316830474   5.002978606422314 
 11.212603470253054   0.724609636527710   5.002978606422314 
 -3.733821061807986   9.342257395538230  11.673616748318732 
  1.245243999849686   9.341314663019862  11.673616748318732 
  2.491481850505441   2.876065383418822  11.673616748318732 
  6.223615585423735   9.340135065025637  11.673616748318732 
  7.466593891821781   2.875994787201554  11.673616748318732 
 12.447410956145811   2.875176242464016  11.673616748318732 
 -1.272904918823585   9.338316855998796   5.002978606422314 
  0.038113693512836   2.896499948879148   5.002978606422314 
  5.002765828118111   2.786343218597959   5.002978606422314 
  3.700678464653482   9.386841929932512   5.002978606422314 
  8.684216129090284   9.320141918841999   5.002978606422314 
  9.965905694847020   2.869828184785989   5.002978606422314 
 -4.978182591016506  11.498188174503930  11.673616748318732 
  0.000058057449664  11.498013510163100  11.673616748318732 
  1.247100919205215   5.031396380400703  11.673616748318732 
  6.222014244308741   5.031510676370212  11.673616748318732 
  4.979146163583993  11.496660966663891  11.673616748318732 
 11.201994353684507   5.031143106748588  11.673616748318732 
 -1.245482560650840   5.040080692978718   5.002978606422314 
 -2.506775597661519  11.475443561715613   5.002978606422314 
  2.481253058417761  11.514683650411710   5.002978606422314 
  7.459346865623929  11.489858021952516   5.002978606422314 
  8.690087888317253   5.016453585759539   5.002978606422314 
  0.001278859212414   7.186491234977598  11.673616748318732 
  1.245947563541370   0.719306095251112  11.673616748318732 
  4.979037496270328   7.184409556599498  11.673616748318732 
  6.223052111810775   0.719498102774690  11.673616748318732 
  9.957203472378303   7.186719711750290  11.673616748318732 
 -2.517518977539400   7.181801363625846   5.002978606422314 
 11.202252167955869   0.718633309359942  11.673616748318732 
  3.731122268216442   0.685447465757225   5.002978606422314 
  2.425041233994083   7.251093183540668   5.002978606422314 
  7.421051167435645   7.159040886858754   5.002978606422314 
  8.723249395973447   0.703228853106334   5.002978606422314 
  2.490813745200644   7.185607267174486  11.673616748318732 
 13.707098769423508   0.729903799566199   5.002978606422314 
 -1.244157916504625   9.342131552359321  11.673616748318732 
  0.001823888695022   2.875548020298762  11.673616748318732 
  4.978939616558168   2.876046842356643  11.673616748318732 
  3.734595801745800   9.340005092963210  11.673616748318732 
  8.713097885409962   9.341573798359773  11.673616748318732 
  9.956587846586608   2.875479079992157  11.673616748318732 
 -3.762970338426055   9.325428052836068   5.002978606422314 
  1.210610884049854   9.374204656889260   5.002978606422314 
  2.541792556028268   2.876346355410568   5.002978606422314 
  6.200034495298679   9.329352576027011   5.002978606422314 
  7.490197113923942   2.823203093166247   5.002978606422314 
 12.464435999521427   2.882258853710889   5.002978606422314 
 -1.243474557678110   5.031111690689169  11.673616748318732 
 -2.489098472546108  11.498431847826236  11.673616748318732 
  2.489546279665566  11.497214982658953  11.673616748318732 
  3.735963786491044   5.031454695483012  11.673616748318732 
  7.468709226328206  11.497382626470996  11.673616748318732 
 -4.996679827069103  11.475833915146943   5.002978606422314 
  8.711216342768584   5.031484164357507  11.673616748318732 
 -0.011500451833400  11.491340201717108   5.002978606422314 
  1.272499600849219   5.074826243469943   5.002978606422314 
 -0.030209638619648   7.200265432527305   5.002978606422314 
  6.224708635894412   4.939492397223094   5.002978606422314 
  4.978911268911518  11.507555907569126   5.002978606422314 
 11.190796674665965   5.026797366798481   5.002978606422314 
 -2.488911003027158   7.186643310268688  11.673616748318732 
  3.734937712137660   0.719604403581694  11.673616748318732 
  7.467508522882342   7.185863053531742  11.673616748318732 
  8.712267696553191   0.719145327262517  11.673616748318732 
 13.692452526470747   0.718700985125873  11.673616748318732 
  0.000801559018095   1.438459442665180   1.670412658507424 
  3.739864554078987   7.902293693220055   1.675721674936548 
  4.979280478969275   1.443557502428669   1.670707644698926 
  8.708456138939134   7.902324493712357   1.666114449657770 
  9.958462725785344   1.437918850212665   1.668617980833391 
 -4.980072336934760  10.060565823702797   8.337507823808190 
  0.002749388385556  10.060275654804560   8.336648827343922 
  1.246576114105757   3.594206052714092   8.338155236152364 
  4.978922642659793  10.060262905995119   8.342574748053110 
  6.224133672500268   3.599413360440024   8.330235537908067 
 11.202832753495201   3.592929488506403   8.336582577591738 
 -2.488600720894359  10.061185694565104   1.670060184045444 
 -1.243242491862597   3.593206945644355   1.670412658507424 
  3.733444552959212   3.598774316773736   1.682754917952479 
  2.492272717144597  10.059857473473594   1.665616028545201 
  7.466238970734325  10.060100379870594   1.664892455081426 
  8.712518875638578   3.593484535528050   1.663382464791503 
 -6.223604809309619  12.217903988560005   8.335946735956231 
 -1.243713783805508  12.219213198802970   8.336648827343922 
  0.003384445887493   5.747703333034569   8.337909455487802 
  4.979049467754682   5.749150548186354   8.194929302577755 
  3.735119924724050  12.217064774568911   8.337339232011249 
  9.956036287923213   5.747644925950726   8.341064757763188 
 -2.488329933695760   5.748218123761237   1.670010476888396 
 -3.733674969620853  12.219457315083668   1.669592761453639 
  1.246179549253623  12.217462088899158   1.669082477489978 
  2.493966566259333   5.745613164601122   1.682754917952479 
  6.223598896767077  12.217215511126703   1.669374635252889 
  7.463285870037469   5.745422377187586   1.671231265597727 
 -1.242019793621563   7.903783955310897   8.336364451390988 
  0.000801559018096   1.438459442665181   8.335544554337217 
  3.739864554078987   7.902293693220056   8.330235537908067 
  4.979280478969276   1.443557502428670   8.335249568145715 
  8.708456138939134   7.902324493712358   8.339842763186898 
 -3.734873352828428   7.903817917697463   1.668449389036424 
  9.958462725785344   1.437918850212665   8.337339232011249 
  2.489963631734851   1.440821846103659   1.668047757356825 
  1.250412017378134   7.902147132645765   1.670707644698926 
  6.217938978101422   7.902426467068821   1.671231265597727 
  7.468842798017819   1.440185245973957   1.665616028545201 
  1.250412017378135   7.902147132645766   8.335249568145715 
 12.447821633295884   1.437763175468432   1.670901798153825 
 -2.488600720894358  10.061185694565104   8.335897028799156 
 -1.243242491862596   3.593206945644356   8.335544554337217 
  3.733444552959212   3.598774316773737   8.323202294892148 
  2.492272717144597  10.059857473473594   8.340341184299440 
  7.466238970734326  10.060100379870594   8.341064757763188 
  8.712518875638578   3.593484535528050   8.342574748053110 
 -4.980072336934761  10.060565823702797   1.668449389036424 
  0.002749388385555  10.060275654804560   1.669308385500745 
  1.246576114105757   3.594206052714091   1.667801976692250 
  4.978922642659792  10.060262905995119   1.663382464791503 
  6.224133672500267   3.599413360440023   1.675721674936548 
 11.202832753495201   3.592929488506402   1.669374635252889 
 -2.488329933695760   5.748218123761238   8.335946735956231 
 -3.733674969620853  12.219457315083668   8.336364451390988 
  1.246179549253623  12.217462088899158   8.336874735354664 
  2.493966566259334   5.745613164601123   8.323202294892148 
  6.223598896767078  12.217215511126703   8.336582577591738 
 -6.223604809309620  12.217903988560005   1.670010476888396 
  7.463285870037470   5.745422377187587   8.334725947246888 
 -1.243713783805508  12.219213198802970   1.669308385500745 
  0.003384445887492   5.747703333034568   1.668047757356825 
 -1.242019793621564   7.903783955310896   1.669592761453639 
  4.979049467754681   5.749150548186353   1.811027910266898 
  3.735119924724049  12.217064774568911   1.668617980833391 
  9.956036287923213   5.747644925950725   1.664892455081426 
 -3.734873352828428   7.903817917697464   8.337507823808190 
  2.489963631734852   1.440821846103659   8.337909455487802 
  6.217938978101423   7.902426467068822   8.334725947246888 
  7.468842798017820   1.440185245973958   8.340341184299440 
 12.447821633295884   1.437763175468432   8.335055414690816 
Generated by cif2cell 2.0.0.  :  Failed to get author information, No journal information. Species order: N Ga B 
 1.0
 14.936314146199660   0.000000000000000   0.000000000000000
 -7.468157073099825  12.935227489513863   0.000000000000000
  0.000000000000001   0.000000000000001  13.341276283792837
 N Ga B 
 143   1 143
Cartesian
  1.244356875505178   0.718612761589422   1.664983257974504 
  4.979882849425002   7.193037385772012   1.674315785663641 
  6.224587592107175   0.719039268863085   1.662985788026629 
  9.958242413122846   7.186163955545183   1.661753645190016 
 11.203519814348805   0.719365185346165   1.666175139170653 
 -3.733620920699986   9.342372947060781   8.339962611991513 
  1.245614378174305   9.342873844919382   8.342971424818012 
  2.487498177424765   2.873260708894047   8.349731973125046 
  6.223875564472345   9.345185779010361   8.351282110105767 
  7.471197836948312   2.873434523884506   8.351482166717075 
 12.447581841643006   2.874333155360409   8.338770908617301 
 -1.243922502562916   9.342441800701259   1.666535408873779 
 -0.001032073421181   2.873899129802150   1.663754849856845 
  4.979696061149290   2.874890997718440   1.666293426378975 
  3.734680521236145   9.345272358058899   1.654475046127553 
  8.713136056790265   9.342751425540190   1.661753645190016 
  9.959890799981855   2.873815487806898   1.662886715474819 
 -4.978487273625502  11.498492287657507   8.340067071640862 
  0.001020246706356  11.498569030389504   8.340268424069068 
  1.242680163277053   5.029348755574892   8.349731973125046 
  6.229908840128997   5.027928859091060   8.331641427180985 
  4.979356927187601  11.500353204304394   8.343070497369794 
 11.203402243540452   5.030020023947886   8.340844046013542 
 -1.244870346260520   5.030080781271162   1.664983257974504 
 -2.488712082629639  11.498480598109165   1.666535408873779 
  2.490305845809731  11.499395409780060   1.664016396332884 
  3.728333641955417   5.027049429481411   1.683345222252577 
  7.468440553020260  11.499163436252248   1.665113166831086 
  8.715720378910927   5.029183955825665   1.654675102738886 
  0.000602558591945   7.186381440135094   8.342516971435641 
  1.244356875505179   0.718612761589423   8.340973954870098 
  4.979882849425003   7.193037385772013   8.331641427180985 
  6.224587592107176   0.719039268863086   8.342971424818012 
  9.958242413122846   7.186163955545184   8.344203567654599 
 -2.488799974615032   7.186227390812414   1.665890141203739 
 11.203519814348805   0.719365185346166   8.339782073673961 
  3.734504476704632   0.719073607484986   1.663440241408946 
  2.490190976676687   7.186840289726067   1.666293426378975 
  7.469139287388564   7.186804575858409   1.661097992120096 
  8.714535784903262   0.718712917278651   1.664016396332884 
  2.490190976676688   7.186840289726068   8.339663786465653 
 13.691807834370017   0.719270519859384   1.667186304227301 
 -1.243922502562916   9.342441800701259   8.339421803970849 
 -0.001032073421181   2.873899129802151   8.342202362987811 
  4.979696061149291   2.874890997718440   8.339663786465653 
  3.734680521236145   9.345272358058899   8.351482166717075 
  8.713136056790265   9.342751425540190   8.344203567654599 
  9.959890799981855   2.873815487806899   8.343070497369794 
 -3.733620920699987   9.342372947060781   1.665994600853113 
  1.245614378174304   9.342873844919382   1.662985788026629 
  2.487498177424765   2.873260708894046   1.656225239719595 
  6.223875564472344   9.345185779010361   1.654675102738886 
  7.471197836948311   2.873434523884505   1.654475046127553 
 12.447581841643006   2.874333155360409   1.667186304227301 
 -1.244870346260520   5.030080781271163   8.340973954870098 
 -2.488712082629638  11.498480598109165   8.339421803970849 
  2.490305845809731  11.499395409780060   8.341940816511743 
  3.728333641955418   5.027049429481412   8.322611990592064 
  7.468440553020261  11.499163436252248   8.340844046013542 
 -4.978487273625503  11.498492287657507   1.665890141203739 
  8.715720378910927   5.029183955825666   8.351282110105767 
  0.001020246706355  11.498569030389504   1.665688788775573 
  1.242680163277053   5.029348755574891   1.656225239719595 
  0.000602558591944   7.186381440135093   1.663440241408946 
  6.229908840128996   5.027928859091059   1.674315785663641 
  4.979356927187600  11.500353204304394   1.662886715474819 
 11.203402243540452   5.030020023947885   1.665113166831086 
 -2.488799974615031   7.186227390812415   8.340067071640862 
  3.734504476704632   0.719073607484987   8.342516971435641 
  7.469139287388565   7.186804575858410   8.344859220724558 
  8.714535784903262   0.718712917278651   8.341940816511743 
 13.691807834370017   0.719270519859384   8.338770908617301 
  0.013527725233298   1.446530434725335   5.002978606422314 
  3.667636262004923   7.992254965362547   5.002978606422314 
  4.994819959804996   1.353692790547562   5.002978606422314 
  8.680915604886426   7.886423958963461   5.002978606422314 
  9.967760280671213   1.431235194306494   5.002978606422314 
 -4.978043618593246  10.061118203490951  11.673616748318732 
  0.000022371040362  10.061058197048240  11.673616748318732 
  1.245297636589856   3.593467923376116  11.673616748318732 
  4.979145544821137  10.060622404039874  11.673616748318732 
  6.223500914645959   3.592978322008508  11.673616748318732 
 11.202490762178504   3.593444746661837  11.673616748318732 
 -2.518808748051125  10.043745081954500   5.002978606422314 
 -1.229889724597159   3.600192632849427   5.002978606422314 
  3.797604137804784   3.484236344697635   5.002978606422314 
  2.455313425159817  10.098863504669822   5.002978606422314 
  7.450067670321697  10.053665326418640   5.002978606422314 
  8.726622865799232   3.571729494528113   5.002978606422314 
 -6.223029695682876  12.216733711820671  11.673616748318732 
 -1.244399591015545  12.216460261383636  11.673616748318732 
  0.000243007907166   5.749420997830180  11.673616748318732 
  4.979070879885581   5.749162910485895  11.673616748318732 
  3.734368132253500  12.216656454015498  11.673616748318732 
  9.958033913456745   5.749482806151349  11.673616748318732 
 -2.504247317366937   5.747208238137004   5.002978606422314 
 -3.750851636042514  12.182463915811287   5.002978606422314 
  1.236697233693468  12.211987471457926   5.002978606422314 
  2.426853565166264   5.858445981011701   5.002978606422314 
  6.225890056572469  12.226666557811654   5.002978606422314 
  7.448003204416549   5.722831661692849   5.002978606422314 
 -1.244616498357561   7.905240862875556  11.673616748318732 
  0.000464301322846   1.437458575094389  11.673616748318732 
  3.733975268395834   7.904963228059499  11.673616748318732 
  4.979103189374952   1.436787605909598  11.673616748318732 
  8.713985038425475   7.905516605319223  11.673616748318732 
 -3.764713342415413   7.892451061093892   5.002978606422314 
  9.957733213577923   1.437471939111501  11.673616748318732 
  2.493599245388241   1.412566052722570   5.002978606422314 
  1.180356634403174   7.960537073751700   5.002978606422314 
  6.190733511782891   7.900486648150865   5.002978606422314 
  7.484143365942161   1.388674544611151   5.002978606422314 
  1.244460470214458   7.905378543612803  11.673616748318732 
 12.459137741062964   1.444296533333970   5.002978606422314 
 -2.489013229086404  10.060947532849454  11.673616748318732 
 -1.244277897452344   3.593415305698031  11.673616748318732 
  3.734762930976044   3.592963996813976  11.673616748318732 
  2.489440316775466  10.060857120241394  11.673616748318732 
  7.468829434443973  10.060911434229521  11.673616748318732 
  8.712941661158640   3.593497825439918  11.673616748318732 
 -5.004836318308115  10.040407062973578   5.002978606422314 
 -0.035496153578249  10.069427091774381   5.002978606422314 
  1.275883917839804   3.611126921089292   5.002978606422314 
  4.967134219573794  10.083354840268955   5.002978606422314 
  6.265928273495383   3.491881188560699   5.002978606422314 
 11.212163179919372   3.590188167759604   5.002978606422314 
 -2.489055866268111   5.749301325141730  11.673616748318732 
 -3.733711603026921  12.216480049033891  11.673616748318732 
  1.244888656817142  12.216716791803453  11.673616748318732 
  2.489593870578473   5.749660073435383  11.673616748318732 
  6.223874127760827  12.216661708880883  11.673616748318732 
 -6.232438087750712  12.204624072751100   5.002978606422314 
  7.468726140846337   5.749679910577876  11.673616748318732 
 -1.254911177890434  12.181515869395941   5.002978606422314 
 -0.019267982157920   5.764979763507294   5.002978606422314 
 -1.282645350374618   7.907405225473599   5.002978606422314 
  3.733980486362081  12.228458521246253   5.002978606422314 
  9.942377717952811   5.736857695707114   5.002978606422314 
 -3.733380618728585   7.905298649424250  11.673616748318732 
  2.489880454092873   1.437242448610478  11.673616748318732 
  6.224346245579331   7.905009113097584  11.673616748318732 
  7.468292317328985   1.437232491916691  11.673616748318732 
 12.447281791819080   1.437451497846490  11.673616748318732 
  4.276449498917175   5.343504267045414   5.002978606422314 
  1.252710945884354   0.713082612521078   5.002978606422314 
  4.900694524709261   7.232752107733940   5.002978606422314 
  6.234219124132072   0.673059947745128   5.002978606422314 
  9.924202042105197   7.172423316830474   5.002978606422314 
 11.212603470253054   0.724609636527710   5.002978606422314 
 -3.733821061807986   9.342257395538230  11.673616748318732 
  1.245243999849686   9.341314663019862  11.673616748318732 
  2.491481850505441   2.876065383418822  11.673616748318732 
  6.223615585423735   9.340135065025637  11.673616748318732 
  7.466593891821781   2.875994787201554  11.673616748318732 
 12.447410956145811   2.875176242464016  11.673616748318732 
 -1.272904918823585   9.338316855998796   5.002978606422314 
  0.038113693512836   2.896499948879148   5.002978606422314 
  5.002765828118111   2.786343218597959   5.002978606422314 
  3.700678464653482   9.386841929932512   5.002978606422314 
  8.684216129090284   9.320141918841999   5.002978606422314 
  9.965905694847020   2.869828184785989   5.002978606422314 
 -4.978182591016506  11.498188174503930  11.673616748318732 
  0.000058057449664  11.498013510163100  11.673616748318732 
  1.247100919205215   5.031396380400703  11.673616748318732 
  6.222014244308741   5.031510676370212  11.673616748318732 
  4.979146163583993  11.496660966663891  11.673616748318732 
 11.201994353684507   5.031143106748588  11.673616748318732 
 -1.245482560650840   5.040080692978718   5.002978606422314 
 -2.506775597661519  11.475443561715613   5.002978606422314 
  2.481253058417761  11.514683650411710   5.002978606422314 
  7.459346865623929  11.489858021952516   5.002978606422314 
  8.690087888317253   5.016453585759539   5.002978606422314 
  0.001278859212414   7.186491234977598  11.673616748318732 
  1.245947563541370   0.719306095251112  11.673616748318732 
  4.979037496270328   7.184409556599498  11.673616748318732 
  6.223052111810775   0.719498102774690  11.673616748318732 
  9.957203472378303   7.186719711750290  11.673616748318732 
 -2.517518977539400   7.181801363625846   5.002978606422314 
 11.202252167955869   0.718633309359942  11.673616748318732 
  3.731122268216442   0.685447465757225   5.002978606422314 
  2.425041233994083   7.251093183540668   5.002978606422314 
  7.421051167435645   7.159040886858754   5.002978606422314 
  8.723249395973447   0.703228853106334   5.002978606422314 
  2.490813745200644   7.185607267174486  11.673616748318732 
 13.707098769423508   0.729903799566199   5.002978606422314 
 -1.244157916504625   9.342131552359321  11.673616748318732 
  0.001823888695022   2.875548020298762  11.673616748318732 
  4.978939616558168   2.876046842356643  11.673616748318732 
  3.734595801745800   9.340005092963210  11.673616748318732 
  8.713097885409962   9.341573798359773  11.673616748318732 
  9.956587846586608   2.875479079992157  11.673616748318732 
 -3.762970338426055   9.325428052836068   5.002978606422314 
  1.210610884049854   9.374204656889260   5.002978606422314 
  2.541792556028268   2.876346355410568   5.002978606422314 
  6.200034495298679   9.329352576027011   5.002978606422314 