B C N                                   
   1.0000000000000000     
     8.7639499999999995  -15.1796066749929999    0.0000000000000000
     8.7639499999999995   15.1796066749929999    0.0000000000000000
     0.0000000000000000    0.0000000000000000   15.0000000000000000
   B    C    N 
    48     2    48
Selective dynamics
Direct
  0.9046838385347666  0.9523601387714702  0.1110097529649359   T   T   T
  0.9047600318088302  0.0952417370621712  0.1110442089291438   T   T   T
  0.9047979491280861  0.2380994344573618  0.1110509330175311   T   T   T
  0.9048489638744922  0.3809554939700070  0.1109951051390228   T   T   T
  0.9051614941116753  0.5238679574414754  0.1109994816380720   T   T   T
  0.9052415010418533  0.6668875648468310  0.1110701114823486   T   T   T
  0.9052277367792267  0.8099695469089174  0.1110597773640966   T   T   T
  0.0476119484385249  0.9523897737174754  0.1110050059131981   T   T   T
  0.0476415669955280  0.0953178636572350  0.1110097541549386   T   T   T
  0.0476808539702751  0.2381561090787164  0.1109990073277501   T   T   T
  0.0476890607501474  0.3809545605587542  0.1110176053701994   T   T   T
  0.0477713980677168  0.5238145956396308  0.1110064509281343   T   T   T
  0.0478025869516766  0.6667146028569325  0.1110158090764743   T   T   T
  0.0477919496978673  0.8095997268835379  0.1109891366828637   T   T   T
  0.1904020161364625  0.9522098023411371  0.1109891331468549   T   T   T
  0.1900321634010851  0.0947740066777717  0.1110597753030963   T   T   T
  0.1907278995602566  0.2383627020663306  0.1110162072402110   T   T   T
  0.1905289240973062  0.3810804056099283  0.1110109794771791   T   T   T
  0.1904850346122575  0.5238364118888614  0.1110797567023184   T   T   T
  0.1904340312443935  0.6666881775680146  0.1110779343735361   T   T   T
  0.1905064525224776  0.8094951838155209  0.1109994833921165   T   T   T
  0.3332870646050685  0.9521990544073220  0.1110158061934756   T   T   T
  0.3331141870001707  0.0947602387071420  0.1110701104783518   T   T   T
  0.3322173108028867  0.2367773250713373  0.1110773737049403   T   T   T
  0.3341329006722011  0.3816151028220561  0.1110114386598125   T   T   T
  0.3330862996331119  0.5243439980036275  0.1110616184660698   T   T   T
  0.3331005467433283  0.6669012758686705  0.1111166300490088   T   T   T
  0.3333134744579786  0.8095676533426046  0.1110779325915376   T   T   T
  0.4761870482763699  0.9522301933832860  0.1110064562241362   T   T   T
  0.4761337629795216  0.0948401751133245  0.1109994956580749   T   T   T
  0.4759393325353437  0.2371962381861304  0.1110418643472367   T   T   T
  0.4739519831783503  0.3776512262848541  0.1108939657717271   T   T   T
  0.4756577309853707  0.6669154626178839  0.1110616181370672   T   T   T
  0.4761653751221401  0.8095167952167384  0.1110797566773144   T   T   T
  0.6190471843312452  0.9523126669738646  0.1110176081032025   T   T   T
  0.6190461640669928  0.0951526500315086  0.1109951123570214   T   T   T
  0.6190118564918538  0.2379882877909402  0.1110186834518168   T   T   T
  0.6190158906442405  0.3809859086347572  0.1109699020718361   T   T   T
  0.6223505077801477  0.5260496525326511  0.1108939655977223   T   T   T
  0.6183865548039449  0.6658686972617934  0.1110114362458147   T   T   T
  0.6189213191200694  0.8094728395156935  0.1110109776421812   T   T   T
  0.7618456135232772  0.9523208942797247  0.1109990096817498   T   T   T
  0.7619022664456372  0.0952037398799157  0.1110509325215297   T   T   T
  0.7619216458471023  0.2380799773838975  0.1110569188786414   T   T   T
  0.7620134445890593  0.3809898681351440  0.1110186768748201   T   T   T
  0.7628056309088711  0.5240624394496612  0.1110418571132366   T   T   T
  0.7632244640066610  0.6677843817541125  0.1110773752639350   T   T   T
  0.7616389536026652  0.8092737641417447  0.1110162082602164   T   T   T
  0.4741153101819605  0.5258862285610391  0.1112897784642847   T   T   T
  0.5224726352842003  0.4775291185877983  0.1108875184723325   T   T   T
  0.9525278212600263  0.9050105794893196  0.1110089726580392   T   T   T
  0.9523530444936991  0.0476486756353003  0.1110051390023252   T   T   T
  0.9524347679975371  0.1905000292943047  0.1110248066957769   T   T   T
  0.9524597861241825  0.3333298162585878  0.1110051135300834   T   T   T
  0.9526177507355357  0.4761648271244117  0.1109519865153664   T   T   T
  0.9526730220399967  0.6191058819774645  0.1110091068661447   T   T   T
  0.9526685385364851  0.7621233618063288  0.1110303301136351   T   T   T
  0.0952414407039299  0.9047603248690733  0.1109578273397261   T   T   T
  0.0949911354296817  0.0474739052329698  0.1110089831650407   T   T   T
  0.0954388185160679  0.1907215544538950  0.1109754940972413   T   T   T
  0.0953636811660859  0.3333922209379739  0.1109852161131626   T   T   T
  0.0953595878246742  0.4761677499750806  0.1110197204513957   T   T   T
  0.0953029970648326  0.6190221339302423  0.1110171600693806   T   T   T
  0.0953455172866728  0.7619239790747427  0.1109744464089828   T   T   T
  0.2380776885522536  0.9046561350923252  0.1109744454859806   T   T   T
  0.2378783813656709  0.0473332388185102  0.1110303199066318   T   T   T
  0.2372952200575667  0.1897567176906325  0.1110549179406393   T   T   T
  0.2388387928210307  0.3341479677882145  0.1109986456252700   T   T   T
  0.2381407671578214  0.4762011049845380  0.1110329593782382   T   T   T
  0.2379771706723018  0.6190670275386212  0.1110853649029160   T   T   T
  0.2381032802430991  0.7618983691999007  0.1110392693332387   T   T   T
  0.3809795096607561  0.9046986261541666  0.1110171507853794   T   T   T
  0.3808958233365339  0.0473286088120082  0.1110091124261487   T   T   T
  0.3805805799314841  0.1897957428350470  0.1110760595150972   T   T   T
  0.3792693444920127  0.3312989789201612  0.1109965658455143   T   T   T
  0.3820951714547308  0.4781815082011244  0.1109995299184644   T   T   T
  0.3805956619149999  0.6194060929199968  0.1110956950161423   T   T   T
  0.3809347712343777  0.7620246881826986  0.1110853717849132   T   T   T
  0.5238340263419256  0.9046422152383260  0.1110197257193951   T   T   T
  0.5238368296965867  0.0473837933704631  0.1109520045123623   T   T   T
  0.5237715009346512  0.1899611125324472  0.1110148569772385   T   T   T
  0.5233895273330593  0.3321915222510011  0.1109394914976760   T   T   T
  0.5218200385728774  0.6179063285082670  0.1109995334514605   T   T   T
  0.5238006313174655  0.7618610459251814  0.1110329543512407   T   T   T
  0.6666095342880212  0.9046381029899195  0.1109852148181630   T   T   T
  0.6666718962314098  0.0475418882578089  0.1110051162410811   T   T   T
  0.6666791037686859  0.1904288511926768  0.1110164330870833   T   T   T
  0.6666352278714416  0.3333665302975571  0.1110034578235714   T   T   T
  0.6678104127160013  0.4766122476939427  0.1109394866546735   T   T   T
  0.6687028162688463  0.6207323036579910  0.1109965671535169   T   T   T
  0.6658536355907831  0.7611628570409763  0.1109986408402692   T   T   T
  0.8092801288041034  0.9045628895709300  0.1109754957702426   T   T   T
  0.8095017405406972  0.0475670151644688  0.1110248101617759   T   T   T
  0.8095483930955192  0.1904532643354803  0.1110488156612610   T   T   T
  0.8095727771313233  0.3333225394923151  0.1110164275710832   T   T   T
  0.8100406125085549  0.4762302171003503  0.1110148376482379   T   T   T
  0.8102060907139526  0.6194211711145159  0.1110760588850945   T   T   T
  0.8102450101533688  0.7627064736054352  0.1110549226926354   T   T   T

  0.00000000E+00  0.00000000E+00  0.00000000E+00
  0.00000000E+00  0.00000000E+00  0.00000000E+00
  0.00000000E+00  0.00000000E+00  0.00000000E+00
  0.00000000E+00  0.00000000E+00  0.00000000E+00
  0.00000000E+00  0.00000000E+00  0.00000000E+00
  0.00000000E+00  0.00000000E+00  0.00000000E+00
  0.00000000E+00  0.00000000E+00  0.00000000E+00
  0.00000000E+00  0.00000000E+00  0.00000000E+00
  0.00000000E+00  0.00000000E+00  0.00000000E+00
  0.00000000E+00  0.00000000E+00  0.00000000E+00
  0.00000000E+00  0.00000000E+00  0.00000000E+00
  0.00000000E+00  0.00000000E+00  0.00000000E+00
  0.00000000E+00  0.00000000E+00  0.00000000E+00
  0.00000000E+00  0.00000000E+00  0.00000000E+00
  0.00000000E+00  0.00000000E+00  0.00000000E+00
  0.00000000E+00  0.00000000E+00  0.00000000E+00
  0.00000000E+00  0.00000000E+00  0.00000000E+00
  0.00000000E+00  0.00000000E+00  0.00000000E+00
  0.00000000E+00  0.00000000E+00  0.00000000E+00
  0.00000000E+00  0.00000000E+00  0.00000000E+00
  0.00000000E+00  0.00000000E+00  0.00000000E+00
  0.00000000E+00  0.00000000E+00  0.00000000E+00
  0.00000000E+00  0.00000000E+00  0.00000000E+00
  0.00000000E+00  0.00000000E+00  0.00000000E+00
  0.00000000E+00  0.00000000E+00  0.00000000E+00
  0.00000000E+00  0.00000000E+00  0.00000000E+00
  0.00000000E+00  0.00000000E+00  0.00000000E+00
  0.00000000E+00  0.00000000E+00  0.00000000E+00
  0.00000000E+00  0.00000000E+00  0.00000000E+00
  0.00000000E+00  0.00000000E+00  0.00000000E+00
  0.00000000E+00  0.00000000E+00  0.00000000E+00
  0.00000000E+00  0.00000000E+00  0.00000000E+00
  0.00000000E+00  0.00000000E+00  0.00000000E+00
  0.00000000E+00  0.00000000E+00  0.00000000E+00
  0.00000000E+00  0.00000000E+00  0.00000000E+00
  0.00000000E+00  0.00000000E+00  0.00000000E+00
  0.00000000E+00  0.00000000E+00  0.00000000E+00
  0.00000000E+00  0.00000000E+00  0.00000000E+00
  0.00000000E+00  0.00000000E+00  0.00000000E+00
  0.00000000E+00  0.00000000E+00  0.00000000E+00
  0.00000000E+00  0.00000000E+00  0.00000000E+00
  0.00000000E+00  0.00000000E+00  0.00000000E+00
  0.00000000E+00  0.00000000E+00  0.00000000E+00
  0.00000000E+00  0.00000000E+00  0.00000000E+00
  0.00000000E+00  0.00000000E+00  0.00000000E+00
  0.00000000E+00  0.00000000E+00  0.00000000E+00
  0.00000000E+00  0.00000000E+00  0.00000000E+00
  0.00000000E+00  0.00000000E+00  0.00000000E+00
  0.00000000E+00  0.00000000E+00  0.00000000E+00
  0.00000000E+00  0.00000000E+00  0.00000000E+00
  0.00000000E+00  0.00000000E+00  0.00000000E+00
  0.00000000E+00  0.00000000E+00  0.00000000E+00
  0.00000000E+00  0.00000000E+00  0.00000000E+00
  0.00000000E+00  0.00000000E+00  0.00000000E+00
  0.00000000E+00  0.00000000E+00  0.00000000E+00
  0.00000000E+00  0.00000000E+00  0.00000000E+00
  0.00000000E+00  0.00000000E+00  0.00000000E+00
  0.00000000E+00  0.00000000E+00  0.00000000E+00
  0.00000000E+00  0.00000000E+00  0.00000000E+00
  0.00000000E+00  0.00000000E+00  0.00000000E+00
  0.00000000E+00  0.00000000E+00  0.00000000E+00
  0.00000000E+00  0.00000000E+00  0.00000000E+00
  0.00000000E+00  0.00000000E+00  0.00000000E+00
  0.00000000E+00  0.00000000E+00  0.00000000E+00
  0.00000000E+00  0.00000000E+00  0.00000000E+00
  0.00000000E+00  0.00000000E+00  0.00000000E+00
  0.00000000E+00  0.00000000E+00  0.00000000E+00
  0.00000000E+00  0.00000000E+00  0.00000000E+00
  0.00000000E+00  0.00000000E+00  0.00000000E+00
  0.00000000E+00  0.00000000E+00  0.00000000E+00
  0.00000000E+00  0.00000000E+00  0.00000000E+00
  0.00000000E+00  0.00000000E+00  0.00000000E+00
  0.00000000E+00  0.00000000E+00  0.00000000E+00
  0.00000000E+00  0.00000000E+00  0.00000000E+00
  0.00000000E+00  0.00000000E+00  0.00000000E+00
  0.00000000E+00  0.00000000E+00  0.00000000E+00
  0.00000000E+00  0.00000000E+00  0.00000000E+00
  0.00000000E+00  0.00000000E+00  0.00000000E+00
  0.00000000E+00  0.00000000E+00  0.00000000E+00
  0.00000000E+00  0.00000000E+00  0.00000000E+00
  0.00000000E+00  0.00000000E+00  0.00000000E+00
  0.00000000E+00  0.00000000E+00  0.00000000E+00
  0.00000000E+00  0.00000000E+00  0.00000000E+00
  0.00000000E+00  0.00000000E+00  0.00000000E+00
  0.00000000E+00  0.00000000E+00  0.00000000E+00
  0.00000000E+00  0.00000000E+00  0.00000000E+00
  0.00000000E+00  0.00000000E+00  0.00000000E+00
  0.00000000E+00  0.00000000E+00  0.00000000E+00
  0.00000000E+00  0.00000000E+00  0.00000000E+00
  0.00000000E+00  0.00000000E+00  0.00000000E+00
  0.00000000E+00  0.00000000E+00  0.00000000E+00
  0.00000000E+00  0.00000000E+00  0.00000000E+00
  0.00000000E+00  0.00000000E+00  0.00000000E+00
  0.00000000E+00  0.00000000E+00  0.00000000E+00
  0.00000000E+00  0.00000000E+00  0.00000000E+00
  0.00000000E+00  0.00000000E+00  0.00000000E+00
  0.00000000E+00  0.00000000E+00  0.00000000E+00
  0.00000000E+00  0.00000000E+00  0.00000000E+00
