B N O                                   
   1.0000000000000000     
     8.7639499999999995  -15.1796066749929999    0.0000000000000000
     8.7639499999999995   15.1796066749929999    0.0000000000000000
     0.0000000000000000    0.0000000000000000   15.0000000000000000
   B    N    O 
    49    48     1
Selective dynamics
Direct
  0.9047821178266939  0.9523706071401782  0.1110258626030167   T   T   T
  0.9047729163075954  0.0952291048884010  0.1110362394024186   T   T   T
  0.9047729163075954  0.2381151177451933  0.1110362394024186   T   T   T
  0.9047821178266939  0.3809845285685175  0.1110258626030167   T   T   T
  0.9048068494293688  0.5238543289712944  0.1110332994352496   T   T   T
  0.9049484244983618  0.6667607211906792  0.1110381116801383   T   T   T
  0.9048068494293688  0.8095255383410781  0.1110332994352496   T   T   T
  0.0476273545172018  0.9523746666788016  0.1110271216968736   T   T   T
  0.0476314140558253  0.0952199033693023  0.1110258626030167   T   T   T
  0.0476400774742107  0.2381065476781062  0.1110286466473925   T   T   T
  0.0476314140558253  0.3809845285685175  0.1110258626030167   T   T   T
  0.0476273545172018  0.5238274172773992  0.1110271216968736   T   T   T
  0.0476557323811576  0.6666869307429221  0.1110312121193507   T   T   T
  0.0476557323811576  0.8095435310772345  0.1110312121193507   T   T   T
  0.1904584901187689  0.9523462888148460  0.1110312121193507   T   T   T
  0.1904764828549254  0.0951951717666275  0.1110332994352496   T   T   T
  0.1904294906143650  0.2380135003554184  0.1110241651427200   T   T   T
  0.1904294906143650  0.3809890081409484  0.1110241651427200   T   T   T
  0.1904764828549254  0.5238543289712944  0.1110332994352496   T   T   T
  0.1904584901187689  0.6666869307429221  0.1110312121193507   T   T   T
  0.1904764376510002  0.8095255835450033  0.1110239479338228   T   T   T
  0.3333150904540760  0.9523462888148460  0.1110312121193507   T   T   T
  0.3332413000063191  0.0950535966976346  0.1110381116801383   T   T   T
  0.3332461730383040  0.2377688400995566  0.1110355353196002   T   T   T
  0.3329190623563351  0.3807460401186675  0.1110272659597179   T   T   T
  0.3332461730383040  0.5240503508207494  0.1110355353196002   T   T   T
  0.3332413000063191  0.6667607211906792  0.1110381116801383   T   T   T
  0.3333150904540760  0.8095435310772345  0.1110312121193507   T   T   T
  0.4761746039195988  0.9523746666788016  0.1110271216968736   T   T   T
  0.4761476922257038  0.0951951717666275  0.1110332994352496   T   T   T
  0.4759516703762490  0.2377688400995566  0.1110355353196002   T   T   T
  0.4747895325511511  0.3781500617873059  0.1110328668145028   T   T   T
  0.4747895325511511  0.5252124886458471  0.1110328668145028   T   T   T
  0.4759516703762490  0.6667558481586940  0.1110355353196002   T   T   T
  0.4761476922257038  0.8095255383410781  0.1110332994352496   T   T   T
  0.6190174926274858  0.9523706071401782  0.1110258626030167   T   T   T
  0.6190174926274858  0.0952199033693023  0.1110258626030167   T   T   T
  0.6190130130550550  0.2380135003554184  0.1110241651427200   T   T   T
  0.6192559810773359  0.3807460401186675  0.1110272659597179   T   T   T
  0.6218519594086976  0.5252124886458471  0.1110328668145028   T   T   T
  0.6192559810773359  0.6670829588406632  0.1110272659597179   T   T   T
  0.6190130130550550  0.8095725305816384  0.1110241651427200   T   T   T
  0.7618954735178972  0.9523619437217927  0.1110286466473925   T   T   T
  0.7618869034508102  0.0952291048884010  0.1110362394024186   T   T   T
  0.7618954735178972  0.2381065476781062  0.1110286466473925   T   T   T
  0.7619885208405851  0.3809890081409484  0.1110241651427200   T   T   T
  0.7622331810964468  0.5240503508207494  0.1110355353196002   T   T   T
  0.7622331810964468  0.6667558481586940  0.1110355353196002   T   T   T
  0.7619885208405851  0.8095725305816384  0.1110241651427200   T   T   T
  0.9523422858010966  0.9047090779132515  0.1110100172463878   T   T   T
  0.9523955185011865  0.0476058834168191  0.1110122383456906   T   T   T
  0.9524146570158285  0.1904921258844143  0.1110130121141687   T   T   T
  0.9523955185011865  0.3333592298373677  0.1110122383456906   T   T   T
  0.9523422858010966  0.4762045141968410  0.1110100172463878   T   T   T
  0.9523183228883368  0.6190320721242920  0.1110113179912502   T   T   T
  0.9523183228883368  0.7618575570740426  0.1110113179912502   T   T   T
  0.0952364566876160  0.9047649452303828  0.1110114503385422   T   T   T
  0.0952923240047471  0.0476591161169090  0.1110100172463878   T   T   T
  0.0953514655962764  0.1905361399038205  0.1110089844676701   T   T   T
  0.0953514655962764  0.3333866320014588  0.1110089844676701   T   T   T
  0.0952923240047471  0.4762045141968410  0.1110100172463878   T   T   T
  0.0952364566876160  0.6190445293232338  0.1110114503385422   T   T   T
  0.0952289594951357  0.7619009886805715  0.1110110247802069   T   T   T
  0.2381004132374341  0.9047724424228629  0.1110110247802069   T   T   T
  0.2381438448439632  0.0476830790296689  0.1110113179912502   T   T   T
  0.2384186843872626  0.1907547903379566  0.1110072781836487   T   T   T
  0.2384679103151486  0.3335196083120721  0.1110037931736322   T   T   T
  0.2384186843872626  0.4762352003583020  0.1110072781836487   T   T   T
  0.2381438448439632  0.6190320721242920  0.1110113179912502   T   T   T
  0.2381004132374341  0.7619009886805715  0.1110110247802069   T   T   T
  0.3809568725947649  0.9047649452303828  0.1110114503385422   T   T   T
  0.3809693297937066  0.0476830790296689  0.1110113179912502   T   T   T
  0.3810894550142460  0.1907488144204910  0.1110069945363109   T   T   T
  0.3816676540806930  0.3341413031561693  0.1110057461194308   T   T   T
  0.3816676540806930  0.4760976572335195  0.1110057461194308   T   T   T
  0.3810894550142460  0.6189119469037525  0.1110069945363109   T   T   T
  0.3809693297937066  0.7618575570740426  0.1110113179912502   T   T   T
  0.5237968877201558  0.9047090779132515  0.1110100172463878   T   T   T
  0.5237968877201558  0.0476591161169090  0.1110100172463878   T   T   T
  0.5237662015586948  0.1907547903379566  0.1110072781836487   T   T   T
  0.5239037446834772  0.3341413031561693  0.1110057461194308   T   T   T
  0.5239037446834772  0.6183337478373054  0.1110057461194308   T   T   T
  0.5237662015586948  0.7615827175307430  0.1110072781836487   T   T   T
  0.6666147699155380  0.9046499363217223  0.1110089844676701   T   T   T
  0.6666421720796291  0.0476058834168191  0.1110122383456906   T   T   T
  0.6666147699155380  0.1905361399038205  0.1110089844676701   T   T   T
  0.6664817936049244  0.3335196083120721  0.1110037931736322   T   T   T
  0.6658600987608275  0.4760976572335195  0.1110057461194308   T   T   T
  0.6658600987608275  0.6183337478373054  0.1110057461194308   T   T   T
  0.6664817936049244  0.7615334916028572  0.1110037931736322   T   T   T
  0.8094652620141781  0.9046499363217223  0.1110089844676701   T   T   T
  0.8095092760335842  0.0475867449021772  0.1110130121141687   T   T   T
  0.8095092760335842  0.1904921258844143  0.1110130121141687   T   T   T
  0.8094652620141781  0.3333866320014588  0.1110089844676701   T   T   T
  0.8092466115800420  0.4762352003583020  0.1110072781836487   T   T   T
  0.8092525874975075  0.6189119469037525  0.1110069945363109   T   T   T
  0.8092466115800420  0.7615827175307430  0.1110072781836487   T   T   T
  0.5238104991749992  0.4761909027419975  0.1110292438274314   T   T   T

  0.00000000E+00  0.00000000E+00  0.00000000E+00
  0.00000000E+00  0.00000000E+00  0.00000000E+00
  0.00000000E+00  0.00000000E+00  0.00000000E+00
  0.00000000E+00  0.00000000E+00  0.00000000E+00
  0.00000000E+00  0.00000000E+00  0.00000000E+00
  0.00000000E+00  0.00000000E+00  0.00000000E+00
  0.00000000E+00  0.00000000E+00  0.00000000E+00
  0.00000000E+00  0.00000000E+00  0.00000000E+00
  0.00000000E+00  0.00000000E+00  0.00000000E+00
  0.00000000E+00  0.00000000E+00  0.00000000E+00
  0.00000000E+00  0.00000000E+00  0.00000000E+00
  0.00000000E+00  0.00000000E+00  0.00000000E+00
  0.00000000E+00  0.00000000E+00  0.00000000E+00
  0.00000000E+00  0.00000000E+00  0.00000000E+00
  0.00000000E+00  0.00000000E+00  0.00000000E+00
  0.00000000E+00  0.00000000E+00  0.00000000E+00
  0.00000000E+00  0.00000000E+00  0.00000000E+00
  0.00000000E+00  0.00000000E+00  0.00000000E+00
  0.00000000E+00  0.00000000E+00  0.00000000E+00
  0.00000000E+00  0.00000000E+00  0.00000000E+00
  0.00000000E+00  0.00000000E+00  0.00000000E+00
  0.00000000E+00  0.00000000E+00  0.00000000E+00
  0.00000000E+00  0.00000000E+00  0.00000000E+00
  0.00000000E+00  0.00000000E+00  0.00000000E+00
  0.00000000E+00  0.00000000E+00  0.00000000E+00
  0.00000000E+00  0.00000000E+00  0.00000000E+00
  0.00000000E+00  0.00000000E+00  0.00000000E+00
  0.00000000E+00  0.00000000E+00  0.00000000E+00
  0.00000000E+00  0.00000000E+00  0.00000000E+00
  0.00000000E+00  0.00000000E+00  0.00000000E+00
  0.00000000E+00  0.00000000E+00  0.00000000E+00
  0.00000000E+00  0.00000000E+00  0.00000000E+00
  0.00000000E+00  0.00000000E+00  0.00000000E+00
  0.00000000E+00  0.00000000E+00  0.00000000E+00
  0.00000000E+00  0.00000000E+00  0.00000000E+00
  0.00000000E+00  0.00000000E+00  0.00000000E+00
  0.00000000E+00  0.00000000E+00  0.00000000E+00
  0.00000000E+00  0.00000000E+00  0.00000000E+00
  0.00000000E+00  0.00000000E+00  0.00000000E+00
  0.00000000E+00  0.00000000E+00  0.00000000E+00
  0.00000000E+00  0.00000000E+00  0.00000000E+00
  0.00000000E+00  0.00000000E+00  0.00000000E+00
  0.00000000E+00  0.00000000E+00  0.00000000E+00
  0.00000000E+00  0.00000000E+00  0.00000000E+00
  0.00000000E+00  0.00000000E+00  0.00000000E+00
  0.00000000E+00  0.00000000E+00  0.00000000E+00
  0.00000000E+00  0.00000000E+00  0.00000000E+00
  0.00000000E+00  0.00000000E+00  0.00000000E+00
  0.00000000E+00  0.00000000E+00  0.00000000E+00
  0.00000000E+00  0.00000000E+00  0.00000000E+00
  0.00000000E+00  0.00000000E+00  0.00000000E+00
  0.00000000E+00  0.00000000E+00  0.00000000E+00
  0.00000000E+00  0.00000000E+00  0.00000000E+00
  0.00000000E+00  0.00000000E+00  0.00000000E+00
  0.00000000E+00  0.00000000E+00  0.00000000E+00
  0.00000000E+00  0.00000000E+00  0.00000000E+00
  0.00000000E+00  0.00000000E+00  0.00000000E+00
  0.00000000E+00  0.00000000E+00  0.00000000E+00
  0.00000000E+00  0.00000000E+00  0.00000000E+00
  0.00000000E+00  0.00000000E+00  0.00000000E+00
  0.00000000E+00  0.00000000E+00  0.00000000E+00
  0.00000000E+00  0.00000000E+00  0.00000000E+00
  0.00000000E+00  0.00000000E+00  0.00000000E+00
  0.00000000E+00  0.00000000E+00  0.00000000E+00
  0.00000000E+00  0.00000000E+00  0.00000000E+00
  0.00000000E+00  0.00000000E+00  0.00000000E+00
  0.00000000E+00  0.00000000E+00  0.00000000E+00
  0.00000000E+00  0.00000000E+00  0.00000000E+00
  0.00000000E+00  0.00000000E+00  0.00000000E+00
  0.00000000E+00  0.00000000E+00  0.00000000E+00
  0.00000000E+00  0.00000000E+00  0.00000000E+00
  0.00000000E+00  0.00000000E+00  0.00000000E+00
  0.00000000E+00  0.00000000E+00  0.00000000E+00
  0.00000000E+00  0.00000000E+00  0.00000000E+00
  0.00000000E+00  0.00000000E+00  0.00000000E+00
  0.00000000E+00  0.00000000E+00  0.00000000E+00
  0.00000000E+00  0.00000000E+00  0.00000000E+00
  0.00000000E+00  0.00000000E+00  0.00000000E+00
  0.00000000E+00  0.00000000E+00  0.00000000E+00
  0.00000000E+00  0.00000000E+00  0.00000000E+00
  0.00000000E+00  0.00000000E+00  0.00000000E+00
  0.00000000E+00  0.00000000E+00  0.00000000E+00
  0.00000000E+00  0.00000000E+00  0.00000000E+00
  0.00000000E+00  0.00000000E+00  0.00000000E+00
  0.00000000E+00  0.00000000E+00  0.00000000E+00
  0.00000000E+00  0.00000000E+00  0.00000000E+00
  0.00000000E+00  0.00000000E+00  0.00000000E+00
  0.00000000E+00  0.00000000E+00  0.00000000E+00
  0.00000000E+00  0.00000000E+00  0.00000000E+00
  0.00000000E+00  0.00000000E+00  0.00000000E+00
  0.00000000E+00  0.00000000E+00  0.00000000E+00
  0.00000000E+00  0.00000000E+00  0.00000000E+00
  0.00000000E+00  0.00000000E+00  0.00000000E+00
  0.00000000E+00  0.00000000E+00  0.00000000E+00
  0.00000000E+00  0.00000000E+00  0.00000000E+00
  0.00000000E+00  0.00000000E+00  0.00000000E+00
  0.00000000E+00  0.00000000E+00  0.00000000E+00
  0.00000000E+00  0.00000000E+00  0.00000000E+00
