Ga B N                                  
   1.0000000000000000     
     8.7639499999999995  -15.1796066749929999    0.0000000000000000
     8.7639499999999995   15.1796066749929999    0.0000000000000000
     0.0000000000000000    0.0000000000000000   15.0000000000000000
   Ga   B    N 
     1    48    48
Selective dynamics
Direct
  0.4161591733165853  0.4805044106569641  0.1109795119701200   T   T   T
  0.9089201360344159  0.9551314424969408  0.1108828690506282   T   T   T
  0.9069025920279207  0.0972285755887887  0.1109570510677149   T   T   T
  0.9058257391145946  0.2398953692274060  0.1107396141672919   T   T   T
  0.9047940859617990  0.3823828739559927  0.1106799567635392   T   T   T
  0.9035976142694102  0.5245989874785333  0.1108691771991509   T   T   T
  0.9071783851255394  0.6675056078075194  0.1108857334095613   T   T   T
  0.9100476498424587  0.8124916333407776  0.1106641747122787   T   T   T
  0.0496093462015637  0.9511641582210512  0.1106908908053082   T   T   T
  0.0479157753921615  0.0933780700000310  0.1109477807193865   T   T   T
  0.0480028888485338  0.2377843710544495  0.1107251701173603   T   T   T
  0.0480876168549440  0.3815282106239158  0.1104932025856967   T   T   T
  0.0477079835881611  0.5240078892811196  0.1106012176196545   T   T   T
  0.0491405436795231  0.6661025909069362  0.1109757791465530   T   T   T
  0.0498020359737022  0.8085193181003280  0.1108586220460184   T   T   T
  0.1913687148483521  0.9489189197465290  0.1105263744160263   T   T   T
  0.1890375260564408  0.0892938722029813  0.1107316597020426   T   T   T
  0.1865248588648600  0.2305617196727321  0.1107928108621747   T   T   T
  0.1902601582478704  0.3792948352281286  0.1101316310786812   T   T   T
  0.1909165748817546  0.5239046412680395  0.1103872767639201   T   T   T
  0.1924992261936627  0.6660647045343980  0.1106885151309458   T   T   T
  0.1922727858059802  0.8076507022250581  0.1108745889945082   T   T   T
  0.3347922594348071  0.9493952223626552  0.1106877905951102   T   T   T
  0.3329417650226807  0.0887960941726819  0.1106334810361027   T   T   T
  0.3283243366705041  0.2242744774110157  0.1114757813689275   T   T   T
  0.3223985478937327  0.3572369521306470  0.1085978875867293   T   T   T
  0.3321480464335169  0.5297680162482941  0.1119030357969082   T   T   T
  0.3369911522510608  0.6686322100641585  0.1106723434381170   T   T   T
  0.3359553860778153  0.8088217712186413  0.1108236793247670   T   T   T
  0.4786784339873444  0.9516213722112491  0.1108221949938969   T   T   T
  0.4773488586521328  0.0928747986844467  0.1105772959264940   T   T   T
  0.4752542670504475  0.2325950352925992  0.1107766817995325   T   T   T
  0.4684837454940580  0.3659428994295090  0.1106198489668906   T   T   T
  0.4850667770603332  0.6672292637203705  0.1116363654848729   T   T   T
  0.4805716150902309  0.8097607507668061  0.1107922775264492   T   T   T
  0.6223503930696022  0.9553430567965452  0.1108195503990170   T   T   T
  0.6209215012751512  0.0970188732051890  0.1106835739184633   T   T   T
  0.6196729367876070  0.2397762614080292  0.1105744939404515   T   T   T
  0.6173721851155091  0.3839965963132686  0.1109172273172355   T   T   T
  0.6188942500459602  0.5398356318134923  0.1113638497642263   T   T   T
  0.6350087171859232  0.6816375552375457  0.1101392078202248   T   T   T
  0.6252261882791592  0.8153195649497580  0.1103429500164953   T   T   T
  0.7660586592391081  0.9565988097969484  0.1107612747790831   T   T   T
  0.7641078370431950  0.0980910228844124  0.1108407034357294   T   T   T
  0.7628204008575598  0.2404452549787717  0.1106569766384174   T   T   T
  0.7611576748518364  0.3831793350550432  0.1107753445374944   T   T   T
  0.7584565336462545  0.5263211578036834  0.1108847742265886   T   T   T
  0.7709458298805805  0.6741088432665394  0.1099146842208352   T   T   T
  0.7704616039041444  0.8171336558254678  0.1099170537368915   T   T   T
  0.9558687223708834  0.9066684132737480  0.1108905047452951   T   T   T
  0.9543829960540764  0.0492406721204090  0.1109972843611061   T   T   T
  0.9537994892324552  0.1922511331368932  0.1108009757873769   T   T   T
  0.9532633292515441  0.3349642899058691  0.1106294730757827   T   T   T
  0.9521758320782504  0.4772283681082981  0.1107114170352912   T   T   T
  0.9538137579188564  0.6193532621754871  0.1109929076298534   T   T   T
  0.9552228557726765  0.7625301622908656  0.1108743850101943   T   T   T
  0.0968854699777744  0.9031988872936670  0.1106150044907818   T   T   T
  0.0954289923265650  0.0454430657656785  0.1105840584473003   T   T   T
  0.0938493722552824  0.1879394816521441  0.1110270861677220   T   T   T
  0.0963326253429702  0.3335687437588477  0.1103979180088157   T   T   T
  0.0961823535283540  0.4765706319175103  0.1103182514791120   T   T   T
  0.0971334098936425  0.6187380469316907  0.1107802539904173   T   T   T
  0.0972752114895874  0.7608248425532737  0.1109504378129408   T   T   T
  0.2397690359270034  0.9023019226288189  0.1106736109021321   T   T   T
  0.2382134556367602  0.0434598248783577  0.1104170216285153   T   T   T
  0.2350022609052482  0.1835787351740027  0.1112453347256235   T   T   T
  0.2334109106574544  0.3260271972889925  0.1095725997243596   T   T   T
  0.2394813673460735  0.4757273740868218  0.1106163985426477   T   T   T
  0.2413200030512677  0.6188612259490183  0.1104071652485465   T   T   T
  0.2406562047807564  0.7607038853953769  0.1108757971175918   T   T   T
  0.3834230025467369  0.9032963813610713  0.1108676893444317   T   T   T
  0.3821667386013912  0.0439944289715585  0.1104858214750012   T   T   T
  0.3800326242068698  0.1831223464588010  0.1110802494233671   T   T   T
  0.3748972793091589  0.3182919292449534  0.1110808403849110   T   T   T
  0.3870342651423702  0.6216684188704510  0.1112977307707797   T   T   T
  0.3848602324259425  0.7623348283514180  0.1106977338348321   T   T   T
  0.5270592559357528  0.9048800224132191  0.1108073560115652   T   T   T
  0.5257640296507009  0.0468724316188450  0.1106899044789537   T   T   T
  0.5243832014239945  0.1882682899642741  0.1104945394582799   T   T   T
  0.5215787282088706  0.3284262965775543  0.1107564754133411   T   T   T
  0.5320026471064438  0.5385462164874671  0.1133523558465344   T   T   T
  0.5427452879081605  0.6281194096556239  0.1122298260319665   T   T   T
  0.5296236214260196  0.7626922023096078  0.1108298864685742   T   T   T
  0.6709881562454381  0.9094167380056626  0.1106768775127136   T   T   T
  0.6690674833959016  0.0502657603620409  0.1107962801140576   T   T   T
  0.6676605517374775  0.1926042711390084  0.1105703195644621   T   T   T
  0.6655384918609153  0.3361430910490770  0.1106969531201522   T   T   T
  0.6594821624374275  0.4807032884053478  0.1112287882330242   T   T   T
  0.6784519658722776  0.6317188344839811  0.1095918084143157   T   T   T
  0.6768174817796676  0.7731380377828748  0.1094333947946335   T   T   T
  0.8151444026474569  0.9105063858843926  0.1106386378044359   T   T   T
  0.8123410904292641  0.0511077373252704  0.1109383235297428   T   T   T
  0.8109536510121652  0.1931216558366908  0.1107115521489991   T   T   T
  0.8094595914003653  0.3356330267056641  0.1106728835294102   T   T   T
  0.8070871363177751  0.4782185510370794  0.1108627541062961   T   T   T
  0.8121322354537938  0.6213979874607006  0.1105892069477768   T   T   T
  0.8165066982009455  0.7680658783949913  0.1099981185895735   T   T   T

  0.00000000E+00  0.00000000E+00  0.00000000E+00
  0.00000000E+00  0.00000000E+00  0.00000000E+00
  0.00000000E+00  0.00000000E+00  0.00000000E+00
  0.00000000E+00  0.00000000E+00  0.00000000E+00
  0.00000000E+00  0.00000000E+00  0.00000000E+00
  0.00000000E+00  0.00000000E+00  0.00000000E+00
  0.00000000E+00  0.00000000E+00  0.00000000E+00
  0.00000000E+00  0.00000000E+00  0.00000000E+00
  0.00000000E+00  0.00000000E+00  0.00000000E+00
  0.00000000E+00  0.00000000E+00  0.00000000E+00
  0.00000000E+00  0.00000000E+00  0.00000000E+00
  0.00000000E+00  0.00000000E+00  0.00000000E+00
  0.00000000E+00  0.00000000E+00  0.00000000E+00
  0.00000000E+00  0.00000000E+00  0.00000000E+00
  0.00000000E+00  0.00000000E+00  0.00000000E+00
  0.00000000E+00  0.00000000E+00  0.00000000E+00
  0.00000000E+00  0.00000000E+00  0.00000000E+00
  0.00000000E+00  0.00000000E+00  0.00000000E+00
  0.00000000E+00  0.00000000E+00  0.00000000E+00
  0.00000000E+00  0.00000000E+00  0.00000000E+00
  0.00000000E+00  0.00000000E+00  0.00000000E+00
  0.00000000E+00  0.00000000E+00  0.00000000E+00
  0.00000000E+00  0.00000000E+00  0.00000000E+00
  0.00000000E+00  0.00000000E+00  0.00000000E+00
  0.00000000E+00  0.00000000E+00  0.00000000E+00
  0.00000000E+00  0.00000000E+00  0.00000000E+00
  0.00000000E+00  0.00000000E+00  0.00000000E+00
  0.00000000E+00  0.00000000E+00  0.00000000E+00
  0.00000000E+00  0.00000000E+00  0.00000000E+00
  0.00000000E+00  0.00000000E+00  0.00000000E+00
  0.00000000E+00  0.00000000E+00  0.00000000E+00
  0.00000000E+00  0.00000000E+00  0.00000000E+00
  0.00000000E+00  0.00000000E+00  0.00000000E+00
  0.00000000E+00  0.00000000E+00  0.00000000E+00
  0.00000000E+00  0.00000000E+00  0.00000000E+00
  0.00000000E+00  0.00000000E+00  0.00000000E+00
  0.00000000E+00  0.00000000E+00  0.00000000E+00
  0.00000000E+00  0.00000000E+00  0.00000000E+00
  0.00000000E+00  0.00000000E+00  0.00000000E+00
  0.00000000E+00  0.00000000E+00  0.00000000E+00
  0.00000000E+00  0.00000000E+00  0.00000000E+00
  0.00000000E+00  0.00000000E+00  0.00000000E+00
  0.00000000E+00  0.00000000E+00  0.00000000E+00
  0.00000000E+00  0.00000000E+00  0.00000000E+00
  0.00000000E+00  0.00000000E+00  0.00000000E+00
  0.00000000E+00  0.00000000E+00  0.00000000E+00
  0.00000000E+00  0.00000000E+00  0.00000000E+00
  0.00000000E+00  0.00000000E+00  0.00000000E+00
  0.00000000E+00  0.00000000E+00  0.00000000E+00
  0.00000000E+00  0.00000000E+00  0.00000000E+00
  0.00000000E+00  0.00000000E+00  0.00000000E+00
  0.00000000E+00  0.00000000E+00  0.00000000E+00
  0.00000000E+00  0.00000000E+00  0.00000000E+00
  0.00000000E+00  0.00000000E+00  0.00000000E+00
  0.00000000E+00  0.00000000E+00  0.00000000E+00
  0.00000000E+00  0.00000000E+00  0.00000000E+00
  0.00000000E+00  0.00000000E+00  0.00000000E+00
  0.00000000E+00  0.00000000E+00  0.00000000E+00
  0.00000000E+00  0.00000000E+00  0.00000000E+00
  0.00000000E+00  0.00000000E+00  0.00000000E+00
  0.00000000E+00  0.00000000E+00  0.00000000E+00
  0.00000000E+00  0.00000000E+00  0.00000000E+00
  0.00000000E+00  0.00000000E+00  0.00000000E+00
  0.00000000E+00  0.00000000E+00  0.00000000E+00
  0.00000000E+00  0.00000000E+00  0.00000000E+00
  0.00000000E+00  0.00000000E+00  0.00000000E+00
  0.00000000E+00  0.00000000E+00  0.00000000E+00
  0.00000000E+00  0.00000000E+00  0.00000000E+00
  0.00000000E+00  0.00000000E+00  0.00000000E+00
  0.00000000E+00  0.00000000E+00  0.00000000E+00
  0.00000000E+00  0.00000000E+00  0.00000000E+00
  0.00000000E+00  0.00000000E+00  0.00000000E+00
  0.00000000E+00  0.00000000E+00  0.00000000E+00
  0.00000000E+00  0.00000000E+00  0.00000000E+00
  0.00000000E+00  0.00000000E+00  0.00000000E+00
  0.00000000E+00  0.00000000E+00  0.00000000E+00
  0.00000000E+00  0.00000000E+00  0.00000000E+00
  0.00000000E+00  0.00000000E+00  0.00000000E+00
  0.00000000E+00  0.00000000E+00  0.00000000E+00
  0.00000000E+00  0.00000000E+00  0.00000000E+00
  0.00000000E+00  0.00000000E+00  0.00000000E+00
  0.00000000E+00  0.00000000E+00  0.00000000E+00
  0.00000000E+00  0.00000000E+00  0.00000000E+00
  0.00000000E+00  0.00000000E+00  0.00000000E+00
  0.00000000E+00  0.00000000E+00  0.00000000E+00
  0.00000000E+00  0.00000000E+00  0.00000000E+00
  0.00000000E+00  0.00000000E+00  0.00000000E+00
  0.00000000E+00  0.00000000E+00  0.00000000E+00
  0.00000000E+00  0.00000000E+00  0.00000000E+00
  0.00000000E+00  0.00000000E+00  0.00000000E+00
  0.00000000E+00  0.00000000E+00  0.00000000E+00
  0.00000000E+00  0.00000000E+00  0.00000000E+00
  0.00000000E+00  0.00000000E+00  0.00000000E+00
  0.00000000E+00  0.00000000E+00  0.00000000E+00
  0.00000000E+00  0.00000000E+00  0.00000000E+00
  0.00000000E+00  0.00000000E+00  0.00000000E+00
  0.00000000E+00  0.00000000E+00  0.00000000E+00
