 N Ga B 
 1.0
 17.527899999999772   0.000000000000000   0.000000000000000
 -8.763949999999658  15.179606674993195   0.000000000000000
  0.000000000000001   0.000000000000002  15.000000000000000
 N Ga B 
  48   1  48
Cartesian
  8.808374738334228  13.762869898135675   1.663357571179425 
 16.296786928106378   0.747454035200112   1.664959265416590 
 15.033222749062322   2.918296583839786   1.662014636810655 
 13.773094020267493   5.084626170939485   1.659442096136745 
 12.507237210401586   7.244138922032830   1.660671255529365 
 11.290371145383052   9.401538912697834   1.664893614447795 
 10.060274477888910  11.574907941394073   1.663115775152910 
 -6.217391059073623  13.710203858409375   1.659225067361730 
  1.274409078383679   0.689807864428841   1.658760876709500 
 -0.002109808271907   2.852847410181646   1.665406292515830 
 -1.234871168116220   5.063442329330903   1.655968770132240 
 -2.490766515183684   7.234154745360760   1.654773772186680 
 -3.720044611132037   9.392200187276549   1.661703809856255 
 -4.962800699426197  11.549021858522325   1.664256567194115 
 -3.705081249997670  13.696588287595615   1.660104163531980 
  3.794501896812841   0.659703047817559   1.656255324427725 
  2.510221272792902   2.786652993834104   1.668680020884345 
  1.233917045231985   4.948964620197306   1.643588995865400 
  0.028354538577155   7.221354423165308   1.659245978139720 
 -1.193835959673421   9.394069996310186   1.656107478728205 
 -2.448572924633996  11.547185776440925   1.663136956763880 
 -1.195844275090186  13.711683780005712   1.663015340166480 
  6.313015401745954   0.667818127679191   1.657287322125015 
  5.056298745587963   2.779725192646432   1.666203741350505 
  3.781667468696726   4.831546293763150   1.666212605773665 
  1.335626956429382   9.436682080718363   1.669465961561700 
  0.064727349008432  11.571942849022976   1.660466007522480 
  1.307918659688143  13.735722828291690   1.662110340173475 
  8.804751688228441   0.711505075874582   1.660348567184310 
  7.541362436407186   2.857838591031248   1.657418091874200 
  6.263868148281408   4.985382003771933   1.661347131200115 
  4.605097084231764   8.174919742585486   1.700285337698010 
  4.008378031674122   9.534605583501294   1.683447390479505 
  2.598993547561987  11.577367645144186   1.662448297028610 
  3.790930482809840  13.804588386581301   1.660153162690710 
 11.286821331689987   0.763014471515246   1.661944201710870 
 10.014713182750544   2.923657079813885   1.658554793466930 
  8.719550888689335   5.102519908641415   1.660454296802280 
  7.346477810566958   7.296886845368999   1.668431823495360 
  6.355485933136876   9.589243436651961   1.643877126214740 
  5.087446032658725  11.735931319020072   1.641500921919510 
  6.308137134592959  13.821128812794662   1.659579567066540 
 13.790727744403128   0.775795350646468   1.664074852946145 
 12.521805963906040   2.931510776024373   1.660673282234985 
 11.246655707709285   5.094777332529466   1.660093252941150 
  9.955459146302900   7.259169509428018   1.662941311594440 
  8.789071717604372   9.432577038285794   1.658838104216655 
  7.580356800436638  11.658937934519116   1.649971778843595 
  3.083279744198739   7.293867959372122   1.664692679551800 
  7.560737046926693  14.498519620022446   1.663243035759420 
 15.043991567774654   1.475891535007662   1.664355766015725 
 13.774791951486058   3.641517348024289   1.661094212509380 
 12.507955871123116   5.804421625905473   1.660199351453085 
 11.240609326840275   7.963206292023810   1.663037657987265 
 10.050946245097251  10.132472579870406   1.663286001143415 
  8.830588151656796  12.333303420835797   1.659962620684185 
 -7.466407465154672  14.438297805146551   1.660363362079620 
  0.021502182919508   1.417442374670453   1.664216710790805 
 -1.242540503254349   3.609473226067173   1.660877551760400 
 -2.500819222025576   5.791448172685005   1.657398038785455 
 -3.756158175730176   7.954233653880784   1.659018264294810 
 -4.976359266018314  10.111175335161187   1.664636687198295 
 -6.212897771521653  12.273005237896685   1.662879330690270 
 -4.961986269721884  14.404215968211743   1.657895616240390 
  2.530863821671364   1.355445858528360   1.660974895530645 
  1.248757690571576   3.499836218942113   1.661892162932625 
  0.010740056555366   5.757546412619352   1.651974466180215 
 -1.245107447970982   7.952666389652241   1.655809151458800 
 -2.463250580504149  10.110600234927718   1.660327726964190 
 -3.708072209436428  12.259819990558432   1.663118834917620 
 -2.452247014877588  14.411446054582806   1.660316858926650 
  5.057565433616329   1.347889783816968   1.659502215541545 
  3.789305834420654   3.404398354338869   1.672136720533905 
  2.520162721001228   5.422716423116594   1.628968313800935 
  1.178997337082912   8.041670115640507   1.678545536953620 
  0.046887960149738  10.149573959005359   1.660085151571755 
 -1.199881150238076  12.277596357270301   1.662355189871505 
  0.050265598096207  14.445238133684059   1.662332924908455 
  7.552972967638086   1.409802914049081   1.658659438897410 
  6.291758007880928   3.530701150297814   1.661650226992980 
  5.004430969190073   5.554869278846539   1.659297734503365 
  2.654638055853783  10.128277785320538   1.674545482273095 
  1.326708480457477  12.291849697487310   1.661884162896735 
  2.535916672072782  14.501731841857238   1.662293255985255 
 10.033181428373995   1.472708335305805   1.660253608776945 
  8.760178102552542   3.639709338174230   1.658617409106780 
  7.455910953226446   5.828917296571565   1.663758409758525 
  6.116824039948772   8.194492560075252   1.670457746463390 
  5.156531841739136  10.346989983409896   1.652088117303375 
  3.813482204296974  12.376230310363894   1.655144250247425 
  5.043815434157350  14.520793678484297   1.661419121686245 
 12.533540936901433   1.488983145733131   1.662610551535935 
 11.263389511819923   3.649864397446208   1.659854649576255 
  9.983331075579811   5.816511592120984   1.661630168062410 
  8.681497965164610   7.989348160186934   1.663271613398835 
  7.605205214618088  10.232707096920697   1.648720263312525 
  6.343255444099938  12.403767496329866   1.648755806053380 
