P B N                                   
   1.0000000000000000     
     8.7639499999999995  -15.1796066749929999    0.0000000000000000
     8.7639499999999995   15.1796066749929999    0.0000000000000000
     0.0000000000000000    0.0000000000000000   15.0000000000000000
   P    B    N 
     1    48    48
Selective dynamics
Direct
  0.3920152005770958  0.4839451140400008  0.1110152646096119   T   T   T
  0.9073651713015379  0.9520779321000721  0.1107165962372474   T   T   T
  0.9086198721565371  0.0955025118697284  0.1107897032924945   T   T   T
  0.9088342560561637  0.2383196939002828  0.1107350472740770   T   T   T
  0.9081796989325585  0.3810034606346205  0.1106714768362258   T   T   T
  0.9060297551202358  0.5234886640026837  0.1107418231497419   T   T   T
  0.9043671732291774  0.6655186062024363  0.1107447680011450   T   T   T
  0.9042339305739396  0.8073042383035552  0.1106791175745587   T   T   T
  0.0489728737199584  0.9515687425893760  0.1106804304554965   T   T   T
  0.0506084514300801  0.0947028205858521  0.1107509362716998   T   T   T
  0.0517197686056185  0.2383925498635511  0.1107939933455483   T   T   T
  0.0508084263977846  0.3817404146551751  0.1107157153913389   T   T   T
  0.0480609898273167  0.5247233477897133  0.1107153219680059   T   T   T
  0.0476114894158054  0.6670212490251168  0.1107502510940676   T   T   T
  0.0477902145079980  0.8090340254108659  0.1107113488057688   T   T   T
  0.1916091119826155  0.9519782743471057  0.1106994318235277   T   T   T
  0.1936284399918476  0.0948301182174790  0.1106961252820351   T   T   T
  0.1935708288307095  0.2362198661766769  0.1107293996409400   T   T   T
  0.1944063611053096  0.3823048353245578  0.1107417331725340   T   T   T
  0.1889810509369405  0.5264606345131018  0.1106890521542586   T   T   T
  0.1901934710867094  0.6688487990793813  0.1107778505847742   T   T   T
  0.1907881746715310  0.8103466859070392  0.1107286537387667   T   T   T
  0.3347913074144161  0.9527833024225647  0.1107423876203580   T   T   T
  0.3357625137527530  0.0933270650429606  0.1107311362130442   T   T   T
  0.3398963722171094  0.2357949220330348  0.1107259281483531   T   T   T
  0.3361692580510365  0.3666376661567626  0.1109183278664347   T   T   T
  0.3281492946569411  0.5360867564133177  0.1105769037354102   T   T   T
  0.3329402358905517  0.6737894542390860  0.1107486943914376   T   T   T
  0.3340789395650571  0.8127700982952603  0.1108243253512566   T   T   T
  0.4785997012570707  0.9540032163516323  0.1107961260762811   T   T   T
  0.4791405791200609  0.0944318557891867  0.1107999238063396   T   T   T
  0.4802300235923781  0.2353483749688788  0.1107363877580777   T   T   T
  0.4936431870262645  0.3861851794707403  0.1106749352970014   T   T   T
  0.4770239516262025  0.6752057665824409  0.1107123780340920   T   T   T
  0.4782855198749435  0.8141169806621867  0.1107556005826048   T   T   T
  0.6224568602336253  0.9537924269015063  0.1107283775748039   T   T   T
  0.6226722852810140  0.0950986065769424  0.1107377560755543   T   T   T
  0.6230674673824087  0.2362785321624620  0.1107376640839742   T   T   T
  0.6244108101747781  0.3774094715399161  0.1107096462065131   T   T   T
  0.6097520158579397  0.5074463018011393  0.1106580832578618   T   T   T
  0.6241369336937510  0.6689734867651179  0.1107884716185300   T   T   T
  0.6224356803076768  0.8119349361752972  0.1107269075337838   T   T   T
  0.7655318137520088  0.9530613215782772  0.1107520276915776   T   T   T
  0.7659088119117476  0.0955658171554450  0.1107198680309106   T   T   T
  0.7660449003796501  0.2377365007245697  0.1106935744501332   T   T   T
  0.7660510180133818  0.3800373681682112  0.1107018367982017   T   T   T
  0.7631201536228350  0.5219298350063685  0.1107320024152503   T   T   T
  0.7580226867518313  0.6610767947282088  0.1106754532825795   T   T   T
  0.7646952203907788  0.8096764988438704  0.1106644603901139   T   T   T
  0.9533074270539005  0.9032392730868583  0.1106671586140535   T   T   T
  0.9556040464564252  0.0474449220689071  0.1107571459369237   T   T   T
  0.9568050641684628  0.1910038503358566  0.1107769837127902   T   T   T
  0.9562478503561235  0.3336277520781349  0.1106841447729581   T   T   T
  0.9538102126224772  0.4761733900177729  0.1106834131388324   T   T   T
  0.9525338178880984  0.6185938822180590  0.1107479501111253   T   T   T
  0.9522718145132415  0.7606187735337749  0.1107018749928585   T   T   T
  0.0963077511705623  0.9042145895818908  0.1106718744699113   T   T   T
  0.0980966020803167  0.0473555994848880  0.1106792591372959   T   T   T
  0.0990382984296559  0.1903257720066842  0.1107385902053459   T   T   T
  0.0999643108129232  0.3344886608039583  0.1107510493444181   T   T   T
  0.0956161276151617  0.4771475123930748  0.1106972709811102   T   T   T
  0.0955063252206085  0.6198717516312318  0.1107358265572253   T   T   T
  0.0956052817487742  0.7620257560017140  0.1107070192900563   T   T   T
  0.2394467658096281  0.9051304176712458  0.1106867867008717   T   T   T
  0.2405444888195294  0.0471018257888544  0.1106797135345431   T   T   T
  0.2434643019741854  0.1909364748462984  0.1106977836882743   T   T   T
  0.2427369793212507  0.3325280674220866  0.1107648318181443   T   T   T
  0.2367145411597415  0.4790142117185295  0.1106128625771742   T   T   T
  0.2382933536186834  0.6218984093951310  0.1107394273230922   T   T   T
  0.2388737686370087  0.7636232157259856  0.1107769641355308   T   T   T
  0.3831237173767074  0.9067011399290146  0.1107812573902660   T   T   T
  0.3837301989031406  0.0471279302102444  0.1107482216552149   T   T   T
  0.3852306313843554  0.1879158323948363  0.1107080647177317   T   T   T
  0.3925435106984095  0.3318850275594434  0.1107413274703695   T   T   T
  0.3820263224152105  0.6281855821187240  0.1106347408283575   T   T   T
  0.3827197843699519  0.7669169216589493  0.1107957883605387   T   T   T
  0.5269814504485969  0.9075791445256371  0.1107444333822237   T   T   T
  0.5273005499396405  0.0481182347506676  0.1107774453386676   T   T   T
  0.5278676319405804  0.1889395204899440  0.1107545790962488   T   T   T
  0.5296671238961190  0.3301800438313579  0.1106919312141237   T   T   T
  0.4926737988302141  0.5458557583860359  0.1113861618523515   T   T   T
  0.5283027449325697  0.6305260532853878  0.1109497316025777   T   T   T
  0.5266917017014178  0.7674143380351353  0.1106856208842261   T   T   T
  0.6700783653189536  0.9060218129629126  0.1107233829177683   T   T   T
  0.6706256290660418  0.0481710741316157  0.1106961459797416   T   T   T
  0.6708907617808089  0.1897241809863942  0.1107067508943889   T   T   T
  0.6713748624999513  0.3310964708168068  0.1106980292061259   T   T   T
  0.6679925202689643  0.4723684914779616  0.1106966758650097   T   T   T
  0.6594284827540755  0.6096313373792340  0.1106742171911408   T   T   T
  0.6694695994391335  0.7629322207291669  0.1106750264839948   T   T   T
  0.8122139797412152  0.9046208432714260  0.1106990321876985   T   T   T
  0.8134250668668035  0.0480011833453753  0.1107511851160741   T   T   T
  0.8138363895969455  0.1905607052838842  0.1106970796722471   T   T   T
  0.8135212593873008  0.3328120102714962  0.1106592983637998   T   T   T
  0.8113126803384759  0.4750846440230870  0.1107158218809062   T   T   T
  0.8085454126562641  0.6167186079285765  0.1107037777889379   T   T   T
  0.8078754236267129  0.7581176604219959  0.1106512468303844   T   T   T

  0.00000000E+00  0.00000000E+00  0.00000000E+00
  0.00000000E+00  0.00000000E+00  0.00000000E+00
  0.00000000E+00  0.00000000E+00  0.00000000E+00
  0.00000000E+00  0.00000000E+00  0.00000000E+00
  0.00000000E+00  0.00000000E+00  0.00000000E+00
  0.00000000E+00  0.00000000E+00  0.00000000E+00
  0.00000000E+00  0.00000000E+00  0.00000000E+00
  0.00000000E+00  0.00000000E+00  0.00000000E+00
  0.00000000E+00  0.00000000E+00  0.00000000E+00
  0.00000000E+00  0.00000000E+00  0.00000000E+00
  0.00000000E+00  0.00000000E+00  0.00000000E+00
  0.00000000E+00  0.00000000E+00  0.00000000E+00
  0.00000000E+00  0.00000000E+00  0.00000000E+00
  0.00000000E+00  0.00000000E+00  0.00000000E+00
  0.00000000E+00  0.00000000E+00  0.00000000E+00
  0.00000000E+00  0.00000000E+00  0.00000000E+00
  0.00000000E+00  0.00000000E+00  0.00000000E+00
  0.00000000E+00  0.00000000E+00  0.00000000E+00
  0.00000000E+00  0.00000000E+00  0.00000000E+00
  0.00000000E+00  0.00000000E+00  0.00000000E+00
  0.00000000E+00  0.00000000E+00  0.00000000E+00
  0.00000000E+00  0.00000000E+00  0.00000000E+00
  0.00000000E+00  0.00000000E+00  0.00000000E+00
  0.00000000E+00  0.00000000E+00  0.00000000E+00
  0.00000000E+00  0.00000000E+00  0.00000000E+00
  0.00000000E+00  0.00000000E+00  0.00000000E+00
  0.00000000E+00  0.00000000E+00  0.00000000E+00
  0.00000000E+00  0.00000000E+00  0.00000000E+00
  0.00000000E+00  0.00000000E+00  0.00000000E+00
  0.00000000E+00  0.00000000E+00  0.00000000E+00
  0.00000000E+00  0.00000000E+00  0.00000000E+00
  0.00000000E+00  0.00000000E+00  0.00000000E+00
  0.00000000E+00  0.00000000E+00  0.00000000E+00
  0.00000000E+00  0.00000000E+00  0.00000000E+00
  0.00000000E+00  0.00000000E+00  0.00000000E+00
  0.00000000E+00  0.00000000E+00  0.00000000E+00
  0.00000000E+00  0.00000000E+00  0.00000000E+00
  0.00000000E+00  0.00000000E+00  0.00000000E+00
  0.00000000E+00  0.00000000E+00  0.00000000E+00
  0.00000000E+00  0.00000000E+00  0.00000000E+00
  0.00000000E+00  0.00000000E+00  0.00000000E+00
  0.00000000E+00  0.00000000E+00  0.00000000E+00
  0.00000000E+00  0.00000000E+00  0.00000000E+00
  0.00000000E+00  0.00000000E+00  0.00000000E+00
  0.00000000E+00  0.00000000E+00  0.00000000E+00
  0.00000000E+00  0.00000000E+00  0.00000000E+00
  0.00000000E+00  0.00000000E+00  0.00000000E+00
  0.00000000E+00  0.00000000E+00  0.00000000E+00
  0.00000000E+00  0.00000000E+00  0.00000000E+00
  0.00000000E+00  0.00000000E+00  0.00000000E+00
  0.00000000E+00  0.00000000E+00  0.00000000E+00
  0.00000000E+00  0.00000000E+00  0.00000000E+00
  0.00000000E+00  0.00000000E+00  0.00000000E+00
  0.00000000E+00  0.00000000E+00  0.00000000E+00
  0.00000000E+00  0.00000000E+00  0.00000000E+00
  0.00000000E+00  0.00000000E+00  0.00000000E+00
  0.00000000E+00  0.00000000E+00  0.00000000E+00
  0.00000000E+00  0.00000000E+00  0.00000000E+00
  0.00000000E+00  0.00000000E+00  0.00000000E+00
  0.00000000E+00  0.00000000E+00  0.00000000E+00
  0.00000000E+00  0.00000000E+00  0.00000000E+00
  0.00000000E+00  0.00000000E+00  0.00000000E+00
  0.00000000E+00  0.00000000E+00  0.00000000E+00
  0.00000000E+00  0.00000000E+00  0.00000000E+00
  0.00000000E+00  0.00000000E+00  0.00000000E+00
  0.00000000E+00  0.00000000E+00  0.00000000E+00
  0.00000000E+00  0.00000000E+00  0.00000000E+00
  0.00000000E+00  0.00000000E+00  0.00000000E+00
  0.00000000E+00  0.00000000E+00  0.00000000E+00
  0.00000000E+00  0.00000000E+00  0.00000000E+00
  0.00000000E+00  0.00000000E+00  0.00000000E+00
  0.00000000E+00  0.00000000E+00  0.00000000E+00
  0.00000000E+00  0.00000000E+00  0.00000000E+00
  0.00000000E+00  0.00000000E+00  0.00000000E+00
  0.00000000E+00  0.00000000E+00  0.00000000E+00
  0.00000000E+00  0.00000000E+00  0.00000000E+00
  0.00000000E+00  0.00000000E+00  0.00000000E+00
  0.00000000E+00  0.00000000E+00  0.00000000E+00
  0.00000000E+00  0.00000000E+00  0.00000000E+00
  0.00000000E+00  0.00000000E+00  0.00000000E+00
  0.00000000E+00  0.00000000E+00  0.00000000E+00
  0.00000000E+00  0.00000000E+00  0.00000000E+00
  0.00000000E+00  0.00000000E+00  0.00000000E+00
  0.00000000E+00  0.00000000E+00  0.00000000E+00
  0.00000000E+00  0.00000000E+00  0.00000000E+00
  0.00000000E+00  0.00000000E+00  0.00000000E+00
  0.00000000E+00  0.00000000E+00  0.00000000E+00
  0.00000000E+00  0.00000000E+00  0.00000000E+00
  0.00000000E+00  0.00000000E+00  0.00000000E+00
  0.00000000E+00  0.00000000E+00  0.00000000E+00
  0.00000000E+00  0.00000000E+00  0.00000000E+00
  0.00000000E+00  0.00000000E+00  0.00000000E+00
  0.00000000E+00  0.00000000E+00  0.00000000E+00
  0.00000000E+00  0.00000000E+00  0.00000000E+00
  0.00000000E+00  0.00000000E+00  0.00000000E+00
  0.00000000E+00  0.00000000E+00  0.00000000E+00
  0.00000000E+00  0.00000000E+00  0.00000000E+00
