 In N B 
 1.0
 14.936314146199660   0.000000000000000   0.000000000000000
 -7.468157073099825  12.935227489513863   0.000000000000000
  0.000000000000001   0.000000000000001  13.341276283792837
 In N B 
   1 143 143
Cartesian
  4.206479250528950   5.303106925303172   5.002978606422314 
  1.245913246624939   0.719104218649603   1.665800948939056 
  4.979661825301910   7.187273897175358   1.686623070189198 
  6.224645109227783   0.718670763919907   1.666152910672428 
  9.958521847906717   7.186840259256583   1.669579343438921 
 11.203195037845170   0.719177675544365   1.666622963590588 
 -3.733152513796469   9.342643381912564   8.337859381570171 
  1.245324002092411   9.343107908678544   8.339804302172240 
  2.490804603825307   2.874999536669116   8.328848177877934 
  6.224475009591505   9.342691128166011   8.334927539595054 
  7.469199434574304   2.874571600076745   8.336422539613444 
 12.448041218093858   2.875227712470780   8.339580650779947 
 -1.243880010965883   9.342784834436250   1.666760846726043 
  0.001386143529312   2.875295288009459   1.667588347187122 
  4.980316384800225   2.874623291776609   1.679007096909963 
  3.734666056917631   9.342973152739956   1.669534673231198 
  8.713861470376930   9.342655271306048   1.669579343438921 
  9.958477035096562   2.875028907135089   1.667136463570464 
 -4.977711766507199  11.498377847951220   8.338876227412916 
  0.000848177617094  11.498469686254456   8.339823528117766 
  1.245839245503348   5.031342790945958   8.328848177877934 
  6.224807000528335   5.030619190883925   8.319334142655377 
  4.979700896708611  11.498522138334659   8.338820749274110 
 11.203234825803140   5.031035108189691   8.338942279316386 
 -1.243666546401661   5.031182909668513   1.665800948939056 
 -2.488393760902280  11.498345880044171   1.666760846726043 
  2.490148252239308  11.498671147104803   1.666264865321995 
  3.736649437996436   5.031850556564262   1.738365770510725 
  7.469235932891944  11.498510906117867   1.667014933528228 
  8.713859670465713   5.030950415949234   1.671029673249627 
  0.000764806560861   7.187190347167322   8.337941610733322 
  1.245913246624939   0.719104218649604   8.340156263905557 
  4.979661825301910   7.187273897175359   8.319334142655377 
  6.224645109227784   0.718670763919908   8.339804302172240 
  9.958521847906717   7.186840259256583   8.336377869405773 
 -2.488511328748727   7.186956219530824   1.667080985431726 
 11.203195037845170   0.719177675544366   8.339334249254041 
  3.735286134728308   0.718809664831653   1.668015602111292 
  2.490269298355822   7.187511358737196   1.679007096909963 
  7.469045217369740   7.186750264507711   1.675870016901681 
  8.713829758242266   0.718938568580820   1.666264865321995 
  2.490269298355823   7.187511358737197   8.326950115934691 
 13.692812231778175   0.719221072980511   1.666376562064706 
 -1.243880010965883   9.342784834436250   8.339196366118506 
  0.001386143529313   2.875295288009460   8.338368865657545 
  4.980316384800226   2.874623291776610   8.326950115934691 
  3.734666056917632   9.342973152739956   8.336422539613444 
  8.713861470376930   9.342655271306048   8.336377869405773 
  9.958477035096562   2.875028907135090   8.338820749274110 
 -3.733152513796469   9.342643381912564   1.668097831274470 
  1.245324002092411   9.343107908678544   1.666152910672428 
  2.490804603825307   2.874999536669115   1.677109034966682 
  6.224475009591504   9.342691128166011   1.671029673249627 
  7.469199434574311   2.874571600076731   1.669534673231198 
 12.448041218093858   2.875227712470779   1.666376562064706 
 -1.243666546401661   5.031182909668514   8.340156263905557 
 -2.488393760902280  11.498345880044171   8.339196366118506 
  2.490148252239309  11.498671147104803   8.339692347522567 
  3.736649437996436   5.031850556564263   8.267591442333917 
  7.469235932891945  11.498510906117867   8.338942279316386 
 -4.977711766507200  11.498377847951220   1.667080985431726 
  8.713859670465713   5.030950415949235   8.334927539595054 
  0.000848177617093  11.498469686254456   1.666133684726795 
  1.245839245503347   5.031342790945957   1.677109034966682 
  0.000764806560860   7.187190347167321   1.668015602111292 
  6.224807000528334   5.030619190883924   1.686623070189198 
  4.979700896708610  11.498522138334659   1.667136463570464 
 11.203234825803140   5.031035108189690   1.667014933528228 
 -2.488511328748726   7.186956219530825   8.338876227412916 
  3.735286134728308   0.718809664831653   8.337941610733322 
  7.469045217369741   7.186750264507712   8.330087195942919 
  8.713829758242266   0.718938568580821   8.339692347522567 
 13.692812231778175   0.719221072980511   8.339580650779947 
  0.001482013028960   1.438861511204333   5.002978606422314 
  3.682915742739565   7.965186004652779   5.002978606422314 
  4.999342117698022   1.337885223894587   5.002978606422314 
  8.692712320568017   7.893234795937773   5.002978606422314 
  9.964902580428964   1.430799010305874   5.002978606422314 
 -4.978616378408005  10.060857204744828  11.673616748318732 
  0.000166427374508  10.060802965220358  11.673616748318732 
  1.244901512677927   3.593239221128957  11.673616748318732 
  4.978965690863502  10.060840243046453  11.673616748318732 
  6.223673548248331   3.593193996734151  11.673616748318732 
 11.202498603292975   3.593175168966562  11.673616748318732 
 -2.516109220522691  10.045303654899717   5.002978606422314 
 -1.242554063288211   3.593595201834321   5.002978606422314 
  3.774236272613624   3.391736578463971   5.002978606422314 
  2.463411023712565  10.091311344403167   5.002978606422314 
  7.458456480294562  10.063825452263364   5.002978606422314 
  8.726193231851402   3.574190218177981   5.002978606422314 
 -6.223317890013740  12.216749948504345  11.673616748318732 
 -1.244548600095271  12.216712633742523  11.673616748318732 
  0.000106353926481   5.749010028191212  11.673616748318732 
  4.978793082554588   5.749002524122056  11.673616748318732 
  3.734312164497490  12.216757073339615  11.673616748318732 
  9.957891150043976   5.749087572853488  11.673616748318732 
 -2.510097659400790   5.746367739941128   5.002978606422314 
 -3.750725925071426  12.179371738686564   5.002978606422314 
  1.239081559245765  12.213364062457449   5.002978606422314 
  2.335062485168210   5.884458699240778   5.002978606422314 
  6.220728939098725  12.224275525958168   5.002978606422314 
  7.482829809875282   5.738435218827349   5.002978606422314 
 -1.244476558772426   7.904887605694459  11.673616748318732 
  0.000137262025899   1.437383757025393  11.673616748318732 
  3.734248364988306   7.905004895782007  11.673616748318732 
  4.978913343115810   1.437552355980789  11.673616748318732 
  8.712931375733604   7.904908272880464  11.673616748318732 
 -3.761075872345940   7.894750131178149   5.002978606422314 
  9.957792368590731   1.437373159950920  11.673616748318732 
  2.476827729228946   1.390377744867648   5.002978606422314 
  1.168927959056202   7.972357160693460   5.002978606422314 
  6.221659891380151   7.922845594638432   5.002978606422314 
  7.481651802574183   1.399463350800769   5.002978606422314 
  1.245027840074129   7.904831756893899  11.673616748318732 
 12.451029220491391   1.439615076799216   5.002978606422314 
 -2.489242563124600  10.060815126780716  11.673616748318732 
 -1.244506211449238   3.593169490393351  11.673616748318732 
  3.734162169355614   3.593394965977764  11.673616748318732 
  2.489489424114347  10.060949531469396  11.673616748318732 
  7.468415770661189  10.060985414136313  11.673616748318732 
  8.713040388293463   3.593233147840332  11.673616748318732 
 -5.001026530175309  10.042407669417081   5.002978606422314 
 -0.033816755161325  10.073257939021078   5.002978606422314 
  1.256789267215644   3.600102619411351   5.002978606422314 
  4.969050451792365  10.081752404530857   5.002978606422314 
  6.250125606234070   3.518648087388303   5.002978606422314 
 11.207511926856130   3.586914024842158   5.002978606422314 
 -2.489185902053015   5.749043623188150  11.673616748318732 
 -3.733947562927208  12.216777868860083  11.673616748318732 
  1.244867231647622  12.216704421976011  11.673616748318732 
  2.489666720012346   5.748924314028578  11.673616748318732 
  6.223644587185690  12.216803288332793  11.673616748318732 
 -6.236091151557124  12.199977777026930   5.002978606422314 
  7.468340214656963   5.749010418010461  11.673616748318732 
 -1.250753867648294  12.181054847464685   5.002978606422314 
 -0.046869378506942   5.761549358380863   5.002978606422314 
 -1.285260398832097   7.909060182930481   5.002978606422314 
  3.732173889815703  12.226201772240360   5.002978606422314 
  9.955371050026422   5.739042555328772   5.002978606422314 
 -3.733893030180494   7.904933124247515  11.673616748318732 
  2.489456216954993   1.437329587611173  11.673616748318732 
  6.223573484913611   7.905009637497320  11.673616748318732 
  7.468396901469508   1.437228814505608  11.673616748318732 
 12.447150608207545   1.437375758953056  11.673616748318732 
  1.232178452084826   0.698078242774674   5.002978606422314 
  4.952789002285892   7.397733453803544   5.002978606422314 
  6.241954403397647   0.659845942829028   5.002978606422314 
  9.945654943930101   7.175225983631454   5.002978606422314 
 11.210886159431412   0.723618146662536   5.002978606422314 
 -3.731630924412609   9.343521871952978  11.673616748318732 
  1.244681053481456   9.339901988528142  11.673616748318732 
  2.486919255877536   2.875478924440432  11.673616748318732 
  6.221698416492298   9.344081686096420  11.673616748318732 
  7.470749989525435   2.875321564147581  11.673616748318732 
 12.447376056381438   2.872059320699332  11.673616748318732 
 -1.273447999309886   9.340923389292149   5.002978606422314 
  0.010196841314822   2.880382146747724   5.002978606422314 
  4.994621977974429   2.736769886697931   5.002978606422314 
  3.705809940164756   9.411467806116958   5.002978606422314 
  8.697369760650727   9.337319343406770   5.002978606422314 
  9.977374324303151   2.860012959217747   5.002978606422314 
 -4.980743675704008  11.499530034571317  11.673616748318732 
  0.002245232285784  11.499276276143560  11.673616748318732 
  1.244311733517685   5.027738287034989  11.673616748318732 
  6.222133406415684   5.031087471914800  11.673616748318732 
  4.979035507158240  11.496293151009107  11.673616748318732 
 11.205050517097616   5.031562138992798  11.673616748318732 
 -1.268742972918758   5.029801216618468   5.002978606422314 
 -2.504789813856831  11.473669973571527   5.002978606422314 
  2.483201536211234  11.519577325237954   5.002978606422314 
  7.458597656374303  11.502789184652563   5.002978606422314 
  8.746106535972622   5.004494395222582   5.002978606422314 
  0.001983057231073   7.187218082579835  11.673616748318732 
  1.244734803401262   0.716380384544755  11.673616748318732 
  4.978730571514425   7.184724356238972  11.673616748318732 
  6.221547226629545   0.719716914164708  11.673616748318732 
  9.956161304186377   7.187524974098404  11.673616748318732 
 -2.516828607754362   7.180603920355343   5.002978606422314 
 11.204836348705465   0.720125286811389  11.673616748318732 
  3.721312705600791   0.669846511169929   5.002978606422314 
  2.378037544146552   7.268827068381691   5.002978606422314 
  7.469762679071857   7.187164491214622   5.002978606422314 
  8.728461681587563   0.702469446961083   5.002978606422314 
  2.486953044192652   7.187472437066004  11.673616748318732 
 13.695108821922842   0.727519005271780   5.002978606422314 
 -1.246766909829282   9.343327517224091  11.673616748318732 
  0.002029612620317   2.875666795062409  11.673616748318732 
  4.978624550562615   2.871770792261519  11.673616748318732 
  3.736090822330437   9.343940990682235  11.673616748318732 
  8.713274178964207   9.340268623056440  11.673616748318732 
  9.956213980672748   2.875567156543807  11.673616748318732 
 -3.756517483435583   9.329153610401850   5.002978606422314 
  1.203034859739575   9.387510607696651   5.002978606422314 
  2.485854837711987   2.827204807768208   5.002978606422314 
  6.217686856312662   9.383845743250689   5.002978606422314 
  7.514089486045759   2.815334143225685   5.002978606422314 
 12.456375733329311   2.873067651732509   5.002978606422314 
 -1.246614677543993   5.031524264952317  11.673616748318732 
 -2.489367233253535  11.495574410896433  11.673616748318732 
  2.487385172546769  11.499550511389097  11.673616748318732 
  3.735237971446932   5.031035645971929  11.673616748318732 
  7.470600200603265  11.499819825502737  11.673616748318732 
 -4.997371658468410  11.477030514554004   5.002978606422314 
  8.713675632409299   5.027850536824104  11.673616748318732 
 -0.008200394234738  11.493245490860071   5.002978606422314 
  1.201972913051504   5.050953532199498   5.002978606422314 
 -0.048625242923390   7.199570579395838   5.002978606422314 
  6.393633911529525   4.902116865166587   5.002978606422314 
  4.976145348953589  11.522395644808885   5.002978606422314 
 11.201620785439893   5.019682951205477   5.002978606422314 
 -2.489029460464236   7.183754415834390  11.673616748318732 
  3.735919279635228   0.719850833153992  11.673616748318732 
  7.470790794459455   7.187758073910340  11.673616748318732 
  8.713209770205365   0.716105989232270  11.673616748318732 
 13.689735743158742   0.720229221925669  11.673616748318732 
  0.001291149945498   1.438056240920794   1.669513860060905 
  3.731694201677728   7.908205322168131   1.673686990185942 
  4.979501238314169   1.434483449575845   1.670695677243917 
  8.716422322537221   7.906923771957136   1.669682126638207 
  9.958964942336765   1.437077455289180   1.668337910704053 
 -4.976460763848256  10.062127106781102   8.336194620847873 
 -0.000245157877556  10.061740345006841   8.337846290282522 
  1.244821704464748   3.593193143835542   8.328342810095910 
  4.979284653341494  10.063358736150617   8.338293794917545 
  6.225168117146361   3.589381813228727   8.332270222658673 
 11.204363017797590   3.593526281447333   8.337311492354251 
 -2.488258511510786  10.061383269244880   1.668713914825553 
 -1.243346879352385   3.593832544697142   1.669513860060905 
  3.733698270146942   3.587848535534054   1.699885394540045 
  2.488372868685292  10.062789199724712   1.667749589753349 
  7.470541395903915  10.063167228518944   1.669120883074568 
  8.715380948539877   3.592250130897120   1.667663417927121 
 -6.221874008902539  12.217671851991089   8.337927067406726 
 -1.243942598013251  12.215887500565232   8.337846290282522 
 -0.000235956529061   5.750061337954168   8.333496440060440 
  4.981699746416263   5.750680687285047   8.320574164018067 
  3.734642363621423  12.217920404322358   8.337619302140588 
  9.960843469347040   5.749837511121300   8.336836329770060 
 -2.487665569658049   5.749833109167107   1.668030145437877 
 -3.732885817632117  12.216498249061797   1.669345771272439 
  1.245041791897471  12.216805204383361   1.667475048117359 
  2.484631420743443   5.751295780750913   1.699885394540045 
  6.224880866765895  12.218242362416651   1.668645720490363 
  7.472538623196027   5.750074606470948   1.671821023833957 
 -1.244187843973590   7.905946913991488   8.336611441572176 
  0.001291149945498   1.438056240920794   8.336443352783697 
  3.731694201677728   7.908205322168132   8.332270222658673 
  4.979501238314170   1.434483449575846   8.335261535600765 
  8.716422322537221   7.906923771957137   8.336275086206435 
 -3.731715455476791   7.906164990198718   1.669762591996781 
  9.958964942336765   1.437077455289181   8.337619302140588 
  2.490195522689188   1.436507483179214   1.672460772784175 
  1.242664036764791   7.906875342272913   1.670695677243917 
  6.226594303424361   7.908113471717334   1.671821023833957 
  7.469431823198592   1.435342015011704   1.667749589753349 
  1.242664036764791   7.906875342272914   8.335261535600765 
 12.448321057951031   1.438051518427564   1.668345108706117 
 -2.488258511510786  10.061383269244880   8.337243298019075 
 -1.243346879352384   3.593832544697143   8.336443352783697 
  3.733698270146942   3.587848535534055   8.306071818304595 
  2.488372868685292  10.062789199724712   8.338207623091305 
  7.470541395903916  10.063167228518944   8.336836329770060 
  8.715380948539877   3.592250130897121   8.338293794917545 
 -4.976460763848257  10.062127106781102   1.669762591996781 
 -0.000245157877557  10.061740345006841   1.668110922562186 
  1.244821704464747   3.593193143835541   1.677614402748719 
  4.979284653341493  10.063358736150617   1.667663417927121 
  6.225168117146360   3.589381813228726   1.673686990185942 
 11.204363017797590   3.593526281447332   1.668645720490363 
 -2.487665569658049   5.749833109167108   8.337927067406726 
 -3.732885817632117  12.216498249061797   8.336611441572176 
  1.245041791897471  12.216805204383361   8.338482164727283 
  2.484631420743443   5.751295780750914   8.306071818304595 
  6.224880866765896  12.218242362416651   8.337311492354251 
 -6.221874008902540  12.217671851991089   1.668030145437877 
  7.472538623196028   5.750074606470949   8.334136189010698 
 -1.243942598013252  12.215887500565232   1.668110922562186 
 -0.000235956529061   5.750061337954167   1.672460772784175 
 -1.244187843973591   7.905946913991487   1.669345771272439 
  4.981699746416262   5.750680687285046   1.685383048826534 
  3.734642363621423  12.217920404322358   1.668337910704053 
  9.960843469347040   5.749837511121299   1.669120883074568 
 -3.731715455476790   7.906164990198719   8.336194620847873 
  2.490195522689189   1.436507483179215   8.333496440060440 
  6.226594303424362   7.908113471717335   8.334136189010698 
  7.469431823198593   1.435342015011704   8.338207623091305 
 12.448321057951031   1.438051518427565   8.337612104138524 
Generated by cif2cell 2.0.0.  :  Failed to get author information, No journal information. Species order: In N B 
 1.0
 14.936314146199660   0.000000000000000   0.000000000000000
 -7.468157073099825  12.935227489513863   0.000000000000000
  0.000000000000001   0.000000000000001  13.341276283792837
 In N B 
   1 143 143
Cartesian
  4.206479250528950   5.303106925303172   5.002978606422314 
  1.245913246624939   0.719104218649603   1.665800948939056 
  4.979661825301910   7.187273897175358   1.686623070189198 
  6.224645109227783   0.718670763919907   1.666152910672428 
  9.958521847906717   7.186840259256583   1.669579343438921 
 11.203195037845170   0.719177675544365   1.666622963590588 
 -3.733152513796469   9.342643381912564   8.337859381570171 
  1.245324002092411   9.343107908678544   8.339804302172240 
  2.490804603825307   2.874999536669116   8.328848177877934 
  6.224475009591505   9.342691128166011   8.334927539595054 
  7.469199434574304   2.874571600076745   8.336422539613444 
 12.448041218093858   2.875227712470780   8.339580650779947 
 -1.243880010965883   9.342784834436250   1.666760846726043 
  0.001386143529312   2.875295288009459   1.667588347187122 
  4.980316384800225   2.874623291776609   1.679007096909963 
  3.734666056917631   9.342973152739956   1.669534673231198 
  8.713861470376930   9.342655271306048   1.669579343438921 
  9.958477035096562   2.875028907135089   1.667136463570464 
 -4.977711766507199  11.498377847951220   8.338876227412916 
  0.000848177617094  11.498469686254456   8.339823528117766 
  1.245839245503348   5.031342790945958   8.328848177877934 
  6.224807000528335   5.030619190883925   8.319334142655377 
  4.979700896708611  11.498522138334659   8.338820749274110 
 11.203234825803140   5.031035108189691   8.338942279316386 
 -1.243666546401661   5.031182909668513   1.665800948939056 
 -2.488393760902280  11.498345880044171   1.666760846726043 
  2.490148252239308  11.498671147104803   1.666264865321995 
  3.736649437996436   5.031850556564262   1.738365770510725 
  7.469235932891944  11.498510906117867   1.667014933528228 
  8.713859670465713   5.030950415949234   1.671029673249627 
  0.000764806560861   7.187190347167322   8.337941610733322 
  1.245913246624939   0.719104218649604   8.340156263905557 
  4.979661825301910   7.187273897175359   8.319334142655377 
  6.224645109227784   0.718670763919908   8.339804302172240 
  9.958521847906717   7.186840259256583   8.336377869405773 
 -2.488511328748727   7.186956219530824   1.667080985431726 
 11.203195037845170   0.719177675544366   8.339334249254041 
  3.735286134728308   0.718809664831653   1.668015602111292 
  2.490269298355822   7.187511358737196   1.679007096909963 
  7.469045217369740   7.186750264507711   1.675870016901681 
  8.713829758242266   0.718938568580820   1.666264865321995 
  2.490269298355823   7.187511358737197   8.326950115934691 
 13.692812231778175   0.719221072980511   1.666376562064706 
 -1.243880010965883   9.342784834436250   8.339196366118506 
  0.001386143529313   2.875295288009460   8.338368865657545 
  4.980316384800226   2.874623291776610   8.326950115934691 
  3.734666056917632   9.342973152739956   8.336422539613444 
  8.713861470376930   9.342655271306048   8.336377869405773 
  9.958477035096562   2.875028907135090   8.338820749274110 
 -3.733152513796469   9.342643381912564   1.668097831274470 
  1.245324002092411   9.343107908678544   1.666152910672428 
  2.490804603825307   2.874999536669115   1.677109034966682 
  6.224475009591504   9.342691128166011   1.671029673249627 
  7.469199434574311   2.874571600076731   1.669534673231198 
 12.448041218093858   2.875227712470779   1.666376562064706 
 -1.243666546401661   5.031182909668514   8.340156263905557 
 -2.488393760902280  11.498345880044171   8.339196366118506 
  2.490148252239309  11.498671147104803   8.339692347522567 
  3.736649437996436   5.031850556564263   8.267591442333917 
  7.469235932891945  11.498510906117867   8.338942279316386 
 -4.977711766507200  11.498377847951220   1.667080985431726 
  8.713859670465713   5.030950415949235   8.334927539595054 
  0.000848177617093  11.498469686254456   1.666133684726795 
  1.245839245503347   5.031342790945957   1.677109034966682 
  0.000764806560860   7.187190347167321   1.668015602111292 
  6.224807000528334   5.030619190883924   1.686623070189198 
  4.979700896708610  11.498522138334659   1.667136463570464 
 11.203234825803140   5.031035108189690   1.667014933528228 
 -2.488511328748726   7.186956219530825   8.338876227412916 
  3.735286134728308   0.718809664831653   8.337941610733322 
  7.469045217369741   7.186750264507712   8.330087195942919 
  8.713829758242266   0.718938568580821   8.339692347522567 
 13.692812231778175   0.719221072980511   8.339580650779947 
  0.001482013028960   1.438861511204333   5.002978606422314 
  3.682915742739565   7.965186004652779   5.002978606422314 
  4.999342117698022   1.337885223894587   5.002978606422314 
  8.692712320568017   7.893234795937773   5.002978606422314 
  9.964902580428964   1.430799010305874   5.002978606422314 
 -4.978616378408005  10.060857204744828  11.673616748318732 
  0.000166427374508  10.060802965220358  11.673616748318732 
  1.244901512677927   3.593239221128957  11.673616748318732 
  4.978965690863502  10.060840243046453  11.673616748318732 
  6.223673548248331   3.593193996734151  11.673616748318732 
 11.202498603292975   3.593175168966562  11.673616748318732 
 -2.516109220522691  10.045303654899717   5.002978606422314 
 -1.242554063288211   3.593595201834321   5.002978606422314 
  3.774236272613624   3.391736578463971   5.002978606422314 
  2.463411023712565  10.091311344403167   5.002978606422314 
  7.458456480294562  10.063825452263364   5.002978606422314 
  8.726193231851402   3.574190218177981   5.002978606422314 
 -6.223317890013740  12.216749948504345  11.673616748318732 
 -1.244548600095271  12.216712633742523  11.673616748318732 
  0.000106353926481   5.749010028191212  11.673616748318732 
  4.978793082554588   5.749002524122056  11.673616748318732 
  3.734312164497490  12.216757073339615  11.673616748318732 
  9.957891150043976   5.749087572853488  11.673616748318732 
 -2.510097659400790   5.746367739941128   5.002978606422314 
 -3.750725925071426  12.179371738686564   5.002978606422314 
  1.239081559245765  12.213364062457449   5.002978606422314 
  2.335062485168210   5.884458699240778   5.002978606422314 
  6.220728939098725  12.224275525958168   5.002978606422314 
  7.482829809875282   5.738435218827349   5.002978606422314 
 -1.244476558772426   7.904887605694459  11.673616748318732 
  0.000137262025899   1.437383757025393  11.673616748318732 
  3.734248364988306   7.905004895782007  11.673616748318732 
  4.978913343115810   1.437552355980789  11.673616748318732 
  8.712931375733604   7.904908272880464  11.673616748318732 
 -3.761075872345940   7.894750131178149   5.002978606422314 
  9.957792368590731   1.437373159950920  11.673616748318732 
  2.476827729228946   1.390377744867648   5.002978606422314 
  1.168927959056202   7.972357160693460   5.002978606422314 
  6.221659891380151   7.922845594638432   5.002978606422314 
  7.481651802574183   1.399463350800769   5.002978606422314 
  1.245027840074129   7.904831756893899  11.673616748318732 
 12.451029220491391   1.439615076799216   5.002978606422314 
 -2.489242563124600  10.060815126780716  11.673616748318732 
 -1.244506211449238   3.593169490393351  11.673616748318732 
  3.734162169355614   3.593394965977764  11.673616748318732 
  2.489489424114347  10.060949531469396  11.673616748318732 
  7.468415770661189  10.060985414136313  11.673616748318732 
  8.713040388293463   3.593233147840332  11.673616748318732 
 -5.001026530175309  10.042407669417081   5.002978606422314 
 -0.033816755161325  10.073257939021078   5.002978606422314 
  1.256789267215644   3.600102619411351   5.002978606422314 
  4.969050451792365  10.081752404530857   5.002978606422314 
  6.250125606234070   3.518648087388303   5.002978606422314 
 11.207511926856130   3.586914024842158   5.002978606422314 
 -2.489185902053015   5.749043623188150  11.673616748318732 
 -3.733947562927208  12.216777868860083  11.673616748318732 
  1.244867231647622  12.216704421976011  11.673616748318732 
  2.489666720012346   5.748924314028578  11.673616748318732 
  6.223644587185690  12.216803288332793  11.673616748318732 
 -6.236091151557124  12.199977777026930   5.002978606422314 
  7.468340214656963   5.749010418010461  11.673616748318732 
 -1.250753867648294  12.181054847464685   5.002978606422314 
 -0.046869378506942   5.761549358380863   5.002978606422314 
 -1.285260398832097   7.909060182930481   5.002978606422314 
  3.732173889815703  12.226201772240360   5.002978606422314 
  9.955371050026422   5.739042555328772   5.002978606422314 
 -3.733893030180494   7.904933124247515  11.673616748318732 
  2.489456216954993   1.437329587611173  11.673616748318732 
  6.223573484913611   7.905009637497320  11.673616748318732 
  7.468396901469508   1.437228814505608  11.673616748318732 
 12.447150608207545   1.437375758953056  11.673616748318732 
  1.232178452084826   0.698078242774674   5.002978606422314 
  4.952789002285892   7.397733453803544   5.002978606422314 
  6.241954403397647   0.659845942829028   5.002978606422314 
  9.945654943930101   7.175225983631454   5.002978606422314 
 11.210886159431412   0.723618146662536   5.002978606422314 
 -3.731630924412609   9.343521871952978  11.673616748318732 
  1.244681053481456   9.339901988528142  11.673616748318732 
  2.486919255877536   2.875478924440432  11.673616748318732 
  6.221698416492298   9.344081686096420  11.673616748318732 
  7.470749989525435   2.875321564147581  11.673616748318732 
 12.447376056381438   2.872059320699332  11.673616748318732 
 -1.273447999309886   9.340923389292149   5.002978606422314 
  0.010196841314822   2.880382146747724   5.002978606422314 
  4.994621977974429   2.736769886697931   5.002978606422314 
  3.705809940164756   9.411467806116958   5.002978606422314 
  8.697369760650727   9.337319343406770   5.002978606422314 
  9.977374324303151   2.860012959217747   5.002978606422314 
 -4.980743675704008  11.499530034571317  11.673616748318732 
  0.002245232285784  11.499276276143560  11.673616748318732 
  1.244311733517685   5.027738287034989  11.673616748318732 
  6.222133406415684   5.031087471914800  11.673616748318732 
  4.979035507158240  11.496293151009107  11.673616748318732 
 11.205050517097616   5.031562138992798  11.673616748318732 
 -1.268742972918758   5.029801216618468   5.002978606422314 
 -2.504789813856831  11.473669973571527   5.002978606422314 
  2.483201536211234  11.519577325237954   5.002978606422314 
  7.458597656374303  11.502789184652563   5.002978606422314 
  8.746106535972622   5.004494395222582   5.002978606422314 
  0.001983057231073   7.187218082579835  11.673616748318732 
  1.244734803401262   0.716380384544755  11.673616748318732 
  4.978730571514425   7.184724356238972  11.673616748318732 
  6.221547226629545   0.719716914164708  11.673616748318732 
  9.956161304186377   7.187524974098404  11.673616748318732 
 -2.516828607754362   7.180603920355343   5.002978606422314 
 11.204836348705465   0.720125286811389  11.673616748318732 
  3.721312705600791   0.669846511169929   5.002978606422314 
  2.378037544146552   7.268827068381691   5.002978606422314 
  7.469762679071857   7.187164491214622   5.002978606422314 
  8.728461681587563   0.702469446961083   5.002978606422314 
  2.486953044192652   7.187472437066004  11.673616748318732 
 13.695108821922842   0.727519005271780   5.002978606422314 
 -1.246766909829282   9.343327517224091  11.673616748318732 
  0.002029612620317   2.875666795062409  11.673616748318732 
  4.978624550562615   2.871770792261519  11.673616748318732 
  3.736090822330437   9.343940990682235  11.673616748318732 
  8.713274178964207   9.340268623056440  11.673616748318732 
  9.956213980672748   2.875567156543807  11.673616748318732 
 -3.756517483435583   9.329153610401850   5.002978606422314 
  1.203034859739575   9.387510607696651   5.002978606422314 
  2.485854837711987   2.827204807768208   5.002978606422314 
  6.217686856312662   9.383845743250689   5.002978606422314 