 B Si N 
 1.0
 14.936314146199660   0.000000000000000   0.000000000000000
 -7.468157073099825  12.935227489513863   0.000000000000000
  0.000000000000001   0.000000000000001  13.341276283792837
 B Si N 
 143   1 143
Cartesian
  1.251820094797547   0.719045930642666   5.002978606422314 
  4.975573272540323   7.352501250190562   5.002978606422314 
  6.252102453106490   0.693134972944918   5.002978606422314 
  9.970350244580924   7.189241245923373   5.002978606422314 
 11.223266985700912   0.730766220041676   5.002978606422314 
 -3.735110768824245   9.341512782842448  11.673616748318732 
  1.243218965248745   9.342081615178024  11.673616748318732 
  2.487097343682679   2.872883006446319  11.673616748318732 
  6.222531360038301   9.342624068989648  11.673616748318732 
  7.467989479158581   2.873011807220300  11.673616748318732 
 12.445686032953347   2.873518766926021  11.673616748318732 
 -1.244356699940929   9.350640424534738   5.002978606422314 
  0.014150362225490   2.882664713109640   5.002978606422314 
  5.011278723743185   2.794450781033075   5.002978606422314 
  3.736205064222909   9.398761118483455   5.002978606422314 
  8.721854984161398   9.351698469979230   5.002978606422314 
  9.987177110453866   2.873953152562323   5.002978606422314 
 -4.980078257387674  11.497321804758586  11.673616748318732 
 -0.000941968351050  11.497436144996481  11.673616748318732 
  1.242152646490593   5.029190474596477  11.673616748318732 
  6.223182880219686   5.029142675326863  11.673616748318732 
  4.977639834490948  11.498219561033855  11.673616748318732 
 11.201500892328330   5.029346423731253  11.673616748318732 
 -1.240763601210332   5.036327534246159   5.002978606422314 
 -2.481828964803862  11.494005260234685   5.002978606422314 
  2.503259701328621  11.521086012041797   5.002978606422314 
  7.477381987850766  11.511390539569140   5.002978606422314 
  8.749837910440874   5.021511654172850   5.002978606422314 
 -0.001894913829435   7.185598097399233  11.673616748318732 
  1.242866615303173   0.717606823418393  11.673616748318732 
  4.977571065163966   7.186605625511473  11.673616748318732 
  6.222703794562461   0.717360895288170  11.673616748318732 
  9.956963223918580   7.185602575345947  11.673616748318732 
 -2.488123738532054   7.190620749074938   5.002978606422314 
 11.201352628803317   0.718113960187560  11.673616748318732 
  3.740632649194386   0.698551609386759   5.002978606422314 
  2.436319036837743   7.254411786194980   5.002978606422314 
  7.495353555551631   7.201939390637715   5.002978606422314 
  8.739797325243508   0.719085984106255   5.002978606422314 
  2.487389931655710   7.186145859489950  11.673616748318732 
 13.707554461799301   0.732218901146690   5.002978606422314 
 -1.245962908345951   9.341581772816653  11.673616748318732 
 -0.002145032582655   2.873256562530884  11.673616748318732 
  4.977694144413497   2.872812436690621  11.673616748318732 
  3.732710258970870   9.342705197041715  11.673616748318732 
  8.712010292674014   9.341924305293352  11.673616748318732 
  9.957184464358081   2.873395263547160  11.673616748318732 
 -3.729926470253546   9.344505939019230   5.002978606422314 
  1.236938030342493   9.379654561484061   5.002978606422314 
  2.490882617290957   2.857464287556975   5.002978606422314 
  6.234289922099913   9.378568578857104   5.002978606422314 
  7.518282733786745   2.848010436627150   5.002978606422314 
 12.466668782489975   2.881495944095078   5.002978606422314 
 -1.246486644372062   5.029293147163130  11.673616748318732 
 -2.490477091517525  11.497143568809916  11.673616748318732 
  2.488365300543501  11.497967535066831  11.673616748318732 
  3.732012580676105   5.029173465741952  11.673616748318732 
  7.466906522513010  11.497853617912108  11.673616748318732 
 -4.974344395719810  11.496881246151446   5.002978606422314 
  8.712829770738516   5.029300695648817  11.673616748318732 
  0.012572561262028  11.505238762308165   5.002978606422314 
  1.230692281043713   5.040177977144523   5.002978606422314 
 -0.014105926851943   7.201949592237864   5.002978606422314 
  6.365853809259727   4.944464723818409   5.002978606422314 
  4.993119303599105  11.523915009970827   5.002978606422314 
 11.218461943042495   5.031649981999523   5.002978606422314 
 -2.490609134420615   7.185434799905676  11.673616748318732 
  3.732577345784968   0.717302404290492  11.673616748318732 
  7.467687064630518   7.185966134657490  11.673616748318732 
  8.712328936494858   0.717746293137881  11.673616748318732 
 13.690154648952026   0.718035895591370  11.673616748318732 
  0.001677041478091   1.437620584995416   1.663226427073189 
  3.733232005162620   7.909954472229540   1.691382109753192 
  4.980624350861072   1.433294968297364   1.672593028493969 
  8.718101686226431   7.907893353033271   1.669080663280352 
  9.959815669720445   1.437545040252296   1.662213812797525 
 -4.975502773526508  10.062228465837157   8.343080584025254 
 -0.000195136250830  10.062398952589909   8.344318591948982 
  1.244414190261591   3.592957865399521   8.324791899561696 
  4.980708354935254  10.064468254826640   8.337072520511141 
  6.227451827277442   3.589839015081231   8.314575103091716 
 11.205060069716632   3.594228483328148   8.343561923245300 
 -2.487866719800399  10.061609470295796   1.661272772456299 
 -1.243531222684588   3.594384564529837   1.663226427073189 
  3.734946647727068   3.586908937376944   1.721268674955818 
  2.488928055838729  10.063883156638333   1.665975483709845 
  7.472081709734920  10.063758231446640   1.665760655363273 
  8.717053670696666   3.592928333305847   1.668884692333420 
 -6.220977105930466  12.217229779126276   8.344010122226676 
 -1.243347216304395  12.215601516777630   8.344318591948982 
 -0.001209114362683   5.751362411206507   8.335682374749409 
  4.984721901120881   5.752425529117300   8.276403627053089 
  3.735472667769048  12.218423363367977   8.343743400046902 
  9.962125449810681   5.750875960566558   8.340196557481848 
 -2.487599964502734   5.750830886357141   1.661947090619793 
 -3.732144247530060  12.215464023992796   1.662809263978171 
  1.245709551967833  12.217190735839964   1.661077071036915 
  2.484441893659756   5.752846706527968   1.721268674955818 
  6.225837517392771  12.218494926145917   1.662395289598313 
  7.474847143526565   5.751086541586995   1.685179055375657 
 -1.244712724105642   7.907106245073223   8.343147948866029 
  0.001677041478091   1.437620584995416   8.342730785769465 
  3.733232005162612   7.909954472229554   8.314575103091716 
  4.980624350861073   1.433294968297364   8.333364184349284 
  8.718101686226431   7.907893353033272   8.336876549565183 
 -3.731148680797634   7.906943954624455   1.662876628818107 
  9.959815669720445   1.437545040252297   8.343743400046902 
  2.490835706260953   1.435014167147468   1.670274838095152 
  1.242196338059350   7.908442226908744   1.672593028493969 
  6.228624925107241   7.909606741410478   1.685179055375657 
  7.470656811253541   1.435275842732953   1.665975483709845 
  1.242196338059351   7.908442226908745   8.333364184349284 
 12.448898695200363   1.438385017448744   1.661358586918178 
 -2.487866719800399  10.061609470295796   8.344684440388541 
 -1.243531222684588   3.594384564529838   8.342730785769465 
  3.734946647727069   3.586908937376945   8.284688537888970 
  2.488928055838729  10.063883156638333   8.339981729134889 
  7.472081709734921  10.063758231446640   8.340196557481848 
  8.717053670696666   3.592928333305848   8.337072520511141 
 -4.975502773526509  10.062228465837157   1.662876628818107 
 -0.000195136250831  10.062398952589909   1.661638620894004 
  1.244414190261501   3.592957865399676   1.681165313281652 
  4.980708354935254  10.064468254826640   1.668884692333420 
  6.227451827277442   3.589839015081230   1.691382109753192 
 11.205060069716632   3.594228483328147   1.662395289598313 
 -2.487599964502734   5.750830886357142   8.344010122226676 
 -3.732144247530060  12.215464023992796   8.343147948866029 
  1.245709551967833  12.217190735839964   8.344880141808140 
  2.484441893659756   5.752846706527968   8.284688537888970 
  6.225837517392772  12.218494926145917   8.343561923245300 
 -6.220977105930467  12.217229779126276   1.661947090619793 
  7.474847143526566   5.751086541586996   8.320778157470519 
 -1.243347216304396  12.215601516777630   1.661638620894004 
 -0.001209114362684   5.751362411206506   1.670274838095152 
 -1.244712724105643   7.907106245073222   1.662809263978171 
  4.984721901120880   5.752425529117299   1.729553585789391 
  3.735472667769048  12.218423363367977   1.662213812797525 
  9.962125449810681   5.750875960566557   1.665760655363273 
 -3.731148680797663   7.906943954624456   8.343080584025254 
  2.490835706260954   1.435014167147469   8.335682374749409 
  6.228624925107242   7.909606741410479   8.320778157470519 
  7.470656811253542   1.435275842732953   8.339981729134889 
 12.448898695200363   1.438385017448745   8.344598625927571 
  3.974954541476406   5.169436072208091   5.002978606422314 
  1.247118847311266   0.719753384217188   1.668110579009726 
  4.980654253507235   7.187797193274299   1.725615523290557 
  6.225122577744014   0.719328046050962   1.671290310121331 
  9.959323064135351   7.187431304158211   1.671996931011897 
 11.204031299144754   0.719660491231061   1.665970378045609 
 -3.732291929807056   9.343140240310817   8.338939658691448 
  1.246131959373130   9.343192767478175   8.334666902724058 
  2.492279719113701   2.875871930176491   8.309805821942609 
  6.225433833506663   9.343035966168181   8.325108777621098 
  7.469709787596248   2.875352259321663   8.323600542264964 
 12.449113330314752   2.875915067620889   8.339648116878598 
 -1.243145475700929   9.343202868041379   1.666427081665776 
  0.002798019452836   2.876110434954399   1.672041388480149 
  4.980731450453773   2.875369618973217   1.705559530657161 
  3.735597304164936   9.343024801801935   1.682356670580291 
  8.714773938391223   9.343053622462481   1.671996931011897 
  9.959185615333094   2.875719335657182   1.669495529285920 
 -4.976821303866164  11.498839306192396   8.338808649822274 
  0.001498226398038  11.498844992094085   8.340019595431926 
  1.247332318087498   5.032184081504716   8.309805821942609 
  6.225756402345993   5.031217010872373   8.280341689551788 
  4.980653115466715  11.498790572558708   8.336461683559135 
 11.204178100686073   5.031705681622529   8.337943864358962 
 -1.242501552185878   5.031902407706198   1.668110579009726 
 -2.487664465547214  11.498772989439455   1.666427081665776 
  2.490892830291915  11.498874242260841   1.667564001060171 
  3.737178022996784   5.032155735258047   1.801642929816645 
  7.470288303961231  11.498992519413026   1.668013348485265 
  8.714637720894407   5.031608362814619   1.680848435224584 
  0.001677037667242   7.187646460144097   8.332180013565726 
  1.247118847311267   0.719753384217189   8.337846633835074 
  4.980654253507236   7.187797193274300   8.280341689551788 
  6.225122577744037   0.719328046050924   8.334666902724058 
  9.959323064135351   7.187431304158212   8.333960281832438 
 -2.487666462869425   7.187496653679982   1.667148563020526 
 11.204031299144754   0.719660491231062   8.339986834797818 
  3.736137255706374   0.719371623655527   1.673777199279117 
  2.491123169494716   7.187497652538547   1.705559530657161 
  7.469846310179175   7.187212775655798   1.691806205309473 
  8.714377932832837   0.719481844511886   1.667564001060171 
  2.491123169494716   7.187497652538548   8.300397682187306 
 13.693943554909353   0.719805871825649   1.666309095965763 
 -1.243145475700929   9.343202868041379   8.339530131178664 
  0.002798019452837   2.876110434954400   8.333915824365372 
  4.980731450453774   2.875369618973218   8.300397682187306 
  3.735597304164937   9.343024801801935   8.323600542264964 
  8.714773938391223   9.343053622462481   8.333960281832438 
  9.959185615333094   2.875719335657183   8.336461683559135 
 -3.732291929807056   9.343140240310817   1.667017554153140 
  1.246131959373129   9.343192767478175   1.671290310121331 
  2.492279719113701   2.875871930176490   1.696151390903485 
  6.225433833506662   9.343035966168181   1.680848435224584 
  7.469709787596247   2.875352259321662   1.682356670580291 
 12.449113330314752   2.875915067620888   1.666309095965763 
 -1.242501552185878   5.031902407706199   8.337846633835074 
 -2.487664465547213  11.498772989439455   8.339530131178664 
  2.490892830291915  11.498874242260841   8.338393211783670 
  3.737178022996785   5.032155735258048   8.204314283025141 
  7.470288303961232  11.498992519413026   8.337943864358962 
 -4.976821303866165  11.498839306192396   1.667148563020526 
  8.714637720894407   5.031608362814620   8.325108777621098 
  0.001498226398038  11.498844992094085   1.665937617412716 
  1.247332318087498   5.032184081504715   1.696151390903485 
  0.001677037667242   7.187646460144096   1.673777199279117 
  6.225756402345992   5.031217010872372   1.725615523290557 
  4.980653115466714  11.498790572558708   1.669495529285920 
 11.204178100686073   5.031705681622528   1.668013348485265 
 -2.487666462869425   7.187496653679983   8.338808649822274 
  3.736137255706375   0.719371623655528   8.332180013565726 
  7.469846310179176   7.187212775655799   8.314151007533701 
  8.714377932832837   0.719481844511887   8.338393211783670 
 13.693943554909353   0.719805871825649   8.339648116878598 
  0.018046087190276   1.449118991920847   5.002978606422314 
  3.722156120830756   7.923279790169862   5.002978606422314 
  5.003523359478259   1.400004102952121   5.002978606422314 
  8.714887239249737   7.906037491210174   5.002978606422314 
  9.976061966322568   1.443997411248395   5.002978606422314 
 -4.980090825521589  10.060024960705020  11.673616748318732 
 -0.000971457752259  10.060099274850163  11.673616748318732 
  1.243479822968885   3.592418408192591  11.673616748318732 
  4.977578508247682  10.060019993154850  11.673616748318732 
  6.222147170598650   3.592519483902488  11.673616748318732 
 11.201062007477162   3.592407546384304  11.673616748318732 
 -2.487312585341377  10.061929399973112   5.002978606422314 
 -1.225388787327932   3.602811370489454   5.002978606422314 
  3.790074946836113   3.531092902646174   5.002978606422314 
  2.494039884434731  10.080088014793104   5.002978606422314 
  7.474467923108042  10.065456141509120   5.002978606422314 
  8.729703250037005   3.594919360368505   5.002978606422314 
 -6.224758702173520  12.215961462220655  11.673616748318732 
 -1.245726956394492  12.216079041499258  11.673616748318732 
 -0.001123486337929   5.748165782351932  11.673616748318732 
  4.977293611655937   5.748136804195096  11.673616748318732 
  3.732995880640623  12.215984110177487  11.673616748318732 
  9.956293871940439   5.748208619581614  11.673616748318732 
 -2.481954261600812   5.754830162352493   5.002978606422314 
 -3.727959040811784  12.209842941336898   5.002978606422314 
  1.257821115725027  12.224183350433124   5.002978606422314 
  2.463667939199254   5.828497231388631   5.002978606422314 
  6.237285824427197  12.228542991495269   5.002978606422314 
  7.465568064660619   5.758651440413347   5.002978606422314 
 -1.245778937072986   7.904092208877099  11.673616748318732 
 -0.001257488629157   1.436569533124769  11.673616748318732 
  3.732901030915050   7.904020270379205  11.673616748318732 
  4.977581739050269   1.436824433265271  11.673616748318732 
  8.711399084529802   7.904023604141884  11.673616748318732 
 -3.733108632758051   7.906966954046490   5.002978606422314 
  9.956464820926644   1.436619706275182  11.673616748318732 
  2.504100980447495   1.434909095757209   5.002978606422314 
  1.224815107265331   7.944918782764748   5.002978606422314 
  6.230536780235233   7.897788373975181   5.002978606422314 
  7.487246544377668   1.431600387080584   5.002978606422314 
  1.243731638477198   7.904042515304035  11.673616748318732 
 12.465153883013329   1.447769954508711   5.002978606422314 
 -2.490512463060930  10.060081949711167  11.673616748318732 
 -1.245908725359239   3.592368712844723  11.673616748318732 
  3.732808647446150   3.592666445343358  11.673616748318732 
  2.488346855968665  10.060059167516163  11.673616748318732 
  7.466855935746842  10.060041607358363  11.673616748318732 
  8.711636439741838   3.592441937401378  11.673616748318732 
 -4.976462831423480  10.060519597939113   5.002978606422314 
  0.000054322485717  10.075179887978747   5.002978606422314 
  1.272488855895781   3.609166781162339   5.002978606422314 
  4.988757424619998  10.074427598353495   5.002978606422314 
  6.233453948960809   3.573584358911202   5.002978606422314 
 11.219486103083762   3.599118975378220   5.002978606422314 
 -2.490589157284931   5.748190086397222  11.673616748318732 
 -3.735287585927679  12.216047674575606  11.673616748318732 
  1.243698629341958  12.216029729119251  11.673616748318732 
  2.488359041681502   5.748116389986803  11.673616748318732 
  6.222261508621404  12.215942971151810  11.673616748318732 
 -6.214690779870077  12.220119463262655   5.002978606422314 
  7.466729042950941   5.748149431022147  11.673616748318732 
 -1.232153872203080  12.209427086682481   5.002978606422314 
  0.005332528237733   5.762903011334791   5.002978606422314 
 -1.247488121122470   7.913541281737878   5.002978606422314 
  3.749183733268538  12.229266883442767   5.002978606422314 
  9.964788989745903   5.752093526933196   5.002978606422314 
 -3.735350998217721   7.904072337610195  11.673616748318732 
  2.488110158479291   1.436686637618616  11.673616748318732 
  6.222022262457264   7.904044815362691  11.673616748318732 
  7.467054539594553   1.436684503442509  11.673616748318732 
 12.445790383188285   1.436590432671761  11.673616748318732 
Generated by cif2cell 2.0.0.  :  Failed to get author information, No journal information. Species order: B Si N 
 1.0
 14.936314146199660   0.000000000000000   0.000000000000000
 -7.468157073099825  12.935227489513863   0.000000000000000
  0.000000000000001   0.000000000000001  13.341276283792837
 B Si N 
 143   1 143
Cartesian
  1.251820094797547   0.719045930642666   5.002978606422314 
  4.975573272540323   7.352501250190562   5.002978606422314 
  6.252102453106490   0.693134972944918   5.002978606422314 
  9.970350244580924   7.189241245923373   5.002978606422314 
 11.223266985700912   0.730766220041676   5.002978606422314 
 -3.735110768824245   9.341512782842448  11.673616748318732 
  1.243218965248745   9.342081615178024  11.673616748318732 
  2.487097343682679   2.872883006446319  11.673616748318732 
  6.222531360038301   9.342624068989648  11.673616748318732 
  7.467989479158581   2.873011807220300  11.673616748318732 
 12.445686032953347   2.873518766926021  11.673616748318732 
 -1.244356699940929   9.350640424534738   5.002978606422314 
  0.014150362225490   2.882664713109640   5.002978606422314 
  5.011278723743185   2.794450781033075   5.002978606422314 
  3.736205064222909   9.398761118483455   5.002978606422314 
  8.721854984161398   9.351698469979230   5.002978606422314 
  9.987177110453866   2.873953152562323   5.002978606422314 
 -4.980078257387674  11.497321804758586  11.673616748318732 
 -0.000941968351050  11.497436144996481  11.673616748318732 
  1.242152646490593   5.029190474596477  11.673616748318732 
  6.223182880219686   5.029142675326863  11.673616748318732 
  4.977639834490948  11.498219561033855  11.673616748318732 
 11.201500892328330   5.029346423731253  11.673616748318732 
 -1.240763601210332   5.036327534246159   5.002978606422314 
 -2.481828964803862  11.494005260234685   5.002978606422314 
  2.503259701328621  11.521086012041797   5.002978606422314 
  7.477381987850766  11.511390539569140   5.002978606422314 
  8.749837910440874   5.021511654172850   5.002978606422314 
 -0.001894913829435   7.185598097399233  11.673616748318732 
  1.242866615303173   0.717606823418393  11.673616748318732 
  4.977571065163966   7.186605625511473  11.673616748318732 
  6.222703794562461   0.717360895288170  11.673616748318732 
  9.956963223918580   7.185602575345947  11.673616748318732 
 -2.488123738532054   7.190620749074938   5.002978606422314 
 11.201352628803317   0.718113960187560  11.673616748318732 
  3.740632649194386   0.698551609386759   5.002978606422314 
  2.436319036837743   7.254411786194980   5.002978606422314 
  7.495353555551631   7.201939390637715   5.002978606422314 
  8.739797325243508   0.719085984106255   5.002978606422314 
  2.487389931655710   7.186145859489950  11.673616748318732 
 13.707554461799301   0.732218901146690   5.002978606422314 
 -1.245962908345951   9.341581772816653  11.673616748318732 
 -0.002145032582655   2.873256562530884  11.673616748318732 
  4.977694144413497   2.872812436690621  11.673616748318732 
  3.732710258970870   9.342705197041715  11.673616748318732 
  8.712010292674014   9.341924305293352  11.673616748318732 
  9.957184464358081   2.873395263547160  11.673616748318732 
 -3.729926470253546   9.344505939019230   5.002978606422314 
  1.236938030342493   9.379654561484061   5.002978606422314 
  2.490882617290957   2.857464287556975   5.002978606422314 
  6.234289922099913   9.378568578857104   5.002978606422314 
  7.518282733786745   2.848010436627150   5.002978606422314 
 12.466668782489975   2.881495944095078   5.002978606422314 
 -1.246486644372062   5.029293147163130  11.673616748318732 
 -2.490477091517525  11.497143568809916  11.673616748318732 
  2.488365300543501  11.497967535066831  11.673616748318732 
  3.732012580676105   5.029173465741952  11.673616748318732 
  7.466906522513010  11.497853617912108  11.673616748318732 
 -4.974344395719810  11.496881246151446   5.002978606422314 
  8.712829770738516   5.029300695648817  11.673616748318732 
  0.012572561262028  11.505238762308165   5.002978606422314 
  1.230692281043713   5.040177977144523   5.002978606422314 
 -0.014105926851943   7.201949592237864   5.002978606422314 
  6.365853809259727   4.944464723818409   5.002978606422314 
  4.993119303599105  11.523915009970827   5.002978606422314 
 11.218461943042495   5.031649981999523   5.002978606422314 
 -2.490609134420615   7.185434799905676  11.673616748318732 
  3.732577345784968   0.717302404290492  11.673616748318732 
  7.467687064630518   7.185966134657490  11.673616748318732 
  8.712328936494858   0.717746293137881  11.673616748318732 
 13.690154648952026   0.718035895591370  11.673616748318732 
  0.001677041478091   1.437620584995416   1.663226427073189 
  3.733232005162620   7.909954472229540   1.691382109753192 
  4.980624350861072   1.433294968297364   1.672593028493969 
  8.718101686226431   7.907893353033271   1.669080663280352 
  9.959815669720445   1.437545040252296   1.662213812797525 
 -4.975502773526508  10.062228465837157   8.343080584025254 
 -0.000195136250830  10.062398952589909   8.344318591948982 
  1.244414190261591   3.592957865399521   8.324791899561696 
  4.980708354935254  10.064468254826640   8.337072520511141 
  6.227451827277442   3.589839015081231   8.314575103091716 
 11.205060069716632   3.594228483328148   8.343561923245300 
 -2.487866719800399  10.061609470295796   1.661272772456299 
 -1.243531222684588   3.594384564529837   1.663226427073189 
  3.734946647727068   3.586908937376944   1.721268674955818 
  2.488928055838729  10.063883156638333   1.665975483709845 
  7.472081709734920  10.063758231446640   1.665760655363273 
  8.717053670696666   3.592928333305847   1.668884692333420 
 -6.220977105930466  12.217229779126276   8.344010122226676 
 -1.243347216304395  12.215601516777630   8.344318591948982 
 -0.001209114362683   5.751362411206507   8.335682374749409 
  4.984721901120881   5.752425529117300   8.276403627053089 
  3.735472667769048  12.218423363367977   8.343743400046902 
  9.962125449810681   5.750875960566558   8.340196557481848 
 -2.487599964502734   5.750830886357141   1.661947090619793 
 -3.732144247530060  12.215464023992796   1.662809263978171 
  1.245709551967833  12.217190735839964   1.661077071036915 
  2.484441893659756   5.752846706527968   1.721268674955818 
  6.225837517392771  12.218494926145917   1.662395289598313 
  7.474847143526565   5.751086541586995   1.685179055375657 
 -1.244712724105642   7.907106245073223   8.343147948866029 
  0.001677041478091   1.437620584995416   8.342730785769465 
  3.733232005162612   7.909954472229554   8.314575103091716 
  4.980624350861073   1.433294968297364   8.333364184349284 
  8.718101686226431   7.907893353033272   8.336876549565183 
 -3.731148680797634   7.906943954624455   1.662876628818107 
  9.959815669720445   1.437545040252297   8.343743400046902 
  2.490835706260953   1.435014167147468   1.670274838095152 
  1.242196338059350   7.908442226908744   1.672593028493969 
  6.228624925107241   7.909606741410478   1.685179055375657 
  7.470656811253541   1.435275842732953   1.665975483709845 
  1.242196338059351   7.908442226908745   8.333364184349284 
 12.448898695200363   1.438385017448744   1.661358586918178 
 -2.487866719800399  10.061609470295796   8.344684440388541 
 -1.243531222684588   3.594384564529838   8.342730785769465 
  3.734946647727069   3.586908937376945   8.284688537888970 
  2.488928055838729  10.063883156638333   8.339981729134889 
  7.472081709734921  10.063758231446640   8.340196557481848 
  8.717053670696666   3.592928333305848   8.337072520511141 
 -4.975502773526509  10.062228465837157   1.662876628818107 
 -0.000195136250831  10.062398952589909   1.661638620894004 
  1.244414190261501   3.592957865399676   1.681165313281652 
  4.980708354935254  10.064468254826640   1.668884692333420 
  6.227451827277442   3.589839015081230   1.691382109753192 
 11.205060069716632   3.594228483328147   1.662395289598313 
 -2.487599964502734   5.750830886357142   8.344010122226676 
 -3.732144247530060  12.215464023992796   8.343147948866029 
  1.245709551967833  12.217190735839964   8.344880141808140 
  2.484441893659756   5.752846706527968   8.284688537888970 
  6.225837517392772  12.218494926145917   8.343561923245300 
 -6.220977105930467  12.217229779126276   1.661947090619793 
  7.474847143526566   5.751086541586996   8.320778157470519 
 -1.243347216304396  12.215601516777630   1.661638620894004 
 -0.001209114362684   5.751362411206506   1.670274838095152 
 -1.244712724105643   7.907106245073222   1.662809263978171 
  4.984721901120880   5.752425529117299   1.729553585789391 
  3.735472667769048  12.218423363367977   1.662213812797525 
  9.962125449810681   5.750875960566557   1.665760655363273 
 -3.731148680797663   7.906943954624456   8.343080584025254 
  2.490835706260954   1.435014167147469   8.335682374749409 
  6.228624925107242   7.909606741410479   8.320778157470519 
  7.470656811253542   1.435275842732953   8.339981729134889 
 12.448898695200363   1.438385017448745   8.344598625927571 
  3.974954541476406   5.169436072208091   5.002978606422314 
  1.247118847311266   0.719753384217188   1.668110579009726 
  4.980654253507235   7.187797193274299   1.725615523290557 
  6.225122577744014   0.719328046050962   1.671290310121331 
  9.959323064135351   7.187431304158211   1.671996931011897 
 11.204031299144754   0.719660491231061   1.665970378045609 
 -3.732291929807056   9.343140240310817   8.338939658691448 
  1.246131959373130   9.343192767478175   8.334666902724058 
  2.492279719113701   2.875871930176491   8.309805821942609 
  6.225433833506663   9.343035966168181   8.325108777621098 
  7.469709787596248   2.875352259321663   8.323600542264964 
 12.449113330314752   2.875915067620889   8.339648116878598 
 -1.243145475700929   9.343202868041379   1.666427081665776 
  0.002798019452836   2.876110434954399   1.672041388480149 
  4.980731450453773   2.875369618973217   1.705559530657161 
  3.735597304164936   9.343024801801935   1.682356670580291 
  8.714773938391223   9.343053622462481   1.671996931011897 
  9.959185615333094   2.875719335657182   1.669495529285920 
 -4.976821303866164  11.498839306192396   8.338808649822274 
  0.001498226398038  11.498844992094085   8.340019595431926 
  1.247332318087498   5.032184081504716   8.309805821942609 
  6.225756402345993   5.031217010872373   8.280341689551788 
  4.980653115466715  11.498790572558708   8.336461683559135 
 11.204178100686073   5.031705681622529   8.337943864358962 
 -1.242501552185878   5.031902407706198   1.668110579009726 
 -2.487664465547214  11.498772989439455   1.666427081665776 
  2.490892830291915  11.498874242260841   1.667564001060171 
  3.737178022996784   5.032155735258047   1.801642929816645 
  7.470288303961231  11.498992519413026   1.668013348485265 
  8.714637720894407   5.031608362814619   1.680848435224584 
  0.001677037667242   7.187646460144097   8.332180013565726 
  1.247118847311267   0.719753384217189   8.337846633835074 
  4.980654253507236   7.187797193274300   8.280341689551788 
  6.225122577744037   0.719328046050924   8.334666902724058 
  9.959323064135351   7.187431304158212   8.333960281832438 
 -2.487666462869425   7.187496653679982   1.667148563020526 
 11.204031299144754   0.719660491231062   8.339986834797818 
  3.736137255706374   0.719371623655527   1.673777199279117 
  2.491123169494716   7.187497652538547   1.705559530657161 
  7.469846310179175   7.187212775655798   1.691806205309473 
  8.714377932832837   0.719481844511886   1.667564001060171 
  2.491123169494716   7.187497652538548   8.300397682187306 
 13.693943554909353   0.719805871825649   1.666309095965763 
 -1.243145475700929   9.343202868041379   8.339530131178664 
  0.002798019452837   2.876110434954400   8.333915824365372 
  4.980731450453774   2.875369618973218   8.300397682187306 
  3.735597304164937   9.343024801801935   8.323600542264964 
  8.714773938391223   9.343053622462481   8.333960281832438 
  9.959185615333094   2.875719335657183   8.336461683559135 
 -3.732291929807056   9.343140240310817   1.667017554153140 
  1.246131959373129   9.343192767478175   1.671290310121331 
  2.492279719113701   2.875871930176490   1.696151390903485 