 N B C 
 1.0
 17.527899999999772   0.000000000000000   0.000000000000000
 -8.763949999999658  15.179606674993195   0.000000000000000
  0.000000000000001   0.000000000000002  15.000000000000000
 N B C 
  46  48   3
Cartesian
  8.752656294283833  13.713808654403948   1.664892774241830 
 16.276060684700095   0.719471225093989   1.665126770704560 
 15.022926076218885   2.889491001552466   1.665274574846550 
 13.769570943179332   5.059868891664398   1.665093491254500 
 12.516786295084696   7.230543607722812   1.664612404266135 
 11.244325456877053   9.397744507986637   1.665266856042270 
 10.000679373532519  11.557153260198291   1.665228711039435 
 -6.266979811726933  13.727146245971523   1.664808087934920 
  1.246459064718959   0.712336435235157   1.665165454712160 
  0.000910684363633   2.891238533609023   1.664668261747305 
 -1.250236435441098   5.059868891664398   1.664735669759295 
 -2.503019864652639   7.229437824231544   1.665167248427595 
 -3.766785963270629   9.397399002081434   1.665193557584865 
 -5.017322526457994  11.562973613921590   1.664917810808235 
 -3.758974452430380  13.732135276687794   1.664788665788940 
  3.753747962622875   0.719046656217999   1.665423167227005 
  2.499951069901852   2.884132195984528   1.665287458559775 
  1.256714678803974   5.065975750906952   1.664809518562785 
  0.010301484605484   7.231055096166717   1.665288986330190 
 -1.256335793418740   9.397626709038823   1.665620387669160 
 -2.507892268329285  11.565303019885873   1.665161969143365 
 -1.251538491206175  13.734430995158368   1.665114668950335 
  6.260710081591797   0.722679035832064   1.665254240520930 
  5.008982725103817   2.890138889478618   1.665550842866010 
  3.754615392882318   5.049535807293972   1.664976776865585 
  2.521545511994640   7.238453573018916   1.665891368479650 
  1.252477207227257   9.404707334638976   1.665268702613790 
  0.001658175363365  11.566946429667810   1.665495061955475 
  1.255926296911329  13.733616838142931   1.665108068997135 
  8.765247475630835   0.723720724225292   1.664611632994950 
  7.513104717017609   2.894816637094277   1.665134420555655 
  6.261352722702787   5.059868891664398   1.664912973119145 
  2.511761891390663  11.567178457458571   1.664928172569855 
  3.771389488026461  13.707237358264885   1.665031603068630 
 11.272259168272544   0.715349971125304   1.665063946370415 
 10.011810131362532   2.898511743404778   1.665175970251590 
  8.747679969646931   5.088049410876537   1.664911477430295 
  7.490404435474726   7.303788851573292   1.664983892646570 
  5.064605664708314  11.517792613380394   1.664902878042585 
  6.263553995415924  13.732631906645778   1.664859426110355 
 13.771713592719463   0.717453119333362   1.665244730261580 
 12.516599443539384   2.890234993290755   1.665533004758970 
 11.261166625581554   5.063730972592653   1.665222673737810 
 10.013425968211436   7.234666826853137   1.665071645510280 
  8.710545184556549   9.396173866918641   1.665402470546700 
  7.482571726452061  11.524369281257247   1.664969720293200 
  7.511819547063020  14.453280188948062   1.665207249808800 
 15.023454978199700   1.442063576296659   1.665626982334215 
 13.769640558310247   3.613231267279294   1.665666100549320 
 12.515704368274390   5.784427017431327   1.665069685276230 
 11.264030745321421   7.953202655886674   1.665080466026445 
  9.979962659722620  10.119737783328796   1.665766725120270 
  8.744501597016908  12.261420761568107   1.665216701444790 
 -7.521738858725088  14.443433439557912   1.665151643653005 
 -0.000900290177856   1.443175649807796   1.665200468670360 
 -1.252009102178171   3.613700401595281   1.665014053558095 
 -2.504642453738139   5.783009546207480   1.665238081972260 
 -3.758207257681616   7.951582420457778   1.665201361416030 
 -5.024967049464451  10.119737783328796   1.665487377760215 
 -6.270326844518500  12.282423347473946   1.665119965958400 
 -5.012774997816702  14.452405500416234   1.665063326738805 
  2.498625378337246   1.437279223444691   1.665775055791545 
  1.252766338817550   3.616447836480713   1.665031400309115 
  0.003000107757346   5.784739367185337   1.665024956309850 
 -1.248316956214557   7.951406245093668   1.665803648477130 
 -2.511893107927297  10.119737783328796   1.665768408478185 
 -3.761924619299858  12.286205880680882   1.665049338357135 
 -2.503593767080513  14.456089389425420   1.665295163138145 
  5.009040964690282   1.443824335291369   1.665824928280800 
  3.752667033519843   3.603756041407017   1.665611851814805 
  2.514080138470977   5.783985465194010   1.665466418071500 
  1.261433627697749   7.961926348701534   1.665773035054275 
  0.000000000000152  10.119737783328796   1.665785130060345 
 -1.252166810504744  12.288554318674821   1.665714091735035 
  0.002761997842864  14.457268381613893   1.665154838455905 
  7.513755805251346   1.447774623902706   1.665103670202675 
  6.263216949819443   3.616715438369007   1.665644628482445 
  5.006623515245430   5.766945985875258   1.665057823320195 
  2.505437751541032  10.130522134879424   1.665926446504335 
  1.257072235679942  12.290467596115381   1.665496260540270 
  2.514998367273053  14.443020495315746   1.665220948110975 
 10.016957052128969   1.446777408010679   1.665093678144765 
  8.756484827148267   3.631449802635345   1.665298379400825 
  7.487130816439669   5.825450729840615   1.665096222622695 
  6.288938534238254   8.125503953924412   1.665299484008895 
  5.192051184704044  10.055069853161745   1.665854949616110 
  3.786542404740324  12.248806094903308   1.665316850930355 
  5.011375964432084  14.449795729048040   1.665147077024190 
 12.519924724213501   1.442303495253370   1.665712009704795 
 11.264006584626840   3.617094171572918   1.665803483285205 
 10.008856580563481   5.790793866306790   1.665264270748755 
  8.768827499950117   7.960421817935006   1.665479773983930 
  7.416514667706060  10.070002485523379   1.665511219752990 
  6.266944126607099  12.292431408491293   1.665090142411530 
  3.742781842239667   7.932573495407381   1.667296063432725 
  4.967650651680511   7.296595338022038   1.665264715984020 
  3.831573735381503   9.340964593856693   1.667701965453090 
