B C N                                   
   1.0000000000000000     
     8.7639499999999995  -15.1796066749929999    0.0000000000000000
     8.7639499999999995   15.1796066749929999    0.0000000000000000
     0.0000000000000000    0.0000000000000000   15.0000000000000000
   B    C    N 
    48     3    46
Selective dynamics
Direct
  0.9046391612700430  0.9521511656002468  0.1110138166539199   T   T   T
  0.9046166838105709  0.0950000620682951  0.1110417988222805   T   T   T
  0.9046001291152083  0.2380319427664556  0.1110444067032884   T   T   T
  0.9045775514406287  0.3810656719426435  0.1110046456850820   T   T   T
  0.9046043416277639  0.5239399693398336  0.1110053644017629   T   T   T
  0.9027091661326185  0.6664862054851368  0.1110511150080178   T   T   T
  0.9027685104522206  0.8077561575931675  0.1110144467629862   T   T   T
  0.0466217473642501  0.9515024828246673  0.1110101095768667   T   T   T
  0.0474852982802604  0.0950733230911226  0.1110133645780242   T   T   T
  0.0476019259268635  0.2380628483311407  0.1110009369038730   T   T   T
  0.0475915348952707  0.3809722919721217  0.1110158721314843   T   T   T
  0.0475037507775053  0.5238332316974437  0.1110134240944017   T   T   T
  0.0466494151534785  0.6665617634888558  0.1110324918506809   T   T   T
  0.0468358206885191  0.8091397630024197  0.1110079977305597   T   T   T
  0.1900584330288280  0.9520935429917993  0.1110042217825868   T   T   T
  0.1898937650770317  0.0946848791419914  0.1110516703861029   T   T   T
  0.1905946217584480  0.2382438434612686  0.1110020933539412   T   T   T
  0.1907142862860673  0.3810862488759403  0.1110016637539900   T   T   T
  0.1906919585247649  0.5238216256415110  0.1110535765651415   T   T   T
  0.1900250586439822  0.6666258640611195  0.1110512272318788   T   T   T
  0.1900695264823626  0.8093889481946274  0.1110032892238085   T   T   T
  0.3332647898723990  0.9523362297153793  0.1110196775425433   T   T   T
  0.3332586074629156  0.0951160571024486  0.1110549952187196   T   T   T
  0.3328006523382683  0.2374077351650898  0.1110407901209875   T   T   T
  0.3339513406505958  0.3810365834262697  0.1110310945380999   T   T   T
  0.3342245191031713  0.5245146675518264  0.1110515356702845   T   T   T
  0.3331797586318381  0.6668119974421575  0.1110523420040229   T   T   T
  0.3332912743717297  0.8095436582634857  0.1110476061156686   T   T   T
  0.4763645268237571  0.9524138991974488  0.1110103225637265   T   T   T
  0.4763621925095169  0.0953762936616643  0.1110069113468450   T   T   T
  0.4764591640609601  0.2382614725009423  0.1110429752321633   T   T   T
  0.4755944141963694  0.3799140589970417  0.1110038548880128   T   T   T
  0.4766285426745383  0.6673771166659007  0.1110617631002890   T   T   T
  0.4765532100687133  0.8096697008864288  0.1110330840360178   T   T   T
  0.6192230751062437  0.9514752789417856  0.1110147298740652   T   T   T
  0.6191417327861021  0.0953105992129616  0.1110062452096506   T   T   T
  0.6191901681461252  0.2392321408839775  0.1110198919600545   T   T   T
  0.6190391526346037  0.3837682263162612  0.1110064148415135   T   T   T
  0.6264412981211587  0.5352908100912995  0.1110199656005928   T   T   T
  0.6274196264896200  0.6624064818310746  0.1110569966410737   T   T   T
  0.6194920042266430  0.8069251303514954  0.1110211233953575   T   T   T
  0.7618693293739097  0.9519216168395558  0.1110098051349463   T   T   T
  0.7617934285026344  0.0950158674156832  0.1110474673136525   T   T   T
  0.7617761898612377  0.2382864226338420  0.1110535655523469   T   T   T
  0.7617668390450305  0.3814851063200811  0.1110176180499168   T   T   T
  0.7624860467824374  0.5244155522849594  0.1110319849322618   T   T   T
  0.7548213598584631  0.6633902116918911  0.1110340813168660   T   T   T
  0.7624406066496549  0.8097990726427567  0.1110060094941023   T   T   T
  0.4748232980094340  0.5225809643984693  0.1111530708955146   T   T   T
  0.5237559510412132  0.4806840845252210  0.1110176477322681   T   T   T
  0.5262799398750199  0.6153627556928043  0.1111801310302062   T   T   T
  0.9510738543989246  0.9034363635387208  0.1109928516161221   T   T   T
  0.9522788006653681  0.0473972244800808  0.1110084513803037   T   T   T
  0.9522632194265354  0.1903534830261837  0.1110183049897697   T   T   T
  0.9522468527231497  0.3333625778082286  0.1110062327503002   T   T   T
  0.9522728103988986  0.4763327378985634  0.1109741602844092   T   T   T
  0.9510617802668032  0.6191032949139865  0.1110177904028180   T   T   T
  0.9512380216325831  0.7613605218926710  0.1110152474026288   T   T   T
  0.0946144015306927  0.9043150155257684  0.1109872058623283   T   T   T
  0.0945764579530667  0.0469271997942253  0.1110110303141436   T   T   T
  0.0952862596223274  0.1904686066979608  0.1109778841164866   T   T   T
  0.0953383024335761  0.3333918934530250  0.1109823779839534   T   T   T
  0.0953279063240312  0.4762598912487817  0.1110111498951730   T   T   T
  0.0946379703366205  0.6190805337244117  0.1110129038389908   T   T   T
  0.0946241935526770  0.7617439543391048  0.1109945207205494   T   T   T
  0.2378652061064623  0.9046436821917158  0.1109859110525960   T   T   T
  0.2378430812105432  0.0473692547912026  0.1110282111484668   T   T   T
  0.2376271869209649  0.1900004563844091  0.1110191639039848   T   T   T
  0.2385657804014266  0.3337356401501901  0.1109873012375187   T   T   T
  0.2387709361020008  0.4763664336625483  0.1110192657553455   T   T   T
  0.2378714230905192  0.6190955345714207  0.1110413591779437   T   T   T
  0.2378686861210555  0.7618974106185828  0.1110107979428910   T   T   T
  0.3809948106170543  0.9047949192112067  0.1110076445966888   T   T   T
  0.3809896803078071  0.0476085481860741  0.1110169493680615   T   T   T
  0.3809700643511049  0.1903961644961344  0.1110367228577339   T   T   T
  0.3805342482845137  0.3326526118501179  0.1109984517910391   T   T   T
  0.3822858774236314  0.4768538294831777  0.1110594245653101   T   T   T
  0.3812372000371186  0.6195619910318390  0.1110179135075862   T   T   T
  0.3810974395240682  0.7620056749377534  0.1110330041303645   T   T   T
  0.5240236237860877  0.9047412842895084  0.1110072045998086   T   T   T
  0.5239126096440826  0.0476771723879738  0.1109741088663300   T   T   T
  0.5239890621066223  0.1907043244976290  0.1110089613703767   T   T   T
  0.5238887367779059  0.3334774937108197  0.1109941982079435   T   T   T
  0.5243112687525997  0.7620209604320168  0.1109952115046572   T   T   T
  0.6666995170042248  0.9030034606131211  0.1110021068712417   T   T   T
  0.6665884991326104  0.0471257250890277  0.1110042630913614   T   T   T
  0.6665666610166494  0.1909477501930121  0.1110117313501060   T   T   T
  0.6665112443550224  0.3351898056264243  0.1109940984953530   T   T   T
  0.6679207945637957  0.4811579778022518  0.1109989261764383   T   T   T
  0.6683291398578087  0.7587675267208834  0.1109935252028391   T   T   T
  0.8096858564574089  0.9046763991104494  0.1109906284073574   T   T   T
  0.8093345662799132  0.0472642759917680  0.1110163153507716   T   T   T
  0.8092970290187188  0.1904024956095939  0.1110355336505982   T   T   T
  0.8092648329641232  0.3335877589591711  0.1110148449158541   T   T   T
  0.8095871615077901  0.4766043667502588  0.1110047763673517   T   T   T
  0.8064530660247121  0.6189998244419501  0.1110268313697796   T   T   T
  0.8064953264924228  0.7592007835250716  0.1109979813528802   T   T   T

  0.00000000E+00  0.00000000E+00  0.00000000E+00
  0.00000000E+00  0.00000000E+00  0.00000000E+00
  0.00000000E+00  0.00000000E+00  0.00000000E+00
  0.00000000E+00  0.00000000E+00  0.00000000E+00
  0.00000000E+00  0.00000000E+00  0.00000000E+00
  0.00000000E+00  0.00000000E+00  0.00000000E+00
  0.00000000E+00  0.00000000E+00  0.00000000E+00
  0.00000000E+00  0.00000000E+00  0.00000000E+00
  0.00000000E+00  0.00000000E+00  0.00000000E+00
  0.00000000E+00  0.00000000E+00  0.00000000E+00
  0.00000000E+00  0.00000000E+00  0.00000000E+00
  0.00000000E+00  0.00000000E+00  0.00000000E+00
  0.00000000E+00  0.00000000E+00  0.00000000E+00
  0.00000000E+00  0.00000000E+00  0.00000000E+00
  0.00000000E+00  0.00000000E+00  0.00000000E+00
  0.00000000E+00  0.00000000E+00  0.00000000E+00
  0.00000000E+00  0.00000000E+00  0.00000000E+00
  0.00000000E+00  0.00000000E+00  0.00000000E+00
  0.00000000E+00  0.00000000E+00  0.00000000E+00
  0.00000000E+00  0.00000000E+00  0.00000000E+00
  0.00000000E+00  0.00000000E+00  0.00000000E+00
  0.00000000E+00  0.00000000E+00  0.00000000E+00
  0.00000000E+00  0.00000000E+00  0.00000000E+00
  0.00000000E+00  0.00000000E+00  0.00000000E+00
  0.00000000E+00  0.00000000E+00  0.00000000E+00
  0.00000000E+00  0.00000000E+00  0.00000000E+00
  0.00000000E+00  0.00000000E+00  0.00000000E+00
  0.00000000E+00  0.00000000E+00  0.00000000E+00
  0.00000000E+00  0.00000000E+00  0.00000000E+00
  0.00000000E+00  0.00000000E+00  0.00000000E+00
  0.00000000E+00  0.00000000E+00  0.00000000E+00
  0.00000000E+00  0.00000000E+00  0.00000000E+00
  0.00000000E+00  0.00000000E+00  0.00000000E+00
  0.00000000E+00  0.00000000E+00  0.00000000E+00
  0.00000000E+00  0.00000000E+00  0.00000000E+00
  0.00000000E+00  0.00000000E+00  0.00000000E+00
  0.00000000E+00  0.00000000E+00  0.00000000E+00
  0.00000000E+00  0.00000000E+00  0.00000000E+00
  0.00000000E+00  0.00000000E+00  0.00000000E+00
  0.00000000E+00  0.00000000E+00  0.00000000E+00
  0.00000000E+00  0.00000000E+00  0.00000000E+00
  0.00000000E+00  0.00000000E+00  0.00000000E+00
  0.00000000E+00  0.00000000E+00  0.00000000E+00
  0.00000000E+00  0.00000000E+00  0.00000000E+00
  0.00000000E+00  0.00000000E+00  0.00000000E+00
  0.00000000E+00  0.00000000E+00  0.00000000E+00
  0.00000000E+00  0.00000000E+00  0.00000000E+00
  0.00000000E+00  0.00000000E+00  0.00000000E+00
  0.00000000E+00  0.00000000E+00  0.00000000E+00
  0.00000000E+00  0.00000000E+00  0.00000000E+00
  0.00000000E+00  0.00000000E+00  0.00000000E+00
  0.00000000E+00  0.00000000E+00  0.00000000E+00
  0.00000000E+00  0.00000000E+00  0.00000000E+00
  0.00000000E+00  0.00000000E+00  0.00000000E+00
  0.00000000E+00  0.00000000E+00  0.00000000E+00
  0.00000000E+00  0.00000000E+00  0.00000000E+00
  0.00000000E+00  0.00000000E+00  0.00000000E+00
  0.00000000E+00  0.00000000E+00  0.00000000E+00
  0.00000000E+00  0.00000000E+00  0.00000000E+00
  0.00000000E+00  0.00000000E+00  0.00000000E+00
  0.00000000E+00  0.00000000E+00  0.00000000E+00
  0.00000000E+00  0.00000000E+00  0.00000000E+00
  0.00000000E+00  0.00000000E+00  0.00000000E+00
  0.00000000E+00  0.00000000E+00  0.00000000E+00
  0.00000000E+00  0.00000000E+00  0.00000000E+00
  0.00000000E+00  0.00000000E+00  0.00000000E+00
  0.00000000E+00  0.00000000E+00  0.00000000E+00
  0.00000000E+00  0.00000000E+00  0.00000000E+00
  0.00000000E+00  0.00000000E+00  0.00000000E+00
  0.00000000E+00  0.00000000E+00  0.00000000E+00
  0.00000000E+00  0.00000000E+00  0.00000000E+00
  0.00000000E+00  0.00000000E+00  0.00000000E+00
  0.00000000E+00  0.00000000E+00  0.00000000E+00
  0.00000000E+00  0.00000000E+00  0.00000000E+00
  0.00000000E+00  0.00000000E+00  0.00000000E+00
  0.00000000E+00  0.00000000E+00  0.00000000E+00
  0.00000000E+00  0.00000000E+00  0.00000000E+00
  0.00000000E+00  0.00000000E+00  0.00000000E+00
  0.00000000E+00  0.00000000E+00  0.00000000E+00
  0.00000000E+00  0.00000000E+00  0.00000000E+00
  0.00000000E+00  0.00000000E+00  0.00000000E+00
  0.00000000E+00  0.00000000E+00  0.00000000E+00
  0.00000000E+00  0.00000000E+00  0.00000000E+00
  0.00000000E+00  0.00000000E+00  0.00000000E+00
  0.00000000E+00  0.00000000E+00  0.00000000E+00
  0.00000000E+00  0.00000000E+00  0.00000000E+00
  0.00000000E+00  0.00000000E+00  0.00000000E+00
  0.00000000E+00  0.00000000E+00  0.00000000E+00
  0.00000000E+00  0.00000000E+00  0.00000000E+00
  0.00000000E+00  0.00000000E+00  0.00000000E+00
  0.00000000E+00  0.00000000E+00  0.00000000E+00
  0.00000000E+00  0.00000000E+00  0.00000000E+00
  0.00000000E+00  0.00000000E+00  0.00000000E+00
  0.00000000E+00  0.00000000E+00  0.00000000E+00
  0.00000000E+00  0.00000000E+00  0.00000000E+00
  0.00000000E+00  0.00000000E+00  0.00000000E+00
  0.00000000E+00  0.00000000E+00  0.00000000E+00
