 B N 
 1.0
 17.527899999999772   0.000000000000000   0.000000000000000
 -8.763949999999658  15.179606674993195   0.000000000000000
  0.000000000000001   0.000000000000002  15.000000000000000
 B N 
  49  48
Cartesian
  7.513903949199108  14.455843130660153   1.665300846850650 
 15.024965760535501   1.445093568555814   1.665802662174285 
 13.772008806945280   3.615077797793042   1.665786342746085 
 12.519787796103348   5.784806419867558   1.665158603100510 
 11.265623616727378   7.953240083156251   1.665054038027595 
 10.019430354413704  10.119737783328796   1.665595609666995 
  8.764638741495853  12.285265002065120   1.665389422063275 
 -7.510521879909405  14.455964295560896   1.665069880142250 
  0.001815556597679   1.444470833050060   1.665256022731530 
 -1.250820451715854   3.614612644220037   1.665025890758565 
 -2.503972885760482   5.784642584938181   1.665197401636800 
 -3.756073546987287   7.952858659083790   1.665111095045550 
 -5.006462302949505  10.119737783328796   1.665132388569975 
 -6.258432738785359  12.288547645203622   1.664858159903220 
 -5.007446294297738  14.455319986595079   1.664738005782825 
  2.506934402450705   1.446602867409482   1.665252009393885 
  1.253188134091802   3.612292903536535   1.665029830913970 
 -0.000885726184097   5.784669763929774   1.664981777807970 
 -1.249742233272676   7.953125169104980   1.665669144317085 
 -2.504359111144233  10.119737783328796   1.665707086974135 
 -3.756132838471753  12.288359337639470   1.664984615020170 
 -2.503238757197579  14.455474494270987   1.665100415004825 
  5.009697581175262   1.442687042178296   1.665481175309175 
  3.762839480251670   3.616405967905210   1.665833783313870 
  2.497347354634158   5.778938968193225   1.665685407280320 
  1.257539251120327   7.955957290639902   1.665955353064875 
  0.000000000000152  10.119737783328796   1.666027351111125 
 -1.252194702018670  12.288602628194042   1.665780686555460 
 -0.001441674287795  14.456063601005322   1.665173781934215 
  7.509069996396926   1.446680297188217   1.665050486887920 
  6.252922762499225   3.616442467253234   1.665744306040770 
  5.007884377163419   5.782841455333011   1.665943713818625 
  3.756117950813804   7.951152256510693   1.665968686847505 
  2.502679067011501  10.112589340783407   1.665939612283200 
  1.251495338053250  12.285374948347945   1.665773214537765 
  2.502340434862951  14.455817873416921   1.665277647697425 
 10.014075643426317   1.444775356987299   1.665208670471805 
  8.762360759390766   3.612501995908140   1.665237301030965 
  7.518397657025831   5.778990948461689   1.665448282172865 
  6.259808207702742   7.951253696114996   1.665926807349015 
  5.007931160946621  10.127397624967811   1.665594814287570 
  3.753856982957053  12.288064728416936   1.664976248795415 
  5.008215288101500  14.455574846993063   1.665083346296535 
 12.519227188273213   1.445195377234872   1.665850991432520 
 11.266833027970360   3.614847955130889   1.665814269933555 
 10.016594692877593   5.784924147230260   1.665241854797925 
  8.758487774509938   7.956212019847436   1.665807054660660 
  7.513478872833351  10.112722133948056   1.665891387458925 
  6.262219293646391  12.288200958696905   1.665030309994995 
  8.763578748941608  13.729587602378611   1.665037658935740 
 16.278054037659135   0.721624403824611   1.665462724583895 
 15.025937149457114   2.892390098792169   1.665274934616165 
 13.773180675998663   5.059868891664398   1.665286115097495 
 12.515873674257012   7.230142504006682   1.664922466486290 
 11.264031345050055   9.396332413936157   1.664915263149270 
 10.013623775469894  11.562247258548522   1.664819204598900 
 -6.259736923818780  13.733818725852613   1.664770149437085 
  1.255577558848677   0.725372786666922   1.664934939771960 
  0.005331219298625   2.893896373543237   1.664933841407025 
 -1.246967103272362   5.062981113369077   1.664692590120555 
 -2.500052869464965   7.230068085225265   1.665053120961525 
 -3.756069780798497   9.397112093157842   1.664879119563405 
 -5.008674590817530  11.565041549487740   1.664921530611570 
 -3.755992679573463  13.734753954632598   1.664769369045660 
  3.757568773850208   0.726454111594834   1.664615413913925 
  2.513011458970852   2.903412256720033   1.664974451334690 
  1.261356011508294   5.065234942040445   1.665168310095885 
  0.015056991752250   7.230114138527305   1.665083486551260 
 -1.248068549471599   9.396337213919749   1.665374958294585 
 -2.503415291591442  11.565107163926228   1.665267649296165 
 -1.252205714787410  13.733932362972359   1.664930547021990 
  6.258511810268161   0.726527183410332   1.664968611639570 
  5.007936518869183   2.902183204228779   1.665621876097560 
  3.773045343516418   5.095956776744433   1.665633378760845 
  2.543892940315322   7.225132010172289   1.665612654419460 
  1.261551207685986   9.391395355085995   1.665774330624435 
  0.002466455184189  11.562320209167748   1.665552576661245 
  1.252518799694080  13.729714704792690   1.665113995141980 
  8.760415628062944   0.725499662341790   1.664936603017215 
  7.502761293428305   2.903510766814517   1.665116569184265 
  6.242748485048841   5.096028625009755   1.665529047819015 
  3.778762001052689   9.363973165723705   1.665518500679385 
  2.510031612660654  11.551530873252696   1.665126675688830 
  3.755818105738907  13.728051085307897   1.664737420853775 
 11.268546994329396   0.721779645001368   1.665380905675905 
 10.010489548137183   2.894211001173116   1.665157248755295 
  8.754383873475053   5.065402824736718   1.665121914562185 
  7.472047823052940   7.225227445047562   1.665546092340135 
  6.237261652836946   9.364090737983174   1.665579529737210 
  5.008023338805224  11.554642561852358   1.665058592145045 
  6.260458226820137  13.728078751992154   1.664960809136415 
 13.772055721993015   0.720608106137634   1.665371501071065 
 12.518011803454272   2.892485952683422   1.665587320609260 
 11.262751326843082   5.063200747164544   1.665134756869800 
 10.000829771160745   7.230286443535261   1.665172412887605 
  8.754567032949968   9.391525964430656   1.665759378966195 
  7.506046531762318  11.551598440090009   1.665053962888875 
