Species order:X N B                     
   2.51242800000000     
     5.9449720136058266    0.0000000000000000    0.0000000000000000
    -2.9724860068029120    5.1484967885702053   -0.0000000000000001
     0.0000000000000000    0.0000000000000009    5.3101128803662583
   C    O    N    B 
     1     1   143   143
Direct
  0.4412702502932548  0.3873017918132917  0.3750000000000000
  0.5561785678498367  0.4447559505915826  0.3750000000000000
  0.1111152017221551  0.0555641727218173  0.1250375782385782
  0.6110852102782185  0.5555113668242311  0.1258487846082975
  0.4444698910138601  0.0555641171030806  0.1250227218560166
  0.9444618138438238  0.5555648753406691  0.1250533340319950
  0.7777649789796846  0.0555491561565105  0.1249863230273175
  0.1111334254211105  0.7222333793772188  0.6250051148494564
  0.4444698910138601  0.7222391072441154  0.6249772781439834
  0.2777604349261045  0.2222417631558725  0.6249048460502525
  0.7777688745843568  0.7222056595465647  0.6248516208148960
  0.6111264771128911  0.2222072192071436  0.6249331332064083
  0.9444143737290162  0.2222150825014187  0.6250209860481885
  0.2778005038967201  0.7222284905361308  0.1249864548497342
  0.1110507847664931  0.2221920590499109  0.1249124807694286
  0.4445135681787871  0.2222464091806501  0.1249683400686808
  0.6111264771128911  0.7222525912390760  0.1250668667935905
  0.9444618138438238  0.7222302718364906  0.1250533340319950
  0.7777774003802208  0.2222241126575327  0.1250288706626901
  0.1111365625208767  0.8889077651886520  0.6249994054625579
  0.4444594821327408  0.8888964077330346  0.6250040947323070
  0.2777604349261045  0.3888520051035607  0.6249048460502525
  0.6110852102782185  0.3889071767873161  0.6241512153917028
  0.7777774003802208  0.8888866210560163  0.6249711293373096
  0.9444504042940580  0.3888998114685970  0.6249822532941430
  0.1111152017221551  0.3888843623336666  0.1250375782385782
  0.2778005038967201  0.8889053466939175  0.1249864548497342
  0.6111173001996013  0.8889062485973535  0.1250001745747988
  0.4444320690290747  0.3888827011812015  0.1242931745878547
  0.9444504042940580  0.8888839261587893  0.1250177467058574
  0.7777688745843568  0.3888965483711212  0.1251483791851047
  0.2778089186326734  0.5555524695983762  0.6250061754290454
  0.1111152017221551  0.0555641727218173  0.6249624217614216
  0.6110852102782185  0.5555113668242311  0.6241512153917028
  0.4444698910138601  0.0555641171030806  0.6249772781439834
  0.9444618138438238  0.5555648753406691  0.6249466659680052
  0.1111365625208767  0.5555621306655539  0.1250005945374422
  0.7777649789796846  0.0555491561565105  0.6250136769726823
  0.2778089186326734  0.0555897823676324  0.1249938245709544
  0.4445135681787871  0.5556004923314728  0.1249683400686808
  0.7777814732671701  0.5555574033002532  0.1252442826283093
  0.6111173001996013  0.0555443849355760  0.1250001745747988
  0.4445135681787871  0.5556004923314728  0.6250316599313190
  0.9444143737290162  0.0555326245609330  0.1249790139518115
  0.2778005038967201  0.7222284905361308  0.6250135451502657
  0.1110507847664931  0.2221920590499109  0.6250875192305719
  0.4445135681787871  0.2222464091806501  0.6250316599313190
  0.6111264771128911  0.7222525912390760  0.6249331332064083
  0.9444618138438238  0.7222302718364906  0.6249466659680052
  0.7777774003802208  0.2222241126575327  0.6249711293373096
  0.1111334254211105  0.7222333793772188  0.1249948851505436
  0.4444698910138601  0.7222391072441154  0.1250227218560166
  0.2777604349261045  0.2222417631558725  0.1250951539497481
  0.7777688745843568  0.7222056595465647  0.1251483791851047
  0.6111264771128911  0.2222072192071436  0.1250668667935905
  0.9444143737290162  0.2222150825014187  0.1249790139518115
  0.1111152017221551  0.3888843623336666  0.6249624217614216
  0.2778005038967201  0.8889053466939175  0.6250135451502657
  0.6111173001996013  0.8889062485973535  0.6249998254252007
  0.4444320690290747  0.3888827011812015  0.6257068254121455
  0.9444504042940580  0.8888839261587893  0.6249822532941430
  0.1111365625208767  0.8889077651886520  0.1250005945374422
  0.7777688745843568  0.3888965483711212  0.6248516208148960
  0.4444594821327408  0.8888964077330346  0.1249959052676923
  0.2777604349261045  0.3888520051035607  0.1250951539497481
  0.2778089186326734  0.5555524695983762  0.1249938245709544
  0.6110852102782185  0.3889071767873161  0.1258487846082975
  0.7777774003802208  0.8888866210560163  0.1250288706626901
  0.9444504042940580  0.3888998114685970  0.1250177467058574
  0.1111365625208767  0.5555621306655539  0.6249994054625579
  0.2778089186326734  0.0555897823676324  0.6250061754290454
  0.7777814732671701  0.5555574033002532  0.6247557173716910
  0.6111173001996013  0.0555443849355760  0.6249998254252007
  0.9444143737290162  0.0555326245609330  0.6250209860481885
  0.0559974779403355  0.1113788177255100  0.3750000000000000
  0.5553082106438741  0.6098827812499477  0.3750000000000000
  0.3883787380546937  0.1110864658240661  0.3750000000000000
  0.8883712686316548  0.6108523009824989  0.3750000000000000
  0.7221733211433474  0.1111784047740673  0.3750000000000000
  0.0555556102900803  0.7777791110564813  0.8750000000000000
  0.3888945251716572  0.7777798784942318  0.8750000000000000
  0.2222223928764837  0.2777778631049092  0.8750000000000000
  0.7222325041002990  0.7777812011260471  0.8750000000000000
  0.5555707663985365  0.2777889991783013  0.8750000000000000
  0.8888966434692009  0.2777831593940882  0.8750000000000000
  0.2218486293590829  0.7775909813462093  0.3750000000000000
  0.0559974779403355  0.2779519935481611  0.3750000000000000
  0.3907896473761014  0.2797745769079124  0.3750000000000000
  0.5554429838096052  0.7772633151454498  0.3750000000000000
  0.8884215984864751  0.7774440866968383  0.3750000000000000
  0.7219668135790767  0.2778917644041518  0.3750000000000000
  0.0555572365892641  0.9444452635942453  0.8750000000000000
  0.3888945251716572  0.9444479800107617  0.8750000000000000
  0.2222246589866362  0.4444462977333945  0.8750000000000000
  0.5555697325182563  0.4444515329257924  0.8750000000000000
  0.7222277873952215  0.9444465285658863  0.8750000000000000
  0.8888952954701351  0.4444470291439165  0.8750000000000000
  0.0556843234096861  0.4444259955374932  0.3750000000000000
  0.2218622848967091  0.9440101937641446  0.3750000000000000
  0.5554892464547120  0.9444112898940198  0.3750000000000000
  0.3907896473761014  0.4443484038015248  0.3750000000000000
  0.8889270544470852  0.9444442803025563  0.3750000000000000
  0.7211438284560305  0.4445795083614626  0.3750000000000000
  0.2222230947200753  0.6111115515090959  0.8750000000000000
  0.0555585267965248  0.1111101019330363  0.8750000000000000
  0.5555707663985365  0.6111151005535703  0.8750000000000000
  0.3888961371747300  0.1111159514655228  0.8750000000000000
  0.8888947012025638  0.6111140172679536  0.8750000000000000
  0.0551206014597138  0.6109350817234797  0.3750000000000000
  0.7222277873952215  0.1111145921626707  0.8750000000000000
  0.2231572385542361  0.1115568250534040  0.3750000000000000
  0.3883787380546937  0.6106256055639703  0.3750000000000000
  0.7211438284560305  0.6098976534279044  0.3750000000000000
  0.5554429838096052  0.1115130019974901  0.3750000000000000
  0.3888961371747300  0.6111135190425502  0.8750000000000000
  0.8890434923192104  0.1111884128262761  0.3750000000000000
  0.2222221014893926  0.7777777174113640  0.8750000000000000
  0.0555585267965248  0.2777817581968243  0.8750000000000000
  0.3888949673039973  0.2777791643239631  0.8750000000000000
  0.5555621041898253  0.7777801723509420  0.8750000000000000
  0.8888952954701351  0.7777815996595536  0.8750000000000000
  0.7222325041002990  0.2777846363075870  0.8750000000000000
  0.0551206014597138  0.7775188530695695  0.3750000000000000
  0.3887191663891872  0.7775831887493591  0.3750000000000000
  0.2230820990201479  0.2782077161767420  0.3750000000000000
  0.7219668135790767  0.7774083825082597  0.3750000000000000
  0.5553082106438741  0.2787587627272631  0.3750000000000000
  0.8889270544470852  0.2778161074778643  0.3750000000000000
  0.0555572365892641  0.4444453063283476  0.8750000000000000
  0.2222230947200753  0.9444448765443153  0.8750000000000000
  0.5555594086675414  0.9444463710004352  0.8750000000000000
  0.3888949673039973  0.4444491363133697  0.8750000000000000
  0.8888966434692009  0.9444468174084487  0.8750000000000000
  0.0556843234096861  0.9445916612055222  0.3750000000000000
  0.7222297314388587  0.4444493447234293  0.8750000000000000
  0.3887191663891872  0.9444693109731632  0.3750000000000000
  0.2231572385542361  0.4449337468341679  0.3750000000000000
  0.2218622848967091  0.6111854244659007  0.3750000000000000
  0.7221733211433474  0.9443282497026166  0.3750000000000000
  0.8884215984864751  0.4443108451229731  0.3750000000000000
  0.0555556102900803  0.6111098325669347  0.8750000000000000
  0.2222246589866362  0.1111116945865777  0.8750000000000000
  0.7222297314388587  0.6111137200487649  0.8750000000000000
  0.5555621041898253  0.1111152651722195  0.8750000000000000
  0.8888950241207637  0.1111141787270530  0.8750000000000000
  0.1119525840727578  0.0561564995957788  0.3750000000000000
  0.6116461323482023  0.5574143262030486  0.3750000000000000
  0.4439124646989755  0.0557565817136755  0.3750000000000000
  0.9443270613333444  0.5553976629835057  0.3750000000000000
  0.7779173674202201  0.0556253503767776  0.3750000000000000
  0.1111256738258582  0.7222295035795939  0.8750000000000000
  0.4444364678467683  0.7222106833906935  0.8750000000000000
  0.2777769148985699  0.2222315981327252  0.8750000000000000
  0.7777921398504951  0.7222448141045095  0.8750000000000000
  0.6111038701920796  0.2222154733047098  0.8750000000000000
  0.9444723149715386  0.2222294473468507  0.8750000000000000
  0.2775372816784752  0.7221422016418958  0.3750000000000000
  0.1123569453747521  0.2228451393540402  0.3750000000000000
  0.4425654482344318  0.2223448070522844  0.3750000000000000
  0.6108526482270893  0.7217400148340928  0.3750000000000000
  0.9443270613333444  0.7222627316831751  0.3750000000000000
  0.7778283066913861  0.2221766188241512  0.3750000000000000
  0.1111281496604368  0.8889110110081336  0.8750000000000000
  0.4444414290899021  0.8888873812116154  0.8750000000000000
  0.2777769148985699  0.3888786500991730  0.8750000000000000
  0.6110911862176469  0.3888755580303262  0.8750000000000000
  0.7777939449596833  0.8889081426389036  0.8750000000000000
  0.9444694599290626  0.3888850364261253  0.8750000000000000
  0.1119525840727578  0.3891294178103076  0.3750000000000000
  0.2775372816784752  0.8887284133699072  0.3750000000000000
  0.6109523442383024  0.8885957658471141  0.3750000000000000
  0.9446012448848217  0.8891161276824009  0.3750000000000000
  0.7775728664016275  0.3885424015923868  0.3750000000000000
  0.2777796375170427  0.5555420221815263  0.8750000000000000
  0.1111306659003666  0.0555787134435399  0.8750000000000000
  0.6110911862176469  0.5555489615206501  0.8750000000000000
  0.4444364678467683  0.0555591177894110  0.8750000000000000
  0.9444673837246721  0.5555572594813881  0.8750000000000000
  0.1109827865653011  0.5555086727660949  0.3750000000000000
  0.7777940112394830  0.0555636722864092  0.8750000000000000
  0.2775808104228529  0.0552117800754986  0.3750000000000000
  0.4425654482344318  0.5535539745154825  0.3750000000000000
  0.7780632953474539  0.5556983143403956  0.3750000000000000
  0.6109523442383024  0.0556899117245166  0.3750000000000000
  0.4444194623504060  0.5555314523173664  0.8750000000000000
  0.9449794842429076  0.0559098960902459  0.3750000000000000
  0.2777813140442029  0.7222175286594442  0.8750000000000000
  0.1111350588067620  0.2222341960700453  0.8750000000000000
  0.4444194623504060  0.2222213433663747  0.8750000000000000
  0.6111038701920796  0.7222217302206990  0.8750000000000000
  0.9444673837246721  0.7222434575766192  0.8750000000000000
  0.7777939449596833  0.2222191356541081  0.8750000000000000
  0.1108701821286659  0.7221017577309967  0.3750000000000000
  0.4439124646989755  0.7214892163186351  0.3750000000000000
  0.2796010922363968  0.2230931814056066  0.3750000000000000
  0.7775728664016275  0.7223637981425696  0.3750000000000000
  0.6108526482270893  0.2224459667263249  0.3750000000000000
  0.9449794842429076  0.2224029214859974  0.3750000000000000
  0.1111306659003666  0.3888852857901556  0.8750000000000000
  0.2777813140442029  0.8888971187180874  0.8750000000000000
  0.6111099805177436  0.8888899310573087  0.8750000000000000
  0.4444028578935250  0.3888680956134266  0.8750000000000000
  0.9444694599290626  0.8889177568362666  0.8750000000000000
  0.1109827865653011  0.8888074471325348  0.3750000000000000
  0.7777921398504951  0.3888806590793140  0.8750000000000000
  0.4442271526656774  0.8887802429995030  0.3750000000000000
  0.2796010922363968  0.3898412441641183  0.3750000000000000
  0.2775808104228529  0.5557023636806898  0.3750000000000000
  0.6116461323482023  0.3875651394784815  0.3750000000000000
  0.7778283066913861  0.8889850212005636  0.3750000000000000
  0.9446012448848217  0.3888184505357496  0.3750000000000000
  0.1111281496604368  0.5555504719856313  0.8750000000000000
  0.2777796375170427  0.0555709486688519  0.8750000000000000
  0.7777914109386368  0.5555623721359868  0.8750000000000000
  0.6111099805177436  0.0555533827937636  0.8750000000000000
  0.9444723149715386  0.0555762009580242  0.8750000000000000
  0.0555810458633403  0.1111540618248320  0.1250173396566929
  0.5554182201573072  0.6111219200462100  0.1251377086543867
  0.3888966842979571  0.1111451305847472  0.1251103714470982
  0.8889879632690311  0.6111606483011878  0.1249511743176988
  0.7222073879907820  0.1110819279516858  0.1249926381911310
  0.0556529225424544  0.7778467488618006  0.6250081683325083
  0.3889051103926772  0.7777812427037324  0.6249840758511862
  0.2222428883743479  0.2777881108538418  0.6248090433601835
  0.7221953658208521  0.7778246761832691  0.6250157989525498
  0.5554182201573072  0.2776296334444325  0.6248622913456142
  0.8889119640637519  0.2777601233130974  0.6250116109657422
  0.2222867939545136  0.7778100636439250  0.1250009115996038
  0.0555810458633403  0.2777603173718437  0.1250173396566929
  0.3888465657597368  0.2777970457191786  0.1253147703693580
  0.5555279848442106  0.7778042316826821  0.1249968848002005
  0.8889483759895263  0.7778394538012547  0.1249692481013613
  0.7221953658208521  0.2777040229709183  0.1249842010474500
  0.0556265150784008  0.9445193942019795  0.6249811736490305
  0.3889051103926772  0.9444572010222819  0.6249840758511862
  0.2222836398984577  0.4444109134245719  0.6248223260677778
  0.5552451025832059  0.4442892179582673  0.6251497625605774
  0.7222073879907820  0.9444587933724315  0.6250073618088688
  0.8889483759895263  0.4444422555216067  0.6250307518986390
  0.0556265150784008  0.4444404542097504  0.1250188263509687
  0.2222917360526080  0.9445237646517162  0.1250217959151207
  0.5555446505629118  0.9444389919481204  0.1249992873082342
  0.3888465657597368  0.4443828533738943  0.1253147703693580
  0.8889119640637519  0.9444851740839902  0.1249883890342585
  0.7222141331400239  0.4444150968215895  0.1250797395021774
  0.2222917360526080  0.6111013047342287  0.6249782040848798
  0.0555810458633403  0.1111540618248320  0.6249826603433071
  0.5554182201573072  0.6111219200462100  0.6248622913456142
  0.3888966842979571  0.1111451305847472  0.6248896285529018
  0.8889879632690311  0.6111606483011878  0.6250488256823009
  0.0556529225424544  0.6111395070139891  0.1249918316674917
  0.7222073879907820  0.1110819279516858  0.6250073618088688
  0.2222836398984577  0.1112060598072219  0.1251776739322220
  0.3888966842979571  0.6110848870465529  0.1251103714470982
  0.7222141331400239  0.6111323696517695  0.1250797395021774
  0.5555279848442106  0.1110570864948636  0.1249968848002005
  0.3888966842979571  0.6110848870465529  0.6248896285529018
  0.8888967364831089  0.1111150349082259  0.1249942055260038
  0.2222867939545136  0.7778100636439250  0.6249990884003961
  0.0555810458633403  0.2777603173718437  0.6249826603433071
  0.3888465657597368  0.2777970457191786  0.6246852296306425
  0.5555279848442106  0.7778042316826821  0.6250031151997993
  0.8889483759895263  0.7778394538012547  0.6250307518986390
  0.7221953658208521  0.2777040229709183  0.6250157989525498
  0.0556529225424544  0.7778467488618006  0.1249918316674917
  0.3889051103926772  0.7777812427037324  0.1250159241488135
  0.2222428883743479  0.2777881108538418  0.1251909566398167
  0.7221953658208521  0.7778246761832691  0.1249842010474500
  0.5554182201573072  0.2776296334444325  0.1251377086543867
  0.8889119640637519  0.2777601233130974  0.1249883890342585
  0.0556265150784008  0.4444404542097504  0.6249811736490305
  0.2222917360526080  0.9445237646517162  0.6249782040848798
  0.5555446505629118  0.9444389919481204  0.6250007126917654
  0.3888465657597368  0.4443828533738943  0.6246852296306425
  0.8889119640637519  0.9444851740839902  0.6250116109657422
  0.0556265150784008  0.9445193942019795  0.1250188263509687
  0.7222141331400239  0.4444150968215895  0.6249202604978223
  0.3889051103926772  0.9444572010222819  0.1250159241488135
  0.2222836398984577  0.4444109134245719  0.1251776739322220
  0.2222917360526080  0.6111013047342287  0.1250217959151207
  0.5552451025832059  0.4442892179582673  0.1248502374394219
  0.7222073879907820  0.9444587933724315  0.1249926381911310
  0.8889483759895263  0.4444422555216067  0.1249692481013613
  0.0556529225424544  0.6111395070139891  0.6250081683325083
  0.2222836398984577  0.1112060598072219  0.6248223260677778
  0.7222141331400239  0.6111323696517695  0.6249202604978223
  0.5555279848442106  0.1110570864948636  0.6250031151997993
  0.8888967364831089  0.1111150349082259  0.6250057944739961
 
  0.00000000E+00  0.00000000E+00  0.00000000E+00
  0.00000000E+00  0.00000000E+00  0.00000000E+00
  0.00000000E+00  0.00000000E+00  0.00000000E+00
  0.00000000E+00  0.00000000E+00  0.00000000E+00
  0.00000000E+00  0.00000000E+00  0.00000000E+00
  0.00000000E+00  0.00000000E+00  0.00000000E+00
  0.00000000E+00  0.00000000E+00  0.00000000E+00
  0.00000000E+00  0.00000000E+00  0.00000000E+00
  0.00000000E+00  0.00000000E+00  0.00000000E+00
  0.00000000E+00  0.00000000E+00  0.00000000E+00
  0.00000000E+00  0.00000000E+00  0.00000000E+00
  0.00000000E+00  0.00000000E+00  0.00000000E+00
  0.00000000E+00  0.00000000E+00  0.00000000E+00
  0.00000000E+00  0.00000000E+00  0.00000000E+00
  0.00000000E+00  0.00000000E+00  0.00000000E+00
  0.00000000E+00  0.00000000E+00  0.00000000E+00
  0.00000000E+00  0.00000000E+00  0.00000000E+00
  0.00000000E+00  0.00000000E+00  0.00000000E+00
  0.00000000E+00  0.00000000E+00  0.00000000E+00
  0.00000000E+00  0.00000000E+00  0.00000000E+00
  0.00000000E+00  0.00000000E+00  0.00000000E+00
  0.00000000E+00  0.00000000E+00  0.00000000E+00
  0.00000000E+00  0.00000000E+00  0.00000000E+00
  0.00000000E+00  0.00000000E+00  0.00000000E+00
  0.00000000E+00  0.00000000E+00  0.00000000E+00
  0.00000000E+00  0.00000000E+00  0.00000000E+00
  0.00000000E+00  0.00000000E+00  0.00000000E+00
  0.00000000E+00  0.00000000E+00  0.00000000E+00
  0.00000000E+00  0.00000000E+00  0.00000000E+00
  0.00000000E+00  0.00000000E+00  0.00000000E+00
  0.00000000E+00  0.00000000E+00  0.00000000E+00
  0.00000000E+00  0.00000000E+00  0.00000000E+00
  0.00000000E+00  0.00000000E+00  0.00000000E+00
  0.00000000E+00  0.00000000E+00  0.00000000E+00
  0.00000000E+00  0.00000000E+00  0.00000000E+00
  0.00000000E+00  0.00000000E+00  0.00000000E+00
  0.00000000E+00  0.00000000E+00  0.00000000E+00
  0.00000000E+00  0.00000000E+00  0.00000000E+00
  0.00000000E+00  0.00000000E+00  0.00000000E+00
  0.00000000E+00  0.00000000E+00  0.00000000E+00
  0.00000000E+00  0.00000000E+00  0.00000000E+00
  0.00000000E+00  0.00000000E+00  0.00000000E+00
  0.00000000E+00  0.00000000E+00  0.00000000E+00
  0.00000000E+00  0.00000000E+00  0.00000000E+00
  0.00000000E+00  0.00000000E+00  0.00000000E+00
  0.00000000E+00  0.00000000E+00  0.00000000E+00
  0.00000000E+00  0.00000000E+00  0.00000000E+00
  0.00000000E+00  0.00000000E+00  0.00000000E+00
  0.00000000E+00  0.00000000E+00  0.00000000E+00
  0.00000000E+00  0.00000000E+00  0.00000000E+00
  0.00000000E+00  0.00000000E+00  0.00000000E+00
  0.00000000E+00  0.00000000E+00  0.00000000E+00
  0.00000000E+00  0.00000000E+00  0.00000000E+00
  0.00000000E+00  0.00000000E+00  0.00000000E+00
  0.00000000E+00  0.00000000E+00  0.00000000E+00
  0.00000000E+00  0.00000000E+00  0.00000000E+00
  0.00000000E+00  0.00000000E+00  0.00000000E+00
  0.00000000E+00  0.00000000E+00  0.00000000E+00
  0.00000000E+00  0.00000000E+00  0.00000000E+00
  0.00000000E+00  0.00000000E+00  0.00000000E+00
  0.00000000E+00  0.00000000E+00  0.00000000E+00
  0.00000000E+00  0.00000000E+00  0.00000000E+00
  0.00000000E+00  0.00000000E+00  0.00000000E+00
  0.00000000E+00  0.00000000E+00  0.00000000E+00
  0.00000000E+00  0.00000000E+00  0.00000000E+00
  0.00000000E+00  0.00000000E+00  0.00000000E+00
  0.00000000E+00  0.00000000E+00  0.00000000E+00
  0.00000000E+00  0.00000000E+00  0.00000000E+00
  0.00000000E+00  0.00000000E+00  0.00000000E+00
  0.00000000E+00  0.00000000E+00  0.00000000E+00
  0.00000000E+00  0.00000000E+00  0.00000000E+00
  0.00000000E+00  0.00000000E+00  0.00000000E+00
  0.00000000E+00  0.00000000E+00  0.00000000E+00
  0.00000000E+00  0.00000000E+00  0.00000000E+00
  0.00000000E+00  0.00000000E+00  0.00000000E+00
  0.00000000E+00  0.00000000E+00  0.00000000E+00
  0.00000000E+00  0.00000000E+00  0.00000000E+00
  0.00000000E+00  0.00000000E+00  0.00000000E+00
  0.00000000E+00  0.00000000E+00  0.00000000E+00
  0.00000000E+00  0.00000000E+00  0.00000000E+00
  0.00000000E+00  0.00000000E+00  0.00000000E+00
  0.00000000E+00  0.00000000E+00  0.00000000E+00
  0.00000000E+00  0.00000000E+00  0.00000000E+00
  0.00000000E+00  0.00000000E+00  0.00000000E+00
  0.00000000E+00  0.00000000E+00  0.00000000E+00
  0.00000000E+00  0.00000000E+00  0.00000000E+00
  0.00000000E+00  0.00000000E+00  0.00000000E+00
  0.00000000E+00  0.00000000E+00  0.00000000E+00
  0.00000000E+00  0.00000000E+00  0.00000000E+00
  0.00000000E+00  0.00000000E+00  0.00000000E+00
  0.00000000E+00  0.00000000E+00  0.00000000E+00
  0.00000000E+00  0.00000000E+00  0.00000000E+00
  0.00000000E+00  0.00000000E+00  0.00000000E+00
  0.00000000E+00  0.00000000E+00  0.00000000E+00
  0.00000000E+00  0.00000000E+00  0.00000000E+00
  0.00000000E+00  0.00000000E+00  0.00000000E+00
  0.00000000E+00  0.00000000E+00  0.00000000E+00
  0.00000000E+00  0.00000000E+00  0.00000000E+00
  0.00000000E+00  0.00000000E+00  0.00000000E+00
  0.00000000E+00  0.00000000E+00  0.00000000E+00
  0.00000000E+00  0.00000000E+00  0.00000000E+00
  0.00000000E+00  0.00000000E+00  0.00000000E+00
  0.00000000E+00  0.00000000E+00  0.00000000E+00
  0.00000000E+00  0.00000000E+00  0.00000000E+00
  0.00000000E+00  0.00000000E+00  0.00000000E+00
  0.00000000E+00  0.00000000E+00  0.00000000E+00
  0.00000000E+00  0.00000000E+00  0.00000000E+00
  0.00000000E+00  0.00000000E+00  0.00000000E+00
  0.00000000E+00  0.00000000E+00  0.00000000E+00
  0.00000000E+00  0.00000000E+00  0.00000000E+00
  0.00000000E+00  0.00000000E+00  0.00000000E+00
  0.00000000E+00  0.00000000E+00  0.00000000E+00
  0.00000000E+00  0.00000000E+00  0.00000000E+00
  0.00000000E+00  0.00000000E+00  0.00000000E+00
  0.00000000E+00  0.00000000E+00  0.00000000E+00
  0.00000000E+00  0.00000000E+00  0.00000000E+00
  0.00000000E+00  0.00000000E+00  0.00000000E+00
  0.00000000E+00  0.00000000E+00  0.00000000E+00
  0.00000000E+00  0.00000000E+00  0.00000000E+00
  0.00000000E+00  0.00000000E+00  0.00000000E+00
  0.00000000E+00  0.00000000E+00  0.00000000E+00
  0.00000000E+00  0.00000000E+00  0.00000000E+00
  0.00000000E+00  0.00000000E+00  0.00000000E+00
  0.00000000E+00  0.00000000E+00  0.00000000E+00
  0.00000000E+00  0.00000000E+00  0.00000000E+00
  0.00000000E+00  0.00000000E+00  0.00000000E+00
  0.00000000E+00  0.00000000E+00  0.00000000E+00
  0.00000000E+00  0.00000000E+00  0.00000000E+00
  0.00000000E+00  0.00000000E+00  0.00000000E+00
  0.00000000E+00  0.00000000E+00  0.00000000E+00
  0.00000000E+00  0.00000000E+00  0.00000000E+00
  0.00000000E+00  0.00000000E+00  0.00000000E+00
  0.00000000E+00  0.00000000E+00  0.00000000E+00
  0.00000000E+00  0.00000000E+00  0.00000000E+00
  0.00000000E+00  0.00000000E+00  0.00000000E+00
  0.00000000E+00  0.00000000E+00  0.00000000E+00
  0.00000000E+00  0.00000000E+00  0.00000000E+00
  0.00000000E+00  0.00000000E+00  0.00000000E+00
  0.00000000E+00  0.00000000E+00  0.00000000E+00
  0.00000000E+00  0.00000000E+00  0.00000000E+00
  0.00000000E+00  0.00000000E+00  0.00000000E+00
  0.00000000E+00  0.00000000E+00  0.00000000E+00
  0.00000000E+00  0.00000000E+00  0.00000000E+00
  0.00000000E+00  0.00000000E+00  0.00000000E+00
  0.00000000E+00  0.00000000E+00  0.00000000E+00
  0.00000000E+00  0.00000000E+00  0.00000000E+00
  0.00000000E+00  0.00000000E+00  0.00000000E+00
  0.00000000E+00  0.00000000E+00  0.00000000E+00
  0.00000000E+00  0.00000000E+00  0.00000000E+00
  0.00000000E+00  0.00000000E+00  0.00000000E+00
  0.00000000E+00  0.00000000E+00  0.00000000E+00
  0.00000000E+00  0.00000000E+00  0.00000000E+00
  0.00000000E+00  0.00000000E+00  0.00000000E+00
  0.00000000E+00  0.00000000E+00  0.00000000E+00
  0.00000000E+00  0.00000000E+00  0.00000000E+00
  0.00000000E+00  0.00000000E+00  0.00000000E+00
  0.00000000E+00  0.00000000E+00  0.00000000E+00
  0.00000000E+00  0.00000000E+00  0.00000000E+00
  0.00000000E+00  0.00000000E+00  0.00000000E+00
  0.00000000E+00  0.00000000E+00  0.00000000E+00
  0.00000000E+00  0.00000000E+00  0.00000000E+00
  0.00000000E+00  0.00000000E+00  0.00000000E+00
  0.00000000E+00  0.00000000E+00  0.00000000E+00
  0.00000000E+00  0.00000000E+00  0.00000000E+00
  0.00000000E+00  0.00000000E+00  0.00000000E+00
  0.00000000E+00  0.00000000E+00  0.00000000E+00
  0.00000000E+00  0.00000000E+00  0.00000000E+00
  0.00000000E+00  0.00000000E+00  0.00000000E+00
  0.00000000E+00  0.00000000E+00  0.00000000E+00
  0.00000000E+00  0.00000000E+00  0.00000000E+00
  0.00000000E+00  0.00000000E+00  0.00000000E+00
  0.00000000E+00  0.00000000E+00  0.00000000E+00
  0.00000000E+00  0.00000000E+00  0.00000000E+00
  0.00000000E+00  0.00000000E+00  0.00000000E+00
  0.00000000E+00  0.00000000E+00  0.00000000E+00
  0.00000000E+00  0.00000000E+00  0.00000000E+00
  0.00000000E+00  0.00000000E+00  0.00000000E+00
  0.00000000E+00  0.00000000E+00  0.00000000E+00
  0.00000000E+00  0.00000000E+00  0.00000000E+00
  0.00000000E+00  0.00000000E+00  0.00000000E+00
  0.00000000E+00  0.00000000E+00  0.00000000E+00
  0.00000000E+00  0.00000000E+00  0.00000000E+00
  0.00000000E+00  0.00000000E+00  0.00000000E+00
  0.00000000E+00  0.00000000E+00  0.00000000E+00
  0.00000000E+00  0.00000000E+00  0.00000000E+00
  0.00000000E+00  0.00000000E+00  0.00000000E+00
  0.00000000E+00  0.00000000E+00  0.00000000E+00
  0.00000000E+00  0.00000000E+00  0.00000000E+00
  0.00000000E+00  0.00000000E+00  0.00000000E+00
  0.00000000E+00  0.00000000E+00  0.00000000E+00
  0.00000000E+00  0.00000000E+00  0.00000000E+00
  0.00000000E+00  0.00000000E+00  0.00000000E+00
  0.00000000E+00  0.00000000E+00  0.00000000E+00
  0.00000000E+00  0.00000000E+00  0.00000000E+00
  0.00000000E+00  0.00000000E+00  0.00000000E+00
  0.00000000E+00  0.00000000E+00  0.00000000E+00
  0.00000000E+00  0.00000000E+00  0.00000000E+00
  0.00000000E+00  0.00000000E+00  0.00000000E+00
  0.00000000E+00  0.00000000E+00  0.00000000E+00
  0.00000000E+00  0.00000000E+00  0.00000000E+00
  0.00000000E+00  0.00000000E+00  0.00000000E+00
  0.00000000E+00  0.00000000E+00  0.00000000E+00
  0.00000000E+00  0.00000000E+00  0.00000000E+00
  0.00000000E+00  0.00000000E+00  0.00000000E+00
  0.00000000E+00  0.00000000E+00  0.00000000E+00
  0.00000000E+00  0.00000000E+00  0.00000000E+00
  0.00000000E+00  0.00000000E+00  0.00000000E+00
  0.00000000E+00  0.00000000E+00  0.00000000E+00
  0.00000000E+00  0.00000000E+00  0.00000000E+00
  0.00000000E+00  0.00000000E+00  0.00000000E+00
  0.00000000E+00  0.00000000E+00  0.00000000E+00
  0.00000000E+00  0.00000000E+00  0.00000000E+00
  0.00000000E+00  0.00000000E+00  0.00000000E+00
  0.00000000E+00  0.00000000E+00  0.00000000E+00
  0.00000000E+00  0.00000000E+00  0.00000000E+00
  0.00000000E+00  0.00000000E+00  0.00000000E+00
  0.00000000E+00  0.00000000E+00  0.00000000E+00
  0.00000000E+00  0.00000000E+00  0.00000000E+00
  0.00000000E+00  0.00000000E+00  0.00000000E+00
  0.00000000E+00  0.00000000E+00  0.00000000E+00
  0.00000000E+00  0.00000000E+00  0.00000000E+00
  0.00000000E+00  0.00000000E+00  0.00000000E+00
  0.00000000E+00  0.00000000E+00  0.00000000E+00
  0.00000000E+00  0.00000000E+00  0.00000000E+00
  0.00000000E+00  0.00000000E+00  0.00000000E+00
  0.00000000E+00  0.00000000E+00  0.00000000E+00
  0.00000000E+00  0.00000000E+00  0.00000000E+00
  0.00000000E+00  0.00000000E+00  0.00000000E+00
  0.00000000E+00  0.00000000E+00  0.00000000E+00
  0.00000000E+00  0.00000000E+00  0.00000000E+00
  0.00000000E+00  0.00000000E+00  0.00000000E+00
  0.00000000E+00  0.00000000E+00  0.00000000E+00
  0.00000000E+00  0.00000000E+00  0.00000000E+00
  0.00000000E+00  0.00000000E+00  0.00000000E+00
  0.00000000E+00  0.00000000E+00  0.00000000E+00
  0.00000000E+00  0.00000000E+00  0.00000000E+00
  0.00000000E+00  0.00000000E+00  0.00000000E+00
  0.00000000E+00  0.00000000E+00  0.00000000E+00
  0.00000000E+00  0.00000000E+00  0.00000000E+00
  0.00000000E+00  0.00000000E+00  0.00000000E+00
  0.00000000E+00  0.00000000E+00  0.00000000E+00
  0.00000000E+00  0.00000000E+00  0.00000000E+00
  0.00000000E+00  0.00000000E+00  0.00000000E+00
  0.00000000E+00  0.00000000E+00  0.00000000E+00
  0.00000000E+00  0.00000000E+00  0.00000000E+00
  0.00000000E+00  0.00000000E+00  0.00000000E+00
  0.00000000E+00  0.00000000E+00  0.00000000E+00