 N B Sb 
 1.0
 17.527899999999772   0.000000000000000   0.000000000000000
 -8.763949999999658  15.179606674993195   0.000000000000000
  0.000000000000001   0.000000000000002  15.000000000000000
 N B Sb 
  48  48   1
Cartesian
  8.797384437675920  13.752464288070062   1.659454423291725 
 16.292018666403067   0.743518251764584   1.660302091819815 
 15.041934735833241   2.927986343748383   1.661629002447495 
 13.787517619566117   5.093746617861501   1.659867874825140 
 12.516909462073567   7.246391423911111   1.659559935387900 
 11.284992309136634   9.397449843021400   1.662152174485605 
 10.049046951275226  11.566230640829939   1.662548823281220 
 -6.226844036752073  13.693250562297276   1.658959691666010 
  1.264353145824485   0.663111367339508   1.660670584232745 
 -0.006611683951892   2.831764619684039   1.664558406651570 
 -1.214059588691114   5.072567157968142   1.659829864276650 
 -2.476227690447789   7.242607553026930   1.658725747520655 
 -3.725186533521750   9.393874342003659   1.659418816879470 
 -4.972696688359561  11.542074564760238   1.659940703562930 
 -3.710204645628092  13.686151626957352   1.657298776262025 
  3.794735812412609   0.628620342701878   1.660338573100980 
  2.506330093203971   2.730375053247596   1.665790445377530 
  1.238180236273430   4.897548890290743   1.654551026201025 
  0.054424945677437   7.245672818422173   1.658994757605900 
 -1.204937777157071   9.412669409865575   1.661773480415100 
 -2.460070163033473  11.553619483910836   1.658844197505840 
 -1.201034094029858  13.725374405659135   1.658184231751875 
  6.324424540503228   0.648351356456010   1.658706488721975 
  5.083196965325082   2.718735355893847   1.669367574352470 
  3.819876861504377   4.693428683149786   1.656565234350435 
  1.289644439162545   9.535617957655072   1.668372450141975 
  0.040864362713537  11.619861287535100   1.663259333758470 
  1.299420194681288  13.775429201819264   1.660113146686215 
  8.809348750382998   0.725689089984921   1.658468332534515 
  7.550506205935851   2.850925607159262   1.661749260836115 
  6.257353418258599   4.961839605176775   1.667502983303655 
  4.681865384412788   8.148028114622537   1.659736705178475 
  3.939930877034657   9.639726115019579   1.666089285308595 
  2.571630055587447  11.650458431737503   1.664453273465700 
  3.789665552933133  13.834221757936493   1.658220137778630 
 11.292761477722348   0.784034079265082   1.658734234075125 
 10.024233805461833   2.931703033021457   1.659280872795435 
  8.723739087936707   5.096256225771480   1.662580445261070 
  7.377174278125644   7.285669392250693   1.662858248019495 
  6.343241457394977   9.596059221190457   1.660068793840965 
  5.078889481500628  11.758140434883128   1.659028719802575 
  6.302598587461870  13.829761366300559   1.656440591140620 
 13.794991345044597   0.791887050254560   1.659108560977650 
 12.532013807482809   2.944787091524576   1.659784445627940 
 11.255897696294856   5.099585666414431   1.660049238226500 
  9.966963129631164   7.255500835620378   1.662075192333825 
  8.781853755180290   9.428140217936333   1.662840047159985 
  7.568770912707603  11.659219823218901   1.659044610210675 
  7.554944525630797  14.497966448342984   1.658919151873155 
 15.049879128422084   1.487442783751882   1.660918580974140 
 13.788307877789251   3.653326428139467   1.661252596187610 
 12.520914646327496   5.808341910822919   1.660201610847285 
 11.247934947256988   7.959405457626050   1.661574390893325 
 10.040943771940739  10.124753489477715   1.663441895991930 
  8.817910526042589  12.325390556315361   1.660890333810855 
 -7.476348318301254  14.420700860280427   1.659938477493945 
  0.018708805941689   1.405264319935586   1.662765727573335 
 -1.227336340008001   3.618582941018624   1.662628528550340 
 -2.476719460423949   5.799843596434396   1.659856535484330 
 -3.742573429996911   7.955671557403534   1.659555391768005 
 -4.981684192950887  10.106005153421483   1.660980449906355 
 -6.223636695860252  12.261058732933968   1.660884430101570 
 -4.968538285870936  14.384556365148761   1.658852180679285 
  2.525244993401375   1.319366269719204   1.663330076233725 
  1.250259843433162   3.468449178149089   1.662839221086525 
  0.053418649724831   5.766825316537289   1.657840699790820 
 -1.219693503210831   7.962378244307584   1.660120750006545 
 -2.468118866908900  10.114927460811991   1.660495785688020 
 -3.717306539483562  12.254086370169007   1.658799019623810 
 -2.455857021035162  14.404057166208105   1.658243425907805 
  5.067473482644407   1.308926493738083   1.663426361817780 
  3.807429210854477   3.317182263113317   1.665588241199985 
  2.565231439532215   5.308149552565216   1.651170356429415 
  1.199640243458429   8.135174048193377   1.663369040061105 
  0.023736298387264  10.197864700962908   1.665321740707905 
 -1.216359016216566  12.297578836703497   1.660249492095120 
  0.042564982609752  14.466232085136957   1.659350191509360 
  7.554853278005988   1.409395332808357   1.660188235176570 
  6.291696311877921   3.514074777600683   1.666616077242075 
  4.971720806364859   5.535370332154859   1.664495213139315 
  2.609815910982882  10.206317652246417   1.667281471722630 
  1.302456412591401  12.337904667697545   1.663393128631410 
  2.534512010147726  14.526233706740513   1.659572530978785 
 10.038081624762743   1.485682271018785   1.659115067671650 
  8.763881155676355   3.637718173855129   1.661727100867635 
  7.444970431963739   5.810483842756597   1.664756207590755 
  6.151410064438409   8.172949808319055   1.661050635576120 
  5.125576089016676  10.359197799918304   1.662049221749310 
  3.804262793613181  12.407192053653281   1.660863585650595 
  5.044177931714819  14.538410002103287   1.658057488658835 
 12.540973637868056   1.505540310869869   1.659853686691080 
 11.272668051031292   3.657796356270228   1.659985660252350 
  9.986204965778807   5.813441558754560   1.661875740819510 
  8.691394672648673   7.980878011290312   1.663032337725735 
  7.588691525891531  10.229739316944785   1.660976319346575 
  6.333453761708436  12.411575020472162   1.657759707223170 
  3.051597912367116   7.224164167433330   1.663876017674595 
