Species order: X N B                    
   2.51242800000000     
     5.9449720136058266    0.0000000000000000    0.0000000000000000
    -2.9724860068029120    5.1484967885702053   -0.0000000000000001
     0.0000000000000000    0.0000000000000009    5.3101128803662583
   Sb   N    B 
     1   144   143
Direct
  0.4444444444444429  0.3888888888888857  0.3750000000000000
  0.1112147988769702  0.0556110891382850  0.1251906418989339
  0.6110174227883454  0.5553842305179378  0.1326144140003964
  0.4443962902613120  0.0556110891382849  0.1251906418989339
  0.9444457962692080  0.5555700903964113  0.1243690785908149
  0.7777777777777786  0.0555555555555571  0.1239873486624078
  0.1111111111111143  0.7222222222222214  0.6257291829285873
  0.4443962902613120  0.7221185344563420  0.6248093581010670
  0.2779491028154220  0.2223159105449791  0.6173855859995762
  0.7777222441950540  0.7221185344563420  0.6248093581010670
  0.6110196841060914  0.2223136492272706  0.6235210903702009
  0.9445143751669696  0.2222696411342069  0.6257981837146995
  0.2777632429369032  0.7222090392060777  0.1243690785908169
  0.1112939651212070  0.2223136492272706  0.1264789096297966
  0.4443668077295715  0.2223159105449787  0.1326144140003964
  0.6110196841060914  0.7220393682121373  0.1264789096297966
  0.9444457962692080  0.7222090392060777  0.1243690785908169
  0.7777552659672493  0.2222696411342069  0.1242018162852990
  0.1111242941272376  0.8888875370641206  0.6256309214091891
  0.4444083539091513  0.8888708436212314  0.6259469903694793
  0.2779491028154220  0.3889665256037571  0.6173855859995762
  0.6110174227883454  0.3889665256037571  0.6173855859995762
  0.7777552659672493  0.8888189581663590  0.6257981837146995
  0.9444624897120972  0.3889249794241773  0.6259469903694793
  0.1112147988769702  0.3889370430720166  0.1251906418989339
  0.2777632429369032  0.8888875370641206  0.1243690785908169
  0.6110636921991348  0.8888189581663590  0.1242018162852990
  0.4444444444444429  0.3888888888888857  0.1538289048658958
  0.9444624897120972  0.8888708436212314  0.1240530096305374
  0.7777222441950540  0.3889370430720166  0.1251906418989339
  0.2777902012631112  0.5555431320702473  0.6235022775010259
  0.1112147988769702  0.0556110891382850  0.6248093581010670
  0.6110174227883454  0.5553842305179378  0.6173855859995758
  0.4443962902613120  0.0556110891382850  0.6248093581010670
  0.9444457962692080  0.5555700903964113  0.6256309214091891
  0.1111242941272388  0.5555700903964113  0.1243690785908169
  0.7777777777777786  0.0555555555555571  0.6260126513376046
  0.2777902012631112  0.0555804025262130  0.1264977224990071
  0.4443668077295715  0.5553842305179371  0.1326144140003951
  0.7777529308071133  0.5555431320702473  0.1264977224990071
  0.6110636921991348  0.0555780673660830  0.1242018162852990
  0.4443668077295715  0.5553842305179371  0.6173855859995762
  0.9445143751669696  0.0555780673660830  0.1242018162852990
  0.2777632429369032  0.7222090392060777  0.6256309214091891
  0.1112939651212070  0.2223136492272706  0.6235210903702009
  0.4443668077295715  0.2223159105449791  0.6173855859995758
  0.6110196841060914  0.7220393682121373  0.6235210903702009
  0.9444457962692080  0.7222090392060777  0.6256309214091891
  0.7777552659672493  0.2222696411342069  0.6257981837146995
  0.1111111111111143  0.7222222222222214  0.1242708170714205
  0.4443962902613120  0.7221185344563420  0.1251906418989339
  0.2779491028154220  0.2223159105449787  0.1326144140003964
  0.7777222441950540  0.7221185344563420  0.1251906418989339
  0.6110196841060914  0.2223136492272706  0.1264789096297966
  0.9445143751669696  0.2222696411342069  0.1242018162852990
  0.1112147988769702  0.3889370430720166  0.6248093581010670
  0.2777632429369032  0.8888875370641206  0.6256309214091891
  0.6110636921991348  0.8888189581663590  0.6257981837146995
  0.4444444444444429  0.3888888888888857  0.5961710951340835
  0.9444624897120972  0.8888708436212314  0.6259469903694793
  0.1111242941272388  0.8888875370641206  0.1243690785908169
  0.7777222441950540  0.3889370430720166  0.6248093581010670
  0.4444083539091513  0.8888708436212314  0.1240530096305374
  0.2779491028154220  0.3889665256037571  0.1326144140003964
  0.2777902012631112  0.5555431320702473  0.1264977224990071
  0.6110174227883454  0.3889665256037571  0.1326144140003951
  0.7777552659672493  0.8888189581663590  0.1242018162852990
  0.9444624897120972  0.3889249794241773  0.1240530096305374
  0.1111242941272376  0.5555700903964113  0.6256309214091891
  0.2777902012631112  0.0555804025262130  0.6235022775010259
  0.7777529308071133  0.5555431320702473  0.6235022775010259
  0.6110636921991348  0.0555780673660830  0.6257981837146995
  0.9445143751669696  0.0555780673660830  0.6257981837146995
  0.0542171182528351  0.1102448653147108  0.3750000000000000
  0.5560833215155603  0.6121666430311156  0.3750000000000000
  0.3874370336313648  0.1032592293986576  0.3750000000000000
  0.8916003486631331  0.6124668409982446  0.3750000000000000
  0.7224710288701213  0.1108623044632459  0.3750000000000000
  0.0555494031055803  0.7777839302277298  0.8750000000000000
  0.3889053326313045  0.7777768538244697  0.8750000000000000
  0.2222426823671507  0.2777880078502416  0.8750000000000000
  0.7222110895263861  0.7777737445110030  0.8750000000000000
  0.5555453254831125  0.2777880078502416  0.8750000000000000
  0.8888852284832788  0.2777704569664938  0.8750000000000000
  0.2217347006178169  0.7775340169755636  0.3750000000000000
  0.0542171182528351  0.2773055862714603  0.3750000000000000
  0.3749804517040470  0.2499609034080597  0.3750000000000000
  0.5560277470618630  0.7791162150805311  0.3750000000000000
  0.8910486885483143  0.7795729717445944  0.3750000000000000
  0.7230884680185985  0.2773055862714603  0.3750000000000000
  0.0555564795088610  0.9444618121401716  0.8750000000000000
  0.3889053326313045  0.9444618121401716  0.8750000000000000
  0.2222395638036236  0.4444246763094285  0.8750000000000000
  0.5555145998365986  0.4444239665849636  0.8750000000000000
  0.7222224735792045  0.9444449471583350  0.8750000000000000
  0.8888715211931570  0.4444280007020241  0.8750000000000000
  0.0537603615887408  0.4448090501370200  0.3750000000000000
  0.2208664923350848  0.9417329846701955  0.3750000000000000
  0.5559701033319953  0.9446517183326567  0.3750000000000000
  0.3749804517040470  0.4583528816292816  0.3750000000000000
  0.8886816150006719  0.9446517183326567  0.3750000000000000
  0.7300741039346875  0.4458962997019638  0.3750000000000000
  0.2222382727122875  0.6110950606210449  0.8750000000000000
  0.0555595888223226  0.1111222438069324  0.8750000000000000
  0.5555453254831125  0.6110906509661882  0.8750000000000000
  0.3889086570239001  0.1111482208275244  0.8750000000000000
  0.8888567879087822  0.6110950606210449  0.8750000000000000
  0.0557993163577599  0.6115986327155007  0.3750000000000000
  0.7222224735792045  0.1111108597541680  0.8750000000000000
  0.2158221957672918  0.1032592293986575  0.3750000000000000
  0.3874370336313648  0.6175111375660427  0.3750000000000000
  0.7300741039346875  0.6175111375660427  0.3750000000000000
  0.5560277470618630  0.1102448653147108  0.3750000000000000
  0.3889086570239001  0.6110937695297156  0.8750000000000000
  0.8883912755931751  0.1108623044632459  0.3750000000000000
  0.2222345271221732  0.7777839302277298  0.8750000000000000
  0.0555595888223226  0.2777706783487242  0.8750000000000000
  0.3889093667483650  0.2778187334967446  0.8750000000000000
  0.5555626549845923  0.7777737445110030  0.8750000000000000
  0.8888715211931570  0.7777768538244697  0.8750000000000000
  0.7222110895263861  0.2777706783487242  0.8750000000000000
  0.0557993163577599  0.7775340169755636  0.3750000000000000
  0.3885242831963086  0.7795729717445944  0.3750000000000000
  0.2211666903022054  0.2772500118177779  0.3750000000000000
  0.7230884680185985  0.7791162150805311  0.3750000000000000
  0.5560833215155603  0.2772500118177779  0.3750000000000000
  0.8886816150006719  0.2773632300013383  0.3750000000000000
  0.0555564795088610  0.4444280007020241  0.8750000000000000
  0.2222382727122875  0.9444765454245464  0.8750000000000000
  0.5555628763668418  0.9444481048500498  0.8750000000000000
  0.3889093667483650  0.4444239665849636  0.8750000000000000
  0.8888852284832788  0.9444481048500498  0.8750000000000000
  0.0537603615887407  0.9422846447850143  0.3750000000000000
  0.7221851125058119  0.4444246763094285  0.8750000000000000
  0.3885242831963086  0.9422846447850143  0.3750000000000000
  0.2158221957672918  0.4458962997019638  0.3750000000000000
  0.2208664923350848  0.6124668409982446  0.3750000000000000
  0.5833724299252346  0.4583528816292816  0.3750000000000000
  0.7224710288701213  0.9449420577401535  0.3750000000000000
  0.8910486885483143  0.4448090501370200  0.3750000000000000
  0.0555494031055803  0.6110988062111797  0.8750000000000000
  0.2222395638036236  0.1111482208275244  0.8750000000000000
  0.7221851125058119  0.6110937695297156  0.8750000000000000
  0.5555626549845923  0.1111222438069324  0.8750000000000000
  0.8888883861749935  0.1111108597541680  0.8750000000000000
  0.1060395292917741  0.0511303703427799  0.3750000000000000
  0.6229304780836691  0.5674657699350816  0.3750000000000000
  0.4450908410510257  0.0511303703427799  0.3750000000000000
  0.9458417728420399  0.5558915666066671  0.3750000000000000
  0.7777777777777786  0.0555555555555571  0.3750000000000000
  0.1111111111111143  0.7222222222222214  0.8750000000000000
  0.4444773220087638  0.7223076561487843  0.8750000000000000
  0.2776691420505862  0.2221385778128374  0.8750000000000000
  0.7778303341400732  0.7223076561487843  0.8750000000000000
  0.6111754841573698  0.2221578491759551  0.8750000000000000
  0.9443825772391271  0.2221804895708435  0.8750000000000000
  0.2774417667266695  0.7232835395687550  0.3750000000000000
  0.1081903606215748  0.2207618469774470  0.3750000000000000
  0.4445352918514446  0.2104028552496887  0.3750000000000000
  0.6125714863558817  0.7251429727117388  0.3750000000000000
  0.9458417728420399  0.7232835395687550  0.3750000000000000
  0.7781309705568481  0.2213516625709235  0.3750000000000000
  0.1110876100761122  0.8888705951644635  0.8750000000000000
  0.4444769481961977  0.8889051407647590  0.8750000000000000
  0.2776691420505862  0.3888638975710679  0.8750000000000000
  0.6111947555204880  0.3888638975710679  0.8750000000000000
  0.7777979123317109  0.8889507560942015  0.8750000000000000
  0.9444281925685696  0.3888563851371309  0.8750000000000000
  0.1060395292917740  0.3882424922823030  0.3750000000000000
  0.2774417667266695  0.8874915604912887  0.3750000000000000
  0.6119816707624260  0.8901126413192523  0.3750000000000000
  0.9441102049998946  0.8892231283334340  0.3750000000000000
  0.7822029629905314  0.3882424922823030  0.3750000000000000
  0.2777470033010450  0.5555863300322970  0.8750000000000000
  0.1110256771845319  0.0555029991932867  0.8750000000000000
  0.6111947555204880  0.5556641912827601  0.8750000000000000
  0.4444773220087638  0.0555029991932867  0.8750000000000000
  0.9444627381688651  0.5555503482449545  0.8750000000000000
  0.1100497937646093  0.5558915666066671  0.3750000000000000
  0.7777777777777786  0.0555555555555571  0.8750000000000000
  0.2752850010372342  0.0505700020744569  0.3750000000000000
  0.4445352918514446  0.5674657699350812  0.3750000000000000
  0.7827633312588673  0.5580483322960959  0.3750000000000000
  0.6119816707624260  0.0552023627764889  0.3750000000000000
  0.4444694357622607  0.5556641912827601  0.8750000000000000
  0.9432206920140763  0.0552023627764889  0.3750000000000000
  0.2777829850883654  0.7222457232572062  0.8750000000000000
  0.1109823650185837  0.2221578491759551  0.8750000000000000
  0.4444694357622607  0.2221385778128374  0.8750000000000000
  0.6111754841573698  0.7223509683147890  0.8750000000000000
  0.9444627381688651  0.7222457232572062  0.8750000000000000
  0.7777979123317109  0.2221804895708435  0.8750000000000000
  0.1111111111111143  0.7222222222222214  0.3750000000000000
  0.4450908410510256  0.7272938040415775  0.3750000000000000
  0.2658675633982456  0.2104028552496882  0.3750000000000000
  0.7822029629905314  0.7272938040415775  0.3750000000000000
  0.6125714863558817  0.2207618469774470  0.3750000000000000
  0.9432206920140763  0.2213516625709235  0.3750000000000000
  0.1110256771845319  0.3888560113245648  0.8750000000000000
  0.2777829850883654  0.8888705951644635  0.8750000000000000
  0.6111528437624699  0.8889507560942015  0.8750000000000000
  0.4444444444444429  0.3888888888888857  0.8750000000000000
  0.9444281925685696  0.8889051407647590  0.8750000000000000
  0.1100497937646093  0.8874915604912887  0.3750000000000000
  0.7778303341400732  0.3888560113245648  0.8750000000000000
  0.4451129233335664  0.8892231283334340  0.3750000000000000
  0.2658675633982456  0.3887980414818840  0.3750000000000000
  0.2752850010372342  0.5580483322960959  0.3750000000000000
  0.6229304780836691  0.3887980414818840  0.3750000000000000
  0.7781309705568481  0.8901126413192523  0.3750000000000000
  0.9441102049998946  0.3882204099997622  0.3750000000000000
  0.1110876100761122  0.5555503482449545  0.8750000000000000
  0.2777470033010450  0.0554940066020971  0.8750000000000000
  0.7778393267312458  0.5555863300322970  0.8750000000000000
  0.6111528437624699  0.0555354210016132  0.8750000000000000
  0.9443825772391271  0.0555354210016132  0.8750000000000000
  0.0554325951891086  0.1109677973926163  0.1248272610686726
  0.5557431694102383  0.6114863388204903  0.1300861111824645
  0.3886860886002655  0.1106730556952579  0.1271120665671486
  0.8891507390120699  0.6112420361727103  0.1244941545935933
  0.7222349903622455  0.1110983429710978  0.1238271475707682
  0.0555905386800517  0.7777427946532693  0.6260731547211508
  0.3887934223619463  0.7778276232058216  0.6259789037140930
  0.2218469945128577  0.2775901639230905  0.6199138888175230
  0.7223655359407325  0.7779007381442371  0.6251727389313686
  0.5557431694102383  0.2775901639230905  0.6199138888175230
  0.8889073777900303  0.2778147555800667  0.6262246316358575
  0.2221522559732214  0.7777427946532693  0.1239268452788191
  0.0554325951891086  0.2777981311298273  0.1248272610686726
  0.3883219585904973  0.2766439171810172  0.1381694165021030
  0.5555352022035182  0.7779007381442371  0.1248272610686726
  0.8890342008438491  0.7778276232058216  0.1240210962858859
  0.7223655359407325  0.2777981311298273  0.1248272610686726
  0.0555057101275162  0.9442991324894795  0.6259789037140930
  0.3887934223619456  0.9442991324894795  0.6259789037140930
  0.2219869670950013  0.4446472447330631  0.6228879334328653
  0.5566894161523340  0.4450113747428313  0.6118305834979055
  0.7222349903622455  0.9444699807244843  0.6261728524292255
  0.8890342008438491  0.4445399109713823  0.6259789037140930
  0.0555057101275162  0.4445399109713823  0.1240210962858859
  0.2220912971606187  0.9441825943212587  0.1244941545935933
  0.5555185777533130  0.9444259555432983  0.1237753683641252
  0.3883219585904973  0.4450113747428313  0.1381694165021064
  0.8889073777900303  0.9444259555432983  0.1237753683641252
  0.7226602776380759  0.4446472447330631  0.1271120665671486
  0.2220912971606187  0.6112420361727103  0.6255058454064230
  0.0554325951891084  0.1109677973926163  0.6251727389313686
  0.5557431694102383  0.6114863388204903  0.6199138888175230
  0.3886860886002655  0.1106730556952579  0.6228879334328653
  0.8891507390120699  0.6112420361727103  0.6255058454064230
  0.0555905386800517  0.6111810773601060  0.1239268452788191
  0.7222349903622455  0.1110983429710978  0.6261728524292255
  0.2219869670950013  0.1106730556952579  0.1271120665671486
  0.3886860886002655  0.6113463662383157  0.1271120665671486
  0.7226602776380759  0.6113463662383157  0.1271120665671486
  0.5555352022035182  0.1109677973926163  0.1248272610686726
  0.3886860886002655  0.6113463662383157  0.6228879334328653
  0.8888633526088443  0.1110983429710978  0.1238271475707682
  0.2221522559732214  0.7777427946532693  0.6260731547211508
  0.0554325951891084  0.2777981311298273  0.6251727389313686
  0.3883219585904973  0.2766439171810172  0.6118305834979055
  0.5555352022035182  0.7779007381442371  0.6251727389313686
  0.8890342008438491  0.7778276232058216  0.6259789037140930
  0.7223655359407325  0.2777981311298273  0.6251727389313686
  0.0555905386800517  0.7777427946532693  0.1239268452788191
  0.3887934223619463  0.7778276232058216  0.1240210962858859
  0.2218469945128574  0.2775901639230905  0.1300861111824645
  0.7223655359407325  0.7779007381442371  0.1248272610686726
  0.5557431694102383  0.2775901639230905  0.1300861111824645
  0.8889073777900303  0.2778147555800667  0.1237753683641252
  0.0555057101275162  0.4445399109713823  0.6259789037140930
  0.2220912971606187  0.9441825943212587  0.6255058454064230
  0.5555185777533130  0.9444259555432983  0.6262246316358575
  0.3883219585904973  0.4450113747428313  0.6118305834979055
  0.8889073777900303  0.9444259555432983  0.6262246316358575
  0.0555057101275162  0.9442991324894795  0.1240210962858859
  0.7226602776380759  0.4446472447330631  0.6228879334328653
  0.3887934223619463  0.9442991324894795  0.1240210962858859
  0.2219869670950013  0.4446472447330631  0.1271120665671486
  0.2220912971606187  0.6112420361727103  0.1244941545935933
  0.5566894161523340  0.4450113747428313  0.1381694165021063
  0.7222349903622455  0.9444699807244843  0.1238271475707682
  0.8890342008438491  0.4445399109713823  0.1240210962858859
  0.0555905386800517  0.6111810773601060  0.6260731547211508
  0.2219869670950013  0.1106730556952579  0.6228879334328653
  0.7226602776380759  0.6113463662383157  0.6228879334328653
  0.5555352022035182  0.1109677973926163  0.6251727389313686
  0.8888633526088443  0.1110983429710978  0.6261728524292255
 
  0.00000000E+00  0.00000000E+00  0.00000000E+00
  0.00000000E+00  0.00000000E+00  0.00000000E+00
  0.00000000E+00  0.00000000E+00  0.00000000E+00
  0.00000000E+00  0.00000000E+00  0.00000000E+00
  0.00000000E+00  0.00000000E+00  0.00000000E+00
  0.00000000E+00  0.00000000E+00  0.00000000E+00
  0.00000000E+00  0.00000000E+00  0.00000000E+00
  0.00000000E+00  0.00000000E+00  0.00000000E+00
  0.00000000E+00  0.00000000E+00  0.00000000E+00
  0.00000000E+00  0.00000000E+00  0.00000000E+00
  0.00000000E+00  0.00000000E+00  0.00000000E+00
  0.00000000E+00  0.00000000E+00  0.00000000E+00
  0.00000000E+00  0.00000000E+00  0.00000000E+00
  0.00000000E+00  0.00000000E+00  0.00000000E+00
  0.00000000E+00  0.00000000E+00  0.00000000E+00
  0.00000000E+00  0.00000000E+00  0.00000000E+00
  0.00000000E+00  0.00000000E+00  0.00000000E+00
  0.00000000E+00  0.00000000E+00  0.00000000E+00
  0.00000000E+00  0.00000000E+00  0.00000000E+00
  0.00000000E+00  0.00000000E+00  0.00000000E+00
  0.00000000E+00  0.00000000E+00  0.00000000E+00
  0.00000000E+00  0.00000000E+00  0.00000000E+00
  0.00000000E+00  0.00000000E+00  0.00000000E+00
  0.00000000E+00  0.00000000E+00  0.00000000E+00
  0.00000000E+00  0.00000000E+00  0.00000000E+00
  0.00000000E+00  0.00000000E+00  0.00000000E+00
  0.00000000E+00  0.00000000E+00  0.00000000E+00
  0.00000000E+00  0.00000000E+00  0.00000000E+00
  0.00000000E+00  0.00000000E+00  0.00000000E+00
  0.00000000E+00  0.00000000E+00  0.00000000E+00
  0.00000000E+00  0.00000000E+00  0.00000000E+00
  0.00000000E+00  0.00000000E+00  0.00000000E+00
  0.00000000E+00  0.00000000E+00  0.00000000E+00
  0.00000000E+00  0.00000000E+00  0.00000000E+00
  0.00000000E+00  0.00000000E+00  0.00000000E+00
  0.00000000E+00  0.00000000E+00  0.00000000E+00
  0.00000000E+00  0.00000000E+00  0.00000000E+00
  0.00000000E+00  0.00000000E+00  0.00000000E+00
  0.00000000E+00  0.00000000E+00  0.00000000E+00
  0.00000000E+00  0.00000000E+00  0.00000000E+00
  0.00000000E+00  0.00000000E+00  0.00000000E+00
  0.00000000E+00  0.00000000E+00  0.00000000E+00
  0.00000000E+00  0.00000000E+00  0.00000000E+00
  0.00000000E+00  0.00000000E+00  0.00000000E+00
  0.00000000E+00  0.00000000E+00  0.00000000E+00
  0.00000000E+00  0.00000000E+00  0.00000000E+00
  0.00000000E+00  0.00000000E+00  0.00000000E+00
  0.00000000E+00  0.00000000E+00  0.00000000E+00
  0.00000000E+00  0.00000000E+00  0.00000000E+00
  0.00000000E+00  0.00000000E+00  0.00000000E+00
  0.00000000E+00  0.00000000E+00  0.00000000E+00
  0.00000000E+00  0.00000000E+00  0.00000000E+00
  0.00000000E+00  0.00000000E+00  0.00000000E+00
  0.00000000E+00  0.00000000E+00  0.00000000E+00
  0.00000000E+00  0.00000000E+00  0.00000000E+00
  0.00000000E+00  0.00000000E+00  0.00000000E+00
  0.00000000E+00  0.00000000E+00  0.00000000E+00
  0.00000000E+00  0.00000000E+00  0.00000000E+00
  0.00000000E+00  0.00000000E+00  0.00000000E+00
  0.00000000E+00  0.00000000E+00  0.00000000E+00
  0.00000000E+00  0.00000000E+00  0.00000000E+00
  0.00000000E+00  0.00000000E+00  0.00000000E+00
  0.00000000E+00  0.00000000E+00  0.00000000E+00
  0.00000000E+00  0.00000000E+00  0.00000000E+00
  0.00000000E+00  0.00000000E+00  0.00000000E+00
  0.00000000E+00  0.00000000E+00  0.00000000E+00
  0.00000000E+00  0.00000000E+00  0.00000000E+00
  0.00000000E+00  0.00000000E+00  0.00000000E+00
  0.00000000E+00  0.00000000E+00  0.00000000E+00
  0.00000000E+00  0.00000000E+00  0.00000000E+00
  0.00000000E+00  0.00000000E+00  0.00000000E+00
  0.00000000E+00  0.00000000E+00  0.00000000E+00
  0.00000000E+00  0.00000000E+00  0.00000000E+00
  0.00000000E+00  0.00000000E+00  0.00000000E+00
  0.00000000E+00  0.00000000E+00  0.00000000E+00
  0.00000000E+00  0.00000000E+00  0.00000000E+00
  0.00000000E+00  0.00000000E+00  0.00000000E+00
  0.00000000E+00  0.00000000E+00  0.00000000E+00
  0.00000000E+00  0.00000000E+00  0.00000000E+00
  0.00000000E+00  0.00000000E+00  0.00000000E+00
  0.00000000E+00  0.00000000E+00  0.00000000E+00
  0.00000000E+00  0.00000000E+00  0.00000000E+00
  0.00000000E+00  0.00000000E+00  0.00000000E+00
  0.00000000E+00  0.00000000E+00  0.00000000E+00
  0.00000000E+00  0.00000000E+00  0.00000000E+00
  0.00000000E+00  0.00000000E+00  0.00000000E+00
  0.00000000E+00  0.00000000E+00  0.00000000E+00
  0.00000000E+00  0.00000000E+00  0.00000000E+00
  0.00000000E+00  0.00000000E+00  0.00000000E+00
  0.00000000E+00  0.00000000E+00  0.00000000E+00
  0.00000000E+00  0.00000000E+00  0.00000000E+00
  0.00000000E+00  0.00000000E+00  0.00000000E+00
  0.00000000E+00  0.00000000E+00  0.00000000E+00
  0.00000000E+00  0.00000000E+00  0.00000000E+00
  0.00000000E+00  0.00000000E+00  0.00000000E+00
  0.00000000E+00  0.00000000E+00  0.00000000E+00
  0.00000000E+00  0.00000000E+00  0.00000000E+00
  0.00000000E+00  0.00000000E+00  0.00000000E+00
  0.00000000E+00  0.00000000E+00  0.00000000E+00
  0.00000000E+00  0.00000000E+00  0.00000000E+00
  0.00000000E+00  0.00000000E+00  0.00000000E+00
  0.00000000E+00  0.00000000E+00  0.00000000E+00
  0.00000000E+00  0.00000000E+00  0.00000000E+00
  0.00000000E+00  0.00000000E+00  0.00000000E+00
  0.00000000E+00  0.00000000E+00  0.00000000E+00
  0.00000000E+00  0.00000000E+00  0.00000000E+00
  0.00000000E+00  0.00000000E+00  0.00000000E+00
  0.00000000E+00  0.00000000E+00  0.00000000E+00
  0.00000000E+00  0.00000000E+00  0.00000000E+00
  0.00000000E+00  0.00000000E+00  0.00000000E+00
  0.00000000E+00  0.00000000E+00  0.00000000E+00
  0.00000000E+00  0.00000000E+00  0.00000000E+00
  0.00000000E+00  0.00000000E+00  0.00000000E+00
  0.00000000E+00  0.00000000E+00  0.00000000E+00
  0.00000000E+00  0.00000000E+00  0.00000000E+00
  0.00000000E+00  0.00000000E+00  0.00000000E+00
  0.00000000E+00  0.00000000E+00  0.00000000E+00
  0.00000000E+00  0.00000000E+00  0.00000000E+00
  0.00000000E+00  0.00000000E+00  0.00000000E+00
  0.00000000E+00  0.00000000E+00  0.00000000E+00
  0.00000000E+00  0.00000000E+00  0.00000000E+00
  0.00000000E+00  0.00000000E+00  0.00000000E+00
  0.00000000E+00  0.00000000E+00  0.00000000E+00
  0.00000000E+00  0.00000000E+00  0.00000000E+00
  0.00000000E+00  0.00000000E+00  0.00000000E+00
  0.00000000E+00  0.00000000E+00  0.00000000E+00
  0.00000000E+00  0.00000000E+00  0.00000000E+00
  0.00000000E+00  0.00000000E+00  0.00000000E+00
  0.00000000E+00  0.00000000E+00  0.00000000E+00
  0.00000000E+00  0.00000000E+00  0.00000000E+00
  0.00000000E+00  0.00000000E+00  0.00000000E+00
  0.00000000E+00  0.00000000E+00  0.00000000E+00
  0.00000000E+00  0.00000000E+00  0.00000000E+00
  0.00000000E+00  0.00000000E+00  0.00000000E+00
  0.00000000E+00  0.00000000E+00  0.00000000E+00
  0.00000000E+00  0.00000000E+00  0.00000000E+00
  0.00000000E+00  0.00000000E+00  0.00000000E+00
  0.00000000E+00  0.00000000E+00  0.00000000E+00
  0.00000000E+00  0.00000000E+00  0.00000000E+00
  0.00000000E+00  0.00000000E+00  0.00000000E+00
  0.00000000E+00  0.00000000E+00  0.00000000E+00
  0.00000000E+00  0.00000000E+00  0.00000000E+00
  0.00000000E+00  0.00000000E+00  0.00000000E+00
  0.00000000E+00  0.00000000E+00  0.00000000E+00
  0.00000000E+00  0.00000000E+00  0.00000000E+00
  0.00000000E+00  0.00000000E+00  0.00000000E+00
  0.00000000E+00  0.00000000E+00  0.00000000E+00
  0.00000000E+00  0.00000000E+00  0.00000000E+00
  0.00000000E+00  0.00000000E+00  0.00000000E+00
  0.00000000E+00  0.00000000E+00  0.00000000E+00
  0.00000000E+00  0.00000000E+00  0.00000000E+00
  0.00000000E+00  0.00000000E+00  0.00000000E+00
  0.00000000E+00  0.00000000E+00  0.00000000E+00
  0.00000000E+00  0.00000000E+00  0.00000000E+00
  0.00000000E+00  0.00000000E+00  0.00000000E+00
  0.00000000E+00  0.00000000E+00  0.00000000E+00
  0.00000000E+00  0.00000000E+00  0.00000000E+00
  0.00000000E+00  0.00000000E+00  0.00000000E+00
  0.00000000E+00  0.00000000E+00  0.00000000E+00
  0.00000000E+00  0.00000000E+00  0.00000000E+00
  0.00000000E+00  0.00000000E+00  0.00000000E+00
  0.00000000E+00  0.00000000E+00  0.00000000E+00
  0.00000000E+00  0.00000000E+00  0.00000000E+00
  0.00000000E+00  0.00000000E+00  0.00000000E+00
  0.00000000E+00  0.00000000E+00  0.00000000E+00
  0.00000000E+00  0.00000000E+00  0.00000000E+00
  0.00000000E+00  0.00000000E+00  0.00000000E+00
  0.00000000E+00  0.00000000E+00  0.00000000E+00
  0.00000000E+00  0.00000000E+00  0.00000000E+00
  0.00000000E+00  0.00000000E+00  0.00000000E+00
  0.00000000E+00  0.00000000E+00  0.00000000E+00
  0.00000000E+00  0.00000000E+00  0.00000000E+00
  0.00000000E+00  0.00000000E+00  0.00000000E+00
  0.00000000E+00  0.00000000E+00  0.00000000E+00
  0.00000000E+00  0.00000000E+00  0.00000000E+00
  0.00000000E+00  0.00000000E+00  0.00000000E+00
  0.00000000E+00  0.00000000E+00  0.00000000E+00
  0.00000000E+00  0.00000000E+00  0.00000000E+00
  0.00000000E+00  0.00000000E+00  0.00000000E+00
  0.00000000E+00  0.00000000E+00  0.00000000E+00
  0.00000000E+00  0.00000000E+00  0.00000000E+00
  0.00000000E+00  0.00000000E+00  0.00000000E+00
  0.00000000E+00  0.00000000E+00  0.00000000E+00
  0.00000000E+00  0.00000000E+00  0.00000000E+00
  0.00000000E+00  0.00000000E+00  0.00000000E+00
  0.00000000E+00  0.00000000E+00  0.00000000E+00
  0.00000000E+00  0.00000000E+00  0.00000000E+00
  0.00000000E+00  0.00000000E+00  0.00000000E+00
  0.00000000E+00  0.00000000E+00  0.00000000E+00
  0.00000000E+00  0.00000000E+00  0.00000000E+00
  0.00000000E+00  0.00000000E+00  0.00000000E+00
  0.00000000E+00  0.00000000E+00  0.00000000E+00
  0.00000000E+00  0.00000000E+00  0.00000000E+00
  0.00000000E+00  0.00000000E+00  0.00000000E+00
  0.00000000E+00  0.00000000E+00  0.00000000E+00
  0.00000000E+00  0.00000000E+00  0.00000000E+00
  0.00000000E+00  0.00000000E+00  0.00000000E+00
  0.00000000E+00  0.00000000E+00  0.00000000E+00
  0.00000000E+00  0.00000000E+00  0.00000000E+00
  0.00000000E+00  0.00000000E+00  0.00000000E+00
  0.00000000E+00  0.00000000E+00  0.00000000E+00
  0.00000000E+00  0.00000000E+00  0.00000000E+00
  0.00000000E+00  0.00000000E+00  0.00000000E+00
  0.00000000E+00  0.00000000E+00  0.00000000E+00
  0.00000000E+00  0.00000000E+00  0.00000000E+00
  0.00000000E+00  0.00000000E+00  0.00000000E+00
  0.00000000E+00  0.00000000E+00  0.00000000E+00
  0.00000000E+00  0.00000000E+00  0.00000000E+00
  0.00000000E+00  0.00000000E+00  0.00000000E+00
  0.00000000E+00  0.00000000E+00  0.00000000E+00
  0.00000000E+00  0.00000000E+00  0.00000000E+00
  0.00000000E+00  0.00000000E+00  0.00000000E+00
  0.00000000E+00  0.00000000E+00  0.00000000E+00
  0.00000000E+00  0.00000000E+00  0.00000000E+00
  0.00000000E+00  0.00000000E+00  0.00000000E+00
  0.00000000E+00  0.00000000E+00  0.00000000E+00
  0.00000000E+00  0.00000000E+00  0.00000000E+00
  0.00000000E+00  0.00000000E+00  0.00000000E+00
  0.00000000E+00  0.00000000E+00  0.00000000E+00
  0.00000000E+00  0.00000000E+00  0.00000000E+00
  0.00000000E+00  0.00000000E+00  0.00000000E+00
  0.00000000E+00  0.00000000E+00  0.00000000E+00
  0.00000000E+00  0.00000000E+00  0.00000000E+00
  0.00000000E+00  0.00000000E+00  0.00000000E+00
  0.00000000E+00  0.00000000E+00  0.00000000E+00
  0.00000000E+00  0.00000000E+00  0.00000000E+00
  0.00000000E+00  0.00000000E+00  0.00000000E+00
  0.00000000E+00  0.00000000E+00  0.00000000E+00
  0.00000000E+00  0.00000000E+00  0.00000000E+00
  0.00000000E+00  0.00000000E+00  0.00000000E+00
  0.00000000E+00  0.00000000E+00  0.00000000E+00
  0.00000000E+00  0.00000000E+00  0.00000000E+00
  0.00000000E+00  0.00000000E+00  0.00000000E+00
  0.00000000E+00  0.00000000E+00  0.00000000E+00
  0.00000000E+00  0.00000000E+00  0.00000000E+00
  0.00000000E+00  0.00000000E+00  0.00000000E+00
  0.00000000E+00  0.00000000E+00  0.00000000E+00
  0.00000000E+00  0.00000000E+00  0.00000000E+00
  0.00000000E+00  0.00000000E+00  0.00000000E+00
  0.00000000E+00  0.00000000E+00  0.00000000E+00
  0.00000000E+00  0.00000000E+00  0.00000000E+00
  0.00000000E+00  0.00000000E+00  0.00000000E+00
  0.00000000E+00  0.00000000E+00  0.00000000E+00
  0.00000000E+00  0.00000000E+00  0.00000000E+00
  0.00000000E+00  0.00000000E+00  0.00000000E+00
  0.00000000E+00  0.00000000E+00  0.00000000E+00
  0.00000000E+00  0.00000000E+00  0.00000000E+00