B C N                                   
   1.0000000000000000     
     8.7639499999999995  -15.1796066749929999    0.0000000000000000
     8.7639499999999995   15.1796066749929999    0.0000000000000000
     0.0000000000000000    0.0000000000000000   15.0000000000000000
   B    C    N 
    49     1    47
Selective dynamics
Direct
  0.9039591719728035  0.9517130385797493  0.1110596965790050   T   T   T
  0.9044577827318482  0.0948715207606430  0.1107097634297635   T   T   T
  0.9045519745550490  0.2378165064566804  0.1107687893694877   T   T   T
  0.9046724507271718  0.3808309109899845  0.1106634297111785   T   T   T
  0.9051850545254791  0.5238974691958991  0.1108289129980522   T   T   T
  0.9046728518484135  0.6668672127146148  0.1109834139735290   T   T   T
  0.9046243873576805  0.8096401626828227  0.1109568848270313   T   T   T
  0.0474924716337643  0.9523475785316945  0.1108948582326075   T   T   T
  0.0475519750326436  0.0952934994522605  0.1108098826183844   T   T   T
  0.0475237672386000  0.2380349249083127  0.1109664964957838   T   T   T
  0.0474509037126319  0.3808635792007960  0.1108259966577512   T   T   T
  0.0476236434092551  0.5238226143059865  0.1107498398295669   T   T   T
  0.0478544979922647  0.6667101746829152  0.1107980955952269   T   T   T
  0.0477248438524034  0.8095627723419594  0.1108526397179606   T   T   T
  0.1905771092938705  0.9523246041957295  0.1108535579165318   T   T   T
  0.1902972795548935  0.0952186397879147  0.1109446741423119   T   T   T
  0.1911679638816835  0.2391192100241373  0.1112723215392924   T   T   T
  0.1903489522895236  0.3812265623363740  0.1115762571272325   T   T   T
  0.1900102756109095  0.5238420328597935  0.1113334107303594   T   T   T
  0.1910801844058789  0.6665263178764077  0.1108040068384874   T   T   T
  0.1907754680460660  0.8093860101442583  0.1107275948881463   T   T   T
  0.3335583093768327  0.9520356330493256  0.1109710230106587   T   T   T
  0.3333851712607753  0.0951932529420556  0.1111120589057255   T   T   T
  0.3328141596718059  0.2380489784411265  0.1113990109906083   T   T   T
  0.3354610242306363  0.3840509637488557  0.1114262026773237   T   T   T
  0.3316315916673569  0.5242322638679506  0.1110575353554875   T   T   T
  0.3347857275491790  0.6662590090709899  0.1108187835742838   T   T   T
  0.3338090960998784  0.8089492225611609  0.1110595720076461   T   T   T
  0.4763290077984174  0.9510857381327313  0.1109876784015589   T   T   T
  0.4762279563579163  0.0947417979637645  0.1110130540040239   T   T   T
  0.4761598827662403  0.2381888152727431  0.1112517545690766   T   T   T
  0.4745838300437455  0.3805747902544527  0.1111919526928186   T   T   T
  0.4785474802214212  0.5385095652900652  0.1112645581391715   T   T   T
  0.4791222761009630  0.6612993182941656  0.1111323917782252   T   T   T
  0.4764996851743686  0.8067812056164499  0.1110138578623971   T   T   T
  0.6188167459296782  0.9515534466086916  0.1109180731988083   T   T   T
  0.6188730008324841  0.0947100290648515  0.1109773339925693   T   T   T
  0.6189106130215357  0.2379476106031833  0.1111502780867265   T   T   T
  0.6191230261283511  0.3813960361641245  0.1110373535209651   T   T   T
  0.6232185378543900  0.5260393381037263  0.1112260661343318   T   T   T
  0.6133270221173438  0.6637483366212696  0.1109955849020373   T   T   T
  0.6185063579438209  0.8088182083996568  0.1111495374761275   T   T   T
  0.7613457149422350  0.9517331281611636  0.1109783393535381   T   T   T
  0.7615977854560729  0.0947438820689298  0.1109811586886640   T   T   T
  0.7617033087629830  0.2378023340996457  0.1110206595880420   T   T   T
  0.7619195759008547  0.3809337449697324  0.1109446380926456   T   T   T
  0.7630723604571559  0.5240983128523956  0.1110590953918957   T   T   T
  0.7615499130521959  0.6675343222914235  0.1114322431204036   T   T   T
  0.7598937589909500  0.8078417093712194  0.1114388852843904   T   T   T
  0.5246911175414860  0.4821619413700903  0.1111282199164880   T   T   T
  0.9521264881738216  0.9046691719360218  0.1109514225600852   T   T   T
  0.9520061301758646  0.0471940070209922  0.1106946615506477   T   T   T
  0.9522100653674239  0.1901884763006095  0.1107848595528627   T   T   T
  0.9521991959677472  0.3331076969973992  0.1104302024433090   T   T   T
  0.9524985193004580  0.4761401393843450  0.1107487450720738   T   T   T
  0.9524657386569260  0.6192237790687075  0.1109311452472314   T   T   T
  0.9523177251651171  0.7620572218494250  0.1107029557220355   T   T   T
  0.0952454709700622  0.9047807572945440  0.1110070874960774   T   T   T
  0.0950693682913260  0.0475651147081540  0.1107570366121052   T   T   T
  0.0955780997171948  0.1908601211680092  0.1110421534482170   T   T   T
  0.0951148910845227  0.3332519430096490  0.1110943977679486   T   T   T
  0.0949380677754390  0.4761245811787673  0.1109400160044112   T   T   T
  0.0955980547884415  0.6190835196338524  0.1106093404879649   T   T   T
  0.0954410423757198  0.7619467811136293  0.1108515352979548   T   T   T
  0.2382733683392306  0.9046362855094311  0.1106388304651964   T   T   T
  0.2380791133917948  0.0476210324394914  0.1109472074848825   T   T   T
  0.2377903593350421  0.1905070337961245  0.1110865938540783   T   T   T
  0.2395399442857666  0.3351191673061572  0.1115905979051158   T   T   T
  0.2370538696342014  0.4761729182782399  0.1118478189221625   T   T   T
  0.2389770373745534  0.6189747142790090  0.1110347354476149   T   T   T
  0.2385224844551993  0.7617222912973823  0.1107373619673545   T   T   T
  0.3811476642950285  0.9041415009763160  0.1112793312801694   T   T   T
  0.3809761060430973  0.0473512519826943  0.1109543820579086   T   T   T
  0.3808204089217228  0.1905858661481667  0.1113651044339793   T   T   T
  0.3800975533249404  0.3332744987480075  0.1115598706002404   T   T   T
  0.3828268924189280  0.4813541886644382  0.1109741781985573   T   T   T
  0.3827452761526692  0.6184017884470319  0.1103920967489937   T   T   T
  0.3815336094650433  0.7611009946328262  0.1110234810979628   T   T   T
  0.5237132903857630  0.9027287027951616  0.1108620664076241   T   T   T
  0.5236749586381502  0.0466780102036201  0.1107770172435267   T   T   T
  0.5236514612923248  0.1901940036464313  0.1112401699323771   T   T   T
  0.5233980404394936  0.3336803692596650  0.1109924105563057   T   T   T
  0.5240918485444699  0.7578150586573045  0.1111590291041696   T   T   T
  0.6662748810274315  0.9039690940191681  0.1107996443561697   T   T   T
  0.6663633946322038  0.0469466415423027  0.1111248535651259   T   T   T
  0.6664368403525273  0.1901268871098512  0.1109821355436903   T   T   T
  0.6664954532951780  0.3333762177037255  0.1111865560166031   T   T   T
  0.6686298840397625  0.4768595507288608  0.1109997446387933   T   T   T
  0.6654738579737774  0.6200199511703367  0.1116306093547858   T   T   T
  0.6632403272431231  0.7590209565451412  0.1114397702545023   T   T   T
  0.8082035463527834  0.9034126615438081  0.1114894269152278   T   T   T
  0.8091870405275045  0.0470630155790626  0.1106051944444677   T   T   T
  0.8092710057651192  0.1900850406930744  0.1110833249337564   T   T   T
  0.8093836573283213  0.3331363508983589  0.1108630196655002   T   T   T
  0.8102179161177798  0.4762741819643622  0.1107783675520718   T   T   T
  0.8091782190546921  0.6194919206277633  0.1112790828581482   T   T   T
  0.8091281519364159  0.7620718410426734  0.1111571566737519   T   T   T

  0.00000000E+00  0.00000000E+00  0.00000000E+00
  0.00000000E+00  0.00000000E+00  0.00000000E+00
  0.00000000E+00  0.00000000E+00  0.00000000E+00
  0.00000000E+00  0.00000000E+00  0.00000000E+00
  0.00000000E+00  0.00000000E+00  0.00000000E+00
  0.00000000E+00  0.00000000E+00  0.00000000E+00
  0.00000000E+00  0.00000000E+00  0.00000000E+00
  0.00000000E+00  0.00000000E+00  0.00000000E+00
  0.00000000E+00  0.00000000E+00  0.00000000E+00
  0.00000000E+00  0.00000000E+00  0.00000000E+00
  0.00000000E+00  0.00000000E+00  0.00000000E+00
  0.00000000E+00  0.00000000E+00  0.00000000E+00
  0.00000000E+00  0.00000000E+00  0.00000000E+00
  0.00000000E+00  0.00000000E+00  0.00000000E+00
  0.00000000E+00  0.00000000E+00  0.00000000E+00
  0.00000000E+00  0.00000000E+00  0.00000000E+00
  0.00000000E+00  0.00000000E+00  0.00000000E+00
  0.00000000E+00  0.00000000E+00  0.00000000E+00
  0.00000000E+00  0.00000000E+00  0.00000000E+00
  0.00000000E+00  0.00000000E+00  0.00000000E+00
  0.00000000E+00  0.00000000E+00  0.00000000E+00
  0.00000000E+00  0.00000000E+00  0.00000000E+00
  0.00000000E+00  0.00000000E+00  0.00000000E+00
  0.00000000E+00  0.00000000E+00  0.00000000E+00
  0.00000000E+00  0.00000000E+00  0.00000000E+00
  0.00000000E+00  0.00000000E+00  0.00000000E+00
  0.00000000E+00  0.00000000E+00  0.00000000E+00
  0.00000000E+00  0.00000000E+00  0.00000000E+00
  0.00000000E+00  0.00000000E+00  0.00000000E+00
  0.00000000E+00  0.00000000E+00  0.00000000E+00
  0.00000000E+00  0.00000000E+00  0.00000000E+00
  0.00000000E+00  0.00000000E+00  0.00000000E+00
  0.00000000E+00  0.00000000E+00  0.00000000E+00
  0.00000000E+00  0.00000000E+00  0.00000000E+00
  0.00000000E+00  0.00000000E+00  0.00000000E+00
  0.00000000E+00  0.00000000E+00  0.00000000E+00
  0.00000000E+00  0.00000000E+00  0.00000000E+00
  0.00000000E+00  0.00000000E+00  0.00000000E+00
  0.00000000E+00  0.00000000E+00  0.00000000E+00
  0.00000000E+00  0.00000000E+00  0.00000000E+00
  0.00000000E+00  0.00000000E+00  0.00000000E+00
  0.00000000E+00  0.00000000E+00  0.00000000E+00
  0.00000000E+00  0.00000000E+00  0.00000000E+00
  0.00000000E+00  0.00000000E+00  0.00000000E+00
  0.00000000E+00  0.00000000E+00  0.00000000E+00
  0.00000000E+00  0.00000000E+00  0.00000000E+00
  0.00000000E+00  0.00000000E+00  0.00000000E+00
  0.00000000E+00  0.00000000E+00  0.00000000E+00
  0.00000000E+00  0.00000000E+00  0.00000000E+00
  0.00000000E+00  0.00000000E+00  0.00000000E+00
  0.00000000E+00  0.00000000E+00  0.00000000E+00
  0.00000000E+00  0.00000000E+00  0.00000000E+00
  0.00000000E+00  0.00000000E+00  0.00000000E+00
  0.00000000E+00  0.00000000E+00  0.00000000E+00
  0.00000000E+00  0.00000000E+00  0.00000000E+00
  0.00000000E+00  0.00000000E+00  0.00000000E+00
  0.00000000E+00  0.00000000E+00  0.00000000E+00
  0.00000000E+00  0.00000000E+00  0.00000000E+00
  0.00000000E+00  0.00000000E+00  0.00000000E+00
  0.00000000E+00  0.00000000E+00  0.00000000E+00
  0.00000000E+00  0.00000000E+00  0.00000000E+00
  0.00000000E+00  0.00000000E+00  0.00000000E+00
  0.00000000E+00  0.00000000E+00  0.00000000E+00
  0.00000000E+00  0.00000000E+00  0.00000000E+00
  0.00000000E+00  0.00000000E+00  0.00000000E+00
  0.00000000E+00  0.00000000E+00  0.00000000E+00
  0.00000000E+00  0.00000000E+00  0.00000000E+00
  0.00000000E+00  0.00000000E+00  0.00000000E+00
  0.00000000E+00  0.00000000E+00  0.00000000E+00
  0.00000000E+00  0.00000000E+00  0.00000000E+00
  0.00000000E+00  0.00000000E+00  0.00000000E+00
  0.00000000E+00  0.00000000E+00  0.00000000E+00
  0.00000000E+00  0.00000000E+00  0.00000000E+00
  0.00000000E+00  0.00000000E+00  0.00000000E+00
  0.00000000E+00  0.00000000E+00  0.00000000E+00
  0.00000000E+00  0.00000000E+00  0.00000000E+00
  0.00000000E+00  0.00000000E+00  0.00000000E+00
  0.00000000E+00  0.00000000E+00  0.00000000E+00
  0.00000000E+00  0.00000000E+00  0.00000000E+00
  0.00000000E+00  0.00000000E+00  0.00000000E+00
  0.00000000E+00  0.00000000E+00  0.00000000E+00
  0.00000000E+00  0.00000000E+00  0.00000000E+00
  0.00000000E+00  0.00000000E+00  0.00000000E+00
  0.00000000E+00  0.00000000E+00  0.00000000E+00
  0.00000000E+00  0.00000000E+00  0.00000000E+00
  0.00000000E+00  0.00000000E+00  0.00000000E+00
  0.00000000E+00  0.00000000E+00  0.00000000E+00
  0.00000000E+00  0.00000000E+00  0.00000000E+00
  0.00000000E+00  0.00000000E+00  0.00000000E+00
  0.00000000E+00  0.00000000E+00  0.00000000E+00
  0.00000000E+00  0.00000000E+00  0.00000000E+00
  0.00000000E+00  0.00000000E+00  0.00000000E+00
  0.00000000E+00  0.00000000E+00  0.00000000E+00
  0.00000000E+00  0.00000000E+00  0.00000000E+00
  0.00000000E+00  0.00000000E+00  0.00000000E+00
  0.00000000E+00  0.00000000E+00  0.00000000E+00
  0.00000000E+00  0.00000000E+00  0.00000000E+00
