 Sn N B 
 1.0
 17.527899999999772   0.000000000000000   0.000000000000000
 -8.763949999999658  15.179606674993195   0.000000000000000
  0.000000000000001   0.000000000000002  15.000000000000000
 Sn N B 
   1  49  47
Cartesian
  4.496358726487084   7.786512256950306   1.494263525877765 
  8.731994336605718  13.726383935856148   1.585714723329030 
 16.247957215152347   0.732761964965994   1.556479546254405 
 14.991508364298886   2.900222286631942   1.543435500184875 
 13.738867559081344   5.065817178800565   1.553119949053995 
 12.492702950412621   7.227996085884837   1.605407790373980 
 11.229474850741333   9.388178735845779   1.660890359361795 
  9.976358809879299  11.546821525312179   1.615601857317735 
 -6.291345392648299  13.713125397135155   1.533071186001675 
  1.220637053174325   0.703786162173226   1.541620048432800 
 -0.035175250458240   2.876831182570695   1.548604613911860 
 -1.284356536429926   5.055580403251096   1.531340052098460 
 -2.526549979388521   7.226010535267871   1.537302299625435 
 -3.782172075469585   9.390038182037964   1.550414325299475 
 -5.039188742843380  11.550153945292596   1.543869389031765 
 -3.783244398829975  13.716029052529388   1.520524641500565 
  3.728670079122013   0.699276137817619   1.536833547003675 
  2.470431748455081   2.857425353792208   1.576855544133390 
  1.206000004616030   5.017551610243832   1.568204153346570 
 -0.017314549127698   7.218150819596363   1.536413277012585 
 -1.266711112040347   9.390025910566292   1.536828547950510 
 -2.528413072838156  11.554130341188413   1.534639648215510 
 -1.279177596125889  13.725863037778034   1.539399831397470 
  6.233220812495762   0.706720055757661   1.551966257982555 
  4.983454934166167   2.864067649048239   1.654477096020570 
  3.720451336351444   5.001890788726243   1.727979628726920 
  2.464081083641187   7.148059958478464   1.518648633954165 
  1.250803445462987   9.391049894589372   1.597134970749600 
 -0.022255531093065  11.562691608935788   1.573560512586900 
  1.217090774716173  13.755407938939996   1.574277370766145 
  8.731014411504884   0.727165548591678   1.549265965043070 
  7.481915518634761   2.881223625808257   1.682891204584665 
  6.230787647890613   5.025713071307289   2.020113121281720 
  6.952215553426222   7.564990614912626   3.647935736290800 
  3.754795657937757   9.580030758442581   1.910893555051455 
  2.466743200613190  11.615115601214537   1.690529131704150 
  3.717579329775022  13.787302497912744   1.627723991112300 
 11.231277405738460   0.748367595460054   1.550918865712620 
  9.980473072202349   2.900522695678989   1.598141403119835 
  8.735542059715165   5.044330399707939   1.913028972141660 
  7.634490217834957   7.134824180880344   2.717255167391340 
  6.150575828674170   9.446333197119587   1.819021640630445 
  4.982169014925064  11.693318938114373   1.809406162134465 
  6.238453661267530  13.778851624380962   1.622108262120195 
 13.740041330932746   0.749863106739868   1.563881841895740 
 12.484458041694602   2.907876533819989   1.554350490757830 
 11.230607576954759   5.067685412776263   1.665797545181190 
 10.000127981342057   7.225115688510980   1.902010370573970 
  8.710670814721578   9.380718592392830   1.903788971276385 
  7.472279075859349  11.569428152519757   1.727331337532160 
  7.489615800584314  14.472186667040816   1.585472311507260 
 14.996438831729156   1.457549865291091   1.553385720916905 
 13.742475624709808   3.622487264061844   1.549254657945690 
 12.493230802287218   5.786374474320225   1.605995028699000 
 11.253281401461589   7.952005519971947   1.708125485514990 
  9.968382119019823  10.108734935689148   1.715351510875650 
  8.719742910752426  12.276780506350915   1.643588337316260 
 -7.544531289901331  14.438028914018711   1.549594595443020 
 -0.028600649492350   1.437219952677665   1.547563973059770 
 -1.281253924657119   3.613191206988295   1.540512644271645 
 -2.529569993136158   5.783344566099577   1.537373012431425 
 -3.774823522703719   7.948142602797243   1.558052420343930 
 -5.036813359755927  10.109341046146508   1.577330152734525 
 -6.296396117258572  12.267534851450256   1.557212197869750 
 -5.037859325153137  14.432452358877644   1.524592625033205 
  2.471900273881491   1.416662245446625   1.547370403115925 
  1.214267622181555   3.586348013286204   1.566554871712335 
 -0.027699327051663   5.773745478010090   1.538517991366425 
 -1.262832821215826   7.943592384957268   1.535300952146385 
 -2.519690052036256  10.108791565334521   1.536448494995175 
 -3.782156126129210  12.270536167275456   1.527806736123195 
 -2.531005054034440  14.437510711836250   1.531344352847070 
  4.979732959174446   1.417217422064520   1.572322620077760 
  3.717539838384800   3.565619863237698   1.654449353493810 
  2.443699910181298   5.749279550507796   1.598521593472815 
  1.266776467423159   7.925616579919451   1.545662406290010 
 -0.002427596148668  10.107988137621000   1.564702877015055 
 -1.273126823824163  12.275951472693096   1.545950278153470 
 -0.032792000431048  14.458351099965245   1.548231314596185 
  7.480151021947500   1.431472331587276   1.583295043833435 
  6.228101259246548   3.575788204323489   1.775771369916750 
  4.950173862576369   5.688889369008506   1.938226444955655 
  2.483256708988292  10.159071277724594   1.734011454909735 
  1.220113486000240  12.307817362535785   1.607996443418640 
  2.465623660849161  14.484843680280543   1.580933415078120 
  9.980523058993192   1.453144858138585   1.557541525655985 
  8.733823798541842   3.597683926953858   1.717357084720605 
  7.492281421002762   5.672073652546607   2.187853446543810 
  4.996467894383643  10.274102571461512   1.872598618733565 
  3.714366207016858  12.351419067949365   1.717175882429715 
  4.979117121911429  14.488290449119253   1.604949065132505 
 12.487241829784230   1.462961637160012   1.552515127140285 
 11.235572584116090   3.620438239164577   1.603112434829625 
  9.997469606253034   5.776823870299632   1.844853041223840 
  8.820353939008674   7.993001181658759   2.127373217564340 
  7.399332529124474  10.099400964247899   1.819690559698110 
  6.243526402654310  12.343612241723564   1.716922036658820 
