 N S B 
 1.0
 14.936314146199660   0.000000000000000   0.000000000000000
 -7.468157073099825  12.935227489513863   0.000000000000000
  0.000000000000001   0.000000000000001  13.341276283792837
 N S B 
 143   1 143
Cartesian
  1.244885981359387   0.718797930869338   1.667502685450117 
  4.978797249190730   7.186785267125482   1.660648446027282 
  6.224375239532367   0.718994849001969   1.666268542925877 
  9.957830093060963   7.186358817912675   1.666455007709170 
 11.202853600347416   0.718980546513056   1.665257311395387 
 -3.733560468628914   9.342407849080226   8.339975483998918 
  1.245469733158756   9.342712152125571   8.339688669918656 
  2.489166709252728   2.874375973358072   8.338084384506153 
  6.223615057300625   9.342403128016445   8.339994148987975 
  7.469005981987196   2.874452286313603   8.341257049188723 
 12.447232101755281   2.874629866863597   8.340120840859965 
 -1.243899846382057   9.342529844904194   1.666251272780756 
 -0.000052720848659   2.874464559273536   1.667639508079649 
  4.979575954459877   2.874648811183199   1.665859694820179 
  3.734466001874188   9.342865274766639   1.664700163655905 
  8.713098652519834   9.342296914708324   1.666455007709170 
  9.958221990781416   2.874611559756170   1.665431960392809 
 -4.978310051492415  11.498345773137480   8.339628074881555 
  0.000903198002024  11.498501452288551   8.340148886970990 
  1.244480276548826   5.030236114292904   8.338084384506153 
  6.223951546436492   5.030114761033091   8.345308766817332 
  4.979211941118706  11.498509937168082   8.340525252451819 
 11.202624397260971   5.030500445305023   8.339894516357781 
 -1.244445432033015   5.030446415742253   1.667502685450117 
 -2.488624506022834  11.498456196835914   1.666251272780756 
  2.490090475903829  11.498641051919490   1.665288283959298 
  3.733480781862844   5.030021132092590   1.650580455671668 
  7.468467686980298  11.498249590935449   1.666062696486834 
  8.713180278874521   5.030349675493955   1.665963063856652 
  0.000639062693541   7.186556483171357   8.338086989775737 
  1.244885981359387   0.718797930869339   8.338454527394511 
  4.978797249190731   7.186785267125483   8.345308766817332 
  6.224375239532368   0.718994849001969   8.339688669918656 
  9.957830093060963   7.186358817912676   8.339502205135458 
 -2.488838248844865   7.186454126941809   1.666329137963086 
 11.202853600347416   0.718980546513057   8.340699901449240 
  3.734674320471537   0.719017699446271   1.667870223068904 
  2.489921183640015   7.186857367549479   1.665859694820179 
  7.468187710391197   7.186255182622791   1.666637022867798 
  8.713774806879497   0.718903580399241   1.665288283959298 
  2.489921183640015   7.186857367549480   8.340097518024436 
 13.691889924125512   0.718819280480303   1.665836371984662 
 -1.243899846382056   9.342529844904194   8.339705940063885 
 -0.000052720848658   2.874464559273537   8.338317704764991 
  4.979575954459878   2.874648811183200   8.340097518024436 
  3.734466001874189   9.342865274766639   8.341257049188723 
  8.713098652519834   9.342296914708324   8.339502205135458 
  9.958221990781416   2.874611559756171   8.340525252451819 
 -3.733560468628914   9.342407849080226   1.665981728845723 
  1.245469733158756   9.342712152125571   1.666268542925877 
  2.489166709252728   2.874375973358072   1.667872828338475 
  6.223615057300624   9.342403128016445   1.665963063856652 
  7.469005981987195   2.874452286313602   1.664700163655905 
 12.447232101755281   2.874629866863597   1.665836371984662 
 -1.244445432033015   5.030446415742253   8.338454527394511 
 -2.488624506022834  11.498456196835914   8.339705940063885 
  2.490090475903829  11.498641051919490   8.340668928885330 
  3.733480781862845   5.030021132092591   8.355376757172960 
  7.468467686980299  11.498249590935449   8.339894516357781 
 -4.978310051492416  11.498345773137480   1.666329137963086 
  8.713180278874521   5.030349675493956   8.339994148987975 
  0.000903198002024  11.498501452288551   1.665808325873637 
  1.244480276548826   5.030236114292904   1.667872828338475 
  0.000639062693541   7.186556483171356   1.667870223068904 
  6.223951546436491   5.030114761033090   1.660648446027282 
  4.979211941118705  11.498509937168082   1.665431960392809 
 11.202624397260971   5.030500445305022   1.666062696486834 
 -2.488838248844865   7.186454126941809   8.339628074881555 
  3.734674320471538   0.719017699446271   8.338086989775737 
  7.468187710391198   7.186255182622792   8.339320189976830 
  8.713774806879497   0.718903580399242   8.340668928885330 
 13.691889924125512   0.718819280480303   8.340120840859965 
  0.006677375858416   1.439073175389043   5.002978606422314 
  3.700061615427491   7.992088181353499   5.002978606422314 
  5.004271034333546   1.372985554041865   5.002978606422314 
  8.708654850557382   7.902439219918775   5.002978606422314 
  9.975465672797732   1.436844574518234   5.002978606422314 
 -4.978306422461470  10.060986766296647  11.673616748318732 
  0.000398733171281  10.060974918130556  11.673616748318732 
  1.245208596976479   3.593416516331312  11.673616748318732 
  4.979334849375787  10.060974082530588  11.673616748318732 
  6.223927863999717   3.593432590845380  11.673616748318732 
 11.202757744260817   3.593488232502914  11.673616748318732 
 -2.498475950910457  10.055484227856992   5.002978606422314 
 -1.239773075312437   3.597988685934126   5.002978606422314 
  3.754959750992280   3.410812091564889   5.002978606422314 
  2.474143758858600  10.100703207510872   5.002978606422314 
  7.474797229735400  10.073269042715520   5.002978606422314 
  8.741654942401777   3.580795661685692   5.002978606422314 
 -6.222959022024170  12.216844039487924  11.673616748318732 
 -1.244283531608421  12.216827840008913  11.673616748318732 
  0.000429791824968   5.749306541634853  11.673616748318732 
  4.979325615621328   5.749309982231439  11.673616748318732 
  3.734581838849500  12.216861881855058  11.673616748318732 
  9.958085220486865   5.749348297544542  11.673616748318732 
 -2.497411982259743   5.755088915002432   5.002978606422314 
 -3.734840955400310  12.194184713672138   5.002978606422314 
  1.250004906373939  12.219670659862352   5.002978606422314 
  2.341944103293147   5.858226985269622   5.002978606422314 
  6.232538414335353  12.228903066788765   5.002978606422314 
  7.507858298559427   5.739437348233774   5.002978606422314 
 -1.244315739672970   7.905124522119631  11.673616748318732 
  0.000558130698678   1.437525103694031  11.673616748318732 
  3.734582151425583   7.905105842627559  11.673616748318732 
  4.979212032949921   1.437465502343178  11.673616748318732 
  8.713416122423162   7.905188141512168  11.673616748318732 
 -3.743082439506339   7.905016029930683   5.002978606422314 
  9.958017972603635   1.437554300532801  11.673616748318732 
  2.483325497366462   1.396692735162994   5.002978606422314 
  1.201790194962727   7.959075562639321   5.002978606422314 
  6.235042005245969   7.944019836954189   5.002978606422314 
  7.495151762187318   1.404062240535511   5.002978606422314 
  1.245101967534602   7.905133856696898  11.673616748318732 
 12.459443227423025   1.444472905966124   5.002978606422314 
 -2.488990568228632  10.060960616101761  11.673616748318732 
 -1.244173367307068   3.593463300021316  11.673616748318732 
  3.734582476801923   3.593340361847646  11.673616748318732 
  2.489839736890653  10.060965305411541  11.673616748318732 
  7.468738600088510  10.061023121724400  11.673616748318732 
  8.713340875942873   3.593485928747967  11.673616748318732 
 -4.983139284643157  10.052857489981237   5.002978606422314 
 -0.015796367861304  10.075436794025720   5.002978606422314 
  1.245707069049401   3.593704309316806   5.002978606422314 
  4.982501788948499  10.091839916899575   5.002978606422314 
  6.281996511017901   3.520045760355831   5.002978606422314 
 11.217424232390822   3.594827559987088   5.002978606422314 
 -2.488924982876191   5.749307366491945  11.673616748318732 
 -3.733661977734708  12.216798684073041  11.673616748318732 
  1.245108229558060  12.216843562184511  11.673616748318732 
  2.489829585171668   5.749315613019539  11.673616748318732 
  6.224045278645062  12.216871179225981  11.673616748318732 
 -6.222195553832647  12.206603308164608   5.002978606422314 
  7.468712383186978   5.749355443223636  11.673616748318732 
 -1.239856730213114  12.195571533150241   5.002978606422314 
 -0.038151552417740   5.764019095508141   5.002978606422314 
 -1.264489501353405   7.915410482711215   5.002978606422314 
  3.742691048188245  12.232326896467976   5.002978606422314 
  9.971719813981359   5.748472264235311   5.002978606422314 
 -3.733625848611967   7.905136773195307  11.673616748318732 
  2.489874724079054   1.437461436325886  11.673616748318732 
  6.224058369778182   7.905159432292203  11.673616748318732 
  7.468585718492231   1.437524307298164  11.673616748318732 
 12.447490448455257   1.437571965811573  11.673616748318732 
  4.720402524710549   5.599820665994741   5.002978606422314 
  1.246334796538622   0.707758029431327   5.002978606422314 
  4.952346028249151   7.320198459723704   5.002978606422314 
  6.242397891514957   0.687883833478541   5.002978606422314 
  9.954738858043942   7.184765613447819   5.002978606422314 
 11.218623995633433   0.728085588476735   5.002978606422314 
 -3.733554086947427   9.342411533545823  11.673616748318732 
  1.245235840005354   9.341723022323183  11.673616748318732 
  2.490323459897335   2.875407226589122  11.673616748318732 
  6.223823949233459   9.341899430906874  11.673616748318732 
  7.467846637260792   2.875136505837300  11.673616748318732 
 12.447896236531045   2.875076935377387  11.673616748318732 
 -1.254125411070925   9.346229506011204   5.002978606422314 
  0.017041284055703   2.884333787606598   5.002978606422314 
  4.993072015563969   2.817384750213529   5.002978606422314 
  3.717363587040025   9.399868693306278   5.002978606422314 
  8.710173279471388   9.340416428886853   5.002978606422314 
  9.980896082533944   2.871194506345644   5.002978606422314 
 -4.978200510120167  11.498556330983464  11.673616748318732 
  0.000247373342262  11.498122811744766  11.673616748318732 
  1.245951743366953   5.030722263121453  11.673616748318732 
  6.223029668532534   5.030710995109018  11.673616748318732 
  4.979342831001722  11.497964137606525  11.673616748318732 
 11.202900822455831   5.030794136183305  11.673616748318732 
 -1.253281859543887   5.037221077211865   5.002978606422314 
 -2.490533287863241  11.487750767493871   5.002978606422314 
  2.492879679148758  11.520267021261978   5.002978606422314 
  7.472858165024605  11.505309020858382   5.002978606422314 
  8.743547354335334   5.019405943413060   5.002978606422314 
  0.000959462410782   7.186142941985040  11.673616748318732 
  1.245670731626920   0.719450766015041  11.673616748318732 
  4.978852664095116   7.185688780403491  11.673616748318732 
  6.223401681419149   0.719286856490561  11.673616748318732 
  9.957952597889474   7.186512289450329  11.673616748318732 
 -2.497848424229980   7.189943038589212   5.002978606422314 
 11.202796470352133   0.718947562494903  11.673616748318732 
  3.737152671249989   0.697145709555758   5.002978606422314 
  2.447077082668525   7.227177329801382   5.002978606422314 
  7.463339265248645   7.183455931514604   5.002978606422314 
  8.733898047334073   0.710506116594332   5.002978606422314 
  2.490006605351652   7.185644497304154  11.673616748318732 
 13.704989984045296   0.729901832889671   5.002978606422314 
 -1.244107328751107   9.342154194737592  11.673616748318732 
  0.001349623477756   2.875274203147949  11.673616748318732 
  4.978568288871758   2.875329223678160  11.673616748318732 
  3.734478881000274   9.341519143019983  11.673616748318732 
  8.713292815184447   9.342326271233087  11.673616748318732 
  9.957814759437237   2.874997813500742  11.673616748318732 
 -3.739894902588047   9.338750661928819   5.002978606422314 
  1.227538129369230   9.373875734347775   5.002978606422314 
  2.501858570908439   2.856953933289863   5.002978606422314 
  6.229321045036697   9.374173652844711   5.002978606422314 
  7.509821183127983   2.831139451331361   5.002978606422314 
 12.463379903640465   2.880433575340533   5.002978606422314 
 -1.243487685078580   5.030799611836700  11.673616748318732 
 -2.489053569794565  11.498464336916767  11.673616748318732 
  2.489745834095472  11.497862501492010  11.673616748318732 
  3.734377951917275   5.030539113464965  11.673616748318732 
  7.468860243339172  11.498342136737318  11.673616748318732 
 -4.979793653066764  11.488798276537713   5.002978606422314 
  8.712848510348177   5.030782429769325  11.673616748318732 
  0.002736240504315  11.499559759870667   5.002978606422314 
  1.235738278091862   5.049938608942173   5.002978606422314 
 -0.017063460793630   7.199638792850059   5.002978606422314 
  6.326265149955805   4.940500735437354   5.002978606422314 
  4.987589731935365  11.519854803338776   5.002978606422314 
 11.210933281932613   5.030772995864696   5.002978606422314 
 -2.488601129715152   7.186443713629951  11.673616748318732 
  3.734476383157350   0.719501944333835  11.673616748318732 
  7.468205837325358   7.186265648213057  11.673616748318732 
  8.712928241527006   0.718994387051714  11.673616748318732 
 13.692609164203574   0.719170903810746  11.673616748318732 
  0.001231953746581   1.438742824391721   1.670740703663637 
  3.733556748332346   7.902930614541841   1.669204456288149 
  4.978689386186507   1.440189584102141   1.672912105075045 
  8.711961644746475   7.904348398433881   1.668325535861512 
  9.958004669699099   1.437504449303889   1.667549774418770 
 -4.978393131068801  10.061572003271122   8.337922195471084 
  0.001634996843436  10.060687001712282   8.337265437863811 
  1.246965912321650   3.594431102818966   8.329531467615629 
  4.978298023959964  10.060388033128003   8.338249630002444 
  6.221531359671835   3.593632179760388   8.336752756556479 
 11.203045260855374   3.593083405094579   8.337989491530617 
 -2.488123920547508  10.061460975373761   1.668181988221093 
 -1.242781878724209   3.593437987549621   1.670740703663637 
  3.733609539940373   3.595965764357285   1.680856496239910 
  2.490104997860058  10.060278796199023   1.668325052478148 
  7.467705949583308  10.060890174818212   1.668011988823435 
  8.712314929564451   3.592881036299865   1.667707582842197 
 -6.222890430420555  12.218335581536302   8.336727111487367 
 -1.243914742704682  12.218042433963820   8.337265437863811 
  0.003189179093601   5.748142460517025   8.331479144250896 
  4.974990555419287   5.746807134056898   8.331286577450731 
  3.734532014966585  12.216875286816238   8.338407438425872 
  9.957453759836143   5.748520469426914   8.337945224021194 
 -2.487598973769720   5.748620997539049   1.669230101357260 
 -3.733369055268397  12.218976157582631   1.669781961059888 
  1.245439094892351  12.217034587374354   1.667754073687827 
  2.491616782009408   5.747160323726326   1.680856496239910 
  6.223838446122573  12.217322589605041   1.667967721314010 
  7.465652449281851   5.747721383046873   1.667327037667799 
 -1.242283531064463   7.904289463662039   8.336175251784752 
  0.001231953746582   1.438742824391722   8.335216509180992 
  3.733556748332347   7.902930614541842   8.336752756556479 
  4.978689386186508   1.440189584102141   8.333045107769570 
  8.711961644746475   7.904348398433882   8.337631676983115 
 -3.733162372828497   7.904769062851382   1.668035017373544 
  9.958004669699099   1.437504449303890   8.338407438425872 
  2.490246293893205   1.440433176358417   1.674478068593720 
  1.247199768158106   7.903319190443158   1.672912105075045 
  6.221113265201168   7.903326481884946   1.667327037667799 
  7.468123814558963   1.438097284642559   1.668325052478148 
  1.247199768158107   7.903319190443159   8.333045107769570 
 12.447856863373140   1.437783515563045   1.667960446350860 
 -2.488123920547508  10.061460975373761   8.337775224623522 
 -1.242781878724208   3.593437987549622   8.335216509180992 
  3.733609539940374   3.595965764357286   8.325100716604625 
  2.490104997860059  10.060278796199023   8.337632160366493 
  7.467705949583308  10.060890174818212   8.337945224021194 
  8.712314929564451   3.592881036299866   8.338249630002444 
 -4.978393131068802  10.061572003271122   1.668035017373544 
  0.001634996843436  10.060687001712282   1.668691774980816 
  1.246965912321649   3.594431102818965   1.676425745228999 
  4.978298023959963  10.060388033128003   1.667707582842197 
  6.221531359671834   3.593632179760387   1.669204456288149 
 11.203045260855374   3.593083405094578   1.667967721314010 
 -2.487598973769720   5.748620997539050   8.336727111487367 
 -3.733369055268396  12.218976157582631   8.336175251784752 
  1.245439094892351  12.217034587374354   8.338203139156800 
  2.491616782009408   5.747160323726327   8.325100716604625 
  6.223838446122574  12.217322589605041   8.337989491530617 
 -6.222890430420556  12.218335581536302   1.669230101357260 
  7.465652449281852   5.747721383046874   8.338630175176815 
 -1.243914742704683  12.218042433963820   1.668691774980816 
  0.003189179093600   5.748142460517024   1.674478068593720 
 -1.242283531064463   7.904289463662038   1.669781961059888 
  4.974990555419287   5.746807134056898   1.674670635393910 
  3.734532014966585  12.216875286816238   1.667549774418770 
  9.957453759836143   5.748520469426913   1.668011988823435 
 -3.733162372828497   7.904769062851383   8.337922195471084 
  2.490246293893205   1.440433176358418   8.331479144250896 
  6.221113265201169   7.903326481884947   8.338630175176815 
  7.468123814558964   1.438097284642560   8.337632160366493 
 12.447856863373140   1.437783515563046   8.337996766493861 
Generated by cif2cell 2.0.0.  :  Failed to get author information, No journal information. Species order: N S B 
 1.0
 14.936314146199660   0.000000000000000   0.000000000000000
 -7.468157073099825  12.935227489513863   0.000000000000000
  0.000000000000001   0.000000000000001  13.341276283792837
 N S B 
 143   1 143
Cartesian
  1.244885981359387   0.718797930869338   1.667502685450117 
  4.978797249190730   7.186785267125482   1.660648446027282 
  6.224375239532367   0.718994849001969   1.666268542925877 
  9.957830093060963   7.186358817912675   1.666455007709170 
 11.202853600347416   0.718980546513056   1.665257311395387 
 -3.733560468628914   9.342407849080226   8.339975483998918 
  1.245469733158756   9.342712152125571   8.339688669918656 
  2.489166709252728   2.874375973358072   8.338084384506153 
  6.223615057300625   9.342403128016445   8.339994148987975 
  7.469005981987196   2.874452286313603   8.341257049188723 
 12.447232101755281   2.874629866863597   8.340120840859965 
 -1.243899846382057   9.342529844904194   1.666251272780756 
 -0.000052720848659   2.874464559273536   1.667639508079649 
  4.979575954459877   2.874648811183199   1.665859694820179 
  3.734466001874188   9.342865274766639   1.664700163655905 
  8.713098652519834   9.342296914708324   1.666455007709170 
  9.958221990781416   2.874611559756170   1.665431960392809 
 -4.978310051492415  11.498345773137480   8.339628074881555 
  0.000903198002024  11.498501452288551   8.340148886970990 
  1.244480276548826   5.030236114292904   8.338084384506153 
  6.223951546436492   5.030114761033091   8.345308766817332 
  4.979211941118706  11.498509937168082   8.340525252451819 
 11.202624397260971   5.030500445305023   8.339894516357781 
 -1.244445432033015   5.030446415742253   1.667502685450117 
 -2.488624506022834  11.498456196835914   1.666251272780756 
  2.490090475903829  11.498641051919490   1.665288283959298 
  3.733480781862844   5.030021132092590   1.650580455671668 
  7.468467686980298  11.498249590935449   1.666062696486834 
  8.713180278874521   5.030349675493955   1.665963063856652 
  0.000639062693541   7.186556483171357   8.338086989775737 
  1.244885981359387   0.718797930869339   8.338454527394511 
  4.978797249190731   7.186785267125483   8.345308766817332 
  6.224375239532368   0.718994849001969   8.339688669918656 
  9.957830093060963   7.186358817912676   8.339502205135458 
 -2.488838248844865   7.186454126941809   1.666329137963086 
 11.202853600347416   0.718980546513057   8.340699901449240 
  3.734674320471537   0.719017699446271   1.667870223068904 
  2.489921183640015   7.186857367549479   1.665859694820179 
  7.468187710391197   7.186255182622791   1.666637022867798 
  8.713774806879497   0.718903580399241   1.665288283959298 
  2.489921183640015   7.186857367549480   8.340097518024436 
 13.691889924125512   0.718819280480303   1.665836371984662 
 -1.243899846382056   9.342529844904194   8.339705940063885 
 -0.000052720848658   2.874464559273537   8.338317704764991 
  4.979575954459878   2.874648811183200   8.340097518024436 
  3.734466001874189   9.342865274766639   8.341257049188723 
  8.713098652519834   9.342296914708324   8.339502205135458 
  9.958221990781416   2.874611559756171   8.340525252451819 
 -3.733560468628914   9.342407849080226   1.665981728845723 
  1.245469733158756   9.342712152125571   1.666268542925877 
  2.489166709252728   2.874375973358072   1.667872828338475 
  6.223615057300624   9.342403128016445   1.665963063856652 
  7.469005981987195   2.874452286313602   1.664700163655905 
 12.447232101755281   2.874629866863597   1.665836371984662 
 -1.244445432033015   5.030446415742253   8.338454527394511 
 -2.488624506022834  11.498456196835914   8.339705940063885 
  2.490090475903829  11.498641051919490   8.340668928885330 
  3.733480781862845   5.030021132092591   8.355376757172960 
  7.468467686980299  11.498249590935449   8.339894516357781 
 -4.978310051492416  11.498345773137480   1.666329137963086 
  8.713180278874521   5.030349675493956   8.339994148987975 
  0.000903198002024  11.498501452288551   1.665808325873637 
  1.244480276548826   5.030236114292904   1.667872828338475 
  0.000639062693541   7.186556483171356   1.667870223068904 
  6.223951546436491   5.030114761033090   1.660648446027282 
  4.979211941118705  11.498509937168082   1.665431960392809 
 11.202624397260971   5.030500445305022   1.666062696486834 
 -2.488838248844865   7.186454126941809   8.339628074881555 
  3.734674320471538   0.719017699446271   8.338086989775737 
  7.468187710391198   7.186255182622792   8.339320189976830 
  8.713774806879497   0.718903580399242   8.340668928885330 
 13.691889924125512   0.718819280480303   8.340120840859965 
  0.006677375858416   1.439073175389043   5.002978606422314 
  3.700061615427491   7.992088181353499   5.002978606422314 
  5.004271034333546   1.372985554041865   5.002978606422314 
  8.708654850557382   7.902439219918775   5.002978606422314 
  9.975465672797732   1.436844574518234   5.002978606422314 
 -4.978306422461470  10.060986766296647  11.673616748318732 
  0.000398733171281  10.060974918130556  11.673616748318732 
  1.245208596976479   3.593416516331312  11.673616748318732 
  4.979334849375787  10.060974082530588  11.673616748318732 
  6.223927863999717   3.593432590845380  11.673616748318732 
 11.202757744260817   3.593488232502914  11.673616748318732 
 -2.498475950910457  10.055484227856992   5.002978606422314 
 -1.239773075312437   3.597988685934126   5.002978606422314 
  3.754959750992280   3.410812091564889   5.002978606422314 
  2.474143758858600  10.100703207510872   5.002978606422314 
  7.474797229735400  10.073269042715520   5.002978606422314 
  8.741654942401777   3.580795661685692   5.002978606422314 
 -6.222959022024170  12.216844039487924  11.673616748318732 
 -1.244283531608421  12.216827840008913  11.673616748318732 
  0.000429791824968   5.749306541634853  11.673616748318732 
  4.979325615621328   5.749309982231439  11.673616748318732 
  3.734581838849500  12.216861881855058  11.673616748318732 
  9.958085220486865   5.749348297544542  11.673616748318732 
 -2.497411982259743   5.755088915002432   5.002978606422314 
 -3.734840955400310  12.194184713672138   5.002978606422314 
  1.250004906373939  12.219670659862352   5.002978606422314 
  2.341944103293147   5.858226985269622   5.002978606422314 
  6.232538414335353  12.228903066788765   5.002978606422314 
  7.507858298559427   5.739437348233774   5.002978606422314 
 -1.244315739672970   7.905124522119631  11.673616748318732 
  0.000558130698678   1.437525103694031  11.673616748318732 
  3.734582151425583   7.905105842627559  11.673616748318732 
  4.979212032949921   1.437465502343178  11.673616748318732 
  8.713416122423162   7.905188141512168  11.673616748318732 
 -3.743082439506339   7.905016029930683   5.002978606422314 
  9.958017972603635   1.437554300532801  11.673616748318732 
  2.483325497366462   1.396692735162994   5.002978606422314 
  1.201790194962727   7.959075562639321   5.002978606422314 
  6.235042005245969   7.944019836954189   5.002978606422314 
  7.495151762187318   1.404062240535511   5.002978606422314 
  1.245101967534602   7.905133856696898  11.673616748318732 
 12.459443227423025   1.444472905966124   5.002978606422314 
 -2.488990568228632  10.060960616101761  11.673616748318732 
 -1.244173367307068   3.593463300021316  11.673616748318732 
  3.734582476801923   3.593340361847646  11.673616748318732 
  2.489839736890653  10.060965305411541  11.673616748318732 
  7.468738600088510  10.061023121724400  11.673616748318732 
  8.713340875942873   3.593485928747967  11.673616748318732 
 -4.983139284643157  10.052857489981237   5.002978606422314 
 -0.015796367861304  10.075436794025720   5.002978606422314 
  1.245707069049401   3.593704309316806   5.002978606422314 
  4.982501788948499  10.091839916899575   5.002978606422314 
  6.281996511017901   3.520045760355831   5.002978606422314 
 11.217424232390822   3.594827559987088   5.002978606422314 
 -2.488924982876191   5.749307366491945  11.673616748318732 
 -3.733661977734708  12.216798684073041  11.673616748318732 
  1.245108229558060  12.216843562184511  11.673616748318732 
  2.489829585171668   5.749315613019539  11.673616748318732 
  6.224045278645062  12.216871179225981  11.673616748318732 
 -6.222195553832647  12.206603308164608   5.002978606422314 
  7.468712383186978   5.749355443223636  11.673616748318732 
 -1.239856730213114  12.195571533150241   5.002978606422314 
 -0.038151552417740   5.764019095508141   5.002978606422314 
 -1.264489501353405   7.915410482711215   5.002978606422314 
  3.742691048188245  12.232326896467976   5.002978606422314 
  9.971719813981359   5.748472264235311   5.002978606422314 
 -3.733625848611967   7.905136773195307  11.673616748318732 
  2.489874724079054   1.437461436325886  11.673616748318732 
  6.224058369778182   7.905159432292203  11.673616748318732 
  7.468585718492231   1.437524307298164  11.673616748318732 
 12.447490448455257   1.437571965811573  11.673616748318732 
  4.720402524710549   5.599820665994741   5.002978606422314 
  1.246334796538622   0.707758029431327   5.002978606422314 
  4.952346028249151   7.320198459723704   5.002978606422314 
  6.242397891514957   0.687883833478541   5.002978606422314 
  9.954738858043942   7.184765613447819   5.002978606422314 
 11.218623995633433   0.728085588476735   5.002978606422314 
 -3.733554086947427   9.342411533545823  11.673616748318732 
  1.245235840005354   9.341723022323183  11.673616748318732 
  2.490323459897335   2.875407226589122  11.673616748318732 
  6.223823949233459   9.341899430906874  11.673616748318732 
  7.467846637260792   2.875136505837300  11.673616748318732 
 12.447896236531045   2.875076935377387  11.673616748318732 
 -1.254125411070925   9.346229506011204   5.002978606422314 
  0.017041284055703   2.884333787606598   5.002978606422314 
  4.993072015563969   2.817384750213529   5.002978606422314 
  3.717363587040025   9.399868693306278   5.002978606422314 
  8.710173279471388   9.340416428886853   5.002978606422314 
  9.980896082533944   2.871194506345644   5.002978606422314 
 -4.978200510120167  11.498556330983464  11.673616748318732 
  0.000247373342262  11.498122811744766  11.673616748318732 
  1.245951743366953   5.030722263121453  11.673616748318732 
  6.223029668532534   5.030710995109018  11.673616748318732 
  4.979342831001722  11.497964137606525  11.673616748318732 
 11.202900822455831   5.030794136183305  11.673616748318732 
 -1.253281859543887   5.037221077211865   5.002978606422314 
 -2.490533287863241  11.487750767493871   5.002978606422314 
  2.492879679148758  11.520267021261978   5.002978606422314 
  7.472858165024605  11.505309020858382   5.002978606422314 
  8.743547354335334   5.019405943413060   5.002978606422314 
  0.000959462410782   7.186142941985040  11.673616748318732 
  1.245670731626920   0.719450766015041  11.673616748318732 
  4.978852664095116   7.185688780403491  11.673616748318732 
  6.223401681419149   0.719286856490561  11.673616748318732 
  9.957952597889474   7.186512289450329  11.673616748318732 
 -2.497848424229980   7.189943038589212   5.002978606422314 
 11.202796470352133   0.718947562494903  11.673616748318732 
  3.737152671249989   0.697145709555758   5.002978606422314 
  2.447077082668525   7.227177329801382   5.002978606422314 
  7.463339265248645   7.183455931514604   5.002978606422314 
  8.733898047334073   0.710506116594332   5.002978606422314 
  2.490006605351652   7.185644497304154  11.673616748318732 
 13.704989984045296   0.729901832889671   5.002978606422314 
 -1.244107328751107   9.342154194737592  11.673616748318732 
  0.001349623477756   2.875274203147949  11.673616748318732 
  4.978568288871758   2.875329223678160  11.673616748318732 
  3.734478881000274   9.341519143019983  11.673616748318732 
  8.713292815184447   9.342326271233087  11.673616748318732 
  9.957814759437237   2.874997813500742  11.673616748318732 
 -3.739894902588047   9.338750661928819   5.002978606422314 
  1.227538129369230   9.373875734347775   5.002978606422314 
  2.501858570908439   2.856953933289863   5.002978606422314 
  6.229321045036697   9.374173652844711   5.002978606422314 