 Se N Al B 
 1.0
 17.527899999999772   0.000000000000000   0.000000000000000
 -8.763949999999658  15.179606674993195   0.000000000000000
  0.000000000000001   0.000000000000002  15.000000000000000
 Se N Al B 
   1  47   1  49
Cartesian
  5.028690424440943   7.213622943073123   1.662459102081780 
  8.804675363850066  13.779369325458648   1.666402509338070 
 16.276251870789025   0.736832528926422   1.662910057810125 
 15.002336464131664   2.877517959906258   1.662603399789990 
 13.753213233814792   5.039222790629065   1.660470054404325 
 12.531590393670786   7.212101761622287   1.661131090439130 
 11.331478484348683   9.399127745629420   1.666170774143790 
 10.080250442016535  11.596398268743000   1.669450104529830 
 -6.238195580904225  13.746916756689929   1.663128338698170 
  1.251188296106320   0.716646539014783   1.662484156220190 
 -0.040698183902962   2.850173831423044   1.662342837909165 
 -1.306447102768611   5.024142861124571   1.662834352574805 
 -2.559602458603830   7.205090832986720   1.660524859550895 
 -3.772877312374154   9.392588063135353   1.658881407771930 
 -4.989733362684575  11.576652065919044   1.661226072787305 
 -3.755101405755391  13.740032793120763   1.660256579367660 
  3.758346446755689   0.707147632721917   1.663635453894375 
  2.470362896326777   2.828216362997931   1.664459018734815 
  1.153758450477379   4.949880469556994   1.668226092343665 
 -0.134355726359708   7.191056231827582   1.672024312849155 
 -1.354858858955633   9.393105080636536   1.668705654998850 
 -2.531438208216225  11.577764053325927   1.661655426612270 
 -1.271800570314496  13.754709641391898   1.660252221174750 
  6.264086054439627   0.712384609692263   1.662159509857110 
  5.014760731110418   2.838821671503788   1.666102827592170 
  3.700421945315755   4.925593419319913   1.665946364010345 
  2.205764795387614   7.025810698690053   1.678040706420930 
  1.047163107801272   9.411850463994945   1.683754709313570 
 -0.069130303383251  11.604328375874974   1.672258245327510 
  1.210573931151888  13.811518872460697   1.663378769214750 
  8.765154650090363   0.734216505208040   1.658359683519210 
  7.552605123776602   2.840780192082483   1.665059931023145 
  6.348919616289304   4.921890840015486   1.663432657742100 
  2.387447656458390  11.729575438669213   1.687040473492350 
  3.756977526115467  13.767168993169760   1.670319013072665 
 11.268798083371758   0.735784970331305   1.661054973038445 
 10.030973248512069   2.883507889575843   1.662012624845700 
  8.804930271578986   5.039203681044460   1.665727920640515 
  7.668353044094363   7.223358269287321   1.655787303692955 
  6.576124330789296   9.540989259738422   1.640219239920750 
  5.110360053866390  11.699949757440015   1.673326475905725 
  6.301171081713631  13.807263334056998   1.668164182204245 
 13.769105662627689   0.734035576020534   1.663865257147995 
 12.517119908661744   2.884099973709773   1.662420887633040 
 11.283101909173268   5.043266776602930   1.664433106055670 
 10.096986312639064   7.215053846370750   1.668729757059165 
  8.924126739813268   9.422098830009231   1.671233951655390 
  7.622636903587047  11.663532473101581   1.672858547277255 
  3.738788219187379   9.498835809865890   1.674543844643010 
  7.547033585900948  14.494835580791726   1.665840147794685 
 15.018157028889895   1.443616282988130   1.663575234206760 
 13.759539222006387   3.601232674634848   1.662683109843360 
 12.521791897925947   5.770057782598299   1.662358959906555 
 11.320377866951727   7.953991878363167   1.666415593248915 
 10.129134822050023  10.153178085996293   1.670903900502825 
  8.851002932417432  12.354886823948945   1.671038679940245 
 -7.482561294809091  14.471848246240617   1.664214090753000 
 -0.006656128571933   1.427389328335684   1.662966581362035 
 -1.283778415109837   3.586183434479079   1.662770859695565 
 -2.541511177020530   5.762486361629676   1.661328033687510 
 -3.775162111874852   7.947384933090740   1.659925128508500 
 -4.982476080454512  10.134582595872113   1.661902264156395 
 -6.218826349928961  12.311951001079466   1.665028912712355 
 -4.996811526161389  14.455618294299299   1.662630635850810 
  2.498616374630157   1.406646243389894   1.664064876464865 
  1.202093370635351   3.532744415188968   1.664876720332980 
 -0.074863587931253   5.738660425933292   1.668076784763825 
 -1.345263486663836   7.943210166348933   1.667382257045595 
 -2.558304712876674  10.133557882075387   1.663315944184995 
 -3.758674230781728  12.303115416605419   1.660621825955145 
 -2.512609305077113  14.459528373673315   1.660828528185510 
  5.011028404521049   1.409806427753910   1.665096584511075 
  3.724302867549003   3.504016660268647   1.666102107162360 
  2.384932641905061   5.629970282566200   1.671586479489735 
  1.077777712214604   7.924455380683069   1.679601561317400 
 -0.148341444489885  10.144698026064399   1.676121431497350 
 -1.297006660741563  12.315598703099136   1.664687544546660 
 -0.031186509733056  14.492290869012209   1.660391004082020 
  7.521609569651040   1.418398567582875   1.662498692970105 
  6.306659208795002   3.502363738556085   1.666077317486205 
  5.041776349187519   5.418478491310741   1.662296623275375 
  3.340635046336700   7.750420227544738   1.653244595391285 
  2.142873893474524  10.331804644258343   1.684071620496105 
  1.155163802776029  12.398452882263896   1.675126589448660 
  2.494237470654669  14.481538892882877   1.665382565201400 
 10.019589050909820   1.445966287123068   1.660246318469040 
  8.789250937746948   3.591255658575184   1.664872168556445 
  7.572530638618452   5.750345234976948   1.662283637172390 
  6.615072610405441   8.151773842459942   1.645396565779305 
  5.380695232455357  10.294468434223228   1.660031931903375 
  3.753063932438210  12.330359642492322   1.677990951679080 
  5.018695071674813  14.480594068928109   1.667338004210025 
 12.519003045535346   1.448128119410362   1.663053699898740 
 11.276686420697198   3.603862117162478   1.663572883023390 
 10.054851089205078   5.769991743706466   1.666710540053145 
  8.903711820389287   7.967410724540169   1.666156657163775 
  7.762807609805212  10.243527806197193   1.662596847281715 
  6.349261893821886  12.392079363103568   1.671651168499875 
