Species order: X N B                    
   2.51242800000000     
     5.9449720136058266    0.0000000000000000    0.0000000000000000
    -2.9724860068029120    5.1484967885702053   -0.0000000000000001
     0.0000000000000000    0.0000000000000009    5.3101128803662583
   P    N    B 
     1   144   143
Direct
  0.4444444444444429  0.3888888888888857  0.3750000000000000
  0.1111246830978283  0.0555743232051713  0.1252546807286399
  0.6110689777645933  0.5555280216771650  0.1240049755564968
  0.4444496401073414  0.0555743232051713  0.1252546807286399
  0.9444362050714218  0.5555508921213274  0.1251045870295116
  0.7777777777777786  0.0555555555555571  0.1249476937144039
  0.1111111111111143  0.7222222222222214  0.6250104269643588
  0.4444496401073414  0.7222086502355081  0.6247453192713598
  0.2778053116561645  0.2222643555687374  0.6259950244435015
  0.7777590101281625  0.7222086502355081  0.6247453192713598
  0.6111168231121177  0.2222165102212202  0.6248902511880864
  0.9444392054388645  0.2222203255237911  0.6249376099075735
  0.2777824412120074  0.7222186462834314  0.1251045870295116
  0.1110996871091115  0.2222165102212202  0.1251097488119105
  0.4444590439125700  0.2222643555687374  0.1240049755564968
  0.6111168231121177  0.7222336462242227  0.1251097488119105
  0.9444362050714218  0.7222186462834314  0.1251045870295116
  0.7777811200849252  0.2222203255237911  0.1250623900924326
  0.1111146870499058  0.8888971282619068  0.6248954129704910
  0.4444472855898212  0.8888903094615763  0.6249066226746552
  0.2778053116561645  0.3888742894207586  0.6259950244435015
  0.6110689777645933  0.3888742894207586  0.6259950244435015
  0.7777811200849252  0.8888941278944641  0.6249376099075735
  0.9444430238717523  0.3888860477435074  0.6249066226746552
  0.1111246830978283  0.3888836932259872  0.1252546807286399
  0.2777824412120074  0.8888971282619068  0.1251045870295116
  0.6111130078095430  0.8888941278944641  0.1250623900924326
  0.4444444444444429  0.3888888888888857  0.1177395807864803
  0.9444430238717523  0.8888903094615763  0.1250933773253457
  0.7777590101281625  0.3888836932259872  0.1252546807286399
  0.2777905670728382  0.5555427662604990  0.6248720377327969
  0.1111246830978283  0.0555743232051713  0.6247453192713598
  0.6110689777645933  0.5555280216771650  0.6259950244435015
  0.4444496401073414  0.0555743232051713  0.6247453192713598
  0.9444362050714218  0.5555508921213274  0.6248954129704910
  0.1111146870499058  0.5555508921213274  0.1251045870295116
  0.7777777777777786  0.0555555555555571  0.6250523062855947
  0.2777905670728382  0.0555811341456746  0.1251279622671977
  0.4444590439125700  0.5555280216771650  0.1240049755564968
  0.7777521991876593  0.5555427662604990  0.1251279622671977
  0.6111130078095430  0.0555522132484128  0.1250623900924326
  0.4444590439125700  0.5555280216771650  0.6259950244435015
  0.9444392054388645  0.0555522132484128  0.1250623900924326
  0.2777824412120074  0.7222186462834314  0.6248954129704910
  0.1110996871091115  0.2222165102212202  0.6248902511880864
  0.4444590439125700  0.2222643555687374  0.6259950244435015
  0.6111168231121177  0.7222336462242227  0.6248902511880864
  0.9444362050714218  0.7222186462834314  0.6248954129704910
  0.7777811200849252  0.2222203255237911  0.6249376099075735
  0.1111111111111143  0.7222222222222214  0.1249895730356435
  0.4444496401073414  0.7222086502355081  0.1252546807286399
  0.2778053116561645  0.2222643555687374  0.1240049755564968
  0.7777590101281625  0.7222086502355081  0.1252546807286399
  0.6111168231121177  0.2222165102212202  0.1251097488119105
  0.9444392054388645  0.2222203255237911  0.1250623900924326
  0.1111246830978283  0.3888836932259872  0.6247453192713598
  0.2777824412120074  0.8888971282619068  0.6248954129704910
  0.6111130078095430  0.8888941278944641  0.6249376099075735
  0.4444444444444429  0.3888888888888857  0.6322604192135184
  0.9444430238717523  0.8888903094615763  0.6249066226746552
  0.1111146870499058  0.8888971282619068  0.1251045870295116
  0.7777590101281625  0.3888836932259872  0.6247453192713598
  0.4444472855898212  0.8888903094615763  0.1250933773253457
  0.2778053116561645  0.3888742894207586  0.1240049755564968
  0.2777905670728382  0.5555427662604990  0.1251279622671977
  0.6110689777645933  0.3888742894207586  0.1240049755564968
  0.7777811200849252  0.8888941278944641  0.1250623900924326
  0.9444430238717523  0.3888860477435074  0.1250933773253457
  0.1111146870499058  0.5555508921213274  0.6248954129704910
  0.2777905670728382  0.0555811341456746  0.6248720377327969
  0.7777521991876593  0.5555427662604990  0.6248720377327969
  0.6111130078095430  0.0555522132484128  0.6249376099075735
  0.9444392054388645  0.0555522132484128  0.6249376099075735
  0.0549080723123941  0.1106543688951735  0.3750000000000000
  0.5558917508941112  0.6117835017882112  0.3750000000000000
  0.3878834627496505  0.1068883626987409  0.3750000000000000
  0.8904710282797943  0.6119021808065693  0.3750000000000000
  0.7223357158314432  0.1109976175018943  0.3750000000000000
  0.0555559925558631  0.7777773407774724  0.8750000000000000
  0.3888874730308300  0.7777802183451799  0.8750000000000000
  0.2222180259485595  0.2777756796409475  0.8750000000000000
  0.7222255762322923  0.7777784590118209  0.8750000000000000
  0.5555576536923893  0.2777756796409475  0.8750000000000000
  0.8888905336470363  0.2777810672940809  0.8750000000000000
  0.2219240126674288  0.7776286730003841  0.3750000000000000
  0.0549080723123941  0.2775870367505572  0.3750000000000000
  0.3816047897702188  0.2632095795404441  0.3750000000000000
  0.5557462965827773  0.7784252610209375  0.3750000000000000
  0.8900287135012387  0.7786738598506207  0.3750000000000000
  0.7226789644381613  0.2775870367505572  0.3750000000000000
  0.0555531149881595  0.9444405880189940  0.8750000000000000
  0.3888874730308300  0.9444405880189940  0.8750000000000000
  0.2222164313779156  0.4444493767247421  0.8750000000000000
  0.5555828914928109  0.4444581124130698  0.8750000000000000
  0.7222215547967338  0.9444431095934637  0.8750000000000000
  0.8888927453143346  0.4444458603024986  0.8750000000000000
  0.0546594734827181  0.4446881869839519  0.3750000000000000
  0.2214311525267671  0.9428623050535343  0.3750000000000000
  0.5557305788665988  0.9445319560999630  0.3750000000000000
  0.3816047897702188  0.4517285435631098  0.3750000000000000
  0.8888013772333656  0.9445319560999630  0.3750000000000000
  0.7264449706345902  0.4454498705836781  0.3750000000000000
  0.2222183010300530  0.6111150323032821  0.8750000000000000
  0.0555548743215134  0.1111077571010419  0.8750000000000000
  0.5555576536923893  0.6111153073847764  0.8750000000000000
  0.3888839566085865  0.1111003879865093  0.8750000000000000
  0.8888967312732247  0.6111150323032821  0.8750000000000000
  0.0557046603329539  0.6114093206659100  0.3750000000000000
  0.7222215547967338  0.1111117785366037  0.8750000000000000
  0.2190048999490832  0.1068883626987409  0.3750000000000000
  0.3878834627496505  0.6143284333842532  0.3750000000000000
  0.7264449706345902  0.6143284333842532  0.3750000000000000
  0.5557462965827773  0.1106543688951735  0.3750000000000000
  0.3888839566085865  0.6111169019554219  0.8750000000000000
  0.8886619016704451  0.1109976175018943  0.3750000000000000
  0.2222213482216101  0.7777773407774724  0.8750000000000000
  0.0555548743215134  0.2777804505538057  0.8750000000000000
  0.3888752209202588  0.2777504418405217  0.8750000000000000
  0.5555528827795264  0.7777784590118209  0.8750000000000000
  0.8888927453143346  0.7777802183451799  0.8750000000000000
  0.7222255762322923  0.2777804505538057  0.8750000000000000
  0.0557046603329539  0.7776286730003841  0.3750000000000000
  0.3886451463493767  0.7786738598506207  0.3750000000000000
  0.2215498315451236  0.2774415824392301  0.3750000000000000
  0.7226789644381613  0.7784252610209375  0.3750000000000000
  0.5558917508941112  0.2774415824392301  0.3750000000000000
  0.8888013772333656  0.2776027544667394  0.3750000000000000
  0.0555531149881595  0.4444458603024986  0.8750000000000000
  0.2222183010300530  0.9444366020601039  0.8750000000000000
  0.5555522660392593  0.9444427996862923  0.8750000000000000
  0.3888752209202588  0.4444581124130698  0.8750000000000000
  0.8888905336470363  0.9444427996862923  0.8750000000000000
  0.0546594734827181  0.9433046198320899  0.3750000000000000
  0.7222329453468299  0.4444493767247421  0.8750000000000000
  0.3886451463493767  0.9433046198320899  0.3750000000000000
  0.2190048999490832  0.4454498705836781  0.3750000000000000
  0.2214311525267671  0.6119021808065693  0.3750000000000000
  0.5701237537928909  0.4517285435631098  0.3750000000000000
  0.7223357158314432  0.9446714316628835  0.3750000000000000
  0.8900287135012387  0.4446881869839519  0.3750000000000000
  0.0555559925558631  0.6111119851117259  0.8750000000000000
  0.2222164313779156  0.1111003879865093  0.8750000000000000
  0.7222329453468299  0.6111169019554219  0.8750000000000000
  0.5555528827795264  0.1111077571010419  0.8750000000000000
  0.8888902237398649  0.1111117785366037  0.8750000000000000
  0.1089178655031505  0.0534718264174685  0.3750000000000000
  0.6169468873165885  0.5606428387555960  0.3750000000000000
  0.4445539609143198  0.0534718264174685  0.3750000000000000
  0.9451500876753985  0.5557651083384327  0.3750000000000000
  0.7777777777777786  0.0555555555555571  0.3750000000000000
  0.1111111111111143  0.7222222222222214  0.8750000000000000
  0.4444411058852781  0.7222146359300463  0.8750000000000000
  0.2777963351265128  0.2222322789565929  0.8750000000000000
  0.7777735300447647  0.7222146359300463  0.8750000000000000
  0.6111033022119444  0.2222300311213938  0.8750000000000000
  0.9444504870030471  0.2222259805228564  0.8750000000000000
  0.2775682249949022  0.7227183126703004  0.3750000000000000
  0.1103156259872600  0.2218244796602936  0.3750000000000000
  0.4436959514390056  0.2163864460167473  0.3750000000000000
  0.6115088536730428  0.7230177073460738  0.3750000000000000
  0.9451500876753985  0.7227183126703004  0.3750000000000000
  0.7778676964949834  0.2219178606166934  0.3750000000000000
  0.1111123035522792  0.8888905842781898  0.8750000000000000
  0.4444433053987290  0.8888883193660261  0.8750000000000000
  0.2777963351265128  0.3888973895032483  0.8750000000000000
  0.6111010543767428  0.3888973895032483  0.8750000000000000
  0.7777754935198123  0.8888828463302815  0.8750000000000000
  0.9444450139673025  0.3888900279345996  0.8750000000000000
  0.1089178655031505  0.3887793724190088  0.3750000000000000
  0.2775682249949022  0.8881832456579301  0.3750000000000000
  0.6114154727166345  0.8892831692116218  0.3750000000000000
  0.9443211860973494  0.8890121472359792  0.3750000000000000
  0.7798615069158659  0.3887793724190088  0.3750000000000000
  0.2777797313826201  0.5555536019507160  0.8750000000000000
  0.1111186974032887  0.0555598032885669  0.8750000000000000
  0.6111010543767428  0.5555369982068235  0.8750000000000000
  0.4444411058852781  0.0555598032885669  0.8750000000000000
  0.9444427490551388  0.5555550526074223  0.8750000000000000
  0.1106150206630373  0.5557651083384327  0.3750000000000000
  0.7777777777777786  0.0555555555555571  0.8750000000000000
  0.2765373141870289  0.0530746283740651  0.3750000000000000
  0.4436959514390056  0.5606428387555960  0.3750000000000000
  0.7802587049592780  0.5567960191462989  0.3750000000000000
  0.6114154727166345  0.0554656368383506  0.3750000000000000
  0.4444359438300803  0.5555369982068235  0.8750000000000000
  0.9440501641217068  0.0554656368383506  0.3750000000000000
  0.2777782807259128  0.7222210297810590  0.8750000000000000
  0.1111267289094593  0.2222300311213938  0.8750000000000000
  0.4444359438300803  0.2222322789565929  0.8750000000000000
  0.6111033022119444  0.7222066044238719  0.8750000000000000
  0.9444427490551388  0.7222210297810590  0.8750000000000000
  0.7777754935198123  0.2222259805228564  0.8750000000000000
  0.1111111111111143  0.7222222222222214  0.3750000000000000
  0.4445539609143198  0.7244154678301808  0.3750000000000000
  0.2726904945777426  0.2163864460167473  0.3750000000000000
  0.7798615069158659  0.7244154678301808  0.3750000000000000
  0.6115088536730428  0.2218244796602936  0.3750000000000000
  0.9440501641217068  0.2219178606166934  0.3750000000000000
  0.1111186974032887  0.3888922274480505  0.8750000000000000
  0.2777782807259128  0.8888905842781898  0.8750000000000000
  0.6111073528104775  0.8888828463302815  0.8750000000000000
  0.4444444444444429  0.3888888888888857  0.8750000000000000
  0.9444450139673025  0.8888883193660261  0.8750000000000000
  0.1106150206630373  0.8881832456579301  0.3750000000000000
  0.7777735300447647  0.3888922274480505  0.8750000000000000
  0.4446909611386271  0.8890121472359792  0.3750000000000000
  0.2726904945777426  0.3896373818943231  0.3750000000000000
  0.2765373141870289  0.5567960191462989  0.3750000000000000
  0.6169468873165885  0.3896373818943231  0.3750000000000000
  0.7778676964949834  0.8892831692116218  0.3750000000000000
  0.9443211860973494  0.3886423721947015  0.3750000000000000
  0.1111123035522792  0.5555550526074223  0.8750000000000000
  0.2777797313826201  0.0555594627652395  0.8750000000000000
  0.7777738705680954  0.5555536019507160  0.8750000000000000
  0.6111073528104775  0.0555578398135248  0.8750000000000000
  0.9444504870030471  0.0555578398135248  0.8750000000000000
  0.0555587047870661  0.1111252263536705  0.1251218932431865
  0.5555285291695724  0.6110570583391455  0.1243077274078735
  0.3889206023306270  0.1111979219517611  0.1249020895201336
  0.8888541744260857  0.6110937538797141  0.1250988140610108
  0.7222233901203791  0.1111099432129544  0.1249967528412170
  0.0555508326498167  0.7777825006835185  0.6249929645668045
  0.3889042706078681  0.7777700060204805  0.6248733787106086
  0.2222762749941884  0.2778048041637630  0.6256922725921261
  0.7222081069796649  0.7777746285462689  0.6248781067568128
  0.5555285291695724  0.2778048041637630  0.6256922725921261
  0.8888839714057371  0.2777679428114851  0.6249659229843335
  0.2222316680337020  0.7777825006835185  0.1250070354331936
  0.0555587047870661  0.2777668117667309  0.1251218932431865
  0.3889981114940153  0.2779962229880344  0.1219727367586723
  0.5555665215666012  0.7777746285462689  0.1251218932431865
  0.8888657354126098  0.7777700060204805  0.1251266212893912
  0.7222081069796649  0.2777668117667309  0.1251218932431865
  0.0555633273128529  0.9444675979207188  0.6248733787106086
  0.3889042706078681  0.9444675979207188  0.6248733787106086
  0.2222773196211262  0.4444127310027016  0.6250979104798658
  0.5553371103452980  0.4443352218393133  0.6280272632413338
  0.7222233901203791  0.9444467802407609  0.6250032471587817
  0.8888657354126098  0.4444290627254605  0.6248733787106086
  0.0555633273128529  0.4444290627254605  0.1251266212893912
  0.2222395794536204  0.9444791589072429  0.1250988140610108
  0.5555653905218518  0.9444493619275915  0.1250340770156643
  0.3889981114940153  0.4443352218393133  0.1219727367586723
  0.8888839714057371  0.9444493619275915  0.1250340770156643
  0.7221354113815781  0.4444127310027016  0.1249020895201336
  0.2222395794536204  0.6110937538797141  0.6249011859389912
  0.0555587047870661  0.1111252263536705  0.6248781067568128
  0.5555285291695724  0.6110570583391455  0.6256922725921261
  0.3889206023306270  0.1111979219517611  0.6250979104798658
  0.8888541744260857  0.6110937538797141  0.6249011859389912
  0.0555508326498167  0.6111016652996322  0.1250070354331936
  0.7222233901203791  0.1111099432129544  0.6250032471587817
  0.2222773196211262  0.1111979219517611  0.1249020895201336
  0.3889206023306270  0.6110560137122072  0.1249020895201336
  0.7221354113815781  0.6110560137122072  0.1249020895201336
  0.5555665215666012  0.1111252263536705  0.1251218932431865
  0.3889206023306270  0.6110560137122072  0.6250979104798658
  0.8888865530925677  0.1111099432129544  0.1249967528412170
  0.2222316680337020  0.7777825006835185  0.6249929645668045
  0.0555587047870661  0.2777668117667309  0.6248781067568128
  0.3889981114940153  0.2779962229880344  0.6280272632413338
  0.5555665215666012  0.7777746285462689  0.6248781067568128
  0.8888657354126098  0.7777700060204805  0.6248733787106086
  0.7222081069796649  0.2777668117667309  0.6248781067568128
  0.0555508326498167  0.7777825006835185  0.1250070354331936
  0.3889042706078681  0.7777700060204805  0.1251266212893912
  0.2222762749941884  0.2778048041637630  0.1243077274078735
  0.7222081069796649  0.7777746285462689  0.1251218932431865
  0.5555285291695724  0.2778048041637630  0.1243077274078735
  0.8888839714057371  0.2777679428114851  0.1250340770156643
  0.0555633273128531  0.4444290627254605  0.6248733787106086
  0.2222395794536204  0.9444791589072429  0.6249011859389912
  0.5555653905218518  0.9444493619275915  0.6249659229843335
  0.3889981114940153  0.4443352218393133  0.6280272632413338
  0.8888839714057371  0.9444493619275915  0.6249659229843335
  0.0555633273128529  0.9444675979207188  0.1251266212893912
  0.7221354113815781  0.4444127310027016  0.6250979104798658
  0.3889042706078681  0.9444675979207188  0.1251266212893912
  0.2222773196211262  0.4444127310027016  0.1249020895201336
  0.2222395794536204  0.6110937538797141  0.1250988140610108
  0.5553371103452980  0.4443352218393133  0.1219727367586723
  0.7222233901203791  0.9444467802407609  0.1249967528412170
  0.8888657354126098  0.4444290627254605  0.1251266212893912
  0.0555508326498167  0.6111016652996322  0.6249929645668045
  0.2222773196211262  0.1111979219517611  0.6250979104798658
  0.7221354113815781  0.6110560137122072  0.6250979104798658
  0.5555665215666012  0.1111252263536705  0.6248781067568128
  0.8888865530925677  0.1111099432129544  0.6250032471587817
 
  0.00000000E+00  0.00000000E+00  0.00000000E+00
  0.00000000E+00  0.00000000E+00  0.00000000E+00
  0.00000000E+00  0.00000000E+00  0.00000000E+00
  0.00000000E+00  0.00000000E+00  0.00000000E+00
  0.00000000E+00  0.00000000E+00  0.00000000E+00
  0.00000000E+00  0.00000000E+00  0.00000000E+00
  0.00000000E+00  0.00000000E+00  0.00000000E+00
  0.00000000E+00  0.00000000E+00  0.00000000E+00
  0.00000000E+00  0.00000000E+00  0.00000000E+00
  0.00000000E+00  0.00000000E+00  0.00000000E+00
  0.00000000E+00  0.00000000E+00  0.00000000E+00
  0.00000000E+00  0.00000000E+00  0.00000000E+00
  0.00000000E+00  0.00000000E+00  0.00000000E+00
  0.00000000E+00  0.00000000E+00  0.00000000E+00
  0.00000000E+00  0.00000000E+00  0.00000000E+00
  0.00000000E+00  0.00000000E+00  0.00000000E+00
  0.00000000E+00  0.00000000E+00  0.00000000E+00
  0.00000000E+00  0.00000000E+00  0.00000000E+00
  0.00000000E+00  0.00000000E+00  0.00000000E+00
  0.00000000E+00  0.00000000E+00  0.00000000E+00
  0.00000000E+00  0.00000000E+00  0.00000000E+00
  0.00000000E+00  0.00000000E+00  0.00000000E+00
  0.00000000E+00  0.00000000E+00  0.00000000E+00
  0.00000000E+00  0.00000000E+00  0.00000000E+00
  0.00000000E+00  0.00000000E+00  0.00000000E+00
  0.00000000E+00  0.00000000E+00  0.00000000E+00
  0.00000000E+00  0.00000000E+00  0.00000000E+00
  0.00000000E+00  0.00000000E+00  0.00000000E+00
  0.00000000E+00  0.00000000E+00  0.00000000E+00
  0.00000000E+00  0.00000000E+00  0.00000000E+00
  0.00000000E+00  0.00000000E+00  0.00000000E+00
  0.00000000E+00  0.00000000E+00  0.00000000E+00
  0.00000000E+00  0.00000000E+00  0.00000000E+00
  0.00000000E+00  0.00000000E+00  0.00000000E+00
  0.00000000E+00  0.00000000E+00  0.00000000E+00
  0.00000000E+00  0.00000000E+00  0.00000000E+00
  0.00000000E+00  0.00000000E+00  0.00000000E+00
  0.00000000E+00  0.00000000E+00  0.00000000E+00
  0.00000000E+00  0.00000000E+00  0.00000000E+00
  0.00000000E+00  0.00000000E+00  0.00000000E+00
  0.00000000E+00  0.00000000E+00  0.00000000E+00
  0.00000000E+00  0.00000000E+00  0.00000000E+00
  0.00000000E+00  0.00000000E+00  0.00000000E+00
  0.00000000E+00  0.00000000E+00  0.00000000E+00
  0.00000000E+00  0.00000000E+00  0.00000000E+00
  0.00000000E+00  0.00000000E+00  0.00000000E+00
  0.00000000E+00  0.00000000E+00  0.00000000E+00
  0.00000000E+00  0.00000000E+00  0.00000000E+00
  0.00000000E+00  0.00000000E+00  0.00000000E+00
  0.00000000E+00  0.00000000E+00  0.00000000E+00
  0.00000000E+00  0.00000000E+00  0.00000000E+00
  0.00000000E+00  0.00000000E+00  0.00000000E+00
  0.00000000E+00  0.00000000E+00  0.00000000E+00
  0.00000000E+00  0.00000000E+00  0.00000000E+00
  0.00000000E+00  0.00000000E+00  0.00000000E+00
  0.00000000E+00  0.00000000E+00  0.00000000E+00
  0.00000000E+00  0.00000000E+00  0.00000000E+00
  0.00000000E+00  0.00000000E+00  0.00000000E+00
  0.00000000E+00  0.00000000E+00  0.00000000E+00
  0.00000000E+00  0.00000000E+00  0.00000000E+00
  0.00000000E+00  0.00000000E+00  0.00000000E+00
  0.00000000E+00  0.00000000E+00  0.00000000E+00
  0.00000000E+00  0.00000000E+00  0.00000000E+00
  0.00000000E+00  0.00000000E+00  0.00000000E+00
  0.00000000E+00  0.00000000E+00  0.00000000E+00
  0.00000000E+00  0.00000000E+00  0.00000000E+00
  0.00000000E+00  0.00000000E+00  0.00000000E+00
  0.00000000E+00  0.00000000E+00  0.00000000E+00
  0.00000000E+00  0.00000000E+00  0.00000000E+00
  0.00000000E+00  0.00000000E+00  0.00000000E+00
  0.00000000E+00  0.00000000E+00  0.00000000E+00
  0.00000000E+00  0.00000000E+00  0.00000000E+00
  0.00000000E+00  0.00000000E+00  0.00000000E+00
  0.00000000E+00  0.00000000E+00  0.00000000E+00
  0.00000000E+00  0.00000000E+00  0.00000000E+00
  0.00000000E+00  0.00000000E+00  0.00000000E+00
  0.00000000E+00  0.00000000E+00  0.00000000E+00
  0.00000000E+00  0.00000000E+00  0.00000000E+00
  0.00000000E+00  0.00000000E+00  0.00000000E+00
  0.00000000E+00  0.00000000E+00  0.00000000E+00
  0.00000000E+00  0.00000000E+00  0.00000000E+00
  0.00000000E+00  0.00000000E+00  0.00000000E+00
  0.00000000E+00  0.00000000E+00  0.00000000E+00
  0.00000000E+00  0.00000000E+00  0.00000000E+00
  0.00000000E+00  0.00000000E+00  0.00000000E+00
  0.00000000E+00  0.00000000E+00  0.00000000E+00
  0.00000000E+00  0.00000000E+00  0.00000000E+00
  0.00000000E+00  0.00000000E+00  0.00000000E+00
  0.00000000E+00  0.00000000E+00  0.00000000E+00
  0.00000000E+00  0.00000000E+00  0.00000000E+00
  0.00000000E+00  0.00000000E+00  0.00000000E+00
  0.00000000E+00  0.00000000E+00  0.00000000E+00
  0.00000000E+00  0.00000000E+00  0.00000000E+00
  0.00000000E+00  0.00000000E+00  0.00000000E+00
  0.00000000E+00  0.00000000E+00  0.00000000E+00
  0.00000000E+00  0.00000000E+00  0.00000000E+00
  0.00000000E+00  0.00000000E+00  0.00000000E+00
  0.00000000E+00  0.00000000E+00  0.00000000E+00
  0.00000000E+00  0.00000000E+00  0.00000000E+00
  0.00000000E+00  0.00000000E+00  0.00000000E+00
  0.00000000E+00  0.00000000E+00  0.00000000E+00
  0.00000000E+00  0.00000000E+00  0.00000000E+00
  0.00000000E+00  0.00000000E+00  0.00000000E+00
  0.00000000E+00  0.00000000E+00  0.00000000E+00
  0.00000000E+00  0.00000000E+00  0.00000000E+00
  0.00000000E+00  0.00000000E+00  0.00000000E+00
  0.00000000E+00  0.00000000E+00  0.00000000E+00
  0.00000000E+00  0.00000000E+00  0.00000000E+00
  0.00000000E+00  0.00000000E+00  0.00000000E+00
  0.00000000E+00  0.00000000E+00  0.00000000E+00
  0.00000000E+00  0.00000000E+00  0.00000000E+00
  0.00000000E+00  0.00000000E+00  0.00000000E+00
  0.00000000E+00  0.00000000E+00  0.00000000E+00
  0.00000000E+00  0.00000000E+00  0.00000000E+00
  0.00000000E+00  0.00000000E+00  0.00000000E+00
  0.00000000E+00  0.00000000E+00  0.00000000E+00
  0.00000000E+00  0.00000000E+00  0.00000000E+00
  0.00000000E+00  0.00000000E+00  0.00000000E+00
  0.00000000E+00  0.00000000E+00  0.00000000E+00
  0.00000000E+00  0.00000000E+00  0.00000000E+00
  0.00000000E+00  0.00000000E+00  0.00000000E+00
  0.00000000E+00  0.00000000E+00  0.00000000E+00
  0.00000000E+00  0.00000000E+00  0.00000000E+00
  0.00000000E+00  0.00000000E+00  0.00000000E+00
  0.00000000E+00  0.00000000E+00  0.00000000E+00
  0.00000000E+00  0.00000000E+00  0.00000000E+00
  0.00000000E+00  0.00000000E+00  0.00000000E+00
  0.00000000E+00  0.00000000E+00  0.00000000E+00
  0.00000000E+00  0.00000000E+00  0.00000000E+00
  0.00000000E+00  0.00000000E+00  0.00000000E+00
  0.00000000E+00  0.00000000E+00  0.00000000E+00
  0.00000000E+00  0.00000000E+00  0.00000000E+00
  0.00000000E+00  0.00000000E+00  0.00000000E+00
  0.00000000E+00  0.00000000E+00  0.00000000E+00
  0.00000000E+00  0.00000000E+00  0.00000000E+00
  0.00000000E+00  0.00000000E+00  0.00000000E+00
  0.00000000E+00  0.00000000E+00  0.00000000E+00
  0.00000000E+00  0.00000000E+00  0.00000000E+00
  0.00000000E+00  0.00000000E+00  0.00000000E+00
  0.00000000E+00  0.00000000E+00  0.00000000E+00
  0.00000000E+00  0.00000000E+00  0.00000000E+00
  0.00000000E+00  0.00000000E+00  0.00000000E+00
  0.00000000E+00  0.00000000E+00  0.00000000E+00
  0.00000000E+00  0.00000000E+00  0.00000000E+00
  0.00000000E+00  0.00000000E+00  0.00000000E+00
  0.00000000E+00  0.00000000E+00  0.00000000E+00
  0.00000000E+00  0.00000000E+00  0.00000000E+00
  0.00000000E+00  0.00000000E+00  0.00000000E+00
  0.00000000E+00  0.00000000E+00  0.00000000E+00
  0.00000000E+00  0.00000000E+00  0.00000000E+00
  0.00000000E+00  0.00000000E+00  0.00000000E+00
  0.00000000E+00  0.00000000E+00  0.00000000E+00
  0.00000000E+00  0.00000000E+00  0.00000000E+00
  0.00000000E+00  0.00000000E+00  0.00000000E+00
  0.00000000E+00  0.00000000E+00  0.00000000E+00
  0.00000000E+00  0.00000000E+00  0.00000000E+00
  0.00000000E+00  0.00000000E+00  0.00000000E+00
  0.00000000E+00  0.00000000E+00  0.00000000E+00
  0.00000000E+00  0.00000000E+00  0.00000000E+00
  0.00000000E+00  0.00000000E+00  0.00000000E+00
  0.00000000E+00  0.00000000E+00  0.00000000E+00
  0.00000000E+00  0.00000000E+00  0.00000000E+00
  0.00000000E+00  0.00000000E+00  0.00000000E+00
  0.00000000E+00  0.00000000E+00  0.00000000E+00
  0.00000000E+00  0.00000000E+00  0.00000000E+00
  0.00000000E+00  0.00000000E+00  0.00000000E+00
  0.00000000E+00  0.00000000E+00  0.00000000E+00
  0.00000000E+00  0.00000000E+00  0.00000000E+00
  0.00000000E+00  0.00000000E+00  0.00000000E+00
  0.00000000E+00  0.00000000E+00  0.00000000E+00
  0.00000000E+00  0.00000000E+00  0.00000000E+00
  0.00000000E+00  0.00000000E+00  0.00000000E+00
  0.00000000E+00  0.00000000E+00  0.00000000E+00
  0.00000000E+00  0.00000000E+00  0.00000000E+00
  0.00000000E+00  0.00000000E+00  0.00000000E+00
  0.00000000E+00  0.00000000E+00  0.00000000E+00
  0.00000000E+00  0.00000000E+00  0.00000000E+00
  0.00000000E+00  0.00000000E+00  0.00000000E+00
  0.00000000E+00  0.00000000E+00  0.00000000E+00
  0.00000000E+00  0.00000000E+00  0.00000000E+00
  0.00000000E+00  0.00000000E+00  0.00000000E+00
  0.00000000E+00  0.00000000E+00  0.00000000E+00
  0.00000000E+00  0.00000000E+00  0.00000000E+00
  0.00000000E+00  0.00000000E+00  0.00000000E+00
  0.00000000E+00  0.00000000E+00  0.00000000E+00
  0.00000000E+00  0.00000000E+00  0.00000000E+00
  0.00000000E+00  0.00000000E+00  0.00000000E+00
  0.00000000E+00  0.00000000E+00  0.00000000E+00
  0.00000000E+00  0.00000000E+00  0.00000000E+00
  0.00000000E+00  0.00000000E+00  0.00000000E+00
  0.00000000E+00  0.00000000E+00  0.00000000E+00
  0.00000000E+00  0.00000000E+00  0.00000000E+00
  0.00000000E+00  0.00000000E+00  0.00000000E+00
  0.00000000E+00  0.00000000E+00  0.00000000E+00
  0.00000000E+00  0.00000000E+00  0.00000000E+00
  0.00000000E+00  0.00000000E+00  0.00000000E+00
  0.00000000E+00  0.00000000E+00  0.00000000E+00
  0.00000000E+00  0.00000000E+00  0.00000000E+00
  0.00000000E+00  0.00000000E+00  0.00000000E+00
  0.00000000E+00  0.00000000E+00  0.00000000E+00
  0.00000000E+00  0.00000000E+00  0.00000000E+00
  0.00000000E+00  0.00000000E+00  0.00000000E+00
  0.00000000E+00  0.00000000E+00  0.00000000E+00
  0.00000000E+00  0.00000000E+00  0.00000000E+00
  0.00000000E+00  0.00000000E+00  0.00000000E+00
  0.00000000E+00  0.00000000E+00  0.00000000E+00
  0.00000000E+00  0.00000000E+00  0.00000000E+00
  0.00000000E+00  0.00000000E+00  0.00000000E+00
  0.00000000E+00  0.00000000E+00  0.00000000E+00
  0.00000000E+00  0.00000000E+00  0.00000000E+00
  0.00000000E+00  0.00000000E+00  0.00000000E+00
  0.00000000E+00  0.00000000E+00  0.00000000E+00
  0.00000000E+00  0.00000000E+00  0.00000000E+00
  0.00000000E+00  0.00000000E+00  0.00000000E+00
  0.00000000E+00  0.00000000E+00  0.00000000E+00
  0.00000000E+00  0.00000000E+00  0.00000000E+00
  0.00000000E+00  0.00000000E+00  0.00000000E+00
  0.00000000E+00  0.00000000E+00  0.00000000E+00
  0.00000000E+00  0.00000000E+00  0.00000000E+00
  0.00000000E+00  0.00000000E+00  0.00000000E+00
  0.00000000E+00  0.00000000E+00  0.00000000E+00
  0.00000000E+00  0.00000000E+00  0.00000000E+00
  0.00000000E+00  0.00000000E+00  0.00000000E+00
  0.00000000E+00  0.00000000E+00  0.00000000E+00
  0.00000000E+00  0.00000000E+00  0.00000000E+00
  0.00000000E+00  0.00000000E+00  0.00000000E+00
  0.00000000E+00  0.00000000E+00  0.00000000E+00
  0.00000000E+00  0.00000000E+00  0.00000000E+00
  0.00000000E+00  0.00000000E+00  0.00000000E+00
  0.00000000E+00  0.00000000E+00  0.00000000E+00
  0.00000000E+00  0.00000000E+00  0.00000000E+00
  0.00000000E+00  0.00000000E+00  0.00000000E+00
  0.00000000E+00  0.00000000E+00  0.00000000E+00
  0.00000000E+00  0.00000000E+00  0.00000000E+00
  0.00000000E+00  0.00000000E+00  0.00000000E+00
  0.00000000E+00  0.00000000E+00  0.00000000E+00
  0.00000000E+00  0.00000000E+00  0.00000000E+00
  0.00000000E+00  0.00000000E+00  0.00000000E+00
  0.00000000E+00  0.00000000E+00  0.00000000E+00
  0.00000000E+00  0.00000000E+00  0.00000000E+00
  0.00000000E+00  0.00000000E+00  0.00000000E+00
  0.00000000E+00  0.00000000E+00  0.00000000E+00
  0.00000000E+00  0.00000000E+00  0.00000000E+00
  0.00000000E+00  0.00000000E+00  0.00000000E+00
  0.00000000E+00  0.00000000E+00  0.00000000E+00
  0.00000000E+00  0.00000000E+00  0.00000000E+00
  0.00000000E+00  0.00000000E+00  0.00000000E+00