 B P N 
 1.0
 14.936314146199660   0.000000000000000   0.000000000000000
 -7.468157073099825  12.935227489513863   0.000000000000000
  0.000000000000001   0.000000000000001  13.341276283792837
 B P N 
 143   1 144
Cartesian
  1.227495456617392   0.691670238989746   5.002978606422314 
  5.027943738745247   7.252042659670474   5.002978606422314 
  6.240661616482469   0.691670238989746   5.002978606422314 
  9.966517500008152   7.188948107091949   5.002978606422314 
 11.202235609649751   0.718623749417456   5.002978606422314 
 -3.734078536549858   9.342108742426666  11.673616748318732 
  1.244699635369712   9.342010612011579  11.673616748318732 
  2.489587764151785   2.874625083816636  11.673616748318732 
  6.223457437730083   9.342010612011579  11.673616748318732 
  7.467982118843154   2.874596007556979  11.673616748318732 
 12.446990641140458   2.874543612143420  11.673616748318732 
 -1.251527673100586   9.348525785227940   5.002978606422314 
 -0.008911211781330   2.869350107148944   5.002978606422314 
  5.011174148747040   2.799007904874034   5.002978606422314 
  3.734078536550010   9.352398523468226   5.002978606422314 
  8.719684746200439   9.348525785227940   5.002978606422314 
  9.961158838618022   2.870558011063154   5.002978606422314 
 -4.978766232824264  11.498001920925285  11.673616748318732 
 -0.000012759858430  11.497972623771199  11.673616748318732 
  1.244906539983820   5.030476203302594  11.673616748318732 
  6.223250533116136   5.030476203302594  11.673616748318732 
  4.978782390448798  11.497901828808780  11.673616748318732 
 11.202235609649792   5.030380979737453  11.673616748318732 
 -1.276633964717762   5.028949625470315   5.002978606422314 
 -2.487245782742144  11.488852334960102   5.002978606422314 
  2.490987184206426  11.503080096348182   5.002978606422314 
  7.465395535009836  11.499574365438582   5.002978606422314 
  8.744791037817700   5.028949625470315   5.002978606422314 
  0.000043769483445   7.186212223851346  11.673616748318732 
  1.244774434022479   0.718678694810256  11.673616748318732 
  4.978759760717946   7.185997450646911  11.673616748318732 
  6.223382639077354   0.718678694810256  11.673616748318732 
  9.957521197361505   7.186230988425846  11.673616748318732 
 -2.498360426908271   7.188948107091949   5.002978606422314 
 11.202235609649751   0.718623749417457  11.673616748318732 
  3.734078536549863   0.686532391939939   5.002978606422314 
  2.440213334354575   7.252042659670474   5.002978606422314 
  7.495949003917432   7.202283172913094   5.002978606422314 
  8.718067486274512   0.717460630354831   5.002978606422314 
  2.489397312381893   7.185997450646911  11.673616748318732 
 13.686403733024846   0.717460630354831   5.002978606422314 
 -1.244676427987379   9.342093317928967  11.673616748318732 
  0.000174954256815   2.874596007556979  11.673616748318732 
  4.978569308948049   2.874625083816636  11.673616748318732 
  3.734078536550040   9.341906722652135  11.673616748318732 
  8.712833501087115   9.342093317928967  11.673616748318732 
  9.957480578159078   2.874543612143420  11.673616748318732 
 -3.734078536549858   9.342108742426664   5.002978606422314 
  1.229949115214764   9.370478873306002   5.002978606422314 
  2.456982924352823   2.799007904874034   5.002978606422314 
  6.238207957885148   9.370478873306002   5.002978606422314 
  7.477068284881297   2.869350107148944   5.002978606422314 
 12.443312380681427   2.870558011063154   5.002978606422314 
 -1.244604467157682   5.030409430944308  11.673616748318732 
 -2.489390840275525  11.498001920925285  11.673616748318732 
  2.489374682651162  11.497901828808780  11.673616748318732 
  3.734078536549918   5.030366245922021  11.673616748318732 
  7.468169832958361  11.497972623771199  11.673616748318732 
 -4.980911290357542  11.488852334960102   5.002978606422314 
  8.712761540257562   5.030409430944308  11.673616748318732 
  0.002761538089959  11.499574365438582   5.002978606422314 
  1.163117722157540   5.040048173221659   5.002978606422314 
 -0.027791930817477   7.202283172913094   5.002978606422314 
  6.305039350942430   5.040048173221659   5.002978606422314 
  4.977169888893356  11.503080096348182   5.002978606422314 
 11.202235609649724   5.027177496402776   5.002978606422314 
 -2.489364124261727   7.186230988425846  11.673616748318732 
  3.734078536549916   0.718674290063556  11.673616748318732 
  7.468113303616377   7.186212223851346  11.673616748318732 
  8.712776724260230   0.718653296813918  11.673616748318732 
 13.691694495039245   0.718653296813918  11.673616748318732 
 -0.000058376937402   1.437430082708456   1.669285746908590 
  3.734078536549911   7.904162058689986   1.658423735558854 
  4.978596747001390   1.438370416807236   1.666353284711134 
  8.712461039025058   7.904636723855096   1.668977841162776 
  9.957568930273748   1.437232391806527   1.667616214231643 
 -4.978877196272259  10.060793583704289   8.338203815712491 
  0.000287786891011  10.060631962395489   8.336608387765347 
  1.245298357403538   3.593468339538124   8.347533477285774 
  4.978584071325041  10.060691755818134   8.336671465936037 
  6.222858715696251   3.593468339538124   8.347533477285774 
 11.202235609649666   3.592991529560836   8.337843046489596 
 -2.489279876827561  10.060793583704289   1.667753397132122 
 -1.244563911712515   3.592976899239642   1.669285746908590 
  3.734078536549887   3.595944385575843   1.627271980187778 
  2.489573001774755  10.060691755818134   1.669285746908590 
  7.467869286208782  10.060631962395489   1.669348825079280 
  8.712720984812346   3.592976899239642   1.669285746908590 
 -6.223521059972329  12.216903235579212   8.336608387765347 
 -1.244636013127459  12.216903235579212   8.336608387765347 
  0.001059793022929   5.748579774756082   8.339603928133494 
  4.976324307353472   5.747577176095123   8.378685232656929 
  3.734078536549897  12.216633954153151   8.338340998612971 
  9.957311809631253   5.748791029305266   8.336608387765347 
 -2.489154736531389   5.748791029305265   1.669348825079280 
 -3.734078536549932  12.217052779569903   1.668977841162776 
  1.244803019126314  12.216667348859616   1.668114166355005 
  2.491832765746363   5.747577176095122   1.627271980187778 
  6.223354053973482  12.216667348859616   1.668114166355005 
  7.467097280076936   5.748579774756081   1.666353284711134 
 -1.244303965925341   7.904636723855097   8.336979371681879 
 -0.000058376937402   1.437430082708457   8.336671465936037 
  3.734078536549911   7.904162058689987   8.347533477285774 
  4.978596747001391   1.438370416807237   8.339603928133494 
  8.712461039025058   7.904636723855097   8.336979371681879 
 -3.734078536549896   7.904739059871499   1.667753397132122 
  9.957568930273748   1.437232391806528   8.338340998612971 
  2.489560326098321   1.438370416807236   1.666353284711134 
  1.245578003474434   7.904148546202900   1.666353284711134 
  6.222579069625373   7.904148546202900   1.666353284711134 
  7.468215450037174   1.437430082708456   1.669285746908590 
  1.245578003474435   7.904148546202901   8.339603928133494 
 12.446902289025635   1.437232391806527   1.667616214231643 
 -2.489279876827560  10.060793583704289   8.338203815712491 
 -1.244563911712515   3.592976899239643   8.336671465936037 
  3.734078536549887   3.595944385575844   8.378685232656929 
  2.489573001774755  10.060691755818134   8.336671465936037 
  7.467869286208783  10.060631962395489   8.336608387765347 
  8.712720984812346   3.592976899239643   8.336671465936037 
 -4.978877196272260  10.060793583704289   1.667753397132122 
  0.000287786891010  10.060631962395489   1.669348825079280 
  1.245298357403537   3.593468339538123   1.658423735558854 
  4.978584071325040  10.060691755818134   1.669285746908590 
  6.222858715696250   3.593468339538123   1.658423735558854 
 11.202235609649666   3.592991529560835   1.668114166355005 
 -2.489154736531388   5.748791029305266   8.336608387765347 
 -3.734078536549931  12.217052779569903   8.336979371681879 
  1.244803019126314  12.216667348859616   8.337843046489596 
  2.491832765746364   5.747577176095123   8.378685232656929 
  6.223354053973483  12.216667348859616   8.337843046489596 
 -6.223521059972330  12.216903235579212   1.669348825079280 
  7.467097280076937   5.748579774756082   8.339603928133494 
 -1.244636013127460  12.216903235579212   1.669348825079280 
  0.001059793022929   5.748579774756081   1.666353284711134 
 -1.244303965925342   7.904636723855096   1.668977841162776 
  4.976324307353471   5.747577176095122   1.627271980187778 
  3.734078536549896  12.216633954153151   1.667616214231643 
  9.957311809631253   5.748791029305265   1.669348825079280 
 -3.734078536549895   7.904739059871500   8.338203815712491 
  2.489560326098322   1.438370416807237   8.339603928133494 
  6.222579069625374   7.904148546202901   8.339603928133494 
  7.468215450037175   1.437430082708457   8.336671465936037 
 12.446902289025635   1.437232391806528   8.338340998612971 
  3.734078536549917   5.030366245922021   5.002978606422314 
  1.244755401218609   0.718866513234656   1.671057301439048 
  4.978347692495583   7.185881337193718   1.654384639464204 
  6.223401671881192   0.718866513234656   1.671057301439048 
  9.957454525528597   7.186177171591740   1.669054859930525 
 11.202235609649751   0.718623749417456   1.666961702866590 
 -3.734078536549858   9.342108742426664   8.338436786382838 
  1.244871807298439   9.341933185691046   8.334899911405579 
  2.489482287240745   2.875040002091811   8.351572573380411 
  6.223285265801340   9.341933185691046   8.334899911405579 
  7.468285047461961   2.874421111637364   8.336833488148962 
 12.446864368575039   2.874470463444061   8.337465313910096 
 -1.244596485325411   9.342062486844926   1.669054859930525 
 -0.000127974361978   2.874421111637363   1.669123724695627 
  4.978674785859058   2.875040002091811   1.654384639464204 
  3.734078536550016   9.342256514491400   1.669123724695627 
  8.712753558425216   9.342062486844926   1.669054859930525 
  9.957606850724435   2.874470463444061   1.668491898934625 
 -4.978779503653223  11.498086568843350   8.336902352914143 
  0.000031827179923  11.497998366109863   8.337051904674453 
  1.245213131295073   5.030177398480573   8.351572573380411 
  6.222943941804746   5.030177398480573   8.351572573380411 
  4.978782178099540  11.498047758407923   8.337465313910096 
 11.202235609649724   5.030329495060213   8.337051904674453 
 -1.244451328032795   5.030299038840463   1.671057301439048 
 -2.489377569446507  11.498086568843350   1.669054859930525 
  2.489374895000360  11.498047758407923   1.668491898934625 
  3.734078536549917   5.030366245922020   1.570796276810376 
  7.468125245919872  11.497998366109863   1.668905308170187 
  8.712608401132687   5.030299038840463   1.671057301439048 
  0.000286537393068   7.186072061733383   8.336590497409867 
  1.244755401218610   0.718866513234657   8.334899911405579 
  4.978347692495584   7.185881337193718   8.351572573380411 
  6.223401671881192   0.718866513234657   8.334899911405579 
  9.957454525528597   7.186177171591741   8.336902352914143 
 -2.489297452428747   7.186177171591740   1.669054859930525 
 11.202235609649751   0.718623749417456   8.338995509978025 
  3.734078536549923   0.718954614299493   1.669366715434694 
  2.489809380604223   7.185881337193718   1.654384639464204 
  7.467870535706739   7.186072061733382   1.669366715434694 
  8.712903209174817   0.718580515914208   1.668491898934625 
  2.489809380604223   7.185881337193718   8.351572573380411 
 13.691568010124600   0.718580515914208   1.668491898934625 
 -1.244596485325410   9.342062486844926   8.336902352914143 
 -0.000127974361977   2.874421111637364   8.336833488148962 
  4.978674785859059   2.875040002091811   8.351572573380411 
  3.734078536550017   9.342256514491400   8.336833488148962 
  8.712753558425216   9.342062486844926   8.336902352914143 
  9.957606850724435   2.874470463444061   8.337465313910096 
 -3.734078536549859   9.342108742426664   1.667520426461817 
  1.244871807298439   9.341933185691046   1.671057301439048 
  2.489482287240745   2.875040002091811   1.654384639464204 
  6.223285265801339   9.341933185691046   1.671057301439048 
  7.468285047461960   2.874421111637363   1.669123724695627 
 12.446864368575039   2.874470463444061   1.668491898934625 
 -1.244451328032794   5.030299038840464   8.334899911405579 
 -2.489377569446507  11.498086568843350   8.336902352914143 
  2.489374895000360  11.498047758407923   8.337465313910096 
  3.734078536549917   5.030366245922021   8.435160936034226 
  7.468125245919873  11.497998366109863   8.337051904674453 
 -4.978779503653223  11.498086568843350   1.669054859930525 
  8.712608401132687   5.030299038840464   8.334899911405579 
  0.000031827179923  11.497998366109863   1.668905308170187 
  1.245213131295073   5.030177398480572   1.654384639464204 
  0.000286537393068   7.186072061733382   1.669366715434694 
  6.222943941804745   5.030177398480572   1.654384639464204 
  4.978782178099539  11.498047758407923   1.668491898934625 
 11.202235609649724   5.030329495060212   1.668905308170187 
 -2.489297452428746   7.186177171591741   8.336902352914143 
  3.734078536549923   0.718954614299494   8.336590497409867 
  7.467870535706740   7.186072061733383   8.336590497409867 
  8.712903209174817   0.718580515914209   8.337465313910096 
 13.691568010124600   0.718580515914209   8.337465313910096 
 -0.006259990513719   1.431339434367650   5.002978606422314 
  3.734078536550002   7.913558769961921   5.002978606422314 
  4.995290169823860   1.382625287489883   5.002978606422314 
  8.730573416840656   7.915093910062614   5.002978606422314 
  9.960085528434441   1.435779433181045   5.002978606422314 
 -4.978761591305750  10.060726839145749  11.673616748318732 
 -0.000039374241457  10.060764061138668  11.673616748318732 
  1.244645837870369   3.593091607209988  11.673616748318732 
  4.978816391051772  10.060741303761439  11.673616748318732 
  6.223511235229465   3.593091607209988  11.673616748318732 
 11.202235609649680   3.593161297728898  11.673616748318732 
 -2.492726304727135  10.058803787628754   5.002978606422314 
 -1.252939374689329   3.590651468508501   5.002978606422314 
  3.734078536549872   3.404675788774937   5.002978606422314 
  2.487399152374315  10.069107834890028   5.002978606422314 
  7.478489769911083  10.072323517305618   5.002978606422314 
  8.721096447789133   3.590651468508501   5.002978606422314 
 -6.223471880273511  12.216553856355931  11.673616748318732 
 -1.244685192826382  12.216553856355931  11.673616748318732 
 -0.000123328913717   5.749053795507186  11.673616748318732 
  4.979077605676319   5.749166793622987  11.673616748318732 
  3.734078536549950  12.216586473495331  11.673616748318732 
  9.957589791064709   5.749008309785524  11.673616748318732 
 -2.504590161944392   5.752142860536898   5.002978606422314 
 -3.734078536549909  12.196138407154878   5.002978606422314 
  1.246653497884157  12.217735723268543   5.002978606422314 
  2.326189301970547   5.843211474495602   5.002978606422314 
  6.221503575215714  12.217735723268543   5.002978606422314 
  7.523720689614127   5.761995411174386   5.002978606422314 
 -1.244780697753748   7.904911965104567  11.673616748318732 
  0.000014873148356   1.437204113951629  11.673616748318732 
  3.734078536549933   7.904915523346270  11.673616748318732 
  4.978777793957336   1.437108792778748  11.673616748318732 
  8.712937770853525   7.904911965104567  11.673616748318732 
 -3.734078536549926   7.908718652022677   5.002978606422314 
  9.957527810817929   1.437256132135458  11.673616748318732 
  2.472866903275868   1.382625287489883   5.002978606422314 
  1.205648016759578   7.946478039101977   5.002978606422314 
  6.262509056340079   7.946478039101977   5.002978606422314 
  7.474417063613520   1.431339434367650   5.002978606422314 
  1.244575928493681   7.904936149480324  11.673616748318732 
 12.444385690864960   1.435779433181045   5.002978606422314 
 -2.489395481794055  10.060726839145749  11.673616748318732 
 -1.244722981353503   3.593153320053140  11.673616748318732 
  3.734078536549887   3.592765150520143  11.673616748318732 
  2.489340682048023  10.060741303761439  11.673616748318732 
  7.468196447341073  10.060764061138668  11.673616748318732 
  8.712880054453322   3.593153320053140  11.673616748318732 
 -4.975430768372700  10.058803787628754   5.002978606422314 
 -0.010332696811319  10.072323517305618   5.002978606422314 
  1.237160566730044   3.588769983902155   5.002978606422314 
  4.980757920725538  10.069107834890028   5.002978606422314 
  6.230996506369864   3.588769983902155   5.002978606422314 
 11.202235609649694   3.590854780742930   5.002978606422314 
 -2.489432717964948   5.749008309785524  11.673616748318732 
 -3.734078536549895  12.216502297070924  11.673616748318732 
  1.244655995580079  12.216582464775561  11.673616748318732 
  2.489079467423517   5.749166793622987  11.673616748318732 
  6.223501077519807  12.216582464775561  11.673616748318732 
 -6.228336001683018  12.201859849437476   5.002978606422314 
  7.468280402013614   5.749053795507186  11.673616748318732 
 -1.239821071416727  12.201859849437476   5.002978606422314 
 -0.055563616514367   5.761995411174386   5.002978606422314 
 -1.262416343740941   7.915093910062614   5.002978606422314 
  5.141967771129289   5.843211474495602   5.002978606422314 
  3.734078536549941  12.219539871404141   5.002978606422314 
  9.972747235044302   5.752142860536898   5.002978606422314 
 -3.734078536549911   7.904872548988586  11.673616748318732 
  2.489379279142392   1.437108792778748  11.673616748318732 
  6.223581144606067   7.904936149480324  11.673616748318732 
  7.468142199951432   1.437204113951629  11.673616748318732 
 12.446943408481486   1.437256132135458  11.673616748318732 
Generated by cif2cell 2.0.0.  :  Failed to get author information, No journal information. Species order: B P N 
 1.0
 14.936314146199660   0.000000000000000   0.000000000000000
 -7.468157073099825  12.935227489513863   0.000000000000000
  0.000000000000001   0.000000000000001  13.341276283792837
 B P N 
 143   1 144
Cartesian
  1.227495456617392   0.691670238989746   5.002978606422314 
  5.027943738745247   7.252042659670474   5.002978606422314 
  6.240661616482469   0.691670238989746   5.002978606422314 
  9.966517500008152   7.188948107091949   5.002978606422314 
 11.202235609649751   0.718623749417456   5.002978606422314 
 -3.734078536549858   9.342108742426666  11.673616748318732 
  1.244699635369712   9.342010612011579  11.673616748318732 
  2.489587764151785   2.874625083816636  11.673616748318732 
  6.223457437730083   9.342010612011579  11.673616748318732 
  7.467982118843154   2.874596007556979  11.673616748318732 
 12.446990641140458   2.874543612143420  11.673616748318732 
 -1.251527673100586   9.348525785227940   5.002978606422314 
 -0.008911211781330   2.869350107148944   5.002978606422314 
  5.011174148747040   2.799007904874034   5.002978606422314 
  3.734078536550010   9.352398523468226   5.002978606422314 
  8.719684746200439   9.348525785227940   5.002978606422314 
  9.961158838618022   2.870558011063154   5.002978606422314 
 -4.978766232824264  11.498001920925285  11.673616748318732 
 -0.000012759858430  11.497972623771199  11.673616748318732 
  1.244906539983820   5.030476203302594  11.673616748318732 
  6.223250533116136   5.030476203302594  11.673616748318732 
  4.978782390448798  11.497901828808780  11.673616748318732 
 11.202235609649792   5.030380979737453  11.673616748318732 
 -1.276633964717762   5.028949625470315   5.002978606422314 
 -2.487245782742144  11.488852334960102   5.002978606422314 
  2.490987184206426  11.503080096348182   5.002978606422314 
  7.465395535009836  11.499574365438582   5.002978606422314 
  8.744791037817700   5.028949625470315   5.002978606422314 
  0.000043769483445   7.186212223851346  11.673616748318732 
  1.244774434022479   0.718678694810256  11.673616748318732 
  4.978759760717946   7.185997450646911  11.673616748318732 
  6.223382639077354   0.718678694810256  11.673616748318732 
  9.957521197361505   7.186230988425846  11.673616748318732 
 -2.498360426908271   7.188948107091949   5.002978606422314 
 11.202235609649751   0.718623749417457  11.673616748318732 
  3.734078536549863   0.686532391939939   5.002978606422314 
  2.440213334354575   7.252042659670474   5.002978606422314 
  7.495949003917432   7.202283172913094   5.002978606422314 
  8.718067486274512   0.717460630354831   5.002978606422314 
  2.489397312381893   7.185997450646911  11.673616748318732 
 13.686403733024846   0.717460630354831   5.002978606422314 
 -1.244676427987379   9.342093317928967  11.673616748318732 
  0.000174954256815   2.874596007556979  11.673616748318732 
  4.978569308948049   2.874625083816636  11.673616748318732 
  3.734078536550040   9.341906722652135  11.673616748318732 
  8.712833501087115   9.342093317928967  11.673616748318732 
  9.957480578159078   2.874543612143420  11.673616748318732 
 -3.734078536549858   9.342108742426664   5.002978606422314 
  1.229949115214764   9.370478873306002   5.002978606422314 
  2.456982924352823   2.799007904874034   5.002978606422314 
  6.238207957885148   9.370478873306002   5.002978606422314 
  7.477068284881297   2.869350107148944   5.002978606422314 
 12.443312380681427   2.870558011063154   5.002978606422314 
 -1.244604467157682   5.030409430944308  11.673616748318732 
 -2.489390840275525  11.498001920925285  11.673616748318732 
  2.489374682651162  11.497901828808780  11.673616748318732 
  3.734078536549918   5.030366245922021  11.673616748318732 
  7.468169832958361  11.497972623771199  11.673616748318732 
 -4.980911290357542  11.488852334960102   5.002978606422314 
  8.712761540257562   5.030409430944308  11.673616748318732 
  0.002761538089959  11.499574365438582   5.002978606422314 
  1.163117722157540   5.040048173221659   5.002978606422314 
 -0.027791930817477   7.202283172913094   5.002978606422314 
  6.305039350942430   5.040048173221659   5.002978606422314 
  4.977169888893356  11.503080096348182   5.002978606422314 
 11.202235609649724   5.027177496402776   5.002978606422314 
 -2.489364124261727   7.186230988425846  11.673616748318732 
  3.734078536549916   0.718674290063556  11.673616748318732 
  7.468113303616377   7.186212223851346  11.673616748318732 
  8.712776724260230   0.718653296813918  11.673616748318732 
 13.691694495039245   0.718653296813918  11.673616748318732 
 -0.000058376937402   1.437430082708456   1.669285746908590 
  3.734078536549911   7.904162058689986   1.658423735558854 
  4.978596747001390   1.438370416807236   1.666353284711134 
  8.712461039025058   7.904636723855096   1.668977841162776 
  9.957568930273748   1.437232391806527   1.667616214231643 
 -4.978877196272259  10.060793583704289   8.338203815712491 
  0.000287786891011  10.060631962395489   8.336608387765347 
  1.245298357403538   3.593468339538124   8.347533477285774 
  4.978584071325041  10.060691755818134   8.336671465936037 
  6.222858715696251   3.593468339538124   8.347533477285774 
 11.202235609649666   3.592991529560836   8.337843046489596 
 -2.489279876827561  10.060793583704289   1.667753397132122 
 -1.244563911712515   3.592976899239642   1.669285746908590 
  3.734078536549887   3.595944385575843   1.627271980187778 
  2.489573001774755  10.060691755818134   1.669285746908590 
  7.467869286208782  10.060631962395489   1.669348825079280 
  8.712720984812346   3.592976899239642   1.669285746908590 
 -6.223521059972329  12.216903235579212   8.336608387765347 
 -1.244636013127459  12.216903235579212   8.336608387765347 
  0.001059793022929   5.748579774756082   8.339603928133494 
  4.976324307353472   5.747577176095123   8.378685232656929 
  3.734078536549897  12.216633954153151   8.338340998612971 
  9.957311809631253   5.748791029305266   8.336608387765347 
 -2.489154736531389   5.748791029305265   1.669348825079280 
 -3.734078536549932  12.217052779569903   1.668977841162776 
  1.244803019126314  12.216667348859616   1.668114166355005 
  2.491832765746363   5.747577176095122   1.627271980187778 
  6.223354053973482  12.216667348859616   1.668114166355005 
  7.467097280076936   5.748579774756081   1.666353284711134 
 -1.244303965925341   7.904636723855097   8.336979371681879 
 -0.000058376937402   1.437430082708457   8.336671465936037 
  3.734078536549911   7.904162058689987   8.347533477285774 
  4.978596747001391   1.438370416807237   8.339603928133494 
  8.712461039025058   7.904636723855097   8.336979371681879 
 -3.734078536549896   7.904739059871499   1.667753397132122 
  9.957568930273748   1.437232391806528   8.338340998612971 
  2.489560326098321   1.438370416807236   1.666353284711134 
  1.245578003474434   7.904148546202900   1.666353284711134 
  6.222579069625373   7.904148546202900   1.666353284711134 
  7.468215450037174   1.437430082708456   1.669285746908590 
  1.245578003474435   7.904148546202901   8.339603928133494 
 12.446902289025635   1.437232391806527   1.667616214231643 
 -2.489279876827560  10.060793583704289   8.338203815712491 
 -1.244563911712515   3.592976899239643   8.336671465936037 
  3.734078536549887   3.595944385575844   8.378685232656929 
  2.489573001774755  10.060691755818134   8.336671465936037 
  7.467869286208783  10.060631962395489   8.336608387765347 
  8.712720984812346   3.592976899239643   8.336671465936037 
 -4.978877196272260  10.060793583704289   1.667753397132122 
  0.000287786891010  10.060631962395489   1.669348825079280 
  1.245298357403537   3.593468339538123   1.658423735558854 
  4.978584071325040  10.060691755818134   1.669285746908590 
  6.222858715696250   3.593468339538123   1.658423735558854 
 11.202235609649666   3.592991529560835   1.668114166355005 
 -2.489154736531388   5.748791029305266   8.336608387765347 
 -3.734078536549931  12.217052779569903   8.336979371681879 
  1.244803019126314  12.216667348859616   8.337843046489596 
  2.491832765746364   5.747577176095123   8.378685232656929 
  6.223354053973483  12.216667348859616   8.337843046489596 
 -6.223521059972330  12.216903235579212   1.669348825079280 
  7.467097280076937   5.748579774756082   8.339603928133494 
 -1.244636013127460  12.216903235579212   1.669348825079280 
  0.001059793022929   5.748579774756081   1.666353284711134 
 -1.244303965925342   7.904636723855096   1.668977841162776 
  4.976324307353471   5.747577176095122   1.627271980187778 
  3.734078536549896  12.216633954153151   1.667616214231643 
  9.957311809631253   5.748791029305265   1.669348825079280 
 -3.734078536549895   7.904739059871500   8.338203815712491 
  2.489560326098322   1.438370416807237   8.339603928133494 
  6.222579069625374   7.904148546202901   8.339603928133494 
  7.468215450037175   1.437430082708457   8.336671465936037 
 12.446902289025635   1.437232391806528   8.338340998612971 
  3.734078536549917   5.030366245922021   5.002978606422314 
  1.244755401218609   0.718866513234656   1.671057301439048 
  4.978347692495583   7.185881337193718   1.654384639464204 
  6.223401671881192   0.718866513234656   1.671057301439048 
  9.957454525528597   7.186177171591740   1.669054859930525 
 11.202235609649751   0.718623749417456   1.666961702866590 
 -3.734078536549858   9.342108742426664   8.338436786382838 
  1.244871807298439   9.341933185691046   8.334899911405579 
  2.489482287240745   2.875040002091811   8.351572573380411 
  6.223285265801340   9.341933185691046   8.334899911405579 
  7.468285047461961   2.874421111637364   8.336833488148962 
 12.446864368575039   2.874470463444061   8.337465313910096 
 -1.244596485325411   9.342062486844926   1.669054859930525 
 -0.000127974361978   2.874421111637363   1.669123724695627 
  4.978674785859058   2.875040002091811   1.654384639464204 
  3.734078536550016   9.342256514491400   1.669123724695627 
  8.712753558425216   9.342062486844926   1.669054859930525 
  9.957606850724435   2.874470463444061   1.668491898934625 
 -4.978779503653223  11.498086568843350   8.336902352914143 
  0.000031827179923  11.497998366109863   8.337051904674453 
  1.245213131295073   5.030177398480573   8.351572573380411 
  6.222943941804746   5.030177398480573   8.351572573380411 
  4.978782178099540  11.498047758407923   8.337465313910096 
 11.202235609649724   5.030329495060213   8.337051904674453 
 -1.244451328032795   5.030299038840463   1.671057301439048 
 -2.489377569446507  11.498086568843350   1.669054859930525 
  2.489374895000360  11.498047758407923   1.668491898934625 
  3.734078536549917   5.030366245922020   1.570796276810376 
  7.468125245919872  11.497998366109863   1.668905308170187 
  8.712608401132687   5.030299038840463   1.671057301439048 
  0.000286537393068   7.186072061733383   8.336590497409867 
  1.244755401218610   0.718866513234657   8.334899911405579 
  4.978347692495584   7.185881337193718   8.351572573380411 
  6.223401671881192   0.718866513234657   8.334899911405579 
  9.957454525528597   7.186177171591741   8.336902352914143 
 -2.489297452428747   7.186177171591740   1.669054859930525 
 11.202235609649751   0.718623749417456   8.338995509978025 
  3.734078536549923   0.718954614299493   1.669366715434694 
  2.489809380604223   7.185881337193718   1.654384639464204 
  7.467870535706739   7.186072061733382   1.669366715434694 
  8.712903209174817   0.718580515914208   1.668491898934625 
  2.489809380604223   7.185881337193718   8.351572573380411 
 13.691568010124600   0.718580515914208   1.668491898934625 
 -1.244596485325410   9.342062486844926   8.336902352914143 
 -0.000127974361977   2.874421111637364   8.336833488148962 
  4.978674785859059   2.875040002091811   8.351572573380411 
  3.734078536550017   9.342256514491400   8.336833488148962 
  8.712753558425216   9.342062486844926   8.336902352914143 
  9.957606850724435   2.874470463444061   8.337465313910096 
 -3.734078536549859   9.342108742426664   1.667520426461817 
  1.244871807298439   9.341933185691046   1.671057301439048 