 O B N 
 1.0
 14.936314146199660   0.000000000000000   0.000000000000000
 -7.468157073099825  12.935227489513863   0.000000000000000
  0.000000000000001   0.000000000000001  13.341276283792837
 O B N 
   1 143 143
Cartesian
  5.100933348415019   5.819520239495477   5.002978606422314 
  1.218617236628092   0.702880973104530   5.002978606422314 
  5.043078541051995   7.180070656582159   5.002978606422314 
  6.221070811656118   0.733655311369941   5.002978606422314 
  9.976717260110904   7.194565306124714   5.002978606422314 
 11.185912796321864   0.709199768748676   5.002978606422314 
 -3.734162756070517   9.342060118263742  11.673616748318732 
  1.244662822303496   9.342492171668749  11.673616748318732 
  2.489272779561848   2.874258281318472  11.673616748318732 
  6.223453372828229   9.342264064820151  11.673616748318732 
  7.468469812674511   2.874338302301579  11.673616748318732 
 12.446572084977223   2.874299248408833  11.673616748318732 
 -1.233495030300772   9.343747589958271   5.002978606422314 
 -0.053096076235704   2.843839963762104   5.002978606422314 
  4.990349181639346   2.910831971124698   5.002978606422314 
  3.748630125393578   9.325810514385712   5.002978606422314 
  8.729649263312279   9.354550437073089   5.002978606422314 
  9.945421570793570   2.872666514622947   5.002978606422314 
 -4.978883617256138  11.497793372062613  11.673616748318732 
  0.000129473702670  11.498054742356008  11.673616748318732 
  1.244431387407261   5.030386819895003  11.673616748318732 
  6.223724044303283   5.030391621988311  11.673616748318732 
  4.978646279848909  11.498055579723042  11.673616748318732 
 11.202035628682172   5.030248289431733  11.673616748318732 
 -1.271364294173951   5.015655494361827   5.002978606422314 
 -2.482367499830043  11.506858159356998   5.002978606422314 
  2.487174204326787  11.489074882471069   5.002978606422314 
  7.464732950041052  11.496540105814827   5.002978606422314 
  8.730669829391104   5.038786860086732   5.002978606422314 
 -0.000212638110827   7.186465995407555  11.673616748318732 
  1.244393069303483   0.718298183294120  11.673616748318732 
  4.978923266744649   7.186449814021124  11.673616748318732 
  6.223781275440807   0.718406033931111  11.673616748318732 
  9.957482403985033   7.186191926068507  11.673616748318732 
 -2.480503837152666   7.185848507185437   5.002978606422314 
 11.202106595992396   0.718549263347644  11.673616748318732 
  3.729497663743131   0.728531494520308   5.002978606422314 
  2.526643332928292   7.178095675996879   5.002978606422314 
  7.502754628253008   7.206212401955398   5.002978606422314 
  8.704032125331752   0.721161099853373   5.002978606422314 
  2.489403465656748   7.186691851493792  11.673616748318732 
 13.666065862229836   0.701027666667469   5.002978606422314 
 -1.244750179702668   9.342251370069006  11.673616748318732 
 -0.000457131190426   2.874231072853871  11.673616748318732 
  4.979173754359292   2.874283212285524  11.673616748318732 
  3.734099204167794   9.342457930527162  11.673616748318732 
  8.712780275405150   9.342079253058010  11.673616748318732 
  9.957545675056718   2.874348861449098  11.673616748318732 
 -3.719939888947630   9.350271694425778   5.002978606422314 
  1.256513852062527   9.332520202455767   5.002978606422314 
  2.419859398090433   2.845351683846047   5.002978606422314 
  6.239666648752626   9.353330930768278   5.002978606422314 
  7.461318188001566   2.895246157294172   5.002978606422314 
 12.418912081271198   2.861161380139470   5.002978606422314 
 -1.245124682156579   5.030269415167606  11.673616748318732 
 -2.489290838964712  11.497859023996149  11.673616748318732 
  2.489390089859626  11.498161177158023  11.673616748318732 
  3.734366670253536   5.030532599993368  11.673616748318732 
  7.467954929298917  11.497865780325906  11.673616748318732 
 -4.974667327740385  11.505866395266734   5.002978606422314 
  8.712979004377534   5.030279184231727  11.673616748318732 
  0.002018847955041  11.499145573089280   5.002978606422314 
  1.184690848923471   4.984726366914376   5.002978606422314 
  0.006289922549905   7.177316469400775   5.002978606422314 
  6.250277169060071   5.089141298044716   5.002978606422314 
  4.971127272627909  11.488396970846100   5.002978606422314 
 11.199276571249499   5.028120810799494   5.002978606422314 
 -2.489603425090617   7.186233604957080  11.673616748318732 
  3.734170105367224   0.718325348795074  11.673616748318732 
  7.468270369455076   7.186302905855605  11.673616748318732 
  8.713009030123336   0.718536965673225  11.673616748318732 
 13.691273591755712   0.718412998410939  11.673616748318732 
 -0.000838789737842   1.436196231822339   1.666272563084132 
  3.735163680212366   7.905809524942029   1.671601687413455 
  4.979379902906894   1.436370978287856   1.669196758324612 
  8.713572957667006   7.905278690382333   1.666255827534691 
  9.957563508173665   1.437295050176480   1.666441917834656 
 -4.978746407850622  10.060299682420389   8.339354746566348 
 -0.000447969770100  10.060999341572613   8.339571611069100 
  1.243504703729767   3.592432773106705   8.334661219622234 
  4.979414361695603  10.061186170830453   8.339213314133106 
  6.224828035153627   3.593584368390543   8.334355525431173 
 11.201833999019385   3.593294239267160   8.340032906493100 
 -2.489835326136061  10.060472894896488   1.666806373331891 
 -1.246022664324594   3.592917967372081   1.666272563084132 
  3.734763865090421   3.594282428896884   1.671571641894330 
  2.489470795786342  10.061251031221717   1.666550372601003 
  7.468692831969060  10.060713583704258   1.666030133203729 
  8.713564305958288   3.593448744286944   1.666743898711521 
 -6.223675875377082  12.215540036427344   8.339547642881135 
 -1.244685731757821  12.216082362031152   8.339571611069100 
 -0.001617100536407   5.749396951073097   8.336419721940201 
  4.979278211922476   5.749282613693190   8.330732141593574 
  3.734130089240001  12.216597929291748   8.339515295009971 
  9.957794268638253   5.749463430200500   8.339927079640898 
 -2.490412709329722   5.749338554807824   1.666409569963480 
 -3.734165565945780  12.215314753667075   1.667343404382995 
  1.244591820671868  12.216545413375073   1.666084479005138 
  2.490736133312625   5.749001666360707   1.671571641894330 
  6.223415402954028  12.216168188998139   1.665924306351528 
  7.469499940787179   5.749708449648971   1.668887728273477 
 -1.245852655207536   7.905430367138804   8.338613808461632 
 -0.000838789737842   1.436196231822340   8.339684649760482 
  3.735163680212367   7.905809524942030   8.334355525431173 
  4.979379902906895   1.436370978287856   8.336760454520004 
  8.713572957667006   7.905278690382334   8.339701385309910 
 -3.734440873397906   7.905099276609121   1.666602466278279 
  9.957563508173665   1.437295050176481   8.339515295009971 
  2.488929574768574   1.435643570823091   1.669537490904413 
  1.244238016876076   7.905826498371918   1.669196758324612 
  6.224757861110304   7.905664973968280   1.668887728273477 
  7.468648693750199   1.437061932024255   1.666550372601003 
  1.244238016876076   7.905826498371919   8.336760454520004 
 12.446429907400763   1.436959662148281   1.666150746136562 
 -2.489835326136060  10.060472894896488   8.339150839512723 
 -1.246022664324594   3.592917967372081   8.339684649760482 
  3.734763865090421   3.594282428896885   8.334385570950312 
  2.489470795786343  10.061251031221717   8.339406840243626 
  7.468692831969061  10.060713583704258   8.339927079640898 
  8.713564305958288   3.593448744286945   8.339213314133106 
 -4.978746407850623  10.060299682420389   1.666602466278279 
 -0.000447969770100  10.060999341572613   1.666385601775501 
  1.243504703729767   3.592432773106704   1.671295993222380 
  4.979414361695602  10.061186170830453   1.666743898711521 
  6.224828035153626   3.593584368390542   1.671601687413455 
 11.201833999019385   3.593294239267159   1.665924306351528 
 -2.490412709329721   5.749338554807825   8.339547642881135 
 -3.734165565945780  12.215314753667075   8.338613808461632 
  1.244591820671868  12.216545413375073   8.339872733839490 
  2.490736133312626   5.749001666360708   8.334385570950312 
  6.223415402954029  12.216168188998139   8.340032906493100 
 -6.223675875377083  12.215540036427344   1.666409569963480 
  7.469499940787180   5.749708449648971   8.337069484571163 
 -1.244685731757821  12.216082362031152   1.666385601775501 
 -0.001617100536408   5.749396951073096   1.669537490904413 
 -1.245852655207536   7.905430367138803   1.667343404382995 
  4.979278211922475   5.749282613693190   1.675225071251054 
  3.734130089240001  12.216597929291748   1.666441917834656 
  9.957794268638253   5.749463430200499   1.666030133203729 
 -3.734440873397905   7.905099276609122   8.339354746566348 
  2.488929574768574   1.435643570823091   8.336419721940201 
  6.224757861110305   7.905664973968281   8.337069484571163 
  7.468648693750200   1.437061932024255   8.339406840243626 
 12.446429907400763   1.436959662148282   8.339806466708053 
  1.244686440293529   0.718647022219701   1.671232137721027 
  4.978992606869749   7.186194911893280   1.679705253317298 
  6.223231135997623   0.718709152796995   1.670617649286903 
  9.957754053890731   7.186371541468205   1.668830254331851 
 11.202150436750332   0.718574574821047   1.669446915267250 
 -3.734021608542776   9.342141609826886   8.336404405745451 
  1.244650261220097   9.341864177502437   8.335339563557737 
  2.489417724598201   2.874740182731932   8.323378554713415 
  6.223684998673424   9.342168595965648   8.336412106701768 
  7.468042287454545   2.874711655271962   8.334365609456691 
 12.446928248600479   2.874538581482664   8.336895322710527 
 -1.244743806296244   9.341958996580299   1.670024937500548 
  0.000003527597027   2.874497034328802   1.672684713932964 
  4.978621079288921   2.874794892615876   1.680090082057575 
  3.734208774714757   9.341901006340693   1.671591603387949 
  8.713071651857042   9.342224701077443   1.668830254331851 
  9.957522925022227   2.874570751371194   1.668924659328247 
 -4.978742129031922  11.498059753411329   8.335875848765205 
 -0.000194898087350  11.497867466215729   8.337060451933660 
  1.244921198791622   5.030271395271895   8.323378554713415 
  6.223537962647656   5.030579123362047   8.326251959527330 
  4.978827067141042  11.497924932654186   8.337032553516380 
 11.202313719386938   5.030459353258166   8.337164404849421 
 -1.244675893290173   5.030349062434928   1.671232137721027 
 -2.489540855130113  11.498010730272373   1.670024937500548 
  2.489235457544495  11.497741850194975   1.669281351951126 
  3.734292683525732   5.030489883736145   1.674269761404561 
  7.468276761286817  11.498001082027557   1.668792807995233 
  8.713012138846876   5.030527512525063   1.669545106142872 
  0.000164169278846   7.185997926121814   8.331596877803429 
  1.244686440293530   0.718647022219702   8.334725075123602 
  4.978992606869750   7.186194911893280   8.326251959527330 
  6.223231135997624   0.718709152796996   8.335339563557737 
  9.957754053890731   7.186371541468206   8.337126958512776 
 -2.489301987963448   7.186222946679266   1.670081364079436 
 11.202150436750332   0.718574574821047   8.336510297577366 
  3.733953149169891   0.718885708209708   1.674360335041173 
  2.489570256286249   7.185957380677662   1.680090082057575 
  7.468442471570564   7.186402269058304   1.670439422167654 
  8.712568566163275   0.718612713641612   1.669281351951126 
  2.489570256286249   7.185957380677663   8.325867130787026 
 13.691658942089234   0.718601778619679   1.669061890134100 
 -1.244743806296243   9.341958996580299   8.335932275344080 
  0.000003527597027   2.874497034328803   8.333272498911649 
  4.978621079288922   2.874794892615877   8.325867130787026 
  3.734208774714757   9.341901006340693   8.334365609456691 
  8.713071651857042   9.342224701077443   8.337126958512776 
  9.957522925022227   2.874570751371194   8.337032553516380 
 -3.734021608542776   9.342141609826886   1.669552807099191 
  1.244650261220096   9.341864177502437   1.670617649286903 
  2.489417724598201   2.874740182731931   1.682578658131227 
  6.223684998673423   9.342168595965648   1.669545106142872 
  7.468042287454544   2.874711655271962   1.671591603387949 
 12.446928248600479   2.874538581482663   1.669061890134100 
 -1.244675893290173   5.030349062434929   8.334725075123602 
 -2.489540855130113  11.498010730272373   8.335932275344080 
  2.489235457544496  11.497741850194975   8.336675860893516 
  3.734292683525733   5.030489883736146   8.331687451440041 
  7.468276761286818  11.498001082027557   8.337164404849421 
 -4.978742129031923  11.498059753411329   1.670081364079436 
  8.713012138846876   5.030527512525063   8.336412106701768 
 -0.000194898087351  11.497867466215729   1.668896760910968 
  1.244921198791622   5.030271395271894   1.682578658131227 
  0.000164169278845   7.185997926121813   1.674360335041173 
  6.223537962647655   5.030579123362046   1.679705253317298 
  4.978827067141041  11.497924932654186   1.668924659328247 
 11.202313719386938   5.030459353258165   1.668792807995233 
 -2.489301987963448   7.186222946679266   8.335875848765205 
  3.733953149169891   0.718885708209709   8.331596877803429 
  7.468442471570565   7.186402269058305   8.335517790676974 
  8.712568566163275   0.718612713641613   8.336675860893516 
 13.691658942089234   0.718601778619679   8.336895322710527 
 -0.024515236342641   1.419190304688254   5.002978606422314 
  3.765621456331153   7.868293675078282   5.002978606422314 
  4.968825598729654   1.473042459899980   5.002978606422314 
  8.739055328199498   7.919990943868892   5.002978606422314 
  9.945322467578182   1.435561055009620   5.002978606422314 
 -4.978812262048423  10.060765181606985  11.673616748318732 
  0.000022241704689  10.060756770836216  11.673616748318732 
  1.244677133992042   3.593109676034253  11.673616748318732 
  4.978680932383869  10.060723713603394  11.673616748318732 
  6.223385743559347   3.593077118333269  11.673616748318732 
 11.202218429474492   3.593072892233767  11.673616748318732 
 -2.475589397370204  10.068697785704323   5.002978606422314 
 -1.272588452540018   3.580916526708022   5.002978606422314 
  3.667303299482408   3.589972024708099   5.002978606422314 
  2.499960781116239  10.041743492415495   5.002978606422314 
  7.480073871605820  10.066312958686998   5.002978606422314 
  8.706508238980483   3.601772526978998   5.002978606422314 
 -6.223526333467826  12.216648097329760  11.673616748318732 
 -1.244660698440374  12.216610862481694  11.673616748318732 
  0.000030959282745   5.748932409203390  11.673616748318732 
  4.978713883401650   5.748956798469788  11.673616748318732 
  3.734009111237225  12.216594608470622  11.673616748318732 
  9.957517093864976   5.748918662911655  11.673616748318732 
 -2.493727745774595   5.747314520574070   5.002978606422314 
 -3.729661596005006  12.234028536309175   5.002978606422314 
  1.242811980541152  12.215517822196464   5.002978606422314 
  2.453272930980560   5.692734304884882   5.002978606422314 
  6.214083701421646  12.205590838475489   5.002978606422314 
  7.499478983461005   5.769364183076144   5.002978606422314 
 -1.244646124242574   7.904813420098159  11.673616748318732 
 -0.000053552185838   1.437245392613344  11.673616748318732 
  3.734003242979557   7.904814088810356  11.673616748318732 
  4.978765754144991   1.437257873866556  11.673616748318732 
  8.712781566698581   7.904821780593696  11.673616748318732 
 -3.716052363486547   7.912271706363001   5.002978606422314 
  9.957500143256830   1.437191940563326  11.673616748318732 
  2.465036790013447   1.431018712797376   5.002978606422314 
  1.270719299457969   7.878350462029100   5.002978606422314 
  6.256769746925172   7.921799719791351   5.002978606422314 
  7.456999662243656   1.455900295208370   5.002978606422314 
  1.244699016596796   7.904851182153034  11.673616748318732 
 12.428566323086276   1.426646116935604   5.002978606422314 
 -2.489361929516328  10.060746210562389  11.673616748318732 
 -1.244721445650927   3.593073422644620  11.673616748318732 
  3.734055663194302   3.593093925497613  11.673616748318732 
  2.489333026825998  10.060738293203530  11.673616748318732 
  7.468082462271139  10.060745926953722  11.673616748318732 
  8.712797091595638   3.593044804484608  11.673616748318732 
 -4.963340646521211  10.072638384264403   5.002978606422314 
  0.012219516405384  10.055512618089020   5.002978606422314 
  1.195460699544829   3.564694554357599   5.002978606422314 
  4.983094935473629  10.050913546230788   5.002978606422314 
  6.207567244186436   3.638719501184092   5.002978606422314 
 11.188007893995840   3.590501423940920   5.002978606422314 
 -2.489378329484640   5.748914031448924  11.673616748318732 
 -3.734096592273288  12.216668113653506  11.673616748318732 
  1.244668434711318  12.216589646511357  11.673616748318732 
  2.489352758228327   5.748982597227272  11.673616748318732 
  6.223415926027610  12.216611789054948  11.673616748318732 
 -6.227086258664073  12.213681147768476   5.002978606422314 
  7.468033057233733   5.748902174775916  11.673616748318732 
 -1.243103630590432  12.229796088603042   5.002978606422314 
 -0.017568737453144   5.731017621520873   5.002978606422314 
 -1.227394059068204   7.899974028204372   5.002978606422314 
  3.726507885077720  12.206863874750731   5.002978606422314 
  9.968333989436996   5.756520012156053   5.002978606422314 
 -3.734070666375789   7.904809495607609  11.673616748318732 
  2.489351299617856   1.437303103428299  11.673616748318732 
  6.223326164811075   7.904797752983143  11.673616748318732 
  7.468135765120818   1.437198989613787  11.673616748318732 
 12.446892313478402   1.437226632421673  11.673616748318732 
Generated by cif2cell 2.0.0.  :  Failed to get author information, No journal information. Species order: O B N 
 1.0
 14.936314146199660   0.000000000000000   0.000000000000000
 -7.468157073099825  12.935227489513863   0.000000000000000
  0.000000000000001   0.000000000000001  13.341276283792837
 O B N 
   1 143 143
Cartesian
  5.100933348415019   5.819520239495477   5.002978606422314 
  1.218617236628092   0.702880973104530   5.002978606422314 
  5.043078541051995   7.180070656582159   5.002978606422314 
  6.221070811656118   0.733655311369941   5.002978606422314 
  9.976717260110904   7.194565306124714   5.002978606422314 
 11.185912796321864   0.709199768748676   5.002978606422314 
 -3.734162756070517   9.342060118263742  11.673616748318732 
  1.244662822303496   9.342492171668749  11.673616748318732 
  2.489272779561848   2.874258281318472  11.673616748318732 
  6.223453372828229   9.342264064820151  11.673616748318732 
  7.468469812674511   2.874338302301579  11.673616748318732 
 12.446572084977223   2.874299248408833  11.673616748318732 
 -1.233495030300772   9.343747589958271   5.002978606422314 
 -0.053096076235704   2.843839963762104   5.002978606422314 
  4.990349181639346   2.910831971124698   5.002978606422314 
  3.748630125393578   9.325810514385712   5.002978606422314 
  8.729649263312279   9.354550437073089   5.002978606422314 
  9.945421570793570   2.872666514622947   5.002978606422314 
 -4.978883617256138  11.497793372062613  11.673616748318732 
  0.000129473702670  11.498054742356008  11.673616748318732 
  1.244431387407261   5.030386819895003  11.673616748318732 
  6.223724044303283   5.030391621988311  11.673616748318732 
  4.978646279848909  11.498055579723042  11.673616748318732 
 11.202035628682172   5.030248289431733  11.673616748318732 
 -1.271364294173951   5.015655494361827   5.002978606422314 
 -2.482367499830043  11.506858159356998   5.002978606422314 
  2.487174204326787  11.489074882471069   5.002978606422314 
  7.464732950041052  11.496540105814827   5.002978606422314 
  8.730669829391104   5.038786860086732   5.002978606422314 
 -0.000212638110827   7.186465995407555  11.673616748318732 
  1.244393069303483   0.718298183294120  11.673616748318732 
  4.978923266744649   7.186449814021124  11.673616748318732 
  6.223781275440807   0.718406033931111  11.673616748318732 
  9.957482403985033   7.186191926068507  11.673616748318732 
 -2.480503837152666   7.185848507185437   5.002978606422314 
 11.202106595992396   0.718549263347644  11.673616748318732 
  3.729497663743131   0.728531494520308   5.002978606422314 
  2.526643332928292   7.178095675996879   5.002978606422314 
  7.502754628253008   7.206212401955398   5.002978606422314 
  8.704032125331752   0.721161099853373   5.002978606422314 
  2.489403465656748   7.186691851493792  11.673616748318732 
 13.666065862229836   0.701027666667469   5.002978606422314 
 -1.244750179702668   9.342251370069006  11.673616748318732 
 -0.000457131190426   2.874231072853871  11.673616748318732 
  4.979173754359292   2.874283212285524  11.673616748318732 
  3.734099204167794   9.342457930527162  11.673616748318732 
  8.712780275405150   9.342079253058010  11.673616748318732 
  9.957545675056718   2.874348861449098  11.673616748318732 
 -3.719939888947630   9.350271694425778   5.002978606422314 
  1.256513852062527   9.332520202455767   5.002978606422314 
  2.419859398090433   2.845351683846047   5.002978606422314 
  6.239666648752626   9.353330930768278   5.002978606422314 
  7.461318188001566   2.895246157294172   5.002978606422314 
 12.418912081271198   2.861161380139470   5.002978606422314 
 -1.245124682156579   5.030269415167606  11.673616748318732 
 -2.489290838964712  11.497859023996149  11.673616748318732 
  2.489390089859626  11.498161177158023  11.673616748318732 
  3.734366670253536   5.030532599993368  11.673616748318732 
  7.467954929298917  11.497865780325906  11.673616748318732 
 -4.974667327740385  11.505866395266734   5.002978606422314 
  8.712979004377534   5.030279184231727  11.673616748318732 
  0.002018847955041  11.499145573089280   5.002978606422314 
  1.184690848923471   4.984726366914376   5.002978606422314 
  0.006289922549905   7.177316469400775   5.002978606422314 
  6.250277169060071   5.089141298044716   5.002978606422314 
  4.971127272627909  11.488396970846100   5.002978606422314 
 11.199276571249499   5.028120810799494   5.002978606422314 
 -2.489603425090617   7.186233604957080  11.673616748318732 
  3.734170105367224   0.718325348795074  11.673616748318732 
  7.468270369455076   7.186302905855605  11.673616748318732 
  8.713009030123336   0.718536965673225  11.673616748318732 
 13.691273591755712   0.718412998410939  11.673616748318732 
 -0.000838789737842   1.436196231822339   1.666272563084132 
  3.735163680212366   7.905809524942029   1.671601687413455 
  4.979379902906894   1.436370978287856   1.669196758324612 
  8.713572957667006   7.905278690382333   1.666255827534691 
  9.957563508173665   1.437295050176480   1.666441917834656 
 -4.978746407850622  10.060299682420389   8.339354746566348 
 -0.000447969770100  10.060999341572613   8.339571611069100 
  1.243504703729767   3.592432773106705   8.334661219622234 
  4.979414361695603  10.061186170830453   8.339213314133106 
  6.224828035153627   3.593584368390543   8.334355525431173 
 11.201833999019385   3.593294239267160   8.340032906493100 
 -2.489835326136061  10.060472894896488   1.666806373331891 
 -1.246022664324594   3.592917967372081   1.666272563084132 
  3.734763865090421   3.594282428896884   1.671571641894330 
  2.489470795786342  10.061251031221717   1.666550372601003 
  7.468692831969060  10.060713583704258   1.666030133203729 
  8.713564305958288   3.593448744286944   1.666743898711521 
 -6.223675875377082  12.215540036427344   8.339547642881135 
 -1.244685731757821  12.216082362031152   8.339571611069100 
 -0.001617100536407   5.749396951073097   8.336419721940201 
  4.979278211922476   5.749282613693190   8.330732141593574 
  3.734130089240001  12.216597929291748   8.339515295009971 
  9.957794268638253   5.749463430200500   8.339927079640898 
 -2.490412709329722   5.749338554807824   1.666409569963480 
 -3.734165565945780  12.215314753667075   1.667343404382995 
  1.244591820671868  12.216545413375073   1.666084479005138 
  2.490736133312625   5.749001666360707   1.671571641894330 
  6.223415402954028  12.216168188998139   1.665924306351528 
  7.469499940787179   5.749708449648971   1.668887728273477 
 -1.245852655207536   7.905430367138804   8.338613808461632 
 -0.000838789737842   1.436196231822340   8.339684649760482 
  3.735163680212367   7.905809524942030   8.334355525431173 
  4.979379902906895   1.436370978287856   8.336760454520004 
  8.713572957667006   7.905278690382334   8.339701385309910 
 -3.734440873397906   7.905099276609121   1.666602466278279 
  9.957563508173665   1.437295050176481   8.339515295009971 
  2.488929574768574   1.435643570823091   1.669537490904413 
  1.244238016876076   7.905826498371918   1.669196758324612 
  6.224757861110304   7.905664973968280   1.668887728273477 
  7.468648693750199   1.437061932024255   1.666550372601003 
  1.244238016876076   7.905826498371919   8.336760454520004 
 12.446429907400763   1.436959662148281   1.666150746136562 
 -2.489835326136060  10.060472894896488   8.339150839512723 
 -1.246022664324594   3.592917967372081   8.339684649760482 
  3.734763865090421   3.594282428896885   8.334385570950312 
  2.489470795786343  10.061251031221717   8.339406840243626 
  7.468692831969061  10.060713583704258   8.339927079640898 
  8.713564305958288   3.593448744286945   8.339213314133106 
 -4.978746407850623  10.060299682420389   1.666602466278279 
 -0.000447969770100  10.060999341572613   1.666385601775501 
  1.243504703729767   3.592432773106704   1.671295993222380 
  4.979414361695602  10.061186170830453   1.666743898711521 
  6.224828035153626   3.593584368390542   1.671601687413455 
 11.201833999019385   3.593294239267159   1.665924306351528 
 -2.490412709329721   5.749338554807825   8.339547642881135 
 -3.734165565945780  12.215314753667075   8.338613808461632 
  1.244591820671868  12.216545413375073   8.339872733839490 
  2.490736133312626   5.749001666360708   8.334385570950312 
  6.223415402954029  12.216168188998139   8.340032906493100 
 -6.223675875377083  12.215540036427344   1.666409569963480 
  7.469499940787180   5.749708449648971   8.337069484571163 
 -1.244685731757821  12.216082362031152   1.666385601775501 
 -0.001617100536408   5.749396951073096   1.669537490904413 
 -1.245852655207536   7.905430367138803   1.667343404382995 
  4.979278211922475   5.749282613693190   1.675225071251054 
  3.734130089240001  12.216597929291748   1.666441917834656 
  9.957794268638253   5.749463430200499   1.666030133203729 
 -3.734440873397905   7.905099276609122   8.339354746566348 
  2.488929574768574   1.435643570823091   8.336419721940201 
  6.224757861110305   7.905664973968281   8.337069484571163 
  7.468648693750200   1.437061932024255   8.339406840243626 
 12.446429907400763   1.436959662148282   8.339806466708053 
  1.244686440293529   0.718647022219701   1.671232137721027 
  4.978992606869749   7.186194911893280   1.679705253317298 
  6.223231135997623   0.718709152796995   1.670617649286903 
  9.957754053890731   7.186371541468205   1.668830254331851 
 11.202150436750332   0.718574574821047   1.669446915267250 
 -3.734021608542776   9.342141609826886   8.336404405745451 
  1.244650261220097   9.341864177502437   8.335339563557737 
  2.489417724598201   2.874740182731932   8.323378554713415 
  6.223684998673424   9.342168595965648   8.336412106701768 
  7.468042287454545   2.874711655271962   8.334365609456691 
 12.446928248600479   2.874538581482664   8.336895322710527 
 -1.244743806296244   9.341958996580299   1.670024937500548 
  0.000003527597027   2.874497034328802   1.672684713932964 
  4.978621079288921   2.874794892615876   1.680090082057575 
  3.734208774714757   9.341901006340693   1.671591603387949 
  8.713071651857042   9.342224701077443   1.668830254331851 
  9.957522925022227   2.874570751371194   1.668924659328247 
 -4.978742129031922  11.498059753411329   8.335875848765205 
 -0.000194898087350  11.497867466215729   8.337060451933660 
  1.244921198791622   5.030271395271895   8.323378554713415 
  6.223537962647656   5.030579123362047   8.326251959527330 
  4.978827067141042  11.497924932654186   8.337032553516380 
 11.202313719386938   5.030459353258166   8.337164404849421 
 -1.244675893290173   5.030349062434928   1.671232137721027 
 -2.489540855130113  11.498010730272373   1.670024937500548 
  2.489235457544495  11.497741850194975   1.669281351951126 
  3.734292683525732   5.030489883736145   1.674269761404561 
  7.468276761286817  11.498001082027557   1.668792807995233 
  8.713012138846876   5.030527512525063   1.669545106142872 
  0.000164169278846   7.185997926121814   8.331596877803429 
  1.244686440293530   0.718647022219702   8.334725075123602 
  4.978992606869750   7.186194911893280   8.326251959527330 
  6.223231135997624   0.718709152796996   8.335339563557737 
  9.957754053890731   7.186371541468206   8.337126958512776 
 -2.489301987963448   7.186222946679266   1.670081364079436 
 11.202150436750332   0.718574574821047   8.336510297577366 
  3.733953149169891   0.718885708209708   1.674360335041173 
  2.489570256286249   7.185957380677662   1.680090082057575 
  7.468442471570564   7.186402269058304   1.670439422167654 
  8.712568566163275   0.718612713641612   1.669281351951126 
  2.489570256286249   7.185957380677663   8.325867130787026 
 13.691658942089234   0.718601778619679   1.669061890134100 
 -1.244743806296243   9.341958996580299   8.335932275344080 
  0.000003527597027   2.874497034328803   8.333272498911649 
  4.978621079288922   2.874794892615877   8.325867130787026 
  3.734208774714757   9.341901006340693   8.334365609456691 
  8.713071651857042   9.342224701077443   8.337126958512776 
  9.957522925022227   2.874570751371194   8.337032553516380 
 -3.734021608542776   9.342141609826886   1.669552807099191 
  1.244650261220096   9.341864177502437   1.670617649286903 
  2.489417724598201   2.874740182731931   1.682578658131227 