Species order: X N B                    
   2.51242800000000     
     5.9449720136058266    0.0000000000000000    0.0000000000000000
    -2.9724860068029120    5.1484967885702053   -0.0000000000000001
     0.0000000000000000    0.0000000000000009    5.3101128803662583
   O    N    B 
     1   143   143
Direct
  0.5664606972259572  0.4498970152796429  0.3750000000000000
  0.1111115818655071  0.0555573547355297  0.1252677856429117
  0.6111242763344603  0.5555522635932666  0.1259028909668726
  0.4444321399415000  0.0555621579426902  0.1252217264487947
  0.9444637719703645  0.5555659185193257  0.1250877516388116
  0.7777701745722774  0.0555517539528064  0.1251339736735165
  0.1111161929545127  0.7222247631439211  0.6248580891674230
  0.4444321399415000  0.7222033153321467  0.6247782735512061
  0.2777893998704087  0.2222411770540856  0.6238817319767797
  0.7777948721924076  0.7222268493954992  0.6248586663952796
  0.6111118008180614  0.2222389716456394  0.6247052704831092
  0.9444461153091552  0.2222255916111993  0.6248948860191363
  0.2777685776107901  0.7222106456305851  0.1251772995308794
  0.1111114260122730  0.2222223796728011  0.1253766639976544
  0.4444459737139827  0.2222454065803154  0.1259317359388300
  0.6111118008180614  0.7222061625057504  0.1252947295168916
  0.9444637719703645  0.7222311867843727  0.1250877516388116
  0.7777793777246458  0.2222280786094804  0.1250948277981226
  0.1111161527879852  0.8888950552073713  0.6248184709952926
  0.4444270463023082  0.8888801898178172  0.6249072633374390
  0.2777893998704087  0.3888815561496510  0.6238817319767797
  0.6111242763344603  0.3889053460745210  0.6240971090331273
  0.7777793777246458  0.8888846324484937  0.6249051722018772
  0.9444532729466750  0.3888960868555411  0.6249150551643639
  0.1111115818655071  0.3888875604633049  0.1252677856429117
  0.2777685776107901  0.8888912653135326  0.1251772995308794
  0.6110918477266835  0.8888704786611441  0.1251215638176227
  0.4444635608943437  0.3888984471138359  0.1254954717816984
  0.9444532729466750  0.8888905194244616  0.1250849448356377
  0.7777948721924076  0.3889013561302371  0.1251413336047214
  0.2777795087670267  0.5555370349649634  0.6244977392398932
  0.1111115818655071  0.0555573547355297  0.6247322143570885
  0.6111242763344603  0.5555522635932666  0.6240971090331273
  0.4444321399415000  0.0555621579426902  0.6247782735512061
  0.9444637719703645  0.5555659185193257  0.6249122483611883
  0.1111161527879852  0.5555544309139431  0.1251815290047080
  0.7777701745722774  0.0555517539528064  0.6248660263264825
  0.2777795087670267  0.0555758071353974  0.1255022607601053
  0.4444459737139827  0.5555339004670051  0.1259317359388300
  0.7778032546986968  0.5555682940160175  0.1252083673731373
  0.6110918477266835  0.0555547023988690  0.1251215638176227
  0.4444459737139827  0.5555339004670051  0.6240682640611679
  0.9444461153091552  0.0555538570312908  0.1251051139808640
  0.2777685776107901  0.7222106456305851  0.6248227004691215
  0.1111114260122730  0.2222223796728011  0.6246233360023450
  0.4444459737139827  0.2222454065803154  0.6240682640611679
  0.6111118008180614  0.7222061625057504  0.6247052704831092
  0.9444637719703645  0.7222311867843727  0.6249122483611883
  0.7777793777246458  0.2222280786094804  0.6249051722018772
  0.1111161929545127  0.7222247631439211  0.1251419108325779
  0.4444321399415000  0.7222033153321467  0.1252217264487947
  0.2777893998704087  0.2222411770540856  0.1261182680232213
  0.7777948721924076  0.7222268493954992  0.1251413336047214
  0.6111118008180614  0.2222389716456394  0.1252947295168916
  0.9444461153091552  0.2222255916111993  0.1251051139808640
  0.1111115818655071  0.3888875604633049  0.6247322143570885
  0.2777685776107901  0.8888912653135326  0.6248227004691215
  0.6110918477266835  0.8888704786611441  0.6248784361823779
  0.4444635608943437  0.3888984471138359  0.6245045282183000
  0.9444532729466750  0.8888905194244616  0.6249150551643639
  0.1111161527879852  0.8888950552073713  0.1251815290047080
  0.7777948721924076  0.3889013561302371  0.6248586663952796
  0.4444270463023082  0.8888801898178172  0.1250927366625606
  0.2777893998704087  0.3888815561496510  0.1261182680232213
  0.2777795087670267  0.5555370349649634  0.1255022607601053
  0.6111242763344603  0.3889053460745210  0.1259028909668726
  0.7777793777246458  0.8888846324484937  0.1250948277981226
  0.9444532729466750  0.3888960868555411  0.1250849448356377
  0.1111161527879852  0.5555544309139431  0.6248184709952926
  0.2777795087670267  0.0555758071353974  0.6244977392398932
  0.7778032546986968  0.5555682940160175  0.6247916326268633
  0.6110918477266835  0.0555547023988690  0.6248784361823779
  0.9444461153091552  0.0555538570312908  0.6248948860191363
  0.0532162527060039  0.1097151407533221  0.3750000000000000
  0.5562538954642002  0.6082841358187806  0.3750000000000000
  0.3896066327020375  0.1138783574617550  0.3750000000000000
  0.8912281906583055  0.6122807619958249  0.3750000000000000
  0.7213388740800863  0.1109807350642560  0.3750000000000000
  0.0555540821975193  0.7777803049666416  0.8750000000000000
  0.3888913164749020  0.7777796547445434  0.8750000000000000
  0.2222208196874837  0.2777770765104099  0.8750000000000000
  0.7222158272173103  0.7777770991472140  0.8750000000000000
  0.5555486918544360  0.2777745595310206  0.8750000000000000
  0.8888859661807301  0.2777742328185987  0.8750000000000000
  0.2234537883259733  0.7783935608296543  0.3750000000000000
  0.0532162527060039  0.2768344452860182  0.3750000000000000
  0.3842965913910761  0.2775345101288990  0.3750000000000000
  0.5555295642805328  0.7763097711699301  0.3750000000000000
  0.8899024376393867  0.7782091939896228  0.3750000000000000
  0.7221321452813669  0.2784467864905223  0.3750000000000000
  0.0555531120997152  0.9444478736252118  0.8750000000000000
  0.3888913164749020  0.9444449950636951  0.8750000000000000
  0.2222220690325920  0.4444399925601496  0.8750000000000000
  0.5555504227707316  0.4444418780520301  0.8750000000000000
  0.7222172211584672  0.9444437384942932  0.8750000000000000
  0.8888844129476429  0.4444389298581803  0.8750000000000000
  0.0552000869642962  0.4443149163965777  0.3750000000000000
  0.2231914808483605  0.9457915252149123  0.3750000000000000
  0.5553876546970973  0.9443604940152120  0.3750000000000000
  0.3842965913910761  0.4400954145955128  0.3750000000000000
  0.8878351598548780  0.9435930561229116  0.3750000000000000
  0.7251067995492466  0.4460195375576634  0.3750000000000000
  0.2222235016789166  0.6111074139597713  0.8750000000000000
  0.0555518887731837  0.1111109482827781  0.8750000000000000
  0.5555486918544360  0.6111074656567512  0.8750000000000000
  0.3888889131322036  0.1111119131868141  0.8750000000000000
  0.8888827872570153  0.6111080602951789  0.8750000000000000
  0.0570488694696049  0.6116840011338958  0.3750000000000000
  0.7222172211584672  0.1111068159975079  0.8750000000000000
  0.2203512725326420  0.1106295744668931  0.3750000000000000
  0.3896066327020375  0.6090616085736261  0.3750000000000000
  0.7251067995492466  0.6124205953249204  0.3750000000000000
  0.5555295642805328  0.1125531264439385  0.3750000000000000
  0.3888889131322036  0.6111103332787315  0.8750000000000000
  0.8872497399975496  0.1102915366654460  0.3750000000000000
  0.2222243433628409  0.7777788383480906  0.8750000000000000
  0.0555518887731837  0.2777742738237416  0.8750000000000000
  0.3888863980396288  0.2777758588637432  0.8750000000000000
  0.5555522538848496  0.7777782262708106  0.8750000000000000
  0.8888844129476429  0.7777788164227970  0.8750000000000000
  0.7222158272173103  0.2777720614034320  0.8750000000000000
  0.0570488694696049  0.7786982016690425  0.3750000000000000
  0.3895052270830127  0.7773742383920710  0.3750000000000000
  0.2178273721505644  0.2755803527419500  0.3750000000000000
  0.7221321452813669  0.7770186921241792  0.3750000000000000
  0.5562538954642002  0.2813030929787566  0.3750000000000000
  0.8878351598548780  0.2775754370653016  0.3750000000000000
  0.0555531120997152  0.4444385718078300  0.8750000000000000
  0.2222235016789166  0.9444494210524808  0.8750000000000000
  0.5555533764543304  0.9444433548938292  0.8750000000000000
  0.3888863980396288  0.4444438725092208  0.8750000000000000
  0.8888859661807301  0.9444450666954660  0.8750000000000000
  0.0552000869642962  0.9442185039010472  0.3750000000000000
  0.7222105246179533  0.4444376551890055  0.8750000000000000
  0.3895052270830127  0.9454643220242790  0.3750000000000000
  0.2203512725326420  0.4430550313990846  0.3750000000000000
  0.2231914808483605  0.6107332889667851  0.3750000000000000
  0.7213388740800863  0.9436914723491646  0.3750000000000000
  0.8899024376393867  0.4450265769831001  0.3750000000000000
  0.0555540821975193  0.6111071105642143  0.8750000000000000
  0.2222220690325920  0.1111154098057781  0.8750000000000000
  0.7222105246179533  0.6111062027622847  0.8750000000000000
  0.5555522538848496  0.1111073609473718  0.8750000000000000
  0.8888856625964590  0.1111094979649010  0.8750000000000000
  0.1087568016953877  0.0543385088259426  0.3750000000000000
  0.6151781609231947  0.5550788080381881  0.3750000000000000
  0.4448652350324718  0.0567176195366253  0.3750000000000000
  0.9460500989730214  0.5561993642521627  0.3750000000000000
  0.7763206745801080  0.0548270039567221  0.3750000000000000
  0.1111035930117283  0.7222184631725282  0.8750000000000000
  0.4444572554874565  0.7222518644718365  0.8750000000000000
  0.2777610681854296  0.2222039220917090  0.8750000000000000
  0.7777830548943374  0.7222342299270417  0.8750000000000000
  0.6111259923903551  0.2222101083751103  0.8750000000000000
  0.9444130186138785  0.2222070891864042  0.8750000000000000
  0.2785908300583152  0.7223489186821737  0.3750000000000000
  0.1063713361156643  0.2198523347244964  0.3750000000000000
  0.4466241629921315  0.2250313706105603  0.3750000000000000
  0.6114553595278602  0.7209622344829902  0.3750000000000000
  0.9460500989730214  0.7231840680541950  0.3750000000000000
  0.7768955742843426  0.2220808653695283  0.3750000000000000
  0.1110963832809489  0.8888744617273624  0.8750000000000000
  0.4444560022894274  0.8888946678113756  0.8750000000000000
  0.2777610681854296  0.3888904794270498  0.8750000000000000
  0.6111294869698458  0.3888908506685537  0.8750000000000000
  0.7777723238979297  0.8888947325467691  0.8750000000000000
  0.9444264960284969  0.3888797698772271  0.8750000000000000
  0.1087568016953877  0.3877516262027740  0.3750000000000000
  0.2785908300583152  0.8895752447094727  0.3750000000000000
  0.6106188308031626  0.8882004504199758  0.3750000000000000
  0.9441595387487649  0.8887775738876386  0.3750000000000000
  0.7792963287674892  0.3895398719637128  0.3750000000000000
  0.2777723739772446  0.5555732205895390  0.8750000000000000
  0.1110784563411776  0.0555303866032827  0.8750000000000000
  0.6111294869698458  0.5555719696346217  0.8750000000000000
  0.4444572554874565  0.0555387243489532  0.8750000000000000
  0.9444386418812813  0.5555520327643326  0.8750000000000000
  0.1116907234607913  0.5555254836461713  0.3750000000000000
  0.7777662610000695  0.0555497971667025  0.8750000000000000
  0.2778540594148852  0.0563215061436613  0.3750000000000000
  0.4466241629921315  0.5549261257149064  0.3750000000000000
  0.7808662287226400  0.5570997810279885  0.3750000000000000
  0.6106188308031626  0.0557517137165152  0.3750000000000000
  0.4444631972599918  0.5555906811318001  0.8750000000000000
  0.9420533229658804  0.0541952329200058  0.3750000000000000
  0.2777794523489877  0.7222332485178514  0.8750000000000000
  0.1110703039716825  0.2222018186525059  0.8750000000000000
  0.4444631972599918  0.2222058494615270  0.8750000000000000
  0.6111259923903551  0.7222492173485753  0.8750000000000000
  0.9444386418812813  0.7222199424502822  0.8750000000000000
  0.7777723238979297  0.2222109246844888  0.8750000000000000
  0.1123732384305967  0.7228532858819624  0.3750000000000000
  0.4448652350324718  0.7214809488291815  0.3750000000000000
  0.2719964188575775  0.2199692031819830  0.3750000000000000
  0.7792963287674892  0.7230897901371043  0.3750000000000000
  0.6114553595278602  0.2238264583781957  0.3750000000000000
  0.9420533229658804  0.2211914233792107  0.3750000000000000
  0.1110784563411776  0.3888814030712230  0.8750000000000000
  0.2777794523489877  0.8888795371644651  0.8750000000000000
  0.6111184092227947  0.8889028961013001  0.8750000000000000
  0.4444701655338454  0.3889017494335866  0.8750000000000000
  0.9444264960284969  0.8888800594845986  0.8750000000000000
  0.1116907234607913  0.8894985731479512  0.3750000000000000
  0.7777830548943374  0.3888821583006247  0.8750000000000000
  0.4446246627531273  0.8889789980432298  0.3750000000000000
  0.2719964188575775  0.3853605490089234  0.3750000000000000
  0.2778540594148852  0.5548658866045593  0.3750000000000000
  0.6151781609231947  0.3934326862183373  0.3750000000000000
  0.7768955742843426  0.8881480422481426  0.3750000000000000
  0.9441595387487649  0.3887152981944551  0.3750000000000000
  0.1110963832809489  0.5555552548869134  0.8750000000000000
  0.2777723739772446  0.0555324867210414  0.8750000000000000
  0.7777878915050019  0.5555606124191699  0.8750000000000000
  0.6111184092227947  0.0555488464548236  0.8750000000000000
  0.9444130186138785  0.0555392627608084  0.8750000000000000
  0.0554587619948172  0.1110298394818809  0.1248960390025308
  0.5556648619171711  0.6111844210974252  0.1252954853685282
  0.3888957487785223  0.1110433488280176  0.1251152230729511
  0.8889534330634410  0.6111433831983906  0.1248947845836068
  0.7222254491107275  0.1111147872228495  0.1249087330467084
  0.0555404977294303  0.7777443180319734  0.6250792329889087
  0.3888692117446716  0.7777984074674154  0.6250954881430745
  0.2221161593051156  0.2777247463192252  0.6247274280457933
  0.7222828068688135  0.7778128509132678  0.6250686318717267
  0.5556648619171711  0.2778137741530824  0.6247045146314721
  0.8888687841850063  0.2777913447738062  0.6251300647018824
  0.2221820842427635  0.7777577087880493  0.1249360509351533
  0.0554587619948172  0.2777622558462720  0.1248960390025308
  0.3889797533774967  0.2778677399999840  0.1252932332962014
  0.5555812970871373  0.7778178651576106  0.1249168623114077
  0.8889240275612845  0.7777763160222835  0.1248778675865997
  0.7222828068688135  0.2778032892888839  0.1249313681282729
  0.0555002689978747  0.9443622113588691  0.6250936915992164
  0.3888692117446716  0.9444041376105915  0.6250954881430745
  0.2221296863716413  0.4444759054863112  0.6248592371981230
  0.5556007991902685  0.4444670662617985  0.6244329226367842
  0.7222254491107275  0.9444439952212138  0.6250912669532920
  0.8889240275612845  0.4444810448723367  0.6251221324133999
  0.0555002689978747  0.4444713909723357  0.1249063084007834
  0.2221665708714468  0.9443447951394441  0.1249763042842087
  0.5555465372802477  0.9444399353067892  0.1248819410950300
  0.3889797533774967  0.4444453467108495  0.1252932332962014
  0.8888687841850063  0.9444107727445351  0.1248699352981180
  0.7223398996799353  0.4444999869008922  0.1250920596180794
  0.2221665708714468  0.6111551090653383  0.6250236957157905
  0.0554587619948172  0.1110298394818809  0.6251039609974681
  0.5556648619171711  0.6111844210974252  0.6247045146314721
  0.3888957487785223  0.1110433488280176  0.6248847769270479
  0.8889534330634410  0.6111433831983906  0.6251052154163913
  0.0555404977294303  0.6111295130307917  0.1249207670110913
  0.7222254491107275  0.1111147872228495  0.6250912669532920
  0.2221296863716413  0.1109871142186654  0.1251407628018764
  0.3888957487785223  0.6111857332838482  0.1251152230729511
  0.7223398996799353  0.6111732461123804  0.1250920596180794
  0.5555812970871373  0.1110967652628629  0.1249168623114077
  0.3888957487785223  0.6111857332838482  0.6248847769270479
  0.8888443845789504  0.1110888589561466  0.1248869081708944
  0.2221820842427635  0.7777577087880493  0.6250639490648464
  0.0554587619948172  0.2777622558462720  0.6251039609974681
  0.3889797533774967  0.2778677399999840  0.6247067667038002
  0.5555812970871373  0.7778178651576106  0.6250831376885919
  0.8889240275612845  0.7777763160222835  0.6251221324133999
  0.7222828068688135  0.2778032892888839  0.6250686318717267
  0.0555404977294303  0.7777443180319734  0.1249207670110913
  0.3888692117446716  0.7777984074674154  0.1249045118569244
  0.2221161593051156  0.2777247463192252  0.1252725719542056
  0.7222828068688135  0.7778128509132678  0.1249313681282729
  0.5556648619171711  0.2778137741530824  0.1252954853685282
  0.8888687841850063  0.2777913447738062  0.1248699352981180
  0.0555002689978747  0.4444713909723357  0.6250936915992164
  0.2221665708714468  0.9443447951394441  0.6250236957157905
  0.5555465372802477  0.9444399353067892  0.6251180589049701
  0.3889797533774967  0.4444453467108495  0.6247067667038002
  0.8888687841850063  0.9444107727445351  0.6251300647018824
  0.0555002689978747  0.9443622113588691  0.1249063084007834
  0.7223398996799353  0.4444999869008922  0.6249079403819220
  0.3888692117446716  0.9444041376105915  0.1249045118569244
  0.2221296863716413  0.4444759054863112  0.1251407628018764
  0.2221665708714468  0.6111551090653383  0.1249763042842087
  0.5556007991902685  0.4444670662617985  0.1255670773632158
  0.7222254491107275  0.9444439952212138  0.1249087330467084
  0.8889240275612845  0.4444810448723367  0.1248778675865997
  0.0555404977294303  0.6111295130307917  0.6250792329889087
  0.2221296863716413  0.1109871142186654  0.6248592371981230
  0.7223398996799353  0.6111732461123804  0.6249079403819220
  0.5555812970871373  0.1110967652628629  0.6250831376885919
  0.8888443845789504  0.1110888589561466  0.6251130918291053
 
  0.00000000E+00  0.00000000E+00  0.00000000E+00
  0.00000000E+00  0.00000000E+00  0.00000000E+00
  0.00000000E+00  0.00000000E+00  0.00000000E+00
  0.00000000E+00  0.00000000E+00  0.00000000E+00
  0.00000000E+00  0.00000000E+00  0.00000000E+00
  0.00000000E+00  0.00000000E+00  0.00000000E+00
  0.00000000E+00  0.00000000E+00  0.00000000E+00
  0.00000000E+00  0.00000000E+00  0.00000000E+00
  0.00000000E+00  0.00000000E+00  0.00000000E+00
  0.00000000E+00  0.00000000E+00  0.00000000E+00
  0.00000000E+00  0.00000000E+00  0.00000000E+00
  0.00000000E+00  0.00000000E+00  0.00000000E+00
  0.00000000E+00  0.00000000E+00  0.00000000E+00
  0.00000000E+00  0.00000000E+00  0.00000000E+00
  0.00000000E+00  0.00000000E+00  0.00000000E+00
  0.00000000E+00  0.00000000E+00  0.00000000E+00
  0.00000000E+00  0.00000000E+00  0.00000000E+00
  0.00000000E+00  0.00000000E+00  0.00000000E+00
  0.00000000E+00  0.00000000E+00  0.00000000E+00
  0.00000000E+00  0.00000000E+00  0.00000000E+00
  0.00000000E+00  0.00000000E+00  0.00000000E+00
  0.00000000E+00  0.00000000E+00  0.00000000E+00
  0.00000000E+00  0.00000000E+00  0.00000000E+00
  0.00000000E+00  0.00000000E+00  0.00000000E+00
  0.00000000E+00  0.00000000E+00  0.00000000E+00
  0.00000000E+00  0.00000000E+00  0.00000000E+00
  0.00000000E+00  0.00000000E+00  0.00000000E+00
  0.00000000E+00  0.00000000E+00  0.00000000E+00
  0.00000000E+00  0.00000000E+00  0.00000000E+00
  0.00000000E+00  0.00000000E+00  0.00000000E+00
  0.00000000E+00  0.00000000E+00  0.00000000E+00
  0.00000000E+00  0.00000000E+00  0.00000000E+00
  0.00000000E+00  0.00000000E+00  0.00000000E+00
  0.00000000E+00  0.00000000E+00  0.00000000E+00
  0.00000000E+00  0.00000000E+00  0.00000000E+00
  0.00000000E+00  0.00000000E+00  0.00000000E+00
  0.00000000E+00  0.00000000E+00  0.00000000E+00
  0.00000000E+00  0.00000000E+00  0.00000000E+00
  0.00000000E+00  0.00000000E+00  0.00000000E+00
  0.00000000E+00  0.00000000E+00  0.00000000E+00
  0.00000000E+00  0.00000000E+00  0.00000000E+00
  0.00000000E+00  0.00000000E+00  0.00000000E+00
  0.00000000E+00  0.00000000E+00  0.00000000E+00
  0.00000000E+00  0.00000000E+00  0.00000000E+00
  0.00000000E+00  0.00000000E+00  0.00000000E+00
  0.00000000E+00  0.00000000E+00  0.00000000E+00
  0.00000000E+00  0.00000000E+00  0.00000000E+00
  0.00000000E+00  0.00000000E+00  0.00000000E+00
  0.00000000E+00  0.00000000E+00  0.00000000E+00
  0.00000000E+00  0.00000000E+00  0.00000000E+00
  0.00000000E+00  0.00000000E+00  0.00000000E+00
  0.00000000E+00  0.00000000E+00  0.00000000E+00
  0.00000000E+00  0.00000000E+00  0.00000000E+00
  0.00000000E+00  0.00000000E+00  0.00000000E+00
  0.00000000E+00  0.00000000E+00  0.00000000E+00
  0.00000000E+00  0.00000000E+00  0.00000000E+00
  0.00000000E+00  0.00000000E+00  0.00000000E+00
  0.00000000E+00  0.00000000E+00  0.00000000E+00
  0.00000000E+00  0.00000000E+00  0.00000000E+00
  0.00000000E+00  0.00000000E+00  0.00000000E+00
  0.00000000E+00  0.00000000E+00  0.00000000E+00
  0.00000000E+00  0.00000000E+00  0.00000000E+00
  0.00000000E+00  0.00000000E+00  0.00000000E+00
  0.00000000E+00  0.00000000E+00  0.00000000E+00
  0.00000000E+00  0.00000000E+00  0.00000000E+00
  0.00000000E+00  0.00000000E+00  0.00000000E+00
  0.00000000E+00  0.00000000E+00  0.00000000E+00
  0.00000000E+00  0.00000000E+00  0.00000000E+00
  0.00000000E+00  0.00000000E+00  0.00000000E+00
  0.00000000E+00  0.00000000E+00  0.00000000E+00
  0.00000000E+00  0.00000000E+00  0.00000000E+00
  0.00000000E+00  0.00000000E+00  0.00000000E+00
  0.00000000E+00  0.00000000E+00  0.00000000E+00
  0.00000000E+00  0.00000000E+00  0.00000000E+00
  0.00000000E+00  0.00000000E+00  0.00000000E+00
  0.00000000E+00  0.00000000E+00  0.00000000E+00
  0.00000000E+00  0.00000000E+00  0.00000000E+00
  0.00000000E+00  0.00000000E+00  0.00000000E+00
  0.00000000E+00  0.00000000E+00  0.00000000E+00
  0.00000000E+00  0.00000000E+00  0.00000000E+00
  0.00000000E+00  0.00000000E+00  0.00000000E+00
  0.00000000E+00  0.00000000E+00  0.00000000E+00
  0.00000000E+00  0.00000000E+00  0.00000000E+00
  0.00000000E+00  0.00000000E+00  0.00000000E+00
  0.00000000E+00  0.00000000E+00  0.00000000E+00
  0.00000000E+00  0.00000000E+00  0.00000000E+00
  0.00000000E+00  0.00000000E+00  0.00000000E+00
  0.00000000E+00  0.00000000E+00  0.00000000E+00
  0.00000000E+00  0.00000000E+00  0.00000000E+00
  0.00000000E+00  0.00000000E+00  0.00000000E+00
  0.00000000E+00  0.00000000E+00  0.00000000E+00
  0.00000000E+00  0.00000000E+00  0.00000000E+00
  0.00000000E+00  0.00000000E+00  0.00000000E+00
  0.00000000E+00  0.00000000E+00  0.00000000E+00
  0.00000000E+00  0.00000000E+00  0.00000000E+00
  0.00000000E+00  0.00000000E+00  0.00000000E+00
  0.00000000E+00  0.00000000E+00  0.00000000E+00
  0.00000000E+00  0.00000000E+00  0.00000000E+00
  0.00000000E+00  0.00000000E+00  0.00000000E+00
  0.00000000E+00  0.00000000E+00  0.00000000E+00
  0.00000000E+00  0.00000000E+00  0.00000000E+00
  0.00000000E+00  0.00000000E+00  0.00000000E+00
  0.00000000E+00  0.00000000E+00  0.00000000E+00
  0.00000000E+00  0.00000000E+00  0.00000000E+00
  0.00000000E+00  0.00000000E+00  0.00000000E+00
  0.00000000E+00  0.00000000E+00  0.00000000E+00
  0.00000000E+00  0.00000000E+00  0.00000000E+00
  0.00000000E+00  0.00000000E+00  0.00000000E+00
  0.00000000E+00  0.00000000E+00  0.00000000E+00
  0.00000000E+00  0.00000000E+00  0.00000000E+00
  0.00000000E+00  0.00000000E+00  0.00000000E+00
  0.00000000E+00  0.00000000E+00  0.00000000E+00
  0.00000000E+00  0.00000000E+00  0.00000000E+00
  0.00000000E+00  0.00000000E+00  0.00000000E+00
  0.00000000E+00  0.00000000E+00  0.00000000E+00
  0.00000000E+00  0.00000000E+00  0.00000000E+00
  0.00000000E+00  0.00000000E+00  0.00000000E+00
  0.00000000E+00  0.00000000E+00  0.00000000E+00
  0.00000000E+00  0.00000000E+00  0.00000000E+00
  0.00000000E+00  0.00000000E+00  0.00000000E+00
  0.00000000E+00  0.00000000E+00  0.00000000E+00
  0.00000000E+00  0.00000000E+00  0.00000000E+00
  0.00000000E+00  0.00000000E+00  0.00000000E+00
  0.00000000E+00  0.00000000E+00  0.00000000E+00
  0.00000000E+00  0.00000000E+00  0.00000000E+00
  0.00000000E+00  0.00000000E+00  0.00000000E+00
  0.00000000E+00  0.00000000E+00  0.00000000E+00
  0.00000000E+00  0.00000000E+00  0.00000000E+00
  0.00000000E+00  0.00000000E+00  0.00000000E+00
  0.00000000E+00  0.00000000E+00  0.00000000E+00
  0.00000000E+00  0.00000000E+00  0.00000000E+00
  0.00000000E+00  0.00000000E+00  0.00000000E+00
  0.00000000E+00  0.00000000E+00  0.00000000E+00
  0.00000000E+00  0.00000000E+00  0.00000000E+00
  0.00000000E+00  0.00000000E+00  0.00000000E+00
  0.00000000E+00  0.00000000E+00  0.00000000E+00
  0.00000000E+00  0.00000000E+00  0.00000000E+00
  0.00000000E+00  0.00000000E+00  0.00000000E+00
  0.00000000E+00  0.00000000E+00  0.00000000E+00
  0.00000000E+00  0.00000000E+00  0.00000000E+00
  0.00000000E+00  0.00000000E+00  0.00000000E+00
  0.00000000E+00  0.00000000E+00  0.00000000E+00
  0.00000000E+00  0.00000000E+00  0.00000000E+00
  0.00000000E+00  0.00000000E+00  0.00000000E+00
  0.00000000E+00  0.00000000E+00  0.00000000E+00
  0.00000000E+00  0.00000000E+00  0.00000000E+00
  0.00000000E+00  0.00000000E+00  0.00000000E+00
  0.00000000E+00  0.00000000E+00  0.00000000E+00
  0.00000000E+00  0.00000000E+00  0.00000000E+00
  0.00000000E+00  0.00000000E+00  0.00000000E+00
  0.00000000E+00  0.00000000E+00  0.00000000E+00
  0.00000000E+00  0.00000000E+00  0.00000000E+00
  0.00000000E+00  0.00000000E+00  0.00000000E+00
  0.00000000E+00  0.00000000E+00  0.00000000E+00
  0.00000000E+00  0.00000000E+00  0.00000000E+00
  0.00000000E+00  0.00000000E+00  0.00000000E+00
  0.00000000E+00  0.00000000E+00  0.00000000E+00
  0.00000000E+00  0.00000000E+00  0.00000000E+00
  0.00000000E+00  0.00000000E+00  0.00000000E+00
  0.00000000E+00  0.00000000E+00  0.00000000E+00
  0.00000000E+00  0.00000000E+00  0.00000000E+00
  0.00000000E+00  0.00000000E+00  0.00000000E+00
  0.00000000E+00  0.00000000E+00  0.00000000E+00
  0.00000000E+00  0.00000000E+00  0.00000000E+00
  0.00000000E+00  0.00000000E+00  0.00000000E+00
  0.00000000E+00  0.00000000E+00  0.00000000E+00
  0.00000000E+00  0.00000000E+00  0.00000000E+00
  0.00000000E+00  0.00000000E+00  0.00000000E+00
  0.00000000E+00  0.00000000E+00  0.00000000E+00
  0.00000000E+00  0.00000000E+00  0.00000000E+00
  0.00000000E+00  0.00000000E+00  0.00000000E+00
  0.00000000E+00  0.00000000E+00  0.00000000E+00
  0.00000000E+00  0.00000000E+00  0.00000000E+00
  0.00000000E+00  0.00000000E+00  0.00000000E+00
  0.00000000E+00  0.00000000E+00  0.00000000E+00
  0.00000000E+00  0.00000000E+00  0.00000000E+00
  0.00000000E+00  0.00000000E+00  0.00000000E+00
  0.00000000E+00  0.00000000E+00  0.00000000E+00
  0.00000000E+00  0.00000000E+00  0.00000000E+00
  0.00000000E+00  0.00000000E+00  0.00000000E+00
  0.00000000E+00  0.00000000E+00  0.00000000E+00
  0.00000000E+00  0.00000000E+00  0.00000000E+00
  0.00000000E+00  0.00000000E+00  0.00000000E+00
  0.00000000E+00  0.00000000E+00  0.00000000E+00
  0.00000000E+00  0.00000000E+00  0.00000000E+00
  0.00000000E+00  0.00000000E+00  0.00000000E+00
  0.00000000E+00  0.00000000E+00  0.00000000E+00
  0.00000000E+00  0.00000000E+00  0.00000000E+00
  0.00000000E+00  0.00000000E+00  0.00000000E+00
  0.00000000E+00  0.00000000E+00  0.00000000E+00
  0.00000000E+00  0.00000000E+00  0.00000000E+00
  0.00000000E+00  0.00000000E+00  0.00000000E+00
  0.00000000E+00  0.00000000E+00  0.00000000E+00
  0.00000000E+00  0.00000000E+00  0.00000000E+00
  0.00000000E+00  0.00000000E+00  0.00000000E+00
  0.00000000E+00  0.00000000E+00  0.00000000E+00
  0.00000000E+00  0.00000000E+00  0.00000000E+00
  0.00000000E+00  0.00000000E+00  0.00000000E+00
  0.00000000E+00  0.00000000E+00  0.00000000E+00
  0.00000000E+00  0.00000000E+00  0.00000000E+00
  0.00000000E+00  0.00000000E+00  0.00000000E+00
  0.00000000E+00  0.00000000E+00  0.00000000E+00
  0.00000000E+00  0.00000000E+00  0.00000000E+00
  0.00000000E+00  0.00000000E+00  0.00000000E+00
  0.00000000E+00  0.00000000E+00  0.00000000E+00
  0.00000000E+00  0.00000000E+00  0.00000000E+00
  0.00000000E+00  0.00000000E+00  0.00000000E+00
  0.00000000E+00  0.00000000E+00  0.00000000E+00
  0.00000000E+00  0.00000000E+00  0.00000000E+00
  0.00000000E+00  0.00000000E+00  0.00000000E+00
  0.00000000E+00  0.00000000E+00  0.00000000E+00
  0.00000000E+00  0.00000000E+00  0.00000000E+00
  0.00000000E+00  0.00000000E+00  0.00000000E+00
  0.00000000E+00  0.00000000E+00  0.00000000E+00
  0.00000000E+00  0.00000000E+00  0.00000000E+00
  0.00000000E+00  0.00000000E+00  0.00000000E+00
  0.00000000E+00  0.00000000E+00  0.00000000E+00
  0.00000000E+00  0.00000000E+00  0.00000000E+00
  0.00000000E+00  0.00000000E+00  0.00000000E+00
  0.00000000E+00  0.00000000E+00  0.00000000E+00
  0.00000000E+00  0.00000000E+00  0.00000000E+00
  0.00000000E+00  0.00000000E+00  0.00000000E+00
  0.00000000E+00  0.00000000E+00  0.00000000E+00
  0.00000000E+00  0.00000000E+00  0.00000000E+00
  0.00000000E+00  0.00000000E+00  0.00000000E+00
  0.00000000E+00  0.00000000E+00  0.00000000E+00
  0.00000000E+00  0.00000000E+00  0.00000000E+00
  0.00000000E+00  0.00000000E+00  0.00000000E+00
  0.00000000E+00  0.00000000E+00  0.00000000E+00
  0.00000000E+00  0.00000000E+00  0.00000000E+00
  0.00000000E+00  0.00000000E+00  0.00000000E+00
  0.00000000E+00  0.00000000E+00  0.00000000E+00
  0.00000000E+00  0.00000000E+00  0.00000000E+00
  0.00000000E+00  0.00000000E+00  0.00000000E+00
  0.00000000E+00  0.00000000E+00  0.00000000E+00
  0.00000000E+00  0.00000000E+00  0.00000000E+00
  0.00000000E+00  0.00000000E+00  0.00000000E+00
  0.00000000E+00  0.00000000E+00  0.00000000E+00
  0.00000000E+00  0.00000000E+00  0.00000000E+00
  0.00000000E+00  0.00000000E+00  0.00000000E+00
  0.00000000E+00  0.00000000E+00  0.00000000E+00
  0.00000000E+00  0.00000000E+00  0.00000000E+00
  0.00000000E+00  0.00000000E+00  0.00000000E+00
  0.00000000E+00  0.00000000E+00  0.00000000E+00
  0.00000000E+00  0.00000000E+00  0.00000000E+00
  0.00000000E+00  0.00000000E+00  0.00000000E+00
  0.00000000E+00  0.00000000E+00  0.00000000E+00
  0.00000000E+00  0.00000000E+00  0.00000000E+00