 B N Se 
 1.0
 14.936314146199660   0.000000000000000   0.000000000000000
 -7.468157073099825  12.935227489513863   0.000000000000000
  0.000000000000001   0.000000000000001  13.341276283792837
 B N Se 
 143 143   1
Cartesian
  1.278665678033630   0.737402107747447   5.002978606422314 
  4.847488566587871   7.325782741225461   5.002978606422314 
  6.250113304990199   0.677710294549984   5.002978606422314 
  9.927417463071489   7.172590210016891   5.002978606422314 
 11.238391827124815   0.739498551309606   5.002978606422314 
 -3.733997776572695   9.342155369221246  11.673616748318732 
  1.244692118871923   9.341977387211008  11.673616748318732 
  2.489466513063341   2.874621125095310  11.673616748318732 
  6.223525399124623   9.342107578422874  11.673616748318732 
  7.468030296134734   2.874554509270493  11.673616748318732 
 12.447097611319757   2.874563944400295  11.673616748318732 
 -1.262741301541826   9.344428746719510   5.002978606422314 
  0.059816603511391   2.909030129808986   5.002978606422314 
  5.026898517808268   2.789431486466504   5.002978606422314 
  3.703396025487740   9.443086511178846   5.002978606422314 
  8.685968373312436   9.322843108489486   5.002978606422314 
  9.999016520564894   2.872142945264247   5.002978606422314 
 -4.978714630333851  11.498098355595804  11.673616748318732 
 -0.000009607170463  11.497974443976506  11.673616748318732 
  1.244842486086384   5.030373176140389  11.673616748318732 
  6.223268858455840   5.030401951481072  11.673616748318732 
  4.978853909019329  11.498021742778286  11.673616748318732 
 11.202398123382487   5.030404388914961  11.673616748318732 
 -1.211443893902975   5.050398402755265   5.002978606422314 
 -2.496400736391392  11.481189567115681   5.002978606422314 
  2.496231916504717  11.537884637784249   5.002978606422314 
  7.476058111411160  11.507281569806736   5.002978606422314 
  8.711313216834618   5.005937943326796   5.002978606422314 
  0.000089347857104   7.186139991873914  11.673616748318732 
  1.244800251669357   0.718772242620337  11.673616748318732 
  4.978704619424142   7.186050446767285  11.673616748318732 
  6.223350107307159   0.718688797732457  11.673616748318732 
  9.957693862594716   7.186293012083862  11.673616748318732 
 -2.505649507927103   7.187313198422472   5.002978606422314 
 11.202333327043368   0.718680166580957  11.673616748318732 
  3.746533276691304   0.694396890773066   5.002978606422314 
  2.439782097267058   7.270448571939642   5.002978606422314 
  7.410678711854195   7.153052346836655   5.002978606422314 
  8.750831469474409   0.704600431043076   5.002978606422314 
  2.489354721052186   7.186034808427110  11.673616748318732 
 13.730702642329449   0.747186900987149   5.002978606422314 
 -1.244634667525867   9.342075568846347  11.673616748318732 
  0.000188296320245   2.874603710600900  11.673616748318732 
  4.978580366069892   2.874569519753004  11.673616748318732 
  3.734066686625512   9.341969194553785  11.673616748318732 
  8.712973547767174   9.342211838578312  11.673616748318732 
  9.957620185988176   2.874545592057640  11.673616748318732 
 -3.756616084104007   9.329096683279461   5.002978606422314 
  1.222585292948301   9.385644247882365   5.002978606422314 
  2.563175453471676   2.914057243570642   5.002978606422314 
  6.201540346073456   9.352992070943156   5.002978606422314 
  7.540265130525643   2.797434279261825   5.002978606422314 
 12.491205540861086   2.894058856564724   5.002978606422314 
 -1.244510543554238   5.030385015777316  11.673616748318732 
 -2.489385331201113  11.498046961086970  11.673616748318732 
  2.489397012096432  11.497947198955943  11.673616748318732 
  3.734011152461448   5.030327341700387  11.673616748318732 
  7.468271362767097  11.498101660203451  11.673616748318732 
 -4.985971703307586  11.483357259962276   5.002978606422314 
  8.712879496330313   5.030419804032834  11.673616748318732 
  0.002240190823282  11.499273365453687   5.002978606422314 
  1.315849636716828   5.074488931782401   5.002978606422314 
 -0.014753704969296   7.209137044856657   5.002978606422314 
  6.278672548767570   4.846899369111608   5.002978606422314 
  4.997471323148287  11.535073343541979   5.002978606422314 
 11.214241532625433   5.032557956251922   5.002978606422314 
 -2.489254808142031   7.186227460158157  11.673616748318732 
  3.734038771009256   0.718749878081841  11.673616748318732 
  7.468185819527910   7.186254090932407  11.673616748318732 
  8.712827180682913   0.718649949607140  11.673616748318732 
 13.691765588379818   0.718735769578279  11.673616748318732 
  0.000309259872274   1.437561067356905   1.667975183890286 
  3.733302366004939   7.904529389153274   1.660067825093377 
  4.978621576871315   1.437485413336234   1.667030383409638 
  8.712484184427034   7.904650086859276   1.667776278787896 
  9.957755068201850   1.437163059076139   1.667558245685867 
 -4.978786441830110  10.060807661111488   8.338275101241624 
  0.000025478739473  10.060744423448030   8.338184213691557 
  1.245073996999665   3.593338804998552   8.340083458122171 
  4.978360518336219  10.060899836459356   8.338759362619452 
  6.222788747936543   3.592612490896890   8.345889387751331 
 11.202494904738005   3.593105577217401   8.338241270186783 
 -2.489322597096039  10.060768919145803   1.667633750095191 
 -1.244266657274614   3.593229789731963   1.667975183890286 
  3.733482228888096   3.593268390917785   1.657997462628210 
  2.489093746904191  10.060897344976681   1.667518087680864 
  7.467954432212607  10.060729421590290   1.667868933867783 
  8.712789411439294   3.592679256351580   1.667197850225229 
 -6.223354521648399  12.216850534423314   8.338063770756747 
 -1.244669773074881  12.216619839530244   8.338184213691557 
  0.000418026516177   5.748831214805020   8.338284242393920 
  4.976788963831516   5.747845445637803   8.353754716198694 
  3.734111561608087  12.216829820692739   8.338398967158655 
  9.957438784771620   5.748816038310338   8.338088278976924 
 -2.489117107909292   5.748961606302532   1.667893442087772 
 -3.734047609620076  12.216878568513863   1.667802507035265 
  1.244747986354772  12.216635575674049   1.667623500492960 
  2.489217132561176   5.748398755840609   1.657997462628210 
  6.223582469685486  12.216834881164901   1.667715942657819 
  7.467092546814269   5.748296916279942   1.662409613236249 
 -1.244439373660571   7.904750612890044   8.338154705809282 
  0.000309259872274   1.437561067356906   8.337982028954421 
  3.733302366004940   7.904529389153275   8.345889387751331 
  4.978621576871316   1.437485413336234   8.338926829434977 
  8.712484184427034   7.904650086859277   8.338180934056732 
 -3.734020967936592   7.904810616820348   1.667682111602978 
  9.957755068201850   1.437163059076140   8.338398967158655 
  2.489457196314847   1.437688910684635   1.667672970450748 
  1.244823982921086   7.904612551236504   1.667030383409638 
  6.222331740367967   7.904285876315439   1.662409613236249 
  7.468153868035908   1.436912241236440   1.667518087680864 
  1.244823982921049   7.904612551236569   8.338926829434964 
 12.447243039400783   1.437429124127344   1.667632245067041 
 -2.489322597096038  10.060768919145803   8.338323462749477 
 -1.244266657274614   3.593229789731964   8.337982028954421 
  3.733482228888097   3.593268390917786   8.347959750216363 
  2.489093746904192  10.060897344976681   8.338439125163777 
  7.467954432212608  10.060729421590290   8.338088278976924 
  8.712789411439294   3.592679256351581   8.338759362619452 
 -4.978786441830111  10.060807661111488   1.667682111602978 
  0.000025478739472  10.060744423448030   1.667772999153031 
  1.245073996999664   3.593338804998551   1.665873754722402 
  4.978360518336218  10.060899836459356   1.667197850225229 
  6.222788747936542   3.592612490896889   1.660067825093377 
 11.202494904738005   3.593105577217400   1.667715942657819 
 -2.489117107909292   5.748961606302533   8.338063770756747 
 -3.734047609620076  12.216878568513863   8.338154705809282 
  1.244747986354773  12.216635575674049   8.338333712351641 
  2.489217132561177   5.748398755840610   8.347959750216363 
  6.223582469685487  12.216834881164901   8.338241270186783 
 -6.223354521648400  12.216850534423314   1.667893442087772 
  7.467092546814315   5.748296916279943   8.343547599608298 
 -1.244669773074881  12.216619839530244   1.667772999153031 
  0.000418026516176   5.748831214805019   1.667672970450748 
 -1.244439373660571   7.904750612890044   1.667802507035265 
  4.976788963831515   5.747845445637802   1.652202496645961 
  3.734111561608087  12.216829820692739   1.667558245685867 
  9.957438784771620   5.748816038310337   1.667868933867783 
 -3.734020967936592   7.904810616820349   8.338275101241624 
  2.489457196314802   1.437688910684635   8.338284242393920 
  6.222331740367968   7.904285876315440   8.343547599608298 
  7.468153868035909   1.436912241236441   8.338439125163777 
 12.447243039400783   1.437429124127345   8.338324967777535 
  1.244686602075462   0.718407160323993   1.668142420233047 
  4.978261465512497   7.186206569881544   1.655018368774289 
  6.223716395170530   0.718481139812074   1.668296591100768 
  9.957175006039986   7.186109788543927   1.668502726880595 
 11.202440368796985   0.718741967166264   1.667595042325771 
 -3.734244602929063   9.342012863958029   8.338132497675888 
  1.244695425769201   9.342398430766080   8.337660621743833 
  2.489101178879542   2.874183696044054   8.342664010966443 
  6.223127790662661   9.341836507191696   8.337347969043549 
  7.468308933995524   2.874210837714646   8.338838651306116 
 12.446954483258565   2.874589584204271   8.338132526563687 
 -1.244713105941566   9.342196790230663   1.667836252749804 
 -0.000093591243359   2.874440962740188   1.667693390936116 
  4.979004145165973   2.874231527692312   1.661651068806569 
  3.733908377257970   9.342382337797634   1.667118561538472 
  8.712555443249698   9.341854107390882   1.668502726880595 
  9.957646705400641   2.874498627972552   1.668219383686478 
 -4.978843365778271  11.497783291179955   8.338203017081561 
  0.000170305418136  11.498078316558066   8.338043402569010 
  1.244280994323714   5.030275501982029   8.342664010966443 
  6.223182488082965   5.029940107378880   8.350938844070285 
  4.978826496634772  11.498068191305784   8.337737829158122 
 11.202011268961277   5.030430311912665   8.337710356262050 
 -1.244883538894305   5.030469133490071   1.668142420233047 
 -2.489319569610693  11.497918420734234   1.667836252749804 
  2.489507940742432  11.498242023609901   1.667958017588083 
  3.732855142922552   5.029659919281902   1.639430394158643 
  7.468100385531024  11.497753672948301   1.668246856582616 
  8.712445937526940   5.030211000619528   1.668609243801054 
 -0.000106621976413   7.186400512433353   8.338339138074108 
  1.244686602075462   0.718407160323994   8.337814792611580 
  4.978261465512498   7.186206569881545   8.350938844070285 
  6.223716395170531   0.718481139812075   8.337660621743833 
  9.957175006039986   7.186109788543928   8.337454485964031 
 -2.489592029652186   7.186273504200830   1.667754195763134 
 11.202440368796985   0.718741967166265   8.338362170518804 
  3.734166403515225   0.718449902947840   1.667618074770559 
  2.489273900889421   7.186570807920203   1.661651068806569 
  7.467583174310604   7.185906153553995   1.667568648145104 
  8.713137970645880   0.718598604305643   1.667958017588083 
  2.489273900889421   7.186570807920204   8.344306144038059 
 13.691716229070911   0.718598997139137   1.667824686280888 
 -1.244713105941565   9.342196790230663   8.338120960094837 
 -0.000093591243359   2.874440962740189   8.338263821908392 
  4.979004145165974   2.874231527692313   8.344306144038059 
  3.733908377257971   9.342382337797634   8.338838651306116 
  8.712555443249698   9.341854107390882   8.337454485964031 
  9.957646705400641   2.874498627972553   8.337737829158122 
 -3.734244602929064   9.342012863958029   1.667824715168700 
  1.244695425769200   9.342398430766080   1.668296591100768 
  2.489101178879541   2.874183696044053   1.663293201878119 
  6.223127790662661   9.341836507191696   1.668609243801054 
  7.468308933995523   2.874210837714645   1.667118561538472 
 12.446954483258565   2.874589584204270   1.667824686280888 
 -1.244883538894304   5.030469133490072   8.337814792611580 
 -2.489319569610692  11.497918420734234   8.338120960094837 
  2.489507940742433  11.498242023609901   8.337999195256572 
  3.732855142922553   5.029659919281903   8.366526818685983 
  7.468100385531025  11.497753672948301   8.337710356262050 
 -4.978843365778272  11.497783291179955   1.667754195763134 
  8.712445937526940   5.030211000619529   8.337347969043549 
  0.000170305418135  11.498078316558066   1.667913810275672 
  1.244280994323713   5.030275501982028   1.663293201878119 
 -0.000106621976413   7.186400512433352   1.667618074770559 
  6.223182488082964   5.029940107378879   1.655018368774289 
  4.978826496634771  11.498068191305784   1.668219383686478 
 11.202011268961277   5.030430311912665   1.668246856582616 
 -2.489592029652185   7.186273504200831   8.338203017081561 
  3.734166403515225   0.718449902947841   8.338339138074108 
  7.467583174310605   7.185906153553996   8.338388564699539 
  8.713137970645880   0.718598604305643   8.337999195256572 
 13.691716229070911   0.718598997139137   8.338132526563687 
  0.041215795530487   1.466131848482492   5.002978606422314 
  3.660824320146296   8.036037056645016   5.002978606422314 
  5.006746334486417   1.371709756769674   5.002978606422314 
  8.664479619588418   7.876934638427207   5.002978606422314 
  9.990134140008449   1.439553915570214   5.002978606422314 
 -4.978751528922087  10.060749289732186  11.673616748318732 
  0.000045445431506  10.060774790912602  11.673616748318732 
  1.244713722015329   3.593130800139355  11.673616748318732 
  4.978843737041079  10.060737682832185  11.673616748318732 
  6.223513704306912   3.593151943308862  11.673616748318732 
 11.202276738943878   3.593178160667653  11.673616748318732 
 -2.510727664631257  10.048410697642272   5.002978606422314 
 -1.199070367184807   3.614370498230035   5.002978606422314 
  3.848341106432648   3.553180670066255   5.002978606422314 
  2.463126488011680  10.120841198091385   5.002978606422314 
  7.453001699425561  10.059767916256465   5.002978606422314 
  8.747261779852133   3.570525905604224   5.002978606422314 
 -6.223436405074522  12.216598635157400  11.673616748318732 
 -1.244633490733054  12.216621947460414  11.673616748318732 
 -0.000016898570779   5.749019489774357  11.673616748318732 
  4.978878346417292   5.749051751236149  11.673616748318732 
  3.734118063100958  12.216609825858592  11.673616748318732 
  9.957612059323719   5.749034619432999  11.673616748318732 
 -2.477384791908186   5.753285434972160   5.002978606422314 
 -3.739594327540531  12.194527831948244   5.002978606422314 
  1.251849743947935  12.220735777332301   5.002978606422314 
  2.511929586696178   5.867913322070148   5.002978606422314 
  6.245432779665468  12.243043309523447   5.002978606422314 
  7.430204596086540   5.703567765738658   5.002978606422314 
 -1.244694934578846   7.904883174710785  11.673616748318732 
  0.000024057194821   1.437234394624418  11.673616748318732 
  3.734132023683024   7.904887493580665  11.673616748318732 
  4.978813876916062   1.437225719102824  11.673616748318732 
  8.712928478188847   7.904906599982121  11.673616748318732 
 -3.762112263826027   7.892891293581790   5.002978606422314 
  9.957567797833345   1.437278686950969  11.673616748318732 
  2.528415362979366   1.454272699866813   5.002978606422314 
  1.201922972191358   7.961857134089807   5.002978606422314 
  6.165151184345629   7.894704549162280   5.002978606422314 
  7.507083138187753   1.384452008811448   5.002978606422314 
  1.244695231140126   7.904908935077082  11.673616748318732 
 12.484198507001427   1.458765373294675   5.002978606422314 
 -2.489355050909323  10.060750181927977  11.673616748318732 
 -1.244692165498384   3.593146133334280  11.673616748318732 
  3.734155967810669   3.593077925860222  11.673616748318732 
  2.489419963544966  10.060745704100164  11.673616748318732 
  7.468230366293759  10.060770191192752  11.673616748318732 
  8.712890591631329   3.593178812839070  11.673616748318732 
 -5.003154526495316  10.042439546865252   5.002978606422314 
 -0.021796311068128  10.074620678929735   5.002978606422314 
  1.311421797549363   3.631644725506102   5.002978606422314 
  4.976411338016548  10.101830458607052   5.002978606422314 
  6.300438705847490   3.464090828220806   5.002978606422314 
 11.236117224479747   3.598924286561382   5.002978606422314 
 -2.489376200785823   5.749016642808307  11.673616748318732 
 -3.734060588174828  12.216590965355964  11.673616748318732 
  1.244724664499307  12.216622110794399  11.673616748318732 
  2.489389054444072   5.749077463391870  11.673616748318732 
  6.223536245900289  12.216609652319734  11.673616748318732 
 -6.213743818178300  12.224849103790593   5.002978606422314 
  7.468251755131559   5.749065268186986  11.673616748318732 
 -1.243563478222047  12.190783487459834   5.002978606422314 
  0.034259092571245   5.774278082230207   5.002978606422314 
 -1.266569038279940   7.911122382546153   5.002978606422314 
  3.752371639972119  12.243675491181072   5.002978606422314 
  9.949129730333215   5.736347344527524   5.002978606422314 
 -3.734054062579895   7.904870037975242  11.673616748318732 
  2.489402784677749   1.437218117025856  11.673616748318732 
  6.223576756797217   7.904905604212788  11.673616748318732 
  7.468185651505054   1.437270573572618  11.673616748318732 
 12.446969667094161   1.437271292552519  11.673616748318732 
  4.437263019177431   5.436349996256987   5.002978606422314 
Generated by cif2cell 2.0.0.  :  Failed to get author information, No journal information. Species order: B N Se 
 1.0
 14.936314146199660   0.000000000000000   0.000000000000000
 -7.468157073099825  12.935227489513863   0.000000000000000
  0.000000000000001   0.000000000000001  13.341276283792837
 B N Se 
 143 143   1
Cartesian
  1.278665678033630   0.737402107747447   5.002978606422314 
  4.847488566587871   7.325782741225461   5.002978606422314 
  6.250113304990199   0.677710294549984   5.002978606422314 
  9.927417463071489   7.172590210016891   5.002978606422314 
 11.238391827124815   0.739498551309606   5.002978606422314 
 -3.733997776572695   9.342155369221246  11.673616748318732 
  1.244692118871923   9.341977387211008  11.673616748318732 
  2.489466513063341   2.874621125095310  11.673616748318732 
  6.223525399124623   9.342107578422874  11.673616748318732 
  7.468030296134734   2.874554509270493  11.673616748318732 
 12.447097611319757   2.874563944400295  11.673616748318732 
 -1.262741301541826   9.344428746719510   5.002978606422314 
  0.059816603511391   2.909030129808986   5.002978606422314 
  5.026898517808268   2.789431486466504   5.002978606422314 
  3.703396025487740   9.443086511178846   5.002978606422314 
  8.685968373312436   9.322843108489486   5.002978606422314 
  9.999016520564894   2.872142945264247   5.002978606422314 
 -4.978714630333851  11.498098355595804  11.673616748318732 
 -0.000009607170463  11.497974443976506  11.673616748318732 
  1.244842486086384   5.030373176140389  11.673616748318732 
  6.223268858455840   5.030401951481072  11.673616748318732 
  4.978853909019329  11.498021742778286  11.673616748318732 
 11.202398123382487   5.030404388914961  11.673616748318732 
 -1.211443893902975   5.050398402755265   5.002978606422314 
 -2.496400736391392  11.481189567115681   5.002978606422314 
  2.496231916504717  11.537884637784249   5.002978606422314 
  7.476058111411160  11.507281569806736   5.002978606422314 
  8.711313216834618   5.005937943326796   5.002978606422314 
  0.000089347857104   7.186139991873914  11.673616748318732 
  1.244800251669357   0.718772242620337  11.673616748318732 
  4.978704619424142   7.186050446767285  11.673616748318732 
  6.223350107307159   0.718688797732457  11.673616748318732 
  9.957693862594716   7.186293012083862  11.673616748318732 
 -2.505649507927103   7.187313198422472   5.002978606422314 
 11.202333327043368   0.718680166580957  11.673616748318732 
  3.746533276691304   0.694396890773066   5.002978606422314 
  2.439782097267058   7.270448571939642   5.002978606422314 
  7.410678711854195   7.153052346836655   5.002978606422314 
  8.750831469474409   0.704600431043076   5.002978606422314 
  2.489354721052186   7.186034808427110  11.673616748318732 
 13.730702642329449   0.747186900987149   5.002978606422314 
 -1.244634667525867   9.342075568846347  11.673616748318732 
  0.000188296320245   2.874603710600900  11.673616748318732 
  4.978580366069892   2.874569519753004  11.673616748318732 
  3.734066686625512   9.341969194553785  11.673616748318732 
  8.712973547767174   9.342211838578312  11.673616748318732 
  9.957620185988176   2.874545592057640  11.673616748318732 
 -3.756616084104007   9.329096683279461   5.002978606422314 
  1.222585292948301   9.385644247882365   5.002978606422314 
  2.563175453471676   2.914057243570642   5.002978606422314 
  6.201540346073456   9.352992070943156   5.002978606422314 
  7.540265130525643   2.797434279261825   5.002978606422314 
 12.491205540861086   2.894058856564724   5.002978606422314 
 -1.244510543554238   5.030385015777316  11.673616748318732 
 -2.489385331201113  11.498046961086970  11.673616748318732 
  2.489397012096432  11.497947198955943  11.673616748318732 
  3.734011152461448   5.030327341700387  11.673616748318732 
  7.468271362767097  11.498101660203451  11.673616748318732 
 -4.985971703307586  11.483357259962276   5.002978606422314 
  8.712879496330313   5.030419804032834  11.673616748318732 
  0.002240190823282  11.499273365453687   5.002978606422314 
  1.315849636716828   5.074488931782401   5.002978606422314 
 -0.014753704969296   7.209137044856657   5.002978606422314 
  6.278672548767570   4.846899369111608   5.002978606422314 
  4.997471323148287  11.535073343541979   5.002978606422314 
 11.214241532625433   5.032557956251922   5.002978606422314 
 -2.489254808142031   7.186227460158157  11.673616748318732 
  3.734038771009256   0.718749878081841  11.673616748318732 
  7.468185819527910   7.186254090932407  11.673616748318732 
  8.712827180682913   0.718649949607140  11.673616748318732 
 13.691765588379818   0.718735769578279  11.673616748318732 
  0.000309259872274   1.437561067356905   1.667975183890286 
  3.733302366004939   7.904529389153274   1.660067825093377 
  4.978621576871315   1.437485413336234   1.667030383409638 
  8.712484184427034   7.904650086859276   1.667776278787896 
  9.957755068201850   1.437163059076139   1.667558245685867 
 -4.978786441830110  10.060807661111488   8.338275101241624 
  0.000025478739473  10.060744423448030   8.338184213691557 
  1.245073996999665   3.593338804998552   8.340083458122171 
  4.978360518336219  10.060899836459356   8.338759362619452 
  6.222788747936543   3.592612490896890   8.345889387751331 
 11.202494904738005   3.593105577217401   8.338241270186783 
 -2.489322597096039  10.060768919145803   1.667633750095191 
 -1.244266657274614   3.593229789731963   1.667975183890286 
  3.733482228888096   3.593268390917785   1.657997462628210 
  2.489093746904191  10.060897344976681   1.667518087680864 
  7.467954432212607  10.060729421590290   1.667868933867783 
  8.712789411439294   3.592679256351580   1.667197850225229 
 -6.223354521648399  12.216850534423314   8.338063770756747 
 -1.244669773074881  12.216619839530244   8.338184213691557 
  0.000418026516177   5.748831214805020   8.338284242393920 
  4.976788963831516   5.747845445637803   8.353754716198694 
  3.734111561608087  12.216829820692739   8.338398967158655 
  9.957438784771620   5.748816038310338   8.338088278976924 
 -2.489117107909292   5.748961606302532   1.667893442087772 
 -3.734047609620076  12.216878568513863   1.667802507035265 
  1.244747986354772  12.216635575674049   1.667623500492960 
  2.489217132561176   5.748398755840609   1.657997462628210 
  6.223582469685486  12.216834881164901   1.667715942657819 
  7.467092546814269   5.748296916279942   1.662409613236249 
 -1.244439373660571   7.904750612890044   8.338154705809282 
  0.000309259872274   1.437561067356906   8.337982028954421 
  3.733302366004940   7.904529389153275   8.345889387751331 
  4.978621576871316   1.437485413336234   8.338926829434977 
  8.712484184427034   7.904650086859277   8.338180934056732 
 -3.734020967936592   7.904810616820348   1.667682111602978 
  9.957755068201850   1.437163059076140   8.338398967158655 
  2.489457196314847   1.437688910684635   1.667672970450748 
  1.244823982921086   7.904612551236504   1.667030383409638 
  6.222331740367967   7.904285876315439   1.662409613236249 
  7.468153868035908   1.436912241236440   1.667518087680864 
  1.244823982921049   7.904612551236569   8.338926829434964 
 12.447243039400783   1.437429124127344   1.667632245067041 
 -2.489322597096038  10.060768919145803   8.338323462749477 
 -1.244266657274614   3.593229789731964   8.337982028954421 
  3.733482228888097   3.593268390917786   8.347959750216363 
  2.489093746904192  10.060897344976681   8.338439125163777 
  7.467954432212608  10.060729421590290   8.338088278976924 
  8.712789411439294   3.592679256351581   8.338759362619452 
 -4.978786441830111  10.060807661111488   1.667682111602978 
  0.000025478739472  10.060744423448030   1.667772999153031 
  1.245073996999664   3.593338804998551   1.665873754722402 
  4.978360518336218  10.060899836459356   1.667197850225229 
  6.222788747936542   3.592612490896889   1.660067825093377 
 11.202494904738005   3.593105577217400   1.667715942657819 
 -2.489117107909292   5.748961606302533   8.338063770756747 
 -3.734047609620076  12.216878568513863   8.338154705809282 
  1.244747986354773  12.216635575674049   8.338333712351641 
  2.489217132561177   5.748398755840610   8.347959750216363 
  6.223582469685487  12.216834881164901   8.338241270186783 
 -6.223354521648400  12.216850534423314   1.667893442087772 
  7.467092546814315   5.748296916279943   8.343547599608298 
 -1.244669773074881  12.216619839530244   1.667772999153031 
  0.000418026516176   5.748831214805019   1.667672970450748 
 -1.244439373660571   7.904750612890044   1.667802507035265 
  4.976788963831515   5.747845445637802   1.652202496645961 
  3.734111561608087  12.216829820692739   1.667558245685867 
  9.957438784771620   5.748816038310337   1.667868933867783 
 -3.734020967936592   7.904810616820349   8.338275101241624 
  2.489457196314802   1.437688910684635   8.338284242393920 
  6.222331740367968   7.904285876315440   8.343547599608298 
  7.468153868035909   1.436912241236441   8.338439125163777 
 12.447243039400783   1.437429124127345   8.338324967777535 
  1.244686602075462   0.718407160323993   1.668142420233047 
  4.978261465512497   7.186206569881544   1.655018368774289 
  6.223716395170530   0.718481139812074   1.668296591100768 
  9.957175006039986   7.186109788543927   1.668502726880595 
 11.202440368796985   0.718741967166264   1.667595042325771 
 -3.734244602929063   9.342012863958029   8.338132497675888 
  1.244695425769201   9.342398430766080   8.337660621743833 
  2.489101178879542   2.874183696044054   8.342664010966443 
  6.223127790662661   9.341836507191696   8.337347969043549 
  7.468308933995524   2.874210837714646   8.338838651306116 
 12.446954483258565   2.874589584204271   8.338132526563687 
 -1.244713105941566   9.342196790230663   1.667836252749804 
 -0.000093591243359   2.874440962740188   1.667693390936116 
  4.979004145165973   2.874231527692312   1.661651068806569 
  3.733908377257970   9.342382337797634   1.667118561538472 
  8.712555443249698   9.341854107390882   1.668502726880595 
  9.957646705400641   2.874498627972552   1.668219383686478 
 -4.978843365778271  11.497783291179955   8.338203017081561 
  0.000170305418136  11.498078316558066   8.338043402569010 
  1.244280994323714   5.030275501982029   8.342664010966443 
  6.223182488082965   5.029940107378880   8.350938844070285 
  4.978826496634772  11.498068191305784   8.337737829158122 
 11.202011268961277   5.030430311912665   8.337710356262050 
 -1.244883538894305   5.030469133490071   1.668142420233047 
 -2.489319569610693  11.497918420734234   1.667836252749804 
  2.489507940742432  11.498242023609901   1.667958017588083 
  3.732855142922552   5.029659919281902   1.639430394158643 
  7.468100385531024  11.497753672948301   1.668246856582616 
  8.712445937526940   5.030211000619528   1.668609243801054 
 -0.000106621976413   7.186400512433353   8.338339138074108 
  1.244686602075462   0.718407160323994   8.337814792611580 
  4.978261465512498   7.186206569881545   8.350938844070285 
  6.223716395170531   0.718481139812075   8.337660621743833 
  9.957175006039986   7.186109788543928   8.337454485964031 
 -2.489592029652186   7.186273504200830   1.667754195763134 
 11.202440368796985   0.718741967166265   8.338362170518804 
  3.734166403515225   0.718449902947840   1.667618074770559 
  2.489273900889421   7.186570807920203   1.661651068806569 
  7.467583174310604   7.185906153553995   1.667568648145104 
  8.713137970645880   0.718598604305643   1.667958017588083 
  2.489273900889421   7.186570807920204   8.344306144038059 
 13.691716229070911   0.718598997139137   1.667824686280888 
 -1.244713105941565   9.342196790230663   8.338120960094837 
 -0.000093591243359   2.874440962740189   8.338263821908392 
  4.979004145165974   2.874231527692313   8.344306144038059 
  3.733908377257971   9.342382337797634   8.338838651306116 
  8.712555443249698   9.341854107390882   8.337454485964031 
  9.957646705400641   2.874498627972553   8.337737829158122 
 -3.734244602929064   9.342012863958029   1.667824715168700 
  1.244695425769200   9.342398430766080   1.668296591100768 
  2.489101178879541   2.874183696044053   1.663293201878119 
  6.223127790662661   9.341836507191696   1.668609243801054 