Species order: X N B                    
   2.51242800000000     
     5.9449720136058266    0.0000000000000000    0.0000000000000000
    -2.9724860068029120    5.1484967885702053   -0.0000000000000001
     0.0000000000000000    0.0000000000000009    5.3101128803662583
   Se   N    B 
     1   143   143
Direct
  0.5055699701109029  0.4194516517221157  0.3750000000000000
  0.1110874842362523  0.0555311467860219  0.1250336206926685
  0.6110671530439247  0.5555467688671625  0.1240007538339165
  0.4444439544780766  0.0555387484816879  0.1250478546094656
  0.9443997292666227  0.5555393234678700  0.1250700747699683
  0.7777838940577587  0.0555586136955471  0.1249990076597308
  0.1110827918564812  0.7222080625949060  0.6249887842633671
  0.4444439544780766  0.7222385393297251  0.6249521453905329
  0.2777295623275101  0.2221901389034310  0.6253167599620981
  0.7777321906194837  0.7221948650673296  0.6249482099250413
  0.6110955701378166  0.2221944094298717  0.6250661636301265
  0.9444367758677935  0.2222239685523353  0.6249884005845356
  0.2777697920181615  0.7222244575289133  0.1250122661299189
  0.1110870545518692  0.2222101939425987  0.1250118566161927
  0.4444357300721113  0.2221975701183980  0.1245279567934179
  0.6110955701378166  0.7222344940412742  0.1249338363698730
  0.9443997292666227  0.7221937391320880  0.1250700747699683
  0.7777707673693889  0.2222168290527622  0.1250449924762702
  0.1110856127725015  0.8888666616664257  0.6249971392941213
  0.4444496173600054  0.8888914753466663  0.6249801390216341
  0.2777295623275101  0.3888727567574085  0.6253167599620981
  0.6110671530439247  0.3888537175100932  0.6259992461660847
  0.7777707673693889  0.8888872716499544  0.6249550075237288
  0.9444175916772574  0.3888881207083149  0.6249558428532539
  0.1110874842362523  0.3888896707835585  0.1250336206926685
  0.2777697920181615  0.8888786678225779  0.1250122661299189
  0.6111167670338593  0.8889023870583370  0.1250277917435906
  0.4443208027101212  0.3888270680217251  0.1228080531691365
  0.9444175916772574  0.8888628043022692  0.1250441571467466
  0.7777321906194837  0.3888706588854848  0.1250517900749584
  0.2777644137995630  0.5555617580395371  0.6250039815775470
  0.1110874842362523  0.0555311467860219  0.6249663793073313
  0.6110671530439247  0.5555467688671625  0.6259992461660847
  0.4444439544780766  0.0555387484816879  0.6249521453905329
  0.9443997292666227  0.5555393234678700  0.6249299252300301
  0.1110856127725015  0.5555522844394030  0.1250028607058795
  0.7777838940577587  0.0555586136955471  0.6250009923402701
  0.2777644137995630  0.0555359890933601  0.1249960184224527
  0.4444357300721113  0.5555714932870499  0.1245279567934179
  0.7777167764441100  0.5555250548887229  0.1249569707128674
  0.6111167670338593  0.0555477133088532  0.1250277917435906
  0.4444357300721113  0.5555714932870499  0.6254720432065818
  0.9444367758677935  0.0555461406487954  0.1250115994154637
  0.2777697920181615  0.7222244575289133  0.6249877338700826
  0.1110870545518692  0.2222101939425987  0.6249881433838077
  0.4444357300721113  0.2221975701183980  0.6254720432065818
  0.6110955701378166  0.7222344940412742  0.6250661636301265
  0.9443997292666227  0.7221937391320880  0.6249299252300301
  0.7777707673693889  0.2222168290527622  0.6249550075237288
  0.1110827918564812  0.7222080625949060  0.1250112157366328
  0.4444439544780766  0.7222385393297253  0.1250478546094656
  0.2777295623275101  0.2221901389034310  0.1246832400379030
  0.7777321906194837  0.7221948650673296  0.1250517900749584
  0.6110955701378166  0.2221944094298717  0.1249338363698730
  0.9444367758677935  0.2222239685523353  0.1250115994154637
  0.1110874842362523  0.3888896707835585  0.6249663793073313
  0.2777697920181615  0.8888786678225779  0.6249877338700826
  0.6111167670338593  0.8889023870583370  0.6249722082564102
  0.4443208027101212  0.3888270680217251  0.6271919468308625
  0.9444175916772574  0.8888628043022692  0.6249558428532539
  0.1110856127725015  0.8888666616664257  0.1250028607058795
  0.7777321906194837  0.3888706588854848  0.6249482099250413
  0.4444496173600054  0.8888914753466663  0.1250198609783652
  0.2777295623275101  0.3888727567574085  0.1246832400379030
  0.2777644137995630  0.5555617580395371  0.1249960184224527
  0.6110671530439247  0.3888537175100932  0.1240007538339165
  0.7777707673693889  0.8888872716499544  0.1250449924762702
  0.9444175916772574  0.3888881207083149  0.1250441571467466
  0.1110856127725015  0.5555522844394030  0.6249971392941213
  0.2777644137995630  0.0555359890933601  0.6250039815775470
  0.7777167764441100  0.5555250548887229  0.6250430292871324
  0.6111167670338593  0.0555477133088532  0.6249722082564102
  0.9444367758677935  0.0555461406487954  0.6249884005845356
  0.0578831230460086  0.1125747244277962  0.3750000000000000
  0.5542013108941731  0.6204679813443236  0.3750000000000000
  0.3866903942197007  0.1052899867458259  0.3750000000000000
  0.8830498440910604  0.6081915887121981  0.3750000000000000
  0.7229243678406356  0.1105055678555923  0.3750000000000000
  0.0555637535124465  0.7777827438780397  0.8750000000000000
  0.3889019346346361  0.7777847386529596  0.8750000000000000
  0.2222305863990957  0.2777819598662153  0.8750000000000000
  0.7222371283653698  0.7777824964682990  0.8750000000000000
  0.5555681303103005  0.2777856156276029  0.8750000000000000
  0.8889039325637509  0.2777868359726252  0.8750000000000000
  0.2187723015272108  0.7760528174302724  0.3750000000000000
  0.0578831230460086  0.2786417319515483  0.3750000000000000
  0.3934525881295969  0.2739160503369810  0.3750000000000000
  0.5545766342553001  0.7816347969212688  0.3750000000000000
  0.8862972149302313  0.7769296651610247  0.3750000000000000
  0.7221141482128789  0.2752682084552709  0.3750000000000000
  0.0555630182637383  0.9444480424767588  0.8750000000000000
  0.3889019346346361  0.9444505293150124  0.8750000000000000
  0.2222292499830194  0.4444500838180633  0.8750000000000000
  0.5555725266093552  0.4444529299713419  0.8750000000000000
  0.7222352316593816  0.9444487723956737  0.8750000000000000
  0.8889014364401923  0.4444507977588085  0.8750000000000000
  0.0549788145951257  0.4439997461019696  0.3750000000000000
  0.2194573932710999  0.9419795124747069  0.3750000000000000
  0.5546232451370557  0.9439782892351920  0.3750000000000000
  0.3934525881295969  0.4528698711259508  0.3750000000000000
  0.8898334106323655  0.9457169476965493  0.3750000000000000
  0.7163979708278897  0.4401822148593552  0.3750000000000000
  0.2222306793908864  0.6111161138747990  0.8750000000000000
  0.0555637708129881  0.1111142408115422  0.8750000000000000
  0.5555681303103005  0.6111158480160328  0.8750000000000000
  0.3888994745474179  0.1111148071125113  0.8750000000000000
  0.8889021855498539  0.6111177594415986  0.8750000000000000
  0.0516869089967849  0.6094204895870371  0.3750000000000000
  0.7222352316593816  0.1111197925970435  0.8750000000000000
  0.2239461910173963  0.1116659562060493  0.3750000000000000
  0.3866903942197007  0.6147337408072195  0.3750000000000000
  0.7163979708278897  0.6095490893018733  0.3750000000000000
  0.5545766342553001  0.1062751706673667  0.3750000000000000
  0.3888994745474179  0.6111180007682488  0.8750000000000000
  0.8906559916801939  0.1119946625067679  0.3750000000000000
  0.2222327368576688  0.7777830350955022  0.8750000000000000
  0.0555637708129881  0.2777828633347822  0.8750000000000000
  0.3888988405098663  0.2777782921765987  0.8750000000000000
  0.5555667697293584  0.7777815626917647  0.8750000000000000
  0.8889014364401923  0.7777839720147178  0.8750000000000000
  0.7222371283653698  0.2777879652304049  0.8750000000000000
  0.0516869089967849  0.7755997527430849  0.3750000000000000
  0.3864122576043977  0.7780653915851197  0.3750000000000000
  0.2266411757322672  0.2799872545328018  0.3750000000000000
  0.7221141482128789  0.7801792730909448  0.3750000000000000
  0.5542013108941731  0.2670666628831830  0.3750000000000000
  0.8898334106323655  0.2774497962691515  0.3750000000000000
  0.0555630182637383  0.4444483091203101  0.8750000000000000
  0.2222306793908864  0.9444478988494243  0.8750000000000000
  0.5555671211058500  0.9444502272195899  0.8750000000000000
  0.3888988405098663  0.4444538816666034  0.8750000000000000
  0.8889039325637509  0.9444504299244622  0.8750000000000000
  0.0549788145951257  0.9443124018264850  0.3750000000000000
  0.7222386887818346  0.4444545924301656  0.8750000000000000
  0.3864122576043977  0.9416801993526126  0.3750000000000000
  0.2239461910173963  0.4456135681446826  0.3750000000000000
  0.2194573932710999  0.6108112141297293  0.3750000000000000
  0.7229243678406356  0.9457521333183794  0.3750000000000000
  0.8862972149302311  0.4427008831025445  0.3750000000000000
  0.0555637535124465  0.6111143429677430  0.8750000000000000
  0.2222292499830194  0.1111124994982926  0.8750000000000000
  0.7222386887818346  0.6111174296850049  0.8750000000000000
  0.5555667697293584  0.1111185403709307  0.8750000000000000
  0.8889003730394828  0.1111168531864122  0.8750000000000000
  0.1125639444286535  0.0562404950680768  0.3750000000000000
  0.6061743431355435  0.5655345331179994  0.3750000000000000
  0.4430965109855453  0.0516365984117167  0.3750000000000000
  0.9403617670790002  0.5537287225107841  0.3750000000000000
  0.7794384252035432  0.0563858792684394  0.3750000000000000
  0.1111223271928188  0.7222278302630739  0.8750000000000000
  0.4444478568178952  0.7222161367110181  0.8750000000000000
  0.2777927947328946  0.2222339257515005  0.8750000000000000
  0.7777899074438540  0.7222262516549837  0.8750000000000000
  0.6111131881978871  0.2222309453439728  0.8750000000000000
  0.9444666337739049  0.2222309122283103  0.8750000000000000
  0.2750936885737640  0.7216137263970955  0.3750000000000000
  0.1149163651597561  0.2241248492465422  0.3750000000000000
  0.4428613206457415  0.2149013035546871  0.3750000000000000
  0.6114202474932617  0.7292418963234785  0.3750000000000000
  0.9403617670790002  0.7199663779015502  0.3750000000000000
  0.7789075603966995  0.2212626175327937  0.3750000000000000
  0.1111250464058421  0.8889003470063463  0.8750000000000000
  0.4444524876078763  0.8888929104706043  0.8750000000000000
  0.2777927947328946  0.3888922023147222  0.8750000000000000
  0.6111058002739309  0.3888960714718805  0.8750000000000000
  0.7777899304095149  0.8888948830338688  0.8750000000000000
  0.9444642004587164  0.3888962105966211  0.8750000000000000
  0.1125639444286535  0.3896567826939046  0.3750000000000000
  0.2750936885737640  0.8868132955099980  0.3750000000000000
  0.6115347081202035  0.8911794083957822  0.3750000000000000
  0.9437840844254755  0.8888308388513136  0.3750000000000000
  0.7751803144550373  0.3862330752376225  0.3750000000000000
  0.2777869503103556  0.5555520976862107  0.8750000000000000
  0.1111304188586467  0.0555694346394206  0.8750000000000000
  0.6111058002739309  0.5555430621353777  0.8750000000000000
  0.4444478568178952  0.0555650534402142  0.8750000000000000
  0.9444624776636467  0.5555630001331670  0.8750000000000000
  0.1085191516533955  0.5548605816844440  0.3750000000000000
  0.7777908924906687  0.0555621129120026  0.8750000000000000
  0.2761249002459119  0.0529325495564914  0.3750000000000000
  0.4428613206457416  0.5612933504243898  0.3750000000000000
  0.7711220621216252  0.5522276977274817  0.3750000000000000
  0.6115347081202035  0.0536886330577485  0.3750000000000000
  0.4444412420163003  0.5555420868201568  0.8750000000000000
  0.9466236582958024  0.0569952024526541  0.3750000000000000
  0.2777869324811967  0.7222230857113250  0.8750000000000000
  0.1111357921891726  0.2222345627612505  0.8750000000000000
  0.4444412420163003  0.2222324885294813  0.8750000000000000
  0.6111131881978871  0.7222155761872420  0.8750000000000000
  0.9444624776636467  0.7222328108638171  0.8750000000000000
  0.7777899304095149  0.2222283807089749  0.8750000000000000
  0.1075509824275265  0.7204421578804253  0.3750000000000000
  0.4430965109855453  0.7247932459071655  0.3750000000000000
  0.2827244391958662  0.2245159919025512  0.3750000000000000
  0.7751803144550373  0.7222805725507426  0.3750000000000000
  0.6114202474932617  0.2155116845031097  0.3750000000000000
  0.9466236582958024  0.2229617891764835  0.3750000000000000
  0.1111304188586467  0.3888943175525550  0.8750000000000000
  0.2777869324811967  0.8888971801032021  0.8750000000000000
  0.6111189542850595  0.8888899758982948  0.8750000000000000
  0.4444441673502165  0.3888887503417726  0.8750000000000000
  0.9444642004587164  0.8889013231954246  0.8750000000000000
  0.1085191516533955  0.8869919033022798  0.3750000000000000
  0.7777899074438540  0.3888969891221978  0.8750000000000000
  0.4430679306089512  0.8882006319711401  0.3750000000000000
  0.2827244391958662  0.3915417806266426  0.3750000000000000
  0.2761249002459119  0.5565256840227534  0.3750000000000000
  0.6061743431355437  0.3739731433508735  0.3750000000000000
  0.7789075603966995  0.8909782761972342  0.3750000000000000
  0.9437840844254755  0.3882865789074924  0.3750000000000000
  0.1111250464058421  0.5555580327328231  0.8750000000000000
  0.2777869503103556  0.0555681859574817  0.8750000000000000
  0.7777891003808013  0.5555612168570672  0.8750000000000000
  0.6111189542850595  0.0555623117200919  0.8750000000000000
  0.9444666337739049  0.0555690548789321  0.8750000000000000
  0.0555763112980475  0.1111278864690862  0.1250219324924777
  0.5554773956380521  0.6110756295907513  0.1243867470114787
  0.3888745300452490  0.1111242020120465  0.1249441351100255
  0.8888455971198901  0.6110894652266180  0.1250036842022270
  0.7222221856448956  0.1111005905744964  0.1249966871490315
  0.0555476243379337  0.7777783685351107  0.6249991422185254
  0.3888808717248329  0.7777724828744177  0.6249919417410830
  0.2222414367706112  0.2777873850519740  0.6251194537489302
  0.7221867547123915  0.7777821036932803  0.6250509940890769
  0.5554773956380521  0.2777350993806356  0.6256132529885220
  0.8888927230028437  0.2777715067140032  0.6249934636175879
  0.2222174924045624  0.7777754128689490  0.1249935764263827
  0.0555763112980475  0.2777817581622976  0.1250219324924777
  0.3888360832657996  0.2777844627890982  0.1242406248737157
  0.5555306548412008  0.7777829291551055  0.1249818489760313
  0.8888626158043540  0.7777711721241629  0.1250145261617371
  0.7221867547123915  0.2777379843524470  0.1249490059109217
  0.0555597404069114  0.9444551897534462  0.6249861424714286
  0.3888808717248329  0.9444417221837504  0.6249919417410830
  0.2222307249068976  0.4444264469739942  0.6249960124524779
  0.5553643399240942  0.4443488366287114  0.6262310741623464
  0.7222221856448956  0.9444549284037351  0.6250033128509693
  0.8888626158043540  0.4444247770135266  0.6249854738382608
  0.0555597404069114  0.4444378839867919  0.1250138575285707
  0.2222240214880747  0.9444593772443383  0.1250086771858923
  0.5555505692411401  0.9444419512872348  0.1250010262356784
  0.3888360832657996  0.4443849538100360  0.1242406248737157
  0.8888927230028437  0.9444545496221750  0.1250065363824118
  0.7221124386318455  0.4443851189050302  0.1245672645563364
  0.2222240214880747  0.6110979775770710  0.6249913228141071
  0.0555763112980475  0.1111278864690862  0.6249780675075236
  0.5554773956380521  0.6110756295907513  0.6256132529885220
  0.3888745300452490  0.1111242020120465  0.6250558648899739
  0.8888455971198901  0.6110894652266180  0.6249963157977715
  0.0555476243379337  0.6111025891361591  0.1250008577814736
  0.7222221856448956  0.1111005905744964  0.6250033128509693
  0.2222307249068976  0.1111376112662390  0.1250039875475229
  0.3888745300452490  0.6110836613665439  0.1249441351100255
  0.7221124386318455  0.6110606530601522  0.1245672645563364
  0.5555306548412008  0.1110810590194307  0.1249818489760313
  0.3888745300452490  0.6110836613665439  0.6250558648899739
  0.8889042723174565  0.1111188028253998  0.1249976062282349
  0.2222174924045624  0.7777754128689490  0.6250064235736166
  0.0555763112980475  0.2777817581622976  0.6249780675075236
  0.3888360832657996  0.2777844627890982  0.6257593751262851
  0.5555306548412008  0.7777829291551055  0.6250181510239662
  0.8888626158043540  0.7777711721241629  0.6249854738382608
  0.7221867547123915  0.2777379843524470  0.6250509940890769
  0.0555476243379337  0.7777783685351107  0.1250008577814735
  0.3888808717248329  0.7777724828744177  0.1250080582589176
  0.2222414367706112  0.2777873850519740  0.1248805462510710
  0.7221867547123915  0.7777821036932803  0.1249490059109217
  0.5554773956380521  0.2777350993806356  0.1243867470114787
  0.8888927230028437  0.2777715067140032  0.1250065363824118
  0.0555597404069114  0.4444378839867919  0.6249861424714286
  0.2222240214880747  0.9444593772443383  0.6249913228141071
  0.5555505692411401  0.9444419512872348  0.6249989737643225
  0.3888360832657996  0.4443849538100360  0.6257593751262851
  0.8888927230028437  0.9444545496221750  0.6249934636175879
  0.0555597404069114  0.9444551897534462  0.1250138575285707
  0.7221124386318455  0.4443851189050302  0.6254327354436637
  0.3888808717248329  0.9444417221837504  0.1250080582589176
  0.2222307249068976  0.4444264469739942  0.1250039875475229
  0.2222240214880747  0.6110979775770710  0.1250086771858923
  0.5553643399240942  0.4443488366287114  0.1237689258376536
  0.7222221856448956  0.9444549284037351  0.1249966871490315
  0.8888626158043540  0.4444247770135266  0.1250145261617371
  0.0555476243379337  0.6111025891361591  0.6249991422185254
  0.2222307249068976  0.1111376112662390  0.6249960124524779
  0.7221124386318455  0.6110606530601522  0.6254327354436637
  0.5555306548412008  0.1110810590194307  0.6250181510239662
  0.8889042723174565  0.1111188028253998  0.6250023937717657
 
  0.00000000E+00  0.00000000E+00  0.00000000E+00
  0.00000000E+00  0.00000000E+00  0.00000000E+00
  0.00000000E+00  0.00000000E+00  0.00000000E+00
  0.00000000E+00  0.00000000E+00  0.00000000E+00
  0.00000000E+00  0.00000000E+00  0.00000000E+00
  0.00000000E+00  0.00000000E+00  0.00000000E+00
  0.00000000E+00  0.00000000E+00  0.00000000E+00
  0.00000000E+00  0.00000000E+00  0.00000000E+00
  0.00000000E+00  0.00000000E+00  0.00000000E+00
  0.00000000E+00  0.00000000E+00  0.00000000E+00
  0.00000000E+00  0.00000000E+00  0.00000000E+00
  0.00000000E+00  0.00000000E+00  0.00000000E+00
  0.00000000E+00  0.00000000E+00  0.00000000E+00
  0.00000000E+00  0.00000000E+00  0.00000000E+00
  0.00000000E+00  0.00000000E+00  0.00000000E+00
  0.00000000E+00  0.00000000E+00  0.00000000E+00
  0.00000000E+00  0.00000000E+00  0.00000000E+00
  0.00000000E+00  0.00000000E+00  0.00000000E+00
  0.00000000E+00  0.00000000E+00  0.00000000E+00
  0.00000000E+00  0.00000000E+00  0.00000000E+00
  0.00000000E+00  0.00000000E+00  0.00000000E+00
  0.00000000E+00  0.00000000E+00  0.00000000E+00
  0.00000000E+00  0.00000000E+00  0.00000000E+00
  0.00000000E+00  0.00000000E+00  0.00000000E+00
  0.00000000E+00  0.00000000E+00  0.00000000E+00
  0.00000000E+00  0.00000000E+00  0.00000000E+00
  0.00000000E+00  0.00000000E+00  0.00000000E+00
  0.00000000E+00  0.00000000E+00  0.00000000E+00
  0.00000000E+00  0.00000000E+00  0.00000000E+00
  0.00000000E+00  0.00000000E+00  0.00000000E+00
  0.00000000E+00  0.00000000E+00  0.00000000E+00
  0.00000000E+00  0.00000000E+00  0.00000000E+00
  0.00000000E+00  0.00000000E+00  0.00000000E+00
  0.00000000E+00  0.00000000E+00  0.00000000E+00
  0.00000000E+00  0.00000000E+00  0.00000000E+00
  0.00000000E+00  0.00000000E+00  0.00000000E+00
  0.00000000E+00  0.00000000E+00  0.00000000E+00
  0.00000000E+00  0.00000000E+00  0.00000000E+00
  0.00000000E+00  0.00000000E+00  0.00000000E+00
  0.00000000E+00  0.00000000E+00  0.00000000E+00
  0.00000000E+00  0.00000000E+00  0.00000000E+00
  0.00000000E+00  0.00000000E+00  0.00000000E+00
  0.00000000E+00  0.00000000E+00  0.00000000E+00
  0.00000000E+00  0.00000000E+00  0.00000000E+00
  0.00000000E+00  0.00000000E+00  0.00000000E+00
  0.00000000E+00  0.00000000E+00  0.00000000E+00
  0.00000000E+00  0.00000000E+00  0.00000000E+00
  0.00000000E+00  0.00000000E+00  0.00000000E+00
  0.00000000E+00  0.00000000E+00  0.00000000E+00
  0.00000000E+00  0.00000000E+00  0.00000000E+00
  0.00000000E+00  0.00000000E+00  0.00000000E+00
  0.00000000E+00  0.00000000E+00  0.00000000E+00
  0.00000000E+00  0.00000000E+00  0.00000000E+00
  0.00000000E+00  0.00000000E+00  0.00000000E+00
  0.00000000E+00  0.00000000E+00  0.00000000E+00
  0.00000000E+00  0.00000000E+00  0.00000000E+00
  0.00000000E+00  0.00000000E+00  0.00000000E+00
  0.00000000E+00  0.00000000E+00  0.00000000E+00
  0.00000000E+00  0.00000000E+00  0.00000000E+00
  0.00000000E+00  0.00000000E+00  0.00000000E+00
  0.00000000E+00  0.00000000E+00  0.00000000E+00
  0.00000000E+00  0.00000000E+00  0.00000000E+00
  0.00000000E+00  0.00000000E+00  0.00000000E+00
  0.00000000E+00  0.00000000E+00  0.00000000E+00
  0.00000000E+00  0.00000000E+00  0.00000000E+00
  0.00000000E+00  0.00000000E+00  0.00000000E+00
  0.00000000E+00  0.00000000E+00  0.00000000E+00
  0.00000000E+00  0.00000000E+00  0.00000000E+00
  0.00000000E+00  0.00000000E+00  0.00000000E+00
  0.00000000E+00  0.00000000E+00  0.00000000E+00
  0.00000000E+00  0.00000000E+00  0.00000000E+00
  0.00000000E+00  0.00000000E+00  0.00000000E+00
  0.00000000E+00  0.00000000E+00  0.00000000E+00
  0.00000000E+00  0.00000000E+00  0.00000000E+00
  0.00000000E+00  0.00000000E+00  0.00000000E+00
  0.00000000E+00  0.00000000E+00  0.00000000E+00
  0.00000000E+00  0.00000000E+00  0.00000000E+00
  0.00000000E+00  0.00000000E+00  0.00000000E+00
  0.00000000E+00  0.00000000E+00  0.00000000E+00
  0.00000000E+00  0.00000000E+00  0.00000000E+00
  0.00000000E+00  0.00000000E+00  0.00000000E+00
  0.00000000E+00  0.00000000E+00  0.00000000E+00
  0.00000000E+00  0.00000000E+00  0.00000000E+00
  0.00000000E+00  0.00000000E+00  0.00000000E+00
  0.00000000E+00  0.00000000E+00  0.00000000E+00
  0.00000000E+00  0.00000000E+00  0.00000000E+00
  0.00000000E+00  0.00000000E+00  0.00000000E+00
  0.00000000E+00  0.00000000E+00  0.00000000E+00
  0.00000000E+00  0.00000000E+00  0.00000000E+00
  0.00000000E+00  0.00000000E+00  0.00000000E+00
  0.00000000E+00  0.00000000E+00  0.00000000E+00
  0.00000000E+00  0.00000000E+00  0.00000000E+00
  0.00000000E+00  0.00000000E+00  0.00000000E+00
  0.00000000E+00  0.00000000E+00  0.00000000E+00
  0.00000000E+00  0.00000000E+00  0.00000000E+00
  0.00000000E+00  0.00000000E+00  0.00000000E+00
  0.00000000E+00  0.00000000E+00  0.00000000E+00
  0.00000000E+00  0.00000000E+00  0.00000000E+00
  0.00000000E+00  0.00000000E+00  0.00000000E+00
  0.00000000E+00  0.00000000E+00  0.00000000E+00
  0.00000000E+00  0.00000000E+00  0.00000000E+00
  0.00000000E+00  0.00000000E+00  0.00000000E+00
  0.00000000E+00  0.00000000E+00  0.00000000E+00
  0.00000000E+00  0.00000000E+00  0.00000000E+00
  0.00000000E+00  0.00000000E+00  0.00000000E+00
  0.00000000E+00  0.00000000E+00  0.00000000E+00
  0.00000000E+00  0.00000000E+00  0.00000000E+00
  0.00000000E+00  0.00000000E+00  0.00000000E+00
  0.00000000E+00  0.00000000E+00  0.00000000E+00
  0.00000000E+00  0.00000000E+00  0.00000000E+00
  0.00000000E+00  0.00000000E+00  0.00000000E+00
  0.00000000E+00  0.00000000E+00  0.00000000E+00
  0.00000000E+00  0.00000000E+00  0.00000000E+00
  0.00000000E+00  0.00000000E+00  0.00000000E+00
  0.00000000E+00  0.00000000E+00  0.00000000E+00
  0.00000000E+00  0.00000000E+00  0.00000000E+00
  0.00000000E+00  0.00000000E+00  0.00000000E+00
  0.00000000E+00  0.00000000E+00  0.00000000E+00
  0.00000000E+00  0.00000000E+00  0.00000000E+00
  0.00000000E+00  0.00000000E+00  0.00000000E+00
  0.00000000E+00  0.00000000E+00  0.00000000E+00
  0.00000000E+00  0.00000000E+00  0.00000000E+00
  0.00000000E+00  0.00000000E+00  0.00000000E+00
  0.00000000E+00  0.00000000E+00  0.00000000E+00
  0.00000000E+00  0.00000000E+00  0.00000000E+00
  0.00000000E+00  0.00000000E+00  0.00000000E+00
  0.00000000E+00  0.00000000E+00  0.00000000E+00
  0.00000000E+00  0.00000000E+00  0.00000000E+00
  0.00000000E+00  0.00000000E+00  0.00000000E+00
  0.00000000E+00  0.00000000E+00  0.00000000E+00
  0.00000000E+00  0.00000000E+00  0.00000000E+00
  0.00000000E+00  0.00000000E+00  0.00000000E+00
  0.00000000E+00  0.00000000E+00  0.00000000E+00
  0.00000000E+00  0.00000000E+00  0.00000000E+00
  0.00000000E+00  0.00000000E+00  0.00000000E+00
  0.00000000E+00  0.00000000E+00  0.00000000E+00
  0.00000000E+00  0.00000000E+00  0.00000000E+00
  0.00000000E+00  0.00000000E+00  0.00000000E+00
  0.00000000E+00  0.00000000E+00  0.00000000E+00
  0.00000000E+00  0.00000000E+00  0.00000000E+00
  0.00000000E+00  0.00000000E+00  0.00000000E+00
  0.00000000E+00  0.00000000E+00  0.00000000E+00
  0.00000000E+00  0.00000000E+00  0.00000000E+00
  0.00000000E+00  0.00000000E+00  0.00000000E+00
  0.00000000E+00  0.00000000E+00  0.00000000E+00
  0.00000000E+00  0.00000000E+00  0.00000000E+00
  0.00000000E+00  0.00000000E+00  0.00000000E+00
  0.00000000E+00  0.00000000E+00  0.00000000E+00
  0.00000000E+00  0.00000000E+00  0.00000000E+00
  0.00000000E+00  0.00000000E+00  0.00000000E+00
  0.00000000E+00  0.00000000E+00  0.00000000E+00
  0.00000000E+00  0.00000000E+00  0.00000000E+00
  0.00000000E+00  0.00000000E+00  0.00000000E+00
  0.00000000E+00  0.00000000E+00  0.00000000E+00
  0.00000000E+00  0.00000000E+00  0.00000000E+00
  0.00000000E+00  0.00000000E+00  0.00000000E+00
  0.00000000E+00  0.00000000E+00  0.00000000E+00
  0.00000000E+00  0.00000000E+00  0.00000000E+00
  0.00000000E+00  0.00000000E+00  0.00000000E+00
  0.00000000E+00  0.00000000E+00  0.00000000E+00
  0.00000000E+00  0.00000000E+00  0.00000000E+00
  0.00000000E+00  0.00000000E+00  0.00000000E+00
  0.00000000E+00  0.00000000E+00  0.00000000E+00
  0.00000000E+00  0.00000000E+00  0.00000000E+00
  0.00000000E+00  0.00000000E+00  0.00000000E+00
  0.00000000E+00  0.00000000E+00  0.00000000E+00
  0.00000000E+00  0.00000000E+00  0.00000000E+00
  0.00000000E+00  0.00000000E+00  0.00000000E+00
  0.00000000E+00  0.00000000E+00  0.00000000E+00
  0.00000000E+00  0.00000000E+00  0.00000000E+00
  0.00000000E+00  0.00000000E+00  0.00000000E+00
  0.00000000E+00  0.00000000E+00  0.00000000E+00
  0.00000000E+00  0.00000000E+00  0.00000000E+00
  0.00000000E+00  0.00000000E+00  0.00000000E+00
  0.00000000E+00  0.00000000E+00  0.00000000E+00
  0.00000000E+00  0.00000000E+00  0.00000000E+00
  0.00000000E+00  0.00000000E+00  0.00000000E+00
  0.00000000E+00  0.00000000E+00  0.00000000E+00
  0.00000000E+00  0.00000000E+00  0.00000000E+00
  0.00000000E+00  0.00000000E+00  0.00000000E+00
  0.00000000E+00  0.00000000E+00  0.00000000E+00
  0.00000000E+00  0.00000000E+00  0.00000000E+00
  0.00000000E+00  0.00000000E+00  0.00000000E+00
  0.00000000E+00  0.00000000E+00  0.00000000E+00
  0.00000000E+00  0.00000000E+00  0.00000000E+00
  0.00000000E+00  0.00000000E+00  0.00000000E+00
  0.00000000E+00  0.00000000E+00  0.00000000E+00
  0.00000000E+00  0.00000000E+00  0.00000000E+00
  0.00000000E+00  0.00000000E+00  0.00000000E+00
  0.00000000E+00  0.00000000E+00  0.00000000E+00
  0.00000000E+00  0.00000000E+00  0.00000000E+00
  0.00000000E+00  0.00000000E+00  0.00000000E+00
  0.00000000E+00  0.00000000E+00  0.00000000E+00
  0.00000000E+00  0.00000000E+00  0.00000000E+00
  0.00000000E+00  0.00000000E+00  0.00000000E+00
  0.00000000E+00  0.00000000E+00  0.00000000E+00
  0.00000000E+00  0.00000000E+00  0.00000000E+00
  0.00000000E+00  0.00000000E+00  0.00000000E+00
  0.00000000E+00  0.00000000E+00  0.00000000E+00
  0.00000000E+00  0.00000000E+00  0.00000000E+00
  0.00000000E+00  0.00000000E+00  0.00000000E+00
  0.00000000E+00  0.00000000E+00  0.00000000E+00
  0.00000000E+00  0.00000000E+00  0.00000000E+00
  0.00000000E+00  0.00000000E+00  0.00000000E+00
  0.00000000E+00  0.00000000E+00  0.00000000E+00
  0.00000000E+00  0.00000000E+00  0.00000000E+00
  0.00000000E+00  0.00000000E+00  0.00000000E+00
  0.00000000E+00  0.00000000E+00  0.00000000E+00
  0.00000000E+00  0.00000000E+00  0.00000000E+00
  0.00000000E+00  0.00000000E+00  0.00000000E+00
  0.00000000E+00  0.00000000E+00  0.00000000E+00
  0.00000000E+00  0.00000000E+00  0.00000000E+00
  0.00000000E+00  0.00000000E+00  0.00000000E+00
  0.00000000E+00  0.00000000E+00  0.00000000E+00
  0.00000000E+00  0.00000000E+00  0.00000000E+00
  0.00000000E+00  0.00000000E+00  0.00000000E+00
  0.00000000E+00  0.00000000E+00  0.00000000E+00
  0.00000000E+00  0.00000000E+00  0.00000000E+00
  0.00000000E+00  0.00000000E+00  0.00000000E+00
  0.00000000E+00  0.00000000E+00  0.00000000E+00
  0.00000000E+00  0.00000000E+00  0.00000000E+00
  0.00000000E+00  0.00000000E+00  0.00000000E+00
  0.00000000E+00  0.00000000E+00  0.00000000E+00
  0.00000000E+00  0.00000000E+00  0.00000000E+00
  0.00000000E+00  0.00000000E+00  0.00000000E+00
  0.00000000E+00  0.00000000E+00  0.00000000E+00
  0.00000000E+00  0.00000000E+00  0.00000000E+00
  0.00000000E+00  0.00000000E+00  0.00000000E+00
  0.00000000E+00  0.00000000E+00  0.00000000E+00
  0.00000000E+00  0.00000000E+00  0.00000000E+00
  0.00000000E+00  0.00000000E+00  0.00000000E+00
  0.00000000E+00  0.00000000E+00  0.00000000E+00
  0.00000000E+00  0.00000000E+00  0.00000000E+00
  0.00000000E+00  0.00000000E+00  0.00000000E+00
  0.00000000E+00  0.00000000E+00  0.00000000E+00
  0.00000000E+00  0.00000000E+00  0.00000000E+00
  0.00000000E+00  0.00000000E+00  0.00000000E+00
  0.00000000E+00  0.00000000E+00  0.00000000E+00
  0.00000000E+00  0.00000000E+00  0.00000000E+00
  0.00000000E+00  0.00000000E+00  0.00000000E+00
  0.00000000E+00  0.00000000E+00  0.00000000E+00
  0.00000000E+00  0.00000000E+00  0.00000000E+00
  0.00000000E+00  0.00000000E+00  0.00000000E+00
  0.00000000E+00  0.00000000E+00  0.00000000E+00
  0.00000000E+00  0.00000000E+00  0.00000000E+00
  0.00000000E+00  0.00000000E+00  0.00000000E+00
  0.00000000E+00  0.00000000E+00  0.00000000E+00
  0.00000000E+00  0.00000000E+00  0.00000000E+00