B N Se                                  
   1.0000000000000000     
     8.7639499999999995  -15.1796066749929999    0.0000000000000000
     8.7639499999999995   15.1796066749929999    0.0000000000000000
     0.0000000000000000    0.0000000000000000   15.0000000000000000
   B    N    Se
    48    49     1
Selective dynamics
Direct
  0.9061677252083344  0.9535342125585815  0.1110234434182115   T   T   T
  0.9046791549340105  0.0953228662619856  0.1110153196312363   T   T   T
  0.9041761404366477  0.2378024170638259  0.1110388548383126   T   T   T
  0.9046791549340105  0.3807849823630221  0.1110153196312363   T   T   T
  0.9061677252083344  0.5240639178977553  0.1110234434182115   T   T   T
  0.9055445025745379  0.6670958557028032  0.1110485168040626   T   T   T
  0.9055445025745379  0.8098790521197365  0.1110485168040626   T   T   T
  0.0478104611865777  0.9521915600094262  0.1110183601430261   T   T   T
  0.0464678086374220  0.0938342959876619  0.1110234434182115   T   T   T
  0.0456165098547636  0.2366882230435428  0.1110090273589923   T   T   T
  0.0456165098547636  0.3803586920582205  0.1110090273589923   T   T   T
  0.0464678086374220  0.5240639178977553  0.1110234434182115   T   T   T
  0.0478104611865777  0.6670510179811494  0.1110183601430261   T   T   T
  0.0479061653208824  0.8096691410624430  0.1110004988039888   T   T   T
  0.1903328801335600  0.9520958558751214  0.1110004988039888   T   T   T
  0.1901229690762670  0.0944575186214583  0.1110485168040626   T   T   T
  0.1860807852088483  0.2337104925974652  0.1110213007258998   T   T   T
  0.1859109389698431  0.3786706721084213  0.1110137480334996   T   T   T
  0.1860807852088483  0.5238006978593845  0.1110213007258998   T   T   T
  0.1901229690762670  0.6670958557028032  0.1110485168040626   T   T   T
  0.1903328801335600  0.8096691410624430  0.1110004988039888   T   T   T
  0.3329510032158489  0.9521915600094262  0.1110183601430261   T   T   T
  0.3329061654941948  0.0944575186214583  0.1110485168040626   T   T   T
  0.3330444202592118  0.2375172245684252  0.1110478815703234   T   T   T
  0.3237490668557544  0.3738503159864788  0.1110597701733149   T   T   T
  0.3237490668557544  0.5213291561162752  0.1110597701733149   T   T   T
  0.3330444202592118  0.6669576009377870  0.1110478815703234   T   T   T
  0.3329061654941948  0.8098790521197365  0.1110485168040626   T   T   T
  0.4759381032992436  0.9535342125585815  0.1110234434182115   T   T   T
  0.4759381032992436  0.0938342959876619  0.1110234434182115   T   T   T
  0.4762013233376133  0.2337104925974652  0.1110213007258998   T   T   T
  0.4786728650807228  0.3738503159864790  0.1110597701733149   T   T   T
  0.4786728650807228  0.6762529543412439  0.1110597701733149   T   T   T
  0.4762013233376133  0.8139212359871553  0.1110213007258998   T   T   T
  0.6196433291377826  0.9543855113412399  0.1110090273589923   T   T   T
  0.6192170388329815  0.0953228662619856  0.1110153196312363   T   T   T
  0.6196433291377826  0.2366882230435428  0.1110090273589923   T   T   T
  0.6213313490875817  0.3786706721084213  0.1110137480334996   T   T   T
  0.6261517052095247  0.5213291561162752  0.1110597701733149   T   T   T
  0.6261517052095247  0.6762529543412439  0.1110597701733149   T   T   T
  0.6213313490875817  0.8140910822261607  0.1110137480334996   T   T   T
  0.7633137981524608  0.9543855113412399  0.1110090273589923   T   T   T
  0.7621996041321779  0.0958258807593486  0.1110388548383126   T   T   T
  0.7621996041321779  0.2378024170638259  0.1110388548383126   T   T   T
  0.7633137981524608  0.3803586920582205  0.1110090273589923   T   T   T
  0.7662915285985388  0.5238006978593845  0.1110213007258998   T   T   T
  0.7624847966275782  0.6669576009377870  0.1110478815703234   T   T   T
  0.7662915285985388  0.8139212359871553  0.1110213007258998   T   T   T
  0.9530710727629511  0.9051582622654534  0.1110118032437371   T   T   T
  0.9522490393978891  0.0477523625201162  0.1109973543554339   T   T   T
  0.9510997960639579  0.1898754982750358  0.1110056652781160   T   T   T
  0.9510997960639579  0.3326512799069204  0.1110056652781160   T   T   T
  0.9522490393978891  0.4759236589957715  0.1109973543554339   T   T   T
  0.9530710727629511  0.6193415041724941  0.1110118032437371   T   T   T
  0.9532013963260683  0.7623150450005353  0.1110238915432539   T   T   T
  0.0953672661373234  0.9046341357806754  0.1109809926119987   T   T   T
  0.0948431396525456  0.0469303291550546  0.1110118032437371   T   T   T
  0.0918103169489352  0.1876547724913055  0.1110014940302520   T   T   T
  0.0913678483851161  0.3313982710295585  0.1109876936431968   T   T   T
  0.0918103169489352  0.4755842381316307  0.1110014940302520   T   T   T
  0.0948431396525456  0.6193415041724941  0.1110118032437371   T   T   T
  0.0953672661373234  0.7621635355876536  0.1109809926119987   T   T   T
  0.2378378663303519  0.9046341357806754  0.1109809926119987   T   T   T
  0.2376863569174702  0.0468000055919376  0.1110238915432539   T   T   T
  0.2368576096978454  0.1888448038541560  0.1110257496472677   T   T   T
  0.2293190576114826  0.3263545552912613  0.1110110077928800   T   T   T
  0.2293190576114826  0.4743931959942152  0.1110110077928800   T   T   T
  0.2368576096978454  0.6194414995186851  0.1110257496472677   T   T   T
  0.2376863569174702  0.7623150450005353  0.1110238915432539   T   T   T
  0.3806598977455046  0.9051582622654534  0.1110118032437371   T   T   T
  0.3806598977455046  0.0469303291550546  0.1110118032437371   T   T   T
  0.3805599023993135  0.1888448038541561  0.1110257496472677   T   T   T
  0.3803173019869051  0.3320618957308075  0.1110347796526361   T   T   T
  0.3532712727547123  0.4623499832143529  0.1110344230888756   T   T   T
  0.3803173019869051  0.6196840999310936  0.1110347796526361   T   T   T
  0.3805599023993135  0.7631437922201604  0.1110257496472677   T   T   T
  0.5244171637853663  0.9081910849690636  0.1110014940302520   T   T   T
  0.5240777429212250  0.0477523625201162  0.1109973543554339   T   T   T
  0.5244171637853663  0.1876547724913055  0.1110014940302520   T   T   T
  0.5256082059227817  0.3263545552912613  0.1110110077928800   T   T   T
  0.5376514187026439  0.4623499832143529  0.1110344230888756   T   T   T
  0.5376514187026439  0.6467301291632866  0.1110344230888756   T   T   T
  0.5256082059227817  0.7706823443065225  0.1110110077928800   T   T   T
  0.6686031308874385  0.9086335535328826  0.1109876936431968   T   T   T
  0.6673501220100760  0.0489016058540477  0.1110056652781160   T   T   T
  0.6673501220100760  0.1898754982750358  0.1110056652781160   T   T   T
  0.6686031308874385  0.3313982710295585  0.1109876936431968   T   T   T
  0.6736468466257346  0.4743931959942151  0.1110110077928800   T   T   T
  0.6679395061861895  0.6196840999310936  0.1110347796526361   T   T   T
  0.6736468466257346  0.7706823443065225  0.1110110077928800   T   T   T
  0.8123466294266930  0.9081910849690636  0.1110014940302520   T   T   T
  0.8101259036429628  0.0489016058540477  0.1110056652781160   T   T   T
  0.8095252739059973  0.1904761280120013  0.1110293349536793   T   T   T
  0.8101259036429628  0.3326512799069204  0.1110056652781160   T   T   T
  0.8123466294266930  0.4755842381316307  0.1110014940302520   T   T   T
  0.8111565980638428  0.6194414995186851  0.1110257496472677   T   T   T
  0.8111565980638428  0.7631437922201604  0.1110257496472677   T   T   T
  0.4761912123819982  0.5238108088150000  0.1110426004625630   T   T   T

  0.00000000E+00  0.00000000E+00  0.00000000E+00
  0.00000000E+00  0.00000000E+00  0.00000000E+00
  0.00000000E+00  0.00000000E+00  0.00000000E+00
  0.00000000E+00  0.00000000E+00  0.00000000E+00
  0.00000000E+00  0.00000000E+00  0.00000000E+00
  0.00000000E+00  0.00000000E+00  0.00000000E+00
  0.00000000E+00  0.00000000E+00  0.00000000E+00
  0.00000000E+00  0.00000000E+00  0.00000000E+00
  0.00000000E+00  0.00000000E+00  0.00000000E+00
  0.00000000E+00  0.00000000E+00  0.00000000E+00
  0.00000000E+00  0.00000000E+00  0.00000000E+00
  0.00000000E+00  0.00000000E+00  0.00000000E+00
  0.00000000E+00  0.00000000E+00  0.00000000E+00
  0.00000000E+00  0.00000000E+00  0.00000000E+00
  0.00000000E+00  0.00000000E+00  0.00000000E+00
  0.00000000E+00  0.00000000E+00  0.00000000E+00
  0.00000000E+00  0.00000000E+00  0.00000000E+00
  0.00000000E+00  0.00000000E+00  0.00000000E+00
  0.00000000E+00  0.00000000E+00  0.00000000E+00
  0.00000000E+00  0.00000000E+00  0.00000000E+00
  0.00000000E+00  0.00000000E+00  0.00000000E+00
  0.00000000E+00  0.00000000E+00  0.00000000E+00
  0.00000000E+00  0.00000000E+00  0.00000000E+00
  0.00000000E+00  0.00000000E+00  0.00000000E+00
  0.00000000E+00  0.00000000E+00  0.00000000E+00
  0.00000000E+00  0.00000000E+00  0.00000000E+00
  0.00000000E+00  0.00000000E+00  0.00000000E+00
  0.00000000E+00  0.00000000E+00  0.00000000E+00
  0.00000000E+00  0.00000000E+00  0.00000000E+00
  0.00000000E+00  0.00000000E+00  0.00000000E+00
  0.00000000E+00  0.00000000E+00  0.00000000E+00
  0.00000000E+00  0.00000000E+00  0.00000000E+00
  0.00000000E+00  0.00000000E+00  0.00000000E+00
  0.00000000E+00  0.00000000E+00  0.00000000E+00
  0.00000000E+00  0.00000000E+00  0.00000000E+00
  0.00000000E+00  0.00000000E+00  0.00000000E+00
  0.00000000E+00  0.00000000E+00  0.00000000E+00
  0.00000000E+00  0.00000000E+00  0.00000000E+00
  0.00000000E+00  0.00000000E+00  0.00000000E+00
  0.00000000E+00  0.00000000E+00  0.00000000E+00
  0.00000000E+00  0.00000000E+00  0.00000000E+00
  0.00000000E+00  0.00000000E+00  0.00000000E+00
  0.00000000E+00  0.00000000E+00  0.00000000E+00
  0.00000000E+00  0.00000000E+00  0.00000000E+00
  0.00000000E+00  0.00000000E+00  0.00000000E+00
  0.00000000E+00  0.00000000E+00  0.00000000E+00
  0.00000000E+00  0.00000000E+00  0.00000000E+00
  0.00000000E+00  0.00000000E+00  0.00000000E+00
  0.00000000E+00  0.00000000E+00  0.00000000E+00
  0.00000000E+00  0.00000000E+00  0.00000000E+00
  0.00000000E+00  0.00000000E+00  0.00000000E+00
  0.00000000E+00  0.00000000E+00  0.00000000E+00
  0.00000000E+00  0.00000000E+00  0.00000000E+00
  0.00000000E+00  0.00000000E+00  0.00000000E+00
  0.00000000E+00  0.00000000E+00  0.00000000E+00
  0.00000000E+00  0.00000000E+00  0.00000000E+00
  0.00000000E+00  0.00000000E+00  0.00000000E+00
  0.00000000E+00  0.00000000E+00  0.00000000E+00
  0.00000000E+00  0.00000000E+00  0.00000000E+00
  0.00000000E+00  0.00000000E+00  0.00000000E+00
  0.00000000E+00  0.00000000E+00  0.00000000E+00
  0.00000000E+00  0.00000000E+00  0.00000000E+00
  0.00000000E+00  0.00000000E+00  0.00000000E+00
  0.00000000E+00  0.00000000E+00  0.00000000E+00
  0.00000000E+00  0.00000000E+00  0.00000000E+00
  0.00000000E+00  0.00000000E+00  0.00000000E+00
  0.00000000E+00  0.00000000E+00  0.00000000E+00
  0.00000000E+00  0.00000000E+00  0.00000000E+00
  0.00000000E+00  0.00000000E+00  0.00000000E+00
  0.00000000E+00  0.00000000E+00  0.00000000E+00
  0.00000000E+00  0.00000000E+00  0.00000000E+00
  0.00000000E+00  0.00000000E+00  0.00000000E+00
  0.00000000E+00  0.00000000E+00  0.00000000E+00
  0.00000000E+00  0.00000000E+00  0.00000000E+00
  0.00000000E+00  0.00000000E+00  0.00000000E+00
  0.00000000E+00  0.00000000E+00  0.00000000E+00
  0.00000000E+00  0.00000000E+00  0.00000000E+00
  0.00000000E+00  0.00000000E+00  0.00000000E+00
  0.00000000E+00  0.00000000E+00  0.00000000E+00
  0.00000000E+00  0.00000000E+00  0.00000000E+00
  0.00000000E+00  0.00000000E+00  0.00000000E+00
  0.00000000E+00  0.00000000E+00  0.00000000E+00
  0.00000000E+00  0.00000000E+00  0.00000000E+00
  0.00000000E+00  0.00000000E+00  0.00000000E+00
  0.00000000E+00  0.00000000E+00  0.00000000E+00
  0.00000000E+00  0.00000000E+00  0.00000000E+00
  0.00000000E+00  0.00000000E+00  0.00000000E+00
  0.00000000E+00  0.00000000E+00  0.00000000E+00
  0.00000000E+00  0.00000000E+00  0.00000000E+00
  0.00000000E+00  0.00000000E+00  0.00000000E+00
  0.00000000E+00  0.00000000E+00  0.00000000E+00
  0.00000000E+00  0.00000000E+00  0.00000000E+00
  0.00000000E+00  0.00000000E+00  0.00000000E+00
  0.00000000E+00  0.00000000E+00  0.00000000E+00
  0.00000000E+00  0.00000000E+00  0.00000000E+00
  0.00000000E+00  0.00000000E+00  0.00000000E+00
  0.00000000E+00  0.00000000E+00  0.00000000E+00
  0.00000000E+00  0.00000000E+00  0.00000000E+00
