 N B Se 
 1.0
 17.527899999999772   0.000000000000000   0.000000000000000
 -8.763949999999658  15.179606674993195   0.000000000000000
  0.000000000000001   0.000000000000002  15.000000000000000
 N B Se 
  49  48   1
Cartesian
  8.772572703700504  13.739946399809913   1.665177048656055 
 16.272426620153887   0.724862080857048   1.664960315331510 
 15.006722742321797   2.882235381033395   1.665084979171740 
 13.755442930889096   5.049515588920113   1.665084979171740 
 12.519954786406217   7.224333950879391   1.664960315331510 
 11.277456480789194   9.401360430837116   1.665177048656055 
 10.026727816031293  11.571642545537859   1.665358373148810 
 -6.256580430146375  13.731990365923034   1.664714889179985 
  1.251106009317411   0.712383937701701   1.665177048656055 
 -0.035354988925891   2.848525637103343   1.665022410453780 
 -1.302871367679928   5.030495407001482   1.664815404647955 
 -2.558754429324329   7.219181675664458   1.665022410453780 
 -3.765476907976478   9.401360430837116   1.665177048656055 
 -5.007975213584798  11.569342692242767   1.664714889179985 
 -3.759369997023015  13.731990365923034   1.664714889179985 
  3.755989786406219   0.710405677273101   1.665358373148810 
  2.496590078285237   2.866589845122327   1.665386244709020 
  1.159326505063525   4.953933785913661   1.665165116893200 
 -0.138076740125077   7.201102124485141   1.665165116893200 
 -1.277137832683764   9.402878320861625   1.665386244709020 
 -2.514748243218511  11.571642545537859   1.665358373148810 
 -1.260593130887658  13.739946399809913   1.665177048656055 
  6.260873563494922   0.712383937701701   1.665177048656055 
  5.015389494527265   2.866589845122327   1.665386244709020 
  3.755989786406284   5.040568968946268   1.665521694789540 
  2.140091406325965   7.018290891383584   1.665516346333140 
  1.235283169905286   9.406560899701184   1.665521694789540 
 -0.017738124562780  11.584222602364761   1.665386244709020 
  1.232590345999078  13.785983455565717   1.665022410453780 
  8.767482952640666   0.724862080857048   1.664960315331510 
  7.547334561738288   2.848525637103343   1.665022410453780 
  6.352653067749076   4.953933785913661   1.665165116893200 
  5.371888166486679   7.018290891383584   1.665516346333140 
  3.755989786397582   9.817108985566243   1.665516346333140 
  2.458586541208930  11.698654857934686   1.665165116893200 
  3.755989786397589  13.792699954330537   1.664815404647955 
 11.268674974955692   0.742307142639994   1.665084979171740 
 10.033186830472824   2.882235381033395   1.665084979171740 
  8.814850940492407   5.030495407001482   1.664815404647955 
  7.650056312937730   7.201102124485141   1.665165116893200 
  6.276696402889851   9.406560899701184   1.665521694789540 
  5.053393031586188  11.698654857934686   1.665165116893200 
  6.279389226813629  13.785983455565717   1.665022410453780 
 13.771234597838738   0.742307142639994   1.665084979171740 
 12.519954786406029   2.891352704197829   1.665440024305185 
 11.284466641923169   5.049515588920113   1.665084979171740 
 10.070734002154403   7.219181675664458   1.665022410453780 
  8.789117405496480   9.402878320861625   1.665386244709020 
  7.529717697375436  11.584222602364761   1.665386244709020 
  7.526491108526491  14.474274297788631   1.665351651273180 
 15.021720925990945   1.446963616989926   1.665229794468540 
 13.764220478932879   3.609747157391569   1.665582822574695 
 12.519945213587368   5.780166260014894   1.665229794468540 
 11.290347297419100   7.955084146243848   1.665351651273180 
 10.025898762089685  10.126252704086566   1.665727752060945 
  8.774553967851546  12.293645465493922   1.665727752060945 
 -7.506942239712073  14.453893360191266   1.665275402145390 
 -0.007875975305180   1.424367705717602   1.665351651273180 
 -1.274762129259070   3.592834130404043   1.665135410384880 
 -2.533882936180199   5.773695340858637   1.665135410384880 
 -3.778386870243992   7.955084146243848   1.665351651273180 
 -5.007984786403453  10.125572085107654   1.665275402145390 
 -6.256205393686045  12.290459098207467   1.665007482059835 
 -5.007984786403460  14.452440609075346   1.665007482059835 
  2.504635419349362   1.433827980169578   1.665727752060945 
  1.213378323462651   3.547633353448428   1.665319510888500 
 -0.060022489654997   5.748071861961146   1.665206220502500 
 -1.328957730942454   7.951088569592415   1.665319510888500 
 -2.513938334914496  10.126252704086566   1.665727752060945 
 -3.759764179120939  12.290459098207467   1.665007482059835 
 -2.509027333077279  14.453893360191266   1.665275402145390 
  5.007325007843130   1.433827980169578   1.665727752060945 
  3.755980213604999   3.605418047484722   1.665718223554845 
  2.398235792151322   5.674900751996672   1.665896552599725 
  1.105738611195846   7.913571538051177   1.665896552599725 
 -0.007613772877125  10.124154051132679   1.665718223554845 
 -1.262593540658868  12.293645465493922   1.665727752060945 
 -0.014530681333747  14.474274297788631   1.665351651273180 
  7.519836402497673   1.424367705717602   1.665351651273180 
  6.298582103729764   3.547633353448428   1.665319510888500 
  5.113724635058720   5.674900751996672   1.665896552599725 
  2.463483032649581  10.265253859702216   1.665896552599725 
  1.213644159199888  12.355004226709330   1.665319510888500 
  2.496859406675272  14.487196678472280   1.665135410384880 
 10.018169501183783   1.446963616989926   1.665229794468540 
  8.786722556451627   3.592834130404043   1.665135410384880 
  7.571982916847621   5.748071861961146   1.665206220502500 
  6.406221815996841   7.913571538051177   1.665896552599725 
  5.048477394543177  10.265253859702216   1.665896552599725 
  3.755980213596402  12.357582425812668   1.665206220502500 
  5.015101020517614  14.487196678472280   1.665135410384880 
 12.519945213587365   1.454599179211716   1.665582822574695 
 11.275669948241791   3.609747157391569   1.665582822574695 
 10.045843363372841   5.773695340858637   1.665135410384880 
  8.840918158117578   7.951088569592415   1.665319510888500 
  7.519574200069858  10.124154051132679   1.665718223554845 
  6.298316267992807  12.355004226709330   1.665319510888500 
  3.755980213596274   7.951242049921758   1.665639006938445 
