Species order:X N B                     
   2.51242800000000     
     5.9449720136058266    0.0000000000000000    0.0000000000000000
    -2.9724860068029120    5.1484967885702053   -0.0000000000000001
     0.0000000000000000    0.0000000000000009    5.3101128803662583
   Si   N    B 
     2   143   143
Direct
  0.4155351550754292  0.3744342442043721  0.3750000000000000
  0.5709639615179890  0.4521486474256601  0.3750000000000000
  0.1109798894742383  0.0554637803012440  0.1247996197346946
  0.6110180912921948  0.5555121061323676  0.1309383190719717
  0.4443043662897252  0.0554899038199013  0.1251655331839622
  0.9443361671491571  0.5555165093672296  0.1251757383306402
  0.7776567370086841  0.0554950351710367  0.1245919032481738
  0.1109978804767481  0.7221656069050514  0.6250877122724917
  0.4443043662897252  0.7221477958031526  0.6248344668160464
  0.2776287599777475  0.2221194897026937  0.6220010212813044
  0.7776689509517757  0.7221456865111832  0.6242159239988999
  0.6109619790768080  0.2221697401446620  0.6238248913276112
  0.9443353697602376  0.2221847327417193  0.6255076927446789
  0.2776550140193100  0.7221699479788930  0.1247727357724943
  0.1110084629037413  0.2221708981185223  0.1250582467433549
  0.4443093920227136  0.2221675811405401  0.1288084158934637
  0.6109619790768080  0.7221255722654683  0.1261751086724366
  0.9443361671491571  0.7221529911153163  0.1251757383306402
  0.7776463053880490  0.2221852461828969  0.1247602504324605
  0.1109942426282332  0.8888085245262739  0.6251662150375022
  0.4443103239630196  0.8888218286481753  0.6254433320516185
  0.2776287599777474  0.3888426036083677  0.6220010212813044
  0.6110180912921948  0.3888393184930807  0.6190616809279927
  0.7776463053880490  0.8887943925384146  0.6252397495675368
  0.9443305866993913  0.3888568453888646  0.6253682856937237
  0.1109798894742383  0.3888494425063261  0.1247996197346946
  0.2776550140193100  0.8888183993737012  0.1247727357724943
  0.6109728163032456  0.8888131146403360  0.1246262542323325
  0.4440908758015510  0.3887121045674434  0.1378336369702263
  0.9443305866993913  0.8888070746438942  0.1246317143062898
  0.7776689509517757  0.3888565977739052  0.1257840760010721
  0.2776528811575661  0.5555103944710855  0.6243895885182683
  0.1109798894742382  0.0554637803012440  0.6252003802652660
  0.6110180912921948  0.5555121061323676  0.6190616809279927
  0.4443043662897252  0.0554899038199013  0.6248344668160464
  0.9443361671491571  0.5555165093672296  0.6248242616693681
  0.1109942426282332  0.5555190514352137  0.1248337849624734
  0.7776567370086841  0.0554950351710366  0.6254080967518202
  0.2776528811575611  0.0554758200198290  0.1256104114817212
  0.4443093920227136  0.5554751442155207  0.1288084158934629
  0.7776557524210742  0.5554945428771584  0.1270914060007978
  0.6109728163032456  0.0554930349962157  0.1246262542323325
  0.4443093920227136  0.5554751442155207  0.6211915841065754
  0.9443353697602376  0.0554839703518133  0.1244923072552841
  0.2776550140193100  0.7221699479788930  0.6252272642275487
  0.1110084629037414  0.2221708981185223  0.6249417532566189
  0.4443093920227136  0.2221675811405401  0.6211915841065754
  0.6109619790768080  0.7221255722654683  0.6238248913276112
  0.9443361671491571  0.7221529911153163  0.6248242616693681
  0.7776463053880490  0.2221852461828969  0.6252397495675368
  0.1109978804767481  0.7221656069050514  0.1249122877274934
  0.4443043662897252  0.7221477958031526  0.1251655331839622
  0.2776287599777475  0.2221194897026937  0.1279989787187027
  0.7776689509517757  0.7221456865111832  0.1257840760010721
  0.6109619790768080  0.2221697401446620  0.1261751086724366
  0.9443353697602376  0.2221847327417193  0.1244923072552841
  0.1109798894742383  0.3888494425063261  0.6252003802652660
  0.2776550140193100  0.8888183993737012  0.6252272642275487
  0.6109728163032456  0.8888131146403360  0.6253737457676556
  0.4440908758015510  0.3887121045674434  0.6121663630297607
  0.9443305866993913  0.8888070746438942  0.6253682856937237
  0.1109942426282332  0.8888085245262739  0.1248337849624734
  0.7776689509517757  0.3888565977739052  0.6242159239988999
  0.4443103239630196  0.8888218286481753  0.1245566679483466
  0.2776287599777474  0.3888426036083677  0.1279989787187040
  0.2776528811575611  0.5555103944710855  0.1256104114817212
  0.6110180912921948  0.3888393184930807  0.1309383190719717
  0.7776463053880490  0.8887943925384146  0.1247602504324605
  0.9443305866993913  0.3888568453888646  0.1246317143062898
  0.1109942426282332  0.5555190514352137  0.6251662150375022
  0.2776528811575622  0.0554758200198294  0.6243895885182683
  0.7776557524210742  0.5554945428771584  0.6229085939991991
  0.6109728163032456  0.0554930349962157  0.6253737457676556
  0.9443353697602376  0.0554839703518133  0.6255076927446789
  0.0556504676975166  0.1110940640428872  0.3750000000000000
  0.5565883467723476  0.6235294985005625  0.3750000000000000
  0.3874579345231011  0.1038987036640998  0.3750000000000000
  0.8907328506733166  0.6120330920033706  0.3750000000000000
  0.7237218978964028  0.1105289640672548  0.3750000000000000
  0.0554890930529147  0.7777502202308558  0.8750000000000000
  0.3888468119476598  0.7777493458998175  0.8750000000000000
  0.2221706163426341  0.2777519748379576  0.8750000000000000
  0.7221639151149702  0.7777517238751200  0.8750000000000000
  0.5555009849957863  0.2777586704547357  0.8750000000000000
  0.8888311836390961  0.2777435665837566  0.8750000000000000
  0.2214743426545996  0.7774038379939689  0.3750000000000000
  0.0556504676975162  0.2778897369879460  0.3750000000000000
  0.3760784081412000  0.2547228752181392  0.3750000000000000
  0.5559784728033863  0.7834611665792365  0.3750000000000000
  0.8932507929637494  0.7819488127567038  0.3750000000000000
  0.7249235258425771  0.2754689232735607  0.3750000000000000
  0.0554954476695775  0.9444246266048181  0.8750000000000000
  0.3888468119476598  0.9444307993812585  0.8750000000000000
  0.2221702702639320  0.4444022243140413  0.8750000000000000
  0.5554813785291594  0.4444073559312440  0.8750000000000000
  0.7221701312829917  0.9444202582105943  0.8750000000000000
  0.8888227596680121  0.4444048839795594  0.8750000000000000
  0.0550318278396392  0.4451928043100006  0.3750000000000000
  0.2210344209412131  0.9416611508211512  0.3750000000000000
  0.5559002036379452  0.9446167684856077  0.3750000000000000
  0.3760784081412000  0.4546888662563788  0.3750000000000000
  0.8905340361444698  0.9464180196968577  0.3750000000000000
  0.7321995395905424  0.4432221939988742  0.3750000000000000
  0.2221728194984046  0.6110703556821898  0.8750000000000000
  0.0554955786727576  0.1110862550069693  0.8750000000000000
  0.5555009849957863  0.6110756478743370  0.8750000000000000
  0.3888488727788531  0.1111115803206916  0.8750000000000000
  0.8888054738619553  0.6110694035976160  0.8750000000000000
  0.0557776686081216  0.6116307790745741  0.3750000000000000
  0.7221701312829917  0.1110832064057075  0.8750000000000000
  0.2162566262717932  0.1030666952987823  0.3750000000000000
  0.3874579345231011  0.6168925641923197  0.3750000000000000
  0.7321995395905424  0.6223106789249956  0.3750000000000000
  0.5559784728033863  0.1058506395574619  0.3750000000000000
  0.3888488727788531  0.6110706257914995  0.8750000000000000
  0.8900619112657088  0.1116976222994914  0.3750000000000000
  0.2221707740924261  0.7777520537128437  0.8750000000000000
  0.0554955786727576  0.2777426569991354  0.8750000000000000
  0.3888435468670910  0.2777724817828861  0.8750000000000000
  0.5555090737054335  0.7777513838829628  0.8750000000000000
  0.8888227596680121  0.7777512090218222  0.8750000000000000
  0.7221639151149702  0.2777455245731460  0.8750000000000000
  0.0557776686081216  0.7774802228669269  0.3750000000000000
  0.3881052218484944  0.7794453522283146  0.3750000000000000
  0.2218100031061641  0.2775716682197696  0.3750000000000000
  0.7249235258425771  0.7827879359023140  0.3750000000000000
  0.5565883467723476  0.2663921816050556  0.3750000000000000
  0.8905340361444698  0.2774493497808810  0.3750000000000000
  0.0554954476695775  0.4444041543980951  0.8750000000000000
  0.2221728194984046  0.9444357971495984  0.8750000000000000
  0.5555090072323003  0.9444211702828205  0.8750000000000000
  0.3888435468670910  0.4444043984175383  0.8750000000000000
  0.8888311836390961  0.9444209503886125  0.8750000000000000
  0.0550318278396393  0.9431723568629784  0.3750000000000000
  0.7221459762186384  0.4444037501408824  0.8750000000000000
  0.3881052218484944  0.9419932029535864  0.3750000000000000
  0.2162566262717952  0.4465232643063297  0.3750000000000000
  0.2210344209412131  0.6127066034534164  0.3750000000000000
  0.7237218978964028  0.9465262671624387  0.3750000000000000
  0.8932507929637494  0.4446353135403825  0.3750000000000000
  0.0554890930529147  0.6110722061554344  0.8750000000000000
  0.2221702702639320  0.1111013792832203  0.8750000000000000
  0.7221459762186384  0.6110755594110857  0.8750000000000000
  0.5555090737054335  0.1110910231557472  0.8750000000000000
  0.8888326819013452  0.1110830076173360  0.8750000000000000
  0.1071408002006200  0.0518320360525646  0.3750000000000000
  0.6262187549292186  0.5872443288746910  0.3750000000000000
  0.4448387530365439  0.0507471602510823  0.3750000000000000
  0.9461044146753985  0.5556766636849636  0.3750000000000000
  0.7796265757829243  0.0564799545581442  0.3750000000000000
  0.1110630932557015  0.7221982132945048  0.8750000000000000
  0.4444082879561524  0.7222625533317987  0.8750000000000000
  0.2776116430690982  0.2221143732643849  0.8750000000000000
  0.7777842776685824  0.7222987051609149  0.8750000000000000
  0.6111061324457633  0.2221216646925563  0.8750000000000000
  0.9443490919598413  0.2221592959798659  0.8750000000000000
  0.2772407180975191  0.7232966867650266  0.3750000000000000
  0.1095615669267326  0.2214474501300383  0.3750000000000000
  0.4438593056477960  0.2113085254517281  0.3750000000000000
  0.6139302763359220  0.7332175129800572  0.3750000000000000
  0.9461044146753985  0.7237610843238568  0.3750000000000000
  0.7803063865342729  0.2205885596517977  0.3750000000000000
  0.1110414134900947  0.8888574368160365  0.8750000000000000
  0.4444148083252514  0.8888740708293046  0.8750000000000000
  0.2776116430690982  0.3888306031381001  0.8750000000000000
  0.6111280505597994  0.3888069025927114  0.8750000000000000
  0.7777507822599949  0.8889347949690463  0.8750000000000000
  0.9443898408721753  0.3888248765848150  0.8750000000000000
  0.1071408002006262  0.3886420974814006  0.3750000000000000
  0.2772407180975191  0.8872773646659066  0.3750000000000000
  0.6130042824969693  0.8927098197602014  0.3750000000000000
  0.9460611873470358  0.8912724850722887  0.3750000000000000
  0.7853747811302730  0.3865904492536750  0.3750000000000000
  0.2776845422561538  0.5555444151812381  0.8750000000000000
  0.1109838018251704  0.0554900757331061  0.8750000000000000
  0.6111280505597994  0.5556544813004698  0.8750000000000000
  0.4444082879561509  0.0554790679577144  0.8750000000000000
  0.9444216466980889  0.5555234074720163  0.8750000000000000
  0.1104503552140228  0.5560870371075456  0.3750000000000000
  0.7777314210120828  0.0555323771727067  0.8750000000000000
  0.2755024706229852  0.0505818680694790  0.3750000000000000
  0.4438593056477960  0.5658841135294154  0.3750000000000000
  0.7821479771773271  0.5577406552553386  0.3750000000000000
  0.6130042824969693  0.0536277960701188  0.3750000000000000
  0.4443824922421883  0.5556036612193683  0.8750000000000000
  0.9451138544111419  0.0565881498802977  0.3750000000000000
  0.2777253651352852  0.7222095915476755  0.8750000000000000
  0.1109464812671768  0.2221399073002667  0.8750000000000000
  0.4443824922421883  0.2221121643561359  0.8750000000000000
  0.6111061324457633  0.7223178010865229  0.8750000000000000
  0.9444216466980889  0.7222315725594510  0.8750000000000000
  0.7777507822599949  0.2221493206242287  0.8750000000000000
  0.1110881621818212  0.7222107477575154  0.3750000000000000
  0.4448387530365439  0.7274249261187788  0.3750000000000000
  0.2666655828490369  0.2098398379097061  0.3750000000000000
  0.7853747811302730  0.7321176652099087  0.3750000000000000
  0.6139302763359220  0.2140460966891525  0.3750000000000000
  0.9451138544111419  0.2218590378641359  0.3750000000000000
  0.1109838018251703  0.3888270594253876  0.8750000000000000
  0.2777253651352852  0.8888491069208780  0.8750000000000000
  0.6110922688377780  0.8889186688617706  0.8750000000000000
  0.4443126943106159  0.3888230138219815  0.8750000000000000
  0.9443898408721753  0.8888982976207128  0.8750000000000000
  0.1104503552140222  0.8876966514398711  0.3750000000000000
  0.7777842776685548  0.3888189058409597  0.8750000000000000
  0.4449475668317577  0.8891404500825392  0.3750000000000000
  0.2666655828490369  0.3901590782726476  0.3750000000000000
  0.2755024706229852  0.5582539358868427  0.3750000000000000
  0.6262187549292185  0.3723077593878666  0.3750000000000000
  0.7803063865342729  0.8930511602158184  0.3750000000000000
  0.9460611873470358  0.3881220356080163  0.3750000000000000
  0.1110414134900947  0.5555173100074219  0.8750000000000000
  0.2776845422561538  0.0554734604082895  0.8750000000000000
  0.7777909451441932  0.5555621392387812  0.8750000000000000
  0.6110922688377780  0.0555069333093413  0.8750000000000000
  0.9443490919598413  0.0555231293132769  0.8750000000000000
  0.0552896483900364  0.1109109758624933  0.1243296516377730
  0.5554579363299932  0.6114596234609433  0.1279890363118668
  0.3885864503425743  0.1106158084271023  0.1257161973195087
  0.8891228835990781  0.6112281084661928  0.1251512048486373
  0.7221109317188836  0.1110029205909665  0.1243397090052413
  0.0555389412032430  0.7777338399566051  0.6254511530966099
  0.3886944632879084  0.7777950122151972  0.6256288212080752
  0.2217426300320552  0.2775379816826720  0.6237066373239494
  0.7222263310931264  0.7779244429984994  0.6249359509188198
  0.5554579363299932  0.2773316462023075  0.6220109636881223
  0.8887919064019175  0.2777253150169522  0.6257359659968742
  0.2220867006881774  0.7777100170107041  0.1244276355206680
  0.0552896483900364  0.2777120058608944  0.1243296516377730
  0.3883097832410617  0.2769404086187932  0.1303385196817478
  0.5554100392601631  0.7779013113542381  0.1248180073996162
  0.8889721182993393  0.7778501276656878  0.1246560900273238
  0.7222263310931264  0.2776352214279844  0.1250640490811760
  0.0553960043640254  0.9442720087520707  0.6256869747500200
  0.3886944632879084  0.9442327844060414  0.6256288212080752
  0.2218322095102780  0.4445155744432387  0.6246396113869638
  0.5558101048202754  0.4445717190768020  0.6181338988329542
  0.7221109317188836  0.9444413444612487  0.6256602909947544
  0.8889721182993393  0.4444553239670034  0.6253439099726632
  0.0553960043640237  0.4444573289452903  0.1243130252499985
  0.2220125220609834  0.9441674334357881  0.1245854846247490
  0.5554100336177229  0.9443716834755225  0.1242181178985607
  0.3883097832410617  0.4447027079555920  0.1303385196817478
  0.8887919064019175  0.9443999247182693  0.1242640340031445
  0.7226061675946002  0.4445161175136865  0.1270179027820475
  0.2220125220609834  0.6111784219585422  0.6254145153752397
  0.0552896483900364  0.1109109758624933  0.6256703483622218
  0.5554579363299932  0.6114596234609433  0.6220109636881223
  0.3885864503425756  0.1106158084271019  0.6242838026804964
  0.8891228835990781  0.6112281084661928  0.6248487951513119
  0.0555389412032430  0.6111384345799044  0.1245488469034347
  0.7221109317188836  0.1110029205909665  0.6256602909947544
  0.2218322095102780  0.1106499684003716  0.1253603886129949
  0.3885864503425743  0.6113039752487957  0.1257161973195087
  0.7226061675946002  0.6114233834142654  0.1270179027820475
  0.5554100392601631  0.1108420612392960  0.1248180073996164
  0.3885864503425743  0.6113039752487957  0.6242838026804964
  0.8887400439727174  0.1110366886530253  0.1242072590998523
  0.2220867006881774  0.7777100170107041  0.6255723644793497
  0.0552896483900364  0.2777120058608944  0.6256703483622218
  0.3883097832410617  0.2769404086187932  0.6196614803182269
  0.5554100392601631  0.7779013113542381  0.6251819926004124
  0.8889721182993393  0.7778501276656878  0.6253439099726632
  0.7222263310931264  0.2776352214279844  0.6249359509188198
  0.0555389412032430  0.7777338399566051  0.1245488469034347
  0.3886944632879084  0.7777950122151972  0.1243711787919344
  0.2217426300320552  0.2775379816826720  0.1262933626760566
  0.7222263310931264  0.7779244429984994  0.1250640490811760
  0.5554579363299932  0.2773316462023075  0.1279890363118668
  0.8887919064019175  0.2777253150169522  0.1242640340031445
  0.0553960043640254  0.4444573289452903  0.6256869747500200
  0.2220125220609825  0.9441674334357881  0.6254145153752397
  0.5554100336177229  0.9443716834755225  0.6257818821014193
  0.3883097832410617  0.4447027079555920  0.6196614803182269
  0.8887919064019175  0.9443999247182693  0.6257359659968742
  0.0553960043640254  0.9442720087520707  0.1243130252499985
  0.7226061675946002  0.4445161175136865  0.6229820972178924
  0.3886944632879084  0.9442327844060414  0.1243711787919335
  0.2218322095102780  0.4445155744432387  0.1253603886129967
  0.2220125220609834  0.6111784219585422  0.1245854846247490
  0.5558101048202754  0.4445717190768020  0.1318661011670944
  0.7221109317188836  0.9444413444612487  0.1243397090052413
  0.8889721182993393  0.4444553239670034  0.1246560900273238
  0.0555389412032430  0.6111384345799044  0.6254511530966099
  0.2218322095102780  0.1106499684003716  0.6246396113869638
  0.7226061675946002  0.6114233834142654  0.6229820972178924
  0.5554100392601631  0.1108420612392966  0.6251819926004124
  0.8887400439727174  0.1110366886530253  0.6257927409001388
 
  0.00000000E+00  0.00000000E+00  0.00000000E+00
  0.00000000E+00  0.00000000E+00  0.00000000E+00
  0.00000000E+00  0.00000000E+00  0.00000000E+00
  0.00000000E+00  0.00000000E+00  0.00000000E+00
  0.00000000E+00  0.00000000E+00  0.00000000E+00
  0.00000000E+00  0.00000000E+00  0.00000000E+00
  0.00000000E+00  0.00000000E+00  0.00000000E+00
  0.00000000E+00  0.00000000E+00  0.00000000E+00
  0.00000000E+00  0.00000000E+00  0.00000000E+00
  0.00000000E+00  0.00000000E+00  0.00000000E+00
  0.00000000E+00  0.00000000E+00  0.00000000E+00
  0.00000000E+00  0.00000000E+00  0.00000000E+00
  0.00000000E+00  0.00000000E+00  0.00000000E+00
  0.00000000E+00  0.00000000E+00  0.00000000E+00
  0.00000000E+00  0.00000000E+00  0.00000000E+00
  0.00000000E+00  0.00000000E+00  0.00000000E+00
  0.00000000E+00  0.00000000E+00  0.00000000E+00
  0.00000000E+00  0.00000000E+00  0.00000000E+00
  0.00000000E+00  0.00000000E+00  0.00000000E+00
  0.00000000E+00  0.00000000E+00  0.00000000E+00
  0.00000000E+00  0.00000000E+00  0.00000000E+00
  0.00000000E+00  0.00000000E+00  0.00000000E+00
  0.00000000E+00  0.00000000E+00  0.00000000E+00
  0.00000000E+00  0.00000000E+00  0.00000000E+00
  0.00000000E+00  0.00000000E+00  0.00000000E+00
  0.00000000E+00  0.00000000E+00  0.00000000E+00
  0.00000000E+00  0.00000000E+00  0.00000000E+00
  0.00000000E+00  0.00000000E+00  0.00000000E+00
  0.00000000E+00  0.00000000E+00  0.00000000E+00
  0.00000000E+00  0.00000000E+00  0.00000000E+00
  0.00000000E+00  0.00000000E+00  0.00000000E+00
  0.00000000E+00  0.00000000E+00  0.00000000E+00
  0.00000000E+00  0.00000000E+00  0.00000000E+00
  0.00000000E+00  0.00000000E+00  0.00000000E+00
  0.00000000E+00  0.00000000E+00  0.00000000E+00
  0.00000000E+00  0.00000000E+00  0.00000000E+00
  0.00000000E+00  0.00000000E+00  0.00000000E+00
  0.00000000E+00  0.00000000E+00  0.00000000E+00
  0.00000000E+00  0.00000000E+00  0.00000000E+00
  0.00000000E+00  0.00000000E+00  0.00000000E+00
  0.00000000E+00  0.00000000E+00  0.00000000E+00
  0.00000000E+00  0.00000000E+00  0.00000000E+00
  0.00000000E+00  0.00000000E+00  0.00000000E+00
  0.00000000E+00  0.00000000E+00  0.00000000E+00
  0.00000000E+00  0.00000000E+00  0.00000000E+00
  0.00000000E+00  0.00000000E+00  0.00000000E+00
  0.00000000E+00  0.00000000E+00  0.00000000E+00
  0.00000000E+00  0.00000000E+00  0.00000000E+00
  0.00000000E+00  0.00000000E+00  0.00000000E+00
  0.00000000E+00  0.00000000E+00  0.00000000E+00
  0.00000000E+00  0.00000000E+00  0.00000000E+00
  0.00000000E+00  0.00000000E+00  0.00000000E+00
  0.00000000E+00  0.00000000E+00  0.00000000E+00
  0.00000000E+00  0.00000000E+00  0.00000000E+00
  0.00000000E+00  0.00000000E+00  0.00000000E+00
  0.00000000E+00  0.00000000E+00  0.00000000E+00
  0.00000000E+00  0.00000000E+00  0.00000000E+00
  0.00000000E+00  0.00000000E+00  0.00000000E+00
  0.00000000E+00  0.00000000E+00  0.00000000E+00
  0.00000000E+00  0.00000000E+00  0.00000000E+00
  0.00000000E+00  0.00000000E+00  0.00000000E+00
  0.00000000E+00  0.00000000E+00  0.00000000E+00
  0.00000000E+00  0.00000000E+00  0.00000000E+00
  0.00000000E+00  0.00000000E+00  0.00000000E+00
  0.00000000E+00  0.00000000E+00  0.00000000E+00
  0.00000000E+00  0.00000000E+00  0.00000000E+00
  0.00000000E+00  0.00000000E+00  0.00000000E+00
  0.00000000E+00  0.00000000E+00  0.00000000E+00
  0.00000000E+00  0.00000000E+00  0.00000000E+00
  0.00000000E+00  0.00000000E+00  0.00000000E+00
  0.00000000E+00  0.00000000E+00  0.00000000E+00
  0.00000000E+00  0.00000000E+00  0.00000000E+00
  0.00000000E+00  0.00000000E+00  0.00000000E+00
  0.00000000E+00  0.00000000E+00  0.00000000E+00
  0.00000000E+00  0.00000000E+00  0.00000000E+00
  0.00000000E+00  0.00000000E+00  0.00000000E+00
  0.00000000E+00  0.00000000E+00  0.00000000E+00
  0.00000000E+00  0.00000000E+00  0.00000000E+00
  0.00000000E+00  0.00000000E+00  0.00000000E+00
  0.00000000E+00  0.00000000E+00  0.00000000E+00
  0.00000000E+00  0.00000000E+00  0.00000000E+00
  0.00000000E+00  0.00000000E+00  0.00000000E+00
  0.00000000E+00  0.00000000E+00  0.00000000E+00
  0.00000000E+00  0.00000000E+00  0.00000000E+00
  0.00000000E+00  0.00000000E+00  0.00000000E+00
  0.00000000E+00  0.00000000E+00  0.00000000E+00
  0.00000000E+00  0.00000000E+00  0.00000000E+00
  0.00000000E+00  0.00000000E+00  0.00000000E+00
  0.00000000E+00  0.00000000E+00  0.00000000E+00
  0.00000000E+00  0.00000000E+00  0.00000000E+00
  0.00000000E+00  0.00000000E+00  0.00000000E+00
  0.00000000E+00  0.00000000E+00  0.00000000E+00
  0.00000000E+00  0.00000000E+00  0.00000000E+00
  0.00000000E+00  0.00000000E+00  0.00000000E+00
  0.00000000E+00  0.00000000E+00  0.00000000E+00
  0.00000000E+00  0.00000000E+00  0.00000000E+00
  0.00000000E+00  0.00000000E+00  0.00000000E+00
  0.00000000E+00  0.00000000E+00  0.00000000E+00
  0.00000000E+00  0.00000000E+00  0.00000000E+00
  0.00000000E+00  0.00000000E+00  0.00000000E+00
  0.00000000E+00  0.00000000E+00  0.00000000E+00
  0.00000000E+00  0.00000000E+00  0.00000000E+00
  0.00000000E+00  0.00000000E+00  0.00000000E+00
  0.00000000E+00  0.00000000E+00  0.00000000E+00
  0.00000000E+00  0.00000000E+00  0.00000000E+00
  0.00000000E+00  0.00000000E+00  0.00000000E+00
  0.00000000E+00  0.00000000E+00  0.00000000E+00
  0.00000000E+00  0.00000000E+00  0.00000000E+00
  0.00000000E+00  0.00000000E+00  0.00000000E+00
  0.00000000E+00  0.00000000E+00  0.00000000E+00
  0.00000000E+00  0.00000000E+00  0.00000000E+00
  0.00000000E+00  0.00000000E+00  0.00000000E+00
  0.00000000E+00  0.00000000E+00  0.00000000E+00
  0.00000000E+00  0.00000000E+00  0.00000000E+00
  0.00000000E+00  0.00000000E+00  0.00000000E+00
  0.00000000E+00  0.00000000E+00  0.00000000E+00
  0.00000000E+00  0.00000000E+00  0.00000000E+00
  0.00000000E+00  0.00000000E+00  0.00000000E+00
  0.00000000E+00  0.00000000E+00  0.00000000E+00
  0.00000000E+00  0.00000000E+00  0.00000000E+00
  0.00000000E+00  0.00000000E+00  0.00000000E+00
  0.00000000E+00  0.00000000E+00  0.00000000E+00
  0.00000000E+00  0.00000000E+00  0.00000000E+00
  0.00000000E+00  0.00000000E+00  0.00000000E+00
  0.00000000E+00  0.00000000E+00  0.00000000E+00
  0.00000000E+00  0.00000000E+00  0.00000000E+00
  0.00000000E+00  0.00000000E+00  0.00000000E+00
  0.00000000E+00  0.00000000E+00  0.00000000E+00
  0.00000000E+00  0.00000000E+00  0.00000000E+00
  0.00000000E+00  0.00000000E+00  0.00000000E+00
  0.00000000E+00  0.00000000E+00  0.00000000E+00
  0.00000000E+00  0.00000000E+00  0.00000000E+00
  0.00000000E+00  0.00000000E+00  0.00000000E+00
  0.00000000E+00  0.00000000E+00  0.00000000E+00
  0.00000000E+00  0.00000000E+00  0.00000000E+00
  0.00000000E+00  0.00000000E+00  0.00000000E+00
  0.00000000E+00  0.00000000E+00  0.00000000E+00
  0.00000000E+00  0.00000000E+00  0.00000000E+00
  0.00000000E+00  0.00000000E+00  0.00000000E+00
  0.00000000E+00  0.00000000E+00  0.00000000E+00
  0.00000000E+00  0.00000000E+00  0.00000000E+00
  0.00000000E+00  0.00000000E+00  0.00000000E+00
  0.00000000E+00  0.00000000E+00  0.00000000E+00
  0.00000000E+00  0.00000000E+00  0.00000000E+00
  0.00000000E+00  0.00000000E+00  0.00000000E+00
  0.00000000E+00  0.00000000E+00  0.00000000E+00
  0.00000000E+00  0.00000000E+00  0.00000000E+00
  0.00000000E+00  0.00000000E+00  0.00000000E+00
  0.00000000E+00  0.00000000E+00  0.00000000E+00
  0.00000000E+00  0.00000000E+00  0.00000000E+00
  0.00000000E+00  0.00000000E+00  0.00000000E+00
  0.00000000E+00  0.00000000E+00  0.00000000E+00
  0.00000000E+00  0.00000000E+00  0.00000000E+00
  0.00000000E+00  0.00000000E+00  0.00000000E+00
  0.00000000E+00  0.00000000E+00  0.00000000E+00
  0.00000000E+00  0.00000000E+00  0.00000000E+00
  0.00000000E+00  0.00000000E+00  0.00000000E+00
  0.00000000E+00  0.00000000E+00  0.00000000E+00
  0.00000000E+00  0.00000000E+00  0.00000000E+00
  0.00000000E+00  0.00000000E+00  0.00000000E+00
  0.00000000E+00  0.00000000E+00  0.00000000E+00
  0.00000000E+00  0.00000000E+00  0.00000000E+00
  0.00000000E+00  0.00000000E+00  0.00000000E+00
  0.00000000E+00  0.00000000E+00  0.00000000E+00
  0.00000000E+00  0.00000000E+00  0.00000000E+00
  0.00000000E+00  0.00000000E+00  0.00000000E+00
  0.00000000E+00  0.00000000E+00  0.00000000E+00
  0.00000000E+00  0.00000000E+00  0.00000000E+00
  0.00000000E+00  0.00000000E+00  0.00000000E+00
  0.00000000E+00  0.00000000E+00  0.00000000E+00
  0.00000000E+00  0.00000000E+00  0.00000000E+00
  0.00000000E+00  0.00000000E+00  0.00000000E+00
  0.00000000E+00  0.00000000E+00  0.00000000E+00
  0.00000000E+00  0.00000000E+00  0.00000000E+00
  0.00000000E+00  0.00000000E+00  0.00000000E+00
  0.00000000E+00  0.00000000E+00  0.00000000E+00
  0.00000000E+00  0.00000000E+00  0.00000000E+00
  0.00000000E+00  0.00000000E+00  0.00000000E+00
  0.00000000E+00  0.00000000E+00  0.00000000E+00
  0.00000000E+00  0.00000000E+00  0.00000000E+00
  0.00000000E+00  0.00000000E+00  0.00000000E+00
  0.00000000E+00  0.00000000E+00  0.00000000E+00
  0.00000000E+00  0.00000000E+00  0.00000000E+00
  0.00000000E+00  0.00000000E+00  0.00000000E+00
  0.00000000E+00  0.00000000E+00  0.00000000E+00
  0.00000000E+00  0.00000000E+00  0.00000000E+00
  0.00000000E+00  0.00000000E+00  0.00000000E+00
  0.00000000E+00  0.00000000E+00  0.00000000E+00
  0.00000000E+00  0.00000000E+00  0.00000000E+00
  0.00000000E+00  0.00000000E+00  0.00000000E+00
  0.00000000E+00  0.00000000E+00  0.00000000E+00
  0.00000000E+00  0.00000000E+00  0.00000000E+00
  0.00000000E+00  0.00000000E+00  0.00000000E+00
  0.00000000E+00  0.00000000E+00  0.00000000E+00
  0.00000000E+00  0.00000000E+00  0.00000000E+00
  0.00000000E+00  0.00000000E+00  0.00000000E+00
  0.00000000E+00  0.00000000E+00  0.00000000E+00
  0.00000000E+00  0.00000000E+00  0.00000000E+00
  0.00000000E+00  0.00000000E+00  0.00000000E+00
  0.00000000E+00  0.00000000E+00  0.00000000E+00
  0.00000000E+00  0.00000000E+00  0.00000000E+00
  0.00000000E+00  0.00000000E+00  0.00000000E+00
  0.00000000E+00  0.00000000E+00  0.00000000E+00
  0.00000000E+00  0.00000000E+00  0.00000000E+00
  0.00000000E+00  0.00000000E+00  0.00000000E+00
  0.00000000E+00  0.00000000E+00  0.00000000E+00
  0.00000000E+00  0.00000000E+00  0.00000000E+00
  0.00000000E+00  0.00000000E+00  0.00000000E+00
  0.00000000E+00  0.00000000E+00  0.00000000E+00
  0.00000000E+00  0.00000000E+00  0.00000000E+00
  0.00000000E+00  0.00000000E+00  0.00000000E+00
  0.00000000E+00  0.00000000E+00  0.00000000E+00
  0.00000000E+00  0.00000000E+00  0.00000000E+00
  0.00000000E+00  0.00000000E+00  0.00000000E+00
  0.00000000E+00  0.00000000E+00  0.00000000E+00
  0.00000000E+00  0.00000000E+00  0.00000000E+00
  0.00000000E+00  0.00000000E+00  0.00000000E+00
  0.00000000E+00  0.00000000E+00  0.00000000E+00
  0.00000000E+00  0.00000000E+00  0.00000000E+00
  0.00000000E+00  0.00000000E+00  0.00000000E+00
  0.00000000E+00  0.00000000E+00  0.00000000E+00
  0.00000000E+00  0.00000000E+00  0.00000000E+00
  0.00000000E+00  0.00000000E+00  0.00000000E+00
  0.00000000E+00  0.00000000E+00  0.00000000E+00
  0.00000000E+00  0.00000000E+00  0.00000000E+00
  0.00000000E+00  0.00000000E+00  0.00000000E+00
  0.00000000E+00  0.00000000E+00  0.00000000E+00
  0.00000000E+00  0.00000000E+00  0.00000000E+00
  0.00000000E+00  0.00000000E+00  0.00000000E+00
  0.00000000E+00  0.00000000E+00  0.00000000E+00
  0.00000000E+00  0.00000000E+00  0.00000000E+00
  0.00000000E+00  0.00000000E+00  0.00000000E+00
  0.00000000E+00  0.00000000E+00  0.00000000E+00
  0.00000000E+00  0.00000000E+00  0.00000000E+00
  0.00000000E+00  0.00000000E+00  0.00000000E+00
  0.00000000E+00  0.00000000E+00  0.00000000E+00
  0.00000000E+00  0.00000000E+00  0.00000000E+00
  0.00000000E+00  0.00000000E+00  0.00000000E+00
  0.00000000E+00  0.00000000E+00  0.00000000E+00
  0.00000000E+00  0.00000000E+00  0.00000000E+00
  0.00000000E+00  0.00000000E+00  0.00000000E+00
  0.00000000E+00  0.00000000E+00  0.00000000E+00
  0.00000000E+00  0.00000000E+00  0.00000000E+00
  0.00000000E+00  0.00000000E+00  0.00000000E+00
  0.00000000E+00  0.00000000E+00  0.00000000E+00
  0.00000000E+00  0.00000000E+00  0.00000000E+00
  0.00000000E+00  0.00000000E+00  0.00000000E+00