 N B Si 
 1.0
 14.936314146199660   0.000000000000000   0.000000000000000
 -7.468157073099825  12.935227489513863   0.000000000000000
  0.000000000000001   0.000000000000001  13.341276283792837
 N B Si 
 143 143   2
Cartesian
  1.243418269940145   0.717436615625009   1.664986206992851 
  4.977706495946503   7.185675466001149   1.746884290874599 
  6.221862273733271   0.717774529281664   1.669867959415478 
  9.956217103503317   7.185732422845779   1.670004109096825 
 11.200879682435771   0.717840904475937   1.662215003957475 
 -3.735346972794354   9.341376410419679   8.339467871031319 
  1.243156422380730   9.341146019764789   8.336089253429257 
  2.487927136950995   2.873166129159080   8.298287473715185 
  6.222410336634243   9.341118735593316   8.327837102812357 
  7.466321534584963   2.873816130057385   8.322620227908700 
 12.445579258746665   2.874010062710975   8.345070946544563 
 -1.246136091318818   9.341432563197374   1.664627540625524 
 -0.001149889403754   2.873831108712690   1.668436621369835 
  4.977162264850031   2.873788202847915   1.718468664112396 
  3.732572850694456   9.340858553249213   1.683336984936568 
  8.711749683699878   9.341213222309495   1.670004109096825 
  9.955855194088191   2.874016704189414   1.664460970254647 
 -4.979916792757518  11.496940459366517   8.340515198108358 
 -0.001502449232979  11.497112551209854   8.344212292756632 
  1.242812734587108   5.029767535289105   8.298287473715185 
  6.222445053848110   5.029725041575539   8.259072921969562 
  4.977513382740193  11.496757658888681   8.341496242589955 
 11.200774300493000   5.029951755959690   8.343211078561865 
 -1.246358221326807   5.029855997989969   1.664986206992851 
 -2.490692902324086  11.497068192764409   1.664627540625524 
  2.487885970328509  11.496999833536110   1.662673289927761 
  3.730117777308035   5.028079500507576   1.838876632019788 
  7.467067459684177  11.496921704808098   1.662746134282951 
  8.711465602074540   5.029948553003852   1.678120110031898 
 -0.001528225082868   7.185653325273083   8.330154009145938 
  1.243418269940146   0.717436615625010   8.340971005851257 
  4.977706495946504   7.185675466001150   8.259072921969562 
  6.221862273733272   0.717774529281665   8.336089253429257 
  9.956217103503317   7.185732422845780   8.335953103747910 
 -2.490858656902804   7.185765305073446   1.665442014735936 
 11.200879682435771   0.717840904475937   8.343742208887072 
  3.732808518899672   0.717592352123816   1.675803203698544 
  2.487969030153946   7.185197355198286   1.718468664112382 
  7.466790116304026   7.185448281299553   1.695561560752333 
  8.711251217278852   0.717815031759608   1.662673289927761 
  2.487969030153946   7.185197355198286   8.287488548732753 
 13.690526736479976   0.717697778522144   1.660886266299571 
 -1.246136091318818   9.341432563197374   8.341329672219677 
 -0.001149889403753   2.873831108712690   8.337520591474446 
  4.977162264850032   2.873788202847916   8.287488548732753 
  3.732572850694456   9.340858553249213   8.322620227908700 
  8.711749683699878   9.341213222309495   8.335953103747910 
  9.955855194088191   2.874016704189415   8.341496242589955 
 -3.735346972794354   9.341376410419679   1.666489341813109 
  1.243156422380729   9.341146019764789   1.669867959415478 
  2.487927136950995   2.873166129159079   1.707669739129536 
  6.222410336634242   9.341118735593316   1.678120110031898 
  7.466321534584962   2.873816130057384   1.683336984936568 
 12.445579258746665   2.874010062710974   1.660886266299571 
 -1.246358221326806   5.029855997989970   8.340971005851257 
 -2.490692902324085  11.497068192764409   8.341329672219677 
  2.487885970328509  11.496999833536110   8.343283922916720 
  3.730117777308035   5.028079500507577   8.167080580824667 
  7.467067459684178  11.496921704808098   8.343211078561865 
 -4.979916792757519  11.496940459366517   1.665442014735936 
  8.711465602074540   5.029948553003853   8.327837102812357 
 -0.001502449232979  11.497112551209854   1.661744920087541 
  1.242812734587108   5.029767535289104   1.707669739129550 
 -0.001528225082943   7.185653325273082   1.675803203698544 
  6.222445053848109   5.029725041575538   1.746884290874599 
  4.977513382740192  11.496757658888681   1.664460970254647 
 11.200774300493000   5.029951755959689   1.662746134282951 
 -2.490858656902804   7.185765305073446   8.340515198108358 
  3.732808518899688   0.717592352123817   8.330154009145938 
  7.466790116304027   7.185448281299553   8.310395652092254 
  8.711251217278852   0.717815031759609   8.343283922916720 
 13.690526736479976   0.717697778522145   8.345070946544563 
  0.001544947751759   1.437026991129366   5.002978606422314 
  3.656762162992345   8.065495909527263   5.002978606422314 
  5.011261589819744   1.343953367760722   5.002978606422314 
  8.733506412980484   7.916787276174173   5.002978606422314 
  9.984289956683241   1.429717294390247   5.002978606422314 
 -4.979558282795970  10.060376028705631  11.673616748318732 
 -0.000416140682007  10.060364719034741  11.673616748318732 
  1.244114744294842   3.592784980190718  11.673616748318732 
  4.978095063433098  10.060395478686250  11.673616748318732 
  6.222791841049065   3.592871589516925  11.673616748318732 
 11.201629200481559   3.592676217509839  11.673616748318732 
 -2.497763614157436  10.055895495673170   5.002978606422314 
 -1.244111336915343   3.594566964940257   5.002978606422314 
  3.714914805358986   3.294898337729682   5.002978606422314 
  2.453258075627936  10.134248418902335   5.002978606422314 
  7.502157898257519  10.114685778163247   5.002978606422314 
  8.770440326190780   3.563253188834952   5.002978606422314 
 -6.224214015111630  12.216347391832509  11.673616748318732 
 -1.245219416453996  12.216427238100016  11.673616748318732 
 -0.000460664204030   5.748443868348090  11.673616748318732 
  4.977940433540055   5.748510246984000  11.673616748318732 
  3.733481116510809  12.216290885659459  11.673616748318732 
  9.956850481081498   5.748478271726611  11.673616748318732 
 -2.502797121748455   5.758670200444493   5.002978606422314 
 -3.731033835667009  12.180601203909012   5.002978606422314 
  1.248553674538217  12.218832790770790   5.002978606422314 
  2.221537375007338   5.881503921975407   5.002978606422314 
  6.233297693828708  12.242132384954070   5.002978606422314 
  7.626309377959577   5.733179907776883   5.002978606422314 
 -1.245126372174482   7.904334062847280  11.673616748318732 
 -0.000710204273014   1.436925979473294  11.673616748318732 
  3.733528298548618   7.904402518556618  11.673616748318732 
  4.978170184745299   1.437253568167544  11.673616748318732 
  8.711915483831582   7.904321747416724  11.673616748318732 
 -3.734641948197806   7.911583266918210   5.002978606422314 
  9.956973114223631   1.436886545122445  11.673616748318732 
  2.460358636696172   1.333191150282155   5.002978606422314 
  1.180142861859134   7.979645654417194   5.002978606422314 
  6.288848442547827   8.049730201048645   5.002978606422314 
  7.513759925812497   1.369202102586307   5.002978606422314 
  1.244397503052249   7.904337556772650  11.673616748318732 
 12.460068928207139   1.444834154481713   5.002978606422314 
 -2.489962025104658  10.060399745212244  11.673616748318732 
 -1.245326391588176   3.592664451825832  11.673616748318732 
  3.733440845190030   3.593050242188477  11.673616748318732 
  2.488888537270001  10.060391080810355  11.673616748318732 
  7.467367765925289  10.060388818941718  11.673616748318732 
  8.712219897343896   3.592701544548007  11.673616748318732 
 -4.973231644925339  10.056883551381638   5.002978606422314 
 -0.024158805029056  10.082302946717517   5.002978606422314 
  1.240075069855595   3.590452673066590   5.002978606422314 
  4.981702253709339  10.125540026943428   5.002978606422314 
  6.323919742233411   3.445843470489290   5.002978606422314 
 11.229260797743894   3.588870456233400   5.002978606422314 
 -2.489982588906278   5.748468834424402  11.673616748318732 
 -3.734751851796350  12.216491885370422  11.673616748318732 
  1.244171400232276  12.216302683521189  11.673616748318732 
  2.489007518370774   5.748471990871409  11.673616748318732 
  6.222777781143639  12.216299839139596  11.673616748318732 
 -6.221786639406057  12.200148997843572   5.002978606422314 
  7.467322150288892   5.748463605265388  11.673616748318732 
 -1.238091686140164  12.184896373780438   5.002978606422314 
 -0.104628968440116   5.775880003162706   5.002978606422314 
 -1.274349606014308   7.925499299997298   5.002978606422314 
  3.740930784480566  12.243532590546526   5.002978606422314 
 10.021268093281947   5.751458930516166   5.002978606422314 
 -3.734780693048374   7.904357999139654  11.673616748318732 
  2.488682399083044   1.437121615427215  11.673616748318732 
  6.222590899001273   7.904401374264343  11.673616748318732 
  7.467612825590241   1.436987656562441  11.673616748318732 
 12.446298811249033   1.436883973749644  11.673616748318732 
  1.213198863012544   0.670459177584613   5.002978606422314 
  4.967767159541547   7.596138985921024   5.002978606422314 
  6.265263595988701   0.656426062294562   5.002978606422314 
  9.981432146442735   7.187804055379098   5.002978606422314 
 11.222946280497929   0.730581060806999   5.002978606422314 
 -3.734616443879578   9.341798181484879  11.673616748318732 
  1.243851601787832   9.342630434503961  11.673616748318732 
  2.487709683791150   2.873099946865617  11.673616748318732 
  6.222990125394595   9.343098066637738  11.673616748318732 
  7.468833689616593   2.873194263147733  11.673616748318732 
 12.445974183563662   2.873681032409811  11.673616748318732 
 -1.260738807591380   9.356007185717276   5.002978606422314 
 -0.017358359041001   2.864473144404818   5.002978606422314 
  5.051536766910917   2.733323847191833   5.002978606422314 
  3.694071915533824   9.484335329692621   5.002978606422314 
  8.726151291570499   9.362014273786317   5.002978606422314 
 10.007511307553324   2.853363200680207   5.002978606422314 
 -4.979577518608947  11.497573150961623  11.673616748318732 
 -0.000331990789851  11.497788315707322  11.673616748318732 
  1.242646692459229   5.029612306476207  11.673616748318732 
  6.224329527047958   5.029305734529975  11.673616748318732 
  4.978025334715193  11.498573796268976  11.673616748318732 
 11.201898087482260   5.029538232206735  11.673616748318732 
 -1.302151579538315   5.027173942923746   5.002978606422314 
 -2.485372267108541  11.477134558249857   5.002978606422314 
  2.489127381672637  11.547404600721119   5.002978606422314 
  7.474504182290108  11.528812349554407   5.002978606422314 
  8.843486255477886   5.000635406369652   5.002978606422314 
 -0.001309396975297   7.186093390898253  11.673616748318732 
  1.243280327627266   0.717776753018080  11.673616748318732 
  4.978285601992028   7.187517121189408  11.673616748318732 
  6.223495404310444   0.717634364939231  11.673616748318732 
  9.957442336769192   7.185821651400434  11.673616748318732 
 -2.503224136397855   7.193112328955846   5.002978606422314 
 11.201716310238341   0.718323931762453  11.673616748318732 
  3.737238113485365   0.654287970323289   5.002978606422314 
  2.403510580860010   7.319839741204874   5.002978606422314 
  7.517113076434668   7.214502255878337   5.002978606422314 
  8.755523731804637   0.693687741928247   5.002978606422314 
  2.488101092824873   7.186859751879317  11.673616748318732 
 13.693908241628245   0.731980591912362   5.002978606422314 
 -1.245381369348688   9.341945361778080  11.673616748318732 
 -0.001844222300216   2.873430235428477  11.673616748318732 
  4.978667973942666   2.873071374134913  11.673616748318732 
  3.733290375668784   9.343345076779601  11.673616748318732 
  8.712439574527970   9.342229691165839  11.673616748318732 
  9.957683991183659   2.873551998915358  11.673616748318732 
 -3.734335615862344   9.341960317615371   5.002978606422314 
  1.211727752614474   9.409406900889222   5.002978606422314 
  2.415884047709158   2.714326039724763   5.002978606422314 
  6.263034733685847   9.470108548581921   5.002978606422314 
  7.571325600257992   2.768734953916675   5.002978606422314 
 12.459639290554257   2.869797125377270   5.002978606422314 
 -1.246132624860010   5.029566467746120  11.673616748318732 
 -2.489871444740993  11.497465401872791  11.673616748318732 
  2.488881855404435  11.498365201402853  11.673616748318732 
  3.732602640509122   5.029514136945718  11.673616748318732 
  7.467271231103793  11.498101694765525  11.673616748318732 
 -4.979736823181728  11.482558128054425   5.002978606422314 
  8.713469647421421   5.029460999276689  11.673616748318732 
  0.005636095523231  11.501233991946387   5.002978606422314 
  1.069231637376665   5.046796434555748   5.002978606422314 
 -0.054136630600096   7.221141657612803   5.002978606422314 
  6.572947221222385   4.815885563793251   5.002978606422314 
  4.985454980756036  11.551819917165899   5.002978606422314 
 11.232110770290074   5.020446824282888   5.002978606422314 
 -2.490141092835204   7.185742779308801  11.673616748318732 
  3.733299040964077   0.717561830011773  11.673616748318732 
  7.468304577040642   7.186322655614608  11.673616748318732 
  8.712931603074715   0.717994809601602  11.673616748318732 
 13.690439250288989   0.718204308596935  11.673616748318732 
 -0.002477031485381   1.434658703865328   1.658716232767246 
  3.730017720159748   7.909369330119786   1.707537094733012 
  4.977953063171783   1.430840645941049   1.677214521787386 
  8.715471182491516   7.906374630995462   1.669676801135220 
  9.956688478012016   1.435848029844601   1.658850410885324 
 -4.978691404702056  10.060164146131854   8.344316635478686 
 -0.003032711340023  10.060955423212787   8.346686954840559 
  1.239320340806005   3.590016930045895   8.321042568574182 
  4.977737434547655  10.062629639838946   8.337443180882778 
  6.225337936844368   3.587347933668215   8.298420118111469 
 11.201178848896005   3.592440129341176   8.348116403070296 
 -2.490903835187445  10.059855990907153   1.660023462820307 
 -1.248173323468276   3.592267972379871   1.658716232767246 
  3.731682437077604   3.582287186523013   1.738882201494770 
  2.486289645779099  10.062330426758223   1.665231521910776 
  7.468859893393386  10.061668354103075   1.663071337511882 
  8.713975923215102   3.591274748272527   1.668514031961797 
 -6.224559557466632  12.214373245188265   8.347462797310529 
 -1.246016136958052  12.213865869349238   8.346686954840559 
 -0.006356562390215   5.749910078055232   8.333489633314477 
  4.981622902904223   5.750636321662685   8.246695124708490 
  3.732439417791999  12.216563641108580   8.347106801959235 
  9.958704654770447   5.749130724438768   8.342885875332572 
 -2.491865021228513   5.749156659289021   1.658494415534352 
 -3.735141922311064  12.213020539682356   1.662129371329001 
  1.243062674482717  12.215662560411058   1.657228230337454 
  2.478807234685998   5.752330692608429   1.738882201494770 
  6.222348146999050  12.216027867310576   1.657840809774572 
  7.473356536057631   5.749917102795020   1.694580934003228 
 -1.248327680982749   7.905731924715837   8.343827841515479 
 -0.002477031485381   1.434658703865329   8.347240980077315 
  3.730017720159748   7.909369330119786   8.298420118111469 
  4.977953063171813   1.430840645941050   8.328742691057307 
  8.715471182491516   7.906374630995463   8.336280411708728 
 -3.734530749692115   7.905214678876445   1.661640577366542 
  9.956688478012016   1.435848029844602   8.347106801959235 
  2.487004224843581   1.431282512966332   1.672467579529604 
  1.238735188704964   7.907355985087328   1.677214521787386 
  6.226866857670476   7.908900556871776   1.694580934003228 
  7.467992902701669   1.433767277536921   1.665231521910776 
  1.238735188704964   7.907355985087329   8.328742691057307 
 12.445261059346130   1.436284827409201   1.657083360103768 
 -2.490903835187445  10.059855990907153   8.345933750024562 
 -1.248173323468275   3.592267972379872   8.347240980077315 
  3.731682437077604   3.582287186523014   8.267075011349524 
  2.486289645779099  10.062330426758223   8.340725690934224 
  7.468859893393387  10.061668354103075   8.342885875332572 
  8.713975923215102   3.591274748272528   8.337443180882778 
 -4.978691404702057  10.060164146131854   1.661640577366542 
 -0.003032711340023  10.060955423212787   1.659270258004188 
  1.239320340806004   3.590016930045894   1.684914644270527 
  4.977737434547654  10.062629639838946   1.668514031961797 
  6.225337936844367   3.587347933668215   1.707537094733012 
 11.201178848896005   3.592440129341175   1.657840809774572 
 -2.491865021228497   5.749156659289022   8.347462797310529 
 -3.735141922311078  12.213020539682356   8.343827841515479 
  1.243062674482717  12.215662560411058   8.348728982506907 
  2.478807234685998   5.752330692608430   8.267075011349524 
  6.222348146999050  12.216027867310576   8.348116403070296 
 -6.224559557466633  12.214373245188265   1.658494415534352 
  7.473356536057632   5.749917102795020   8.311376278840585 
 -1.246016136958052  12.213865869349238   1.659270258004188 
 -0.006356562390215   5.749910078055231   1.672467579529630 
 -1.248327680982750   7.905731924715836   1.662129371329001 
  4.981622902904222   5.750636321662684   1.759262088136778 
  3.732439417791999  12.216563641108580   1.658850410885324 
  9.958704654770447   5.749130724438767   1.663071337511882 
 -3.734530749692115   7.905214678876446   8.344316635478686 
  2.487004224843582   1.431282512966333   8.333489633314477 
  6.226866857670477   7.908900556871777   8.311376278840585 
  7.467992902701662   1.433767277536935   8.340725690934224 
 12.445261059346130   1.436284827409202   8.348873852740741 
  3.410229865730733   4.843392128647740   5.002978606422314 
  5.151379976026877   5.848645613526910   5.002978606422314 
Generated by cif2cell 2.0.0.  :  Failed to get author information, No journal information. Species order: N B Si 
 1.0
 14.936314146199660   0.000000000000000   0.000000000000000
 -7.468157073099825  12.935227489513863   0.000000000000000
  0.000000000000001   0.000000000000001  13.341276283792837
 N B Si 
 143 143   2
Cartesian
  1.243418269940145   0.717436615625009   1.664986206992851 
  4.977706495946503   7.185675466001149   1.746884290874599 
  6.221862273733271   0.717774529281664   1.669867959415478 
  9.956217103503317   7.185732422845779   1.670004109096825 
 11.200879682435771   0.717840904475937   1.662215003957475 
 -3.735346972794354   9.341376410419679   8.339467871031319 
  1.243156422380730   9.341146019764789   8.336089253429257 
  2.487927136950995   2.873166129159080   8.298287473715185 
  6.222410336634243   9.341118735593316   8.327837102812357 
  7.466321534584963   2.873816130057385   8.322620227908700 
 12.445579258746665   2.874010062710975   8.345070946544563 
 -1.246136091318818   9.341432563197374   1.664627540625524 
 -0.001149889403754   2.873831108712690   1.668436621369835 
  4.977162264850031   2.873788202847915   1.718468664112396 
  3.732572850694456   9.340858553249213   1.683336984936568 
  8.711749683699878   9.341213222309495   1.670004109096825 
  9.955855194088191   2.874016704189414   1.664460970254647 
 -4.979916792757518  11.496940459366517   8.340515198108358 
 -0.001502449232979  11.497112551209854   8.344212292756632 
  1.242812734587108   5.029767535289105   8.298287473715185 
  6.222445053848110   5.029725041575539   8.259072921969562 
  4.977513382740193  11.496757658888681   8.341496242589955 
 11.200774300493000   5.029951755959690   8.343211078561865 
 -1.246358221326807   5.029855997989969   1.664986206992851 
 -2.490692902324086  11.497068192764409   1.664627540625524 
  2.487885970328509  11.496999833536110   1.662673289927761 
  3.730117777308035   5.028079500507576   1.838876632019788 
  7.467067459684177  11.496921704808098   1.662746134282951 
  8.711465602074540   5.029948553003852   1.678120110031898 
 -0.001528225082868   7.185653325273083   8.330154009145938 
  1.243418269940146   0.717436615625010   8.340971005851257 
  4.977706495946504   7.185675466001150   8.259072921969562 
  6.221862273733272   0.717774529281665   8.336089253429257 
  9.956217103503317   7.185732422845780   8.335953103747910 
 -2.490858656902804   7.185765305073446   1.665442014735936 
 11.200879682435771   0.717840904475937   8.343742208887072 
  3.732808518899672   0.717592352123816   1.675803203698544 
  2.487969030153946   7.185197355198286   1.718468664112382 
  7.466790116304026   7.185448281299553   1.695561560752333 
  8.711251217278852   0.717815031759608   1.662673289927761 
  2.487969030153946   7.185197355198286   8.287488548732753 
 13.690526736479976   0.717697778522144   1.660886266299571 
 -1.246136091318818   9.341432563197374   8.341329672219677 
 -0.001149889403753   2.873831108712690   8.337520591474446 
  4.977162264850032   2.873788202847916   8.287488548732753 
  3.732572850694456   9.340858553249213   8.322620227908700 
  8.711749683699878   9.341213222309495   8.335953103747910 
  9.955855194088191   2.874016704189415   8.341496242589955 
 -3.735346972794354   9.341376410419679   1.666489341813109 
  1.243156422380729   9.341146019764789   1.669867959415478 
  2.487927136950995   2.873166129159079   1.707669739129536 
  6.222410336634242   9.341118735593316   1.678120110031898 
  7.466321534584962   2.873816130057384   1.683336984936568 
 12.445579258746665   2.874010062710974   1.660886266299571 
 -1.246358221326806   5.029855997989970   8.340971005851257 
 -2.490692902324085  11.497068192764409   8.341329672219677 
  2.487885970328509  11.496999833536110   8.343283922916720 
  3.730117777308035   5.028079500507577   8.167080580824667 
  7.467067459684178  11.496921704808098   8.343211078561865 
 -4.979916792757519  11.496940459366517   1.665442014735936 
  8.711465602074540   5.029948553003853   8.327837102812357 
 -0.001502449232979  11.497112551209854   1.661744920087541 
  1.242812734587108   5.029767535289104   1.707669739129550 
 -0.001528225082943   7.185653325273082   1.675803203698544 
  6.222445053848109   5.029725041575538   1.746884290874599 
  4.977513382740192  11.496757658888681   1.664460970254647 
 11.200774300493000   5.029951755959689   1.662746134282951 
 -2.490858656902804   7.185765305073446   8.340515198108358 
  3.732808518899688   0.717592352123817   8.330154009145938 
  7.466790116304027   7.185448281299553   8.310395652092254 
  8.711251217278852   0.717815031759609   8.343283922916720 
 13.690526736479976   0.717697778522145   8.345070946544563 
  0.001544947751759   1.437026991129366   5.002978606422314 
  3.656762162992345   8.065495909527263   5.002978606422314 
  5.011261589819744   1.343953367760722   5.002978606422314 
  8.733506412980484   7.916787276174173   5.002978606422314 
  9.984289956683241   1.429717294390247   5.002978606422314 
 -4.979558282795970  10.060376028705631  11.673616748318732 
 -0.000416140682007  10.060364719034741  11.673616748318732 
  1.244114744294842   3.592784980190718  11.673616748318732 
  4.978095063433098  10.060395478686250  11.673616748318732 
  6.222791841049065   3.592871589516925  11.673616748318732 
 11.201629200481559   3.592676217509839  11.673616748318732 
 -2.497763614157436  10.055895495673170   5.002978606422314 
 -1.244111336915343   3.594566964940257   5.002978606422314 
  3.714914805358986   3.294898337729682   5.002978606422314 
  2.453258075627936  10.134248418902335   5.002978606422314 
  7.502157898257519  10.114685778163247   5.002978606422314 
  8.770440326190780   3.563253188834952   5.002978606422314 
 -6.224214015111630  12.216347391832509  11.673616748318732 
 -1.245219416453996  12.216427238100016  11.673616748318732 
 -0.000460664204030   5.748443868348090  11.673616748318732 
  4.977940433540055   5.748510246984000  11.673616748318732 
  3.733481116510809  12.216290885659459  11.673616748318732 
  9.956850481081498   5.748478271726611  11.673616748318732 
 -2.502797121748455   5.758670200444493   5.002978606422314 
 -3.731033835667009  12.180601203909012   5.002978606422314 
  1.248553674538217  12.218832790770790   5.002978606422314 
  2.221537375007338   5.881503921975407   5.002978606422314 
  6.233297693828708  12.242132384954070   5.002978606422314 
  7.626309377959577   5.733179907776883   5.002978606422314 
 -1.245126372174482   7.904334062847280  11.673616748318732 
 -0.000710204273014   1.436925979473294  11.673616748318732 
  3.733528298548618   7.904402518556618  11.673616748318732 
  4.978170184745299   1.437253568167544  11.673616748318732 
  8.711915483831582   7.904321747416724  11.673616748318732 
 -3.734641948197806   7.911583266918210   5.002978606422314 
  9.956973114223631   1.436886545122445  11.673616748318732 
  2.460358636696172   1.333191150282155   5.002978606422314 
  1.180142861859134   7.979645654417194   5.002978606422314 
  6.288848442547827   8.049730201048645   5.002978606422314 
  7.513759925812497   1.369202102586307   5.002978606422314 
  1.244397503052249   7.904337556772650  11.673616748318732 
 12.460068928207139   1.444834154481713   5.002978606422314 
 -2.489962025104658  10.060399745212244  11.673616748318732 
 -1.245326391588176   3.592664451825832  11.673616748318732 
  3.733440845190030   3.593050242188477  11.673616748318732 
  2.488888537270001  10.060391080810355  11.673616748318732 
  7.467367765925289  10.060388818941718  11.673616748318732 
  8.712219897343896   3.592701544548007  11.673616748318732 
 -4.973231644925339  10.056883551381638   5.002978606422314 
 -0.024158805029056  10.082302946717517   5.002978606422314 
  1.240075069855595   3.590452673066590   5.002978606422314 
  4.981702253709339  10.125540026943428   5.002978606422314 
  6.323919742233411   3.445843470489290   5.002978606422314 
 11.229260797743894   3.588870456233400   5.002978606422314 
 -2.489982588906278   5.748468834424402  11.673616748318732 
 -3.734751851796350  12.216491885370422  11.673616748318732 
  1.244171400232276  12.216302683521189  11.673616748318732 
  2.489007518370774   5.748471990871409  11.673616748318732 
  6.222777781143639  12.216299839139596  11.673616748318732 
 -6.221786639406057  12.200148997843572   5.002978606422314 
  7.467322150288892   5.748463605265388  11.673616748318732 
 -1.238091686140164  12.184896373780438   5.002978606422314 
 -0.104628968440116   5.775880003162706   5.002978606422314 
 -1.274349606014308   7.925499299997298   5.002978606422314 
  3.740930784480566  12.243532590546526   5.002978606422314 
 10.021268093281947   5.751458930516166   5.002978606422314 
 -3.734780693048374   7.904357999139654  11.673616748318732 
  2.488682399083044   1.437121615427215  11.673616748318732 
  6.222590899001273   7.904401374264343  11.673616748318732 
  7.467612825590241   1.436987656562441  11.673616748318732 
 12.446298811249033   1.436883973749644  11.673616748318732 
  1.213198863012544   0.670459177584613   5.002978606422314 
  4.967767159541547   7.596138985921024   5.002978606422314 
  6.265263595988701   0.656426062294562   5.002978606422314 
  9.981432146442735   7.187804055379098   5.002978606422314 
 11.222946280497929   0.730581060806999   5.002978606422314 
 -3.734616443879578   9.341798181484879  11.673616748318732 
  1.243851601787832   9.342630434503961  11.673616748318732 
  2.487709683791150   2.873099946865617  11.673616748318732 
  6.222990125394595   9.343098066637738  11.673616748318732 
  7.468833689616593   2.873194263147733  11.673616748318732 
 12.445974183563662   2.873681032409811  11.673616748318732 
 -1.260738807591380   9.356007185717276   5.002978606422314 
 -0.017358359041001   2.864473144404818   5.002978606422314 
  5.051536766910917   2.733323847191833   5.002978606422314 
  3.694071915533824   9.484335329692621   5.002978606422314 
  8.726151291570499   9.362014273786317   5.002978606422314 
 10.007511307553324   2.853363200680207   5.002978606422314 
 -4.979577518608947  11.497573150961623  11.673616748318732 
 -0.000331990789851  11.497788315707322  11.673616748318732 
  1.242646692459229   5.029612306476207  11.673616748318732 
  6.224329527047958   5.029305734529975  11.673616748318732 
  4.978025334715193  11.498573796268976  11.673616748318732 
 11.201898087482260   5.029538232206735  11.673616748318732 
 -1.302151579538315   5.027173942923746   5.002978606422314 
 -2.485372267108541  11.477134558249857   5.002978606422314 
  2.489127381672637  11.547404600721119   5.002978606422314 
  7.474504182290108  11.528812349554407   5.002978606422314 
  8.843486255477886   5.000635406369652   5.002978606422314 
 -0.001309396975297   7.186093390898253  11.673616748318732 
  1.243280327627266   0.717776753018080  11.673616748318732 
  4.978285601992028   7.187517121189408  11.673616748318732 
  6.223495404310444   0.717634364939231  11.673616748318732 
  9.957442336769192   7.185821651400434  11.673616748318732 
 -2.503224136397855   7.193112328955846   5.002978606422314 
 11.201716310238341   0.718323931762453  11.673616748318732 
  3.737238113485365   0.654287970323289   5.002978606422314 
  2.403510580860010   7.319839741204874   5.002978606422314 
  7.517113076434668   7.214502255878337   5.002978606422314 
  8.755523731804637   0.693687741928247   5.002978606422314 
  2.488101092824873   7.186859751879317  11.673616748318732 
 13.693908241628245   0.731980591912362   5.002978606422314 
 -1.245381369348688   9.341945361778080  11.673616748318732 
 -0.001844222300216   2.873430235428477  11.673616748318732 
  4.978667973942666   2.873071374134913  11.673616748318732 
  3.733290375668784   9.343345076779601  11.673616748318732 
  8.712439574527970   9.342229691165839  11.673616748318732 
  9.957683991183659   2.873551998915358  11.673616748318732 
 -3.734335615862344   9.341960317615371   5.002978606422314 
  1.211727752614474   9.409406900889222   5.002978606422314 
  2.415884047709158   2.714326039724763   5.002978606422314 
  6.263034733685847   9.470108548581921   5.002978606422314 