B N As                                  
   1.0000000000000000     
     8.7639499999999995  -15.1796066749929999    0.0000000000000000
     8.7639499999999995   15.1796066749929999    0.0000000000000000
     0.0000000000000000    0.0000000000000000   15.0000000000000000
   B    N    As
    48    48     1
Selective dynamics
Direct
  0.9053915305992015  0.9531150345154221  0.1185105928400260   T   T   T
  0.9044947873235188  0.0956614190348239  0.1183003469731623   T   T   T
  0.9041761899193497  0.2385275662607454  0.1172996013332463   T   T   T
  0.9042040022800995  0.3813747000039423  0.1162057556407204   T   T   T
  0.9048072035501666  0.5241712058846298  0.1149404359510842   T   T   T
  0.9059998568678492  0.6672282643978770  0.1153835005705830   T   T   T
  0.9063543150460447  0.8106002361037339  0.1174309145694715   T   T   T
  0.0479681093821512  0.9521797255234671  0.1184646795152889   T   T   T
  0.0470269801843488  0.0947519918857282  0.1185160652732093   T   T   T
  0.0468121123607799  0.2378980058536131  0.1167389207548479   T   T   T
  0.0471614213544610  0.3808984864911185  0.1144402651364956   T   T   T
  0.0480477874859609  0.5236534554454247  0.1143803005204328   T   T   T
  0.0485608616694811  0.6664734348715387  0.1157795462500770   T   T   T
  0.0485327479957709  0.8094118338921596  0.1174433028044851   T   T   T
  0.1907416232624198  0.9516310456205951  0.1174722981694658   T   T   T
  0.1895471036039979  0.0937974417239356  0.1174924844423787   T   T   T
  0.1885379304742963  0.2363618756869136  0.1152912882432241   T   T   T
  0.1894507661798515  0.3800703246604833  0.1093270365426228   T   T   T
  0.1913943594378184  0.5230232011599925  0.1075883135633107   T   T   T
  0.1916274851924540  0.6659294548463676  0.1110035516133855   T   T   T
  0.1912962354390911  0.8088658658372467  0.1152735640674906   T   T   T
  0.3336856666190366  0.9515990749689527  0.1158070083627646   T   T   T
  0.3329368168258727  0.0941609367880764  0.1154776537975763   T   T   T
  0.3306712990676406  0.2350072248356065  0.1125695736000205   T   T   T
  0.3291721702409743  0.3776481072577497  0.1018891091142878   T   T   T
  0.3349269258737638  0.5214891557897077  0.0937349994139214   T   T   T
  0.3349653720901922  0.6651819187402899  0.1014052173580667   T   T   T
  0.3342282516029424  0.8085284728611076  0.1110047762581114   T   T   T
  0.4765116783292031  0.9521103665683481  0.1143860063325020   T   T   T
  0.4759937336642983  0.0953498739353053  0.1149999278819057   T   T   T
  0.4750427057652966  0.2381684715471945  0.1083048204556184   T   T   T
  0.4690830527995290  0.3759757065457582  0.0947560080639965   T   T   T
  0.4786393876584820  0.6651867032579355  0.0937290012800621   T   T   T
  0.4771240370178689  0.8087425075955971  0.1075803249996466   T   T   T
  0.6192604349290662  0.9529919059235421  0.1144465138988733   T   T   T
  0.6187865816680552  0.0959545188590030  0.1162267378828857   T   T   T
  0.6183037398138100  0.2391251288191428  0.1120107955798984   T   T   T
  0.6176936766004324  0.3824547494606237  0.1019599462330969   T   T   T
  0.6241674412748374  0.5310587202500698  0.0946964304167004   T   T   T
  0.6224941035085626  0.6709587544967771  0.1018500406555379   T   T   T
  0.6200688630696052  0.8106786903876381  0.1093273823480392   T   T   T
  0.7622551777556231  0.9533358205912164  0.1167512570772846   T   T   T
  0.7616342221102096  0.0959861062781497  0.1173054035689545   T   T   T
  0.7612630202002134  0.2388997560012796  0.1162630687165742   T   T   T
  0.7610228573949790  0.3818496452175041  0.1119775491379326   T   T   T
  0.7619859622316660  0.5251196595828524  0.1082127982646144   T   T   T
  0.7651417315689877  0.6694755024829907  0.1124740002418882   T   T   T
  0.7637779990719753  0.8115973041356630  0.1152492224105629   T   T   T
  0.9531204674084001  0.9053928072892441  0.1184978114214551   T   T   T
  0.9521864541345524  0.0479512990978730  0.1187538584178103   T   T   T
  0.9517097939025499  0.1907488667242902  0.1178478186010174   T   T   T
  0.9517812619976681  0.3336935102584255  0.1166059089440976   T   T   T
  0.9523921136471846  0.4765028155379956  0.1159470935835507   T   T   T
  0.9531237842052751  0.6192683028499405  0.1159013835463778   T   T   T
  0.9533940196159048  0.7622931347097269  0.1172807527902079   T   T   T
  0.0956786966296384  0.9044788679815750  0.1180106821484014   T   T   T
  0.0947553879351299  0.0470271766983072  0.1185210565133303   T   T   T
  0.0938747099887760  0.1896013328853480  0.1176830409048112   T   T   T
  0.0943203986076892  0.3329745950875021  0.1140375553711028   T   T   T
  0.0957082008250021  0.4760257129906544  0.1125133782494412   T   T   T
  0.0961556590625748  0.6187986559088945  0.1141540272753042   T   T   T
  0.0960649492720388  0.7616201637494558  0.1164632153228262   T   T   T
  0.2385396714004202  0.9040980605819144  0.1164791208188651   T   T   T
  0.2378652252832368  0.0467665611177335  0.1173528370247052   T   T   T
  0.2362227185987601  0.1885518570026420  0.1160904133003636   T   T   T
  0.2350729962074495  0.3307728581675964  0.1104819539788674   T   T   T
  0.2387953413990884  0.4751258491590462  0.1040410970162966   T   T   T
  0.2393484530782657  0.6182890687084059  0.1062357193458800   T   T   T
  0.2389633625024736  0.7612007568744114  0.1122748721115389   T   T   T
  0.3813621891621806  0.9040033158313234  0.1141596771819733   T   T   T
  0.3808892158951472  0.0470299373937477  0.1159673959462537   T   T   T
  0.3800368369367305  0.1894734496764592  0.1123025242074379   T   T   T
  0.3768377075497627  0.3296262048719866  0.1066355263797277   T   T   T
  0.3775360112528265  0.4695177839959307  0.0876214482570903   T   T   T
  0.3826529205005154  0.6174858906727348  0.0925115278389293   T   T   T
  0.3818646956597324  0.7608035603134208  0.1062320372224034   T   T   T
  0.5241322697895648  0.9044388445941114  0.1125053443520438   T   T   T
  0.5236586010912843  0.0477593393482608  0.1159738616406246   T   T   T
  0.5231132726460910  0.1911142546095667  0.1120621694495991   T   T   T
  0.5218766720035050  0.3345284997101146  0.0998139925932807   T   T   T
  0.5306155300412687  0.6225871488979664  0.0876069135584454   T   T   T
  0.5250145591638103  0.7613355549948257  0.1040382919079098   T   T   T
  0.6671736207318387  0.9058210444697670  0.1140507694529586   T   T   T
  0.6664664891517225  0.0483700233375000  0.1166151893240328   T   T   T
  0.6659802520887115  0.1914908628399896  0.1155692771703325   T   T   T
  0.6653197800803751  0.3348315275111482  0.1086681741915262   T   T   T
  0.6656235530458240  0.4782679243111015  0.0997551897510330   T   T   T
  0.6705199478777837  0.6232995901744344  0.1065656570038805   T   T   T
  0.6693665885910179  0.7650620300315900  0.1104531683366300   T   T   T
  0.8105394106831592  0.9062662710787603  0.1176744594212957   T   T   T
  0.8093993233695448  0.0484357398732104  0.1178624478759506   T   T   T
  0.8089230155427783  0.1912357116253623  0.1174078842850775   T   T   T
  0.8086652010200664  0.3341843942988053  0.1155540775936510   T   T   T
  0.8090382560814982  0.4770422602081441  0.1119844209372447   T   T   T
  0.8106838198349982  0.6201153781062821  0.1121776319765154   T   T   T
  0.8115980075951968  0.7639221328616478  0.1160134062058864   T   T   T
  0.4949203409788064  0.5052116387957541  0.0406111195197062   T   T   T

  0.00000000E+00  0.00000000E+00  0.00000000E+00
  0.00000000E+00  0.00000000E+00  0.00000000E+00
  0.00000000E+00  0.00000000E+00  0.00000000E+00
  0.00000000E+00  0.00000000E+00  0.00000000E+00
  0.00000000E+00  0.00000000E+00  0.00000000E+00
  0.00000000E+00  0.00000000E+00  0.00000000E+00
  0.00000000E+00  0.00000000E+00  0.00000000E+00
  0.00000000E+00  0.00000000E+00  0.00000000E+00
  0.00000000E+00  0.00000000E+00  0.00000000E+00
  0.00000000E+00  0.00000000E+00  0.00000000E+00
  0.00000000E+00  0.00000000E+00  0.00000000E+00
  0.00000000E+00  0.00000000E+00  0.00000000E+00
  0.00000000E+00  0.00000000E+00  0.00000000E+00
  0.00000000E+00  0.00000000E+00  0.00000000E+00
  0.00000000E+00  0.00000000E+00  0.00000000E+00
  0.00000000E+00  0.00000000E+00  0.00000000E+00
  0.00000000E+00  0.00000000E+00  0.00000000E+00
  0.00000000E+00  0.00000000E+00  0.00000000E+00
  0.00000000E+00  0.00000000E+00  0.00000000E+00
  0.00000000E+00  0.00000000E+00  0.00000000E+00
  0.00000000E+00  0.00000000E+00  0.00000000E+00
  0.00000000E+00  0.00000000E+00  0.00000000E+00
  0.00000000E+00  0.00000000E+00  0.00000000E+00
  0.00000000E+00  0.00000000E+00  0.00000000E+00
  0.00000000E+00  0.00000000E+00  0.00000000E+00
  0.00000000E+00  0.00000000E+00  0.00000000E+00
  0.00000000E+00  0.00000000E+00  0.00000000E+00
  0.00000000E+00  0.00000000E+00  0.00000000E+00
  0.00000000E+00  0.00000000E+00  0.00000000E+00
  0.00000000E+00  0.00000000E+00  0.00000000E+00
  0.00000000E+00  0.00000000E+00  0.00000000E+00
  0.00000000E+00  0.00000000E+00  0.00000000E+00
  0.00000000E+00  0.00000000E+00  0.00000000E+00
  0.00000000E+00  0.00000000E+00  0.00000000E+00
  0.00000000E+00  0.00000000E+00  0.00000000E+00
  0.00000000E+00  0.00000000E+00  0.00000000E+00
  0.00000000E+00  0.00000000E+00  0.00000000E+00
  0.00000000E+00  0.00000000E+00  0.00000000E+00
  0.00000000E+00  0.00000000E+00  0.00000000E+00
  0.00000000E+00  0.00000000E+00  0.00000000E+00
  0.00000000E+00  0.00000000E+00  0.00000000E+00
  0.00000000E+00  0.00000000E+00  0.00000000E+00
  0.00000000E+00  0.00000000E+00  0.00000000E+00
  0.00000000E+00  0.00000000E+00  0.00000000E+00
  0.00000000E+00  0.00000000E+00  0.00000000E+00
  0.00000000E+00  0.00000000E+00  0.00000000E+00
  0.00000000E+00  0.00000000E+00  0.00000000E+00
  0.00000000E+00  0.00000000E+00  0.00000000E+00
  0.00000000E+00  0.00000000E+00  0.00000000E+00
  0.00000000E+00  0.00000000E+00  0.00000000E+00
  0.00000000E+00  0.00000000E+00  0.00000000E+00
  0.00000000E+00  0.00000000E+00  0.00000000E+00
  0.00000000E+00  0.00000000E+00  0.00000000E+00
  0.00000000E+00  0.00000000E+00  0.00000000E+00
  0.00000000E+00  0.00000000E+00  0.00000000E+00
  0.00000000E+00  0.00000000E+00  0.00000000E+00
  0.00000000E+00  0.00000000E+00  0.00000000E+00
  0.00000000E+00  0.00000000E+00  0.00000000E+00
  0.00000000E+00  0.00000000E+00  0.00000000E+00
  0.00000000E+00  0.00000000E+00  0.00000000E+00
  0.00000000E+00  0.00000000E+00  0.00000000E+00
  0.00000000E+00  0.00000000E+00  0.00000000E+00
  0.00000000E+00  0.00000000E+00  0.00000000E+00
  0.00000000E+00  0.00000000E+00  0.00000000E+00
  0.00000000E+00  0.00000000E+00  0.00000000E+00
  0.00000000E+00  0.00000000E+00  0.00000000E+00
  0.00000000E+00  0.00000000E+00  0.00000000E+00
  0.00000000E+00  0.00000000E+00  0.00000000E+00
  0.00000000E+00  0.00000000E+00  0.00000000E+00
  0.00000000E+00  0.00000000E+00  0.00000000E+00
  0.00000000E+00  0.00000000E+00  0.00000000E+00
  0.00000000E+00  0.00000000E+00  0.00000000E+00
  0.00000000E+00  0.00000000E+00  0.00000000E+00
  0.00000000E+00  0.00000000E+00  0.00000000E+00
  0.00000000E+00  0.00000000E+00  0.00000000E+00
  0.00000000E+00  0.00000000E+00  0.00000000E+00
  0.00000000E+00  0.00000000E+00  0.00000000E+00
  0.00000000E+00  0.00000000E+00  0.00000000E+00
  0.00000000E+00  0.00000000E+00  0.00000000E+00
  0.00000000E+00  0.00000000E+00  0.00000000E+00
  0.00000000E+00  0.00000000E+00  0.00000000E+00
  0.00000000E+00  0.00000000E+00  0.00000000E+00
  0.00000000E+00  0.00000000E+00  0.00000000E+00
  0.00000000E+00  0.00000000E+00  0.00000000E+00
  0.00000000E+00  0.00000000E+00  0.00000000E+00
  0.00000000E+00  0.00000000E+00  0.00000000E+00
  0.00000000E+00  0.00000000E+00  0.00000000E+00
  0.00000000E+00  0.00000000E+00  0.00000000E+00
  0.00000000E+00  0.00000000E+00  0.00000000E+00
  0.00000000E+00  0.00000000E+00  0.00000000E+00
  0.00000000E+00  0.00000000E+00  0.00000000E+00
  0.00000000E+00  0.00000000E+00  0.00000000E+00
  0.00000000E+00  0.00000000E+00  0.00000000E+00
  0.00000000E+00  0.00000000E+00  0.00000000E+00
  0.00000000E+00  0.00000000E+00  0.00000000E+00
  0.00000000E+00  0.00000000E+00  0.00000000E+00
  0.00000000E+00  0.00000000E+00  0.00000000E+00
