Species order: X N B                    
   2.51242800000000     
     5.9449720136058266    0.0000000000000000    0.0000000000000000
    -2.9724860068029120    5.1484967885702053   -0.0000000000000001
     0.0000000000000000    0.0000000000000009    5.3101128803662583
   C    N    B 
     1   143   144
Direct
  0.5555555555555571  0.4444444444444429  0.3750000000000000
  0.1111090705156800  0.0555534019643244  0.1249964073821793
  0.6111139196047602  0.5555611725428503  0.1249555106017328
  0.4444445039812564  0.0555574123780486  0.1250088986835531
  0.9444425876219513  0.5555554960187439  0.1250088986835531
  0.7777774321805713  0.0555553827569535  0.1249961562788260
  0.1111099686199989  0.7222216509766637  0.6249982109019309
  0.4444445039812564  0.7222204249365431  0.6249911013164468
  0.2777755654236646  0.2222194426478635  0.6250070767962520
  0.7777805573521362  0.7222244345763356  0.6250070767962520
  0.6111105438908699  0.2222194426478635  0.6250070767962520
  0.9444446172430466  0.2222225678194287  0.6250038437211739
  0.2777783490233363  0.7222216509766637  0.1250017890980692
  0.1111098537862980  0.2222215935598133  0.1249976061612428
  0.4444483893750149  0.2222301120833651  0.1250483876027811
  0.6111105438908699  0.7222244345763356  0.1249929232037480
  0.9444425876219513  0.7222204249365431  0.1250088986835531
  0.7777784064401866  0.2222215935598133  0.1249976061612428
  0.1111108448669407  0.8888891551330594  0.6249954309999853
  0.4444449769327899  0.8888891551330594  0.6249954309999853
  0.2777755654236646  0.3888894561091297  0.6250070767962520
  0.6111139196047602  0.3888860803952391  0.6250444893982671
  0.7777784064401866  0.8888901462137023  0.6250023938387569
  0.9444465980356755  0.3888890018846844  0.6250035926178207
  0.1111090705156800  0.3888890018846844  0.1249964073821793
  0.2777783490233363  0.8888900313800012  0.1250017890980692
  0.6111109981153160  0.8888909294843195  0.1249964073821793
  0.4444388274571498  0.3888860803952391  0.1249555106017328
  0.9444465980356755  0.8888909294843195  0.1249964073821793
  0.7777805573521362  0.3888894561091297  0.1249929232037480
  0.2777795750634566  0.5555554960187439  0.6249911013164468
  0.1111090705156800  0.0555534019643244  0.6250035926178207
  0.6111139196047602  0.5555611725428503  0.6250444893982671
  0.4444445039812564  0.0555574123780486  0.6249911013164468
  0.9444425876219513  0.5555554960187439  0.6249911013164468
  0.1111108448669407  0.5555550230672101  0.1250045690000148
  0.7777774321805713  0.0555553827569535  0.6250038437211739
  0.2777795750634566  0.0555574123780486  0.1250088986835531
  0.4444483893750149  0.5555516106249853  0.1250483876027811
  0.7777698879166346  0.5555516106249853  0.1250483876027811
  0.6111109981153160  0.0555534019643244  0.1249964073821793
  0.4444483893750149  0.5555516106249853  0.6249516123972189
  0.9444446172430466  0.0555553827569535  0.1249961562788260
  0.2777783490233363  0.7222216509766637  0.6249982109019309
  0.1111098537862980  0.2222215935598133  0.6250023938387569
  0.4444483893750149  0.2222301120833651  0.6249516123972189
  0.6111105438908699  0.7222244345763356  0.6250070767962520
  0.9444425876219513  0.7222204249365431  0.6249911013164468
  0.7777784064401866  0.2222215935598133  0.6250023938387569
  0.1111099686199989  0.7222216509766637  0.1250017890980692
  0.4444445039812564  0.7222204249365431  0.1250088986835531
  0.2777755654236646  0.2222194426478635  0.1249929232037480
  0.7777805573521362  0.7222244345763356  0.1249929232037480
  0.6111105438908699  0.2222194426478635  0.1249929232037480
  0.9444446172430466  0.2222225678194287  0.1249961562788260
  0.1111090705156800  0.3888890018846844  0.6250035926178207
  0.2777783490233363  0.8888900313800012  0.6249982109019309
  0.6111109981153160  0.8888909294843195  0.6250035926178207
  0.4444388274571498  0.3888860803952391  0.6250444893982671
  0.9444465980356755  0.8888909294843195  0.6250035926178207
  0.1111108448669407  0.8888891551330594  0.1250045690000148
  0.7777805573521362  0.3888894561091297  0.6250070767962520
  0.4444449769327899  0.8888891551330594  0.1250045690000148
  0.2777755654236646  0.3888894561091297  0.1249929232037480
  0.2777795750634566  0.5555554960187439  0.1250088986835531
  0.6111139196047602  0.3888860803952391  0.1249555106017328
  0.7777784064401866  0.8888901462137023  0.1249976061612428
  0.9444465980356755  0.3888890018846844  0.1249964073821793
  0.1111108448669407  0.5555550230672101  0.6249954309999853
  0.2777795750634566  0.0555574123780486  0.6249911013164468
  0.7777698879166346  0.5555516106249853  0.6249516123972189
  0.6111109981153160  0.0555534019643244  0.6250035926178207
  0.9444446172430466  0.0555553827569535  0.6250038437211739
  0.0552553603319755  0.1109145036443740  0.3750000000000000
  0.5560306154774610  0.6135724851064437  0.3750000000000000
  0.3887752140017000  0.1108837613367426  0.3750000000000000
  0.8891162386632572  0.6112247859983004  0.3750000000000000
  0.7223258099790630  0.1109145036443740  0.3750000000000000
  0.0555550602335187  0.7777785198445222  0.8750000000000000
  0.3888901262776675  0.7777785198445222  0.8750000000000000
  0.2222222689803201  0.2777778011568279  0.8750000000000000
  0.7222221988431723  0.7777777310196800  0.8750000000000000
  0.5555550697384024  0.2777785174044061  0.8750000000000000
  0.8888900677206626  0.2777786443288972  0.8750000000000000
  0.2222222222222214  0.7777777777777786  0.3750000000000000
  0.0552553603319755  0.2776741900209372  0.3750000000000000
  0.3864275148935563  0.2757914637043526  0.3750000000000000
  0.5555273005947473  0.7787254677957317  0.3750000000000000
  0.8898648338676487  0.7787254677957317  0.3750000000000000
  0.7227141362809608  0.2772858637190393  0.3750000000000000
  0.0555556202601903  0.9444443797398098  0.8750000000000000
  0.3888901262776675  0.9444449397664814  0.8750000000000000
  0.2222211877917141  0.4444446890316339  0.8750000000000000
  0.5555555555555571  0.4444444444444429  0.8750000000000000
  0.7222213556711027  0.9444447567251010  0.8750000000000000
  0.8888901679065841  0.4444446890316339  0.8750000000000000
  0.0556009242607979  0.4445351818549244  0.3750000000000000
  0.2221841968407146  0.9442897751163207  0.3750000000000000
  0.5554648181450754  0.9443990757392025  0.3750000000000000
  0.3864275148935563  0.4439693845225391  0.3750000000000000
  0.8890854963556258  0.9447446396680246  0.3750000000000000
  0.7242085362956475  0.4439693845225391  0.3750000000000000
  0.2222214801554778  0.6111098737223322  0.8750000000000000
  0.0555552432748992  0.1111099322793377  0.8750000000000000
  0.5555550697384024  0.6111098856673323  0.8750000000000000
  0.3888893633101136  0.1111120599535702  0.8750000000000000
  0.8888879400464300  0.6111106366898862  0.8750000000000000
  0.0557102248836793  0.6112277550577295  0.3750000000000000
  0.7222213556711027  0.1111099322793377  0.8750000000000000
  0.2212745322042686  0.1101351661323512  0.3750000000000000
  0.3887752140017000  0.6112247859983004  0.3750000000000000
  0.7242085362956475  0.6135724851064437  0.3750000000000000
  0.5555273005947473  0.1101351661323512  0.3750000000000000
  0.3888893633101136  0.6111106366898862  0.8750000000000000
  0.8888888888888857  0.1111111111111143  0.3750000000000000
  0.2222222222222214  0.7777777777777786  0.8750000000000000
  0.0555552432748992  0.2777786443288972  0.8750000000000000
  0.3888901143326678  0.2777785174044061  0.8750000000000000
  0.5555553109683659  0.7777788122082860  0.8750000000000000
  0.8888901679065841  0.7777788122082860  0.8750000000000000
  0.7222221988431723  0.2777778011568279  0.8750000000000000
  0.0557102248836793  0.7778158031592852  0.3750000000000000
  0.3887722449422705  0.7778158031592852  0.3750000000000000
  0.2212383941047431  0.2772858637190393  0.3750000000000000
  0.7227141362809608  0.7787616058952570  0.3750000000000000
  0.5560306154774610  0.2757914637043526  0.3750000000000000
  0.8890854963556258  0.2776741900209372  0.3750000000000000
  0.0555556202601903  0.4444445738537092  0.8750000000000000
  0.2222214801554778  0.9444449397664814  0.8750000000000000
  0.5555554261462908  0.9444443797398098  0.8750000000000000
  0.3888901143326678  0.4444449302615975  0.8750000000000000
  0.8888900677206626  0.9444447567251010  0.8750000000000000
  0.0556009242607979  0.9443990757392025  0.3750000000000000
  0.7222214825955940  0.4444449302615975  0.8750000000000000
  0.3887722449422705  0.9442897751163207  0.3750000000000000
  0.2212745322042686  0.4444726994052530  0.3750000000000000
  0.2221841968407146  0.6112277550577295  0.3750000000000000
  0.7223258099790630  0.9447446396680246  0.3750000000000000
  0.8898648338676487  0.4444726994052530  0.3750000000000000
  0.0555550602335187  0.6111098737223322  0.8750000000000000
  0.2222211877917141  0.1111098320934159  0.8750000000000000
  0.7222214825955940  0.6111098856673323  0.8750000000000000
  0.5555553109683659  0.1111098320934159  0.8750000000000000
  0.8888888888888857  0.1111111111111143  0.8750000000000000
  0.1105871226095884  0.0551579463370316  0.3750000000000000
  0.6137395077183900  0.5608123487701085  0.3750000000000000
  0.4444103659050084  0.0552767017806570  0.3750000000000000
  0.9447232982193431  0.5555896340949916  0.3750000000000000
  0.7779097593626095  0.0556215463479725  0.3750000000000000
  0.1111098362056817  0.7222215847695054  0.8750000000000000
  0.4444459395676899  0.7222226449212354  0.8750000000000000
  0.2777775891721392  0.2222222258979096  0.8750000000000000
  0.7777777741020905  0.7222224108278611  0.8750000000000000
  0.6111113033924417  0.2222222258979096  0.8750000000000000
  0.9444444789610733  0.2222222912554827  0.8750000000000000
  0.2777323301202365  0.7222676698797634  0.3750000000000000
  0.1104594391898382  0.2218963862615835  0.3750000000000000
  0.4443023251575992  0.2219379836485341  0.3750000000000000
  0.6114997041790405  0.7240493363960773  0.3750000000000000
  0.9447232982193431  0.7224669974576867  0.3750000000000000
  0.7781036137384165  0.2218963862615835  0.3750000000000000
  0.1111100652060306  0.8888899347939695  0.8750000000000000
  0.4444465362546105  0.8888899347939695  0.8750000000000000
  0.2777775891721392  0.3888886966075581  0.8750000000000000
  0.6111120752638970  0.3888879247361025  0.8750000000000000
  0.7777781192596750  0.8888895718526786  0.8750000000000000
  0.9444446232969194  0.3888882412855141  0.8750000000000000
  0.1105871226095884  0.3887625096058852  0.3750000000000000
  0.2777323301202365  0.8887979935738015  0.3750000000000000
  0.6112374903941148  0.8894128773904115  0.3750000000000000
  0.4391876512298912  0.3862604922816100  0.3750000000000000
  0.9448420536629681  0.8894128773904115  0.3750000000000000
  0.7792162988837089  0.3885002958209599  0.3750000000000000
  0.2777773550787646  0.5555540604323099  0.8750000000000000
  0.1111102846552662  0.0555553767030807  0.8750000000000000
  0.6111120752638970  0.5555574838611237  0.8750000000000000
  0.4444459395676899  0.0555566279797901  0.8750000000000000
  0.9444433720202099  0.5555540604323099  0.8750000000000000
  0.1111380371957426  0.5556094077248139  0.3750000000000000
  0.7777777087445173  0.0555555210389265  0.8750000000000000
  0.2775330025423131  0.0552767017806570  0.3750000000000000
  0.4443023251575992  0.5556976748424011  0.3750000000000000
  0.7780620163514659  0.5556976748424011  0.3750000000000000
  0.6112374903941148  0.0551579463370316  0.3750000000000000
  0.4444453436924178  0.5555546563075823  0.8750000000000000
  0.9443784536520279  0.0556215463479725  0.3750000000000000
  0.2777784152304950  0.7222215847695054  0.8750000000000000
  0.1111104281473215  0.2222218807403251  0.8750000000000000
  0.4444453436924178  0.2222240207181710  0.8750000000000000
  0.6111113033924417  0.7222224108278611  0.8750000000000000
  0.9444433720202099  0.7222226449212354  0.8750000000000000
  0.7777781192596750  0.2222218807403251  0.8750000000000000
  0.1112020064261984  0.7222676698797634  0.3750000000000000
  0.4444103659050084  0.7224669974576867  0.3750000000000000
  0.2759506636039222  0.2207837011162912  0.3750000000000000
  0.7792162988837089  0.7240493363960773  0.3750000000000000
  0.6114997041790405  0.2207837011162912  0.3750000000000000
  0.9443784536520279  0.2220902406373906  0.3750000000000000
  0.1111102846552662  0.3888882412855141  0.8750000000000000
  0.2777784152304950  0.8888901637943185  0.8750000000000000
  0.6111117587144858  0.8888897153447337  0.8750000000000000
  0.4444425161388763  0.3888879247361025  0.8750000000000000
  0.9444446232969194  0.8888897153447337  0.8750000000000000
  0.1111380371957426  0.8888619628042573  0.3750000000000000
  0.7777777741020905  0.3888886966075581  0.8750000000000000
  0.4443905922751862  0.8888619628042573  0.3750000000000000
  0.2759506636039222  0.3885002958209599  0.3750000000000000
  0.2775330025423131  0.5555896340949916  0.3750000000000000
  0.6137395077183900  0.3862604922816100  0.3750000000000000
  0.7781036137384165  0.8895405608101614  0.3750000000000000
  0.9448420536629681  0.3887625096058852  0.3750000000000000
  0.1111100652060306  0.5555534637453895  0.8750000000000000
  0.2777773550787646  0.0555566279797901  0.8750000000000000
  0.7777759792818286  0.5555546563075823  0.8750000000000000
  0.6111117587144858  0.0555553767030807  0.8750000000000000
  0.9444444789610733  0.0555555210389265  0.8750000000000000
  0.0555531570778134  0.1111103500113067  0.1250018659076571
  0.5555587289423193  0.6111158470786375  0.1250119207816835
  0.3888895256737236  0.1111123846807899  0.1250086525210662
  0.8888876153192100  0.6111104743262765  0.1250086525210662
  0.7222238596001574  0.1111103500113067  0.1250018659076571
  0.0555549154520417  0.7777789462679634  0.6250002155673087
  0.3888906974825861  0.7777789462679634  0.6250002155673087
  0.2222197427100979  0.2777765380217167  0.6249999453224212
  0.7222234619782834  0.7777802572899023  0.6249999453224212
  0.5555587289423193  0.2777762151970175  0.6249880792183166
  0.8888896499886934  0.2777761403998424  0.6249981340923428
  0.2222222222222214  0.7777777777777786  0.1249959026731476
  0.0555531570778134  0.2777761403998424  0.1250018659076571
  0.3888841529213622  0.2777762151970175  0.1250119207816835
  0.5555608769992446  0.7777810961265251  0.1250017508699011
  0.8888868857939450  0.7777810961265251  0.1250017508699011
  0.7222234619782834  0.2777765380217167  0.1250000546775791
  0.0555534174207201  0.9444465825792799  0.6250011191577309
  0.3888906974825861  0.9444450845479582  0.6250002155673087
  0.2222189038734750  0.4444391230007556  0.6249982491300989
  0.5555555555555571  0.4444444444444429  0.6249886199455031
  0.7222238596001574  0.9444468429221864  0.6249981340923428
  0.8888868857939450  0.4444391230007556  0.6249982491300989
  0.0555534174207201  0.4444401681747689  0.1249988808422691
  0.2222210537320364  0.9444450845479582  0.1249997844326911
  0.5555598318252315  0.9444465825792799  0.1249988808422691
  0.3888841529213622  0.4444412710576805  0.1250119207816835
  0.8888896499886934  0.9444468429221864  0.1250018659076571
  0.7222237848029827  0.4444412710576805  0.1250119207816835
  0.2222210537320364  0.6111093025174139  0.6250002155673087
  0.0555531570778134  0.1111103500113067  0.6249981340923428
  0.5555587289423193  0.6111158470786375  0.6249880792183166
  0.3888895256737236  0.1111123846807899  0.6249913474789336
  0.8888876153192100  0.6111104743262765  0.6249913474789336
  0.0555549154520417  0.6111093025174139  0.1249997844326911
  0.7222238596001574  0.1111103500113067  0.6249981340923428
  0.2222189038734750  0.1111131142060551  0.1250017508699011
  0.3888895256737236  0.6111104743262765  0.1250086525210662
  0.7222237848029827  0.6111158470786375  0.1250119207816835
  0.5555608769992446  0.1111131142060551  0.1250017508699011
  0.3888895256737236  0.6111104743262765  0.6249913474789336
  0.8888888888888857  0.1111111111111143  0.1250018960441380
  0.2222222222222214  0.7777777777777786  0.6250040973268526
  0.0555531570778134  0.2777761403998424  0.6249981340923428
  0.3888841529213622  0.2777762151970175  0.6249880792183166
  0.5555608769992446  0.7777810961265251  0.6249982491300989
  0.8888868857939450  0.7777810961265251  0.6249982491300989
  0.7222234619782834  0.2777765380217167  0.6249999453224212
  0.0555549154520417  0.7777789462679634  0.1249997844326911
  0.3888906974825861  0.7777789462679634  0.1249997844326911
  0.2222197427100979  0.2777765380217167  0.1250000546775791
  0.7222234619782834  0.7777802572899023  0.1250000546775791
  0.5555587289423193  0.2777762151970175  0.1250119207816835
  0.8888896499886934  0.2777761403998424  0.1250018659076571
  0.0555534174207201  0.4444401681747689  0.6250011191577309
  0.2222210537320364  0.9444450845479582  0.6250002155673087
  0.5555598318252315  0.9444465825792799  0.6250011191577309
  0.3888841529213622  0.4444412710576805  0.6249880792183166
  0.8888896499886934  0.9444468429221864  0.6249981340923428
  0.0555534174207201  0.9444465825792799  0.1249988808422691
  0.7222237848029827  0.4444412710576805  0.6249880792183166
  0.3888906974825861  0.9444450845479582  0.1249997844326911
  0.2222189038734750  0.4444391230007556  0.1250017508699011
  0.2222210537320364  0.6111093025174139  0.1249997844326911
  0.5555555555555571  0.4444444444444429  0.1250113800544966
  0.7222238596001574  0.9444468429221864  0.1250018659076571
  0.8888868857939450  0.4444391230007556  0.1250017508699011
  0.0555549154520417  0.6111093025174139  0.6250002155673087
  0.2222189038734750  0.1111131142060551  0.6249982491300989
  0.7222237848029827  0.6111158470786375  0.6249880792183166
  0.5555608769992446  0.1111131142060551  0.6249982491300989
  0.8888888888888857  0.1111111111111143  0.6249981039558621
 
  0.00000000E+00  0.00000000E+00  0.00000000E+00
  0.00000000E+00  0.00000000E+00  0.00000000E+00
  0.00000000E+00  0.00000000E+00  0.00000000E+00
  0.00000000E+00  0.00000000E+00  0.00000000E+00
  0.00000000E+00  0.00000000E+00  0.00000000E+00
  0.00000000E+00  0.00000000E+00  0.00000000E+00
  0.00000000E+00  0.00000000E+00  0.00000000E+00
  0.00000000E+00  0.00000000E+00  0.00000000E+00
  0.00000000E+00  0.00000000E+00  0.00000000E+00
  0.00000000E+00  0.00000000E+00  0.00000000E+00
  0.00000000E+00  0.00000000E+00  0.00000000E+00
  0.00000000E+00  0.00000000E+00  0.00000000E+00
  0.00000000E+00  0.00000000E+00  0.00000000E+00
  0.00000000E+00  0.00000000E+00  0.00000000E+00
  0.00000000E+00  0.00000000E+00  0.00000000E+00
  0.00000000E+00  0.00000000E+00  0.00000000E+00
  0.00000000E+00  0.00000000E+00  0.00000000E+00
  0.00000000E+00  0.00000000E+00  0.00000000E+00
  0.00000000E+00  0.00000000E+00  0.00000000E+00
  0.00000000E+00  0.00000000E+00  0.00000000E+00
  0.00000000E+00  0.00000000E+00  0.00000000E+00
  0.00000000E+00  0.00000000E+00  0.00000000E+00
  0.00000000E+00  0.00000000E+00  0.00000000E+00
  0.00000000E+00  0.00000000E+00  0.00000000E+00
  0.00000000E+00  0.00000000E+00  0.00000000E+00
  0.00000000E+00  0.00000000E+00  0.00000000E+00
  0.00000000E+00  0.00000000E+00  0.00000000E+00
  0.00000000E+00  0.00000000E+00  0.00000000E+00
  0.00000000E+00  0.00000000E+00  0.00000000E+00
  0.00000000E+00  0.00000000E+00  0.00000000E+00
  0.00000000E+00  0.00000000E+00  0.00000000E+00
  0.00000000E+00  0.00000000E+00  0.00000000E+00
  0.00000000E+00  0.00000000E+00  0.00000000E+00
  0.00000000E+00  0.00000000E+00  0.00000000E+00
  0.00000000E+00  0.00000000E+00  0.00000000E+00
  0.00000000E+00  0.00000000E+00  0.00000000E+00
  0.00000000E+00  0.00000000E+00  0.00000000E+00
  0.00000000E+00  0.00000000E+00  0.00000000E+00
  0.00000000E+00  0.00000000E+00  0.00000000E+00
  0.00000000E+00  0.00000000E+00  0.00000000E+00
  0.00000000E+00  0.00000000E+00  0.00000000E+00
  0.00000000E+00  0.00000000E+00  0.00000000E+00
  0.00000000E+00  0.00000000E+00  0.00000000E+00
  0.00000000E+00  0.00000000E+00  0.00000000E+00
  0.00000000E+00  0.00000000E+00  0.00000000E+00
  0.00000000E+00  0.00000000E+00  0.00000000E+00
  0.00000000E+00  0.00000000E+00  0.00000000E+00
  0.00000000E+00  0.00000000E+00  0.00000000E+00
  0.00000000E+00  0.00000000E+00  0.00000000E+00
  0.00000000E+00  0.00000000E+00  0.00000000E+00
  0.00000000E+00  0.00000000E+00  0.00000000E+00
  0.00000000E+00  0.00000000E+00  0.00000000E+00
  0.00000000E+00  0.00000000E+00  0.00000000E+00
  0.00000000E+00  0.00000000E+00  0.00000000E+00
  0.00000000E+00  0.00000000E+00  0.00000000E+00
  0.00000000E+00  0.00000000E+00  0.00000000E+00
  0.00000000E+00  0.00000000E+00  0.00000000E+00
  0.00000000E+00  0.00000000E+00  0.00000000E+00
  0.00000000E+00  0.00000000E+00  0.00000000E+00
  0.00000000E+00  0.00000000E+00  0.00000000E+00
  0.00000000E+00  0.00000000E+00  0.00000000E+00
  0.00000000E+00  0.00000000E+00  0.00000000E+00
  0.00000000E+00  0.00000000E+00  0.00000000E+00
  0.00000000E+00  0.00000000E+00  0.00000000E+00
  0.00000000E+00  0.00000000E+00  0.00000000E+00
  0.00000000E+00  0.00000000E+00  0.00000000E+00
  0.00000000E+00  0.00000000E+00  0.00000000E+00
  0.00000000E+00  0.00000000E+00  0.00000000E+00
  0.00000000E+00  0.00000000E+00  0.00000000E+00
  0.00000000E+00  0.00000000E+00  0.00000000E+00
  0.00000000E+00  0.00000000E+00  0.00000000E+00
  0.00000000E+00  0.00000000E+00  0.00000000E+00
  0.00000000E+00  0.00000000E+00  0.00000000E+00
  0.00000000E+00  0.00000000E+00  0.00000000E+00
  0.00000000E+00  0.00000000E+00  0.00000000E+00
  0.00000000E+00  0.00000000E+00  0.00000000E+00
  0.00000000E+00  0.00000000E+00  0.00000000E+00
  0.00000000E+00  0.00000000E+00  0.00000000E+00
  0.00000000E+00  0.00000000E+00  0.00000000E+00
  0.00000000E+00  0.00000000E+00  0.00000000E+00
  0.00000000E+00  0.00000000E+00  0.00000000E+00
  0.00000000E+00  0.00000000E+00  0.00000000E+00
  0.00000000E+00  0.00000000E+00  0.00000000E+00
  0.00000000E+00  0.00000000E+00  0.00000000E+00
  0.00000000E+00  0.00000000E+00  0.00000000E+00
  0.00000000E+00  0.00000000E+00  0.00000000E+00
  0.00000000E+00  0.00000000E+00  0.00000000E+00
  0.00000000E+00  0.00000000E+00  0.00000000E+00
  0.00000000E+00  0.00000000E+00  0.00000000E+00
  0.00000000E+00  0.00000000E+00  0.00000000E+00
  0.00000000E+00  0.00000000E+00  0.00000000E+00
  0.00000000E+00  0.00000000E+00  0.00000000E+00
  0.00000000E+00  0.00000000E+00  0.00000000E+00
  0.00000000E+00  0.00000000E+00  0.00000000E+00
  0.00000000E+00  0.00000000E+00  0.00000000E+00
  0.00000000E+00  0.00000000E+00  0.00000000E+00
  0.00000000E+00  0.00000000E+00  0.00000000E+00
  0.00000000E+00  0.00000000E+00  0.00000000E+00
  0.00000000E+00  0.00000000E+00  0.00000000E+00
  0.00000000E+00  0.00000000E+00  0.00000000E+00
  0.00000000E+00  0.00000000E+00  0.00000000E+00
  0.00000000E+00  0.00000000E+00  0.00000000E+00
  0.00000000E+00  0.00000000E+00  0.00000000E+00
  0.00000000E+00  0.00000000E+00  0.00000000E+00
  0.00000000E+00  0.00000000E+00  0.00000000E+00
  0.00000000E+00  0.00000000E+00  0.00000000E+00
  0.00000000E+00  0.00000000E+00  0.00000000E+00
  0.00000000E+00  0.00000000E+00  0.00000000E+00
  0.00000000E+00  0.00000000E+00  0.00000000E+00
  0.00000000E+00  0.00000000E+00  0.00000000E+00
  0.00000000E+00  0.00000000E+00  0.00000000E+00
  0.00000000E+00  0.00000000E+00  0.00000000E+00
  0.00000000E+00  0.00000000E+00  0.00000000E+00
  0.00000000E+00  0.00000000E+00  0.00000000E+00
  0.00000000E+00  0.00000000E+00  0.00000000E+00
  0.00000000E+00  0.00000000E+00  0.00000000E+00
  0.00000000E+00  0.00000000E+00  0.00000000E+00
  0.00000000E+00  0.00000000E+00  0.00000000E+00
  0.00000000E+00  0.00000000E+00  0.00000000E+00
  0.00000000E+00  0.00000000E+00  0.00000000E+00
  0.00000000E+00  0.00000000E+00  0.00000000E+00
  0.00000000E+00  0.00000000E+00  0.00000000E+00
  0.00000000E+00  0.00000000E+00  0.00000000E+00
  0.00000000E+00  0.00000000E+00  0.00000000E+00
  0.00000000E+00  0.00000000E+00  0.00000000E+00
  0.00000000E+00  0.00000000E+00  0.00000000E+00
  0.00000000E+00  0.00000000E+00  0.00000000E+00
  0.00000000E+00  0.00000000E+00  0.00000000E+00
  0.00000000E+00  0.00000000E+00  0.00000000E+00
  0.00000000E+00  0.00000000E+00  0.00000000E+00
  0.00000000E+00  0.00000000E+00  0.00000000E+00
  0.00000000E+00  0.00000000E+00  0.00000000E+00
  0.00000000E+00  0.00000000E+00  0.00000000E+00
  0.00000000E+00  0.00000000E+00  0.00000000E+00
  0.00000000E+00  0.00000000E+00  0.00000000E+00
  0.00000000E+00  0.00000000E+00  0.00000000E+00
  0.00000000E+00  0.00000000E+00  0.00000000E+00
  0.00000000E+00  0.00000000E+00  0.00000000E+00
  0.00000000E+00  0.00000000E+00  0.00000000E+00
  0.00000000E+00  0.00000000E+00  0.00000000E+00
  0.00000000E+00  0.00000000E+00  0.00000000E+00
  0.00000000E+00  0.00000000E+00  0.00000000E+00
  0.00000000E+00  0.00000000E+00  0.00000000E+00
  0.00000000E+00  0.00000000E+00  0.00000000E+00
  0.00000000E+00  0.00000000E+00  0.00000000E+00
  0.00000000E+00  0.00000000E+00  0.00000000E+00
  0.00000000E+00  0.00000000E+00  0.00000000E+00
  0.00000000E+00  0.00000000E+00  0.00000000E+00
  0.00000000E+00  0.00000000E+00  0.00000000E+00
  0.00000000E+00  0.00000000E+00  0.00000000E+00
  0.00000000E+00  0.00000000E+00  0.00000000E+00
  0.00000000E+00  0.00000000E+00  0.00000000E+00
  0.00000000E+00  0.00000000E+00  0.00000000E+00
  0.00000000E+00  0.00000000E+00  0.00000000E+00
  0.00000000E+00  0.00000000E+00  0.00000000E+00
  0.00000000E+00  0.00000000E+00  0.00000000E+00
  0.00000000E+00  0.00000000E+00  0.00000000E+00
  0.00000000E+00  0.00000000E+00  0.00000000E+00
  0.00000000E+00  0.00000000E+00  0.00000000E+00
  0.00000000E+00  0.00000000E+00  0.00000000E+00
  0.00000000E+00  0.00000000E+00  0.00000000E+00
  0.00000000E+00  0.00000000E+00  0.00000000E+00
  0.00000000E+00  0.00000000E+00  0.00000000E+00
  0.00000000E+00  0.00000000E+00  0.00000000E+00
  0.00000000E+00  0.00000000E+00  0.00000000E+00
  0.00000000E+00  0.00000000E+00  0.00000000E+00
  0.00000000E+00  0.00000000E+00  0.00000000E+00
  0.00000000E+00  0.00000000E+00  0.00000000E+00
  0.00000000E+00  0.00000000E+00  0.00000000E+00
  0.00000000E+00  0.00000000E+00  0.00000000E+00
  0.00000000E+00  0.00000000E+00  0.00000000E+00
  0.00000000E+00  0.00000000E+00  0.00000000E+00
  0.00000000E+00  0.00000000E+00  0.00000000E+00
  0.00000000E+00  0.00000000E+00  0.00000000E+00
  0.00000000E+00  0.00000000E+00  0.00000000E+00
  0.00000000E+00  0.00000000E+00  0.00000000E+00
  0.00000000E+00  0.00000000E+00  0.00000000E+00
  0.00000000E+00  0.00000000E+00  0.00000000E+00
  0.00000000E+00  0.00000000E+00  0.00000000E+00
  0.00000000E+00  0.00000000E+00  0.00000000E+00
  0.00000000E+00  0.00000000E+00  0.00000000E+00
  0.00000000E+00  0.00000000E+00  0.00000000E+00
  0.00000000E+00  0.00000000E+00  0.00000000E+00
  0.00000000E+00  0.00000000E+00  0.00000000E+00
  0.00000000E+00  0.00000000E+00  0.00000000E+00
  0.00000000E+00  0.00000000E+00  0.00000000E+00
  0.00000000E+00  0.00000000E+00  0.00000000E+00
  0.00000000E+00  0.00000000E+00  0.00000000E+00
  0.00000000E+00  0.00000000E+00  0.00000000E+00
  0.00000000E+00  0.00000000E+00  0.00000000E+00
  0.00000000E+00  0.00000000E+00  0.00000000E+00
  0.00000000E+00  0.00000000E+00  0.00000000E+00
  0.00000000E+00  0.00000000E+00  0.00000000E+00
  0.00000000E+00  0.00000000E+00  0.00000000E+00
  0.00000000E+00  0.00000000E+00  0.00000000E+00
  0.00000000E+00  0.00000000E+00  0.00000000E+00
  0.00000000E+00  0.00000000E+00  0.00000000E+00
  0.00000000E+00  0.00000000E+00  0.00000000E+00
  0.00000000E+00  0.00000000E+00  0.00000000E+00
  0.00000000E+00  0.00000000E+00  0.00000000E+00
  0.00000000E+00  0.00000000E+00  0.00000000E+00
  0.00000000E+00  0.00000000E+00  0.00000000E+00
  0.00000000E+00  0.00000000E+00  0.00000000E+00
  0.00000000E+00  0.00000000E+00  0.00000000E+00
  0.00000000E+00  0.00000000E+00  0.00000000E+00
  0.00000000E+00  0.00000000E+00  0.00000000E+00
  0.00000000E+00  0.00000000E+00  0.00000000E+00
  0.00000000E+00  0.00000000E+00  0.00000000E+00
  0.00000000E+00  0.00000000E+00  0.00000000E+00
  0.00000000E+00  0.00000000E+00  0.00000000E+00
  0.00000000E+00  0.00000000E+00  0.00000000E+00
  0.00000000E+00  0.00000000E+00  0.00000000E+00
  0.00000000E+00  0.00000000E+00  0.00000000E+00
  0.00000000E+00  0.00000000E+00  0.00000000E+00
  0.00000000E+00  0.00000000E+00  0.00000000E+00
  0.00000000E+00  0.00000000E+00  0.00000000E+00
  0.00000000E+00  0.00000000E+00  0.00000000E+00
  0.00000000E+00  0.00000000E+00  0.00000000E+00
  0.00000000E+00  0.00000000E+00  0.00000000E+00
  0.00000000E+00  0.00000000E+00  0.00000000E+00
  0.00000000E+00  0.00000000E+00  0.00000000E+00
  0.00000000E+00  0.00000000E+00  0.00000000E+00
  0.00000000E+00  0.00000000E+00  0.00000000E+00
  0.00000000E+00  0.00000000E+00  0.00000000E+00
  0.00000000E+00  0.00000000E+00  0.00000000E+00
  0.00000000E+00  0.00000000E+00  0.00000000E+00
  0.00000000E+00  0.00000000E+00  0.00000000E+00
  0.00000000E+00  0.00000000E+00  0.00000000E+00
  0.00000000E+00  0.00000000E+00  0.00000000E+00
  0.00000000E+00  0.00000000E+00  0.00000000E+00
  0.00000000E+00  0.00000000E+00  0.00000000E+00
  0.00000000E+00  0.00000000E+00  0.00000000E+00
  0.00000000E+00  0.00000000E+00  0.00000000E+00
  0.00000000E+00  0.00000000E+00  0.00000000E+00
  0.00000000E+00  0.00000000E+00  0.00000000E+00
  0.00000000E+00  0.00000000E+00  0.00000000E+00
  0.00000000E+00  0.00000000E+00  0.00000000E+00
  0.00000000E+00  0.00000000E+00  0.00000000E+00
  0.00000000E+00  0.00000000E+00  0.00000000E+00
  0.00000000E+00  0.00000000E+00  0.00000000E+00
  0.00000000E+00  0.00000000E+00  0.00000000E+00
  0.00000000E+00  0.00000000E+00  0.00000000E+00
  0.00000000E+00  0.00000000E+00  0.00000000E+00
  0.00000000E+00  0.00000000E+00  0.00000000E+00
  0.00000000E+00  0.00000000E+00  0.00000000E+00
  0.00000000E+00  0.00000000E+00  0.00000000E+00
  0.00000000E+00  0.00000000E+00  0.00000000E+00