Species order: X N B                    
   2.51242800000000     
     5.9449720136058266    0.0000000000000000    0.0000000000000000
    -2.9724860068029120    5.1484967885702053   -0.0000000000000001
     0.0000000000000000    0.0000000000000009    5.3101128803662583
   C    N    B 
     1   143   144
Direct
  0.5555555555555571  0.4444444444444429  0.3750000000000000
  0.1111124912017835  0.0555451779935043  0.1251111528833470
  0.6111163236763754  0.5555659806860791  0.1257448426231795
  0.4444378682224637  0.0555559931162256  0.1251890363101632
  0.9444440068837749  0.5555621317775367  0.1251890363101632
  0.7777681756147986  0.0555507544740672  0.1251130524477161
  0.1111143265028180  0.7222238299180728  0.6248780856303457
  0.4444378682224637  0.7222152084395733  0.6248109636898374
  0.2777744698630104  0.2222120086344944  0.6248075062478400
  0.7777879913655059  0.7222255301369892  0.6248075062478400
  0.6111042054381555  0.2222120086344944  0.6248075062478400
  0.9444492455259330  0.2222318243852014  0.6248869475522837
  0.2777761700819268  0.7222238299180728  0.1251219143696541
  0.1111228860646264  0.2222281096989775  0.1251378768931079
  0.4444575723709724  0.2222484780752806  0.1254569249005447
  0.6111042054381555  0.7222255301369892  0.1251924937521601
  0.9444440068837749  0.7222152084395733  0.1251890363101632
  0.7777718903010228  0.2222281096989775  0.1251378768931079
  0.1111181175296679  0.8888818824703317  0.6248641800785423
  0.4444304316073358  0.8888818824703317  0.6248641800785423
  0.2777744698630104  0.3888957945618443  0.6248075062478400
  0.6111163236763754  0.3888836763236247  0.6242551573768204
  0.7777718903010228  0.8888771139353733  0.6248621231068923
  0.9444548220064964  0.3889006465416077  0.6248888471166527
  0.1111124912017835  0.3889006465416077  0.1251111528833470
  0.2777761700819268  0.8888856734971822  0.1251219143696541
  0.6110993534583921  0.8888875087982163  0.1251111528833470
  0.4444340193139207  0.3888836763236247  0.1257448426231795
  0.9444548220064964  0.8888875087982163  0.1251111528833470
  0.7777879913655059  0.3888957945618443  0.1251924937521601
  0.2777847915604265  0.5555621317775367  0.6248109636898374
  0.1111124912017835  0.0555451779935043  0.6248888471166527
  0.6111163236763754  0.5555659806860791  0.6242551573768204
  0.4444378682224637  0.0555559931162257  0.6248109636898374
  0.9444440068837749  0.5555621317775367  0.6248109636898374
  0.1111181175296679  0.5555695683926641  0.1251358199214582
  0.7777681756147986  0.0555507544740672  0.6248869475522837
  0.2777847915604265  0.0555559931162257  0.1251890363101632
  0.4444575723709724  0.5555424276290274  0.1254569249005447
  0.7777515219247194  0.5555424276290274  0.1254569249005447
  0.6110993534583921  0.0555451779935043  0.1251111528833470
  0.4444575723709724  0.5555424276290274  0.6245430750994555
  0.9444492455259330  0.0555507544740672  0.1251130524477161
  0.2777761700819268  0.7222238299180728  0.6248780856303457
  0.1111228860646264  0.2222281096989775  0.6248621231068923
  0.4444575723709724  0.2222484780752806  0.6245430750994555
  0.6111042054381555  0.7222255301369892  0.6248075062478400
  0.9444440068837749  0.7222152084395733  0.6248109636898374
  0.7777718903010228  0.2222281096989775  0.6248621231068923
  0.1111143265028180  0.7222238299180728  0.1251219143696541
  0.4444378682224637  0.7222152084395733  0.1251890363101632
  0.2777744698630104  0.2222120086344944  0.1251924937521601
  0.7777879913655059  0.7222255301369892  0.1251924937521601
  0.6111042054381555  0.2222120086344944  0.1251924937521601
  0.9444492455259330  0.2222318243852014  0.1251130524477161
  0.1111124912017835  0.3889006465416077  0.6248888471166527
  0.2777761700819268  0.8888856734971822  0.6248780856303457
  0.6110993534583921  0.8888875087982163  0.6248888471166527
  0.4444340193139207  0.3888836763236247  0.6242551573768204
  0.9444548220064964  0.8888875087982163  0.6248888471166527
  0.1111181175296679  0.8888818824703317  0.1251358199214582
  0.7777879913655059  0.3888957945618443  0.6248075062478400
  0.4444304316073358  0.8888818824703317  0.1251358199214582
  0.2777744698630104  0.3888957945618443  0.1251924937521601
  0.2777847915604265  0.5555621317775367  0.1251890363101632
  0.6111163236763754  0.3888836763236247  0.1257448426231795
  0.7777718903010228  0.8888771139353733  0.1251378768931079
  0.9444548220064964  0.3889006465416077  0.1251111528833470
  0.1111181175296679  0.5555695683926641  0.6248641800785423
  0.2777847915604265  0.0555559931162256  0.6248109636898374
  0.7777515219247194  0.5555424276290274  0.6245430750994555
  0.6110993534583921  0.0555451779935043  0.6248888471166527
  0.9444492455259330  0.0555507544740672  0.6248869475522837
  0.0552442861238225  0.1109344476842982  0.3750000000000000
  0.5561481527169484  0.6135314630171188  0.3750000000000000
  0.3889260590087732  0.1111854513508886  0.3750000000000000
  0.8888145486491108  0.6110739409912269  0.3750000000000000
  0.7223568282271395  0.1109344476842982  0.3750000000000000
  0.0555501182081763  0.7777779650350253  0.8750000000000000
  0.3888945134935136  0.7777779650350253  0.8750000000000000
  0.2222188314331688  0.2777760823832525  0.8750000000000000
  0.7222239176167476  0.7777811685668312  0.8750000000000000
  0.5555573485254082  0.2777790422988521  0.8750000000000000
  0.8888909491283538  0.2777783933537459  0.8750000000000000
  0.2222222222222214  0.7777777777777786  0.3750000000000000
  0.0552442861238225  0.2776431717728599  0.3750000000000000
  0.3864685369828810  0.2759500230331656  0.3750000000000000
  0.5555968717634393  0.7787866948897916  0.3750000000000000
  0.8898564897930166  0.7787866948897916  0.3750000000000000
  0.7226754421900869  0.2773245578099132  0.3750000000000000
  0.0555554754035670  0.9444445245964335  0.8750000000000000
  0.3888945134935136  0.9444498817918234  0.8750000000000000
  0.2222185069204136  0.4444419097862540  0.8750000000000000
  0.5555555555555571  0.4444444444444429  0.8750000000000000
  0.7222216066462535  0.9444458891079430  0.8750000000000000
  0.8888900695325044  0.4444419097862540  0.8750000000000000
  0.0555780875738558  0.4444895084810402  0.3750000000000000
  0.2222205708169267  0.9443900615663471  0.3750000000000000
  0.5555104915189599  0.9444219124261440  0.3750000000000000
  0.3864685369828810  0.4438518472830515  0.3750000000000000
  0.8890655523157018  0.9447557138761773  0.3750000000000000
  0.7240499769668347  0.4438518472830515  0.3750000000000000
  0.2222220349649747  0.6111054865064868  0.8750000000000000
  0.0555541108920568  0.1111090508716465  0.8750000000000000
  0.5555573485254082  0.6111116395598919  0.8750000000000000
  0.3888928463479428  0.1111190260292283  0.8750000000000000
  0.8888809739707716  0.6111071536520575  0.8750000000000000
  0.0556099384336527  0.6111638425839147  0.3750000000000000
  0.7222216066462535  0.1111090508716465  0.8750000000000000
  0.2212133051102085  0.1101435102069832  0.3750000000000000
  0.3889260590087732  0.6110739409912269  0.3750000000000000
  0.7240499769668347  0.6135314630171188  0.3750000000000000
  0.5555968717634393  0.1101435102069832  0.3750000000000000
  0.3888928463479428  0.6111071536520575  0.8750000000000000
  0.8888888888888857  0.1111111111111143  0.3750000000000000
  0.2222222222222214  0.7777777777777786  0.8750000000000000
  0.0555541108920568  0.2777783933537459  0.8750000000000000
  0.3888883604401082  0.2777790422988521  0.8750000000000000
  0.5555580902137467  0.7777814930795864  0.8750000000000000
  0.8888900695325044  0.7777814930795864  0.8750000000000000
  0.7222239176167476  0.2777760823832522  0.8750000000000000
  0.0556099384336527  0.7777794291830734  0.3750000000000000
  0.3888361574160850  0.7777794291830734  0.3750000000000000
  0.2213157822864907  0.2773245578099132  0.3750000000000000
  0.7226754421900869  0.7786842177135094  0.3750000000000000
  0.5561481527169484  0.2759500230331656  0.3750000000000000
  0.8890655523157018  0.2776431717728599  0.3750000000000000
  0.0555554754035670  0.4444442841404627  0.8750000000000000
  0.2222220349649747  0.9444498817918234  0.8750000000000000
  0.5555557158595376  0.9444445245964335  0.8750000000000000
  0.3888883604401080  0.4444426514745916  0.8750000000000000
  0.8888909491283538  0.9444458891079430  0.8750000000000000
  0.0555780875738558  0.9444219124261440  0.3750000000000000
  0.7222209577011479  0.4444426514745916  0.8750000000000000
  0.3888361574160850  0.9443900615663471  0.3750000000000000
  0.2212133051102085  0.4444031282365611  0.3750000000000000
  0.2222205708169267  0.6111638425839147  0.3750000000000000
  0.7223568282271395  0.9447557138761773  0.3750000000000000
  0.8898564897930166  0.4444031282365611  0.3750000000000000
  0.0555501182081763  0.6111054865064868  0.8750000000000000
  0.2222185069204136  0.1111099304674956  0.8750000000000000
  0.7222209577011479  0.6111116395598919  0.8750000000000000
  0.5555580902137467  0.1111099304674956  0.8750000000000000
  0.8888888888888857  0.1111111111111143  0.8750000000000000
  0.1103756223477613  0.0550687601430437  0.3750000000000000
  0.6148473165897012  0.5630279665127306  0.3750000000000000
  0.4445610674704167  0.0550835751366596  0.3750000000000000
  0.9449164248633398  0.5554389325295835  0.3750000000000000
  0.7779848045092866  0.0556590689213110  0.3750000000000000
  0.1111135825362363  0.7222234579347826  0.8750000000000000
  0.4444477757508848  0.7222428071195569  0.8750000000000000
  0.2777268064873867  0.2221908518291403  0.8750000000000000
  0.7778091481708601  0.7222731935126137  0.8750000000000000
  0.6111307120084253  0.2221908518291403  0.8750000000000000
  0.9444393035737230  0.2222119404807821  0.8750000000000000
  0.2777361516063994  0.7222638483936009  0.3750000000000000
  0.1100243445746927  0.2216788389540106  0.3750000000000000
  0.4439708746294185  0.2212750825921724  0.3750000000000000
  0.6117689270278985  0.7248109921789886  0.3750000000000000
  0.9449164248633398  0.7228108256670925  0.3750000000000000
  0.7783211610459890  0.2216788389540106  0.3750000000000000
  0.1111083530365801  0.8888916469634196  0.8750000000000000
  0.4444499605935113  0.8888916469634196  0.8750000000000000
  0.2777268064873867  0.3888692879915747  0.8750000000000000
  0.6111407832031985  0.3888592167968010  0.8750000000000000
  0.7777962016366421  0.8889257366066119  0.8750000000000000
  0.9444505080784599  0.3888716417290787  0.8750000000000000
  0.1103756223477613  0.3886401955380461  0.3750000000000000
  0.2777361516063994  0.8888056365461273  0.3750000000000000
  0.6113598044619537  0.8896243776522389  0.3750000000000000
  0.4369720334872691  0.3851526834102992  0.3750000000000000
  0.9449312398569562  0.8896243776522389  0.3750000000000000
  0.7797087318177611  0.3882310729721014  0.3750000000000000
  0.2777571928804436  0.5555522242491155  0.8750000000000000
  0.1110878003172903  0.0555494919215401  0.8750000000000000
  0.6111407832031985  0.5556148997397266  0.8750000000000000
  0.4444477757508848  0.0555383019646640  0.8750000000000000
  0.9444616980353363  0.5555522242491155  0.8750000000000000
  0.1110887918946662  0.5555109171226615  0.3750000000000000
  0.7777880595192177  0.0555606964262767  0.8750000000000000
  0.2771891743329073  0.0550835751366596  0.3750000000000000
  0.4439708746294185  0.5560291253705815  0.3750000000000000
  0.7787249174078272  0.5560291253705815  0.3750000000000000
  0.6113598044619537  0.0550687601430437  0.3750000000000000
  0.4444286199944117  0.5555713800055890  0.8750000000000000
  0.9443409310786897  0.0556590689213110  0.3750000000000000
  0.2777765420652173  0.7222234579347826  0.8750000000000000
  0.1110742633933880  0.2222037983633583  0.8750000000000000
  0.4444286199944117  0.2221905733221586  0.8750000000000000
  0.6111307120084253  0.7222731935126137  0.8750000000000000
  0.9444616980353363  0.7222428071195569  0.8750000000000000
  0.7777962016366421  0.2222037983633583  0.8750000000000000
  0.1111943634538733  0.7222638483936009  0.3750000000000000
  0.4445610674704167  0.7228108256670925  0.3750000000000000
  0.2751890078210115  0.2202912681822385  0.3750000000000000
  0.7797087318177611  0.7248109921789886  0.3750000000000000
  0.6117689270278985  0.2202912681822385  0.3750000000000000
  0.9443409310786897  0.2220151954907137  0.3750000000000000
  0.1110878003172903  0.3888716417290787  0.8750000000000000
  0.2777765420652173  0.8888864174637633  0.8750000000000000
  0.6111283582709212  0.8889121996827094  0.8750000000000000
  0.4443851002602738  0.3888592167968010  0.8750000000000000
  0.9444505080784599  0.8889121996827094  0.8750000000000000
  0.1110887918946662  0.8889112081053343  0.3750000000000000
  0.7778091481708601  0.3888692879915747  0.8750000000000000
  0.4444890828773392  0.8889112081053343  0.3750000000000000
  0.2751890078210115  0.3882310729721014  0.3750000000000000
  0.2771891743329073  0.5554389325295835  0.3750000000000000
  0.6148473165897012  0.3851526834102990  0.3750000000000000
  0.7783211610459890  0.8899756554253072  0.3750000000000000
  0.9449312398569562  0.3886401955380461  0.3750000000000000
  0.1111083530365801  0.5555500394064893  0.8750000000000000
  0.2777571928804436  0.0555383019646640  0.8750000000000000
  0.7778094266778408  0.5555713800055890  0.8750000000000000
  0.6111283582709212  0.0555494919215401  0.8750000000000000
  0.9444393035737230  0.0555606964262767  0.8750000000000000
  0.0555249872498164  0.1110785019097718  0.1249250053154998
  0.5555475233916894  0.6112676102825894  0.1249944265138230
  0.3888054579296315  0.1109442491926057  0.1249415515129020
  0.8890557508073942  0.6111945420703685  0.1249415515129020
  0.7222201813266196  0.1110785019097718  0.1249250053154998
  0.0556246324415993  0.7778046875093301  0.6250592102421659
  0.3888467217343947  0.7778046875093301  0.6250592102421659
  0.2221210585564701  0.2777271959449030  0.6251393589449834
  0.7222728040550976  0.7778789414435296  0.6251393589449834
  0.5555475233916894  0.2776132464424360  0.6250055734861770
  0.8889214980902289  0.2777798186733804  0.6250749946845003
  0.2222222222222214  0.7777777777777786  0.1249192255600626
  0.0555249872498164  0.2777798186733804  0.1249250053154998
  0.3887323897174110  0.2776132464424360  0.1249944265138230
  0.5555424964964096  0.7778602363865776  0.1249138244075750
  0.8889844065568326  0.7778602363865776  0.1249138244075750
  0.7222728040550976  0.2777271959449030  0.1248606410550170
  0.0555651249005396  0.9444348750994600  0.6250743224836263
  0.3888467217343947  0.9443753675584008  0.6250592102421659
  0.2221397636134221  0.4444575035035901  0.6250861755924247
  0.5555555555555571  0.4444444444444429  0.6251161077967471
  0.7222201813266196  0.9444750127501838  0.6250749946845003
  0.8889844065568326  0.4444575035035901  0.6250861755924247
  0.0555651249005396  0.4444635831344078  0.1249256775163737
  0.2221953124906702  0.9443753675584008  0.1249407897578338
  0.5555364168655922  0.9444348750994600  0.1249256775163737
  0.3887323897174110  0.4444524766083107  0.1249944265138230
  0.8889214980902289  0.9444750127501838  0.1249250053154998
  0.7223867535575639  0.4444524766083107  0.1249944265138230
  0.2221953124906702  0.6111532782656055  0.6250592102421659
  0.0555249872498164  0.1110785019097718  0.6250749946845003
  0.5555475233916894  0.6112676102825894  0.6250055734861770
  0.3888054579296315  0.1109442491926057  0.6250584484870984
  0.8890557508073942  0.6111945420703685  0.6250584484870984
  0.0556246324415993  0.6111532782656055  0.1249407897578338
  0.7222201813266196  0.1110785019097718  0.6250749946845003
  0.2221397636134221  0.1110155934431674  0.1249138244075750
  0.3888054579296315  0.6111945420703685  0.1249415515129020
  0.7223867535575639  0.6112676102825894  0.1249944265138230
  0.5555424964964096  0.1110155934431674  0.1249138244075750
  0.3888054579296315  0.6111945420703685  0.6250584484870984
  0.8888888888888857  0.1111111111111143  0.1249216625901818
  0.2222222222222214  0.7777777777777786  0.6250807744399376
  0.0555249872498164  0.2777798186733804  0.6250749946845003
  0.3887323897174110  0.2776132464424360  0.6250055734861770
  0.5555424964964096  0.7778602363865776  0.6250861755924247
  0.8889844065568326  0.7778602363865776  0.6250861755924247
  0.7222728040550976  0.2777271959449030  0.6251393589449834
  0.0556246324415993  0.7778046875093301  0.1249407897578338
  0.3888467217343947  0.7778046875093301  0.1249407897578338
  0.2221210585564701  0.2777271959449030  0.1248606410550170
  0.7222728040550976  0.7778789414435296  0.1248606410550170
  0.5555475233916894  0.2776132464424360  0.1249944265138230
  0.8889214980902289  0.2777798186733804  0.1249250053154998
  0.0555651249005396  0.4444635831344078  0.6250743224836263
  0.2221953124906702  0.9443753675584008  0.6250592102421659
  0.5555364168655922  0.9444348750994600  0.6250743224836263
  0.3887323897174110  0.4444524766083107  0.6250055734861770
  0.8889214980902289  0.9444750127501838  0.6250749946845003
  0.0555651249005396  0.9444348750994600  0.1249256775163737
  0.7223867535575639  0.4444524766083107  0.6250055734861770
  0.3888467217343947  0.9443753675584008  0.1249407897578338
  0.2221397636134221  0.4444575035035901  0.1249138244075750
  0.2221953124906702  0.6111532782656055  0.1249407897578338
  0.5555555555555571  0.4444444444444429  0.1248838922032526
  0.7222201813266196  0.9444750127501838  0.1249250053154998
  0.8889844065568326  0.4444575035035901  0.1249138244075750
  0.0556246324415993  0.6111532782656055  0.6250592102421659
  0.2221397636134221  0.1110155934431674  0.6250861755924247
  0.7223867535575639  0.6112676102825894  0.6250055734861770
  0.5555424964964096  0.1110155934431674  0.6250861755924247
  0.8888888888888857  0.1111111111111143  0.6250783374098181
 
  0.00000000E+00  0.00000000E+00  0.00000000E+00
  0.00000000E+00  0.00000000E+00  0.00000000E+00
  0.00000000E+00  0.00000000E+00  0.00000000E+00
  0.00000000E+00  0.00000000E+00  0.00000000E+00
  0.00000000E+00  0.00000000E+00  0.00000000E+00
  0.00000000E+00  0.00000000E+00  0.00000000E+00
  0.00000000E+00  0.00000000E+00  0.00000000E+00
  0.00000000E+00  0.00000000E+00  0.00000000E+00
  0.00000000E+00  0.00000000E+00  0.00000000E+00
  0.00000000E+00  0.00000000E+00  0.00000000E+00
  0.00000000E+00  0.00000000E+00  0.00000000E+00
  0.00000000E+00  0.00000000E+00  0.00000000E+00
  0.00000000E+00  0.00000000E+00  0.00000000E+00
  0.00000000E+00  0.00000000E+00  0.00000000E+00
  0.00000000E+00  0.00000000E+00  0.00000000E+00
  0.00000000E+00  0.00000000E+00  0.00000000E+00
  0.00000000E+00  0.00000000E+00  0.00000000E+00
  0.00000000E+00  0.00000000E+00  0.00000000E+00
  0.00000000E+00  0.00000000E+00  0.00000000E+00
  0.00000000E+00  0.00000000E+00  0.00000000E+00
  0.00000000E+00  0.00000000E+00  0.00000000E+00
  0.00000000E+00  0.00000000E+00  0.00000000E+00
  0.00000000E+00  0.00000000E+00  0.00000000E+00
  0.00000000E+00  0.00000000E+00  0.00000000E+00
  0.00000000E+00  0.00000000E+00  0.00000000E+00
  0.00000000E+00  0.00000000E+00  0.00000000E+00
  0.00000000E+00  0.00000000E+00  0.00000000E+00
  0.00000000E+00  0.00000000E+00  0.00000000E+00
  0.00000000E+00  0.00000000E+00  0.00000000E+00
  0.00000000E+00  0.00000000E+00  0.00000000E+00
  0.00000000E+00  0.00000000E+00  0.00000000E+00
  0.00000000E+00  0.00000000E+00  0.00000000E+00
  0.00000000E+00  0.00000000E+00  0.00000000E+00
  0.00000000E+00  0.00000000E+00  0.00000000E+00
  0.00000000E+00  0.00000000E+00  0.00000000E+00
  0.00000000E+00  0.00000000E+00  0.00000000E+00
  0.00000000E+00  0.00000000E+00  0.00000000E+00
  0.00000000E+00  0.00000000E+00  0.00000000E+00
  0.00000000E+00  0.00000000E+00  0.00000000E+00
  0.00000000E+00  0.00000000E+00  0.00000000E+00
  0.00000000E+00  0.00000000E+00  0.00000000E+00
  0.00000000E+00  0.00000000E+00  0.00000000E+00
  0.00000000E+00  0.00000000E+00  0.00000000E+00
  0.00000000E+00  0.00000000E+00  0.00000000E+00
  0.00000000E+00  0.00000000E+00  0.00000000E+00
  0.00000000E+00  0.00000000E+00  0.00000000E+00
  0.00000000E+00  0.00000000E+00  0.00000000E+00
  0.00000000E+00  0.00000000E+00  0.00000000E+00
  0.00000000E+00  0.00000000E+00  0.00000000E+00
  0.00000000E+00  0.00000000E+00  0.00000000E+00
  0.00000000E+00  0.00000000E+00  0.00000000E+00
  0.00000000E+00  0.00000000E+00  0.00000000E+00
  0.00000000E+00  0.00000000E+00  0.00000000E+00
  0.00000000E+00  0.00000000E+00  0.00000000E+00
  0.00000000E+00  0.00000000E+00  0.00000000E+00
  0.00000000E+00  0.00000000E+00  0.00000000E+00
  0.00000000E+00  0.00000000E+00  0.00000000E+00
  0.00000000E+00  0.00000000E+00  0.00000000E+00
  0.00000000E+00  0.00000000E+00  0.00000000E+00
  0.00000000E+00  0.00000000E+00  0.00000000E+00
  0.00000000E+00  0.00000000E+00  0.00000000E+00
  0.00000000E+00  0.00000000E+00  0.00000000E+00
  0.00000000E+00  0.00000000E+00  0.00000000E+00
  0.00000000E+00  0.00000000E+00  0.00000000E+00
  0.00000000E+00  0.00000000E+00  0.00000000E+00
  0.00000000E+00  0.00000000E+00  0.00000000E+00
  0.00000000E+00  0.00000000E+00  0.00000000E+00
  0.00000000E+00  0.00000000E+00  0.00000000E+00
  0.00000000E+00  0.00000000E+00  0.00000000E+00
  0.00000000E+00  0.00000000E+00  0.00000000E+00
  0.00000000E+00  0.00000000E+00  0.00000000E+00
  0.00000000E+00  0.00000000E+00  0.00000000E+00
  0.00000000E+00  0.00000000E+00  0.00000000E+00
  0.00000000E+00  0.00000000E+00  0.00000000E+00
  0.00000000E+00  0.00000000E+00  0.00000000E+00
  0.00000000E+00  0.00000000E+00  0.00000000E+00
  0.00000000E+00  0.00000000E+00  0.00000000E+00
  0.00000000E+00  0.00000000E+00  0.00000000E+00
  0.00000000E+00  0.00000000E+00  0.00000000E+00
  0.00000000E+00  0.00000000E+00  0.00000000E+00
  0.00000000E+00  0.00000000E+00  0.00000000E+00
  0.00000000E+00  0.00000000E+00  0.00000000E+00
  0.00000000E+00  0.00000000E+00  0.00000000E+00
  0.00000000E+00  0.00000000E+00  0.00000000E+00
  0.00000000E+00  0.00000000E+00  0.00000000E+00
  0.00000000E+00  0.00000000E+00  0.00000000E+00
  0.00000000E+00  0.00000000E+00  0.00000000E+00
  0.00000000E+00  0.00000000E+00  0.00000000E+00
  0.00000000E+00  0.00000000E+00  0.00000000E+00
  0.00000000E+00  0.00000000E+00  0.00000000E+00
  0.00000000E+00  0.00000000E+00  0.00000000E+00
  0.00000000E+00  0.00000000E+00  0.00000000E+00
  0.00000000E+00  0.00000000E+00  0.00000000E+00
  0.00000000E+00  0.00000000E+00  0.00000000E+00
  0.00000000E+00  0.00000000E+00  0.00000000E+00
  0.00000000E+00  0.00000000E+00  0.00000000E+00
  0.00000000E+00  0.00000000E+00  0.00000000E+00
  0.00000000E+00  0.00000000E+00  0.00000000E+00
  0.00000000E+00  0.00000000E+00  0.00000000E+00
  0.00000000E+00  0.00000000E+00  0.00000000E+00
  0.00000000E+00  0.00000000E+00  0.00000000E+00
  0.00000000E+00  0.00000000E+00  0.00000000E+00
  0.00000000E+00  0.00000000E+00  0.00000000E+00
  0.00000000E+00  0.00000000E+00  0.00000000E+00
  0.00000000E+00  0.00000000E+00  0.00000000E+00
  0.00000000E+00  0.00000000E+00  0.00000000E+00
  0.00000000E+00  0.00000000E+00  0.00000000E+00
  0.00000000E+00  0.00000000E+00  0.00000000E+00
  0.00000000E+00  0.00000000E+00  0.00000000E+00
  0.00000000E+00  0.00000000E+00  0.00000000E+00
  0.00000000E+00  0.00000000E+00  0.00000000E+00
  0.00000000E+00  0.00000000E+00  0.00000000E+00
  0.00000000E+00  0.00000000E+00  0.00000000E+00
  0.00000000E+00  0.00000000E+00  0.00000000E+00
  0.00000000E+00  0.00000000E+00  0.00000000E+00
  0.00000000E+00  0.00000000E+00  0.00000000E+00
  0.00000000E+00  0.00000000E+00  0.00000000E+00
  0.00000000E+00  0.00000000E+00  0.00000000E+00
  0.00000000E+00  0.00000000E+00  0.00000000E+00
  0.00000000E+00  0.00000000E+00  0.00000000E+00
  0.00000000E+00  0.00000000E+00  0.00000000E+00
  0.00000000E+00  0.00000000E+00  0.00000000E+00
  0.00000000E+00  0.00000000E+00  0.00000000E+00
  0.00000000E+00  0.00000000E+00  0.00000000E+00
  0.00000000E+00  0.00000000E+00  0.00000000E+00
  0.00000000E+00  0.00000000E+00  0.00000000E+00
  0.00000000E+00  0.00000000E+00  0.00000000E+00
  0.00000000E+00  0.00000000E+00  0.00000000E+00
  0.00000000E+00  0.00000000E+00  0.00000000E+00
  0.00000000E+00  0.00000000E+00  0.00000000E+00
  0.00000000E+00  0.00000000E+00  0.00000000E+00
  0.00000000E+00  0.00000000E+00  0.00000000E+00
  0.00000000E+00  0.00000000E+00  0.00000000E+00
  0.00000000E+00  0.00000000E+00  0.00000000E+00
  0.00000000E+00  0.00000000E+00  0.00000000E+00
  0.00000000E+00  0.00000000E+00  0.00000000E+00
  0.00000000E+00  0.00000000E+00  0.00000000E+00
  0.00000000E+00  0.00000000E+00  0.00000000E+00
  0.00000000E+00  0.00000000E+00  0.00000000E+00
  0.00000000E+00  0.00000000E+00  0.00000000E+00
  0.00000000E+00  0.00000000E+00  0.00000000E+00
  0.00000000E+00  0.00000000E+00  0.00000000E+00
  0.00000000E+00  0.00000000E+00  0.00000000E+00
  0.00000000E+00  0.00000000E+00  0.00000000E+00
  0.00000000E+00  0.00000000E+00  0.00000000E+00
  0.00000000E+00  0.00000000E+00  0.00000000E+00
  0.00000000E+00  0.00000000E+00  0.00000000E+00
  0.00000000E+00  0.00000000E+00  0.00000000E+00
  0.00000000E+00  0.00000000E+00  0.00000000E+00
  0.00000000E+00  0.00000000E+00  0.00000000E+00
  0.00000000E+00  0.00000000E+00  0.00000000E+00
  0.00000000E+00  0.00000000E+00  0.00000000E+00
  0.00000000E+00  0.00000000E+00  0.00000000E+00
  0.00000000E+00  0.00000000E+00  0.00000000E+00
  0.00000000E+00  0.00000000E+00  0.00000000E+00
  0.00000000E+00  0.00000000E+00  0.00000000E+00
  0.00000000E+00  0.00000000E+00  0.00000000E+00
  0.00000000E+00  0.00000000E+00  0.00000000E+00
  0.00000000E+00  0.00000000E+00  0.00000000E+00
  0.00000000E+00  0.00000000E+00  0.00000000E+00
  0.00000000E+00  0.00000000E+00  0.00000000E+00
  0.00000000E+00  0.00000000E+00  0.00000000E+00
  0.00000000E+00  0.00000000E+00  0.00000000E+00
  0.00000000E+00  0.00000000E+00  0.00000000E+00
  0.00000000E+00  0.00000000E+00  0.00000000E+00
  0.00000000E+00  0.00000000E+00  0.00000000E+00
  0.00000000E+00  0.00000000E+00  0.00000000E+00
  0.00000000E+00  0.00000000E+00  0.00000000E+00
  0.00000000E+00  0.00000000E+00  0.00000000E+00
  0.00000000E+00  0.00000000E+00  0.00000000E+00
  0.00000000E+00  0.00000000E+00  0.00000000E+00
  0.00000000E+00  0.00000000E+00  0.00000000E+00
  0.00000000E+00  0.00000000E+00  0.00000000E+00
  0.00000000E+00  0.00000000E+00  0.00000000E+00
  0.00000000E+00  0.00000000E+00  0.00000000E+00
  0.00000000E+00  0.00000000E+00  0.00000000E+00
  0.00000000E+00  0.00000000E+00  0.00000000E+00
  0.00000000E+00  0.00000000E+00  0.00000000E+00
  0.00000000E+00  0.00000000E+00  0.00000000E+00
  0.00000000E+00  0.00000000E+00  0.00000000E+00
  0.00000000E+00  0.00000000E+00  0.00000000E+00
  0.00000000E+00  0.00000000E+00  0.00000000E+00
  0.00000000E+00  0.00000000E+00  0.00000000E+00
  0.00000000E+00  0.00000000E+00  0.00000000E+00
  0.00000000E+00  0.00000000E+00  0.00000000E+00
  0.00000000E+00  0.00000000E+00  0.00000000E+00
  0.00000000E+00  0.00000000E+00  0.00000000E+00
  0.00000000E+00  0.00000000E+00  0.00000000E+00
  0.00000000E+00  0.00000000E+00  0.00000000E+00
  0.00000000E+00  0.00000000E+00  0.00000000E+00
  0.00000000E+00  0.00000000E+00  0.00000000E+00
  0.00000000E+00  0.00000000E+00  0.00000000E+00
  0.00000000E+00  0.00000000E+00  0.00000000E+00
  0.00000000E+00  0.00000000E+00  0.00000000E+00
  0.00000000E+00  0.00000000E+00  0.00000000E+00
  0.00000000E+00  0.00000000E+00  0.00000000E+00
  0.00000000E+00  0.00000000E+00  0.00000000E+00
  0.00000000E+00  0.00000000E+00  0.00000000E+00
  0.00000000E+00  0.00000000E+00  0.00000000E+00
  0.00000000E+00  0.00000000E+00  0.00000000E+00
  0.00000000E+00  0.00000000E+00  0.00000000E+00
  0.00000000E+00  0.00000000E+00  0.00000000E+00
  0.00000000E+00  0.00000000E+00  0.00000000E+00
  0.00000000E+00  0.00000000E+00  0.00000000E+00
  0.00000000E+00  0.00000000E+00  0.00000000E+00
  0.00000000E+00  0.00000000E+00  0.00000000E+00
  0.00000000E+00  0.00000000E+00  0.00000000E+00
  0.00000000E+00  0.00000000E+00  0.00000000E+00
  0.00000000E+00  0.00000000E+00  0.00000000E+00
  0.00000000E+00  0.00000000E+00  0.00000000E+00
  0.00000000E+00  0.00000000E+00  0.00000000E+00
  0.00000000E+00  0.00000000E+00  0.00000000E+00
  0.00000000E+00  0.00000000E+00  0.00000000E+00
  0.00000000E+00  0.00000000E+00  0.00000000E+00
  0.00000000E+00  0.00000000E+00  0.00000000E+00
  0.00000000E+00  0.00000000E+00  0.00000000E+00
  0.00000000E+00  0.00000000E+00  0.00000000E+00
  0.00000000E+00  0.00000000E+00  0.00000000E+00
  0.00000000E+00  0.00000000E+00  0.00000000E+00
  0.00000000E+00  0.00000000E+00  0.00000000E+00
  0.00000000E+00  0.00000000E+00  0.00000000E+00
  0.00000000E+00  0.00000000E+00  0.00000000E+00
  0.00000000E+00  0.00000000E+00  0.00000000E+00
  0.00000000E+00  0.00000000E+00  0.00000000E+00
  0.00000000E+00  0.00000000E+00  0.00000000E+00
  0.00000000E+00  0.00000000E+00  0.00000000E+00
  0.00000000E+00  0.00000000E+00  0.00000000E+00
  0.00000000E+00  0.00000000E+00  0.00000000E+00
  0.00000000E+00  0.00000000E+00  0.00000000E+00
  0.00000000E+00  0.00000000E+00  0.00000000E+00
  0.00000000E+00  0.00000000E+00  0.00000000E+00
  0.00000000E+00  0.00000000E+00  0.00000000E+00
  0.00000000E+00  0.00000000E+00  0.00000000E+00
  0.00000000E+00  0.00000000E+00  0.00000000E+00
  0.00000000E+00  0.00000000E+00  0.00000000E+00
  0.00000000E+00  0.00000000E+00  0.00000000E+00
  0.00000000E+00  0.00000000E+00  0.00000000E+00
  0.00000000E+00  0.00000000E+00  0.00000000E+00
  0.00000000E+00  0.00000000E+00  0.00000000E+00
  0.00000000E+00  0.00000000E+00  0.00000000E+00
  0.00000000E+00  0.00000000E+00  0.00000000E+00
  0.00000000E+00  0.00000000E+00  0.00000000E+00
  0.00000000E+00  0.00000000E+00  0.00000000E+00
  0.00000000E+00  0.00000000E+00  0.00000000E+00
  0.00000000E+00  0.00000000E+00  0.00000000E+00
  0.00000000E+00  0.00000000E+00  0.00000000E+00
  0.00000000E+00  0.00000000E+00  0.00000000E+00