Species order: X N B                    
   2.51242800000000     
     5.9449720136058266    0.0000000000000000    0.0000000000000000
    -2.9724860068029120    5.1484967885702053   -0.0000000000000001
     0.0000000000000000    0.0000000000000009    5.3101128803662583
   Sb   N    B 
     1   143   143
Direct
  0.5013762222758900  0.4173547778045347  0.3750000000000000
  0.1115008627720072  0.0557339281710232  0.1248212883979952
  0.6115478869567270  0.5558456363621344  0.1211950937285994
  0.4448523663387128  0.0557353958350708  0.1245222606473418
  0.9448132332814856  0.5557413281422814  0.1249656711429281
  0.7782139905314883  0.0557736619324014  0.1250813345352516
  0.1114886296299090  0.7224109814816914  0.6247293457407299
  0.4448523663387128  0.7224503038370774  0.6254777393529288
  0.2781321318363207  0.2223747541912075  0.6265900532089463
  0.7781708552679106  0.7224390746212195  0.6260742320205438
  0.6115166084206045  0.2223833392124182  0.6264201544731146
  0.9448675835393605  0.2224355429011070  0.6248858965265741
  0.2781770786469195  0.7224311415131398  0.1251504535222535
  0.1115159791327760  0.2224246562330626  0.1245765675947894
  0.4448516643228280  0.2223910380258501  0.1228634902344814
  0.6115166084206045  0.7224666025416999  0.1235798455269415
  0.9448132332814856  0.7224052384727745  0.1249656711429281
  0.7782010572010939  0.2224193839726381  0.1247984344434722
  0.1115000452785635  0.8890720951372336  0.6248191353902234
  0.4448622240262966  0.8890977786796789  0.6248673390056901
  0.2781321318363207  0.3890907109784555  0.6265900532089463
  0.6115478869567270  0.3890355839277519  0.6288049062714575
  0.7782010572010939  0.8891150065618114  0.6252015655566642
  0.9448436992451262  0.3890917215904413  0.6248914434005222
  0.1115008627720072  0.3891002679342419  0.1248212883979952
  0.2781770786469195  0.8890792704671743  0.1251504535222535
  0.6115385437059272  0.8891180068180509  0.1248928185488411
  0.4447309585246815  0.3890321459290656  0.1220838842557594
  0.9448436992451262  0.8890853109880573  0.1251085565993443
  0.7781708552679106  0.3890651139801899  0.1239257679794835
  0.2781762415006157  0.5557721246465023  0.6255434417626954
  0.1115008627720072  0.0557339281710232  0.6251787116019477
  0.6115478869567270  0.5558456363621344  0.6288049062714504
  0.4448523663387128  0.0557353958350708  0.6254777393529288
  0.9448132332814856  0.5557413281422814  0.6250343288569734
  0.1115000452785635  0.5557612834746006  0.1251808646097348
  0.7782139905314883  0.0557736619324014  0.6249186654648334
  0.2781762415006157  0.0557374501875418  0.1244565582371705
  0.4448516643228280  0.5557939596301642  0.1228634902344672
  0.7781403384643644  0.5557368358986057  0.1233910070679980
  0.6115385437059272  0.0557538702211832  0.1248928185488411
  0.4448516643228280  0.5557939596301642  0.6271365097655622
  0.9448675835393605  0.0557653739714742  0.1251141034734614
  0.2781770786469195  0.7224311415131398  0.6248495464778607
  0.1115159791327760  0.2224246562330626  0.6254234324052049
  0.4448516643228280  0.2223910380258501  0.6271365097655621
  0.6115166084206045  0.7224666025416999  0.6264201544731075
  0.9448132332814856  0.7224052384727745  0.6250343288569734
  0.7782010572010939  0.2224193839726381  0.6252015655566642
  0.1114886296299090  0.7224109814816914  0.1252706542592071
  0.4448523663387128  0.7224503038370774  0.1245222606473418
  0.2781321318363207  0.2223747541912075  0.1234099467911880
  0.7781708552679106  0.7224390746212195  0.1239257679794835
  0.6115166084206045  0.2223833392124182  0.1235798455269415
  0.9448675835393605  0.2224355429011070  0.1251141034734614
  0.1115008627720072  0.3891002679342419  0.6251787116019477
  0.2781770786469195  0.8890792704671743  0.6248495464778607
  0.6115385437059272  0.8891180068180509  0.6251071814510175
  0.4447309585246815  0.3890321459290656  0.6279161157442830
  0.9448436992451262  0.8890853109880573  0.6248914434005222
  0.1115000452785635  0.8890720951372336  0.1251808646097348
  0.7781708552679106  0.3890651139801899  0.6260742320205367
  0.4448622240262966  0.8890977786796789  0.1251326609943458
  0.2781321318363207  0.3890907109784555  0.1234099467911809
  0.2781762415006086  0.5557721246465023  0.1244565582371705
  0.6115478869567270  0.3890355839277519  0.1211950937285994
  0.7782010572010939  0.8891150065618114  0.1247984344434722
  0.9448436992451262  0.3890917215904413  0.1251085565993443
  0.1115000452785635  0.5557612834746006  0.6248191353902234
  0.2781762415006157  0.0557374501875347  0.6255434417626954
  0.7781403384643644  0.5557368358986057  0.6266089929321011
  0.6115385437059272  0.0557538702211832  0.6251071814510175
  0.9448675835393605  0.0557653739714742  0.6248858965265741
  0.0587044136640644  0.1129139187418489  0.3750000000000000
  0.5554990600558525  0.6245104089576037  0.3750000000000000
  0.3870325004376126  0.1033883667515245  0.3750000000000000
  0.8843165123976204  0.6088249228656779  0.3750000000000000
  0.7243295287582421  0.1108286344157834  0.3750000000000000
  0.0553862790791308  0.7776928629471759  0.8750000000000000
  0.3887136151433858  0.7776934720060780  0.8750000000000000
  0.2220482509095308  0.2776907921214545  0.8750000000000000
  0.7220519174081198  0.7776927692740663  0.8750000000000000
  0.5553790278108091  0.2776828925334667  0.8750000000000000
  0.8887196333373816  0.2776947275307006  0.8750000000000000
  0.2194430001713457  0.7763881667522826  0.3750000000000000
  0.0587044136640502  0.2791238282555653  0.3750000000000000
  0.3897755969354718  0.2677098764208115  0.3750000000000000
  0.5556346452599082  0.7837358714367266  0.3750000000000000
  0.8884133185672473  0.7785381317141171  0.3750000000000000
  0.7238525710661857  0.2750717231226743  0.3750000000000000
  0.0553826807462869  0.9443557185644197  0.8750000000000000
  0.3887136151433858  0.9443534764707717  0.8750000000000000
  0.2220449902666177  0.4443605841775636  0.8750000000000000
  0.5553804635168234  0.4443568984250760  0.8750000000000000
  0.7220476988093633  0.9443576894153727  0.8750000000000000
  0.8887252314678351  0.4443627861125504  0.8750000000000000
  0.0556462582844142  0.4446973123540001  0.3750000000000000
  0.2199436736285656  0.9415607701525389  0.3750000000000000
  0.5556940425592520  0.9445136879462828  0.3750000000000000
  0.3897755969354718  0.4553990538479035  0.3750000000000000
  0.8912345995841013  0.9467086246063831  0.3750000000000000
  0.7201793807097963  0.4400898048084023  0.3750000000000000
  0.2220461069061187  0.6110269450067600  0.8750000000000000
  0.0553820938346051  0.1110223915604355  0.8750000000000000
  0.5553790278108091  0.6110294686106276  0.8750000000000000
  0.3887120351433188  0.1110166413761257  0.8750000000000000
  0.8887279604298671  0.6110306468816370  0.8750000000000000
  0.0525828080868897  0.6100249866808286  0.3750000000000000
  0.7220476988093633  0.1110233427273746  0.8750000000000000
  0.2228216343314987  0.1096714556109584  0.3750000000000000
  0.3870325004376126  0.6169774670194316  0.3750000000000000
  0.7201793807097963  0.6134229092347142  0.3750000000000000
  0.5556346452599225  0.1052321071564745  0.3750000000000000
  0.3887120351433188  0.6110287271004428  0.8750000000000000
  0.8919178821034466  0.1126256077184124  0.3750000000000000
  0.2220485684488866  0.7776909508911040  0.8750000000000000
  0.0553820938346051  0.2776930356076264  0.8750000000000000
  0.3887141635650653  0.2776851875154879  0.8750000000000000
  0.5553784616146137  0.7776943035836634  0.8750000000000000
  0.8887252314678351  0.7776957786888338  0.8750000000000000
  0.7220519174081198  0.2776924814675321  0.8750000000000000
  0.0525828080868897  0.7758911547392189  0.3750000000000000
  0.3870961306695042  0.7790648610665880  0.3750000000000000
  0.2271013948364441  0.2802173640848794  0.3750000000000000
  0.7238525710661857  0.7821141812767105  0.3750000000000000
  0.5554990600558525  0.2643219844313932  0.3750000000000000
  0.8912345995841013  0.2778593083109750  0.3750000000000000
  0.0553826807462869  0.4443602955152740  0.8750000000000000
  0.2220461069061187  0.9443524952325950  0.8750000000000000
  0.5553781274623298  0.9443557303979371  0.8750000000000000
  0.3887141635650653  0.4443623093829779  0.8750000000000000
  0.8887196333373816  0.9443582391399868  0.8750000000000000
  0.0556462582844142  0.9442822792637289  0.3750000000000000
  0.7220609649773825  0.4443637112842633  0.8750000000000000
  0.3870961306695042  0.9413646029362599  0.3750000000000000
  0.2228216343314987  0.4464835120537977  0.3750000000000000
  0.2199436736285656  0.6117162368094331  0.3750000000000000
  0.7243295287582421  0.9468342276760494  0.3750000000000000
  0.8884133185672473  0.4432085201866154  0.3750000000000000
  0.0553862790791308  0.6110267494655743  0.8750000000000000
  0.2220449902666177  0.1110177394223545  0.8750000000000000
  0.7220609649773825  0.6110305870268092  0.8750000000000000
  0.5553784616146137  0.1110174913642080  0.8750000000000000
  0.8887179084546775  0.1110256208940533  0.8750000000000000
  0.1123082684515769  0.0555352268232632  0.3750000000000000
  0.6114138235166249  0.5732011050883957  0.3750000000000000
  0.4441351799680712  0.0507252038279836  0.3750000000000000
  0.9415111225449896  0.5542223191638193  0.3750000000000000
  0.7809138609638202  0.0571235971485746  0.3750000000000000
  0.1109374405485800  0.7221353869409298  0.8750000000000000
  0.4442638770222191  0.7221293326876301  0.8750000000000000
  0.2776074582432846  0.2221383403323583  0.8750000000000000
  0.7776047762033280  0.7221300987182252  0.8750000000000000
  0.6109299847418505  0.2221369867836621  0.8750000000000000
  0.9442778644988631  0.2221386631347602  0.8750000000000000
  0.2758453809811420  0.7223519280255624  0.3750000000000000
  0.1155305864880631  0.2244319599106814  0.3750000000000000
  0.4430801008440004  0.2120243246434710  0.3750000000000000
  0.6131147724397307  0.7324652783104645  0.3750000000000000
  0.9415111225449896  0.7206221367145563  0.3750000000000000
  0.7805265584768865  0.2213977515214947  0.3750000000000000
  0.1109379262079117  0.8888046841124426  0.8750000000000000
  0.4442660338380846  0.8887996835858346  0.8750000000000000
  0.2776074582432846  0.3888024512442828  0.8750000000000000
  0.6109305996784512  0.3888028909375406  0.8750000000000000
  0.7776062313728501  0.8888014215832427  0.8750000000000000
  0.9442759347790226  0.3888038641794876  0.8750000000000000
  0.1123082684515769  0.3901063749617280  0.3750000000000000
  0.2758453809811420  0.8868267862889292  0.3750000000000000
  0.6130315498662922  0.8926650733059163  0.3750000000000000
  0.9450736964264750  0.8897686089328692  0.3750000000000000
  0.7780543103976147  0.3863050833664680  0.3750000000000000
  0.2776006511251463  0.5554637452779427  0.8750000000000000
  0.1109412324899341  0.0554726504187591  0.8750000000000000
  0.6109305996784512  0.5554610420739553  0.8750000000000000
  0.4442638770222191  0.0554678776677974  0.8750000000000000
  0.9442754589453048  0.5554711730750453  0.8750000000000000
  0.1091690010594059  0.5555002436693639  0.3750000000000000
  0.7776071000108704  0.0554702166721139  0.8750000000000000
  0.2762918831010504  0.0520362351038986  0.3750000000000000
  0.4430801008440004  0.5643891095337861  0.3750000000000000
  0.7725456620558114  0.5529394976947080  0.3750000000000000
  0.6130315498662922  0.0536998098936762  0.3750000000000000
  0.4442659716431698  0.5554605952511581  0.8750000000000000
  0.9477577673531992  0.0577078253106365  0.3750000000000000
  0.2776007830848306  0.7221320279692556  0.8750000000000000
  0.1109455435223950  0.2221394384278477  0.8750000000000000
  0.4442659716431698  0.2221387097251205  0.8750000000000000
  0.6109299847418505  0.7221263312914092  0.8750000000000000
  0.9442754589453048  0.7221376192036010  0.8750000000000000
  0.7776062313728501  0.2221381431231490  0.8750000000000000
  0.1083693820871335  0.7208513577102726  0.3750000000000000
  0.4441351799680712  0.7267433094732029  0.3750000000000000
  0.2806002580305441  0.2214372933228162  0.3750000000000000
  0.7780543103976147  0.7250825603648313  0.3750000000000000
  0.6131147724397307  0.2139828274624381  0.3750000000000000
  0.9477577673531992  0.2233832753759701  0.3750000000000000
  0.1109412324899341  0.3888019154045039  0.8750000000000000
  0.2776007830848306  0.8888020884489038  0.8750000000000000
  0.6109342385800531  0.8887998968492392  0.8750000000000000
  0.4442675021676544  0.3888004177505308  0.8750000000000000
  0.9442759347790226  0.8888054039328587  0.8750000000000000
  0.1091690010594059  0.8870020907234775  0.3750000000000000
  0.7776047762033280  0.3888080108184458  0.8750000000000000
  0.4441681174857716  0.8887507254094256  0.3750000000000000
  0.2806002580305441  0.3924962980410919  0.3750000000000000
  0.2762918831010504  0.5575889813305722  0.3750000000000000
  0.6114138235166249  0.3715460517616773  0.3750000000000000
  0.7805265584768865  0.8924621402884801  0.3750000000000000
  0.9450736964264750  0.3886384208269836  0.3750000000000000
  0.1109379262079117  0.5554665754289330  0.8750000000000000
  0.2776006511251463  0.0554702391807158  0.8750000000000000
  0.7776031372484772  0.5554682352908717  0.8750000000000000
  0.6109342385800531  0.0554676750640588  0.8750000000000000
  0.9442778644988631  0.0554725346973951  0.8750000000000000
  0.0559877662456024  0.1113313740247397  0.1248741203937518
  0.5559533572430213  0.6113242173959342  0.1223759044190529
  0.3892839533219006  0.1112988514247908  0.1239583573131491
  0.8892408487151189  0.6112870910242607  0.1244672740666016
  0.7226542301139631  0.1113134860805657  0.1249153141084768
  0.0559381268801532  0.7779729130758718  0.6248228428094237
  0.3892920863119755  0.7779872696040526  0.6250303781696469
  0.2226358380035134  0.2779845856683956  0.6261627883028800
  0.7226216421468200  0.7780094224720113  0.6259913208673464
  0.5559533572430213  0.2779624731803308  0.6276240955811044
  0.8893173602779366  0.2779770988675188  0.6249802519517290
  0.2226119114892397  0.7779726224112834  0.1252109380222286
  0.0559877662456024  0.2779897255541347  0.1248741203937518
  0.3891946259749487  0.2778600389165636  0.1227353831922537
  0.5559589140525676  0.7780042930571588  0.1243202505507893
  0.8892753182555774  0.7779867521496552  0.1246843981738258
  0.7226216421468200  0.2779455530081215  0.1240086791324394
  0.0559649580411854  0.9446548631971450  0.6249180270925485
  0.3892920863119755  0.9446381500411789  0.6250303781696469
  0.2226162725644751  0.4446410389266168  0.6257237143987282
  0.5560193293704829  0.4446763313519022  0.6281643049296891
  0.7226542301139631  0.9446740773666912  0.6250846858914577
  0.8892753182555774  0.4446218994393800  0.6253156018263443
  0.0559649580411854  0.4446434281772116  0.1250819729074595
  0.2226258094003105  0.9446497691932908  0.1249716001369174
  0.5559784794831522  0.9446559064080774  0.1249973261100214
  0.3891946259749487  0.4446679203917631  0.1227353831922608
  0.8893173602779366  0.9446735947435546  0.1250197480481995
  0.7225756384509616  0.4445986150899490  0.1226393602633304
  0.2226258094003105  0.6113093735402257  0.6250283998631121
  0.0559877662456024  0.1113313740247397  0.6251258796063133
  0.5559533572430213  0.6113242173959342  0.6276240955811044
  0.3892839533219006  0.1112988514247908  0.6260416426869362
  0.8892408487151189  0.6112870910242607  0.6255327259334199
  0.0559381268801532  0.6112985471375019  0.1251771571906676
  0.7226542301139631  0.1113134860805586  0.6250846858914577
  0.2226162725644751  0.1113085669711720  0.1242762856013227
  0.3892839533219006  0.6113184352302885  0.1239583573131491
  0.7225756384509616  0.6113103566943705  0.1226393602633304
  0.5559589140525676  0.1112879543289513  0.1243202505507893
  0.3892839533219006  0.6113184352302885  0.6260416426869362
  0.8893293830006451  0.1113313581669725  0.1251045611762500
  0.2226119114892397  0.7779726224112834  0.6247890619777424
  0.0559877662456024  0.2779897255541347  0.6251258796063133
  0.3891946259749487  0.2778600389165778  0.6272646168075627
  0.5559589140525676  0.7780042930571588  0.6256797494491410
  0.8892753182555774  0.7779867521496552  0.6253156018263443
  0.7226216421468200  0.2779455530081215  0.6259913208673464
  0.0559381268801532  0.7779729130758718  0.1251771571906676
  0.3892920863119755  0.7779872696040526  0.1249696218304098
  0.2226358380035134  0.2779845856683956  0.1238372116970774
  0.7226216421468200  0.7780094224720113  0.1240086791324394
  0.5559533572430213  0.2779624731803308  0.1223759044190600
  0.8893173602779366  0.2779770988675188  0.1250197480481995
  0.0559649580411854  0.4446434281772116  0.6249180270925485
  0.2226258094003105  0.9446497691932908  0.6250283998631121
  0.5559784794831522  0.9446559064080774  0.6250026738899723
  0.3891946259749487  0.4446679203917347  0.6272646168075627
  0.8893173602779366  0.9446735947435546  0.6249802519517290
  0.0559649580411854  0.9446548631971450  0.1250819729074595
  0.7225756384509616  0.4445986150899490  0.6273606397367759
  0.3892920863119755  0.9446381500411789  0.1249696218304098
  0.2226162725644751  0.4446410389266168  0.1242762856013227
  0.2226258094003034  0.6113093735402257  0.1249716001369174
  0.5560193293704829  0.4446763313519022  0.1218356950704250
  0.7226542301139631  0.9446740773666912  0.1249153141084768
  0.8892753182555774  0.4446218994393800  0.1246843981738258
  0.0559381268801532  0.6112985471376866  0.6248228428094308
  0.2226162725644751  0.1113085669711720  0.6257237143987282
  0.7225756384509617  0.6113103566943705  0.6273606397367688
  0.5559589140525676  0.1112879543289513  0.6256797494491410
  0.8893293830006451  0.1113313581669725  0.6248954388238642
 
  0.00000000E+00  0.00000000E+00  0.00000000E+00
  0.00000000E+00  0.00000000E+00  0.00000000E+00
  0.00000000E+00  0.00000000E+00  0.00000000E+00
  0.00000000E+00  0.00000000E+00  0.00000000E+00
  0.00000000E+00  0.00000000E+00  0.00000000E+00
  0.00000000E+00  0.00000000E+00  0.00000000E+00
  0.00000000E+00  0.00000000E+00  0.00000000E+00
  0.00000000E+00  0.00000000E+00  0.00000000E+00
  0.00000000E+00  0.00000000E+00  0.00000000E+00
  0.00000000E+00  0.00000000E+00  0.00000000E+00
  0.00000000E+00  0.00000000E+00  0.00000000E+00
  0.00000000E+00  0.00000000E+00  0.00000000E+00
  0.00000000E+00  0.00000000E+00  0.00000000E+00
  0.00000000E+00  0.00000000E+00  0.00000000E+00
  0.00000000E+00  0.00000000E+00  0.00000000E+00
  0.00000000E+00  0.00000000E+00  0.00000000E+00
  0.00000000E+00  0.00000000E+00  0.00000000E+00
  0.00000000E+00  0.00000000E+00  0.00000000E+00
  0.00000000E+00  0.00000000E+00  0.00000000E+00
  0.00000000E+00  0.00000000E+00  0.00000000E+00
  0.00000000E+00  0.00000000E+00  0.00000000E+00
  0.00000000E+00  0.00000000E+00  0.00000000E+00
  0.00000000E+00  0.00000000E+00  0.00000000E+00
  0.00000000E+00  0.00000000E+00  0.00000000E+00
  0.00000000E+00  0.00000000E+00  0.00000000E+00
  0.00000000E+00  0.00000000E+00  0.00000000E+00
  0.00000000E+00  0.00000000E+00  0.00000000E+00
  0.00000000E+00  0.00000000E+00  0.00000000E+00
  0.00000000E+00  0.00000000E+00  0.00000000E+00
  0.00000000E+00  0.00000000E+00  0.00000000E+00
  0.00000000E+00  0.00000000E+00  0.00000000E+00
  0.00000000E+00  0.00000000E+00  0.00000000E+00
  0.00000000E+00  0.00000000E+00  0.00000000E+00
  0.00000000E+00  0.00000000E+00  0.00000000E+00
  0.00000000E+00  0.00000000E+00  0.00000000E+00
  0.00000000E+00  0.00000000E+00  0.00000000E+00
  0.00000000E+00  0.00000000E+00  0.00000000E+00
  0.00000000E+00  0.00000000E+00  0.00000000E+00
  0.00000000E+00  0.00000000E+00  0.00000000E+00
  0.00000000E+00  0.00000000E+00  0.00000000E+00
  0.00000000E+00  0.00000000E+00  0.00000000E+00
  0.00000000E+00  0.00000000E+00  0.00000000E+00
  0.00000000E+00  0.00000000E+00  0.00000000E+00
  0.00000000E+00  0.00000000E+00  0.00000000E+00
  0.00000000E+00  0.00000000E+00  0.00000000E+00
  0.00000000E+00  0.00000000E+00  0.00000000E+00
  0.00000000E+00  0.00000000E+00  0.00000000E+00
  0.00000000E+00  0.00000000E+00  0.00000000E+00
  0.00000000E+00  0.00000000E+00  0.00000000E+00
  0.00000000E+00  0.00000000E+00  0.00000000E+00
  0.00000000E+00  0.00000000E+00  0.00000000E+00
  0.00000000E+00  0.00000000E+00  0.00000000E+00
  0.00000000E+00  0.00000000E+00  0.00000000E+00
  0.00000000E+00  0.00000000E+00  0.00000000E+00
  0.00000000E+00  0.00000000E+00  0.00000000E+00
  0.00000000E+00  0.00000000E+00  0.00000000E+00
  0.00000000E+00  0.00000000E+00  0.00000000E+00
  0.00000000E+00  0.00000000E+00  0.00000000E+00
  0.00000000E+00  0.00000000E+00  0.00000000E+00
  0.00000000E+00  0.00000000E+00  0.00000000E+00
  0.00000000E+00  0.00000000E+00  0.00000000E+00
  0.00000000E+00  0.00000000E+00  0.00000000E+00
  0.00000000E+00  0.00000000E+00  0.00000000E+00
  0.00000000E+00  0.00000000E+00  0.00000000E+00
  0.00000000E+00  0.00000000E+00  0.00000000E+00
  0.00000000E+00  0.00000000E+00  0.00000000E+00
  0.00000000E+00  0.00000000E+00  0.00000000E+00
  0.00000000E+00  0.00000000E+00  0.00000000E+00
  0.00000000E+00  0.00000000E+00  0.00000000E+00
  0.00000000E+00  0.00000000E+00  0.00000000E+00
  0.00000000E+00  0.00000000E+00  0.00000000E+00
  0.00000000E+00  0.00000000E+00  0.00000000E+00
  0.00000000E+00  0.00000000E+00  0.00000000E+00
  0.00000000E+00  0.00000000E+00  0.00000000E+00
  0.00000000E+00  0.00000000E+00  0.00000000E+00
  0.00000000E+00  0.00000000E+00  0.00000000E+00
  0.00000000E+00  0.00000000E+00  0.00000000E+00
  0.00000000E+00  0.00000000E+00  0.00000000E+00
  0.00000000E+00  0.00000000E+00  0.00000000E+00
  0.00000000E+00  0.00000000E+00  0.00000000E+00
  0.00000000E+00  0.00000000E+00  0.00000000E+00
  0.00000000E+00  0.00000000E+00  0.00000000E+00
  0.00000000E+00  0.00000000E+00  0.00000000E+00
  0.00000000E+00  0.00000000E+00  0.00000000E+00
  0.00000000E+00  0.00000000E+00  0.00000000E+00
  0.00000000E+00  0.00000000E+00  0.00000000E+00
  0.00000000E+00  0.00000000E+00  0.00000000E+00
  0.00000000E+00  0.00000000E+00  0.00000000E+00
  0.00000000E+00  0.00000000E+00  0.00000000E+00
  0.00000000E+00  0.00000000E+00  0.00000000E+00
  0.00000000E+00  0.00000000E+00  0.00000000E+00
  0.00000000E+00  0.00000000E+00  0.00000000E+00
  0.00000000E+00  0.00000000E+00  0.00000000E+00
  0.00000000E+00  0.00000000E+00  0.00000000E+00
  0.00000000E+00  0.00000000E+00  0.00000000E+00
  0.00000000E+00  0.00000000E+00  0.00000000E+00
  0.00000000E+00  0.00000000E+00  0.00000000E+00
  0.00000000E+00  0.00000000E+00  0.00000000E+00
  0.00000000E+00  0.00000000E+00  0.00000000E+00
  0.00000000E+00  0.00000000E+00  0.00000000E+00
  0.00000000E+00  0.00000000E+00  0.00000000E+00
  0.00000000E+00  0.00000000E+00  0.00000000E+00
  0.00000000E+00  0.00000000E+00  0.00000000E+00
  0.00000000E+00  0.00000000E+00  0.00000000E+00
  0.00000000E+00  0.00000000E+00  0.00000000E+00
  0.00000000E+00  0.00000000E+00  0.00000000E+00
  0.00000000E+00  0.00000000E+00  0.00000000E+00
  0.00000000E+00  0.00000000E+00  0.00000000E+00
  0.00000000E+00  0.00000000E+00  0.00000000E+00
  0.00000000E+00  0.00000000E+00  0.00000000E+00
  0.00000000E+00  0.00000000E+00  0.00000000E+00
  0.00000000E+00  0.00000000E+00  0.00000000E+00
  0.00000000E+00  0.00000000E+00  0.00000000E+00
  0.00000000E+00  0.00000000E+00  0.00000000E+00
  0.00000000E+00  0.00000000E+00  0.00000000E+00
  0.00000000E+00  0.00000000E+00  0.00000000E+00
  0.00000000E+00  0.00000000E+00  0.00000000E+00
  0.00000000E+00  0.00000000E+00  0.00000000E+00
  0.00000000E+00  0.00000000E+00  0.00000000E+00
  0.00000000E+00  0.00000000E+00  0.00000000E+00
  0.00000000E+00  0.00000000E+00  0.00000000E+00
  0.00000000E+00  0.00000000E+00  0.00000000E+00
  0.00000000E+00  0.00000000E+00  0.00000000E+00
  0.00000000E+00  0.00000000E+00  0.00000000E+00
  0.00000000E+00  0.00000000E+00  0.00000000E+00
  0.00000000E+00  0.00000000E+00  0.00000000E+00
  0.00000000E+00  0.00000000E+00  0.00000000E+00
  0.00000000E+00  0.00000000E+00  0.00000000E+00
  0.00000000E+00  0.00000000E+00  0.00000000E+00
  0.00000000E+00  0.00000000E+00  0.00000000E+00
  0.00000000E+00  0.00000000E+00  0.00000000E+00
  0.00000000E+00  0.00000000E+00  0.00000000E+00
  0.00000000E+00  0.00000000E+00  0.00000000E+00
  0.00000000E+00  0.00000000E+00  0.00000000E+00
  0.00000000E+00  0.00000000E+00  0.00000000E+00
  0.00000000E+00  0.00000000E+00  0.00000000E+00
  0.00000000E+00  0.00000000E+00  0.00000000E+00
  0.00000000E+00  0.00000000E+00  0.00000000E+00
  0.00000000E+00  0.00000000E+00  0.00000000E+00
  0.00000000E+00  0.00000000E+00  0.00000000E+00
  0.00000000E+00  0.00000000E+00  0.00000000E+00
  0.00000000E+00  0.00000000E+00  0.00000000E+00
  0.00000000E+00  0.00000000E+00  0.00000000E+00
  0.00000000E+00  0.00000000E+00  0.00000000E+00
  0.00000000E+00  0.00000000E+00  0.00000000E+00
  0.00000000E+00  0.00000000E+00  0.00000000E+00
  0.00000000E+00  0.00000000E+00  0.00000000E+00
  0.00000000E+00  0.00000000E+00  0.00000000E+00
  0.00000000E+00  0.00000000E+00  0.00000000E+00
  0.00000000E+00  0.00000000E+00  0.00000000E+00
  0.00000000E+00  0.00000000E+00  0.00000000E+00
  0.00000000E+00  0.00000000E+00  0.00000000E+00
  0.00000000E+00  0.00000000E+00  0.00000000E+00
  0.00000000E+00  0.00000000E+00  0.00000000E+00
  0.00000000E+00  0.00000000E+00  0.00000000E+00
  0.00000000E+00  0.00000000E+00  0.00000000E+00
  0.00000000E+00  0.00000000E+00  0.00000000E+00
  0.00000000E+00  0.00000000E+00  0.00000000E+00
  0.00000000E+00  0.00000000E+00  0.00000000E+00
  0.00000000E+00  0.00000000E+00  0.00000000E+00
  0.00000000E+00  0.00000000E+00  0.00000000E+00
  0.00000000E+00  0.00000000E+00  0.00000000E+00
  0.00000000E+00  0.00000000E+00  0.00000000E+00
  0.00000000E+00  0.00000000E+00  0.00000000E+00
  0.00000000E+00  0.00000000E+00  0.00000000E+00
  0.00000000E+00  0.00000000E+00  0.00000000E+00
  0.00000000E+00  0.00000000E+00  0.00000000E+00
  0.00000000E+00  0.00000000E+00  0.00000000E+00
  0.00000000E+00  0.00000000E+00  0.00000000E+00
  0.00000000E+00  0.00000000E+00  0.00000000E+00
  0.00000000E+00  0.00000000E+00  0.00000000E+00
  0.00000000E+00  0.00000000E+00  0.00000000E+00
  0.00000000E+00  0.00000000E+00  0.00000000E+00
  0.00000000E+00  0.00000000E+00  0.00000000E+00
  0.00000000E+00  0.00000000E+00  0.00000000E+00
  0.00000000E+00  0.00000000E+00  0.00000000E+00
  0.00000000E+00  0.00000000E+00  0.00000000E+00
  0.00000000E+00  0.00000000E+00  0.00000000E+00
  0.00000000E+00  0.00000000E+00  0.00000000E+00
  0.00000000E+00  0.00000000E+00  0.00000000E+00
  0.00000000E+00  0.00000000E+00  0.00000000E+00
  0.00000000E+00  0.00000000E+00  0.00000000E+00
  0.00000000E+00  0.00000000E+00  0.00000000E+00
  0.00000000E+00  0.00000000E+00  0.00000000E+00
  0.00000000E+00  0.00000000E+00  0.00000000E+00
  0.00000000E+00  0.00000000E+00  0.00000000E+00
  0.00000000E+00  0.00000000E+00  0.00000000E+00
  0.00000000E+00  0.00000000E+00  0.00000000E+00
  0.00000000E+00  0.00000000E+00  0.00000000E+00
  0.00000000E+00  0.00000000E+00  0.00000000E+00
  0.00000000E+00  0.00000000E+00  0.00000000E+00
  0.00000000E+00  0.00000000E+00  0.00000000E+00
  0.00000000E+00  0.00000000E+00  0.00000000E+00
  0.00000000E+00  0.00000000E+00  0.00000000E+00
  0.00000000E+00  0.00000000E+00  0.00000000E+00
  0.00000000E+00  0.00000000E+00  0.00000000E+00
  0.00000000E+00  0.00000000E+00  0.00000000E+00
  0.00000000E+00  0.00000000E+00  0.00000000E+00
  0.00000000E+00  0.00000000E+00  0.00000000E+00
  0.00000000E+00  0.00000000E+00  0.00000000E+00
  0.00000000E+00  0.00000000E+00  0.00000000E+00
  0.00000000E+00  0.00000000E+00  0.00000000E+00
  0.00000000E+00  0.00000000E+00  0.00000000E+00
  0.00000000E+00  0.00000000E+00  0.00000000E+00
  0.00000000E+00  0.00000000E+00  0.00000000E+00
  0.00000000E+00  0.00000000E+00  0.00000000E+00
  0.00000000E+00  0.00000000E+00  0.00000000E+00
  0.00000000E+00  0.00000000E+00  0.00000000E+00
  0.00000000E+00  0.00000000E+00  0.00000000E+00
  0.00000000E+00  0.00000000E+00  0.00000000E+00
  0.00000000E+00  0.00000000E+00  0.00000000E+00
  0.00000000E+00  0.00000000E+00  0.00000000E+00
  0.00000000E+00  0.00000000E+00  0.00000000E+00
  0.00000000E+00  0.00000000E+00  0.00000000E+00
  0.00000000E+00  0.00000000E+00  0.00000000E+00
  0.00000000E+00  0.00000000E+00  0.00000000E+00
  0.00000000E+00  0.00000000E+00  0.00000000E+00
  0.00000000E+00  0.00000000E+00  0.00000000E+00
  0.00000000E+00  0.00000000E+00  0.00000000E+00
  0.00000000E+00  0.00000000E+00  0.00000000E+00
  0.00000000E+00  0.00000000E+00  0.00000000E+00
  0.00000000E+00  0.00000000E+00  0.00000000E+00
  0.00000000E+00  0.00000000E+00  0.00000000E+00
  0.00000000E+00  0.00000000E+00  0.00000000E+00
  0.00000000E+00  0.00000000E+00  0.00000000E+00
  0.00000000E+00  0.00000000E+00  0.00000000E+00
  0.00000000E+00  0.00000000E+00  0.00000000E+00
  0.00000000E+00  0.00000000E+00  0.00000000E+00
  0.00000000E+00  0.00000000E+00  0.00000000E+00
  0.00000000E+00  0.00000000E+00  0.00000000E+00
  0.00000000E+00  0.00000000E+00  0.00000000E+00
  0.00000000E+00  0.00000000E+00  0.00000000E+00
  0.00000000E+00  0.00000000E+00  0.00000000E+00
  0.00000000E+00  0.00000000E+00  0.00000000E+00
  0.00000000E+00  0.00000000E+00  0.00000000E+00
  0.00000000E+00  0.00000000E+00  0.00000000E+00
  0.00000000E+00  0.00000000E+00  0.00000000E+00
  0.00000000E+00  0.00000000E+00  0.00000000E+00
  0.00000000E+00  0.00000000E+00  0.00000000E+00
  0.00000000E+00  0.00000000E+00  0.00000000E+00
  0.00000000E+00  0.00000000E+00  0.00000000E+00
  0.00000000E+00  0.00000000E+00  0.00000000E+00
  0.00000000E+00  0.00000000E+00  0.00000000E+00
  0.00000000E+00  0.00000000E+00  0.00000000E+00
  0.00000000E+00  0.00000000E+00  0.00000000E+00
  0.00000000E+00  0.00000000E+00  0.00000000E+00
  0.00000000E+00  0.00000000E+00  0.00000000E+00
  0.00000000E+00  0.00000000E+00  0.00000000E+00