Species order: X N B                    
   2.51242800000000     
     5.9449720136058266    0.0000000000000000    0.0000000000000000
    -2.9724860068029120    5.1484967885702053   -0.0000000000000001
     0.0000000000000000    0.0000000000000009    5.3101128803662583
   Se   N    B 
     1   143   144
Direct
  0.5555555555555571  0.4444444444444429  0.3750000000000000
  0.1110879265015284  0.0555480182357612  0.1249812946216245
  0.6111458228904478  0.5556249791142244  0.1231049184925505
  0.4444602961206597  0.0555876922043714  0.1251690677552177
  0.9444123077956282  0.5555397038793392  0.1251690677552177
  0.7777843315917049  0.0555588324625191  0.1248044041198301
  0.1110892980034670  0.7222113156683972  0.6250153052106910
  0.4444602961206597  0.7222059372496227  0.6248309322447817
  0.2777275318177257  0.2222218173396203  0.6250758206747823
  0.7777781826603785  0.7222724681822764  0.6250758206747823
  0.6111609521885675  0.2222218173396203  0.6250758206747823
  0.9444411675374820  0.2222156684082977  0.6251955958801689
  0.2777886843316025  0.7222113156683972  0.1249846947893090
  0.1110416713748122  0.2221875023540702  0.1247984641605454
  0.4444688711461010  0.2222710756255387  0.1249336139133547
  0.6111609521885675  0.7222724681822764  0.1249241793252172
  0.9444123077956282  0.7222059372496227  0.1251690677552177
  0.7778124976459294  0.2221875023540702  0.1247984641605454
  0.1111083263674279  0.8888916736325710  0.6250971253467839
  0.4444500139318154  0.8888916736325710  0.6250971253467839
  0.2777275318177257  0.3888390478114337  0.6250758206747823
  0.6111458228904478  0.3888541771095521  0.6268950815074483
  0.7778124976459294  0.8889583286251868  0.6252015358394558
  0.9444519817642392  0.3888732415990949  0.6250187053783749
  0.1110879265015284  0.3888732415990949  0.1249812946216245
  0.2777886843316025  0.8889107019965335  0.1249846947893090
  0.6111267584009046  0.8889120734984711  0.1249812946216245
  0.4443750208857770  0.3888541771095521  0.1231049184925505
  0.9444519817642392  0.8889120734984711  0.1249812946216245
  0.7777781826603785  0.3888390478114337  0.1249241793252172
  0.2777940627503762  0.5555397038793392  0.6248309322447817
  0.1110879265015284  0.0555480182357612  0.6250187053783749
  0.6111458228904478  0.5556249791142244  0.6268950815074483
  0.4444602961206597  0.0555876922043714  0.6248309322447817
  0.9444123077956282  0.5555397038793392  0.6248309322447817
  0.1111083263674279  0.5555499860681836  0.1249028746532178
  0.7777843315917049  0.0555588324625191  0.6251955958801689
  0.2777940627503762  0.0555876922043714  0.1251690677552177
  0.4444688711461010  0.5555311288538985  0.1249336139133547
  0.7777289243744624  0.5555311288538985  0.1249336139133547
  0.6111267584009046  0.0555480182357612  0.1249812946216245
  0.4444688711461010  0.5555311288538985  0.6250663860866467
  0.9444411675374820  0.0555588324625191  0.1248044041198301
  0.2777886843316025  0.7222113156683972  0.6250153052106910
  0.1110416713748122  0.2221875023540702  0.6252015358394558
  0.4444688711461010  0.2222710756255387  0.6250663860866467
  0.6111609521885675  0.7222724681822764  0.6250758206747823
  0.9444123077956282  0.7222059372496227  0.6248309322447817
  0.7778124976459294  0.2221875023540702  0.6252015358394558
  0.1110892980034670  0.7222113156683972  0.1249846947893090
  0.4444602961206597  0.7222059372496227  0.1251690677552177
  0.2777275318177257  0.2222218173396203  0.1249241793252172
  0.7777781826603785  0.7222724681822764  0.1249241793252172
  0.6111609521885675  0.2222218173396203  0.1249241793252172
  0.9444411675374820  0.2222156684082977  0.1248044041198301
  0.1110879265015284  0.3888732415990949  0.6250187053783749
  0.2777886843316025  0.8889107019965335  0.6250153052106910
  0.6111267584009046  0.8889120734984711  0.6250187053783749
  0.4443750208857770  0.3888541771095521  0.6268950815074483
  0.9444519817642392  0.8889120734984711  0.6250187053783749
  0.1111083263674279  0.8888916736325710  0.1249028746532178
  0.7777781826603785  0.3888390478114337  0.6250758206747823
  0.4444500139318154  0.8888916736325710  0.1249028746532178
  0.2777275318177257  0.3888390478114337  0.1249241793252172
  0.2777940627503762  0.5555397038793392  0.1251690677552177
  0.6111458228904478  0.3888541771095521  0.1231049184925505
  0.7778124976459294  0.8889583286251868  0.1247984641605454
  0.9444519817642392  0.3888732415990949  0.1249812946216245
  0.1111083263674279  0.5555499860681836  0.6250971253467839
  0.2777940627503762  0.0555876922043714  0.6248309322447817
  0.7777289243744624  0.5555311288538985  0.6250663860866467
  0.6111267584009046  0.0555480182357612  0.6250187053783749
  0.9444411675374820  0.0555588324625191  0.6251955958801689
  0.0546395732471538  0.1105329458046312  0.3750000000000000
  0.5544173673666436  0.6196764710569889  0.3750000000000000
  0.3872029426193996  0.1077392185721422  0.3750000000000000
  0.8922607814278580  0.6127970573806010  0.3750000000000000
  0.7225600392241419  0.1105329458046312  0.3750000000000000
  0.0555448519175802  0.7777596397332429  0.8750000000000000
  0.3888814544823254  0.7777596397332429  0.8750000000000000
  0.2222360203973297  0.2777846768653323  0.8750000000000000
  0.7222153231346677  0.7777639796026712  0.8750000000000000
  0.5555676740481222  0.2777817591716180  0.8750000000000000
  0.8889090107943598  0.2777958178318997  0.8750000000000000
  0.2222222222222214  0.7777777777777786  0.3750000000000000
  0.0546395732471538  0.2774399607758593  0.3750000000000000
  0.3803235289430089  0.2680742296429893  0.3750000000000000
  0.5549669504053945  0.7812994952909302  0.3750000000000000
  0.8929992115521967  0.7812994952909302  0.3750000000000000
  0.7235924518319776  0.2764075481680222  0.3750000000000000
  0.0555530581412473  0.9444469418587527  0.8750000000000000
  0.3888814544823254  0.9444551480824190  0.8750000000000000
  0.2222243621843457  0.4444514792899690  0.8750000000000000
  0.5555555555555571  0.4444444444444429  0.8750000000000000
  0.7222041821680998  0.9444465262957974  0.8750000000000000
  0.8888937837722868  0.4444514792899690  0.8750000000000000
  0.0557648955902325  0.4448631245137927  0.3750000000000000
  0.2217233087466874  0.9431682274263827  0.3750000000000000
  0.5551368754862065  0.9442351044097669  0.3750000000000000
  0.3803235289430089  0.4455826326333555  0.3750000000000000
  0.8894670541953702  0.9453604267528457  0.3750000000000000
  0.7319257703570087  0.4455826326333555  0.3750000000000000
  0.2222403602667584  0.6111185455176733  0.8750000000000000
  0.0555534737042038  0.1110909892056398  0.8750000000000000
  0.5555676740481222  0.6111192482098369  0.8750000000000000
  0.3888850060225376  0.1111033453784176  0.8750000000000000
  0.8888966546215820  0.6111149939774635  0.8750000000000000
  0.0568317725736161  0.6118884146536391  0.3750000000000000
  0.7222041821680998  0.1110909892056398  0.8750000000000000
  0.2187005047090706  0.1070007884478026  0.3750000000000000
  0.3872029426193996  0.6127970573806010  0.3750000000000000
  0.7319257703570087  0.6196764710569889  0.3750000000000000
  0.5549669504053945  0.1070007884478026  0.3750000000000000
  0.3888850060225376  0.6111149939774635  0.8750000000000000
  0.8888888888888857  0.1111111111111143  0.3750000000000000
  0.2222222222222214  0.7777777777777786  0.8750000000000000
  0.0555534737042038  0.2777958178318997  0.8750000000000000
  0.3888807517901608  0.2777817591716180  0.8750000000000000
  0.5555485207100309  0.7777756378156525  0.8750000000000000
  0.8888937837722868  0.7777756378156525  0.8750000000000000
  0.7222153231346677  0.2777846768653323  0.8750000000000000
  0.0568317725736161  0.7782766912533134  0.3750000000000000
  0.3881115853463605  0.7782766912533134  0.3750000000000000
  0.2194817630027071  0.2764075481680222  0.3750000000000000
  0.7235924518319776  0.7805182369972914  0.3750000000000000
  0.5544173673666436  0.2680742296429893  0.3750000000000000
  0.8894670541953702  0.2774399607758593  0.3750000000000000
  0.0555530581412473  0.4444394496158225  0.8750000000000000
  0.2222403602667584  0.9444551480824190  0.8750000000000000
  0.5555605503841772  0.9444469418587527  0.8750000000000000
  0.3888807517901608  0.4444323259518789  0.8750000000000000
  0.8889090107943598  0.9444465262957974  0.8750000000000000
  0.0557648955902325  0.9442351044097669  0.3750000000000000
  0.7222182408283832  0.4444323259518789  0.8750000000000000
  0.3881115853463605  0.9431682274263827  0.3750000000000000
  0.2187005047090706  0.4450330495946035  0.3750000000000000
  0.2217233087466874  0.6118884146536391  0.3750000000000000
  0.7225600392241419  0.9453604267528457  0.3750000000000000
  0.8929992115521969  0.4450330495946035  0.3750000000000000
  0.0555448519175802  0.6111185455176733  0.8750000000000000
  0.2222243621843457  0.1111062162277124  0.8750000000000000
  0.7222182408283832  0.6111192482098369  0.8750000000000000
  0.5555485207100309  0.1111062162277124  0.8750000000000000
  0.8888888888888857  0.1111111111111143  0.8750000000000000
  0.1092747166797512  0.0540710000031663  0.3750000000000000
  0.6233399890132892  0.5800133113599040  0.3750000000000000
  0.4437758956925992  0.0534267573538971  0.3750000000000000
  0.9465732426461030  0.5562241043074012  0.3750000000000000
  0.7781810158515829  0.0557571745924590  0.3750000000000000
  0.1110115823175725  0.7221724578254515  0.8750000000000000
  0.4443676429864990  0.7221617577915992  0.8750000000000000
  0.2778485217016746  0.2223314138768878  0.8750000000000000
  0.7776685861231138  0.7221514782983262  0.8750000000000000
  0.6111495588418849  0.2223314138768878  0.8750000000000000
  0.9444934262199228  0.2223201857731829  0.8750000000000000
  0.2774427730846946  0.7225572269153043  0.3750000000000000
  0.1095733438629108  0.2214533385981198  0.3750000000000000
  0.4423302940366313  0.2179939214066008  0.3750000000000000
  0.6112379321894246  0.7280741161793282  0.3750000000000000
  0.9465732426461030  0.7236824716720363  0.3750000000000000
  0.7785466614018817  0.2214533385981198  0.3750000000000000
  0.1111117294052407  0.8888882705947604  0.8750000000000000
  0.4444432078561902  0.8888882705947604  0.8750000000000000
  0.2778485217016746  0.3888504411581164  0.8750000000000000
  0.6111411744546809  0.3888588255453173  0.8750000000000000
  0.7777685539175374  0.8888704411684056  0.8750000000000000
  0.9444841050523427  0.3888574133481368  0.8750000000000000
  0.1092747166797512  0.3885370500099135  0.3750000000000000
  0.2774427730846946  0.8882188795027178  0.3750000000000000
  0.6114629499900869  0.8907252833202483  0.3750000000000000
  0.4199866886400961  0.3766600109867123  0.3750000000000000
  0.9459289999968341  0.8907252833202483  0.3750000000000000
  0.7835028506565745  0.3887620678105752  0.3750000000000000
  0.2778382422084006  0.5556323570135000  0.8750000000000000
  0.1110399749624659  0.0555158949476576  0.8750000000000000
  0.6111411744546809  0.5556156822426940  0.8750000000000000
  0.4443676429864990  0.0555392185282349  0.8750000000000000
  0.9444607814717664  0.5556323570135000  0.8750000000000000
  0.1112391558728721  0.5558116450790707  0.3750000000000000
  0.7776798142268164  0.0555065737800765  0.8750000000000000
  0.2763175283279633  0.0534267573538971  0.3750000000000000
  0.4423302940366313  0.5576697059633668  0.3750000000000000
  0.7820060785934017  0.5576697059633668  0.3750000000000000
  0.6114629499900869  0.0540710000031663  0.3750000000000000
  0.4444628600766550  0.5555371399233446  0.8750000000000000
  0.9442428254075410  0.0557571745924590  0.3750000000000000
  0.2778275421745499  0.7221724578254515  0.8750000000000000
  0.1111295588315951  0.2222314460824623  0.8750000000000000
  0.4444628600766550  0.2222590534866456  0.8750000000000000
  0.6111495588418849  0.7221514782983262  0.8750000000000000
  0.9444607814717664  0.7221617577915992  0.8750000000000000
  0.7777685539175374  0.2222314460824623  0.8750000000000000
  0.1117811204972834  0.7225572269153043  0.3750000000000000
  0.4437758956925992  0.7236824716720363  0.3750000000000000
  0.2719258838206732  0.2164971493434256  0.3750000000000000
  0.7835028506565745  0.7280741161793282  0.3750000000000000
  0.6112379321894246  0.2164971493434256  0.3750000000000000
  0.9442428254075410  0.2218189841484179  0.3750000000000000
  0.1110399749624659  0.3888574133481368  0.8750000000000000
  0.2778275421745499  0.8889884176824283  0.8750000000000000
  0.6111425866518625  0.8889600250375334  0.8750000000000000
  0.4443843177573065  0.3888588255453173  0.8750000000000000
  0.9444841050523427  0.8889600250375334  0.8750000000000000
  0.1112391558728721  0.8887608441271279  0.3750000000000000
  0.7776685861231138  0.3888504411581164  0.8750000000000000
  0.4441883549209277  0.8887608441271279  0.3750000000000000
  0.2719258838206732  0.3887620678105752  0.3750000000000000
  0.2763175283279633  0.5562241043074012  0.3750000000000000
  0.6233399890132892  0.3766600109867123  0.3750000000000000
  0.7785466614018817  0.8904266561370899  0.3750000000000000
  0.9459289999968341  0.3885370500099135  0.3750000000000000
  0.1111117294052407  0.5555567921438109  0.8750000000000000
  0.2778382422084006  0.0555392185282349  0.8750000000000000
  0.7777409465133543  0.5555371399233446  0.8750000000000000
  0.6111425866518625  0.0555158949476576  0.8750000000000000
  0.9444934262199228  0.0555065737800765  0.8750000000000000
  0.0555161312422416  0.1110823471624734  0.1249793186834696
  0.5556568257091328  0.6110770113289252  0.1246815541485489
  0.3889432011388985  0.1112197356111395  0.1253536303290394
  0.8887802643888603  0.6110567988611018  0.1253536303290394
  0.7222328825868957  0.1110823471624734  0.1249793186834696
  0.0554633953553094  0.7776996009323317  0.6249070886632074
  0.3889028722436892  0.7776996009323317  0.6249070886632074
  0.2222846169742744  0.2778089751538056  0.6249422560863058
  0.7221910248461948  0.7777153830257245  0.6249422560863058
  0.5556568257091328  0.2779131477135441  0.6253184458514491
  0.8889176528375252  0.2777671174131036  0.6250206813165299
  0.2222222222222214  0.7777777777777786  0.1250538369590349
  0.0555161312422416  0.2777671174131036  0.1249793186834696
  0.3889229886710773  0.2779131477135441  0.1246815541485489
  0.5556158100596343  0.7777417696036509  0.1252155668431642
  0.8887926262106797  0.7777417696036509  0.1252155668431642
  0.7221910248461948  0.2778089751538056  0.1250577439136938
  0.0555084176198811  0.9444915823801191  0.6249595856352179
  0.3889028722436892  0.9445366046446922  0.6249070886632074
  0.2222582303963496  0.4443841899403648  0.6247844331568360
  0.5555555555555571  0.4444444444444429  0.6261849114836333
  0.7222328825868957  0.9444838687577575  0.6250206813165299
  0.8887926262106797  0.4443841899403648  0.6247844331568360
  0.0555084176198811  0.4443501685730914  0.1250404143647817
  0.2223003990676657  0.9445366046446922  0.1250929113367917
  0.5556498314269105  0.9444915823801191  0.1250404143647817
  0.3889229886710773  0.4443431742908672  0.1246815541485489
  0.8889176528375252  0.9444838687577575  0.1249793186834696
  0.7220868522864550  0.4443431742908672  0.1246815541485489
  0.2223003990676657  0.6110971277563131  0.6249070886632074
  0.0555161312422416  0.1110823471624734  0.6250206813165299
  0.5556568257091328  0.6110770113289252  0.6253184458514491
  0.3889432011388985  0.1112197356111395  0.6246463696709603
  0.8887802643888603  0.6110567988611018  0.6246463696709603
  0.0554633953553094  0.6110971277563131  0.1250929113367917
  0.7222328825868957  0.1110823471624734  0.6250206813165299
  0.2222582303963496  0.1112073737893208  0.1252155668431642
  0.3889432011388985  0.6110567988611018  0.1253536303290394
  0.7220868522864550  0.6110770113289252  0.1246815541485489
  0.5556158100596343  0.1112073737893208  0.1252155668431642
  0.3889432011388985  0.6110567988611018  0.6246463696709603
  0.8888888888888857  0.1111111111111143  0.1249365274108762
  0.2222222222222214  0.7777777777777786  0.6249461630409676
  0.0555161312422416  0.2777671174131036  0.6250206813165299
  0.3889229886710773  0.2779131477135441  0.6253184458514491
  0.5556158100596343  0.7777417696036509  0.6247844331568360
  0.8887926262106797  0.7777417696036509  0.6247844331568360
  0.7221910248461948  0.2778089751538056  0.6249422560863058
  0.0554633953553094  0.7776996009323317  0.1250929113367917
  0.3889028722436892  0.7776996009323317  0.1250929113367917
  0.2222846169742744  0.2778089751538056  0.1250577439136938
  0.7221910248461948  0.7777153830257245  0.1250577439136938
  0.5556568257091328  0.2779131477135441  0.1246815541485489
  0.8889176528375252  0.2777671174131036  0.1249793186834696
  0.0555084176198811  0.4443501685730914  0.6249595856352179
  0.2223003990676657  0.9445366046446922  0.6249070886632074
  0.5556498314269105  0.9444915823801191  0.6249595856352179
  0.3889229886710773  0.4443431742908672  0.6253184458514491
  0.8889176528375252  0.9444838687577575  0.6250206813165299
  0.0555084176198811  0.9444915823801191  0.1250404143647817
  0.7220868522864550  0.4443431742908672  0.6253184458514491
  0.3889028722436892  0.9445366046446922  0.1250929113367917
  0.2222582303963496  0.4443841899403648  0.1252155668431642
  0.2223003990676657  0.6110971277563131  0.1250929113367917
  0.5555555555555571  0.4444444444444429  0.1238150885163670
  0.7222328825868957  0.9444838687577575  0.1249793186834696
  0.8887926262106797  0.4443841899403648  0.1252155668431642
  0.0554633953553094  0.6110971277563131  0.6249070886632074
  0.2222582303963496  0.1112073737893208  0.6247844331568360
  0.7220868522864550  0.6110770113289252  0.6253184458514491
  0.5556158100596343  0.1112073737893208  0.6247844331568360
  0.8888888888888857  0.1111111111111143  0.6250634725891252
 
  0.00000000E+00  0.00000000E+00  0.00000000E+00
  0.00000000E+00  0.00000000E+00  0.00000000E+00
  0.00000000E+00  0.00000000E+00  0.00000000E+00
  0.00000000E+00  0.00000000E+00  0.00000000E+00
  0.00000000E+00  0.00000000E+00  0.00000000E+00
  0.00000000E+00  0.00000000E+00  0.00000000E+00
  0.00000000E+00  0.00000000E+00  0.00000000E+00
  0.00000000E+00  0.00000000E+00  0.00000000E+00
  0.00000000E+00  0.00000000E+00  0.00000000E+00
  0.00000000E+00  0.00000000E+00  0.00000000E+00
  0.00000000E+00  0.00000000E+00  0.00000000E+00
  0.00000000E+00  0.00000000E+00  0.00000000E+00
  0.00000000E+00  0.00000000E+00  0.00000000E+00
  0.00000000E+00  0.00000000E+00  0.00000000E+00
  0.00000000E+00  0.00000000E+00  0.00000000E+00
  0.00000000E+00  0.00000000E+00  0.00000000E+00
  0.00000000E+00  0.00000000E+00  0.00000000E+00
  0.00000000E+00  0.00000000E+00  0.00000000E+00
  0.00000000E+00  0.00000000E+00  0.00000000E+00
  0.00000000E+00  0.00000000E+00  0.00000000E+00
  0.00000000E+00  0.00000000E+00  0.00000000E+00
  0.00000000E+00  0.00000000E+00  0.00000000E+00
  0.00000000E+00  0.00000000E+00  0.00000000E+00
  0.00000000E+00  0.00000000E+00  0.00000000E+00
  0.00000000E+00  0.00000000E+00  0.00000000E+00
  0.00000000E+00  0.00000000E+00  0.00000000E+00
  0.00000000E+00  0.00000000E+00  0.00000000E+00
  0.00000000E+00  0.00000000E+00  0.00000000E+00
  0.00000000E+00  0.00000000E+00  0.00000000E+00
  0.00000000E+00  0.00000000E+00  0.00000000E+00
  0.00000000E+00  0.00000000E+00  0.00000000E+00
  0.00000000E+00  0.00000000E+00  0.00000000E+00
  0.00000000E+00  0.00000000E+00  0.00000000E+00
  0.00000000E+00  0.00000000E+00  0.00000000E+00
  0.00000000E+00  0.00000000E+00  0.00000000E+00
  0.00000000E+00  0.00000000E+00  0.00000000E+00
  0.00000000E+00  0.00000000E+00  0.00000000E+00
  0.00000000E+00  0.00000000E+00  0.00000000E+00
  0.00000000E+00  0.00000000E+00  0.00000000E+00
  0.00000000E+00  0.00000000E+00  0.00000000E+00
  0.00000000E+00  0.00000000E+00  0.00000000E+00
  0.00000000E+00  0.00000000E+00  0.00000000E+00
  0.00000000E+00  0.00000000E+00  0.00000000E+00
  0.00000000E+00  0.00000000E+00  0.00000000E+00
  0.00000000E+00  0.00000000E+00  0.00000000E+00
  0.00000000E+00  0.00000000E+00  0.00000000E+00
  0.00000000E+00  0.00000000E+00  0.00000000E+00
  0.00000000E+00  0.00000000E+00  0.00000000E+00
  0.00000000E+00  0.00000000E+00  0.00000000E+00
  0.00000000E+00  0.00000000E+00  0.00000000E+00
  0.00000000E+00  0.00000000E+00  0.00000000E+00
  0.00000000E+00  0.00000000E+00  0.00000000E+00
  0.00000000E+00  0.00000000E+00  0.00000000E+00
  0.00000000E+00  0.00000000E+00  0.00000000E+00
  0.00000000E+00  0.00000000E+00  0.00000000E+00
  0.00000000E+00  0.00000000E+00  0.00000000E+00
  0.00000000E+00  0.00000000E+00  0.00000000E+00
  0.00000000E+00  0.00000000E+00  0.00000000E+00
  0.00000000E+00  0.00000000E+00  0.00000000E+00
  0.00000000E+00  0.00000000E+00  0.00000000E+00
  0.00000000E+00  0.00000000E+00  0.00000000E+00
  0.00000000E+00  0.00000000E+00  0.00000000E+00
  0.00000000E+00  0.00000000E+00  0.00000000E+00
  0.00000000E+00  0.00000000E+00  0.00000000E+00
  0.00000000E+00  0.00000000E+00  0.00000000E+00
  0.00000000E+00  0.00000000E+00  0.00000000E+00
  0.00000000E+00  0.00000000E+00  0.00000000E+00
  0.00000000E+00  0.00000000E+00  0.00000000E+00
  0.00000000E+00  0.00000000E+00  0.00000000E+00
  0.00000000E+00  0.00000000E+00  0.00000000E+00
  0.00000000E+00  0.00000000E+00  0.00000000E+00
  0.00000000E+00  0.00000000E+00  0.00000000E+00
  0.00000000E+00  0.00000000E+00  0.00000000E+00
  0.00000000E+00  0.00000000E+00  0.00000000E+00
  0.00000000E+00  0.00000000E+00  0.00000000E+00
  0.00000000E+00  0.00000000E+00  0.00000000E+00
  0.00000000E+00  0.00000000E+00  0.00000000E+00
  0.00000000E+00  0.00000000E+00  0.00000000E+00
  0.00000000E+00  0.00000000E+00  0.00000000E+00
  0.00000000E+00  0.00000000E+00  0.00000000E+00
  0.00000000E+00  0.00000000E+00  0.00000000E+00
  0.00000000E+00  0.00000000E+00  0.00000000E+00
  0.00000000E+00  0.00000000E+00  0.00000000E+00
  0.00000000E+00  0.00000000E+00  0.00000000E+00
  0.00000000E+00  0.00000000E+00  0.00000000E+00
  0.00000000E+00  0.00000000E+00  0.00000000E+00
  0.00000000E+00  0.00000000E+00  0.00000000E+00
  0.00000000E+00  0.00000000E+00  0.00000000E+00
  0.00000000E+00  0.00000000E+00  0.00000000E+00
  0.00000000E+00  0.00000000E+00  0.00000000E+00
  0.00000000E+00  0.00000000E+00  0.00000000E+00
  0.00000000E+00  0.00000000E+00  0.00000000E+00
  0.00000000E+00  0.00000000E+00  0.00000000E+00
  0.00000000E+00  0.00000000E+00  0.00000000E+00
  0.00000000E+00  0.00000000E+00  0.00000000E+00
  0.00000000E+00  0.00000000E+00  0.00000000E+00
  0.00000000E+00  0.00000000E+00  0.00000000E+00
  0.00000000E+00  0.00000000E+00  0.00000000E+00
  0.00000000E+00  0.00000000E+00  0.00000000E+00
  0.00000000E+00  0.00000000E+00  0.00000000E+00
  0.00000000E+00  0.00000000E+00  0.00000000E+00
  0.00000000E+00  0.00000000E+00  0.00000000E+00
  0.00000000E+00  0.00000000E+00  0.00000000E+00
  0.00000000E+00  0.00000000E+00  0.00000000E+00
  0.00000000E+00  0.00000000E+00  0.00000000E+00
  0.00000000E+00  0.00000000E+00  0.00000000E+00
  0.00000000E+00  0.00000000E+00  0.00000000E+00
  0.00000000E+00  0.00000000E+00  0.00000000E+00
  0.00000000E+00  0.00000000E+00  0.00000000E+00
  0.00000000E+00  0.00000000E+00  0.00000000E+00
  0.00000000E+00  0.00000000E+00  0.00000000E+00
  0.00000000E+00  0.00000000E+00  0.00000000E+00
  0.00000000E+00  0.00000000E+00  0.00000000E+00
  0.00000000E+00  0.00000000E+00  0.00000000E+00
  0.00000000E+00  0.00000000E+00  0.00000000E+00
  0.00000000E+00  0.00000000E+00  0.00000000E+00
  0.00000000E+00  0.00000000E+00  0.00000000E+00
  0.00000000E+00  0.00000000E+00  0.00000000E+00
  0.00000000E+00  0.00000000E+00  0.00000000E+00
  0.00000000E+00  0.00000000E+00  0.00000000E+00
  0.00000000E+00  0.00000000E+00  0.00000000E+00
  0.00000000E+00  0.00000000E+00  0.00000000E+00
  0.00000000E+00  0.00000000E+00  0.00000000E+00
  0.00000000E+00  0.00000000E+00  0.00000000E+00
  0.00000000E+00  0.00000000E+00  0.00000000E+00
  0.00000000E+00  0.00000000E+00  0.00000000E+00
  0.00000000E+00  0.00000000E+00  0.00000000E+00
  0.00000000E+00  0.00000000E+00  0.00000000E+00
  0.00000000E+00  0.00000000E+00  0.00000000E+00
  0.00000000E+00  0.00000000E+00  0.00000000E+00
  0.00000000E+00  0.00000000E+00  0.00000000E+00
  0.00000000E+00  0.00000000E+00  0.00000000E+00
  0.00000000E+00  0.00000000E+00  0.00000000E+00
  0.00000000E+00  0.00000000E+00  0.00000000E+00
  0.00000000E+00  0.00000000E+00  0.00000000E+00
  0.00000000E+00  0.00000000E+00  0.00000000E+00
  0.00000000E+00  0.00000000E+00  0.00000000E+00
  0.00000000E+00  0.00000000E+00  0.00000000E+00
  0.00000000E+00  0.00000000E+00  0.00000000E+00
  0.00000000E+00  0.00000000E+00  0.00000000E+00
  0.00000000E+00  0.00000000E+00  0.00000000E+00
  0.00000000E+00  0.00000000E+00  0.00000000E+00
  0.00000000E+00  0.00000000E+00  0.00000000E+00
  0.00000000E+00  0.00000000E+00  0.00000000E+00
  0.00000000E+00  0.00000000E+00  0.00000000E+00
  0.00000000E+00  0.00000000E+00  0.00000000E+00
  0.00000000E+00  0.00000000E+00  0.00000000E+00
  0.00000000E+00  0.00000000E+00  0.00000000E+00
  0.00000000E+00  0.00000000E+00  0.00000000E+00
  0.00000000E+00  0.00000000E+00  0.00000000E+00
  0.00000000E+00  0.00000000E+00  0.00000000E+00
  0.00000000E+00  0.00000000E+00  0.00000000E+00
  0.00000000E+00  0.00000000E+00  0.00000000E+00
  0.00000000E+00  0.00000000E+00  0.00000000E+00
  0.00000000E+00  0.00000000E+00  0.00000000E+00
  0.00000000E+00  0.00000000E+00  0.00000000E+00
  0.00000000E+00  0.00000000E+00  0.00000000E+00
  0.00000000E+00  0.00000000E+00  0.00000000E+00
  0.00000000E+00  0.00000000E+00  0.00000000E+00
  0.00000000E+00  0.00000000E+00  0.00000000E+00
  0.00000000E+00  0.00000000E+00  0.00000000E+00
  0.00000000E+00  0.00000000E+00  0.00000000E+00
  0.00000000E+00  0.00000000E+00  0.00000000E+00
  0.00000000E+00  0.00000000E+00  0.00000000E+00
  0.00000000E+00  0.00000000E+00  0.00000000E+00
  0.00000000E+00  0.00000000E+00  0.00000000E+00
  0.00000000E+00  0.00000000E+00  0.00000000E+00
  0.00000000E+00  0.00000000E+00  0.00000000E+00
  0.00000000E+00  0.00000000E+00  0.00000000E+00
  0.00000000E+00  0.00000000E+00  0.00000000E+00
  0.00000000E+00  0.00000000E+00  0.00000000E+00
  0.00000000E+00  0.00000000E+00  0.00000000E+00
  0.00000000E+00  0.00000000E+00  0.00000000E+00
  0.00000000E+00  0.00000000E+00  0.00000000E+00
  0.00000000E+00  0.00000000E+00  0.00000000E+00
  0.00000000E+00  0.00000000E+00  0.00000000E+00
  0.00000000E+00  0.00000000E+00  0.00000000E+00
  0.00000000E+00  0.00000000E+00  0.00000000E+00
  0.00000000E+00  0.00000000E+00  0.00000000E+00
  0.00000000E+00  0.00000000E+00  0.00000000E+00
  0.00000000E+00  0.00000000E+00  0.00000000E+00
  0.00000000E+00  0.00000000E+00  0.00000000E+00
  0.00000000E+00  0.00000000E+00  0.00000000E+00
  0.00000000E+00  0.00000000E+00  0.00000000E+00
  0.00000000E+00  0.00000000E+00  0.00000000E+00
  0.00000000E+00  0.00000000E+00  0.00000000E+00
  0.00000000E+00  0.00000000E+00  0.00000000E+00
  0.00000000E+00  0.00000000E+00  0.00000000E+00
  0.00000000E+00  0.00000000E+00  0.00000000E+00
  0.00000000E+00  0.00000000E+00  0.00000000E+00
  0.00000000E+00  0.00000000E+00  0.00000000E+00
  0.00000000E+00  0.00000000E+00  0.00000000E+00
  0.00000000E+00  0.00000000E+00  0.00000000E+00
  0.00000000E+00  0.00000000E+00  0.00000000E+00
  0.00000000E+00  0.00000000E+00  0.00000000E+00
  0.00000000E+00  0.00000000E+00  0.00000000E+00
  0.00000000E+00  0.00000000E+00  0.00000000E+00
  0.00000000E+00  0.00000000E+00  0.00000000E+00
  0.00000000E+00  0.00000000E+00  0.00000000E+00
  0.00000000E+00  0.00000000E+00  0.00000000E+00
  0.00000000E+00  0.00000000E+00  0.00000000E+00
  0.00000000E+00  0.00000000E+00  0.00000000E+00
  0.00000000E+00  0.00000000E+00  0.00000000E+00
  0.00000000E+00  0.00000000E+00  0.00000000E+00
  0.00000000E+00  0.00000000E+00  0.00000000E+00
  0.00000000E+00  0.00000000E+00  0.00000000E+00
  0.00000000E+00  0.00000000E+00  0.00000000E+00
  0.00000000E+00  0.00000000E+00  0.00000000E+00
  0.00000000E+00  0.00000000E+00  0.00000000E+00
  0.00000000E+00  0.00000000E+00  0.00000000E+00
  0.00000000E+00  0.00000000E+00  0.00000000E+00
  0.00000000E+00  0.00000000E+00  0.00000000E+00
  0.00000000E+00  0.00000000E+00  0.00000000E+00
  0.00000000E+00  0.00000000E+00  0.00000000E+00
  0.00000000E+00  0.00000000E+00  0.00000000E+00
  0.00000000E+00  0.00000000E+00  0.00000000E+00
  0.00000000E+00  0.00000000E+00  0.00000000E+00
  0.00000000E+00  0.00000000E+00  0.00000000E+00
  0.00000000E+00  0.00000000E+00  0.00000000E+00
  0.00000000E+00  0.00000000E+00  0.00000000E+00
  0.00000000E+00  0.00000000E+00  0.00000000E+00
  0.00000000E+00  0.00000000E+00  0.00000000E+00
  0.00000000E+00  0.00000000E+00  0.00000000E+00
  0.00000000E+00  0.00000000E+00  0.00000000E+00
  0.00000000E+00  0.00000000E+00  0.00000000E+00
  0.00000000E+00  0.00000000E+00  0.00000000E+00
  0.00000000E+00  0.00000000E+00  0.00000000E+00
  0.00000000E+00  0.00000000E+00  0.00000000E+00
  0.00000000E+00  0.00000000E+00  0.00000000E+00
  0.00000000E+00  0.00000000E+00  0.00000000E+00
  0.00000000E+00  0.00000000E+00  0.00000000E+00
  0.00000000E+00  0.00000000E+00  0.00000000E+00
  0.00000000E+00  0.00000000E+00  0.00000000E+00
  0.00000000E+00  0.00000000E+00  0.00000000E+00
  0.00000000E+00  0.00000000E+00  0.00000000E+00
  0.00000000E+00  0.00000000E+00  0.00000000E+00
  0.00000000E+00  0.00000000E+00  0.00000000E+00
  0.00000000E+00  0.00000000E+00  0.00000000E+00
  0.00000000E+00  0.00000000E+00  0.00000000E+00
  0.00000000E+00  0.00000000E+00  0.00000000E+00
  0.00000000E+00  0.00000000E+00  0.00000000E+00
  0.00000000E+00  0.00000000E+00  0.00000000E+00
  0.00000000E+00  0.00000000E+00  0.00000000E+00
  0.00000000E+00  0.00000000E+00  0.00000000E+00
  0.00000000E+00  0.00000000E+00  0.00000000E+00
  0.00000000E+00  0.00000000E+00  0.00000000E+00
  0.00000000E+00  0.00000000E+00  0.00000000E+00