Species order: X N B                    
   2.51242800000000     
     5.9449720136058266    0.0000000000000000    0.0000000000000000
    -2.9724860068029120    5.1484967885702053   -0.0000000000000001
     0.0000000000000000    0.0000000000000009    5.3101128803662583
   As   N    B 
     1   144   143
Direct
  0.4444444444444429  0.3888888888888857  0.3750000000000000
  0.1111526983926720  0.0556123344700215  0.1253958031148232
  0.6110155220511191  0.5554620604386311  0.1226973252911143
  0.4444596360773205  0.0556123344700215  0.1253958031148232
  0.9444187238313517  0.5555363575908689  0.1253536966339647
  0.7777777777777786  0.0555555555555571  0.1246684257065667
  0.1111111111111143  0.7222222222222214  0.6248034031909211
  0.4444596360773205  0.7221806349406239  0.6246041968851763
  0.2778712728947388  0.2223178112821969  0.6273026747089097
  0.7777209988633080  0.7221806349406239  0.6246041968851763
  0.6110969002933280  0.2222364330399580  0.6249630243382257
  0.9444420048298423  0.2222153282595992  0.6249027029932227
  0.2777969757425044  0.7222156995739458  0.1253536966339647
  0.1111395327465907  0.2222364330399658  0.1250369756617346
  0.4444465383874404  0.2223178112821969  0.1226973252911143
  0.6110969002933280  0.7221938005866750  0.1250369756617346
  0.9444187238313517  0.7222156995739458  0.1253536966339647
  0.7777733234297141  0.2222153282595992  0.1250972970067755
  0.1111176337594631  0.8889146095019769  0.6246463033659746
  0.4444611596378844  0.8888972464856810  0.6246013632601367
  0.2778712728947388  0.3888867949458882  0.6273026747089097
  0.6110155220511191  0.3888867949458882  0.6273026747089097
  0.7777733234297141  0.8888913285034863  0.6249027029932227
  0.9444360868476476  0.3888721736954442  0.6246013632601367
  0.1111526983926720  0.3888736972560081  0.1253958031148232
  0.2777969757425044  0.8889146095019769  0.1253536966339647
  0.6111180050738123  0.8888913285034863  0.1250972970067755
  0.4444444444444429  0.3888888888888857  0.1109849201193917
  0.9444360868476476  0.8888972464856810  0.1253986367398359
  0.7777209988633080  0.3888736972560081  0.1253958031148232
  0.2778040859878659  0.5555292473454302  0.6250029282445589
  0.1111526983926720  0.0556123344700215  0.6246041968851763
  0.6110155220511191  0.5554620604386311  0.6273026747089097
  0.4444596360773205  0.0556123344700215  0.6246041968851763
  0.9444187238313517  0.5555363575908689  0.6246463033659746
  0.1111176337594631  0.5555363575908689  0.1253536966339647
  0.7777777777777786  0.0555555555555571  0.6253315742933876
  0.2778040859878659  0.0556081719757616  0.1249970717553663
  0.4444465383874404  0.5554620604386311  0.1226973252911143
  0.7777251613576039  0.5555292473454302  0.1249970717553663
  0.6111180050738123  0.0555600099036191  0.1250972970067755
  0.4444465383874404  0.5554620604386311  0.6273026747089097
  0.9444420048298423  0.0555600099036191  0.1250972970067755
  0.2777969757425044  0.7222156995739458  0.6246463033659746
  0.1111395327465907  0.2222364330399580  0.6249630243382257
  0.4444465383874404  0.2223178112821969  0.6273026747089097
  0.6110969002933280  0.7221938005866750  0.6249630243382257
  0.9444187238313517  0.7222156995739458  0.6246463033659746
  0.7777733234297141  0.2222153282595992  0.6249027029932227
  0.1111111111111143  0.7222222222222214  0.1251965968091085
  0.4444596360773205  0.7221806349406239  0.1253958031148232
  0.2778712728947388  0.2223178112821969  0.1226973252911143
  0.7777209988633080  0.7221806349406239  0.1253958031148232
  0.6110969002933280  0.2222364330399658  0.1250369756617346
  0.9444420048298423  0.2222153282595992  0.1250972970067755
  0.1111526983926720  0.3888736972560081  0.6246041968851763
  0.2777969757425044  0.8889146095019769  0.6246463033659746
  0.6111180050738123  0.8888913285034863  0.6249027029932227
  0.4444444444444429  0.3888888888888857  0.6390150798805589
  0.9444360868476476  0.8888972464856810  0.6246013632601367
  0.1111176337594631  0.8889146095019769  0.1253536966339647
  0.7777209988633080  0.3888736972560081  0.6246041968851763
  0.4444611596378844  0.8888972464856810  0.1253986367398359
  0.2778712728947388  0.3888867949458882  0.1226973252911143
  0.2778040859878659  0.5555292473454302  0.1249970717553663
  0.6110155220511191  0.3888867949458882  0.1226973252911143
  0.7777733234297141  0.8888913285034863  0.1250972970067755
  0.9444360868476476  0.3888721736954349  0.1253986367398359
  0.1111176337594631  0.5555363575908689  0.6246463033659746
  0.2778040859878659  0.0556081719757616  0.6250029282445589
  0.7777251613576039  0.5555292473454302  0.6250029282445589
  0.6111180050738123  0.0555600099036191  0.6249027029932227
  0.9444420048298423  0.0555600099036191  0.6249027029932227
  0.0543895459478502  0.1103478462709639  0.3750000000000000
  0.5560039893697858  0.6120079787396314  0.3750000000000000
  0.3872947369758338  0.1033024993884727  0.3750000000000000
  0.8917409589741985  0.6125371461537382  0.3750000000000000
  0.7224357181793839  0.1108976151539631  0.3750000000000000
  0.0555583517443800  0.7777749815889841  0.8750000000000000
  0.3888796484513387  0.7777792502653779  0.8750000000000000
  0.2222177035813350  0.2777755184573452  0.8750000000000000
  0.7222274563744056  0.7777739603834506  0.8750000000000000
  0.5555578148760391  0.2777755184573452  0.8750000000000000
  0.8888939644140098  0.2777879288279320  0.8750000000000000
  0.2216479843884060  0.7774906588608974  0.3750000000000000
  0.0543895459478491  0.2773750330102228  0.3750000000000000
  0.3755556450799768  0.2511112901600009  0.3750000000000000
  0.5559583003231089  0.7789437873853992  0.3750000000000000
  0.8910794759869378  0.7794892026775869  0.3750000000000000
  0.7229854870623192  0.2773750330102228  0.3750000000000000
  0.0555540830679614  0.9444337315192701  0.8750000000000000
  0.3888796484513387  0.9444337315192701  0.8750000000000000
  0.2222078275623039  0.4444590753698129  0.8750000000000000
  0.5556236130571178  0.4444784731952232  0.8750000000000000
  0.7222195922861923  0.9444391845723262  0.8750000000000000
  0.8888996018140585  0.4444536848819899  0.8750000000000000
  0.0538441306557444  0.4449236066427222  0.3750000000000000
  0.2207961871795580  0.9415923743591301  0.3750000000000000
  0.5558853258370859  0.9446093295852867  0.3750000000000000
  0.3755556450799767  0.4577776882533518  0.3750000000000000
  0.8887240037480419  0.9446093295852867  0.3750000000000000
  0.7300308339448622  0.4460385963574948  0.3750000000000000
  0.2222120740668189  0.6111212592665343  0.8750000000000000
  0.0555593729498637  0.1111058769588742  0.8750000000000000
  0.5555578148760391  0.6111156297519811  0.8750000000000000
  0.3888742579635157  0.1110820855258479  0.8750000000000000
  0.8889091851997764  0.6111212592665343  0.8750000000000000
  0.0558426744724666  0.6116853489449523  0.3750000000000000
  0.7222195922861923  0.1111137410471678  0.8750000000000000
  0.2160077624126337  0.1033024993884727  0.3750000000000000
  0.3872947369758338  0.6173255709208144  0.3750000000000000
  0.7300308339448622  0.6173255709208144  0.3750000000000000
  0.5559583003231089  0.1103478462709569  0.3750000000000000
  0.3888742579635157  0.6111255057710062  0.8750000000000000
  0.8884618969746100  0.1108976151539631  0.3750000000000000
  0.2222166298445762  0.7777749815889841  0.8750000000000000
  0.0555593729498637  0.2777868293243187  0.8750000000000000
  0.3888548601381054  0.2777097202761405  0.8750000000000000
  0.5555465040090273  0.7777739603834506  0.8750000000000000
  0.8888996018140585  0.7777792502653779  0.8750000000000000
  0.7222274563744056  0.2777868293243187  0.8750000000000000
  0.0558426744724666  0.7774906588608974  0.3750000000000000
  0.3884097266906064  0.7794892026775869  0.3750000000000000
  0.2213253545937108  0.2773293439635200  0.3750000000000000
  0.7229854870623192  0.7789437873853992  0.3750000000000000
  0.5560039893697857  0.2773293439635200  0.3750000000000000
  0.8887240037480419  0.2774480074962781  0.3750000000000000
  0.0555540830679614  0.4444536848819899  0.8750000000000000
  0.2222120740668189  0.9444241481335522  0.8750000000000000
  0.5555454045055065  0.9444393689193188  0.8750000000000000
  0.3888548601381054  0.4444784731952232  0.8750000000000000
  0.8888939644140098  0.9444393689193188  0.8750000000000000
  0.0538441306557484  0.9422538573463908  0.3750000000000000
  0.7222512478074665  0.4444590753698129  0.8750000000000000
  0.3884097266906064  0.9422538573463908  0.3750000000000000
  0.2160077624126337  0.4460385963574948  0.3750000000000000
  0.2207961871795580  0.6125371461537382  0.3750000000000000
  0.5822220431733751  0.4577776882533518  0.3750000000000000
  0.7224357181793839  0.9448714363587186  0.3750000000000000
  0.8910794759869378  0.4449236066427222  0.3750000000000000
  0.0555583517443800  0.6111167034886713  0.8750000000000000
  0.2222078275623039  0.1110820855258479  0.8750000000000000
  0.7222512478074665  0.6111255057710062  0.8750000000000000
  0.5555465040090273  0.1111058769588742  0.8750000000000000
  0.8888941487610024  0.1111137410471678  0.8750000000000000
  0.1073804331277254  0.0519508998420152  0.3750000000000000
  0.6204354484834284  0.5628947795492338  0.3750000000000000
  0.4445704667142922  0.0519508998420152  0.3750000000000000
  0.9456462315487374  0.5559208446232308  0.3750000000000000
  0.7777777777777786  0.0555555555555571  0.3750000000000000
  0.1111111111111143  0.7222222222222214  0.8750000000000000
  0.4444224960352446  0.7221662242863314  0.8750000000000000
  0.2778717857423910  0.2222840190586637  0.8750000000000000
  0.7777437282511495  0.7221662242863314  0.8750000000000000
  0.6110627703033390  0.2222705630299850  0.8750000000000000
  0.9444851072732483  0.2222500694398704  0.8750000000000000
  0.2774124887101505  0.7230587202589327  0.3750000000000000
  0.1105329534158584  0.2219331433746005  0.3750000000000000
  0.4424593310658003  0.2128978848499037  0.3750000000000000
  0.6114001899587329  0.7228003799175114  0.3750000000000000
  0.9456462315487374  0.7230587202589327  0.3750000000000000
  0.7778302098906291  0.2217713196409887  0.3750000000000000
  0.1111234043723754  0.8889005431512366  0.8750000000000000
  0.4444241106746954  0.8888787220039878  0.8750000000000000
  0.2778717857423910  0.3889211000170630  0.8750000000000000
  0.6110493142746524  0.3889211000170630  0.8750000000000000
  0.7777649621665610  0.8888482260600803  0.8750000000000000
  0.9444546113293408  0.3889092226586332  0.8750000000000000
  0.1073804331277253  0.3887628666190364  0.3750000000000000
  0.2774124887101505  0.8876871017845912  0.3750000000000000
  0.6115620136923299  0.8893922235829511  0.3750000000000000
  0.9442801616033416  0.8890531717299870  0.3750000000000000
  0.7813824334913538  0.3887628666190364  0.3750000000000000
  0.2777983232451318  0.5555350100882510  0.8750000000000000
  0.1111671090470092  0.0555896050822061  0.8750000000000000
  0.6110493142746524  0.5554615475908623  0.8750000000000000
  0.4444224960352446  0.0555896050822061  0.8750000000000000
  0.9444327901820920  0.5555561945544267  0.8750000000000000
  0.1102746130744232  0.5559208446232308  0.3750000000000000
  0.7777777777777786  0.0555555555555571  0.8750000000000000
  0.2758003100499530  0.0516006200998993  0.3750000000000000
  0.4424593310658003  0.5628947795492338  0.3750000000000000
  0.7817327132334297  0.5575330232834048  0.3750000000000000
  0.6115620136923299  0.0555031234427349  0.3750000000000000
  0.4444122333162656  0.5554615475908623  0.8750000000000000
  0.9439411097503775  0.0555031234427349  0.3750000000000000
  0.2777771387789031  0.7222099289609555  0.8750000000000000
  0.1112077927266683  0.2222705630299850  0.8750000000000000
  0.4444122333162656  0.2222840190586637  0.8750000000000000
  0.6110627703033390  0.7221255406066499  0.8750000000000000
  0.9444327901820920  0.7222099289609555  0.8750000000000000
  0.7777649621665610  0.2222500694398704  0.8750000000000000
  0.1111111111111143  0.7222222222222214  0.3750000000000000
  0.4445704667142922  0.7259529002056058  0.3750000000000000
  0.2704385537841018  0.2128978848499037  0.3750000000000000
  0.7813824334913538  0.7259529002056058  0.3750000000000000
  0.6114001899587329  0.2219331433746005  0.3750000000000000
  0.9439411097503775  0.2217713196409887  0.3750000000000000
  0.1111671090470092  0.3889108372980840  0.8750000000000000
  0.2777771387789031  0.8889005431512366  0.8750000000000000
  0.6110832638934558  0.8888482260600803  0.8750000000000000
  0.4444444444444429  0.3888888888888857  0.8750000000000000
  0.9444546113293408  0.8888787220039878  0.8750000000000000
  0.1102746130744232  0.8876871017845912  0.3750000000000000
  0.7777437282511495  0.3889108372980840  0.8750000000000000
  0.4447730101265906  0.8890531717299870  0.3750000000000000
  0.2704385537841018  0.3908740022675284  0.3750000000000000
  0.2758003100499530  0.5575330232834048  0.3750000000000000
  0.6204354484834284  0.3908740022675283  0.3750000000000000
  0.7778302098906291  0.8893922235829511  0.3750000000000000
  0.9442801616033416  0.3885603232067380  0.3750000000000000
  0.1111234043723754  0.5555561945544267  0.8750000000000000
  0.2777983232451318  0.0555966464902641  0.8750000000000000
  0.7777366868430721  0.5555350100882510  0.8750000000000000
  0.6110832638934558  0.0555683711668125  0.8750000000000000
  0.9444851072732483  0.0555683711668125  0.8750000000000000
  0.0556595127461342  0.1112182515037335  0.1253954153254965
  0.5554139297527880  0.6108278595056804  0.1238322062138524
  0.3889885954389313  0.1114560936406501  0.1248659701917059
  0.8887140654006886  0.6110236993670686  0.1254530585564803
  0.7222077104975880  0.1111256228358138  0.1250360629417191
  0.0555287741095033  0.7778045592238281  0.6245761013271282
  0.3889489785562115  0.7777255592476806  0.6244183171280652
  0.2225054738276553  0.2779194035804955  0.6261677937860887
  0.7221150818296355  0.7776738205872198  0.6246045846745331
  0.5554139297527880  0.2779194035804955  0.6261677937860887
  0.8888778628117290  0.2777557256235047  0.6246581372491559
  0.2222757851143159  0.7778045592238281  0.1254238986729085
  0.0556595127461342  0.2777745945757457  0.1253954153254965
  0.3892056058206849  0.2784112116413697  0.1199786343203120
  0.5555587387575135  0.7776738205872198  0.1253954153254965
  0.8887765806914649  0.7777255592476806  0.1255816828718864
  0.7221150818296355  0.2777745945757457  0.1253954153254965
  0.0556077740856516  0.9445567526418637  0.6244183171280652
  0.3889489785562115  0.9445567526418637  0.6244183171280652
  0.2224674982017256  0.4443447378943973  0.6251340298082458
  0.5549221216919588  0.4441277275126437  0.6300213656796015
  0.7222077104975880  0.9444154209950573  0.6249639370583118
  0.8887765806914649  0.4443843547771171  0.6244183171280652
  0.0556077740856516  0.4443843547771171  0.1255816828718864
  0.2223096339663071  0.9446192679326399  0.1254530585564803
  0.5555776077098731  0.9444554705215996  0.1253418627508655
  0.3892056058206849  0.4441277275126437  0.1199786343203120
  0.8888778628117290  0.9444554705215996  0.1253418627508655
  0.7218772396926922  0.4443447378943973  0.1248659701917059
  0.2223096339663071  0.6110236993670686  0.6245469414434964
  0.0556595127461342  0.1112182515037335  0.6246045846745331
  0.5554139297527880  0.6108278595056804  0.6261677937860887
  0.3889885954389313  0.1114560936406501  0.6251340298082458
  0.8887140654006886  0.6110236993670686  0.6245469414434964
  0.0555287741095033  0.6110575482190033  0.1254238986729085
  0.7222077104975880  0.1111256228358138  0.6249639370583118
  0.2224674982017256  0.1114560936406501  0.1248659701917059
  0.3889885954389313  0.6108658351316060  0.1248659701917059
  0.7218772396926922  0.6108658351316060  0.1248659701917059
  0.5555587387575135  0.1112182515037335  0.1253954153254965
  0.3889885954389313  0.6108658351316060  0.6251340298082458
  0.8889179123382713  0.1111256228358138  0.1250360629417191
  0.2222757851143159  0.7778045592238281  0.6245761013271282
  0.0556595127461342  0.2777745945757457  0.6246045846745331
  0.3892056058206849  0.2784112116413697  0.6300213656796352
  0.5555587387575135  0.7776738205872198  0.6246045846745331
  0.8887765806914649  0.7777255592476806  0.6244183171280652
  0.7221150818296355  0.2777745945757457  0.6246045846745331
  0.0555287741095033  0.7778045592238281  0.1254238986729085
  0.3889489785562115  0.7777255592476806  0.1255816828718864
  0.2225054738276553  0.2779194035804955  0.1238322062138524
  0.7221150818296355  0.7776738205872198  0.1253954153254965
  0.5554139297527880  0.2779194035804955  0.1238322062138524
  0.8888778628117290  0.2777557256235047  0.1253418627508655
  0.0556077740856516  0.4443843547771171  0.6244183171280652
  0.2223096339663071  0.9446192679326399  0.6245469414434964
  0.5555776077098731  0.9444554705215996  0.6246581372491559
  0.3892056058206849  0.4441277275126437  0.6300213656796352
  0.8888778628117290  0.9444554705215996  0.6246581372491559
  0.0556077740856516  0.9445567526418637  0.1255816828718864
  0.7218772396926922  0.4443447378943973  0.6251340298082458
  0.3889489785562115  0.9445567526418637  0.1255816828718864
  0.2224674982017256  0.4443447378943973  0.1248659701917059
  0.2223096339663071  0.6110236993670686  0.1254530585564803
  0.5549221216919588  0.4441277275126437  0.1199786343203119
  0.7222077104975880  0.9444154209950573  0.1250360629417191
  0.8887765806914649  0.4443843547771171  0.1255816828718864
  0.0555287741095033  0.6110575482190033  0.6245761013271282
  0.2224674982017256  0.1114560936406501  0.6251340298082458
  0.7218772396926922  0.6108658351316060  0.6251340298082458
  0.5555587387575135  0.1112182515037335  0.6246045846745331
  0.8889179123382713  0.1111256228358138  0.6249639370583118
 
  0.00000000E+00  0.00000000E+00  0.00000000E+00
  0.00000000E+00  0.00000000E+00  0.00000000E+00
  0.00000000E+00  0.00000000E+00  0.00000000E+00
  0.00000000E+00  0.00000000E+00  0.00000000E+00
  0.00000000E+00  0.00000000E+00  0.00000000E+00
  0.00000000E+00  0.00000000E+00  0.00000000E+00
  0.00000000E+00  0.00000000E+00  0.00000000E+00
  0.00000000E+00  0.00000000E+00  0.00000000E+00
  0.00000000E+00  0.00000000E+00  0.00000000E+00
  0.00000000E+00  0.00000000E+00  0.00000000E+00
  0.00000000E+00  0.00000000E+00  0.00000000E+00
  0.00000000E+00  0.00000000E+00  0.00000000E+00
  0.00000000E+00  0.00000000E+00  0.00000000E+00
  0.00000000E+00  0.00000000E+00  0.00000000E+00
  0.00000000E+00  0.00000000E+00  0.00000000E+00
  0.00000000E+00  0.00000000E+00  0.00000000E+00
  0.00000000E+00  0.00000000E+00  0.00000000E+00
  0.00000000E+00  0.00000000E+00  0.00000000E+00
  0.00000000E+00  0.00000000E+00  0.00000000E+00
  0.00000000E+00  0.00000000E+00  0.00000000E+00
  0.00000000E+00  0.00000000E+00  0.00000000E+00
  0.00000000E+00  0.00000000E+00  0.00000000E+00
  0.00000000E+00  0.00000000E+00  0.00000000E+00
  0.00000000E+00  0.00000000E+00  0.00000000E+00
  0.00000000E+00  0.00000000E+00  0.00000000E+00
  0.00000000E+00  0.00000000E+00  0.00000000E+00
  0.00000000E+00  0.00000000E+00  0.00000000E+00
  0.00000000E+00  0.00000000E+00  0.00000000E+00
  0.00000000E+00  0.00000000E+00  0.00000000E+00
  0.00000000E+00  0.00000000E+00  0.00000000E+00
  0.00000000E+00  0.00000000E+00  0.00000000E+00
  0.00000000E+00  0.00000000E+00  0.00000000E+00
  0.00000000E+00  0.00000000E+00  0.00000000E+00
  0.00000000E+00  0.00000000E+00  0.00000000E+00
  0.00000000E+00  0.00000000E+00  0.00000000E+00
  0.00000000E+00  0.00000000E+00  0.00000000E+00
  0.00000000E+00  0.00000000E+00  0.00000000E+00
  0.00000000E+00  0.00000000E+00  0.00000000E+00
  0.00000000E+00  0.00000000E+00  0.00000000E+00
  0.00000000E+00  0.00000000E+00  0.00000000E+00
  0.00000000E+00  0.00000000E+00  0.00000000E+00
  0.00000000E+00  0.00000000E+00  0.00000000E+00
  0.00000000E+00  0.00000000E+00  0.00000000E+00
  0.00000000E+00  0.00000000E+00  0.00000000E+00
  0.00000000E+00  0.00000000E+00  0.00000000E+00
  0.00000000E+00  0.00000000E+00  0.00000000E+00
  0.00000000E+00  0.00000000E+00  0.00000000E+00
  0.00000000E+00  0.00000000E+00  0.00000000E+00
  0.00000000E+00  0.00000000E+00  0.00000000E+00
  0.00000000E+00  0.00000000E+00  0.00000000E+00
  0.00000000E+00  0.00000000E+00  0.00000000E+00
  0.00000000E+00  0.00000000E+00  0.00000000E+00
  0.00000000E+00  0.00000000E+00  0.00000000E+00
  0.00000000E+00  0.00000000E+00  0.00000000E+00
  0.00000000E+00  0.00000000E+00  0.00000000E+00
  0.00000000E+00  0.00000000E+00  0.00000000E+00
  0.00000000E+00  0.00000000E+00  0.00000000E+00
  0.00000000E+00  0.00000000E+00  0.00000000E+00
  0.00000000E+00  0.00000000E+00  0.00000000E+00
  0.00000000E+00  0.00000000E+00  0.00000000E+00
  0.00000000E+00  0.00000000E+00  0.00000000E+00
  0.00000000E+00  0.00000000E+00  0.00000000E+00
  0.00000000E+00  0.00000000E+00  0.00000000E+00
  0.00000000E+00  0.00000000E+00  0.00000000E+00
  0.00000000E+00  0.00000000E+00  0.00000000E+00
  0.00000000E+00  0.00000000E+00  0.00000000E+00
  0.00000000E+00  0.00000000E+00  0.00000000E+00
  0.00000000E+00  0.00000000E+00  0.00000000E+00
  0.00000000E+00  0.00000000E+00  0.00000000E+00
  0.00000000E+00  0.00000000E+00  0.00000000E+00
  0.00000000E+00  0.00000000E+00  0.00000000E+00
  0.00000000E+00  0.00000000E+00  0.00000000E+00
  0.00000000E+00  0.00000000E+00  0.00000000E+00
  0.00000000E+00  0.00000000E+00  0.00000000E+00
  0.00000000E+00  0.00000000E+00  0.00000000E+00
  0.00000000E+00  0.00000000E+00  0.00000000E+00
  0.00000000E+00  0.00000000E+00  0.00000000E+00
  0.00000000E+00  0.00000000E+00  0.00000000E+00
  0.00000000E+00  0.00000000E+00  0.00000000E+00
  0.00000000E+00  0.00000000E+00  0.00000000E+00
  0.00000000E+00  0.00000000E+00  0.00000000E+00
  0.00000000E+00  0.00000000E+00  0.00000000E+00
  0.00000000E+00  0.00000000E+00  0.00000000E+00
  0.00000000E+00  0.00000000E+00  0.00000000E+00
  0.00000000E+00  0.00000000E+00  0.00000000E+00
  0.00000000E+00  0.00000000E+00  0.00000000E+00
  0.00000000E+00  0.00000000E+00  0.00000000E+00
  0.00000000E+00  0.00000000E+00  0.00000000E+00
  0.00000000E+00  0.00000000E+00  0.00000000E+00
  0.00000000E+00  0.00000000E+00  0.00000000E+00
  0.00000000E+00  0.00000000E+00  0.00000000E+00
  0.00000000E+00  0.00000000E+00  0.00000000E+00
  0.00000000E+00  0.00000000E+00  0.00000000E+00
  0.00000000E+00  0.00000000E+00  0.00000000E+00
  0.00000000E+00  0.00000000E+00  0.00000000E+00
  0.00000000E+00  0.00000000E+00  0.00000000E+00
  0.00000000E+00  0.00000000E+00  0.00000000E+00
  0.00000000E+00  0.00000000E+00  0.00000000E+00
  0.00000000E+00  0.00000000E+00  0.00000000E+00
  0.00000000E+00  0.00000000E+00  0.00000000E+00
  0.00000000E+00  0.00000000E+00  0.00000000E+00
  0.00000000E+00  0.00000000E+00  0.00000000E+00
  0.00000000E+00  0.00000000E+00  0.00000000E+00
  0.00000000E+00  0.00000000E+00  0.00000000E+00
  0.00000000E+00  0.00000000E+00  0.00000000E+00
  0.00000000E+00  0.00000000E+00  0.00000000E+00
  0.00000000E+00  0.00000000E+00  0.00000000E+00
  0.00000000E+00  0.00000000E+00  0.00000000E+00
  0.00000000E+00  0.00000000E+00  0.00000000E+00
  0.00000000E+00  0.00000000E+00  0.00000000E+00
  0.00000000E+00  0.00000000E+00  0.00000000E+00
  0.00000000E+00  0.00000000E+00  0.00000000E+00
  0.00000000E+00  0.00000000E+00  0.00000000E+00
  0.00000000E+00  0.00000000E+00  0.00000000E+00
  0.00000000E+00  0.00000000E+00  0.00000000E+00
  0.00000000E+00  0.00000000E+00  0.00000000E+00
  0.00000000E+00  0.00000000E+00  0.00000000E+00
  0.00000000E+00  0.00000000E+00  0.00000000E+00
  0.00000000E+00  0.00000000E+00  0.00000000E+00
  0.00000000E+00  0.00000000E+00  0.00000000E+00
  0.00000000E+00  0.00000000E+00  0.00000000E+00
  0.00000000E+00  0.00000000E+00  0.00000000E+00
  0.00000000E+00  0.00000000E+00  0.00000000E+00
  0.00000000E+00  0.00000000E+00  0.00000000E+00
  0.00000000E+00  0.00000000E+00  0.00000000E+00
  0.00000000E+00  0.00000000E+00  0.00000000E+00
  0.00000000E+00  0.00000000E+00  0.00000000E+00
  0.00000000E+00  0.00000000E+00  0.00000000E+00
  0.00000000E+00  0.00000000E+00  0.00000000E+00
  0.00000000E+00  0.00000000E+00  0.00000000E+00
  0.00000000E+00  0.00000000E+00  0.00000000E+00
  0.00000000E+00  0.00000000E+00  0.00000000E+00
  0.00000000E+00  0.00000000E+00  0.00000000E+00
  0.00000000E+00  0.00000000E+00  0.00000000E+00
  0.00000000E+00  0.00000000E+00  0.00000000E+00
  0.00000000E+00  0.00000000E+00  0.00000000E+00
  0.00000000E+00  0.00000000E+00  0.00000000E+00
  0.00000000E+00  0.00000000E+00  0.00000000E+00
  0.00000000E+00  0.00000000E+00  0.00000000E+00
  0.00000000E+00  0.00000000E+00  0.00000000E+00
  0.00000000E+00  0.00000000E+00  0.00000000E+00
  0.00000000E+00  0.00000000E+00  0.00000000E+00
  0.00000000E+00  0.00000000E+00  0.00000000E+00
  0.00000000E+00  0.00000000E+00  0.00000000E+00
  0.00000000E+00  0.00000000E+00  0.00000000E+00
  0.00000000E+00  0.00000000E+00  0.00000000E+00
  0.00000000E+00  0.00000000E+00  0.00000000E+00
  0.00000000E+00  0.00000000E+00  0.00000000E+00
  0.00000000E+00  0.00000000E+00  0.00000000E+00
  0.00000000E+00  0.00000000E+00  0.00000000E+00
  0.00000000E+00  0.00000000E+00  0.00000000E+00
  0.00000000E+00  0.00000000E+00  0.00000000E+00
  0.00000000E+00  0.00000000E+00  0.00000000E+00
  0.00000000E+00  0.00000000E+00  0.00000000E+00
  0.00000000E+00  0.00000000E+00  0.00000000E+00
  0.00000000E+00  0.00000000E+00  0.00000000E+00
  0.00000000E+00  0.00000000E+00  0.00000000E+00
  0.00000000E+00  0.00000000E+00  0.00000000E+00
  0.00000000E+00  0.00000000E+00  0.00000000E+00
  0.00000000E+00  0.00000000E+00  0.00000000E+00
  0.00000000E+00  0.00000000E+00  0.00000000E+00
  0.00000000E+00  0.00000000E+00  0.00000000E+00
  0.00000000E+00  0.00000000E+00  0.00000000E+00
  0.00000000E+00  0.00000000E+00  0.00000000E+00
  0.00000000E+00  0.00000000E+00  0.00000000E+00
  0.00000000E+00  0.00000000E+00  0.00000000E+00
  0.00000000E+00  0.00000000E+00  0.00000000E+00
  0.00000000E+00  0.00000000E+00  0.00000000E+00
  0.00000000E+00  0.00000000E+00  0.00000000E+00
  0.00000000E+00  0.00000000E+00  0.00000000E+00
  0.00000000E+00  0.00000000E+00  0.00000000E+00
  0.00000000E+00  0.00000000E+00  0.00000000E+00
  0.00000000E+00  0.00000000E+00  0.00000000E+00
  0.00000000E+00  0.00000000E+00  0.00000000E+00
  0.00000000E+00  0.00000000E+00  0.00000000E+00
  0.00000000E+00  0.00000000E+00  0.00000000E+00
  0.00000000E+00  0.00000000E+00  0.00000000E+00
  0.00000000E+00  0.00000000E+00  0.00000000E+00
  0.00000000E+00  0.00000000E+00  0.00000000E+00
  0.00000000E+00  0.00000000E+00  0.00000000E+00
  0.00000000E+00  0.00000000E+00  0.00000000E+00
  0.00000000E+00  0.00000000E+00  0.00000000E+00
  0.00000000E+00  0.00000000E+00  0.00000000E+00
  0.00000000E+00  0.00000000E+00  0.00000000E+00
  0.00000000E+00  0.00000000E+00  0.00000000E+00
  0.00000000E+00  0.00000000E+00  0.00000000E+00
  0.00000000E+00  0.00000000E+00  0.00000000E+00
  0.00000000E+00  0.00000000E+00  0.00000000E+00
  0.00000000E+00  0.00000000E+00  0.00000000E+00
  0.00000000E+00  0.00000000E+00  0.00000000E+00
  0.00000000E+00  0.00000000E+00  0.00000000E+00
  0.00000000E+00  0.00000000E+00  0.00000000E+00
  0.00000000E+00  0.00000000E+00  0.00000000E+00
  0.00000000E+00  0.00000000E+00  0.00000000E+00
  0.00000000E+00  0.00000000E+00  0.00000000E+00
  0.00000000E+00  0.00000000E+00  0.00000000E+00
  0.00000000E+00  0.00000000E+00  0.00000000E+00
  0.00000000E+00  0.00000000E+00  0.00000000E+00
  0.00000000E+00  0.00000000E+00  0.00000000E+00
  0.00000000E+00  0.00000000E+00  0.00000000E+00
  0.00000000E+00  0.00000000E+00  0.00000000E+00
  0.00000000E+00  0.00000000E+00  0.00000000E+00
  0.00000000E+00  0.00000000E+00  0.00000000E+00
  0.00000000E+00  0.00000000E+00  0.00000000E+00
  0.00000000E+00  0.00000000E+00  0.00000000E+00
  0.00000000E+00  0.00000000E+00  0.00000000E+00
  0.00000000E+00  0.00000000E+00  0.00000000E+00
  0.00000000E+00  0.00000000E+00  0.00000000E+00
  0.00000000E+00  0.00000000E+00  0.00000000E+00
  0.00000000E+00  0.00000000E+00  0.00000000E+00
  0.00000000E+00  0.00000000E+00  0.00000000E+00
  0.00000000E+00  0.00000000E+00  0.00000000E+00
  0.00000000E+00  0.00000000E+00  0.00000000E+00
  0.00000000E+00  0.00000000E+00  0.00000000E+00
  0.00000000E+00  0.00000000E+00  0.00000000E+00
  0.00000000E+00  0.00000000E+00  0.00000000E+00
  0.00000000E+00  0.00000000E+00  0.00000000E+00
  0.00000000E+00  0.00000000E+00  0.00000000E+00
  0.00000000E+00  0.00000000E+00  0.00000000E+00
  0.00000000E+00  0.00000000E+00  0.00000000E+00
  0.00000000E+00  0.00000000E+00  0.00000000E+00
  0.00000000E+00  0.00000000E+00  0.00000000E+00
  0.00000000E+00  0.00000000E+00  0.00000000E+00
  0.00000000E+00  0.00000000E+00  0.00000000E+00
  0.00000000E+00  0.00000000E+00  0.00000000E+00
  0.00000000E+00  0.00000000E+00  0.00000000E+00
  0.00000000E+00  0.00000000E+00  0.00000000E+00
  0.00000000E+00  0.00000000E+00  0.00000000E+00
  0.00000000E+00  0.00000000E+00  0.00000000E+00
  0.00000000E+00  0.00000000E+00  0.00000000E+00
  0.00000000E+00  0.00000000E+00  0.00000000E+00
  0.00000000E+00  0.00000000E+00  0.00000000E+00
  0.00000000E+00  0.00000000E+00  0.00000000E+00
  0.00000000E+00  0.00000000E+00  0.00000000E+00
  0.00000000E+00  0.00000000E+00  0.00000000E+00
  0.00000000E+00  0.00000000E+00  0.00000000E+00
  0.00000000E+00  0.00000000E+00  0.00000000E+00
  0.00000000E+00  0.00000000E+00  0.00000000E+00
  0.00000000E+00  0.00000000E+00  0.00000000E+00
  0.00000000E+00  0.00000000E+00  0.00000000E+00
  0.00000000E+00  0.00000000E+00  0.00000000E+00
  0.00000000E+00  0.00000000E+00  0.00000000E+00
  0.00000000E+00  0.00000000E+00  0.00000000E+00
  0.00000000E+00  0.00000000E+00  0.00000000E+00
  0.00000000E+00  0.00000000E+00  0.00000000E+00
  0.00000000E+00  0.00000000E+00  0.00000000E+00
  0.00000000E+00  0.00000000E+00  0.00000000E+00