Species order: X N B                    
   2.51242800000000     
     5.9449720136058266    0.0000000000000000    0.0000000000000000
    -2.9724860068029120    5.1484967885702053   -0.0000000000000001
     0.0000000000000000    0.0000000000000009    5.3101128803662583
   Sb   N    B 
     1   143   144
Direct
  0.5555555555555571  0.4444444444444429  0.3750000000000000
  0.1110867692777810  0.0555443410842250  0.1249787474016841
  0.6111800447044414  0.5556934227422459  0.1220259405180867
  0.4444474923153084  0.0555631568049187  0.1249150407747775
  0.9444368431950178  0.5555525076846662  0.1249150407747775
  0.7777916322515025  0.0555624827924984  0.1250592008906505
  0.1111082804704084  0.7222208069017947  0.6244876799061836
  0.4444474923153013  0.7222176688437220  0.6250849592251890
  0.2777062529588723  0.2221716945942937  0.6263128615496447
  0.7778283054057479  0.7222937470410552  0.6263128615496447
  0.6111321083020810  0.2221716945942937  0.6263128615496447
  0.9444375172074121  0.2222083677483388  0.6249407991093913
  0.2777791930981084  0.7222208069017947  0.1255123200937664
  0.1110762324872833  0.2222047829103113  0.1246697554896065
  0.4444634181596995  0.2222601696527028  0.1234921243421210
  0.6111321083020810  0.7222937470410552  0.1236871384504684
  0.9444368431950178  0.7222176688437220  0.1249150407747775
  0.7777952170896920  0.2222047829103113  0.1246697554896065
  0.1111092185693003  0.8888907814307001  0.6245475216617287
  0.4444482295281018  0.8888907814307001  0.6245475216617287
  0.2777062529588723  0.3888678916978225  0.6263128615496447
  0.6111800447044343  0.3888199552955414  0.6279740594819675
  0.7777952170896920  0.8889237675126964  0.6253302445102771
  0.9444556589157174  0.3888757615268534  0.6250212525982931
  0.1110867692777810  0.3888757615268534  0.1249787474016841
  0.2777791930981084  0.8888917195295383  0.1255123200937664
  0.6111242384728633  0.8889132307221974  0.1249787474016841
  0.4443065772576486  0.3888199552955414  0.1220259405180867
  0.9444556589157174  0.8889132307221974  0.1249787474016841
  0.7778283054057479  0.3888678916978225  0.1236871384504684
  0.2777823311562236  0.5555525076846662  0.6250849592251890
  0.1110867692777810  0.0555443410842250  0.6250212525982931
  0.6111800447044414  0.5556934227422459  0.6279740594819675
  0.4444474923153084  0.0555631568049187  0.6250849592251890
  0.9444368431950178  0.5555525076846662  0.6250849592251890
  0.1111092185693003  0.5555517704717393  0.1254524783383701
  0.7777916322515025  0.0555624827924984  0.6249407991093913
  0.2777823311562236  0.0555631568049187  0.1249150407747775
  0.4444634181596924  0.5555365818403358  0.1234921243421210
  0.7777398303472723  0.5555365818403358  0.1234921243421210
  0.6111242384728633  0.0555443410842250  0.1249787474016841
  0.4444634181596995  0.5555365818403358  0.6265078756579492
  0.9444375172074121  0.0555624827924984  0.1250592008906505
  0.2777791930981084  0.7222208069017947  0.6244876799061836
  0.1110762324872833  0.2222047829103113  0.6253302445102771
  0.4444634181596924  0.2222601696527028  0.6265078756579492
  0.6111321083020810  0.7222937470410552  0.6263128615496447
  0.9444368431950178  0.7222176688437220  0.6250849592251890
  0.7777952170896920  0.2222047829103113  0.6253302445102771
  0.1111082804704084  0.7222208069017947  0.1255123200937664
  0.4444474923153084  0.7222176688437220  0.1249150407747775
  0.2777062529588723  0.2221716945943150  0.1236871384504684
  0.7778283054057479  0.7222937470410552  0.1236871384504755
  0.6111321083020810  0.2221716945942937  0.1236871384504684
  0.9444375172074121  0.2222083677483388  0.1250592008906505
  0.1110867692777810  0.3888757615268534  0.6250212525982931
  0.2777791930981084  0.8888917195295383  0.6244876799061836
  0.6111242384728633  0.8889132307221974  0.6250212525982931
  0.4443065772576486  0.3888199552955414  0.6279740594819675
  0.9444556589157174  0.8889132307221974  0.6250212525982931
  0.1111092185693003  0.8888907814307001  0.1254524783383701
  0.7778283054057479  0.3888678916978225  0.6263128615496447
  0.4444482295281018  0.8888907814307001  0.1254524783383701
  0.2777062529588723  0.3888678916978225  0.1236871384504755
  0.2777823311562236  0.5555525076846662  0.1249150407747775
  0.6111800447044343  0.3888199552955414  0.1220259405180867
  0.7777952170896920  0.8889237675126964  0.1246697554896065
  0.9444556589157174  0.3888757615268534  0.1249787474016841
  0.1111092185693003  0.5555517704717393  0.6245475216617287
  0.2777823311562236  0.0555631568049187  0.6250849592251890
  0.7777398303472723  0.5555365818403358  0.6265078756579492
  0.6111242384728633  0.0555443410842250  0.6250212525982931
  0.9444375172074121  0.0555624827924984  0.6249407991093913
  0.0540232826779245  0.1100785582157173  0.3750000000000000
  0.5561573235045134  0.6238518983185681  0.3750000000000000
  0.3871742679885513  0.1076818693104155  0.3750000000000000
  0.8923181306895618  0.6128257320116832  0.3750000000000000
  0.7227219422043972  0.1100785582157173  0.3750000000000000
  0.0555598429443521  0.7777810067992628  0.8750000000000000
  0.3888878305213493  0.7777810067992628  0.8750000000000000
  0.2222238238945615  0.2777785786139863  0.8750000000000000
  0.7222214213860013  0.7777761761053560  0.8750000000000000
  0.5555413675423545  0.2777665237177676  0.8750000000000000
  0.8888887549034216  0.2777785441052855  0.8750000000000000
  0.2222222222222214  0.7777777777777786  0.3750000000000000
  0.0540232826779245  0.2772780577955185  0.3750000000000000
  0.3761481016814625  0.2656387585191325  0.3750000000000000
  0.5550275336568868  0.7828405068680473  0.3750000000000000
  0.8944796398778861  0.7828405068680402  0.3750000000000000
  0.7247068014224370  0.2752931985775504  0.3750000000000000
  0.0555592404898474  0.9444407595102241  0.8750000000000000
  0.3888878305213493  0.9444401570556086  0.8750000000000000
  0.2222185151540499  0.4444486544561527  0.8750000000000000
  0.5555555555555571  0.4444444444444429  0.8750000000000000
  0.7222214558947736  0.9444435441313367  0.8750000000000000
  0.8888968059689139  0.4444486544561527  0.8750000000000000
  0.0557976719209970  0.4449286771753216  0.3750000000000000
  0.2216811758974660  0.9430468249742355  0.3750000000000000
  0.5550713228245815  0.9442023280791263  0.3750000000000000
  0.3761481016814625  0.4438426764955890  0.3750000000000000
  0.8899214417842977  0.9459767173220418  0.3750000000000000
  0.7343612414809639  0.4438426764955890  0.3750000000000000
  0.2222189932009574  0.6111121694785491  0.8750000000000000
  0.0555564558686325  0.1111112450966086  0.8750000000000000
  0.5555413675423545  0.6111081771578586  0.8750000000000000
  0.3888865160004137  0.1111063653342171  0.8750000000000000
  0.8888936346658297  0.6111134839996643  0.8750000000000000
  0.0569531750256744  0.6119676842564042  0.3750000000000000
  0.7222214558947736  0.1111112450966086  0.8750000000000000
  0.2171594931320270  0.1055203601221837  0.3750000000000000
  0.3871742679885513  0.6128257320116832  0.3750000000000000
  0.7343612414809639  0.6238518983185681  0.3750000000000000
  0.5550275336568868  0.1055203601221837  0.3750000000000000
  0.3888865160004137  0.6111134839996643  0.8750000000000000
  0.8888888888888857  0.1111111111111143  0.3750000000000000
  0.2222222222222214  0.7777777777777786  0.8750000000000000
  0.0555564558686325  0.2777785441052855  0.8750000000000000
  0.3888918228421740  0.2777665237177676  0.8750000000000000
  0.5555513455437016  0.7777814848458680  0.8750000000000000
  0.8888968059689139  0.7777814848458680  0.8750000000000000
  0.7222214213860013  0.2777785786139863  0.8750000000000000
  0.0569531750256744  0.7783188241025195  0.3750000000000000
  0.3880323157435762  0.7783188241025195  0.3750000000000000
  0.2172530638217213  0.2752931985775504  0.3750000000000000
  0.7247068014224370  0.7827469361782421  0.3750000000000000
  0.5561573235045205  0.2656387585191325  0.3750000000000000
  0.8899214417841840  0.2772780577955185  0.3750000000000000
  0.0555592404898474  0.4444518143130099  0.8750000000000000
  0.2222189932009574  0.9444401570556086  0.8750000000000000
  0.5555481856868904  0.9444407595102241  0.8750000000000000
  0.3888918228421740  0.4444586324576402  0.8750000000000000
  0.8888887549034216  0.9444435441313367  0.8750000000000000
  0.0557976719209970  0.9442023280791263  0.3750000000000000
  0.7222334762820249  0.4444586324576402  0.8750000000000000
  0.3880323157435762  0.9430468249742355  0.3750000000000000
  0.2171594931320270  0.4449724663431907  0.3750000000000000
  0.2216811758974660  0.6119676842563616  0.3750000000000000
  0.7227219422043972  0.9459767173220418  0.3750000000000000
  0.8944796398778861  0.4449724663431907  0.3750000000000000
  0.0555598429443521  0.6111121694785491  0.8750000000000000
  0.2222185151540499  0.1111031940311815  0.8750000000000000
  0.7222334762820249  0.6111081771578586  0.8750000000000000
  0.5555513455437016  0.1111031940311815  0.8750000000000000
  0.8888888888888857  0.1111111111111143  0.8750000000000000
  0.1080413274689018  0.0532145304362595  0.3750000000000000
  0.6293832587587360  0.5920998508504921  0.3750000000000000
  0.4435839544071157  0.0529218667089855  0.3750000000000000
  0.9470781332909619  0.5564160455929316  0.3750000000000000
  0.7784511285336497  0.0558922309334171  0.3750000000000000
  0.1111094050684367  0.7222213692007391  0.8750000000000000
  0.4444361532762178  0.7222285780520105  0.8750000000000000
  0.2777651483251385  0.2222116016575631  0.8750000000000000
  0.7777883983423765  0.7222348516748915  0.8750000000000000
  0.6111131199988680  0.2222116016575631  0.8750000000000000
  0.9444447971201960  0.2222229275736096  0.8750000000000000
  0.2774005983934162  0.7225994016065076  0.3750000000000000
  0.1075990027716279  0.2204661680524716  0.3750000000000000
  0.4420668825176551  0.2174670983686537  0.3750000000000000
  0.6129582466034968  0.7325793036996371  0.3750000000000000
  0.9470781332909619  0.7239954210314455  0.3750000000000000
  0.7795338319476844  0.2204661680524716  0.3750000000000000
  0.1111114706047333  0.8888885293952735  0.8750000000000000
  0.4444437254572309  0.8888885293952735  0.8750000000000000
  0.2777651483251385  0.3888868800008811  0.8750000000000000
  0.6111189967764310  0.3888810032236303  0.8750000000000000
  0.7777838499332596  0.8889010331998292  0.8750000000000000
  0.9444536476757884  0.3888860254292392  0.8750000000000000
  0.1080413274689231  0.3881601303659704  0.3750000000000000
  0.2774005983934162  0.8881345301201611  0.3750000000000000
  0.6118398696339223  0.8919586725311932  0.3750000000000000
  0.4079001491494466  0.3706167412414147  0.3750000000000000
  0.9467854695637556  0.8919586725311932  0.3750000000000000
  0.7862877237626450  0.3870417533965397  0.3750000000000000
  0.2777714219479192  0.5555638467236887  0.8750000000000000
  0.1110990444200732  0.0555463523241818  0.8750000000000000
  0.6111189967764310  0.5555713268860751  0.8750000000000000
  0.4444361532762178  0.0555409085574245  0.8750000000000000
  0.9444590914426815  0.5555638467236887  0.8750000000000000
  0.1113211208227008  0.5559755749786497  0.3750000000000000
  0.7777770724264355  0.0555552028798583  0.8750000000000000
  0.2760045789685461  0.0529218667089855  0.3750000000000000
  0.4420668825176551  0.5579331174823984  0.3750000000000000
  0.7825329016313540  0.5579331174823984  0.3750000000000000
  0.6118398696339223  0.0532145304362595  0.3750000000000000
  0.4444350777469640  0.5555649222530641  0.8750000000000000
  0.9441077690667194  0.0558922309334171  0.3750000000000000
  0.2777786307990783  0.7222213692007391  0.8750000000000000
  0.1110989668000270  0.2222161500666566  0.8750000000000000
  0.4444350777469640  0.2222034888273424  0.8750000000000000
  0.6111131199988680  0.7222348516748915  0.8750000000000000
  0.9444590914426815  0.7222285780520105  0.8750000000000000
  0.7777838499332596  0.2222161500666566  0.8750000000000000
  0.1118654698798240  0.7225994016065076  0.3750000000000000
  0.4435839544071157  0.7239954210314455  0.3750000000000000
  0.2674206963005006  0.2137122762372932  0.3750000000000000
  0.7862877237626450  0.7325793036996371  0.3750000000000000
  0.6129582466034968  0.2137122762372932  0.3750000000000000
  0.9441077690667194  0.2215488714664993  0.3750000000000000
  0.1110990444200732  0.3888860254292392  0.8750000000000000
  0.2777786307990783  0.8888905949314782  0.8750000000000000
  0.6111139745707169  0.8889009555799576  0.8750000000000000
  0.4444286731139414  0.3888810032236303  0.8750000000000000
  0.9444536476757884  0.8889009555799576  0.8750000000000000
  0.1113211208227008  0.8886788791773983  0.3750000000000000
  0.7777883983423765  0.3888868800008811  0.8750000000000000
  0.4440244250213454  0.8886788791773983  0.3750000000000000
  0.2674206963005220  0.3870417533965397  0.3750000000000000
  0.2760045789685461  0.5564160455929316  0.3750000000000000
  0.6293832587587360  0.3706167412414147  0.3750000000000000
  0.7795338319476844  0.8924009972283026  0.3750000000000000
  0.9467854695637556  0.3881601303659704  0.3750000000000000
  0.1111114706047333  0.5555562745428830  0.8750000000000000
  0.2777714219479192  0.0555409085574245  0.8750000000000000
  0.7777965111727363  0.5555649222530641  0.8750000000000000
  0.6111139745707169  0.0555463523241818  0.8750000000000000
  0.9444447971201960  0.0555552028798583  0.8750000000000000
  0.0555114168272833  0.1110699040367566  0.1249013161314430
  0.5556145683782185  0.6112526431718556  0.1227148048458168
  0.3888596915349845  0.1110527164031860  0.1244533709746493
  0.8889472835966882  0.6111403084648860  0.1244533709746493
  0.7222251538762471  0.1110699040367566  0.1249013161314430
  0.0555575244856038  0.7777665827998771  0.6246635831015347
  0.3888757249808479  0.7777665827998771  0.6246635831015347
  0.2221464159347683  0.2777398746339796  0.6261207971747873
  0.7222601253659726  0.7778535840653765  0.6261207971747873
  0.5556145683782185  0.2776952585395699  0.6272851951542501
  0.8889300959632410  0.2777748461238760  0.6250986838685610
  0.2222222222222214  0.7777777777777786  0.1255294151864840
  0.0555114168272833  0.2777748461238760  0.1249013161314430
  0.3887473568280103  0.2776952585395699  0.1227148048458168
  0.5555615804512603  0.7778312893205542  0.1244867207210546
  0.8889363755358821  0.7778312893205542  0.1244867207210546
  0.7222601253659726  0.2777398746339796  0.1238792028252817
  0.0555409061137776  0.9444590938862657  0.6248389764406037
  0.3888757249808479  0.9444424755144425  0.6246635831015347
  0.2221687106794555  0.4444384195485963  0.6255132792789186
  0.5555555555555571  0.4444444444444429  0.6277879341107172
  0.7222251538762471  0.9444885831726263  0.6250986838685610
  0.8889363755358821  0.4444384195485963  0.6255132792789186
  0.0555409061137776  0.4444151455609117  0.1251610235596026
  0.2222334172002493  0.9444424755144425  0.1253364168984957
  0.5555848544390770  0.9444590938862657  0.1251610235596026
  0.3887473568280174  0.4443854316218079  0.1227148048458168
  0.8889300959632410  0.9444885831726263  0.1249013161314430
  0.7223047414602359  0.4443854316218079  0.1227148048458168
  0.2222334172002493  0.6111242750192706  0.6246635831015347
  0.0555114168272833  0.1110699040367566  0.6250986838685610
  0.5556145683782185  0.6112526431718556  0.6272851951542501
  0.3888596915349845  0.1110527164031860  0.6255466290253225
  0.8889472835966882  0.6111403084648860  0.6255466290253225
  0.0555575244856038  0.6111242750192706  0.1253364168984957
  0.7222251538762471  0.1110699040367566  0.6250986838685610
  0.2221687106794555  0.1110636244641209  0.1244867207210546
  0.3888596915349845  0.6111403084648860  0.1244533709746493
  0.7223047414602359  0.6112526431718556  0.1227148048458168
  0.5555615804512603  0.1110636244641209  0.1244867207210546
  0.3888596915349845  0.6111403084648860  0.6255466290253225
  0.8888888888888857  0.1111111111111143  0.1250468244848678
  0.2222222222222214  0.7777777777777786  0.6244705848135053
  0.0555114168272833  0.2777748461238760  0.6250986838685610
  0.3887473568280103  0.2776952585395699  0.6272851951542501
  0.5555615804512603  0.7778312893205542  0.6255132792789186
  0.8889363755358821  0.7778312893205542  0.6255132792789186
  0.7222601253659726  0.2777398746339796  0.6261207971747873
  0.0555575244856038  0.7777665827998771  0.1253364168984957
  0.3888757249808479  0.7777665827998771  0.1253364168984957
  0.2221464159347683  0.2777398746339796  0.1238792028252817
  0.7222601253659726  0.7778535840653765  0.1238792028252817
  0.5556145683782185  0.2776952585395699  0.1227148048458168
  0.8889300959632410  0.2777748461238760  0.1249013161314430
  0.0555409061137776  0.4444151455609117  0.6248389764406037
  0.2222334172002493  0.9444424755144425  0.6246635831015347
  0.5555848544390770  0.9444590938862657  0.6248389764406037
  0.3887473568280103  0.4443854316218079  0.6272851951542501
  0.8889300959632410  0.9444885831726263  0.6250986838685610
  0.0555409061137776  0.9444590938862657  0.1251610235596026
  0.7223047414602359  0.4443854316218079  0.6272851951542501
  0.3888757249808479  0.9444424755144425  0.1253364168984957
  0.2221687106794555  0.4444384195485963  0.1244867207210546
  0.2222334172002493  0.6111242750192706  0.1253364168984957
  0.5555555555555571  0.4444444444444429  0.1222120658891466
  0.7222251538762471  0.9444885831726263  0.1249013161314430
  0.8889363755358821  0.4444384195485963  0.1244867207210546
  0.0555575244856038  0.6111242750192706  0.6246635831015347
  0.2221687106794555  0.1110636244641209  0.6255132792789186
  0.7223047414602359  0.6112526431718556  0.6272851951542501
  0.5555615804512603  0.1110636244641209  0.6255132792789186
  0.8888888888888857  0.1111111111111143  0.6249531755150551
 
  0.00000000E+00  0.00000000E+00  0.00000000E+00
  0.00000000E+00  0.00000000E+00  0.00000000E+00
  0.00000000E+00  0.00000000E+00  0.00000000E+00
  0.00000000E+00  0.00000000E+00  0.00000000E+00
  0.00000000E+00  0.00000000E+00  0.00000000E+00
  0.00000000E+00  0.00000000E+00  0.00000000E+00
  0.00000000E+00  0.00000000E+00  0.00000000E+00
  0.00000000E+00  0.00000000E+00  0.00000000E+00
  0.00000000E+00  0.00000000E+00  0.00000000E+00
  0.00000000E+00  0.00000000E+00  0.00000000E+00
  0.00000000E+00  0.00000000E+00  0.00000000E+00
  0.00000000E+00  0.00000000E+00  0.00000000E+00
  0.00000000E+00  0.00000000E+00  0.00000000E+00
  0.00000000E+00  0.00000000E+00  0.00000000E+00
  0.00000000E+00  0.00000000E+00  0.00000000E+00
  0.00000000E+00  0.00000000E+00  0.00000000E+00
  0.00000000E+00  0.00000000E+00  0.00000000E+00
  0.00000000E+00  0.00000000E+00  0.00000000E+00
  0.00000000E+00  0.00000000E+00  0.00000000E+00
  0.00000000E+00  0.00000000E+00  0.00000000E+00
  0.00000000E+00  0.00000000E+00  0.00000000E+00
  0.00000000E+00  0.00000000E+00  0.00000000E+00
  0.00000000E+00  0.00000000E+00  0.00000000E+00
  0.00000000E+00  0.00000000E+00  0.00000000E+00
  0.00000000E+00  0.00000000E+00  0.00000000E+00
  0.00000000E+00  0.00000000E+00  0.00000000E+00
  0.00000000E+00  0.00000000E+00  0.00000000E+00
  0.00000000E+00  0.00000000E+00  0.00000000E+00
  0.00000000E+00  0.00000000E+00  0.00000000E+00
  0.00000000E+00  0.00000000E+00  0.00000000E+00
  0.00000000E+00  0.00000000E+00  0.00000000E+00
  0.00000000E+00  0.00000000E+00  0.00000000E+00
  0.00000000E+00  0.00000000E+00  0.00000000E+00
  0.00000000E+00  0.00000000E+00  0.00000000E+00
  0.00000000E+00  0.00000000E+00  0.00000000E+00
  0.00000000E+00  0.00000000E+00  0.00000000E+00
  0.00000000E+00  0.00000000E+00  0.00000000E+00
  0.00000000E+00  0.00000000E+00  0.00000000E+00
  0.00000000E+00  0.00000000E+00  0.00000000E+00
  0.00000000E+00  0.00000000E+00  0.00000000E+00
  0.00000000E+00  0.00000000E+00  0.00000000E+00
  0.00000000E+00  0.00000000E+00  0.00000000E+00
  0.00000000E+00  0.00000000E+00  0.00000000E+00
  0.00000000E+00  0.00000000E+00  0.00000000E+00
  0.00000000E+00  0.00000000E+00  0.00000000E+00
  0.00000000E+00  0.00000000E+00  0.00000000E+00
  0.00000000E+00  0.00000000E+00  0.00000000E+00
  0.00000000E+00  0.00000000E+00  0.00000000E+00
  0.00000000E+00  0.00000000E+00  0.00000000E+00
  0.00000000E+00  0.00000000E+00  0.00000000E+00
  0.00000000E+00  0.00000000E+00  0.00000000E+00
  0.00000000E+00  0.00000000E+00  0.00000000E+00
  0.00000000E+00  0.00000000E+00  0.00000000E+00
  0.00000000E+00  0.00000000E+00  0.00000000E+00
  0.00000000E+00  0.00000000E+00  0.00000000E+00
  0.00000000E+00  0.00000000E+00  0.00000000E+00
  0.00000000E+00  0.00000000E+00  0.00000000E+00
  0.00000000E+00  0.00000000E+00  0.00000000E+00
  0.00000000E+00  0.00000000E+00  0.00000000E+00
  0.00000000E+00  0.00000000E+00  0.00000000E+00
  0.00000000E+00  0.00000000E+00  0.00000000E+00
  0.00000000E+00  0.00000000E+00  0.00000000E+00
  0.00000000E+00  0.00000000E+00  0.00000000E+00
  0.00000000E+00  0.00000000E+00  0.00000000E+00
  0.00000000E+00  0.00000000E+00  0.00000000E+00
  0.00000000E+00  0.00000000E+00  0.00000000E+00
  0.00000000E+00  0.00000000E+00  0.00000000E+00
  0.00000000E+00  0.00000000E+00  0.00000000E+00
  0.00000000E+00  0.00000000E+00  0.00000000E+00
  0.00000000E+00  0.00000000E+00  0.00000000E+00
  0.00000000E+00  0.00000000E+00  0.00000000E+00
  0.00000000E+00  0.00000000E+00  0.00000000E+00
  0.00000000E+00  0.00000000E+00  0.00000000E+00
  0.00000000E+00  0.00000000E+00  0.00000000E+00
  0.00000000E+00  0.00000000E+00  0.00000000E+00
  0.00000000E+00  0.00000000E+00  0.00000000E+00
  0.00000000E+00  0.00000000E+00  0.00000000E+00
  0.00000000E+00  0.00000000E+00  0.00000000E+00
  0.00000000E+00  0.00000000E+00  0.00000000E+00
  0.00000000E+00  0.00000000E+00  0.00000000E+00
  0.00000000E+00  0.00000000E+00  0.00000000E+00
  0.00000000E+00  0.00000000E+00  0.00000000E+00
  0.00000000E+00  0.00000000E+00  0.00000000E+00
  0.00000000E+00  0.00000000E+00  0.00000000E+00
  0.00000000E+00  0.00000000E+00  0.00000000E+00
  0.00000000E+00  0.00000000E+00  0.00000000E+00
  0.00000000E+00  0.00000000E+00  0.00000000E+00
  0.00000000E+00  0.00000000E+00  0.00000000E+00
  0.00000000E+00  0.00000000E+00  0.00000000E+00
  0.00000000E+00  0.00000000E+00  0.00000000E+00
  0.00000000E+00  0.00000000E+00  0.00000000E+00
  0.00000000E+00  0.00000000E+00  0.00000000E+00
  0.00000000E+00  0.00000000E+00  0.00000000E+00
  0.00000000E+00  0.00000000E+00  0.00000000E+00
  0.00000000E+00  0.00000000E+00  0.00000000E+00
  0.00000000E+00  0.00000000E+00  0.00000000E+00
  0.00000000E+00  0.00000000E+00  0.00000000E+00
  0.00000000E+00  0.00000000E+00  0.00000000E+00
  0.00000000E+00  0.00000000E+00  0.00000000E+00
  0.00000000E+00  0.00000000E+00  0.00000000E+00
  0.00000000E+00  0.00000000E+00  0.00000000E+00
  0.00000000E+00  0.00000000E+00  0.00000000E+00
  0.00000000E+00  0.00000000E+00  0.00000000E+00
  0.00000000E+00  0.00000000E+00  0.00000000E+00
  0.00000000E+00  0.00000000E+00  0.00000000E+00
  0.00000000E+00  0.00000000E+00  0.00000000E+00
  0.00000000E+00  0.00000000E+00  0.00000000E+00
  0.00000000E+00  0.00000000E+00  0.00000000E+00
  0.00000000E+00  0.00000000E+00  0.00000000E+00
  0.00000000E+00  0.00000000E+00  0.00000000E+00
  0.00000000E+00  0.00000000E+00  0.00000000E+00
  0.00000000E+00  0.00000000E+00  0.00000000E+00
  0.00000000E+00  0.00000000E+00  0.00000000E+00
  0.00000000E+00  0.00000000E+00  0.00000000E+00
  0.00000000E+00  0.00000000E+00  0.00000000E+00
  0.00000000E+00  0.00000000E+00  0.00000000E+00
  0.00000000E+00  0.00000000E+00  0.00000000E+00
  0.00000000E+00  0.00000000E+00  0.00000000E+00
  0.00000000E+00  0.00000000E+00  0.00000000E+00
  0.00000000E+00  0.00000000E+00  0.00000000E+00
  0.00000000E+00  0.00000000E+00  0.00000000E+00
  0.00000000E+00  0.00000000E+00  0.00000000E+00
  0.00000000E+00  0.00000000E+00  0.00000000E+00
  0.00000000E+00  0.00000000E+00  0.00000000E+00
  0.00000000E+00  0.00000000E+00  0.00000000E+00
  0.00000000E+00  0.00000000E+00  0.00000000E+00
  0.00000000E+00  0.00000000E+00  0.00000000E+00
  0.00000000E+00  0.00000000E+00  0.00000000E+00
  0.00000000E+00  0.00000000E+00  0.00000000E+00
  0.00000000E+00  0.00000000E+00  0.00000000E+00
  0.00000000E+00  0.00000000E+00  0.00000000E+00
  0.00000000E+00  0.00000000E+00  0.00000000E+00
  0.00000000E+00  0.00000000E+00  0.00000000E+00
  0.00000000E+00  0.00000000E+00  0.00000000E+00
  0.00000000E+00  0.00000000E+00  0.00000000E+00
  0.00000000E+00  0.00000000E+00  0.00000000E+00
  0.00000000E+00  0.00000000E+00  0.00000000E+00
  0.00000000E+00  0.00000000E+00  0.00000000E+00
  0.00000000E+00  0.00000000E+00  0.00000000E+00
  0.00000000E+00  0.00000000E+00  0.00000000E+00
  0.00000000E+00  0.00000000E+00  0.00000000E+00
  0.00000000E+00  0.00000000E+00  0.00000000E+00
  0.00000000E+00  0.00000000E+00  0.00000000E+00
  0.00000000E+00  0.00000000E+00  0.00000000E+00
  0.00000000E+00  0.00000000E+00  0.00000000E+00
  0.00000000E+00  0.00000000E+00  0.00000000E+00
  0.00000000E+00  0.00000000E+00  0.00000000E+00
  0.00000000E+00  0.00000000E+00  0.00000000E+00
  0.00000000E+00  0.00000000E+00  0.00000000E+00
  0.00000000E+00  0.00000000E+00  0.00000000E+00
  0.00000000E+00  0.00000000E+00  0.00000000E+00
  0.00000000E+00  0.00000000E+00  0.00000000E+00
  0.00000000E+00  0.00000000E+00  0.00000000E+00
  0.00000000E+00  0.00000000E+00  0.00000000E+00
  0.00000000E+00  0.00000000E+00  0.00000000E+00
  0.00000000E+00  0.00000000E+00  0.00000000E+00
  0.00000000E+00  0.00000000E+00  0.00000000E+00
  0.00000000E+00  0.00000000E+00  0.00000000E+00
  0.00000000E+00  0.00000000E+00  0.00000000E+00
  0.00000000E+00  0.00000000E+00  0.00000000E+00
  0.00000000E+00  0.00000000E+00  0.00000000E+00
  0.00000000E+00  0.00000000E+00  0.00000000E+00
  0.00000000E+00  0.00000000E+00  0.00000000E+00
  0.00000000E+00  0.00000000E+00  0.00000000E+00
  0.00000000E+00  0.00000000E+00  0.00000000E+00
  0.00000000E+00  0.00000000E+00  0.00000000E+00
  0.00000000E+00  0.00000000E+00  0.00000000E+00
  0.00000000E+00  0.00000000E+00  0.00000000E+00
  0.00000000E+00  0.00000000E+00  0.00000000E+00
  0.00000000E+00  0.00000000E+00  0.00000000E+00
  0.00000000E+00  0.00000000E+00  0.00000000E+00
  0.00000000E+00  0.00000000E+00  0.00000000E+00
  0.00000000E+00  0.00000000E+00  0.00000000E+00
  0.00000000E+00  0.00000000E+00  0.00000000E+00
  0.00000000E+00  0.00000000E+00  0.00000000E+00
  0.00000000E+00  0.00000000E+00  0.00000000E+00
  0.00000000E+00  0.00000000E+00  0.00000000E+00
  0.00000000E+00  0.00000000E+00  0.00000000E+00
  0.00000000E+00  0.00000000E+00  0.00000000E+00
  0.00000000E+00  0.00000000E+00  0.00000000E+00
  0.00000000E+00  0.00000000E+00  0.00000000E+00
  0.00000000E+00  0.00000000E+00  0.00000000E+00
  0.00000000E+00  0.00000000E+00  0.00000000E+00
  0.00000000E+00  0.00000000E+00  0.00000000E+00
  0.00000000E+00  0.00000000E+00  0.00000000E+00
  0.00000000E+00  0.00000000E+00  0.00000000E+00
  0.00000000E+00  0.00000000E+00  0.00000000E+00
  0.00000000E+00  0.00000000E+00  0.00000000E+00
  0.00000000E+00  0.00000000E+00  0.00000000E+00
  0.00000000E+00  0.00000000E+00  0.00000000E+00
  0.00000000E+00  0.00000000E+00  0.00000000E+00
  0.00000000E+00  0.00000000E+00  0.00000000E+00
  0.00000000E+00  0.00000000E+00  0.00000000E+00
  0.00000000E+00  0.00000000E+00  0.00000000E+00
  0.00000000E+00  0.00000000E+00  0.00000000E+00
  0.00000000E+00  0.00000000E+00  0.00000000E+00
  0.00000000E+00  0.00000000E+00  0.00000000E+00
  0.00000000E+00  0.00000000E+00  0.00000000E+00
  0.00000000E+00  0.00000000E+00  0.00000000E+00
  0.00000000E+00  0.00000000E+00  0.00000000E+00
  0.00000000E+00  0.00000000E+00  0.00000000E+00
  0.00000000E+00  0.00000000E+00  0.00000000E+00
  0.00000000E+00  0.00000000E+00  0.00000000E+00
  0.00000000E+00  0.00000000E+00  0.00000000E+00
  0.00000000E+00  0.00000000E+00  0.00000000E+00
  0.00000000E+00  0.00000000E+00  0.00000000E+00
  0.00000000E+00  0.00000000E+00  0.00000000E+00
  0.00000000E+00  0.00000000E+00  0.00000000E+00
  0.00000000E+00  0.00000000E+00  0.00000000E+00
  0.00000000E+00  0.00000000E+00  0.00000000E+00
  0.00000000E+00  0.00000000E+00  0.00000000E+00
  0.00000000E+00  0.00000000E+00  0.00000000E+00
  0.00000000E+00  0.00000000E+00  0.00000000E+00
  0.00000000E+00  0.00000000E+00  0.00000000E+00
  0.00000000E+00  0.00000000E+00  0.00000000E+00
  0.00000000E+00  0.00000000E+00  0.00000000E+00
  0.00000000E+00  0.00000000E+00  0.00000000E+00
  0.00000000E+00  0.00000000E+00  0.00000000E+00
  0.00000000E+00  0.00000000E+00  0.00000000E+00
  0.00000000E+00  0.00000000E+00  0.00000000E+00
  0.00000000E+00  0.00000000E+00  0.00000000E+00
  0.00000000E+00  0.00000000E+00  0.00000000E+00
  0.00000000E+00  0.00000000E+00  0.00000000E+00
  0.00000000E+00  0.00000000E+00  0.00000000E+00
  0.00000000E+00  0.00000000E+00  0.00000000E+00
  0.00000000E+00  0.00000000E+00  0.00000000E+00
  0.00000000E+00  0.00000000E+00  0.00000000E+00
  0.00000000E+00  0.00000000E+00  0.00000000E+00
  0.00000000E+00  0.00000000E+00  0.00000000E+00
  0.00000000E+00  0.00000000E+00  0.00000000E+00
  0.00000000E+00  0.00000000E+00  0.00000000E+00
  0.00000000E+00  0.00000000E+00  0.00000000E+00
  0.00000000E+00  0.00000000E+00  0.00000000E+00
  0.00000000E+00  0.00000000E+00  0.00000000E+00
  0.00000000E+00  0.00000000E+00  0.00000000E+00
  0.00000000E+00  0.00000000E+00  0.00000000E+00
  0.00000000E+00  0.00000000E+00  0.00000000E+00
  0.00000000E+00  0.00000000E+00  0.00000000E+00
  0.00000000E+00  0.00000000E+00  0.00000000E+00
  0.00000000E+00  0.00000000E+00  0.00000000E+00
  0.00000000E+00  0.00000000E+00  0.00000000E+00
  0.00000000E+00  0.00000000E+00  0.00000000E+00
  0.00000000E+00  0.00000000E+00  0.00000000E+00
  0.00000000E+00  0.00000000E+00  0.00000000E+00
  0.00000000E+00  0.00000000E+00  0.00000000E+00
  0.00000000E+00  0.00000000E+00  0.00000000E+00
  0.00000000E+00  0.00000000E+00  0.00000000E+00