Ga B N                                  
   1.0000000000000000     
     8.7639499999999995  -15.1796066749929999    0.0000000000000000
     8.7639499999999995   15.1796066749929999    0.0000000000000000
     0.0000000000000000    0.0000000000000000   15.0000000000000000
   Ga   B    N 
     1    48    48
Selective dynamics
Direct
  0.4905714213482307  0.5094299805687661  0.1111425939293394   T   T   T
  0.9065684451605266  0.9535914895650265  0.1110151267278274   T   T   T
  0.9045240978357721  0.0954779233602239  0.1110310390175315   T   T   T
  0.9039228929866732  0.2382116689917304  0.1110377995857862   T   T   T
  0.9042412633719794  0.3811156128685436  0.1109968175479160   T   T   T
  0.9061221236577924  0.5242508726203989  0.1110518302905780   T   T   T
  0.9083174287651928  0.6678808268218392  0.1110576083829564   T   T   T
  0.9089091790137125  0.8117801380109896  0.1110289484574278   T   T   T
  0.0485196445369405  0.9514823766590627  0.1110182079999483   T   T   T
  0.0464105316309762  0.0934335760354697  0.1110151267278274   T   T   T
  0.0458207768626186  0.2368353506629454  0.1109927715289497   T   T   T
  0.0464469724575757  0.3803231939842590  0.1110184801237152   T   T   T
  0.0481537403601909  0.5233889076420455  0.1110289988989534   T   T   T
  0.0495671422161413  0.6663180950758227  0.1110651008249876   T   T   T
  0.0497073389585798  0.8091685134353861  0.1110353809465646   T   T   T
  0.1908335077606177  0.9502946822374239  0.1110353809465646   T   T   T
  0.1882218831850127  0.0910928421822830  0.1110289484574278   T   T   T
  0.1859064680954702  0.2330751124067158  0.1109918496642083   T   T   T
  0.1874739125873248  0.3785795143843361  0.1110370294686841   T   T   T
  0.1903541345131922  0.5226064759301750  0.1110585436933580   T   T   T
  0.1919338270110469  0.6655864339903714  0.1110426709287275   T   T   T
  0.1917939760015252  0.8082080451944795  0.1110151957546831   T   T   T
  0.3336839261211745  0.9504348789798626  0.1110651008249876   T   T   T
  0.3321211943751584  0.0916845924308041  0.1110576083829564   T   T   T
  0.3270569324444194  0.2295540297328235  0.1110061012544801   T   T   T
  0.3241420776530131  0.3727086477123824  0.1110028484680659   T   T   T
  0.3323355341958977  0.5209563812420202  0.1110724732519324   T   T   T
  0.3349816961151399  0.6650203250818573  0.1110793994115402   T   T   T
  0.3344155872066269  0.8080681941849552  0.1110426709287275   T   T   T
  0.4766131135549520  0.9518482808358114  0.1110289988989534   T   T   T
  0.4757511485765993  0.0938798975382048  0.1110518302905780   T   T   T
  0.4738629900167199  0.2346716139713372  0.1110200899136355   T   T   T
  0.4625403911571774  0.3642377264654323  0.1110548773083183   T   T   T
  0.4790456399549762  0.6676664870010998  0.1110724732519324   T   T   T
  0.4773955452668229  0.8096478866828115  0.1110585436933580   T   T   T
  0.6196788272117439  0.9535550487384284  0.1110184801237152   T   T   T
  0.6188864083274592  0.0957607578240167  0.1109968175479160   T   T   T
  0.6182902248627195  0.2384554426698958  0.1109899646837443   T   T   T
  0.6180366898184649  0.3819653313775386  0.1109873174850644   T   T   T
  0.6357642947305712  0.5374616300398198  0.1110548773083183   T   T   T
  0.6272933734836211  0.6758599435439856  0.1110028484680659   T   T   T
  0.6214225068116667  0.8125281086086783  0.1110370294686841   T   T   T
  0.7631666705330570  0.9541812443333851  0.1109927715289497   T   T   T
  0.7617903522042736  0.0960791282093237  0.1110377995857862   T   T   T
  0.7613173725248381  0.2386846486711655  0.1110279583081782   T   T   T
  0.7615465785261084  0.3817117963332834  0.1109899646837443   T   T   T
  0.7653304072246672  0.5261390311802787  0.1110200899136355   T   T   T
  0.7704479914631797  0.6729450887525811  0.1110061012544801   T   T   T
  0.7669269087892877  0.8140955531005335  0.1109918496642083   T   T   T
  0.9542474563457812  0.9057725150070033  0.1109994880342499   T   T   T
  0.9522477425031269  0.0477536594148791  0.1110164129209782   T   T   T
  0.9512544260732119  0.1903010727219304  0.1110031786700209   T   T   T
  0.9513760793430583  0.3332737857824956  0.1109906933656699   T   T   T
  0.9526706674146688  0.4761723889561629  0.1110022224424686   T   T   T
  0.9542158360614678  0.6191669854728202  0.1110633923129207   T   T   T
  0.9548430341189684  0.7625389959114198  0.1110360308429275   T   T   T
  0.0961642647303074  0.9038371371876922  0.1110058760778005   T   T   T
  0.0942288869109954  0.0457539455722245  0.1109994880342499   T   T   T
  0.0923556977515142  0.1878829653394133  0.1109742585437515   T   T   T
  0.0931261591054677  0.3319259735665939  0.1109947699872618   T   T   T
  0.0951636946534439  0.4754119007313874  0.1110174854393277   T   T   T
  0.0965918973453713  0.6183736607056225  0.1110324268830328   T   T   T
  0.0967930160864692  0.7611904852218481  0.1110179484768218   T   T   T
  0.2388109166961586  0.9032083858315291  0.1110179484768218   T   T   T
  0.2374624060065856  0.0451583677990378  0.1110360308429275   T   T   T
  0.2338468462537655  0.1854414840874530  0.1109897976460161   T   T   T
  0.2316869410730517  0.3274758503205936  0.1109877614100612   T   T   T
  0.2370274926225723  0.4739952729210816  0.1110511307282147   T   T   T
  0.2395320531822644  0.6177440343375179  0.1110498834544920   T   T   T
  0.2393733751222092  0.7606280267957966  0.1110100703191132   T   T   T
  0.3816277412123768  0.9034095045726274  0.1110324268830328   T   T   T
  0.3808344164451790  0.0457855658565382  0.1110633923129207   T   T   T
  0.3790090671369508  0.1870777850210135  0.1110101039181154   T   T   T
  0.3719979982790538  0.3243931738556950  0.1109748520869942   T   T   T
  0.3715301832356734  0.4654099195134144  0.1109895141493271   T   T   T
  0.3831767307060645  0.6168246712119337  0.1110653638851904   T   T   T
  0.3822573675804818  0.7604693487357416  0.1110498834544920   T   T   T
  0.5245895011856113  0.9048377072645557  0.1110174854393277   T   T   T
  0.5238290129608328  0.0473307345033365  0.1110022224424686   T   T   T
  0.5229921404251977  0.1898210076003601  0.1110004151883772   T   T   T
  0.5214470736522586  0.3323042072761594  0.1109941963543542   T   T   T
  0.5345914824035833  0.6284712186823259  0.1109895141493271   T   T   T
  0.5260061289959146  0.7629739092954330  0.1110511307282147   T   T   T
  0.6680754283504045  0.9068752428125311  0.1109947699872618   T   T   T
  0.6667276161345006  0.0486253225749487  0.1109906933656699   T   T   T
  0.6659870656594745  0.1913834992876421  0.1109863253089304   T   T   T
  0.6652639440544951  0.3347374578625020  0.1109544243070859   T   T   T
  0.6676971946408363  0.4785543282647371  0.1109941963543542   T   T   T
  0.6756082280613028  0.6280034036389446  0.1109748520869942   T   T   T
  0.6725255515964034  0.7683144608449539  0.1109877614100612   T   T   T
  0.8121184365785855  0.9076457041664844  0.1109742585437515   T   T   T
  0.8097003291960676  0.0487469758447942  0.1110031786700209   T   T   T
  0.8088342028763743  0.1911671990416252  0.1110396125172294   T   T   T
  0.8086179026303560  0.3340143362575229  0.1109863253089304   T   T   T
  0.8101803943176378  0.4770092614918003  0.1110004151883772   T   T   T
  0.8129236168969852  0.6209923347810482  0.1110101039181154   T   T   T
  0.8145599178305457  0.7661545556642401  0.1109897976460161   T   T   T

  0.00000000E+00  0.00000000E+00  0.00000000E+00
  0.00000000E+00  0.00000000E+00  0.00000000E+00
  0.00000000E+00  0.00000000E+00  0.00000000E+00
  0.00000000E+00  0.00000000E+00  0.00000000E+00
  0.00000000E+00  0.00000000E+00  0.00000000E+00
  0.00000000E+00  0.00000000E+00  0.00000000E+00
  0.00000000E+00  0.00000000E+00  0.00000000E+00
  0.00000000E+00  0.00000000E+00  0.00000000E+00
  0.00000000E+00  0.00000000E+00  0.00000000E+00
  0.00000000E+00  0.00000000E+00  0.00000000E+00
  0.00000000E+00  0.00000000E+00  0.00000000E+00
  0.00000000E+00  0.00000000E+00  0.00000000E+00
  0.00000000E+00  0.00000000E+00  0.00000000E+00
  0.00000000E+00  0.00000000E+00  0.00000000E+00
  0.00000000E+00  0.00000000E+00  0.00000000E+00
  0.00000000E+00  0.00000000E+00  0.00000000E+00
  0.00000000E+00  0.00000000E+00  0.00000000E+00
  0.00000000E+00  0.00000000E+00  0.00000000E+00
  0.00000000E+00  0.00000000E+00  0.00000000E+00
  0.00000000E+00  0.00000000E+00  0.00000000E+00
  0.00000000E+00  0.00000000E+00  0.00000000E+00
  0.00000000E+00  0.00000000E+00  0.00000000E+00
  0.00000000E+00  0.00000000E+00  0.00000000E+00
  0.00000000E+00  0.00000000E+00  0.00000000E+00
  0.00000000E+00  0.00000000E+00  0.00000000E+00
  0.00000000E+00  0.00000000E+00  0.00000000E+00
  0.00000000E+00  0.00000000E+00  0.00000000E+00
  0.00000000E+00  0.00000000E+00  0.00000000E+00
  0.00000000E+00  0.00000000E+00  0.00000000E+00
  0.00000000E+00  0.00000000E+00  0.00000000E+00
  0.00000000E+00  0.00000000E+00  0.00000000E+00
  0.00000000E+00  0.00000000E+00  0.00000000E+00
  0.00000000E+00  0.00000000E+00  0.00000000E+00
  0.00000000E+00  0.00000000E+00  0.00000000E+00
  0.00000000E+00  0.00000000E+00  0.00000000E+00
  0.00000000E+00  0.00000000E+00  0.00000000E+00
  0.00000000E+00  0.00000000E+00  0.00000000E+00
  0.00000000E+00  0.00000000E+00  0.00000000E+00
  0.00000000E+00  0.00000000E+00  0.00000000E+00
  0.00000000E+00  0.00000000E+00  0.00000000E+00
  0.00000000E+00  0.00000000E+00  0.00000000E+00
  0.00000000E+00  0.00000000E+00  0.00000000E+00
  0.00000000E+00  0.00000000E+00  0.00000000E+00
  0.00000000E+00  0.00000000E+00  0.00000000E+00
  0.00000000E+00  0.00000000E+00  0.00000000E+00
  0.00000000E+00  0.00000000E+00  0.00000000E+00
  0.00000000E+00  0.00000000E+00  0.00000000E+00
  0.00000000E+00  0.00000000E+00  0.00000000E+00
  0.00000000E+00  0.00000000E+00  0.00000000E+00
  0.00000000E+00  0.00000000E+00  0.00000000E+00
  0.00000000E+00  0.00000000E+00  0.00000000E+00
  0.00000000E+00  0.00000000E+00  0.00000000E+00
  0.00000000E+00  0.00000000E+00  0.00000000E+00
  0.00000000E+00  0.00000000E+00  0.00000000E+00
  0.00000000E+00  0.00000000E+00  0.00000000E+00
  0.00000000E+00  0.00000000E+00  0.00000000E+00
  0.00000000E+00  0.00000000E+00  0.00000000E+00
  0.00000000E+00  0.00000000E+00  0.00000000E+00
  0.00000000E+00  0.00000000E+00  0.00000000E+00
  0.00000000E+00  0.00000000E+00  0.00000000E+00
  0.00000000E+00  0.00000000E+00  0.00000000E+00
  0.00000000E+00  0.00000000E+00  0.00000000E+00
  0.00000000E+00  0.00000000E+00  0.00000000E+00
  0.00000000E+00  0.00000000E+00  0.00000000E+00
  0.00000000E+00  0.00000000E+00  0.00000000E+00
  0.00000000E+00  0.00000000E+00  0.00000000E+00
  0.00000000E+00  0.00000000E+00  0.00000000E+00
  0.00000000E+00  0.00000000E+00  0.00000000E+00
  0.00000000E+00  0.00000000E+00  0.00000000E+00
  0.00000000E+00  0.00000000E+00  0.00000000E+00
  0.00000000E+00  0.00000000E+00  0.00000000E+00
  0.00000000E+00  0.00000000E+00  0.00000000E+00
  0.00000000E+00  0.00000000E+00  0.00000000E+00
  0.00000000E+00  0.00000000E+00  0.00000000E+00
  0.00000000E+00  0.00000000E+00  0.00000000E+00
  0.00000000E+00  0.00000000E+00  0.00000000E+00
  0.00000000E+00  0.00000000E+00  0.00000000E+00
  0.00000000E+00  0.00000000E+00  0.00000000E+00
  0.00000000E+00  0.00000000E+00  0.00000000E+00
  0.00000000E+00  0.00000000E+00  0.00000000E+00
  0.00000000E+00  0.00000000E+00  0.00000000E+00
  0.00000000E+00  0.00000000E+00  0.00000000E+00
  0.00000000E+00  0.00000000E+00  0.00000000E+00
  0.00000000E+00  0.00000000E+00  0.00000000E+00
  0.00000000E+00  0.00000000E+00  0.00000000E+00
  0.00000000E+00  0.00000000E+00  0.00000000E+00
  0.00000000E+00  0.00000000E+00  0.00000000E+00
  0.00000000E+00  0.00000000E+00  0.00000000E+00
  0.00000000E+00  0.00000000E+00  0.00000000E+00
  0.00000000E+00  0.00000000E+00  0.00000000E+00
  0.00000000E+00  0.00000000E+00  0.00000000E+00
  0.00000000E+00  0.00000000E+00  0.00000000E+00
  0.00000000E+00  0.00000000E+00  0.00000000E+00
  0.00000000E+00  0.00000000E+00  0.00000000E+00
  0.00000000E+00  0.00000000E+00  0.00000000E+00
  0.00000000E+00  0.00000000E+00  0.00000000E+00
  0.00000000E+00  0.00000000E+00  0.00000000E+00
