 N Ga B 
 1.0
 14.936314146199660   0.000000000000000   0.000000000000000
 -7.468157073099825  12.935227489513863   0.000000000000000
  0.000000000000001   0.000000000000001  13.341276283792837
 N Ga B 
 144   1 143
Cartesian
  1.244550538324044   0.718431169653280   1.666111976614243 
  4.978890393619325   7.186552772689165   1.666489361899762 
  6.223606534775802   0.718431169653280   1.666111976614243 
  9.957610410027629   7.186235012050853   1.667582945077006 
 11.202235609649751   0.718623749417456   1.667114312423011 
 -3.734078536549858   9.342108742426664   8.338434127132636 
  1.244597220144920   9.342328273952720   8.339845236230385 
  2.489172157606617   2.874234291384343   8.339467850944851 
  6.223559852954948   9.342328273952720   8.339845236230385 
  7.468314901221289   2.874403875561354   8.340207526280370 
 12.446849054619978   2.874462020688148   8.338858158121703 
 -1.244724518881862   9.342168566551575   1.667582945077006 
 -0.000157828121382   2.874403875561353   1.665749686564243 
  4.978984915493216   2.874234291384342   1.666489361899762 
  3.734078536549949   9.342290986643460   1.665749686564243 
  8.712881591981699   9.342168566551575   1.667582945077006 
  9.957622164679531   2.874462020688147   1.667099054722925 
 -4.978807354595795  11.497922648677575   8.338374267767634 
  0.000039020669517  11.498002519272973   8.338567926959506 
  1.244360300537255   5.030311673692659   8.339467850944851 
  6.223796772562685   5.030311673692659   8.339467850944851 
  4.978782523436012  11.498065242059983   8.338858158121703 
 11.202235609649755   5.030321188733943   8.338567926959506 
 -1.244930778080908   5.030339294160139   1.666111976614243 
 -2.489349718503934  11.497922648677575   1.667582945077006 
  2.489374549663963  11.498065242059983   1.667099054722925 
  3.734078536549917   5.030366245922020   1.710675756226044 
  7.468118052430354  11.498002519272973   1.667389285885122 
  8.713087851180877   5.030339294160139   1.666111976614243 
 -0.000133773564320   7.186314728377765   8.339275998162806 
  1.244550538324044   0.718431169653281   8.339845236230385 
  4.978890393619325   7.186552772689166   8.339467850944851 
  6.223606534775803   0.718431169653281   8.339845236230385 
  9.957610410027629   7.186235012050854   8.338374267767634 
 -2.489453336927793   7.186235012050853   1.667582945077006 
 11.202235609649751   0.718623749417456   8.338842900421630 
  3.734078536549908   0.718469281010728   1.666681214681836 
  2.489266679480496   7.186552772689165   1.666489361899762 
  7.468290846664155   7.186314728377764   1.666681214681836 
  8.712918177793505   0.718571475017996   1.667099054722925 
  2.489266679480496   7.186552772689166   8.339467850944851 
 13.691553041506001   0.718571475017996   1.667099054722925 
 -1.244724518881861   9.342168566551575   8.338374267767634 
 -0.000157828121381   2.874403875561354   8.340207526280370 
  4.978984915493217   2.874234291384343   8.339467850944851 
  3.734078536549949   9.342290986643460   8.340207526280370 
  8.712881591981699   9.342168566551575   8.338374267767634 
  9.957622164679531   2.874462020688148   8.338858158121703 
 -3.734078536549859   9.342108742426664   1.667523085711979 
  1.244597220144920   9.342328273952720   1.666111976614243 
  2.489172157606616   2.874234291384342   1.666489361899762 
  6.223559852954947   9.342328273952720   1.666111976614243 
  7.468314901221288   2.874403875561353   1.665749686564243 
 12.446849054619978   2.874462020688147   1.667099054722925 
 -1.244930778080908   5.030339294160139   8.339845236230385 
 -2.489349718503934  11.497922648677575   8.338374267767634 
  2.489374549663963  11.498065242059983   8.338858158121703 
  3.734078536549917   5.030366245922021   8.295281456618570 
  7.468118052430355  11.498002519272973   8.338567926959506 
 -4.978807354595796  11.497922648677575   1.667582945077006 
  8.713087851180877   5.030339294160139   8.339845236230385 
  0.000039020669517  11.498002519272973   1.667389285885122 
  1.244360300537255   5.030311673692658   1.666489361899762 
 -0.000133773564320   7.186314728377764   1.666681214681836 
  6.223796772562684   5.030311673692658   1.666489361899762 
  4.978782523436011  11.498065242059983   1.667099054722925 
 11.202235609649755   5.030321188733942   1.667389285885122 
 -2.489453336927793   7.186235012050854   8.338374267767634 
  3.734078536549908   0.718469281010728   8.339275998162806 
  7.468290846664156   7.186314728377765   8.339275998162806 
  8.712918177793505   0.718571475017997   8.338858158121703 
 13.691553041506001   0.718571475017997   8.338858158121703 
 -0.011016674177681   1.427636061654300   5.002978606422314 
  3.734078536549919   7.919403085171695   5.002978606422314 
  5.009681844408241   1.353407277968710   5.002978606422314 
  8.737999431420075   7.919381321579021   5.002978606422314 
  9.961953191317827   1.434701137512549   5.002978606422314 
 -4.978795080419224  10.060746174094437  11.673616748318732 
  0.000025798324221  10.060749063040332  11.673616748318732 
  1.244714720419119   3.593131376568043  11.673616748318732 
  4.978768763907665  10.060743299054909  11.673616748318732 
  6.223442352680716   3.593131376568043  11.673616748318732 
 11.202235609649687   3.593124841098475  11.673616748318732 
 -2.494207591862296  10.057948566102496   5.002978606422314 
 -1.258524931370761   3.588383745974431   5.002978606422314 
  3.734078536549871   3.307775110551398   5.002978606422314 
  2.486570279356832  10.075078930137526   5.002978606422314 
  7.484352220354755  10.079688162079750   5.002978606422314 
  8.726682004470579   3.588383745974431   5.002978606422314 
 -6.223491477822174  12.216617796502488  11.673616748318732 
 -1.244665595277645  12.216617796502488  11.673616748318732 
  0.000063831127107   5.748940748618814  11.673616748318732 
  4.978611087185538   5.748897449046745  11.673616748318732 
  3.734078536549914  12.216603334707569  11.673616748318732 
  9.957544216047836   5.748959367737187  11.673616748318732 
 -2.513899356630549   5.753537569162504   5.002978606422314 
 -3.734078536549909  12.187563584122040   5.002978606422314 
  1.248022155586233  12.218525918161273   5.002978606422314 
  2.242270852985020   5.891661813607372   5.002978606422314 
  6.220134917513610  12.218525918161273   5.002978606422314 
  7.556220065399745   5.764140860141898   5.002978606422314 
 -1.244649773485908   7.904836375943287  11.673616748318732 
 -0.000010668398507   1.437244362621615  11.673616748318732 
  3.734078536549927   7.904835984630147  11.673616748318732 
  4.978782115414082   1.437327401572849  11.673616748318732 
  8.712806846585625   7.904836375943287  11.673616748318732 
 -3.734078536549897   7.910429095075089   5.002978606422314 
  9.957542413056034   1.437247701529332  11.673616748318732 
  2.458475228691486   1.353407277968710   5.002978606422314 
  1.187540315558425   7.973550599655624   5.002978606422314 
  6.280616757541323   7.973550599655624   5.002978606422314 
  7.479173747277497   1.427636061654300   5.002978606422314 
  1.244767409991259   7.904830587574557  11.673616748318732 
 12.442518027981560   1.434701137512549   5.002978606422314 
 -2.489361992680596  10.060746174094437  11.673616748318732 
 -1.244700895756265   3.593111076089724  11.673616748318732 
  3.734078536549865   3.593303839672640  11.673616748318732 
  2.489388309192178  10.060743299054909  11.673616748318732 
  7.468131274775528  10.060749063040332  11.673616748318732 
  8.712857968856085   3.593111076089724  11.673616748318732 
 -4.973949481237526  10.057948566102496   5.002978606422314 
 -0.016195147255020  10.079688162079750   5.002978606422314 
  1.232099241290659   3.585847826297262   5.002978606422314 
  4.981586793742993  10.075078930137526   5.002978606422314 
  6.236057831809173   3.585847826297262   5.002978606422314 
 11.202235609649680   3.589274390957470   5.002978606422314 
 -2.489387142948001   5.748959367737187  11.673616748318732 
 -3.734078536549923  12.216653475393537  11.673616748318732 
  1.244687567948128  12.216600693090779  11.673616748318732 
  2.489545985914297   5.748897449046745  11.673616748318732 
  6.223469505151728  12.216600693090779  11.673616748318732 
 -6.231782745925488  12.193100496037761   5.002978606422314 
  7.468093241972745   5.748940748618814  11.673616748318732 
 -1.236374327174345  12.193100496037761   5.002978606422314 
 -0.088062992299908   5.764140860141898   5.002978606422314 
 -1.269842358320328   7.919381321579021   5.002978606422314 
  5.225886220114814   5.891661813607372   5.002978606422314 
  3.734078536549913  12.221696462741132   5.002978606422314 
  9.982056429730369   5.753537569162504   5.002978606422314 
 -3.734078536549903   7.904833879091223  11.673616748318732 
  2.489374957685662   1.437327401572849  11.673616748318732 
  6.223389663108476   7.904830587574557  11.673616748318732 
  7.468167741498356   1.437244362621615  11.673616748318732 
 12.446928806243337   1.437247701529332  11.673616748318732 
  3.734078536549917   5.030366245922021   5.002978606422314 
  1.217008096198412   0.677465668606435   5.002978606422314 
  5.049261622989625   7.274854246917860   5.002978606422314 
  6.251148976901419   0.677465668606435   5.002978606422314 
  9.970019267427567   7.189978122050436   5.002978606422314 
 11.202235609649751   0.718623749417456   5.002978606422314 
 -3.734078536549858   9.342108742426666  11.673616748318732 
  1.244686805645195   9.342279745640443  11.673616748318732 
  2.489154098958999   2.874311478915013  11.673616748318732 
  6.223470267454674   9.342279745640443  11.673616748318732 
  7.468407161919547   2.874350608822387  11.673616748318732 
 12.446843923907188   2.874428123545911  11.673616748318732 
 -1.254170575930637   9.351043397292083   5.002978606422314 
 -0.011967536203801   2.867585537420900   5.002978606422314 
  5.020270620681739   2.769140281939761   5.002978606422314 
  3.734078536549978   9.355927662924339   5.002978606422314 
  8.722327649030458   9.351043397292083   5.002978606422314 
  9.963231403461991   2.868326486138600   5.002978606422314 
 -4.978812381621489  11.497972287381216  11.673616748318732 
  0.000058577649574  11.498013810500701  11.673616748318732 
  1.244418117575862   5.030257440679729  11.673616748318732 
  6.223738955524079   5.030257440679729  11.673616748318732 
  4.978755733006098  11.498086633958717  11.673616748318732 
 11.202235609649732   5.030298606278527  11.673616748318732 
 -1.294179163729051   5.026969590120503   5.002978606422314 
 -2.486386918152754  11.485304707937486   5.002978606422314 
  2.491883459058431  11.505990752616274   5.002978606422314 
  7.463960309919346  11.500402993030931   5.002978606422314 
  8.762336236829004   5.026969590120503   5.002978606422314 
 -0.000081011531760   7.186284266204073  11.673616748318732 
  1.244547772325122   0.718533017128457  11.673616748318732 
  4.978814517933110   7.186529818171413  11.673616748318732 
  6.223609300774711   0.718533017128457  11.673616748318732 
  9.957569935162113   7.186205839167052  11.673616748318732 
 -2.501862194327748   7.189978122050436   5.002978606422314 
 11.202235609649751   0.718623749417457  11.673616748318732 
  3.734078536549915   0.675760706075850   5.002978606422314 
  2.418895450110196   7.274854246917860   5.002978606422314 
  7.505277557517172   7.207669015845211   5.002978606422314 
  8.721036325970442   0.716781499011265   5.002978606422314 
  2.489342555166728   7.186529818171413  11.673616748318732 
 13.683434893329048   0.716781499011265   5.002978606422314 
 -1.244679016990628   9.342148100731725  11.673616748318732 
 -0.000250088819595   2.874350608822387  11.673616748318732 
  4.979002974140835   2.874311478915013  11.673616748318732 
  3.734078536549971   9.342397520121382  11.673616748318732 
  8.712836090090466   9.342148100731725  11.673616748318732 
  9.957627295392303   2.874428123545911  11.673616748318732 
 -3.734078536549858   9.342108742426664   5.002978606422314 
  1.222891276622402   9.386663479039191   5.002978606422314 
  2.447886452418093   2.769140281939761   5.002978606422314 
  6.245265796477450   9.386663479039191   5.002978606422314 
  7.480124609303752   2.867585537420900   5.002978606422314 
 12.441239815837500   2.868326486138600   5.002978606422314 
 -1.244843958579564   5.030285974997232  11.673616748318732 
 -2.489344691478209  11.497972287381216  11.673616748318732 
  2.489401340093865  11.498086633958717  11.673616748318732 
  3.734078536549918   5.030366245922021  11.673616748318732 
  7.468098495450252  11.498013810500701  11.673616748318732 
 -4.981770154946975  11.485304707937486   5.002978606422314 
  8.713001031679502   5.030285974997232  11.673616748318732 
  0.004196763180508  11.500402993030931   5.002978606422314 
  1.132703365978424   5.047104208908535   5.002978606422314 
 -0.037120484417353   7.207669015845211   5.002978606422314 
  6.335453707121498   5.047104208908535   5.002978606422314 
  4.976273614041529  11.505990752616274   5.002978606422314 
 11.202235609649755   5.025520241218049   5.002978606422314 
 -2.489412862062261   7.186205839167052  11.673616748318732 
  3.734078536549917   0.718530205358126  11.673616748318732 
  7.468238084631583   7.186284266204073  11.673616748318732 
  8.712950098936187   0.718583980261515  11.673616748318732 
 13.691521120363305   0.718583980261515  11.673616748318732 
 -0.000267830498389   1.436980581081196   1.667033424063475 
  3.734078536549910   7.905833337967223   1.666699486307178 
  4.978983889903468   1.436192262349588   1.666324754191001 
  8.713144518210203   7.905031330746650   1.667621158650465 
  9.957609932366847   1.437208719237066   1.667618749746137 
 -4.978742716312978  10.060715941663590   8.338266544618362 
 -0.000116918253471  10.060931050098064   8.338496334552350 
  1.243850987092648   3.592632699899506   8.339257726537451 
  4.978868624372775  10.061097898736504   8.338923788781152 
  6.224306086007156   3.592632699899506   8.339257726537451 
 11.202235609649685   3.593018961862280   8.338346577275654 
 -2.489414356786841  10.060715941663590   1.667690668226266 
 -1.245057918321258   3.593020257948544   1.667033424063475 
  3.734078536549857   3.589774412965105   1.678562568820754 
  2.489288448727036  10.061097898736504   1.667033424063475 
  7.468273991353222  10.060931050098064   1.667460878292278 
  8.713214991421076   3.593020257948544   1.667033424063475 
 -6.223577724948486  12.216403206791798   8.338496334552350 
 -1.244579348151332  12.216403206791798   8.338496334552350 
 -0.001020115521784   5.749333576396812   8.339632458653627 
  4.981667660375071   5.750662162400518   8.327394644023874 
  3.734078536549921  12.216681299292111   8.338338463098504 
  9.957773179751841   5.748991970390142   8.338496334552350 
 -2.489616106652006   5.748991970390141   1.667460878292278 
 -3.734078536549924  12.216263565786832   1.667621158650465 
  1.244779262056385  12.216653632708862   1.667610635568974 
  2.486489412724766   5.750662162400517   1.678562568820754 
  6.223377811043456  12.216653632708862   1.667610635568974 
  7.469177188621618   5.749333576396811   1.666324754191001 
 -1.244987445110500   7.905031330746651   8.338336054194150 
 -0.000267830498389   1.436980581081196   8.338923788781152 
  3.734078536549910   7.905833337967223   8.339257726537451 
  4.978983889903469   1.436192262349589   8.339632458653627 
  8.713144518210203   7.905031330746651   8.338336054194150 
 -3.734078536549926   7.904894343952925   1.667690668226266 
  9.957609932366847   1.437208719237067   8.338338463098504 
  2.489173183196259   1.436192262349588   1.666324754191001 
  1.243885237831776   7.905572899019831   1.666324754191001 
  6.224271835267970   7.905572899019831   1.666324754191001 
  7.468424903598207   1.436980581081196   1.667033424063475 
  1.243885237831777   7.905572899019832   8.339632458653627 
 12.446861286932524   1.437208719237066   1.667618749746137 
 -2.489414356786841  10.060715941663590   8.338266544618362 
 -1.245057918321258   3.593020257948545   8.338923788781152 
  3.734078536549857   3.589774412965106   8.327394644023874 
  2.489288448727037  10.061097898736504   8.338923788781152 
  7.468273991353223  10.060931050098064   8.338496334552350 
  8.713214991421076   3.593020257948545   8.338923788781152 
 -4.978742716312979  10.060715941663590   1.667690668226266 
 -0.000116918253472  10.060931050098064   1.667460878292278 
  1.243850987092647   3.592632699899505   1.666699486307178 
  4.978868624372774  10.061097898736504   1.667033424063475 
  6.224306086007156   3.592632699899505   1.666699486307178 
 11.202235609649685   3.593018961862279   1.667610635568974 
 -2.489616106652006   5.748991970390142   8.338496334552350 
 -3.734078536549924  12.216263565786832   8.338336054194150 
  1.244779262056385  12.216653632708862   8.338346577275654 
  2.486489412724766   5.750662162400518   8.327394644023874 
  6.223377811043457  12.216653632708862   8.338346577275654 
 -6.223577724948487  12.216403206791798   1.667460878292278 
  7.469177188621619   5.749333576396812   8.339632458653627 
 -1.244579348151333  12.216403206791798   1.667460878292278 
 -0.001020115521785   5.749333576396811   1.666324754191001 
 -1.244987445110500   7.905031330746650   1.667621158650465 
  4.981667660375070   5.750662162400517   1.678562568820754 
  3.734078536549920  12.216681299292111   1.667618749746137 
  9.957773179751841   5.748991970390141   1.667460878292278 
 -3.734078536549926   7.904894343952926   8.338266544618362 
  2.489173183196259   1.436192262349589   8.339632458653627 
  6.224271835267971   7.905572899019832   8.339632458653627 
  7.468424903598208   1.436980581081196   8.338923788781152 
 12.446861286932524   1.437208719237067   8.338338463098504 
Generated by cif2cell 2.0.0.  :  Failed to get author information, No journal information. Species order: N Ga B 
 1.0
 14.936314146199660   0.000000000000000   0.000000000000000
 -7.468157073099825  12.935227489513863   0.000000000000000
  0.000000000000001   0.000000000000001  13.341276283792837
 N Ga B 
 144   1 143
Cartesian
  1.244550538324044   0.718431169653280   1.666111976614243 
  4.978890393619325   7.186552772689165   1.666489361899762 
  6.223606534775802   0.718431169653280   1.666111976614243 
  9.957610410027629   7.186235012050853   1.667582945077006 
 11.202235609649751   0.718623749417456   1.667114312423011 
 -3.734078536549858   9.342108742426664   8.338434127132636 
  1.244597220144920   9.342328273952720   8.339845236230385 
  2.489172157606617   2.874234291384343   8.339467850944851 
  6.223559852954948   9.342328273952720   8.339845236230385 
  7.468314901221289   2.874403875561354   8.340207526280370 
 12.446849054619978   2.874462020688148   8.338858158121703 
 -1.244724518881862   9.342168566551575   1.667582945077006 
 -0.000157828121382   2.874403875561353   1.665749686564243 
  4.978984915493216   2.874234291384342   1.666489361899762 
  3.734078536549949   9.342290986643460   1.665749686564243 
  8.712881591981699   9.342168566551575   1.667582945077006 
  9.957622164679531   2.874462020688147   1.667099054722925 
 -4.978807354595795  11.497922648677575   8.338374267767634 
  0.000039020669517  11.498002519272973   8.338567926959506 
  1.244360300537255   5.030311673692659   8.339467850944851 
  6.223796772562685   5.030311673692659   8.339467850944851 
  4.978782523436012  11.498065242059983   8.338858158121703 
 11.202235609649755   5.030321188733943   8.338567926959506 
 -1.244930778080908   5.030339294160139   1.666111976614243 
 -2.489349718503934  11.497922648677575   1.667582945077006 
  2.489374549663963  11.498065242059983   1.667099054722925 
  3.734078536549917   5.030366245922020   1.710675756226044 
  7.468118052430354  11.498002519272973   1.667389285885122 
  8.713087851180877   5.030339294160139   1.666111976614243 
 -0.000133773564320   7.186314728377765   8.339275998162806 
  1.244550538324044   0.718431169653281   8.339845236230385 
  4.978890393619325   7.186552772689166   8.339467850944851 
  6.223606534775803   0.718431169653281   8.339845236230385 
  9.957610410027629   7.186235012050854   8.338374267767634 
 -2.489453336927793   7.186235012050853   1.667582945077006 
 11.202235609649751   0.718623749417456   8.338842900421630 
  3.734078536549908   0.718469281010728   1.666681214681836 
  2.489266679480496   7.186552772689165   1.666489361899762 
  7.468290846664155   7.186314728377764   1.666681214681836 
  8.712918177793505   0.718571475017996   1.667099054722925 
  2.489266679480496   7.186552772689166   8.339467850944851 
 13.691553041506001   0.718571475017996   1.667099054722925 
 -1.244724518881861   9.342168566551575   8.338374267767634 
 -0.000157828121381   2.874403875561354   8.340207526280370 
  4.978984915493217   2.874234291384343   8.339467850944851 
  3.734078536549949   9.342290986643460   8.340207526280370 
  8.712881591981699   9.342168566551575   8.338374267767634 
  9.957622164679531   2.874462020688148   8.338858158121703 
 -3.734078536549859   9.342108742426664   1.667523085711979 
  1.244597220144920   9.342328273952720   1.666111976614243 
  2.489172157606616   2.874234291384342   1.666489361899762 
  6.223559852954947   9.342328273952720   1.666111976614243 
  7.468314901221288   2.874403875561353   1.665749686564243 
 12.446849054619978   2.874462020688147   1.667099054722925 
 -1.244930778080908   5.030339294160139   8.339845236230385 
 -2.489349718503934  11.497922648677575   8.338374267767634 
  2.489374549663963  11.498065242059983   8.338858158121703 
  3.734078536549917   5.030366245922021   8.295281456618570 
  7.468118052430355  11.498002519272973   8.338567926959506 
 -4.978807354595796  11.497922648677575   1.667582945077006 
  8.713087851180877   5.030339294160139   8.339845236230385 
  0.000039020669517  11.498002519272973   1.667389285885122 
  1.244360300537255   5.030311673692658   1.666489361899762 
 -0.000133773564320   7.186314728377764   1.666681214681836 
  6.223796772562684   5.030311673692658   1.666489361899762 
  4.978782523436011  11.498065242059983   1.667099054722925 
 11.202235609649755   5.030321188733942   1.667389285885122 
 -2.489453336927793   7.186235012050854   8.338374267767634 
  3.734078536549908   0.718469281010728   8.339275998162806 
  7.468290846664156   7.186314728377765   8.339275998162806 
  8.712918177793505   0.718571475017997   8.338858158121703 
 13.691553041506001   0.718571475017997   8.338858158121703 
 -0.011016674177681   1.427636061654300   5.002978606422314 
  3.734078536549919   7.919403085171695   5.002978606422314 
  5.009681844408241   1.353407277968710   5.002978606422314 
  8.737999431420075   7.919381321579021   5.002978606422314 
  9.961953191317827   1.434701137512549   5.002978606422314 
 -4.978795080419224  10.060746174094437  11.673616748318732 
  0.000025798324221  10.060749063040332  11.673616748318732 
  1.244714720419119   3.593131376568043  11.673616748318732 
  4.978768763907665  10.060743299054909  11.673616748318732 
  6.223442352680716   3.593131376568043  11.673616748318732 
 11.202235609649687   3.593124841098475  11.673616748318732 
 -2.494207591862296  10.057948566102496   5.002978606422314 
 -1.258524931370761   3.588383745974431   5.002978606422314 
  3.734078536549871   3.307775110551398   5.002978606422314 
  2.486570279356832  10.075078930137526   5.002978606422314 
  7.484352220354755  10.079688162079750   5.002978606422314 
  8.726682004470579   3.588383745974431   5.002978606422314 
 -6.223491477822174  12.216617796502488  11.673616748318732 
 -1.244665595277645  12.216617796502488  11.673616748318732 
  0.000063831127107   5.748940748618814  11.673616748318732 
  4.978611087185538   5.748897449046745  11.673616748318732 
  3.734078536549914  12.216603334707569  11.673616748318732 
  9.957544216047836   5.748959367737187  11.673616748318732 
 -2.513899356630549   5.753537569162504   5.002978606422314 
 -3.734078536549909  12.187563584122040   5.002978606422314 
  1.248022155586233  12.218525918161273   5.002978606422314 
  2.242270852985020   5.891661813607372   5.002978606422314 
  6.220134917513610  12.218525918161273   5.002978606422314 
  7.556220065399745   5.764140860141898   5.002978606422314 
 -1.244649773485908   7.904836375943287  11.673616748318732 
 -0.000010668398507   1.437244362621615  11.673616748318732 
  3.734078536549927   7.904835984630147  11.673616748318732 
  4.978782115414082   1.437327401572849  11.673616748318732 
  8.712806846585625   7.904836375943287  11.673616748318732 
 -3.734078536549897   7.910429095075089   5.002978606422314 
  9.957542413056034   1.437247701529332  11.673616748318732 
  2.458475228691486   1.353407277968710   5.002978606422314 
  1.187540315558425   7.973550599655624   5.002978606422314 
  6.280616757541323   7.973550599655624   5.002978606422314 
  7.479173747277497   1.427636061654300   5.002978606422314 
  1.244767409991259   7.904830587574557  11.673616748318732 
 12.442518027981560   1.434701137512549   5.002978606422314 
 -2.489361992680596  10.060746174094437  11.673616748318732 
 -1.244700895756265   3.593111076089724  11.673616748318732 
  3.734078536549865   3.593303839672640  11.673616748318732 
  2.489388309192178  10.060743299054909  11.673616748318732 
  7.468131274775528  10.060749063040332  11.673616748318732 
  8.712857968856085   3.593111076089724  11.673616748318732 
 -4.973949481237526  10.057948566102496   5.002978606422314 
 -0.016195147255020  10.079688162079750   5.002978606422314 
  1.232099241290659   3.585847826297262   5.002978606422314 
  4.981586793742993  10.075078930137526   5.002978606422314 
  6.236057831809173   3.585847826297262   5.002978606422314 
 11.202235609649680   3.589274390957470   5.002978606422314 
 -2.489387142948001   5.748959367737187  11.673616748318732 
 -3.734078536549923  12.216653475393537  11.673616748318732 
  1.244687567948128  12.216600693090779  11.673616748318732 
  2.489545985914297   5.748897449046745  11.673616748318732 
  6.223469505151728  12.216600693090779  11.673616748318732 
 -6.231782745925488  12.193100496037761   5.002978606422314 
  7.468093241972745   5.748940748618814  11.673616748318732 
 -1.236374327174345  12.193100496037761   5.002978606422314 
 -0.088062992299908   5.764140860141898   5.002978606422314 
 -1.269842358320328   7.919381321579021   5.002978606422314 
  5.225886220114814   5.891661813607372   5.002978606422314 
  3.734078536549913  12.221696462741132   5.002978606422314 
  9.982056429730369   5.753537569162504   5.002978606422314 
 -3.734078536549903   7.904833879091223  11.673616748318732 
  2.489374957685662   1.437327401572849  11.673616748318732 
  6.223389663108476   7.904830587574557  11.673616748318732 
  7.468167741498356   1.437244362621615  11.673616748318732 
 12.446928806243337   1.437247701529332  11.673616748318732 
  3.734078536549917   5.030366245922021   5.002978606422314 
  1.217008096198412   0.677465668606435   5.002978606422314 
  5.049261622989625   7.274854246917860   5.002978606422314 
  6.251148976901419   0.677465668606435   5.002978606422314 
  9.970019267427567   7.189978122050436   5.002978606422314 
 11.202235609649751   0.718623749417456   5.002978606422314 
 -3.734078536549858   9.342108742426666  11.673616748318732 
  1.244686805645195   9.342279745640443  11.673616748318732 
  2.489154098958999   2.874311478915013  11.673616748318732 
  6.223470267454674   9.342279745640443  11.673616748318732 
  7.468407161919547   2.874350608822387  11.673616748318732 
 12.446843923907188   2.874428123545911  11.673616748318732 
 -1.254170575930637   9.351043397292083   5.002978606422314 
 -0.011967536203801   2.867585537420900   5.002978606422314 
  5.020270620681739   2.769140281939761   5.002978606422314 
  3.734078536549978   9.355927662924339   5.002978606422314 
  8.722327649030458   9.351043397292083   5.002978606422314 
  9.963231403461991   2.868326486138600   5.002978606422314 
 -4.978812381621489  11.497972287381216  11.673616748318732 
  0.000058577649574  11.498013810500701  11.673616748318732 
  1.244418117575862   5.030257440679729  11.673616748318732 
  6.223738955524079   5.030257440679729  11.673616748318732 
  4.978755733006098  11.498086633958717  11.673616748318732 
 11.202235609649732   5.030298606278527  11.673616748318732 
 -1.294179163729051   5.026969590120503   5.002978606422314 
 -2.486386918152754  11.485304707937486   5.002978606422314 
  2.491883459058431  11.505990752616274   5.002978606422314 
  7.463960309919346  11.500402993030931   5.002978606422314 
  8.762336236829004   5.026969590120503   5.002978606422314 
 -0.000081011531760   7.186284266204073  11.673616748318732 
  1.244547772325122   0.718533017128457  11.673616748318732 
  4.978814517933110   7.186529818171413  11.673616748318732 
  6.223609300774711   0.718533017128457  11.673616748318732 
  9.957569935162113   7.186205839167052  11.673616748318732 
 -2.501862194327748   7.189978122050436   5.002978606422314 
 11.202235609649751   0.718623749417457  11.673616748318732 
  3.734078536549915   0.675760706075850   5.002978606422314 
  2.418895450110196   7.274854246917860   5.002978606422314 
  7.505277557517172   7.207669015845211   5.002978606422314 
  8.721036325970442   0.716781499011265   5.002978606422314 
  2.489342555166728   7.186529818171413  11.673616748318732 
 13.683434893329048   0.716781499011265   5.002978606422314 
 -1.244679016990628   9.342148100731725  11.673616748318732 
 -0.000250088819595   2.874350608822387  11.673616748318732 
  4.979002974140835   2.874311478915013  11.673616748318732 
  3.734078536549971   9.342397520121382  11.673616748318732 
  8.712836090090466   9.342148100731725  11.673616748318732 
  9.957627295392303   2.874428123545911  11.673616748318732 
 -3.734078536549858   9.342108742426664   5.002978606422314 
  1.222891276622402   9.386663479039191   5.002978606422314 