Species order: X N B                    
   2.51242800000000     
     5.9449720136058266    0.0000000000000000    0.0000000000000000
    -2.9724860068029120    5.1484967885702053   -0.0000000000000001
     0.0000000000000000    0.0000000000000009    5.3101128803662583
   Ga   N    B 
     1   144   143
Direct
  0.4444444444444429  0.3888888888888857  0.3750000000000000
  0.1110941395096311  0.0555406675480341  0.1248840021878757
  0.6111312658618220  0.5555799291906576  0.1249122892330953
  0.4444465280384035  0.0555406675480341  0.1248840021878757
  0.9444488774551048  0.5555553636668917  0.1249942591401705
  0.7777777777777786  0.0555555555555571  0.1249591326167376
  0.1111111111111143  0.7222222222222214  0.6250102276393364
  0.4444465280384035  0.7222391938237052  0.6251159978121242
  0.2777534041426793  0.2222020674715138  0.6250877107669044
  0.7777926657853027  0.7222391938237052  0.6251159978121242
  0.6111181556032543  0.2222151777300806  0.6251431533887184
  0.9444378538080505  0.2222196728289761  0.6250420110294742
  0.2777779696664434  0.7222268471215482  0.1249942591401705
  0.1110970221268324  0.2222151777300806  0.1248568466112809
  0.4444486633288348  0.2222020674715138  0.1249122892330953
  0.6111181556032543  0.7222363112065038  0.1248568466112809
  0.9444488774551048  0.7222268471215482  0.1249942591401705
  0.7777818190209274  0.2222196728289761  0.1249579889705260
  0.1111064862117869  0.8888844558782238  0.6250057408598307
  0.4444479277374981  0.8888906305354122  0.6250202566518551
  0.2777534041426793  0.3888846700044938  0.6250877107669044
  0.6111312658618220  0.3888846700044938  0.6250877107669044
  0.7777818190209274  0.8888954795252781  0.6250420110294742
  0.9444427027979164  0.3888854055958305  0.6250202566518551
  0.1110941395096311  0.3888868052949251  0.1248840021878757
  0.2777779696664434  0.8888844558782238  0.1249942591401705
  0.6111136605043601  0.8888954795252781  0.1249579889705260
  0.4444444444444429  0.3888888888888857  0.1282242957747754
  0.9444427027979164  0.8888906305354122  0.1249797433481450
  0.7777926657853027  0.3888868052949251  0.1248840021878757
  0.2777718069354851  0.5555615263978509  0.6250733303749558
  0.1110941395096311  0.0555406675480341  0.6251159978121242
  0.6111312658618220  0.5555799291906576  0.6250877107669044
  0.4444465280384035  0.0555406675480341  0.6251159978121242
  0.9444488774551048  0.5555553636668917  0.6250057408598307
  0.1111064862117869  0.5555553636668917  0.1249942591401705
  0.7777777777777786  0.0555555555555571  0.6250408673832630
  0.2777718069354851  0.0555436138709706  0.1249266696250445
  0.4444486633288348  0.5555799291906576  0.1249122892330953
  0.7777897194623655  0.5555615263978509  0.1249266696250445
  0.6111136605043601  0.0555515143124092  0.1249579889705260
  0.4444486633288348  0.5555799291906576  0.6250877107669044
  0.9444378538080505  0.0555515143124092  0.1249579889705260
  0.2777779696664434  0.7222268471215482  0.6250057408598307
  0.1110970221268324  0.2222151777300806  0.6251431533887184
  0.4444486633288348  0.2222020674715138  0.6250877107669044
  0.6111181556032543  0.7222363112065038  0.6251431533887184
  0.9444488774551048  0.7222268471215482  0.6250057408598307
  0.7777818190209274  0.2222196728289761  0.6250420110294742
  0.1111111111111143  0.7222222222222214  0.1249897723606632
  0.4444465280384035  0.7222391938237052  0.1248840021878757
  0.2777534041426793  0.2222020674715138  0.1249122892330953
  0.7777926657853027  0.7222391938237052  0.1248840021878757
  0.6111181556032543  0.2222151777300806  0.1248568466112809
  0.9444378538080505  0.2222196728289761  0.1249579889705260
  0.1110941395096311  0.3888868052949251  0.6251159978121242
  0.2777779696664434  0.8888844558782238  0.6250057408598307
  0.6111136605043601  0.8888954795252781  0.6250420110294742
  0.4444444444444429  0.3888888888888857  0.6217757042252244
  0.9444427027979164  0.8888906305354122  0.6250202566518551
  0.1111064862117869  0.8888844558782238  0.1249942591401705
  0.7777926657853027  0.3888868052949251  0.6251159978121242
  0.4444479277374981  0.8888906305354122  0.1249797433481450
  0.2777534041426793  0.3888846700044938  0.1249122892330953
  0.2777718069354851  0.5555615263978509  0.1249266696250445
  0.6111312658618220  0.3888846700044938  0.1249122892330953
  0.7777818190209274  0.8888954795252781  0.1249579889705260
  0.9444427027979164  0.3888854055958305  0.1249797433481450
  0.1111064862117869  0.5555553636668917  0.6250057408598307
  0.2777718069354851  0.0555436138709706  0.6250733303749558
  0.7777897194623655  0.5555615263978509  0.6250733303749558
  0.6111136605043601  0.0555515143124092  0.6250420110294742
  0.9444378538080505  0.0555515143124092  0.6250420110294742
  0.0544464572961701  0.1103680675745077  0.3750000000000000
  0.5561176578298169  0.6122353156596344  0.3750000000000000
  0.3877176018114295  0.1046295690636958  0.3750000000000000
  0.8911339329747286  0.6122336331540355  0.3750000000000000
  0.7224190769991800  0.1109142563341552  0.3750000000000000
  0.0555544978045187  0.7777788355288171  0.8750000000000000
  0.3888912566556925  0.7777790588682134  0.8750000000000000
  0.2222241749487357  0.2777787541410360  0.8750000000000000
  0.7222224646774312  0.7777786132644976  0.8750000000000000
  0.5555545791922998  0.2777787541410360  0.8750000000000000
  0.8888891244476056  0.2777782488952195  0.8750000000000000
  0.2217917812819460  0.7775625573076409  0.3750000000000000
  0.0544464572961702  0.2774117230549987  0.3750000000000000
  0.3778591780945799  0.2557183561891664  0.3750000000000000
  0.5559216102783373  0.7788868760371662  0.3750000000000000
  0.8907058839187528  0.7792432077635284  0.3750000000000000
  0.7229652657588280  0.2774117230549987  0.3750000000000000
  0.0555542744651225  0.9444455311208146  0.8750000000000000
  0.3888912566556925  0.9444455311208146  0.8750000000000000
  0.2222245921857428  0.4444406372658914  0.8750000000000000
  0.5555412463688343  0.4444372898510814  0.8750000000000000
  0.7222222065522671  0.9444444131045353  0.8750000000000000
  0.8888878022125140  0.4444420766776361  0.8750000000000000
  0.0540901255698072  0.4447960094885606  0.3750000000000000
  0.2210997001792999  0.9421994003585999  0.3750000000000000
  0.5558527560595962  0.9445930446964621  0.3750000000000000
  0.3778591780945800  0.4554741552387487  0.3750000000000000
  0.8887402886368665  0.9445930446964621  0.3750000000000000
  0.7287037642696397  0.4456157315218991  0.3750000000000000
  0.2222241446969964  0.6111091886363390  0.8750000000000000
  0.0555547200688385  0.1111108686559043  0.8750000000000000
  0.5555545791922998  0.6111091583845993  0.8750000000000000
  0.3888926960674371  0.1111172882531865  0.8750000000000000
  0.8888850439393350  0.6111091886363390  0.8750000000000000
  0.0557707760256947  0.6115415520513885  0.3750000000000000
  0.7222222065522671  0.1111111267810681  0.8750000000000000
  0.2169119672522594  0.1046295690636958  0.3750000000000000
  0.3877176018114295  0.6164213660810758  0.3750000000000000
  0.7287037642696397  0.6164213660810758  0.3750000000000000
  0.5559216102783373  0.1103680675745077  0.3750000000000000
  0.3888926960674371  0.6111087411475929  0.8750000000000000
  0.8884951793349679  0.1109142563341552  0.3750000000000000
  0.2222243377242983  0.7777788355288171  0.8750000000000000
  0.0555547200688385  0.2777771847462700  0.8750000000000000
  0.3888960434822472  0.2777920869645013  0.8750000000000000
  0.5555561485870670  0.7777786132644976  0.8750000000000000
  0.8888878022125140  0.7777790588682134  0.8750000000000000
  0.7222224646774312  0.2777771847462700  0.8750000000000000
  0.0557707760256947  0.7775625573076409  0.3750000000000000
  0.3885373238447680  0.7792432077635284  0.3750000000000000
  0.2210980176737015  0.2772156755035185  0.3750000000000000
  0.7229652657588280  0.7788868760371662  0.3750000000000000
  0.5561176578298169  0.2772156755035185  0.3750000000000000
  0.8887402886368665  0.2774805772737408  0.3750000000000000
  0.0555542744651225  0.4444420766776361  0.8750000000000000
  0.2222241446969964  0.9444482893939936  0.8750000000000000
  0.5555550844381180  0.9444442088857230  0.8750000000000000
  0.3888960434822472  0.4444372898510814  0.8750000000000000
  0.8888891244476056  0.9444442088857230  0.8750000000000000
  0.0540901255698072  0.9426274494145758  0.3750000000000000
  0.7222160450801489  0.4444406372658914  0.8750000000000000
  0.3885373238447680  0.9426274494145758  0.3750000000000000
  0.2169119672522594  0.4456157315218991  0.3750000000000000
  0.2210997001792999  0.6122336331540355  0.3750000000000000
  0.5776149771441688  0.4554741552387486  0.3750000000000000
  0.7224190769991800  0.9448381539983607  0.3750000000000000
  0.8907058839187528  0.4447960094885606  0.3750000000000000
  0.0555544978045187  0.6111089956090372  0.8750000000000000
  0.2222245921857428  0.1111172882531865  0.8750000000000000
  0.7222160450801489  0.6111087411475929  0.8750000000000000
  0.5555561485870670  0.1111108686559043  0.8750000000000000
  0.8888889202287933  0.1111111267810681  0.8750000000000000
  0.1076666617074492  0.0523736957201283  0.3750000000000000
  0.6192559014377915  0.5624063629971201  0.3750000000000000
  0.4447070340126794  0.0523736957201283  0.3750000000000000
  0.9454243485668664  0.5558447370082279  0.3750000000000000
  0.7777777777777786  0.0555555555555571  0.3750000000000000
  0.1111111111111143  0.7222222222222214  0.8750000000000000
  0.4444506500504016  0.7222354421840594  0.8750000000000000
  0.2777551787166285  0.2222080347056216  0.8750000000000000
  0.7777847921336590  0.7222354421840594  0.8750000000000000
  0.6111222735624486  0.2222110597708871  0.8750000000000000
  0.9444362000374652  0.2222170522997070  0.8750000000000000
  0.2774885963251075  0.7229129448919740  0.3750000000000000
  0.1100427943374918  0.2216880638354100  0.3750000000000000
  0.4431504615593269  0.2140774318955430  0.3750000000000000
  0.6116452694979259  0.7232905389958438  0.3750000000000000
  0.9454243485668664  0.7229129448919740  0.3750000000000000
  0.7779201989611469  0.2217453452955387  0.3750000000000000
  0.1111080683888206  0.8888882933603003  0.8750000000000000
  0.4444496735479549  0.8888915034406422  0.8750000000000000
  0.2777551787166285  0.3888804773443358  0.8750000000000000
  0.6111252986277140  0.3888804773443358  0.8750000000000000
  0.7777808522622416  0.8888971332958634  0.8750000000000000
  0.9444418298926864  0.3888836597853736  0.8750000000000000
  0.1076666617074492  0.3886262993206492  0.3750000000000000
  0.2774885963251075  0.8879089847664622  0.3750000000000000
  0.6115879880377973  0.8895081869989364  0.3750000000000000
  0.9442571263355078  0.8890762069978208  0.3750000000000000
  0.7809596376132083  0.3886262993206492  0.3750000000000000
  0.2777741619132950  0.5555591714200415  0.8750000000000000
  0.1110978911492750  0.0555485411996767  0.8750000000000000
  0.6111252986277140  0.5555781546167073  0.8750000000000000
  0.4444506500504016  0.0555485411996767  0.8750000000000000
  0.9444450399730283  0.5555531083618478  0.8750000000000000
  0.1104203884413610  0.5558447370082279  0.3750000000000000
  0.7777777777777786  0.0555555555555571  0.8750000000000000
  0.2761209440121428  0.0522418880242856  0.3750000000000000
  0.4431504615593269  0.5624063629971201  0.3750000000000000
  0.7810914453090502  0.5572123893211939  0.3750000000000000
  0.6115879880377973  0.0554131343721886  0.3750000000000000
  0.4444528559889928  0.5555781546167073  0.8750000000000000
  0.9438251463343922  0.0554131343721886  0.3750000000000000
  0.2777802249714874  0.7222252649445152  0.8750000000000000
  0.1110887862084458  0.2222110597708871  0.8750000000000000
  0.4444528559889928  0.2222080347056216  0.8750000000000000
  0.6111222735624486  0.7222445471248905  0.8750000000000000
  0.9444450399730283  0.7222252649445152  0.8750000000000000
  0.7777808522622416  0.2222170522997070  0.8750000000000000
  0.1111111111111143  0.7222222222222214  0.3750000000000000
  0.4447070340126794  0.7256666716258862  0.3750000000000000
  0.2709269703362165  0.2140774318955431  0.3750000000000000
  0.7809596376132083  0.7256666716258862  0.3750000000000000
  0.6116452694979259  0.2216880638354100  0.3750000000000000
  0.9438251463343922  0.2217453452955387  0.3750000000000000
  0.1110978911492750  0.3888826832829270  0.8750000000000000
  0.2777802249714874  0.8888882933603003  0.8750000000000000
  0.6111162810336290  0.8888971332958634  0.8750000000000000
  0.4444444444444429  0.3888888888888857  0.8750000000000000
  0.9444418298926864  0.8888915034406422  0.8750000000000000
  0.1104203884413610  0.8879089847664622  0.3750000000000000
  0.7777847921336590  0.3888826832829270  0.8750000000000000
  0.4448190806623135  0.8890762069978208  0.3750000000000000
  0.2709269703362165  0.3901828717740017  0.3750000000000000
  0.2761209440121428  0.5572123893211939  0.3750000000000000
  0.6192559014377915  0.3901828717740017  0.3750000000000000
  0.7779201989611469  0.8895081869989364  0.3750000000000000
  0.9442571263355078  0.3885142526710151  0.3750000000000000
  0.1111080683888206  0.5555531083618478  0.8750000000000000
  0.2777741619132950  0.0555483238265900  0.8750000000000000
  0.7777850095067458  0.5555591714200415  0.8750000000000000
  0.6111162810336290  0.0555524810710936  0.8750000000000000
  0.9444362000374652  0.0555524810710936  0.8750000000000000
  0.0555273065825359  0.1110904761625646  0.1249530696016402
  0.5555931310205484  0.6111862620410975  0.1249280391810718
  0.3888623272333129  0.1110295326088283  0.1248999510050831
  0.8889151871746991  0.6111242602540223  0.1249971234518482
  0.7222252202056650  0.1111081131276706  0.1249969428915871
  0.0555568350213065  0.7777764983120289  0.6249976664337430
  0.3888887362011446  0.7777931279719750  0.6250148904180984
  0.2221470712922374  0.2777402023127870  0.6250719608189281
  0.7222428571707701  0.7778060267507996  0.6250469303983605
  0.5555931310205484  0.2777402023127870  0.6250719608189281
  0.8888850317775592  0.2777700635551256  0.6250036653093818
  0.2222196632907226  0.7777764983120289  0.1250023335662570
  0.0555273065825359  0.2777701637533075  0.1249530696016402
  0.3887596165539071  0.2775192331078218  0.1258172406533474
  0.5555631695800284  0.7778060267507996  0.1249530696016402
  0.8889043917708237  0.7777931279719750  0.1249851095819019
  0.7222428571707701  0.2777701637533075  0.1249530696016402
  0.0555402053613605  0.9444289415625049  0.6250148904180984
  0.3888887362011446  0.9444289415625049  0.6250148904180984
  0.2221672053755080  0.4444710061000157  0.6251000489949169
  0.5558141002255144  0.4445737167794215  0.6241827593466532
  0.7222252202056650  0.9444504404113302  0.6250030571084140
  0.8889043917708237  0.4444445971321840  0.6250148904180984
  0.0555402053613605  0.4444445971321840  0.1249851095819019
  0.2222090730793142  0.9444181461586295  0.1249971234518482
  0.5555632697782104  0.9444483015557694  0.1249963346906183
  0.3887596165539071  0.4445737167794215  0.1258172406533474
  0.8888850317775592  0.9444483015557694  0.1249963346906183
  0.7223038007245076  0.4444710061000157  0.1248999510050831
  0.2222090730793142  0.6111242602540223  0.6250028765481512
  0.0555273065825359  0.1110904761625646  0.6250469303983605
  0.5555931310205484  0.6111862620410975  0.6250719608189281
  0.3888623272333129  0.1110295326088283  0.6251000489949169
  0.8889151871746991  0.6111242602540223  0.6250028765481512
  0.0555568350213065  0.6111136700426137  0.1250023335662570
  0.7222252202056650  0.1111081131276706  0.6250030571084140
  0.2221672053755080  0.1110295326088283  0.1248999510050831
  0.3888623272333129  0.6111661279578267  0.1248999510050831
  0.7223038007245076  0.6111661279578267  0.1248999510050831
  0.5555631695800284  0.1110904761625646  0.1249530696016402
  0.3888623272333129  0.6111661279578267  0.6251000489949169
  0.8888828929219984  0.1111081131276706  0.1249969428915871
  0.2222196632907226  0.7777764983120289  0.6249976664337430
  0.0555273065825359  0.2777701637533075  0.6250469303983605
  0.3887596165539071  0.2775192331078218  0.6241827593466532
  0.5555631695800284  0.7778060267507996  0.6250469303983605
  0.8889043917708237  0.7777931279719750  0.6250148904180984
  0.7222428571707702  0.2777701637533075  0.6250469303983605
  0.0555568350213065  0.7777764983120289  0.1250023335662570
  0.3888887362011446  0.7777931279719750  0.1249851095819019
  0.2221470712922374  0.2777402023127870  0.1249280391810718
  0.7222428571707701  0.7778060267507996  0.1249530696016402
  0.5555931310205484  0.2777402023127870  0.1249280391810718
  0.8888850317775592  0.2777700635551256  0.1249963346906183
  0.0555402053613605  0.4444445971321840  0.6250148904180984
  0.2222090730793142  0.9444181461586295  0.6250028765481512
  0.5555632697782104  0.9444483015557694  0.6250036653093818
  0.3887596165539071  0.4445737167794215  0.6241827593466532
  0.8888850317775592  0.9444483015557694  0.6250036653093818
  0.0555402053613605  0.9444289415625049  0.1249851095819019
  0.7223038007245076  0.4444710061000157  0.6251000489949169
  0.3888887362011446  0.9444289415625049  0.1249851095819019
  0.2221672053755080  0.4444710061000157  0.1248999510050831
  0.2222090730793142  0.6111242602540223  0.1249971234518482
  0.5558141002255144  0.4445737167794215  0.1258172406533474
  0.7222252202056650  0.9444504404113302  0.1249969428915871
  0.8889043917708237  0.4444445971321840  0.1249851095819019
  0.0555568350213065  0.6111136700426137  0.6249976664337430
  0.2221672053755080  0.1110295326088283  0.6251000489949169
  0.7223038007245076  0.6111661279578267  0.6251000489949169
  0.5555631695800284  0.1110904761625646  0.6250469303983605
  0.8888828929219984  0.1111081131276706  0.6250030571084140
 
  0.00000000E+00  0.00000000E+00  0.00000000E+00
  0.00000000E+00  0.00000000E+00  0.00000000E+00
  0.00000000E+00  0.00000000E+00  0.00000000E+00
  0.00000000E+00  0.00000000E+00  0.00000000E+00
  0.00000000E+00  0.00000000E+00  0.00000000E+00
  0.00000000E+00  0.00000000E+00  0.00000000E+00
  0.00000000E+00  0.00000000E+00  0.00000000E+00
  0.00000000E+00  0.00000000E+00  0.00000000E+00
  0.00000000E+00  0.00000000E+00  0.00000000E+00
  0.00000000E+00  0.00000000E+00  0.00000000E+00
  0.00000000E+00  0.00000000E+00  0.00000000E+00
  0.00000000E+00  0.00000000E+00  0.00000000E+00
  0.00000000E+00  0.00000000E+00  0.00000000E+00
  0.00000000E+00  0.00000000E+00  0.00000000E+00
  0.00000000E+00  0.00000000E+00  0.00000000E+00
  0.00000000E+00  0.00000000E+00  0.00000000E+00
  0.00000000E+00  0.00000000E+00  0.00000000E+00
  0.00000000E+00  0.00000000E+00  0.00000000E+00
  0.00000000E+00  0.00000000E+00  0.00000000E+00
  0.00000000E+00  0.00000000E+00  0.00000000E+00
  0.00000000E+00  0.00000000E+00  0.00000000E+00
  0.00000000E+00  0.00000000E+00  0.00000000E+00
  0.00000000E+00  0.00000000E+00  0.00000000E+00
  0.00000000E+00  0.00000000E+00  0.00000000E+00
  0.00000000E+00  0.00000000E+00  0.00000000E+00
  0.00000000E+00  0.00000000E+00  0.00000000E+00
  0.00000000E+00  0.00000000E+00  0.00000000E+00
  0.00000000E+00  0.00000000E+00  0.00000000E+00
  0.00000000E+00  0.00000000E+00  0.00000000E+00
  0.00000000E+00  0.00000000E+00  0.00000000E+00
  0.00000000E+00  0.00000000E+00  0.00000000E+00
  0.00000000E+00  0.00000000E+00  0.00000000E+00
  0.00000000E+00  0.00000000E+00  0.00000000E+00
  0.00000000E+00  0.00000000E+00  0.00000000E+00
  0.00000000E+00  0.00000000E+00  0.00000000E+00
  0.00000000E+00  0.00000000E+00  0.00000000E+00
  0.00000000E+00  0.00000000E+00  0.00000000E+00
  0.00000000E+00  0.00000000E+00  0.00000000E+00
  0.00000000E+00  0.00000000E+00  0.00000000E+00
  0.00000000E+00  0.00000000E+00  0.00000000E+00
  0.00000000E+00  0.00000000E+00  0.00000000E+00
  0.00000000E+00  0.00000000E+00  0.00000000E+00
  0.00000000E+00  0.00000000E+00  0.00000000E+00
  0.00000000E+00  0.00000000E+00  0.00000000E+00
  0.00000000E+00  0.00000000E+00  0.00000000E+00
  0.00000000E+00  0.00000000E+00  0.00000000E+00
  0.00000000E+00  0.00000000E+00  0.00000000E+00
  0.00000000E+00  0.00000000E+00  0.00000000E+00
  0.00000000E+00  0.00000000E+00  0.00000000E+00
  0.00000000E+00  0.00000000E+00  0.00000000E+00
  0.00000000E+00  0.00000000E+00  0.00000000E+00
  0.00000000E+00  0.00000000E+00  0.00000000E+00
  0.00000000E+00  0.00000000E+00  0.00000000E+00
  0.00000000E+00  0.00000000E+00  0.00000000E+00
  0.00000000E+00  0.00000000E+00  0.00000000E+00
  0.00000000E+00  0.00000000E+00  0.00000000E+00
  0.00000000E+00  0.00000000E+00  0.00000000E+00
  0.00000000E+00  0.00000000E+00  0.00000000E+00
  0.00000000E+00  0.00000000E+00  0.00000000E+00
  0.00000000E+00  0.00000000E+00  0.00000000E+00
  0.00000000E+00  0.00000000E+00  0.00000000E+00
  0.00000000E+00  0.00000000E+00  0.00000000E+00
  0.00000000E+00  0.00000000E+00  0.00000000E+00
  0.00000000E+00  0.00000000E+00  0.00000000E+00
  0.00000000E+00  0.00000000E+00  0.00000000E+00
  0.00000000E+00  0.00000000E+00  0.00000000E+00
  0.00000000E+00  0.00000000E+00  0.00000000E+00
  0.00000000E+00  0.00000000E+00  0.00000000E+00
  0.00000000E+00  0.00000000E+00  0.00000000E+00
  0.00000000E+00  0.00000000E+00  0.00000000E+00
  0.00000000E+00  0.00000000E+00  0.00000000E+00
  0.00000000E+00  0.00000000E+00  0.00000000E+00
  0.00000000E+00  0.00000000E+00  0.00000000E+00
  0.00000000E+00  0.00000000E+00  0.00000000E+00
  0.00000000E+00  0.00000000E+00  0.00000000E+00
  0.00000000E+00  0.00000000E+00  0.00000000E+00
  0.00000000E+00  0.00000000E+00  0.00000000E+00
  0.00000000E+00  0.00000000E+00  0.00000000E+00
  0.00000000E+00  0.00000000E+00  0.00000000E+00
  0.00000000E+00  0.00000000E+00  0.00000000E+00
  0.00000000E+00  0.00000000E+00  0.00000000E+00
  0.00000000E+00  0.00000000E+00  0.00000000E+00
  0.00000000E+00  0.00000000E+00  0.00000000E+00
  0.00000000E+00  0.00000000E+00  0.00000000E+00
  0.00000000E+00  0.00000000E+00  0.00000000E+00
  0.00000000E+00  0.00000000E+00  0.00000000E+00
  0.00000000E+00  0.00000000E+00  0.00000000E+00
  0.00000000E+00  0.00000000E+00  0.00000000E+00
  0.00000000E+00  0.00000000E+00  0.00000000E+00
  0.00000000E+00  0.00000000E+00  0.00000000E+00
  0.00000000E+00  0.00000000E+00  0.00000000E+00
  0.00000000E+00  0.00000000E+00  0.00000000E+00
  0.00000000E+00  0.00000000E+00  0.00000000E+00
  0.00000000E+00  0.00000000E+00  0.00000000E+00
  0.00000000E+00  0.00000000E+00  0.00000000E+00
  0.00000000E+00  0.00000000E+00  0.00000000E+00
  0.00000000E+00  0.00000000E+00  0.00000000E+00
  0.00000000E+00  0.00000000E+00  0.00000000E+00
  0.00000000E+00  0.00000000E+00  0.00000000E+00
  0.00000000E+00  0.00000000E+00  0.00000000E+00
  0.00000000E+00  0.00000000E+00  0.00000000E+00
  0.00000000E+00  0.00000000E+00  0.00000000E+00
  0.00000000E+00  0.00000000E+00  0.00000000E+00
  0.00000000E+00  0.00000000E+00  0.00000000E+00
  0.00000000E+00  0.00000000E+00  0.00000000E+00
  0.00000000E+00  0.00000000E+00  0.00000000E+00
  0.00000000E+00  0.00000000E+00  0.00000000E+00
  0.00000000E+00  0.00000000E+00  0.00000000E+00
  0.00000000E+00  0.00000000E+00  0.00000000E+00
  0.00000000E+00  0.00000000E+00  0.00000000E+00
  0.00000000E+00  0.00000000E+00  0.00000000E+00
  0.00000000E+00  0.00000000E+00  0.00000000E+00
  0.00000000E+00  0.00000000E+00  0.00000000E+00
  0.00000000E+00  0.00000000E+00  0.00000000E+00
  0.00000000E+00  0.00000000E+00  0.00000000E+00
  0.00000000E+00  0.00000000E+00  0.00000000E+00
  0.00000000E+00  0.00000000E+00  0.00000000E+00
  0.00000000E+00  0.00000000E+00  0.00000000E+00
  0.00000000E+00  0.00000000E+00  0.00000000E+00
  0.00000000E+00  0.00000000E+00  0.00000000E+00
  0.00000000E+00  0.00000000E+00  0.00000000E+00
  0.00000000E+00  0.00000000E+00  0.00000000E+00
  0.00000000E+00  0.00000000E+00  0.00000000E+00
  0.00000000E+00  0.00000000E+00  0.00000000E+00
  0.00000000E+00  0.00000000E+00  0.00000000E+00
  0.00000000E+00  0.00000000E+00  0.00000000E+00
  0.00000000E+00  0.00000000E+00  0.00000000E+00
  0.00000000E+00  0.00000000E+00  0.00000000E+00
  0.00000000E+00  0.00000000E+00  0.00000000E+00
  0.00000000E+00  0.00000000E+00  0.00000000E+00
  0.00000000E+00  0.00000000E+00  0.00000000E+00
  0.00000000E+00  0.00000000E+00  0.00000000E+00
  0.00000000E+00  0.00000000E+00  0.00000000E+00
  0.00000000E+00  0.00000000E+00  0.00000000E+00
  0.00000000E+00  0.00000000E+00  0.00000000E+00
  0.00000000E+00  0.00000000E+00  0.00000000E+00
  0.00000000E+00  0.00000000E+00  0.00000000E+00
  0.00000000E+00  0.00000000E+00  0.00000000E+00
  0.00000000E+00  0.00000000E+00  0.00000000E+00
  0.00000000E+00  0.00000000E+00  0.00000000E+00
  0.00000000E+00  0.00000000E+00  0.00000000E+00
  0.00000000E+00  0.00000000E+00  0.00000000E+00
  0.00000000E+00  0.00000000E+00  0.00000000E+00
  0.00000000E+00  0.00000000E+00  0.00000000E+00
  0.00000000E+00  0.00000000E+00  0.00000000E+00
  0.00000000E+00  0.00000000E+00  0.00000000E+00
  0.00000000E+00  0.00000000E+00  0.00000000E+00
  0.00000000E+00  0.00000000E+00  0.00000000E+00
  0.00000000E+00  0.00000000E+00  0.00000000E+00
  0.00000000E+00  0.00000000E+00  0.00000000E+00
  0.00000000E+00  0.00000000E+00  0.00000000E+00
  0.00000000E+00  0.00000000E+00  0.00000000E+00
  0.00000000E+00  0.00000000E+00  0.00000000E+00
  0.00000000E+00  0.00000000E+00  0.00000000E+00
  0.00000000E+00  0.00000000E+00  0.00000000E+00
  0.00000000E+00  0.00000000E+00  0.00000000E+00
  0.00000000E+00  0.00000000E+00  0.00000000E+00
  0.00000000E+00  0.00000000E+00  0.00000000E+00
  0.00000000E+00  0.00000000E+00  0.00000000E+00
  0.00000000E+00  0.00000000E+00  0.00000000E+00
  0.00000000E+00  0.00000000E+00  0.00000000E+00
  0.00000000E+00  0.00000000E+00  0.00000000E+00
  0.00000000E+00  0.00000000E+00  0.00000000E+00
  0.00000000E+00  0.00000000E+00  0.00000000E+00
  0.00000000E+00  0.00000000E+00  0.00000000E+00
  0.00000000E+00  0.00000000E+00  0.00000000E+00
  0.00000000E+00  0.00000000E+00  0.00000000E+00
  0.00000000E+00  0.00000000E+00  0.00000000E+00
  0.00000000E+00  0.00000000E+00  0.00000000E+00
  0.00000000E+00  0.00000000E+00  0.00000000E+00
  0.00000000E+00  0.00000000E+00  0.00000000E+00
  0.00000000E+00  0.00000000E+00  0.00000000E+00
  0.00000000E+00  0.00000000E+00  0.00000000E+00
  0.00000000E+00  0.00000000E+00  0.00000000E+00
  0.00000000E+00  0.00000000E+00  0.00000000E+00
  0.00000000E+00  0.00000000E+00  0.00000000E+00
  0.00000000E+00  0.00000000E+00  0.00000000E+00
  0.00000000E+00  0.00000000E+00  0.00000000E+00
  0.00000000E+00  0.00000000E+00  0.00000000E+00
  0.00000000E+00  0.00000000E+00  0.00000000E+00
  0.00000000E+00  0.00000000E+00  0.00000000E+00
  0.00000000E+00  0.00000000E+00  0.00000000E+00
  0.00000000E+00  0.00000000E+00  0.00000000E+00
  0.00000000E+00  0.00000000E+00  0.00000000E+00
  0.00000000E+00  0.00000000E+00  0.00000000E+00
  0.00000000E+00  0.00000000E+00  0.00000000E+00
  0.00000000E+00  0.00000000E+00  0.00000000E+00
  0.00000000E+00  0.00000000E+00  0.00000000E+00
  0.00000000E+00  0.00000000E+00  0.00000000E+00
  0.00000000E+00  0.00000000E+00  0.00000000E+00
  0.00000000E+00  0.00000000E+00  0.00000000E+00
  0.00000000E+00  0.00000000E+00  0.00000000E+00
  0.00000000E+00  0.00000000E+00  0.00000000E+00
  0.00000000E+00  0.00000000E+00  0.00000000E+00
  0.00000000E+00  0.00000000E+00  0.00000000E+00
  0.00000000E+00  0.00000000E+00  0.00000000E+00
  0.00000000E+00  0.00000000E+00  0.00000000E+00
  0.00000000E+00  0.00000000E+00  0.00000000E+00
  0.00000000E+00  0.00000000E+00  0.00000000E+00
  0.00000000E+00  0.00000000E+00  0.00000000E+00
  0.00000000E+00  0.00000000E+00  0.00000000E+00
  0.00000000E+00  0.00000000E+00  0.00000000E+00
  0.00000000E+00  0.00000000E+00  0.00000000E+00
  0.00000000E+00  0.00000000E+00  0.00000000E+00
  0.00000000E+00  0.00000000E+00  0.00000000E+00
  0.00000000E+00  0.00000000E+00  0.00000000E+00
  0.00000000E+00  0.00000000E+00  0.00000000E+00
  0.00000000E+00  0.00000000E+00  0.00000000E+00
  0.00000000E+00  0.00000000E+00  0.00000000E+00
  0.00000000E+00  0.00000000E+00  0.00000000E+00
  0.00000000E+00  0.00000000E+00  0.00000000E+00
  0.00000000E+00  0.00000000E+00  0.00000000E+00
  0.00000000E+00  0.00000000E+00  0.00000000E+00
  0.00000000E+00  0.00000000E+00  0.00000000E+00
  0.00000000E+00  0.00000000E+00  0.00000000E+00
  0.00000000E+00  0.00000000E+00  0.00000000E+00
  0.00000000E+00  0.00000000E+00  0.00000000E+00
  0.00000000E+00  0.00000000E+00  0.00000000E+00
  0.00000000E+00  0.00000000E+00  0.00000000E+00
  0.00000000E+00  0.00000000E+00  0.00000000E+00
  0.00000000E+00  0.00000000E+00  0.00000000E+00
  0.00000000E+00  0.00000000E+00  0.00000000E+00
  0.00000000E+00  0.00000000E+00  0.00000000E+00
  0.00000000E+00  0.00000000E+00  0.00000000E+00
  0.00000000E+00  0.00000000E+00  0.00000000E+00
  0.00000000E+00  0.00000000E+00  0.00000000E+00
  0.00000000E+00  0.00000000E+00  0.00000000E+00
  0.00000000E+00  0.00000000E+00  0.00000000E+00
  0.00000000E+00  0.00000000E+00  0.00000000E+00
  0.00000000E+00  0.00000000E+00  0.00000000E+00
  0.00000000E+00  0.00000000E+00  0.00000000E+00
  0.00000000E+00  0.00000000E+00  0.00000000E+00
  0.00000000E+00  0.00000000E+00  0.00000000E+00
  0.00000000E+00  0.00000000E+00  0.00000000E+00
  0.00000000E+00  0.00000000E+00  0.00000000E+00
  0.00000000E+00  0.00000000E+00  0.00000000E+00
  0.00000000E+00  0.00000000E+00  0.00000000E+00
  0.00000000E+00  0.00000000E+00  0.00000000E+00
  0.00000000E+00  0.00000000E+00  0.00000000E+00
  0.00000000E+00  0.00000000E+00  0.00000000E+00
  0.00000000E+00  0.00000000E+00  0.00000000E+00
  0.00000000E+00  0.00000000E+00  0.00000000E+00
  0.00000000E+00  0.00000000E+00  0.00000000E+00
  0.00000000E+00  0.00000000E+00  0.00000000E+00
  0.00000000E+00  0.00000000E+00  0.00000000E+00
  0.00000000E+00  0.00000000E+00  0.00000000E+00
  0.00000000E+00  0.00000000E+00  0.00000000E+00