Species order:X N B                     
   2.51242800000000     
     5.9449720136058266    0.0000000000000000    0.0000000000000000
    -2.9724860068029120    5.1484967885702053   -0.0000000000000001
     0.0000000000000000    0.0000000000000009    5.3101128803662583
   C    N    B 
     4   142   142
Direct
  0.7171777834935472  0.4415401841344830  0.3750000000000000
  0.6085608864212941  0.3877580501632671  0.3750000000000000
  0.4440495723201189  0.3876569302684598  0.3750000000000000
  0.5518750301619461  0.4392960907522626  0.3750000000000000
  0.1111625409604839  0.0557094171029686  0.1249486894384460
  0.6111869468258823  0.5557524752501263  0.1246082898084273
  0.4445314760474035  0.0557508004366729  0.1249549227257029
  0.9444799542317920  0.5556825075892478  0.1248481111768674
  0.7778762717492974  0.0557244823284261  0.1249141554569598
  0.1111613180371575  0.7223676732042854  0.6250925228107422
  0.4445254689594809  0.7223828421256487  0.6250598268479775
  0.2777955665816177  0.2223720331693611  0.6250802152332863
  0.7778585714673919  0.7224090760001570  0.6251311401753752
  0.6112142834301288  0.2223765756976103  0.6251336252856921
  0.9445314748059337  0.2223705781970795  0.6250854183948377
  0.2778484027721370  0.7223826787616296  0.1249209473094177
  0.1111452183882597  0.2223515747347286  0.1248925394363277
  0.4445140711705352  0.2224004522732816  0.1249912999933405
  0.6112088399392337  0.7224185739045206  0.1248672527736740
  0.9445016960948108  0.7223806485705464  0.1248408520417075
  0.7778978095144831  0.2223542581938693  0.1248305025477417
  0.1111769850197993  0.8890491948238028  0.6250818708455567
  0.4445257211032488  0.8890660972449218  0.6250647640640425
  0.2778259495029256  0.3890146931045385  0.6250565966140149
  0.6111513280273507  0.3889852139950501  0.6256593679997721
  0.7778732387328050  0.8890793267251795  0.6250821265509291
  0.9445294971002777  0.3890237579788916  0.6251316992782585
  0.1111835243106922  0.3890383124258242  0.1249396571907636
  0.2778493994328957  0.8890653146584477  0.1249458937080704
  0.6111973855954866  0.8890767026353632  0.1249239259830863
  0.4444546934527147  0.3890011482516645  0.1245593247857434
  0.9445184111850449  0.8890633417305298  0.1249074819648965
  0.7778779742164604  0.3889637443349176  0.1243613072713423
  0.2778515620669669  0.5557065086944164  0.6250734203081832
  0.1111625409604839  0.0557094171029686  0.6250513105615541
  0.6111869468258823  0.5557524752501263  0.6253917101915726
  0.4445314760474035  0.0557508004366729  0.6250450772742973
  0.9444799542317920  0.5556825075892478  0.6251518888231326
  0.1111715447971838  0.5557023698193377  0.1249054257294616
  0.7778762717492974  0.0557244823284261  0.6250858445430403
  0.2778462762721087  0.0557343734097776  0.1249441234641096
  0.4445361565999119  0.5557039124409708  0.1249204239921459
  0.7778492520197433  0.5557541215113388  0.1243246361139979
  0.6112034253309330  0.0557257885432565  0.1249132447031542
  0.4445361565999119  0.5557039124409708  0.6250795760078542
  0.9445153894368659  0.0557087835306484  0.1249049670085575
  0.2778484027721370  0.7223826787616296  0.6250790526905822
  0.1111452183882597  0.2223515747347286  0.6251074605636723
  0.4445140711705352  0.2224004522732816  0.6250087000066598
  0.6112088399392337  0.7224185739045206  0.6251327472263259
  0.9445016960948108  0.7223806485705464  0.6251591479582924
  0.7778978095144831  0.2223542581938693  0.6251694974522581
  0.1111613180371575  0.7223676732042854  0.1249074771892577
  0.4445254689594809  0.7223828421256487  0.1249401731520223
  0.2777955665816177  0.2223720331693611  0.1249197847667138
  0.7778585714673919  0.7224090760001570  0.1248688598246247
  0.6112142834301288  0.2223765756976103  0.1248663747143081
  0.9445314748059337  0.2223705781970795  0.1249145816051623
  0.1111835243106922  0.3890383124258242  0.6250603428092364
  0.2778493994328957  0.8890653146584477  0.6250541062919298
  0.6111973855954866  0.8890767026353632  0.6250760740169135
  0.4444546934527147  0.3890011482516645  0.6254406752142565
  0.9445184111850449  0.8890633417305298  0.6250925180351035
  0.1111769850197993  0.8890491948238028  0.1249181291544435
  0.7778779742164604  0.3889637443349176  0.6256386927286576
  0.4445257211032488  0.8890660972449218  0.1249352359359575
  0.2778259495029256  0.3890146931045385  0.1249434033859848
  0.2778515620669669  0.5557065086944164  0.1249265796918168
  0.6111513280273507  0.3889852139950501  0.1243406320002279
  0.7778732387328050  0.8890793267251795  0.1249178734490709
  0.9445294971002777  0.3890237579788916  0.1248683007217414
  0.1111715447971838  0.5557023698193377  0.6250945742705385
  0.2778462762721087  0.0557343734097776  0.6250558765358906
  0.7778492520197433  0.5557541215113388  0.6256753638860024
  0.6112034253309330  0.0557257885432565  0.6250867552968462
  0.9445153894368659  0.0557087835306484  0.6250950329914428
  0.0556003612814823  0.1110198676029167  0.3750000000000000
  0.5555528755768704  0.6118596343207207  0.3750000000000000
  0.3890786164331682  0.1120850757868117  0.3750000000000000
  0.8895210341090972  0.6119011602590635  0.3750000000000000
  0.7220067578587333  0.1101302183974205  0.3750000000000000
  0.0554848352976974  0.7775911322941331  0.8750000000000000
  0.3888137667453740  0.7775961335810989  0.8750000000000000
  0.2221365789329212  0.2775811130716845  0.8750000000000000
  0.7221301206858918  0.7775762452769365  0.8750000000000000
  0.5554757910715101  0.2775959785732885  0.8750000000000000
  0.8888138337422047  0.2776051830027790  0.8750000000000000
  0.2224725396544398  0.7778183001674649  0.3750000000000000
  0.0557257304174448  0.2776916261678641  0.3750000000000000
  0.3880237268764141  0.2789071024919401  0.3750000000000000
  0.5552551379329226  0.7779598023614990  0.3750000000000000
  0.8895021908178677  0.7785734130117623  0.3750000000000000
  0.7222934861300423  0.2753875660193711  0.3750000000000000
  0.0554682375976594  0.9442518470040724  0.8750000000000000
  0.3888151408527964  0.9442723131302079  0.8750000000000000
  0.2221361303942944  0.4442620674499788  0.8750000000000000
  0.5554715828369517  0.4442807595818171  0.8750000000000000
  0.7221329718914256  0.9442574969578091  0.8750000000000000
  0.8888141102949506  0.4442814167962822  0.8750000000000000
  0.0562952487164327  0.4444000241814724  0.3750000000000000
  0.2226146849932749  0.9447387654090251  0.3750000000000000
  0.5552694964230893  0.9444528928528078  0.3750000000000000
  0.3895273713996111  0.4421037848766304  0.3750000000000000
  0.8890223110756182  0.9446052292174969  0.3750000000000000
  0.2221404747313842  0.6109229840395813  0.8750000000000000
  0.0554714935957413  0.1109099497320798  0.8750000000000000
  0.5554571270585191  0.6109125479148219  0.8750000000000000
  0.3888208004088589  0.1109334545750814  0.8750000000000000
  0.8888163029537073  0.6109245964370356  0.8750000000000000
  0.0558378233913742  0.6111301024705077  0.3750000000000000
  0.7221436575183627  0.1109274863902261  0.8750000000000000
  0.2225222387792718  0.1112808327138392  0.3750000000000000
  0.3888666580916813  0.6100343691252610  0.3750000000000000
  0.7227057033907031  0.6137625426785726  0.3750000000000000
  0.5552432267447163  0.1112254367789081  0.3750000000000000
  0.3888002135812480  0.6109277296344784  0.8750000000000000
  0.8889441435174705  0.1109120661005707  0.3750000000000000
  0.2221452206329422  0.7776039609029406  0.8750000000000000
  0.0554749723093923  0.2775980317533925  0.8750000000000000
  0.3888062108041940  0.2775971533701993  0.8750000000000000
  0.5554579634354500  0.7775893014402044  0.8750000000000000
  0.8887993829661861  0.7775869034062793  0.8750000000000000
  0.7221409487960915  0.2776016476564405  0.8750000000000000
  0.0561563548123412  0.7781573215643096  0.3750000000000000
  0.3888574274918072  0.7774671729794667  0.3750000000000000
  0.2217091238609951  0.2773997193571803  0.3750000000000000
  0.7221733082882268  0.7786817974134815  0.3750000000000000
  0.5554493688088898  0.2782857764535560  0.3750000000000000
  0.8892135006876607  0.2773939446729535  0.3750000000000000
  0.0554829684199573  0.4442681469756842  0.8750000000000000
  0.2221461209697742  0.9442568641085093  0.8750000000000000
  0.5554704765528183  0.9442556291724701  0.8750000000000000
  0.3888119465262307  0.4442622980825448  0.8750000000000000
  0.8887977124281682  0.9442399819440052  0.8750000000000000
  0.0560229222801572  0.9447803066564849  0.3750000000000000
  0.7221551280090451  0.4442741539441750  0.8750000000000000
  0.3889099497197785  0.9446531858366024  0.3750000000000000
  0.2230913878995946  0.4443373987890974  0.3750000000000000
  0.2225033595449905  0.6110383539446407  0.3750000000000000
  0.7220086362362148  0.9443555826087939  0.3750000000000000
  0.8895895662456259  0.4440534901165740  0.3750000000000000
  0.0554841887437653  0.6109391351565685  0.8750000000000000
  0.2221317647156865  0.1109204293108306  0.8750000000000000
  0.7221340431877737  0.6109269183474437  0.8750000000000000
  0.5554697850391784  0.1109334399965450  0.8750000000000000
  0.8888025182134484  0.1109296596139222  0.8750000000000000
  0.1114603973105766  0.0557510388564259  0.3750000000000000
  0.6118213070836799  0.5562376246358093  0.3750000000000000
  0.4445017414707458  0.0561056620403811  0.3750000000000000
  0.9437124053238695  0.5551278212427732  0.3750000000000000
  0.7776802359886394  0.0551993682277505  0.3750000000000000
  0.1109753499473223  0.7219732597547072  0.8750000000000000
  0.4443205728979495  0.7219566458380197  0.8750000000000000
  0.2776696332277340  0.2219917748613662  0.8750000000000000
  0.7776307370615680  0.7219258124767194  0.8750000000000000
  0.6109790595169724  0.2220290250938233  0.8750000000000000
  0.9442888467461917  0.2219951181363464  0.8750000000000000
  0.2778034567271203  0.7220267987486425  0.3750000000000000
  0.1111167434145869  0.2221180774020817  0.3750000000000000
  0.4446469325311067  0.2236693972625208  0.3750000000000000
  0.6108553880561558  0.7222696843574693  0.3750000000000000
  0.9445459752735927  0.7219663507968075  0.3750000000000000
  0.7776943287428073  0.2212437108237758  0.3750000000000000
  0.1110141070034046  0.8885883866812855  0.8750000000000000
  0.4443636793394714  0.8886142404054672  0.8750000000000000
  0.2777032437566873  0.3886114567292068  0.8750000000000000
  0.6110376244230764  0.3886678494099437  0.8750000000000000
  0.7776688125633056  0.8885753303679255  0.8750000000000000
  0.9443044271738680  0.3886406502599801  0.8750000000000000
  0.1117565114381786  0.3889021219016142  0.3750000000000000
  0.2778506000534540  0.8888796473742352  0.3750000000000000
  0.6108146966837259  0.8888452671674318  0.3750000000000000
  0.9447011702661056  0.8890226399440208  0.3750000000000000
  0.7768380868536644  0.3873777806280011  0.3750000000000000
  0.2776329618967383  0.5552872662703084  0.8750000000000000
  0.1109968768232206  0.0553085396810882  0.8750000000000000
  0.6109693295555817  0.5552761186119577  0.8750000000000000
  0.4443595285531353  0.0553687238516613  0.8750000000000000
  0.9442503615795750  0.5552882059959964  0.8750000000000000
  0.1111908317300609  0.5554925925230007  0.3750000000000000
  0.7776510378853509  0.0553342975386690  0.8750000000000000
  0.2781006863341904  0.0558871417915834  0.3750000000000000
  0.4449804151321474  0.5541334550224593  0.3750000000000000
  0.7765384703741253  0.5559407042292862  0.3750000000000000
  0.6108890620226277  0.0556992072556551  0.3750000000000000
  0.4443766663759627  0.5552554843046184  0.8750000000000000
  0.9445028594665374  0.0554766665776966  0.3750000000000000
  0.2776637986731591  0.7219333811348765  0.8750000000000000
  0.1110437151512304  0.2219515334163802  0.8750000000000000
  0.4444121629235418  0.2220153265922286  0.8750000000000000
  0.6109802479165009  0.7218887546551450  0.8750000000000000
  0.9442926651311536  0.7218858652540484  0.8750000000000000
  0.7776749523523452  0.2219908478814615  0.8750000000000000
  0.1111212487868453  0.7220259836354264  0.3750000000000000
  0.4442590705471746  0.7214296941902791  0.3750000000000000
  0.2777484988536088  0.2224708338257594  0.3750000000000000
  0.7779971628577621  0.7232361145587269  0.3750000000000000
  0.6116794789872225  0.2230455035796914  0.3750000000000000
  0.9445020296124473  0.2221571358643091  0.3750000000000000
  0.1110002411390857  0.3886718410805001  0.8750000000000000
  0.2776383577833282  0.8886437830351931  0.8750000000000000
  0.6109429739084897  0.8886102632536622  0.8750000000000000
  0.4443925306036614  0.3886962370172450  0.8750000000000000
  0.9442654939992997  0.8885826809043207  0.8750000000000000
  0.1114214416783351  0.8889689531208529  0.3750000000000000
  0.7776345510460929  0.3886961802145437  0.8750000000000000
  0.4442972709552372  0.8887401963480914  0.3750000000000000
  0.2786222121159356  0.3884594364158764  0.3750000000000000
  0.2780229664688516  0.5553184542843215  0.3750000000000000
  0.7777257497411137  0.8890350017066193  0.3750000000000000
  0.9446769060776861  0.3890049256384070  0.3750000000000000
  0.1110087910046948  0.5552859309195087  0.8750000000000000
  0.2776912378508842  0.0552975933049495  0.8750000000000000
  0.7776608335324143  0.5552473846956765  0.8750000000000000
  0.6109974538776648  0.0552955317068105  0.8750000000000000
  0.9443233688917098  0.0552614600114172  0.8750000000000000
  0.0556677022219982  0.1113272317115197  0.1250206844870703
  0.5557595029505223  0.6111756451492774  0.1251146439921478
  0.3890991812367081  0.1114894216743636  0.1250994814493226
  0.8887024054050321  0.6111069331557036  0.1251680036723841
  0.7223968000400136  0.1114093764583402  0.1250484609725885
  0.0555366345714732  0.7778902197045424  0.6249467942277425
  0.3890264177784710  0.7779688539710379  0.6249787837406582
  0.2223447524371999  0.2779812381735390  0.6249579569461303
  0.7223519842516269  0.7779058011663654  0.6249202233823015
  0.5558201096102695  0.2782282091481078  0.6248156584388479
  0.8889532669167185  0.2779869653857743  0.6249246839406761
  0.2222298996264378  0.7779616446872233  0.1250330279388676
  0.0556332834651544  0.2779907371962482  0.1250386933569307
  0.3891001630306475  0.2781600668757242  0.1251374609681960
  0.5556919546921882  0.7779593557322592  0.1250414424726350
  0.8888702344176460  0.7778824739865370  0.1250886713255448
  0.7223755877351765  0.2781506519692137  0.1251038760425544
  0.0556076758357633  0.9446462577296201  0.6249694027663363
  0.3890174526587749  0.9447472572964165  0.6249675203482171
  0.2223195207524589  0.4446215759933630  0.6249351827457713
  0.5557202058310629  0.4445846274955789  0.6241019522918482
  0.7223500770405679  0.9446804658490842  0.6249681176117257
  0.8887472994969045  0.4445646256421430  0.6248232768222812
  0.0555843111029377  0.4446033715015082  0.1250685813871599
  0.2223037410112480  0.9446675108951378  0.1250229705306002
  0.5557038778574267  0.9446956752438881  0.1250158026303350
  0.3891378208591463  0.4445822142898054  0.1251864605854864
  0.8889698231277637  0.9446069986035797  0.1250304787894055
  0.7222534218075126  0.4445892246317518  0.1262489063792732
  0.2222710449386789  0.6112424531778169  0.6249750971003847
  0.0556677022219982  0.1113272317115197  0.6249793155129298
  0.5557595029505223  0.6111756451492774  0.6248853560078523
  0.3890991812367081  0.1114894216743636  0.6249005185506774
  0.8887024054050321  0.6111069331557036  0.6248319963276158
  0.0554495442450963  0.6112162047532458  0.1251040927251993
  0.7223968000400136  0.1114093764583402  0.6249515390274115
  0.2223250126344839  0.1114058950922843  0.1250625772781467
  0.3890512454066806  0.6112551050529719  0.1250791158629875
  0.7222535040300707  0.6111357532932172  0.1251433682445661
  0.5557344936473654  0.1115089578871382  0.1250931891801423
  0.3890512454066806  0.6112551050529719  0.6249208841370123
  0.8889741046999252  0.1113531546996705  0.1250350315373883
  0.2222298996264378  0.7779616446872233  0.6249669720611324
  0.0556332834651544  0.2779907371962482  0.6249613066430694
  0.3891001630306475  0.2781600668757242  0.6248625390318042
  0.5556919546921882  0.7779593557322592  0.6249585575273650
  0.8888702344176460  0.7778824739865370  0.6249113286744550
  0.7223755877351765  0.2781506519692137  0.6248961239574454
  0.0555366345714732  0.7778902197045424  0.1250532057722575
  0.3890264177784710  0.7779688539710379  0.1250212162593421
  0.2223447524371999  0.2779812381735390  0.1250420430538694
  0.7223519842516269  0.7779058011663654  0.1250797766176986
  0.5558201096102695  0.2782282091481078  0.1251843415611521
  0.8889532669167185  0.2779869653857743  0.1250753160593240
  0.0555843111029377  0.4446033715015082  0.6249314186128402
  0.2223037410112480  0.9446675108951378  0.6249770294694000
  0.5557038778574267  0.9446956752438881  0.6249841973696649
  0.3891378208591463  0.4445822142898054  0.6248135394145136
  0.8889698231277637  0.9446069986035797  0.6249695212105942
  0.0556076758357633  0.9446462577296201  0.1250305972336637
  0.7222534218075126  0.4445892246317518  0.6237510936207269
  0.3890174526587749  0.9447472572964165  0.1250324796517827
  0.2223195207524589  0.4446215759933630  0.1250648172542286
  0.2222710449386789  0.6112424531778169  0.1250249028996154
  0.5557202058310629  0.4445846274955789  0.1258980477081519
  0.7223500770405679  0.9446804658490842  0.1250318823882742
  0.8887472994969045  0.4445646256421430  0.1251767231777187
  0.0554495442450963  0.6112162047532458  0.6248959072748007
  0.2223250126344839  0.1114058950922843  0.6249374227218530
  0.7222535040300707  0.6111357532932172  0.6248566317554342
  0.5557344936473654  0.1115089578871382  0.6249068108198575
  0.8889741046999252  0.1113531546996705  0.6249649684626115
 
  0.00000000E+00  0.00000000E+00  0.00000000E+00
  0.00000000E+00  0.00000000E+00  0.00000000E+00
  0.00000000E+00  0.00000000E+00  0.00000000E+00
  0.00000000E+00  0.00000000E+00  0.00000000E+00
  0.00000000E+00  0.00000000E+00  0.00000000E+00
  0.00000000E+00  0.00000000E+00  0.00000000E+00
  0.00000000E+00  0.00000000E+00  0.00000000E+00
  0.00000000E+00  0.00000000E+00  0.00000000E+00
  0.00000000E+00  0.00000000E+00  0.00000000E+00
  0.00000000E+00  0.00000000E+00  0.00000000E+00
  0.00000000E+00  0.00000000E+00  0.00000000E+00
  0.00000000E+00  0.00000000E+00  0.00000000E+00
  0.00000000E+00  0.00000000E+00  0.00000000E+00
  0.00000000E+00  0.00000000E+00  0.00000000E+00
  0.00000000E+00  0.00000000E+00  0.00000000E+00
  0.00000000E+00  0.00000000E+00  0.00000000E+00
  0.00000000E+00  0.00000000E+00  0.00000000E+00
  0.00000000E+00  0.00000000E+00  0.00000000E+00
  0.00000000E+00  0.00000000E+00  0.00000000E+00
  0.00000000E+00  0.00000000E+00  0.00000000E+00
  0.00000000E+00  0.00000000E+00  0.00000000E+00
  0.00000000E+00  0.00000000E+00  0.00000000E+00
  0.00000000E+00  0.00000000E+00  0.00000000E+00
  0.00000000E+00  0.00000000E+00  0.00000000E+00
  0.00000000E+00  0.00000000E+00  0.00000000E+00
  0.00000000E+00  0.00000000E+00  0.00000000E+00
  0.00000000E+00  0.00000000E+00  0.00000000E+00
  0.00000000E+00  0.00000000E+00  0.00000000E+00
  0.00000000E+00  0.00000000E+00  0.00000000E+00
  0.00000000E+00  0.00000000E+00  0.00000000E+00
  0.00000000E+00  0.00000000E+00  0.00000000E+00
  0.00000000E+00  0.00000000E+00  0.00000000E+00
  0.00000000E+00  0.00000000E+00  0.00000000E+00
  0.00000000E+00  0.00000000E+00  0.00000000E+00
  0.00000000E+00  0.00000000E+00  0.00000000E+00
  0.00000000E+00  0.00000000E+00  0.00000000E+00
  0.00000000E+00  0.00000000E+00  0.00000000E+00
  0.00000000E+00  0.00000000E+00  0.00000000E+00
  0.00000000E+00  0.00000000E+00  0.00000000E+00
  0.00000000E+00  0.00000000E+00  0.00000000E+00
  0.00000000E+00  0.00000000E+00  0.00000000E+00
  0.00000000E+00  0.00000000E+00  0.00000000E+00
  0.00000000E+00  0.00000000E+00  0.00000000E+00
  0.00000000E+00  0.00000000E+00  0.00000000E+00
  0.00000000E+00  0.00000000E+00  0.00000000E+00
  0.00000000E+00  0.00000000E+00  0.00000000E+00
  0.00000000E+00  0.00000000E+00  0.00000000E+00
  0.00000000E+00  0.00000000E+00  0.00000000E+00
  0.00000000E+00  0.00000000E+00  0.00000000E+00
  0.00000000E+00  0.00000000E+00  0.00000000E+00
  0.00000000E+00  0.00000000E+00  0.00000000E+00
  0.00000000E+00  0.00000000E+00  0.00000000E+00
  0.00000000E+00  0.00000000E+00  0.00000000E+00
  0.00000000E+00  0.00000000E+00  0.00000000E+00
  0.00000000E+00  0.00000000E+00  0.00000000E+00
  0.00000000E+00  0.00000000E+00  0.00000000E+00
  0.00000000E+00  0.00000000E+00  0.00000000E+00
  0.00000000E+00  0.00000000E+00  0.00000000E+00
  0.00000000E+00  0.00000000E+00  0.00000000E+00
  0.00000000E+00  0.00000000E+00  0.00000000E+00
  0.00000000E+00  0.00000000E+00  0.00000000E+00
  0.00000000E+00  0.00000000E+00  0.00000000E+00
  0.00000000E+00  0.00000000E+00  0.00000000E+00
  0.00000000E+00  0.00000000E+00  0.00000000E+00
  0.00000000E+00  0.00000000E+00  0.00000000E+00
  0.00000000E+00  0.00000000E+00  0.00000000E+00
  0.00000000E+00  0.00000000E+00  0.00000000E+00
  0.00000000E+00  0.00000000E+00  0.00000000E+00
  0.00000000E+00  0.00000000E+00  0.00000000E+00
  0.00000000E+00  0.00000000E+00  0.00000000E+00
  0.00000000E+00  0.00000000E+00  0.00000000E+00
  0.00000000E+00  0.00000000E+00  0.00000000E+00
  0.00000000E+00  0.00000000E+00  0.00000000E+00
  0.00000000E+00  0.00000000E+00  0.00000000E+00
  0.00000000E+00  0.00000000E+00  0.00000000E+00
  0.00000000E+00  0.00000000E+00  0.00000000E+00
  0.00000000E+00  0.00000000E+00  0.00000000E+00
  0.00000000E+00  0.00000000E+00  0.00000000E+00
  0.00000000E+00  0.00000000E+00  0.00000000E+00
  0.00000000E+00  0.00000000E+00  0.00000000E+00
  0.00000000E+00  0.00000000E+00  0.00000000E+00
  0.00000000E+00  0.00000000E+00  0.00000000E+00
  0.00000000E+00  0.00000000E+00  0.00000000E+00
  0.00000000E+00  0.00000000E+00  0.00000000E+00
  0.00000000E+00  0.00000000E+00  0.00000000E+00
  0.00000000E+00  0.00000000E+00  0.00000000E+00
  0.00000000E+00  0.00000000E+00  0.00000000E+00
  0.00000000E+00  0.00000000E+00  0.00000000E+00
  0.00000000E+00  0.00000000E+00  0.00000000E+00
  0.00000000E+00  0.00000000E+00  0.00000000E+00
  0.00000000E+00  0.00000000E+00  0.00000000E+00
  0.00000000E+00  0.00000000E+00  0.00000000E+00
  0.00000000E+00  0.00000000E+00  0.00000000E+00
  0.00000000E+00  0.00000000E+00  0.00000000E+00
  0.00000000E+00  0.00000000E+00  0.00000000E+00
  0.00000000E+00  0.00000000E+00  0.00000000E+00
  0.00000000E+00  0.00000000E+00  0.00000000E+00
  0.00000000E+00  0.00000000E+00  0.00000000E+00
  0.00000000E+00  0.00000000E+00  0.00000000E+00
  0.00000000E+00  0.00000000E+00  0.00000000E+00
  0.00000000E+00  0.00000000E+00  0.00000000E+00
  0.00000000E+00  0.00000000E+00  0.00000000E+00
  0.00000000E+00  0.00000000E+00  0.00000000E+00
  0.00000000E+00  0.00000000E+00  0.00000000E+00
  0.00000000E+00  0.00000000E+00  0.00000000E+00
  0.00000000E+00  0.00000000E+00  0.00000000E+00
  0.00000000E+00  0.00000000E+00  0.00000000E+00
  0.00000000E+00  0.00000000E+00  0.00000000E+00
  0.00000000E+00  0.00000000E+00  0.00000000E+00
  0.00000000E+00  0.00000000E+00  0.00000000E+00
  0.00000000E+00  0.00000000E+00  0.00000000E+00
  0.00000000E+00  0.00000000E+00  0.00000000E+00
  0.00000000E+00  0.00000000E+00  0.00000000E+00
  0.00000000E+00  0.00000000E+00  0.00000000E+00
  0.00000000E+00  0.00000000E+00  0.00000000E+00
  0.00000000E+00  0.00000000E+00  0.00000000E+00
  0.00000000E+00  0.00000000E+00  0.00000000E+00
  0.00000000E+00  0.00000000E+00  0.00000000E+00
  0.00000000E+00  0.00000000E+00  0.00000000E+00
  0.00000000E+00  0.00000000E+00  0.00000000E+00
  0.00000000E+00  0.00000000E+00  0.00000000E+00
  0.00000000E+00  0.00000000E+00  0.00000000E+00
  0.00000000E+00  0.00000000E+00  0.00000000E+00
  0.00000000E+00  0.00000000E+00  0.00000000E+00
  0.00000000E+00  0.00000000E+00  0.00000000E+00
  0.00000000E+00  0.00000000E+00  0.00000000E+00
  0.00000000E+00  0.00000000E+00  0.00000000E+00
  0.00000000E+00  0.00000000E+00  0.00000000E+00
  0.00000000E+00  0.00000000E+00  0.00000000E+00
  0.00000000E+00  0.00000000E+00  0.00000000E+00
  0.00000000E+00  0.00000000E+00  0.00000000E+00
  0.00000000E+00  0.00000000E+00  0.00000000E+00
  0.00000000E+00  0.00000000E+00  0.00000000E+00
  0.00000000E+00  0.00000000E+00  0.00000000E+00
  0.00000000E+00  0.00000000E+00  0.00000000E+00
  0.00000000E+00  0.00000000E+00  0.00000000E+00
  0.00000000E+00  0.00000000E+00  0.00000000E+00
  0.00000000E+00  0.00000000E+00  0.00000000E+00
  0.00000000E+00  0.00000000E+00  0.00000000E+00
  0.00000000E+00  0.00000000E+00  0.00000000E+00
  0.00000000E+00  0.00000000E+00  0.00000000E+00
  0.00000000E+00  0.00000000E+00  0.00000000E+00
  0.00000000E+00  0.00000000E+00  0.00000000E+00
  0.00000000E+00  0.00000000E+00  0.00000000E+00
  0.00000000E+00  0.00000000E+00  0.00000000E+00
  0.00000000E+00  0.00000000E+00  0.00000000E+00
  0.00000000E+00  0.00000000E+00  0.00000000E+00
  0.00000000E+00  0.00000000E+00  0.00000000E+00
  0.00000000E+00  0.00000000E+00  0.00000000E+00
  0.00000000E+00  0.00000000E+00  0.00000000E+00
  0.00000000E+00  0.00000000E+00  0.00000000E+00
  0.00000000E+00  0.00000000E+00  0.00000000E+00
  0.00000000E+00  0.00000000E+00  0.00000000E+00
  0.00000000E+00  0.00000000E+00  0.00000000E+00
  0.00000000E+00  0.00000000E+00  0.00000000E+00
  0.00000000E+00  0.00000000E+00  0.00000000E+00
  0.00000000E+00  0.00000000E+00  0.00000000E+00
  0.00000000E+00  0.00000000E+00  0.00000000E+00
  0.00000000E+00  0.00000000E+00  0.00000000E+00
  0.00000000E+00  0.00000000E+00  0.00000000E+00
  0.00000000E+00  0.00000000E+00  0.00000000E+00
  0.00000000E+00  0.00000000E+00  0.00000000E+00
  0.00000000E+00  0.00000000E+00  0.00000000E+00
  0.00000000E+00  0.00000000E+00  0.00000000E+00
  0.00000000E+00  0.00000000E+00  0.00000000E+00
  0.00000000E+00  0.00000000E+00  0.00000000E+00
  0.00000000E+00  0.00000000E+00  0.00000000E+00
  0.00000000E+00  0.00000000E+00  0.00000000E+00
  0.00000000E+00  0.00000000E+00  0.00000000E+00
  0.00000000E+00  0.00000000E+00  0.00000000E+00
  0.00000000E+00  0.00000000E+00  0.00000000E+00
  0.00000000E+00  0.00000000E+00  0.00000000E+00
  0.00000000E+00  0.00000000E+00  0.00000000E+00
  0.00000000E+00  0.00000000E+00  0.00000000E+00
  0.00000000E+00  0.00000000E+00  0.00000000E+00
  0.00000000E+00  0.00000000E+00  0.00000000E+00
  0.00000000E+00  0.00000000E+00  0.00000000E+00
  0.00000000E+00  0.00000000E+00  0.00000000E+00
  0.00000000E+00  0.00000000E+00  0.00000000E+00
  0.00000000E+00  0.00000000E+00  0.00000000E+00
  0.00000000E+00  0.00000000E+00  0.00000000E+00
  0.00000000E+00  0.00000000E+00  0.00000000E+00
  0.00000000E+00  0.00000000E+00  0.00000000E+00
  0.00000000E+00  0.00000000E+00  0.00000000E+00
  0.00000000E+00  0.00000000E+00  0.00000000E+00
  0.00000000E+00  0.00000000E+00  0.00000000E+00
  0.00000000E+00  0.00000000E+00  0.00000000E+00
  0.00000000E+00  0.00000000E+00  0.00000000E+00
  0.00000000E+00  0.00000000E+00  0.00000000E+00
  0.00000000E+00  0.00000000E+00  0.00000000E+00
  0.00000000E+00  0.00000000E+00  0.00000000E+00
  0.00000000E+00  0.00000000E+00  0.00000000E+00
  0.00000000E+00  0.00000000E+00  0.00000000E+00
  0.00000000E+00  0.00000000E+00  0.00000000E+00
  0.00000000E+00  0.00000000E+00  0.00000000E+00
  0.00000000E+00  0.00000000E+00  0.00000000E+00
  0.00000000E+00  0.00000000E+00  0.00000000E+00
  0.00000000E+00  0.00000000E+00  0.00000000E+00
  0.00000000E+00  0.00000000E+00  0.00000000E+00
  0.00000000E+00  0.00000000E+00  0.00000000E+00
  0.00000000E+00  0.00000000E+00  0.00000000E+00
  0.00000000E+00  0.00000000E+00  0.00000000E+00
  0.00000000E+00  0.00000000E+00  0.00000000E+00
  0.00000000E+00  0.00000000E+00  0.00000000E+00
  0.00000000E+00  0.00000000E+00  0.00000000E+00
  0.00000000E+00  0.00000000E+00  0.00000000E+00
  0.00000000E+00  0.00000000E+00  0.00000000E+00
  0.00000000E+00  0.00000000E+00  0.00000000E+00
  0.00000000E+00  0.00000000E+00  0.00000000E+00
  0.00000000E+00  0.00000000E+00  0.00000000E+00
  0.00000000E+00  0.00000000E+00  0.00000000E+00
  0.00000000E+00  0.00000000E+00  0.00000000E+00
  0.00000000E+00  0.00000000E+00  0.00000000E+00
  0.00000000E+00  0.00000000E+00  0.00000000E+00
  0.00000000E+00  0.00000000E+00  0.00000000E+00
  0.00000000E+00  0.00000000E+00  0.00000000E+00
  0.00000000E+00  0.00000000E+00  0.00000000E+00
  0.00000000E+00  0.00000000E+00  0.00000000E+00
  0.00000000E+00  0.00000000E+00  0.00000000E+00
  0.00000000E+00  0.00000000E+00  0.00000000E+00
  0.00000000E+00  0.00000000E+00  0.00000000E+00
  0.00000000E+00  0.00000000E+00  0.00000000E+00
  0.00000000E+00  0.00000000E+00  0.00000000E+00
  0.00000000E+00  0.00000000E+00  0.00000000E+00
  0.00000000E+00  0.00000000E+00  0.00000000E+00
  0.00000000E+00  0.00000000E+00  0.00000000E+00
  0.00000000E+00  0.00000000E+00  0.00000000E+00
  0.00000000E+00  0.00000000E+00  0.00000000E+00
  0.00000000E+00  0.00000000E+00  0.00000000E+00
  0.00000000E+00  0.00000000E+00  0.00000000E+00
  0.00000000E+00  0.00000000E+00  0.00000000E+00
  0.00000000E+00  0.00000000E+00  0.00000000E+00
  0.00000000E+00  0.00000000E+00  0.00000000E+00
  0.00000000E+00  0.00000000E+00  0.00000000E+00
  0.00000000E+00  0.00000000E+00  0.00000000E+00
  0.00000000E+00  0.00000000E+00  0.00000000E+00
  0.00000000E+00  0.00000000E+00  0.00000000E+00
  0.00000000E+00  0.00000000E+00  0.00000000E+00
  0.00000000E+00  0.00000000E+00  0.00000000E+00
  0.00000000E+00  0.00000000E+00  0.00000000E+00
  0.00000000E+00  0.00000000E+00  0.00000000E+00
  0.00000000E+00  0.00000000E+00  0.00000000E+00
  0.00000000E+00  0.00000000E+00  0.00000000E+00
  0.00000000E+00  0.00000000E+00  0.00000000E+00
  0.00000000E+00  0.00000000E+00  0.00000000E+00
  0.00000000E+00  0.00000000E+00  0.00000000E+00
  0.00000000E+00  0.00000000E+00  0.00000000E+00