Species order: X N B                    
   2.51242800000000     
     5.9449720136058266    0.0000000000000000    0.0000000000000000
    -2.9724860068029120    5.1484967885702053   -0.0000000000000001
     0.0000000000000000    0.0000000000000009    5.3101128803662583
   Al   N    B 
     1   143   143
Direct
  0.4766745076067480  0.4050039204700419  0.3750000000000000
  0.1113366134602348  0.0556620867537931  0.1250043218022794
  0.6114058487920920  0.5557845291808655  0.1248057327343191
  0.4446862916885335  0.0556539171774240  0.1248953620252633
  0.9446696309385009  0.5556649426664516  0.1249814366058748
  0.7780198242864236  0.0556765788098833  0.1249525964666608
  0.1113347031219904  0.7223340182276596  0.6249871565606366
  0.4446862916885335  0.7223657078444523  0.6251046379747365
  0.2779962968332452  0.2223183472601889  0.6240592261369168
  0.7780257187536426  0.7223689183232611  0.6252115774443855
  0.6113561560789257  0.2223056688103141  0.6251925421981688
  0.9446814881736282  0.2223388633444381  0.6250616957448868
  0.2780110275747282  0.7223447819393098  0.1249399494016498
  0.1113448782410265  0.2223391057871741  0.1252118974962407
  0.4446953354121257  0.2223153346626602  0.1256746860608333
  0.6113561560789257  0.7223838206019404  0.1248074578018383
  0.9446696309385009  0.7223380216053782  0.1249814366058748
  0.7780194289878798  0.2223285808263401  0.1248911854671318
  0.1113376605237032  0.8889991488898161  0.6250384950482372
  0.4446839319172040  0.8890086326252841  0.6251215254436971
  0.2779962968332452  0.3890112829063782  0.6240592261369168
  0.6114058487920920  0.3889546529445409  0.6251942672656736
  0.7780194289878798  0.8890241814948678  0.6251088145328544
  0.9446792599668987  0.3890007094492706  0.6250797504182072
  0.1113366134602348  0.3890078600397704  0.1250043218022794
  0.2780110275747282  0.8889995789687545  0.1249399494016498
  0.6113527270502342  0.8890251956235864  0.1249002116705718
  0.4446958303098636  0.3890145818215995  0.1288280980363380
  0.9446792599668987  0.8890118838509568  0.1249202495817927
  0.7780257187536426  0.3889901337637175  0.1247884225556222
  0.2780121326028780  0.5556857726961191  0.6248606459648661
  0.1113366134602348  0.0556620867537931  0.6249956781977277
  0.6114058487920920  0.5557845291808655  0.6251942672656736
  0.4446862916885335  0.0556539171774240  0.6251046379747365
  0.9446696309385009  0.5556649426664516  0.6250185633941181
  0.1113376605237032  0.5556718449672230  0.1249615049517625
  0.7780198242864236  0.0556765788098833  0.6250474035333393
  0.2780121326028780  0.0556596932400951  0.1251393540351339
  0.4446953354121257  0.5557133340827944  0.1256746860608333
  0.7780096452840070  0.5556714893086608  0.1248526478912944
  0.6113527270502342  0.0556608647599691  0.1249002116705718
  0.4446953354121257  0.5557133340827944  0.6243253139391669
  0.9446814881736282  0.0556759581625329  0.1249383042551136
  0.2780110275747282  0.7223447819393098  0.6250600505983502
  0.1113448782410265  0.2223391057871741  0.6247881025037660
  0.4446953354121257  0.2223153346626602  0.6243253139391669
  0.6113561560789257  0.7223838206019404  0.6251925421981688
  0.9446696309385009  0.7223380216053782  0.6250185633941181
  0.7780194289878798  0.2223285808263401  0.6251088145328544
  0.1113347031219904  0.7223340182276596  0.1250128434393564
  0.4446862916885335  0.7223657078444523  0.1248953620252633
  0.2779962968332452  0.2223183472601889  0.1259407738630833
  0.7780257187536426  0.7223689183232611  0.1247884225556222
  0.6113561560789257  0.2223056688103141  0.1248074578018383
  0.9446814881736282  0.2223388633444381  0.1249383042551136
  0.1113366134602348  0.3890078600397704  0.6249956781977277
  0.2780110275747282  0.8889995789687545  0.6250600505983502
  0.6113527270502342  0.8890251956235864  0.6250997883294214
  0.4446958303098636  0.3890145818215995  0.6211719019636688
  0.9446792599668987  0.8890118838509568  0.6250797504182072
  0.1113376605237032  0.8889991488898161  0.1249615049517625
  0.7780257187536426  0.3889901337637175  0.6252115774443855
  0.4446839319172040  0.8890086326252841  0.1248784745563029
  0.2779962968332452  0.3890112829063782  0.1259407738630833
  0.2780121326028780  0.5556857726961191  0.1251393540351339
  0.6114058487920920  0.3889546529445409  0.1248057327343191
  0.7780194289878798  0.8890241814948678  0.1248911854671318
  0.9446792599668987  0.3890007094492706  0.1249202495817927
  0.1113376605237032  0.5556718449672230  0.6250384950482372
  0.2780121326028780  0.0556596932400951  0.6248606459648661
  0.7780096452840070  0.5556714893086608  0.6251473521086989
  0.6113527270502342  0.0556608647599691  0.6250997883294214
  0.9446814881736282  0.0556759581625329  0.6250616957448868
  0.0573930274713466  0.1120752510705317  0.3750000000000000
  0.5560393376733423  0.6137294694404734  0.3750000000000000
  0.3887491482229314  0.1068329354889213  0.3750000000000000
  0.8887740648014056  0.6110536990673777  0.3750000000000000
  0.7237626843964166  0.1115757613661769  0.3750000000000000
  0.0554324391350499  0.7777176847298387  0.8750000000000000
  0.3887660600346052  0.7777170971292268  0.8750000000000000
  0.2221020270514852  0.2777176801924104  0.8750000000000000
  0.7220966987218966  0.7777141205766220  0.8750000000000000
  0.5554244042117215  0.2777110099682554  0.8750000000000000
  0.8887669185445909  0.2777175700483226  0.8750000000000000
  0.2218891800292622  0.7776112566812917  0.3750000000000000
  0.0573930274713466  0.2786511097341506  0.3750000000000000
  0.3890831591730260  0.2702794929449891  0.3750000000000000
  0.5565500199283585  0.7796415176872931  0.3750000000000000
  0.8892210127239341  0.7780046974321848  0.3750000000000000
  0.7234397585414737  0.2777261476434519  0.3750000000000000
  0.0554317792264475  0.9443839491519254  0.8750000000000000
  0.3887660600346052  0.9443822962387005  0.8750000000000000
  0.2220998270468632  0.4443797514107167  0.8750000000000000
  0.5554170434028919  0.4443751883681102  0.8750000000000000
  0.7220969898502436  0.9443817565446924  0.8750000000000000
  0.8887668380097987  0.4443832319815996  0.8750000000000000
  0.0559011746427490  0.4449682803541963  0.3750000000000000
  0.2218669328377628  0.9432243458746269  0.3750000000000000
  0.5566026921938361  0.9449680127635784  0.3750000000000000
  0.3890831591730260  0.4521369995613727  0.3750000000000000
  0.8903063177608804  0.9454073789603288  0.3750000000000000
  0.7224560651639282  0.4445664941854385  0.3750000000000000
  0.2220980054176478  0.6110467615319763  0.8750000000000000
  0.0554328530950479  0.1110500419895978  0.8750000000000000
  0.5554244042117215  0.6110467275768016  0.8750000000000000
  0.3887655196308841  0.1110508415699299  0.8750000000000000
  0.8887675278291836  0.6110504305812665  0.8750000000000000
  0.0552622772362935  0.6111672312506684  0.3750000000000000
  0.7220969898502436  0.1110485666388724  0.8750000000000000
  0.2224825779207957  0.1099217824856017  0.3750000000000000
  0.3887491482229314  0.6152495460673459  0.3750000000000000
  0.7224560651639282  0.6112229043118180  0.3750000000000000
  0.5565500199283585  0.1102418355743946  0.3750000000000000
  0.3887655196308841  0.6110480113943041  0.8750000000000000
  0.8906658740370513  0.1119996036852005  0.3750000000000000
  0.2220987086007045  0.7777160209670165  0.8750000000000000
  0.0554328530950479  0.2777161444387859  0.8750000000000000
  0.3887698050735323  0.2777232513368115  0.8750000000000000
  0.5554293914755261  0.7777160896375669  0.8750000000000000
  0.8887668380097987  0.7777169393615347  0.8750000000000000
  0.7220966987218966  0.2777159114786244  0.8750000000000000
  0.0552622772362935  0.7774283793189602  0.3750000000000000
  0.3890613973564757  0.7790865677807509  0.3750000000000000
  0.2251325437546444  0.2792329385439936  0.3750000000000000
  0.7234397585414737  0.7790469442313649  0.3750000000000000
  0.5560393376733423  0.2756432015662051  0.3750000000000000
  0.8903063177608804  0.2782322721338875  0.3750000000000000
  0.0554317792264475  0.4443811634078510  0.8750000000000000
  0.2220980054176478  0.9443845772189999  0.8750000000000000
  0.5554300934216823  0.9443817133775022  0.8750000000000000
  0.3887698050735323  0.4443798870700568  0.8750000000000000
  0.8887669185445909  0.9443826818295972  0.8750000000000000
  0.0559011746427490  0.9442662276218667  0.3750000000000000
  0.7220962993118789  0.4443829697435666  0.8750000000000000
  0.3890613973564757  0.9433081629090607  0.3750000000000000
  0.2224825779207957  0.4458941287685367  0.3750000000000000
  0.2218669328377628  0.6119759202964712  0.3750000000000000
  0.7237626843964166  0.9455202563635680  0.3750000000000000
  0.8892210127239341  0.4445496486250920  0.3750000000000000
  0.0554324391350499  0.6110480877385402  0.8750000000000000
  0.2220998270468632  0.1110534089694750  0.8750000000000000
  0.7220962993118789  0.6110466629016482  0.8750000000000000
  0.5554293914755261  0.1110466351712948  0.8750000000000000
  0.8887666299822116  0.1110499816577737  0.8750000000000000
  0.1119565040991210  0.0554939301577744  0.3750000000000000
  0.6134910975903112  0.5606231345063285  0.3750000000000000
  0.4451622608837236  0.0534497659670802  0.3750000000000000
  0.9445033934500905  0.5555942361870086  0.3750000000000000
  0.7796540015377199  0.0564936674355243  0.3750000000000000
  0.1109890056882168  0.7221611695107726  0.8750000000000000
  0.4443122823699207  0.7221539276551701  0.8750000000000000
  0.2776447315409468  0.2221597414706348  0.8750000000000000
  0.7776558342846073  0.7221622563288242  0.8750000000000000
  0.6109802162305602  0.2221556599810285  0.8750000000000000
  0.9443300960549713  0.2221626764276250  0.8750000000000000
  0.2778109965302243  0.7227946863595440  0.3750000000000000
  0.1140083892467874  0.2236708612900544  0.3750000000000000
  0.4433091931779572  0.2164545361534386  0.3750000000000000
  0.6125609744695243  0.7249466789841080  0.3750000000000000
  0.9445033934500905  0.7222424905964381  0.3750000000000000
  0.7794108267018220  0.2224890941455553  0.3750000000000000
  0.1109893575346102  0.8888341323627231  0.8750000000000000
  0.4443152399575601  0.8888242866454481  0.8750000000000000
  0.2776447315409468  0.3888183234036476  0.8750000000000000
  0.6109768791078081  0.3888194175738020  0.8750000000000000
  0.7776597144936909  0.8888324770442851  0.8750000000000000
  0.9443288785968346  0.3888260965825190  0.8750000000000000
  0.1119565040991210  0.3897959072746753  0.3750000000000000
  0.2778109965302243  0.8883496435039941  0.3750000000000000
  0.6126448788902713  0.8903018738503443  0.3750000000000000
  0.9451655217613131  0.8893077259478657  0.3750000000000000
  0.7785804077275769  0.3886535824739563  0.3750000000000000
  0.2776485720867304  0.5554838722398632  0.8750000000000000
  0.1109901824518538  0.0555010301246324  0.8750000000000000
  0.6109768791078081  0.5554907948673342  0.8750000000000000
  0.4443122823699207  0.0554916880480932  0.8750000000000000
  0.9443277540070388  0.5554952581441431  0.8750000000000000
  0.1110371714392272  0.5559470660213964  0.3750000000000000
  0.7776611256223793  0.0554972294778646  0.8750000000000000
  0.2776519187734272  0.0539863620216259  0.3750000000000000
  0.4433091931779572  0.5601879903578618  0.3750000000000000
  0.7782981317885025  0.5558157325609194  0.3750000000000000
  0.6126448788902713  0.0556763383732554  0.3750000000000000
  0.4443104087387565  0.5554878363967010  0.8750000000000000
  0.9464492730867002  0.0567168704627296  0.3750000000000000
  0.2776500310383115  0.7221549059470881  0.8750000000000000
  0.1109907655076896  0.2221620494205091  0.8750000000000000
  0.4443104087387565  0.2221559056753983  0.8750000000000000
  0.6109802162305602  0.7221578895828467  0.8750000000000000
  0.9443277540070388  0.7221658291962378  0.8750000000000000
  0.7776597144936909  0.2221605707827345  0.8750000000000000
  0.1109002832883339  0.7221168083108277  0.3750000000000000
  0.4451622608837236  0.7250458282499792  0.3750000000000000
  0.2797879131940668  0.2216161826936504  0.3750000000000000
  0.7785804077275769  0.7232601585869493  0.3750000000000000
  0.6125609744695243  0.2209476288187520  0.3750000000000000
  0.9464492730867073  0.2230657359573062  0.3750000000000000
  0.1109901824518538  0.3888224856605499  0.8750000000000000
  0.2776500310383115  0.8888284584245804  0.8750000000000000
  0.6109855234785778  0.8888271154527377  0.8750000000000000
  0.4443073765779618  0.3888203549556415  0.8750000000000000
  0.9443288785968346  0.8888361153476299  0.8750000000000000
  0.1110371714392272  0.8884234387511599  0.3750000000000000
  0.7776558342846073  0.3888269112891260  0.8750000000000000
  0.4452876251097331  0.8893104792215342  0.3750000000000000
  0.2797879131940668  0.3915050638337451  0.3750000000000000
  0.2776519187734272  0.5569988900851299  0.3750000000000000
  0.6134910975903112  0.3862012964173107  0.3750000000000000
  0.7794108267018220  0.8902550658896030  0.3750000000000000
  0.9451655217613131  0.3891911291467758  0.3750000000000000
  0.1109893575346102  0.5554885585052091  0.8750000000000000
  0.2776485720867304  0.0554980331802097  0.8750000000000000
  0.7776537960086614  0.5554935646710019  0.8750000000000000
  0.6109855234785778  0.0554917413591760  0.8750000000000000
  0.9443300960549713  0.0555007529606891  0.8750000000000000
  0.0558141933762605  0.1112492853174339  0.1250908864680916
  0.5557800258866038  0.6112816900694169  0.1250638812625904
  0.3890991067521715  0.1111861871946414  0.1252456867070612
  0.8891394554056271  0.6112363943694924  0.1248880126415570
  0.7224623714276164  0.1112129574249431  0.1249117669595744
  0.0558059355997875  0.7779116767300113  0.6250243746682863
  0.3891154487718277  0.7778999196655647  0.6251024695832553
  0.2224523408908914  0.2778928371121135  0.6240609964528586
  0.7224605313104789  0.7779375793810669  0.6252444716442269
  0.5557800258866038  0.2778316691505301  0.6249361187374094
  0.8891462433431141  0.2778836107591890  0.6250933380630561
  0.2224605424322492  0.7778969378827894  0.1249588466340559
  0.0558141933762676  0.2778982413921622  0.1250908864680916
  0.3889978499315079  0.2776995328890612  0.1271030762879944
  0.5557784783670641  0.7779259206371244  0.1248648236748992
  0.8891520649895689  0.7779359008844703  0.1248516856298074
  0.7224605313104789  0.2778562852627472  0.1247555283557733
  0.0558097629317941  0.9445882964965157  0.6250423140346529
  0.3891154487718277  0.9445488624395844  0.6251024695832553
  0.2224483362954671  0.4445599581851385  0.6245922389676294
  0.5559967112890682  0.4446650223111984  0.6232055051741829
  0.7224623714276164  0.9445827473360016  0.6250882330404323
  0.8891520649895689  0.4445494974384277  0.6251483143702067
  0.0558097629317941  0.4445547997686074  0.1249576859653471
  0.2224603502289613  0.9445696015351438  0.1250083116482757
  0.5557837328615390  0.9445585330974337  0.1248968025287281
  0.3889978499315079  0.4446316503757826  0.1271030762879944
  0.8891462433431141  0.9445959659172604  0.1249066619369439
  0.7224821565348161  0.4445400051306675  0.1246443312915194
  0.2224603502289613  0.6112240820271607  0.6249916883517245
  0.0558141933762605  0.1112492853174339  0.6249091135319084
  0.5557800258866038  0.6112816900694169  0.6249361187374094
  0.3890991067521715  0.1111861871946414  0.6247543132929458
  0.8891394554056271  0.6112363943694924  0.6251119873584431
  0.0558059355997875  0.6112275922031043  0.1249756253317279
  0.7224623714276164  0.1112129574249431  0.6250882330404323
  0.2224483362954671  0.1112217114436643  0.1254077610323708
  0.3890991067521715  0.6112462528908801  0.1252456867070612
  0.7224821565348161  0.6112754847374987  0.1246443312915194
  0.5557784783670641  0.1111858910632610  0.1248648236748992
  0.3890991067521715  0.6112462528908801  0.6247543132929458
  0.8891444064209127  0.1112388698771275  0.1249562213024608
  0.2224605424322492  0.7778969378827894  0.6250411533659438
  0.0558141933762605  0.2778982413921622  0.6249091135319084
  0.3889978499315079  0.2776995328890612  0.6228969237120132
  0.5557784783670641  0.7779259206371244  0.6251351763251081
  0.8891520649895689  0.7779359008844703  0.6251483143702067
  0.7224605313104789  0.2778562852627472  0.6252444716442269
  0.0558059355997875  0.7779116767300113  0.1249756253317279
  0.3891154487718277  0.7778999196655647  0.1248975304167448
  0.2224523408908914  0.2778928371121135  0.1259390035471412
  0.7224605313104789  0.7779375793810669  0.1247555283557733
  0.5557800258866038  0.2778316691505301  0.1250638812625904
  0.8891462433431141  0.2778836107591890  0.1249066619369439
  0.0558097629317941  0.4445547997686074  0.6250423140346529
  0.2224603502289613  0.9445696015351438  0.6249916883517245
  0.5557837328615390  0.9445585330974337  0.6251031974712717
  0.3889978499315079  0.4446316503757826  0.6228969237120132
  0.8891462433431141  0.9445959659172604  0.6250933380630561
  0.0558097629317941  0.9445882964965157  0.1249576859653471
  0.7224821565348161  0.4445400051306675  0.6253556687084734
  0.3891154487718277  0.9445488624395844  0.1248975304167448
  0.2224483362954671  0.4445599581851385  0.1254077610323708
  0.2224603502289613  0.6112240820271607  0.1250083116482757
  0.5559967112890682  0.4446650223111984  0.1267944948258239
  0.7224623714276164  0.9445827473360016  0.1249117669595744
  0.8891520649895689  0.4445494974384277  0.1248516856298074
  0.0558059355997875  0.6112275922031043  0.6250243746682863
  0.2224483362954671  0.1112217114436643  0.6245922389676294
  0.7224821565348161  0.6112754847374987  0.6253556687084734
  0.5557784783670641  0.1111858910632610  0.6251351763251081
  0.8891444064209127  0.1112388698771275  0.6250437786975396
 
  0.00000000E+00  0.00000000E+00  0.00000000E+00
  0.00000000E+00  0.00000000E+00  0.00000000E+00
  0.00000000E+00  0.00000000E+00  0.00000000E+00
  0.00000000E+00  0.00000000E+00  0.00000000E+00
  0.00000000E+00  0.00000000E+00  0.00000000E+00
  0.00000000E+00  0.00000000E+00  0.00000000E+00
  0.00000000E+00  0.00000000E+00  0.00000000E+00
  0.00000000E+00  0.00000000E+00  0.00000000E+00
  0.00000000E+00  0.00000000E+00  0.00000000E+00
  0.00000000E+00  0.00000000E+00  0.00000000E+00
  0.00000000E+00  0.00000000E+00  0.00000000E+00
  0.00000000E+00  0.00000000E+00  0.00000000E+00
  0.00000000E+00  0.00000000E+00  0.00000000E+00
  0.00000000E+00  0.00000000E+00  0.00000000E+00
  0.00000000E+00  0.00000000E+00  0.00000000E+00
  0.00000000E+00  0.00000000E+00  0.00000000E+00
  0.00000000E+00  0.00000000E+00  0.00000000E+00
  0.00000000E+00  0.00000000E+00  0.00000000E+00
  0.00000000E+00  0.00000000E+00  0.00000000E+00
  0.00000000E+00  0.00000000E+00  0.00000000E+00
  0.00000000E+00  0.00000000E+00  0.00000000E+00
  0.00000000E+00  0.00000000E+00  0.00000000E+00
  0.00000000E+00  0.00000000E+00  0.00000000E+00
  0.00000000E+00  0.00000000E+00  0.00000000E+00
  0.00000000E+00  0.00000000E+00  0.00000000E+00
  0.00000000E+00  0.00000000E+00  0.00000000E+00
  0.00000000E+00  0.00000000E+00  0.00000000E+00
  0.00000000E+00  0.00000000E+00  0.00000000E+00
  0.00000000E+00  0.00000000E+00  0.00000000E+00
  0.00000000E+00  0.00000000E+00  0.00000000E+00
  0.00000000E+00  0.00000000E+00  0.00000000E+00
  0.00000000E+00  0.00000000E+00  0.00000000E+00
  0.00000000E+00  0.00000000E+00  0.00000000E+00
  0.00000000E+00  0.00000000E+00  0.00000000E+00
  0.00000000E+00  0.00000000E+00  0.00000000E+00
  0.00000000E+00  0.00000000E+00  0.00000000E+00
  0.00000000E+00  0.00000000E+00  0.00000000E+00
  0.00000000E+00  0.00000000E+00  0.00000000E+00
  0.00000000E+00  0.00000000E+00  0.00000000E+00
  0.00000000E+00  0.00000000E+00  0.00000000E+00
  0.00000000E+00  0.00000000E+00  0.00000000E+00
  0.00000000E+00  0.00000000E+00  0.00000000E+00
  0.00000000E+00  0.00000000E+00  0.00000000E+00
  0.00000000E+00  0.00000000E+00  0.00000000E+00
  0.00000000E+00  0.00000000E+00  0.00000000E+00
  0.00000000E+00  0.00000000E+00  0.00000000E+00
  0.00000000E+00  0.00000000E+00  0.00000000E+00
  0.00000000E+00  0.00000000E+00  0.00000000E+00
  0.00000000E+00  0.00000000E+00  0.00000000E+00
  0.00000000E+00  0.00000000E+00  0.00000000E+00
  0.00000000E+00  0.00000000E+00  0.00000000E+00
  0.00000000E+00  0.00000000E+00  0.00000000E+00
  0.00000000E+00  0.00000000E+00  0.00000000E+00
  0.00000000E+00  0.00000000E+00  0.00000000E+00
  0.00000000E+00  0.00000000E+00  0.00000000E+00
  0.00000000E+00  0.00000000E+00  0.00000000E+00
  0.00000000E+00  0.00000000E+00  0.00000000E+00
  0.00000000E+00  0.00000000E+00  0.00000000E+00
  0.00000000E+00  0.00000000E+00  0.00000000E+00
  0.00000000E+00  0.00000000E+00  0.00000000E+00
  0.00000000E+00  0.00000000E+00  0.00000000E+00
  0.00000000E+00  0.00000000E+00  0.00000000E+00
  0.00000000E+00  0.00000000E+00  0.00000000E+00
  0.00000000E+00  0.00000000E+00  0.00000000E+00
  0.00000000E+00  0.00000000E+00  0.00000000E+00
  0.00000000E+00  0.00000000E+00  0.00000000E+00
  0.00000000E+00  0.00000000E+00  0.00000000E+00
  0.00000000E+00  0.00000000E+00  0.00000000E+00
  0.00000000E+00  0.00000000E+00  0.00000000E+00
  0.00000000E+00  0.00000000E+00  0.00000000E+00
  0.00000000E+00  0.00000000E+00  0.00000000E+00
  0.00000000E+00  0.00000000E+00  0.00000000E+00
  0.00000000E+00  0.00000000E+00  0.00000000E+00
  0.00000000E+00  0.00000000E+00  0.00000000E+00
  0.00000000E+00  0.00000000E+00  0.00000000E+00
  0.00000000E+00  0.00000000E+00  0.00000000E+00
  0.00000000E+00  0.00000000E+00  0.00000000E+00
  0.00000000E+00  0.00000000E+00  0.00000000E+00
  0.00000000E+00  0.00000000E+00  0.00000000E+00
  0.00000000E+00  0.00000000E+00  0.00000000E+00
  0.00000000E+00  0.00000000E+00  0.00000000E+00
  0.00000000E+00  0.00000000E+00  0.00000000E+00
  0.00000000E+00  0.00000000E+00  0.00000000E+00
  0.00000000E+00  0.00000000E+00  0.00000000E+00
  0.00000000E+00  0.00000000E+00  0.00000000E+00
  0.00000000E+00  0.00000000E+00  0.00000000E+00
  0.00000000E+00  0.00000000E+00  0.00000000E+00
  0.00000000E+00  0.00000000E+00  0.00000000E+00
  0.00000000E+00  0.00000000E+00  0.00000000E+00
  0.00000000E+00  0.00000000E+00  0.00000000E+00
  0.00000000E+00  0.00000000E+00  0.00000000E+00
  0.00000000E+00  0.00000000E+00  0.00000000E+00
  0.00000000E+00  0.00000000E+00  0.00000000E+00
  0.00000000E+00  0.00000000E+00  0.00000000E+00
  0.00000000E+00  0.00000000E+00  0.00000000E+00
  0.00000000E+00  0.00000000E+00  0.00000000E+00
  0.00000000E+00  0.00000000E+00  0.00000000E+00
  0.00000000E+00  0.00000000E+00  0.00000000E+00
  0.00000000E+00  0.00000000E+00  0.00000000E+00
  0.00000000E+00  0.00000000E+00  0.00000000E+00
  0.00000000E+00  0.00000000E+00  0.00000000E+00
  0.00000000E+00  0.00000000E+00  0.00000000E+00
  0.00000000E+00  0.00000000E+00  0.00000000E+00
  0.00000000E+00  0.00000000E+00  0.00000000E+00
  0.00000000E+00  0.00000000E+00  0.00000000E+00
  0.00000000E+00  0.00000000E+00  0.00000000E+00
  0.00000000E+00  0.00000000E+00  0.00000000E+00
  0.00000000E+00  0.00000000E+00  0.00000000E+00
  0.00000000E+00  0.00000000E+00  0.00000000E+00
  0.00000000E+00  0.00000000E+00  0.00000000E+00
  0.00000000E+00  0.00000000E+00  0.00000000E+00
  0.00000000E+00  0.00000000E+00  0.00000000E+00
  0.00000000E+00  0.00000000E+00  0.00000000E+00
  0.00000000E+00  0.00000000E+00  0.00000000E+00
  0.00000000E+00  0.00000000E+00  0.00000000E+00
  0.00000000E+00  0.00000000E+00  0.00000000E+00
  0.00000000E+00  0.00000000E+00  0.00000000E+00
  0.00000000E+00  0.00000000E+00  0.00000000E+00
  0.00000000E+00  0.00000000E+00  0.00000000E+00
  0.00000000E+00  0.00000000E+00  0.00000000E+00
  0.00000000E+00  0.00000000E+00  0.00000000E+00
  0.00000000E+00  0.00000000E+00  0.00000000E+00
  0.00000000E+00  0.00000000E+00  0.00000000E+00
  0.00000000E+00  0.00000000E+00  0.00000000E+00
  0.00000000E+00  0.00000000E+00  0.00000000E+00
  0.00000000E+00  0.00000000E+00  0.00000000E+00
  0.00000000E+00  0.00000000E+00  0.00000000E+00
  0.00000000E+00  0.00000000E+00  0.00000000E+00
  0.00000000E+00  0.00000000E+00  0.00000000E+00
  0.00000000E+00  0.00000000E+00  0.00000000E+00
  0.00000000E+00  0.00000000E+00  0.00000000E+00
  0.00000000E+00  0.00000000E+00  0.00000000E+00
  0.00000000E+00  0.00000000E+00  0.00000000E+00
  0.00000000E+00  0.00000000E+00  0.00000000E+00
  0.00000000E+00  0.00000000E+00  0.00000000E+00
  0.00000000E+00  0.00000000E+00  0.00000000E+00
  0.00000000E+00  0.00000000E+00  0.00000000E+00
  0.00000000E+00  0.00000000E+00  0.00000000E+00
  0.00000000E+00  0.00000000E+00  0.00000000E+00
  0.00000000E+00  0.00000000E+00  0.00000000E+00
  0.00000000E+00  0.00000000E+00  0.00000000E+00
  0.00000000E+00  0.00000000E+00  0.00000000E+00
  0.00000000E+00  0.00000000E+00  0.00000000E+00
  0.00000000E+00  0.00000000E+00  0.00000000E+00
  0.00000000E+00  0.00000000E+00  0.00000000E+00
  0.00000000E+00  0.00000000E+00  0.00000000E+00
  0.00000000E+00  0.00000000E+00  0.00000000E+00
  0.00000000E+00  0.00000000E+00  0.00000000E+00
  0.00000000E+00  0.00000000E+00  0.00000000E+00
  0.00000000E+00  0.00000000E+00  0.00000000E+00
  0.00000000E+00  0.00000000E+00  0.00000000E+00
  0.00000000E+00  0.00000000E+00  0.00000000E+00
  0.00000000E+00  0.00000000E+00  0.00000000E+00
  0.00000000E+00  0.00000000E+00  0.00000000E+00
  0.00000000E+00  0.00000000E+00  0.00000000E+00
  0.00000000E+00  0.00000000E+00  0.00000000E+00
  0.00000000E+00  0.00000000E+00  0.00000000E+00
  0.00000000E+00  0.00000000E+00  0.00000000E+00
  0.00000000E+00  0.00000000E+00  0.00000000E+00
  0.00000000E+00  0.00000000E+00  0.00000000E+00
  0.00000000E+00  0.00000000E+00  0.00000000E+00
  0.00000000E+00  0.00000000E+00  0.00000000E+00
  0.00000000E+00  0.00000000E+00  0.00000000E+00
  0.00000000E+00  0.00000000E+00  0.00000000E+00
  0.00000000E+00  0.00000000E+00  0.00000000E+00
  0.00000000E+00  0.00000000E+00  0.00000000E+00
  0.00000000E+00  0.00000000E+00  0.00000000E+00
  0.00000000E+00  0.00000000E+00  0.00000000E+00
  0.00000000E+00  0.00000000E+00  0.00000000E+00
  0.00000000E+00  0.00000000E+00  0.00000000E+00
  0.00000000E+00  0.00000000E+00  0.00000000E+00
  0.00000000E+00  0.00000000E+00  0.00000000E+00
  0.00000000E+00  0.00000000E+00  0.00000000E+00
  0.00000000E+00  0.00000000E+00  0.00000000E+00
  0.00000000E+00  0.00000000E+00  0.00000000E+00
  0.00000000E+00  0.00000000E+00  0.00000000E+00
  0.00000000E+00  0.00000000E+00  0.00000000E+00
  0.00000000E+00  0.00000000E+00  0.00000000E+00
  0.00000000E+00  0.00000000E+00  0.00000000E+00
  0.00000000E+00  0.00000000E+00  0.00000000E+00
  0.00000000E+00  0.00000000E+00  0.00000000E+00
  0.00000000E+00  0.00000000E+00  0.00000000E+00
  0.00000000E+00  0.00000000E+00  0.00000000E+00
  0.00000000E+00  0.00000000E+00  0.00000000E+00
  0.00000000E+00  0.00000000E+00  0.00000000E+00
  0.00000000E+00  0.00000000E+00  0.00000000E+00
  0.00000000E+00  0.00000000E+00  0.00000000E+00
  0.00000000E+00  0.00000000E+00  0.00000000E+00
  0.00000000E+00  0.00000000E+00  0.00000000E+00
  0.00000000E+00  0.00000000E+00  0.00000000E+00
  0.00000000E+00  0.00000000E+00  0.00000000E+00
  0.00000000E+00  0.00000000E+00  0.00000000E+00
  0.00000000E+00  0.00000000E+00  0.00000000E+00
  0.00000000E+00  0.00000000E+00  0.00000000E+00
  0.00000000E+00  0.00000000E+00  0.00000000E+00
  0.00000000E+00  0.00000000E+00  0.00000000E+00
  0.00000000E+00  0.00000000E+00  0.00000000E+00
  0.00000000E+00  0.00000000E+00  0.00000000E+00
  0.00000000E+00  0.00000000E+00  0.00000000E+00
  0.00000000E+00  0.00000000E+00  0.00000000E+00
  0.00000000E+00  0.00000000E+00  0.00000000E+00
  0.00000000E+00  0.00000000E+00  0.00000000E+00
  0.00000000E+00  0.00000000E+00  0.00000000E+00
  0.00000000E+00  0.00000000E+00  0.00000000E+00
  0.00000000E+00  0.00000000E+00  0.00000000E+00
  0.00000000E+00  0.00000000E+00  0.00000000E+00
  0.00000000E+00  0.00000000E+00  0.00000000E+00
  0.00000000E+00  0.00000000E+00  0.00000000E+00
  0.00000000E+00  0.00000000E+00  0.00000000E+00
  0.00000000E+00  0.00000000E+00  0.00000000E+00
  0.00000000E+00  0.00000000E+00  0.00000000E+00
  0.00000000E+00  0.00000000E+00  0.00000000E+00
  0.00000000E+00  0.00000000E+00  0.00000000E+00
  0.00000000E+00  0.00000000E+00  0.00000000E+00
  0.00000000E+00  0.00000000E+00  0.00000000E+00
  0.00000000E+00  0.00000000E+00  0.00000000E+00
  0.00000000E+00  0.00000000E+00  0.00000000E+00
  0.00000000E+00  0.00000000E+00  0.00000000E+00
  0.00000000E+00  0.00000000E+00  0.00000000E+00
  0.00000000E+00  0.00000000E+00  0.00000000E+00
  0.00000000E+00  0.00000000E+00  0.00000000E+00
  0.00000000E+00  0.00000000E+00  0.00000000E+00
  0.00000000E+00  0.00000000E+00  0.00000000E+00
  0.00000000E+00  0.00000000E+00  0.00000000E+00
  0.00000000E+00  0.00000000E+00  0.00000000E+00
  0.00000000E+00  0.00000000E+00  0.00000000E+00
  0.00000000E+00  0.00000000E+00  0.00000000E+00
  0.00000000E+00  0.00000000E+00  0.00000000E+00
  0.00000000E+00  0.00000000E+00  0.00000000E+00
  0.00000000E+00  0.00000000E+00  0.00000000E+00
  0.00000000E+00  0.00000000E+00  0.00000000E+00
  0.00000000E+00  0.00000000E+00  0.00000000E+00
  0.00000000E+00  0.00000000E+00  0.00000000E+00
  0.00000000E+00  0.00000000E+00  0.00000000E+00
  0.00000000E+00  0.00000000E+00  0.00000000E+00
  0.00000000E+00  0.00000000E+00  0.00000000E+00
  0.00000000E+00  0.00000000E+00  0.00000000E+00
  0.00000000E+00  0.00000000E+00  0.00000000E+00
  0.00000000E+00  0.00000000E+00  0.00000000E+00
  0.00000000E+00  0.00000000E+00  0.00000000E+00
  0.00000000E+00  0.00000000E+00  0.00000000E+00
  0.00000000E+00  0.00000000E+00  0.00000000E+00
  0.00000000E+00  0.00000000E+00  0.00000000E+00
  0.00000000E+00  0.00000000E+00  0.00000000E+00
  0.00000000E+00  0.00000000E+00  0.00000000E+00
  0.00000000E+00  0.00000000E+00  0.00000000E+00
  0.00000000E+00  0.00000000E+00  0.00000000E+00
  0.00000000E+00  0.00000000E+00  0.00000000E+00