Species order: X N B                    
   2.51242800000000     
     5.9449720136058266    0.0000000000000000    0.0000000000000000
    -2.9724860068029120    5.1484967885702053   -0.0000000000000001
     0.0000000000000000    0.0000000000000009    5.3101128803662583
   N    B 
   143   145
Direct
  0.1111049607369758  0.0555505180205734  0.1249933615211130
  0.6111254070876551  0.5555841475086385  0.1250519656125023
  0.4444448723675800  0.0555558018416050  0.1250263262130034
  0.9444441981583950  0.5555551276324200  0.1250263262130034
  0.7777780798520961  0.0555557065927159  0.1249894841233671
  0.1111104664537362  0.7222218998935324  0.6249908798726191
  0.4444448723675800  0.7222224038593106  0.6249736737869965
  0.2777640834123455  0.2222098049956074  0.6249939091361223
  0.7777901950043926  0.7222359165876543  0.6249939091361223
  0.6111123882499333  0.2222098049956074  0.6249939091361223
  0.9444442934072839  0.2222219201479039  0.6250105158766327
  0.2777781001064675  0.7222218998935324  0.1250091201273880
  0.1111052129377634  0.2222192731355425  0.1249902111635638
  0.4444467356523988  0.2222268046381263  0.1251117827541249
  0.6111123882499333  0.7222359165876543  0.1250060908638778
  0.9444441981583950  0.7222224038593106  0.1250263262130034
  0.7777807268644574  0.2222192731355425  0.1249902111635638
  0.1111112262054142  0.8888887737945856  0.6249857330192194
  0.4444442142558431  0.8888887737945856  0.6249857330192194
  0.2777640834123455  0.3888876117500668  0.6249939091361223
  0.6111254070876551  0.3888745929123451  0.6249480343874978
  0.7777807268644574  0.8888947870622367  0.6250097888364435
  0.9444494819794266  0.3888877760497310  0.6250066384788870
  0.1111049607369758  0.3888877760497310  0.1249933615211130
  0.2777781001064675  0.8888895335462637  0.1250091201273880
  0.6111122239502690  0.8888950392630242  0.1249933615211130
  0.4444158524913614  0.3888745929123451  0.1250519656125023
  0.9444494819794266  0.8888950392630242  0.1249933615211130
  0.7777901950043926  0.3888876117500668  0.1250060908638778
  0.2777775961406893  0.5555551276324200  0.6249736737869965
  0.1111049607369758  0.0555505180205734  0.6250066384788870
  0.6111254070876551  0.5555841475086385  0.6249480343874978
  0.4444448723675800  0.0555558018416050  0.6249736737869965
  0.9444441981583950  0.5555551276324200  0.6249736737869965
  0.1111112262054142  0.5555557857441570  0.1250142669807804
  0.7777780798520961  0.0555557065927159  0.6250105158766327
  0.2777775961406893  0.0555558018416050  0.1250263262130034
  0.4444467356523988  0.5555532643476011  0.1251117827541249
  0.7777731953618737  0.5555532643476011  0.1251117827541249
  0.6111122239502690  0.0555505180205734  0.1249933615211130
  0.4444467356523988  0.5555532643476011  0.6248882172458754
  0.9444442934072839  0.0555557065927159  0.1249894841233671
  0.2777781001064675  0.7222218998935324  0.6249908798726191
  0.1111052129377634  0.2222192731355425  0.6250097888364435
  0.4444467356523988  0.2222268046381263  0.6248882172458754
  0.6111123882499333  0.7222359165876543  0.6249939091361223
  0.9444441981583950  0.7222224038593106  0.6249736737869965
  0.7777807268644574  0.2222192731355425  0.6250097888364435
  0.1111104664537362  0.7222218998935324  0.1250091201273880
  0.4444448723675800  0.7222224038593106  0.1250263262130034
  0.2777640834123455  0.2222098049956074  0.1250060908638778
  0.7777901950043926  0.7222359165876543  0.1250060908638778
  0.6111123882499333  0.2222098049956074  0.1250060908638778
  0.9444442934072839  0.2222219201479039  0.1249894841233671
  0.1111049607369758  0.3888877760497310  0.6250066384788870
  0.2777781001064675  0.8888895335462637  0.6249908798726191
  0.6111122239502690  0.8888950392630242  0.6250066384788870
  0.4444158524913614  0.3888745929123451  0.6249480343874978
  0.9444494819794266  0.8888950392630242  0.6250066384788870
  0.1111112262054142  0.8888887737945856  0.1250142669807804
  0.7777901950043926  0.3888876117500668  0.6249939091361223
  0.4444442142558431  0.8888887737945856  0.1250142669807804
  0.2777640834123455  0.3888876117500668  0.1250060908638778
  0.2777775961406893  0.5555551276324200  0.1250263262130034
  0.6111254070876551  0.3888745929123451  0.1250519656125023
  0.7777807268644574  0.8888947870622367  0.1249902111635638
  0.9444494819794266  0.3888877760497310  0.1249933615211130
  0.1111112262054142  0.5555557857441570  0.6249857330192194
  0.2777775961406893  0.0555558018416050  0.6249736737869965
  0.7777731953618737  0.5555532643476011  0.6248882172458754
  0.6111122239502690  0.0555505180205734  0.6250066384788870
  0.9444442934072839  0.0555557065927159  0.6250105158766327
  0.0549009641882349  0.1106765880143316  0.3750000000000000
  0.5565964217494244  0.6164253256701692  0.3750000000000000
  0.3886400738865882  0.1106134811065265  0.3750000000000000
  0.8893865188934736  0.6113599261134118  0.3750000000000000
  0.7224422904927540  0.1106765880143316  0.3750000000000000
  0.0555546744383021  0.7777780972083433  0.8750000000000000
  0.3888900894367057  0.7777780972083433  0.8750000000000000
  0.2222238596643790  0.2777785964988574  0.8750000000000000
  0.7222214035011426  0.7777761403356209  0.8750000000000000
  0.5555545572915322  0.2777781456302457  0.8750000000000000
  0.8888898747714189  0.2777792741779690  0.8750000000000000
  0.2222222222222214  0.7777777777777786  0.3750000000000000
  0.0549009641882349  0.2775577095072462  0.3750000000000000
  0.3835746743298307  0.2735044294125908  0.3750000000000000
  0.5555051523790359  0.7798266862886806  0.3750000000000000
  0.8909882005763018  0.7798266862886806  0.3750000000000000
  0.7232977193863079  0.2767022806136922  0.3750000000000000
  0.0555559627162340  0.9444440372837661  0.8750000000000000
  0.3888900894367057  0.9444453255616981  0.8750000000000000
  0.2222216366981802  0.4444452033617760  0.8750000000000000
  0.5555555555555571  0.4444444444444429  0.8750000000000000
  0.7222207258220311  0.9444439339267926  0.8750000000000000
  0.8888902333302601  0.4444452033617760  0.8750000000000000
  0.0556524701535140  0.4446382736403565  0.3750000000000000
  0.2221349102922904  0.9441107682075461  0.3750000000000000
  0.5553617263596434  0.9443475298464861  0.3750000000000000
  0.3835746743298307  0.4434035782505755  0.3750000000000000
  0.8893234119856683  0.9450990358117651  0.3750000000000000
  0.7264955705874092  0.4434035782505755  0.3750000000000000
  0.2222219027916566  0.6111099105632943  0.8750000000000000
  0.0555560660732073  0.1111101252285811  0.8750000000000000
  0.5555545572915322  0.6111097449946294  0.8750000000000000
  0.3888900044029356  0.1111133421392141  0.8750000000000000
  0.8888866578607859  0.6111099955970644  0.8750000000000000
  0.0558892317924539  0.6113574754180799  0.3750000000000000
  0.7222207258220311  0.1111101252285811  0.8750000000000000
  0.2201733137113195  0.1090117994236981  0.3750000000000000
  0.3886400738865882  0.6113599261134118  0.3750000000000000
  0.7264955705874092  0.6164253256701692  0.3750000000000000
  0.5555051523790359  0.1090117994236981  0.3750000000000000
  0.3888900044029356  0.6111099955970644  0.8750000000000000
  0.8888888888888857  0.1111111111111143  0.3750000000000000
  0.2222222222222214  0.7777777777777786  0.8750000000000000
  0.0555560660732073  0.2777792741779690  0.8750000000000000
  0.3888902550053706  0.2777781456302457  0.8750000000000000
  0.5555547966382239  0.7777783633018199  0.8750000000000000
  0.8888902333302601  0.7777783633018199  0.8750000000000000
  0.7222214035011426  0.2777785964988574  0.8750000000000000
  0.0558892317924539  0.7778650897077095  0.3750000000000000
  0.3886425245819201  0.7778650897077095  0.3750000000000000
  0.2200712278940415  0.2767022806136922  0.3750000000000000
  0.7232977193863079  0.7799287721059585  0.3750000000000000
  0.5565964217494244  0.2735044294125908  0.3750000000000000
  0.8893234119856683  0.2775577095072462  0.3750000000000000
  0.0555559627162340  0.4444452587658037  0.8750000000000000
  0.2222219027916566  0.9444453255616981  0.8750000000000000
  0.5555547412341963  0.9444440372837661  0.8750000000000000
  0.3888902550053706  0.4444454427084677  0.8750000000000000
  0.8888898747714189  0.9444439339267926  0.8750000000000000
  0.0556524701535140  0.9443475298464861  0.3750000000000000
  0.7222218543697547  0.4444454427084677  0.8750000000000000
  0.3886425245819201  0.9441107682075461  0.3750000000000000
  0.2201733137113195  0.4444948476209641  0.3750000000000000
  0.2221349102922904  0.6113574754180799  0.3750000000000000
  0.7224422904927540  0.9450990358117651  0.3750000000000000
  0.8909882005763018  0.4444948476209641  0.3750000000000000
  0.0555546744383021  0.6111099105632943  0.8750000000000000
  0.2222216366981802  0.1111097666697398  0.8750000000000000
  0.7222218543697547  0.6111097449946294  0.8750000000000000
  0.5555547966382239  0.1111097666697398  0.8750000000000000
  0.8888888888888857  0.1111111111111143  0.8750000000000000
  0.1099569525332441  0.0546812173482928  0.3750000000000000
  0.6169493867233394  0.5672321067800147  0.3750000000000000
  0.4443646170137636  0.0549486280298924  0.3750000000000000
  0.9450513719701077  0.5556353829862364  0.3750000000000000
  0.7780693770705889  0.0557013552019622  0.3750000000000000
  0.1111086963624836  0.7222210148479060  0.8750000000000000
  0.4444466492481854  0.7222205858181879  0.8750000000000000
  0.2777824814118686  0.2222253292258013  0.8750000000000000
  0.7777746707741986  0.7222175185881315  0.8750000000000000
  0.6111095144806039  0.2222253292258013  0.8750000000000000
  0.9444447826780854  0.2222228986895062  0.8750000000000000
  0.2776774840669284  0.7223225159330716  0.3750000000000000
  0.1096535104252461  0.2214934218792838  0.3750000000000000
  0.4441227094646641  0.2215787522626566  0.3750000000000000
  0.6120141463549991  0.7262727230790548  0.3750000000000000
  0.9450513719701077  0.7227493223172069  0.3750000000000000
  0.7785065781207161  0.2214934218792838  0.3750000000000000
  0.1111099299916579  0.8888900700083421  0.8750000000000000
  0.4444468066833557  0.8888900700083421  0.8750000000000000
  0.2777824814118686  0.3888904855193960  0.8750000000000000
  0.6111129656490166  0.3888870343509833  0.8750000000000000
  0.7777766720105648  0.8888866773544657  0.8750000000000000
  0.9444433314336327  0.3888883957339392  0.8750000000000000
  0.1099569525332441  0.3886090685182800  0.3750000000000000
  0.2776774840669284  0.8886883014671854  0.3750000000000000
  0.6113909314817200  0.8900430474667559  0.3750000000000000
  0.4327678932199854  0.3830506132766605  0.3750000000000000
  0.9453187826517072  0.8900430474667559  0.3750000000000000
  0.7809252433907198  0.3879858536450009  0.3750000000000000
  0.2777794141818121  0.5555533507518147  0.8750000000000000
  0.1111117309669780  0.0555566685663675  0.8750000000000000
  0.6111129656490166  0.5555592646313620  0.8750000000000000
  0.4444466492481854  0.0555593967633332  0.8750000000000000
  0.9444406032366669  0.5555533507518147  0.8750000000000000
  0.1111736902676659  0.5556807138686531  0.3750000000000000
  0.7777771013104936  0.0555552173219147  0.8750000000000000
  0.2772506776827930  0.0549486280298924  0.3750000000000000
  0.4441227094646641  0.5558772905353361  0.3750000000000000
  0.7784212477373432  0.5558772905353361  0.3750000000000000
  0.6113909314817200  0.0546812173482928  0.3750000000000000
  0.4444481066799643  0.5555518933200359  0.8750000000000000
  0.9442986447980378  0.0557013552019622  0.3750000000000000
  0.2777789851520938  0.7222210148479060  0.8750000000000000
  0.1111133226455344  0.2222233279894350  0.8750000000000000
  0.4444481066799643  0.2222295466932573  0.8750000000000000
  0.6111095144806039  0.7222175185881315  0.8750000000000000
  0.9444406032366669  0.7222205858181879  0.8750000000000000
  0.7777766720105648  0.2222233279894350  0.8750000000000000
  0.1113116985328145  0.7223225159330716  0.3750000000000000
  0.4443646170137636  0.7227493223172069  0.3750000000000000
  0.2737272769209452  0.2190747566092801  0.3750000000000000
  0.7809252433907198  0.7262727230790548  0.3750000000000000
  0.6120141463549991  0.2190747566092801  0.3750000000000000
  0.9442986447980378  0.2219306229294113  0.3750000000000000
  0.1111117309669780  0.3888883957339392  0.8750000000000000
  0.2777789851520938  0.8888913036375162  0.8750000000000000
  0.6111116042660609  0.8888882690330220  0.8750000000000000
  0.4444407353686379  0.3888870343509833  0.8750000000000000
  0.9444433314336327  0.8888882690330220  0.8750000000000000
  0.1111736902676659  0.8888263097323341  0.3750000000000000
  0.7777746707741986  0.3888904855193960  0.8750000000000000
  0.4443192861313469  0.8888263097323341  0.3750000000000000
  0.2737272769209452  0.3879858536450009  0.3750000000000000
  0.2772506776827930  0.5556353829862364  0.3750000000000000
  0.6169493867233394  0.3830506132766605  0.3750000000000000
  0.7785065781207161  0.8903464895747539  0.3750000000000000
  0.9453187826517072  0.3886090685182800  0.3750000000000000
  0.1111099299916579  0.5555531933166444  0.8750000000000000
  0.2777794141818121  0.0555593967633332  0.8750000000000000
  0.7777704533067428  0.5555518933200359  0.8750000000000000
  0.6111116042660609  0.0555566685663675  0.8750000000000000
  0.9444447826780854  0.0555552173219147  0.8750000000000000
  0.0555508120007933  0.1111101321341307  0.1249924577606655
  0.5555592251976266  0.6111157670074383  0.1250787399092990
  0.3888931101852758  0.1111195537038944  0.1250228506692343
  0.8888804462961056  0.6111068898147242  0.1250228506692343
  0.7222259868000018  0.1111101321341307  0.1249924577606655
  0.0555523601774239  0.7777782483830630  0.6250029921196268
  0.3888925548723036  0.7777782483830630  0.6250029921196268
  0.2222208229264168  0.2777770781298727  0.6250048104582810
  0.7222229218701274  0.7777791770735832  0.6250048104582810
  0.5555592251976266  0.2777767915235242  0.6249212600907008
  0.8888898678658692  0.2777740131999982  0.6250075422393345
  0.2222222222222214  0.7777777777777786  0.1249906891948936
  0.0555508120007933  0.2777740131999982  0.1249924577606655
  0.3888842329925617  0.2777767915235242  0.1250787399092990
  0.5555655895050421  0.7777822996774157  0.1249958812619663
  0.8888833768390374  0.7777822996774157  0.1249958812619663
  0.7222229218701274  0.2777770781298727  0.1249951895417191
  0.0555520743492090  0.9444479256507908  0.6250086814023260
  0.3888925548723036  0.9444476398225760  0.6250029921196268
  0.2222177003225845  0.4444344104949577  0.6250041187380336
  0.5555555555555571  0.4444444444444429  0.6247953609845893
  0.7222259868000018  0.9444491879992067  0.6250075422393345
  0.8888833768390374  0.4444344104949577  0.6250041187380336
  0.0555520743492090  0.4444374820317467  0.1249913185976738
  0.2222217516169368  0.9444476398225760  0.1249970078803731
  0.5555625179682532  0.9444479256507908  0.1249913185976738
  0.3888842329925617  0.4444407748023732  0.1250787399092990
  0.8888898678658692  0.9444491879992067  0.1249924577606655
  0.7222232084764758  0.4444407748023732  0.1250787399092990
  0.2222217516169368  0.6111074451276965  0.6250029921196268
  0.0555508120007933  0.1111101321341307  0.6250075422393345
  0.5555592251976266  0.6111157670074383  0.6249212600907008
  0.3888931101852758  0.1111195537038944  0.6249771493307659
  0.8888804462961056  0.6111068898147242  0.6249771493307659
  0.0555523601774239  0.6111074451276965  0.1249970078803731
  0.7222259868000018  0.1111101321341307  0.6250075422393345
  0.2222177003225845  0.1111166231609696  0.1249958812619663
  0.3888931101852758  0.6111068898147242  0.1250228506692343
  0.7222232084764758  0.6111157670074383  0.1250787399092990
  0.5555655895050421  0.1111166231609696  0.1249958812619663
  0.3888931101852758  0.6111068898147242  0.6249771493307659
  0.8888888888888857  0.1111111111111143  0.1249946645740402
  0.2222222222222214  0.7777777777777786  0.6250093108051066
  0.0555508120007933  0.2777740131999982  0.6250075422393345
  0.3888842329925617  0.2777767915235242  0.6249212600907008
  0.5555655895050421  0.7777822996774157  0.6250041187380336
  0.8888833768390374  0.7777822996774157  0.6250041187380336
  0.7222229218701274  0.2777770781298727  0.6250048104582810
  0.0555523601774239  0.7777782483830630  0.1249970078803731
  0.3888925548723036  0.7777782483830630  0.1249970078803731
  0.2222208229264168  0.2777770781298727  0.1249951895417191
  0.7222229218701274  0.7777791770735832  0.1249951895417191
  0.5555592251976266  0.2777767915235242  0.1250787399092990
  0.8888898678658692  0.2777740131999982  0.1249924577606655
  0.0555520743492090  0.4444374820317467  0.6250086814023260
  0.2222217516169368  0.9444476398225760  0.6250029921196268
  0.5555625179682532  0.9444479256507908  0.6250086814023260
  0.3888842329925617  0.4444407748023732  0.6249212600907008
  0.8888898678658692  0.9444491879992067  0.6250075422393345
  0.0555520743492090  0.9444479256507908  0.1249913185976738
  0.7222232084764758  0.4444407748023732  0.6249212600907008
  0.3888925548723036  0.9444476398225760  0.1249970078803731
  0.2222177003225845  0.4444344104949577  0.1249958812619663
  0.2222217516169368  0.6111074451276965  0.1249970078803731
  0.5555555555555571  0.4444444444444429  0.1252046390154108
  0.7222259868000018  0.9444491879992067  0.1249924577606655
  0.8888833768390374  0.4444344104949577  0.1249958812619663
  0.0555523601774239  0.6111074451276965  0.6250029921196268
  0.2222177003225845  0.1111166231609696  0.6250041187380336
  0.7222232084764758  0.6111157670074383  0.6249212600907008
  0.5555655895050421  0.1111166231609696  0.6250041187380336
  0.8888888888888857  0.1111111111111143  0.6250053354259599
  0.5555555555555571  0.4444444444444429  0.3750000000000000
 
  0.00000000E+00  0.00000000E+00  0.00000000E+00
  0.00000000E+00  0.00000000E+00  0.00000000E+00
  0.00000000E+00  0.00000000E+00  0.00000000E+00
  0.00000000E+00  0.00000000E+00  0.00000000E+00
  0.00000000E+00  0.00000000E+00  0.00000000E+00
  0.00000000E+00  0.00000000E+00  0.00000000E+00
  0.00000000E+00  0.00000000E+00  0.00000000E+00
  0.00000000E+00  0.00000000E+00  0.00000000E+00
  0.00000000E+00  0.00000000E+00  0.00000000E+00
  0.00000000E+00  0.00000000E+00  0.00000000E+00
  0.00000000E+00  0.00000000E+00  0.00000000E+00
  0.00000000E+00  0.00000000E+00  0.00000000E+00
  0.00000000E+00  0.00000000E+00  0.00000000E+00
  0.00000000E+00  0.00000000E+00  0.00000000E+00
  0.00000000E+00  0.00000000E+00  0.00000000E+00
  0.00000000E+00  0.00000000E+00  0.00000000E+00
  0.00000000E+00  0.00000000E+00  0.00000000E+00
  0.00000000E+00  0.00000000E+00  0.00000000E+00
  0.00000000E+00  0.00000000E+00  0.00000000E+00
  0.00000000E+00  0.00000000E+00  0.00000000E+00
  0.00000000E+00  0.00000000E+00  0.00000000E+00
  0.00000000E+00  0.00000000E+00  0.00000000E+00
  0.00000000E+00  0.00000000E+00  0.00000000E+00
  0.00000000E+00  0.00000000E+00  0.00000000E+00
  0.00000000E+00  0.00000000E+00  0.00000000E+00
  0.00000000E+00  0.00000000E+00  0.00000000E+00
  0.00000000E+00  0.00000000E+00  0.00000000E+00
  0.00000000E+00  0.00000000E+00  0.00000000E+00
  0.00000000E+00  0.00000000E+00  0.00000000E+00
  0.00000000E+00  0.00000000E+00  0.00000000E+00
  0.00000000E+00  0.00000000E+00  0.00000000E+00
  0.00000000E+00  0.00000000E+00  0.00000000E+00
  0.00000000E+00  0.00000000E+00  0.00000000E+00
  0.00000000E+00  0.00000000E+00  0.00000000E+00
  0.00000000E+00  0.00000000E+00  0.00000000E+00
  0.00000000E+00  0.00000000E+00  0.00000000E+00
  0.00000000E+00  0.00000000E+00  0.00000000E+00
  0.00000000E+00  0.00000000E+00  0.00000000E+00
  0.00000000E+00  0.00000000E+00  0.00000000E+00
  0.00000000E+00  0.00000000E+00  0.00000000E+00
  0.00000000E+00  0.00000000E+00  0.00000000E+00
  0.00000000E+00  0.00000000E+00  0.00000000E+00
  0.00000000E+00  0.00000000E+00  0.00000000E+00
  0.00000000E+00  0.00000000E+00  0.00000000E+00
  0.00000000E+00  0.00000000E+00  0.00000000E+00
  0.00000000E+00  0.00000000E+00  0.00000000E+00
  0.00000000E+00  0.00000000E+00  0.00000000E+00
  0.00000000E+00  0.00000000E+00  0.00000000E+00
  0.00000000E+00  0.00000000E+00  0.00000000E+00
  0.00000000E+00  0.00000000E+00  0.00000000E+00
  0.00000000E+00  0.00000000E+00  0.00000000E+00
  0.00000000E+00  0.00000000E+00  0.00000000E+00
  0.00000000E+00  0.00000000E+00  0.00000000E+00
  0.00000000E+00  0.00000000E+00  0.00000000E+00
  0.00000000E+00  0.00000000E+00  0.00000000E+00
  0.00000000E+00  0.00000000E+00  0.00000000E+00
  0.00000000E+00  0.00000000E+00  0.00000000E+00
  0.00000000E+00  0.00000000E+00  0.00000000E+00
  0.00000000E+00  0.00000000E+00  0.00000000E+00
  0.00000000E+00  0.00000000E+00  0.00000000E+00
  0.00000000E+00  0.00000000E+00  0.00000000E+00
  0.00000000E+00  0.00000000E+00  0.00000000E+00
  0.00000000E+00  0.00000000E+00  0.00000000E+00
  0.00000000E+00  0.00000000E+00  0.00000000E+00
  0.00000000E+00  0.00000000E+00  0.00000000E+00
  0.00000000E+00  0.00000000E+00  0.00000000E+00
  0.00000000E+00  0.00000000E+00  0.00000000E+00
  0.00000000E+00  0.00000000E+00  0.00000000E+00
  0.00000000E+00  0.00000000E+00  0.00000000E+00
  0.00000000E+00  0.00000000E+00  0.00000000E+00
  0.00000000E+00  0.00000000E+00  0.00000000E+00
  0.00000000E+00  0.00000000E+00  0.00000000E+00
  0.00000000E+00  0.00000000E+00  0.00000000E+00
  0.00000000E+00  0.00000000E+00  0.00000000E+00
  0.00000000E+00  0.00000000E+00  0.00000000E+00
  0.00000000E+00  0.00000000E+00  0.00000000E+00
  0.00000000E+00  0.00000000E+00  0.00000000E+00
  0.00000000E+00  0.00000000E+00  0.00000000E+00
  0.00000000E+00  0.00000000E+00  0.00000000E+00
  0.00000000E+00  0.00000000E+00  0.00000000E+00
  0.00000000E+00  0.00000000E+00  0.00000000E+00
  0.00000000E+00  0.00000000E+00  0.00000000E+00
  0.00000000E+00  0.00000000E+00  0.00000000E+00
  0.00000000E+00  0.00000000E+00  0.00000000E+00
  0.00000000E+00  0.00000000E+00  0.00000000E+00
  0.00000000E+00  0.00000000E+00  0.00000000E+00
  0.00000000E+00  0.00000000E+00  0.00000000E+00
  0.00000000E+00  0.00000000E+00  0.00000000E+00
  0.00000000E+00  0.00000000E+00  0.00000000E+00
  0.00000000E+00  0.00000000E+00  0.00000000E+00
  0.00000000E+00  0.00000000E+00  0.00000000E+00
  0.00000000E+00  0.00000000E+00  0.00000000E+00
  0.00000000E+00  0.00000000E+00  0.00000000E+00
  0.00000000E+00  0.00000000E+00  0.00000000E+00
  0.00000000E+00  0.00000000E+00  0.00000000E+00
  0.00000000E+00  0.00000000E+00  0.00000000E+00
  0.00000000E+00  0.00000000E+00  0.00000000E+00
  0.00000000E+00  0.00000000E+00  0.00000000E+00
  0.00000000E+00  0.00000000E+00  0.00000000E+00
  0.00000000E+00  0.00000000E+00  0.00000000E+00
  0.00000000E+00  0.00000000E+00  0.00000000E+00
  0.00000000E+00  0.00000000E+00  0.00000000E+00
  0.00000000E+00  0.00000000E+00  0.00000000E+00
  0.00000000E+00  0.00000000E+00  0.00000000E+00
  0.00000000E+00  0.00000000E+00  0.00000000E+00
  0.00000000E+00  0.00000000E+00  0.00000000E+00
  0.00000000E+00  0.00000000E+00  0.00000000E+00
  0.00000000E+00  0.00000000E+00  0.00000000E+00
  0.00000000E+00  0.00000000E+00  0.00000000E+00
  0.00000000E+00  0.00000000E+00  0.00000000E+00
  0.00000000E+00  0.00000000E+00  0.00000000E+00
  0.00000000E+00  0.00000000E+00  0.00000000E+00
  0.00000000E+00  0.00000000E+00  0.00000000E+00
  0.00000000E+00  0.00000000E+00  0.00000000E+00
  0.00000000E+00  0.00000000E+00  0.00000000E+00
  0.00000000E+00  0.00000000E+00  0.00000000E+00
  0.00000000E+00  0.00000000E+00  0.00000000E+00
  0.00000000E+00  0.00000000E+00  0.00000000E+00
  0.00000000E+00  0.00000000E+00  0.00000000E+00
  0.00000000E+00  0.00000000E+00  0.00000000E+00
  0.00000000E+00  0.00000000E+00  0.00000000E+00
  0.00000000E+00  0.00000000E+00  0.00000000E+00
  0.00000000E+00  0.00000000E+00  0.00000000E+00
  0.00000000E+00  0.00000000E+00  0.00000000E+00
  0.00000000E+00  0.00000000E+00  0.00000000E+00
  0.00000000E+00  0.00000000E+00  0.00000000E+00
  0.00000000E+00  0.00000000E+00  0.00000000E+00
  0.00000000E+00  0.00000000E+00  0.00000000E+00
  0.00000000E+00  0.00000000E+00  0.00000000E+00
  0.00000000E+00  0.00000000E+00  0.00000000E+00
  0.00000000E+00  0.00000000E+00  0.00000000E+00
  0.00000000E+00  0.00000000E+00  0.00000000E+00
  0.00000000E+00  0.00000000E+00  0.00000000E+00
  0.00000000E+00  0.00000000E+00  0.00000000E+00
  0.00000000E+00  0.00000000E+00  0.00000000E+00
  0.00000000E+00  0.00000000E+00  0.00000000E+00
  0.00000000E+00  0.00000000E+00  0.00000000E+00
  0.00000000E+00  0.00000000E+00  0.00000000E+00
  0.00000000E+00  0.00000000E+00  0.00000000E+00
  0.00000000E+00  0.00000000E+00  0.00000000E+00
  0.00000000E+00  0.00000000E+00  0.00000000E+00
  0.00000000E+00  0.00000000E+00  0.00000000E+00
  0.00000000E+00  0.00000000E+00  0.00000000E+00
  0.00000000E+00  0.00000000E+00  0.00000000E+00
  0.00000000E+00  0.00000000E+00  0.00000000E+00
  0.00000000E+00  0.00000000E+00  0.00000000E+00
  0.00000000E+00  0.00000000E+00  0.00000000E+00
  0.00000000E+00  0.00000000E+00  0.00000000E+00
  0.00000000E+00  0.00000000E+00  0.00000000E+00
  0.00000000E+00  0.00000000E+00  0.00000000E+00
  0.00000000E+00  0.00000000E+00  0.00000000E+00
  0.00000000E+00  0.00000000E+00  0.00000000E+00
  0.00000000E+00  0.00000000E+00  0.00000000E+00
  0.00000000E+00  0.00000000E+00  0.00000000E+00
  0.00000000E+00  0.00000000E+00  0.00000000E+00
  0.00000000E+00  0.00000000E+00  0.00000000E+00
  0.00000000E+00  0.00000000E+00  0.00000000E+00
  0.00000000E+00  0.00000000E+00  0.00000000E+00
  0.00000000E+00  0.00000000E+00  0.00000000E+00
  0.00000000E+00  0.00000000E+00  0.00000000E+00
  0.00000000E+00  0.00000000E+00  0.00000000E+00
  0.00000000E+00  0.00000000E+00  0.00000000E+00
  0.00000000E+00  0.00000000E+00  0.00000000E+00
  0.00000000E+00  0.00000000E+00  0.00000000E+00
  0.00000000E+00  0.00000000E+00  0.00000000E+00
  0.00000000E+00  0.00000000E+00  0.00000000E+00
  0.00000000E+00  0.00000000E+00  0.00000000E+00
  0.00000000E+00  0.00000000E+00  0.00000000E+00
  0.00000000E+00  0.00000000E+00  0.00000000E+00
  0.00000000E+00  0.00000000E+00  0.00000000E+00
  0.00000000E+00  0.00000000E+00  0.00000000E+00
  0.00000000E+00  0.00000000E+00  0.00000000E+00
  0.00000000E+00  0.00000000E+00  0.00000000E+00
  0.00000000E+00  0.00000000E+00  0.00000000E+00
  0.00000000E+00  0.00000000E+00  0.00000000E+00
  0.00000000E+00  0.00000000E+00  0.00000000E+00
  0.00000000E+00  0.00000000E+00  0.00000000E+00
  0.00000000E+00  0.00000000E+00  0.00000000E+00
  0.00000000E+00  0.00000000E+00  0.00000000E+00
  0.00000000E+00  0.00000000E+00  0.00000000E+00
  0.00000000E+00  0.00000000E+00  0.00000000E+00
  0.00000000E+00  0.00000000E+00  0.00000000E+00
  0.00000000E+00  0.00000000E+00  0.00000000E+00
  0.00000000E+00  0.00000000E+00  0.00000000E+00
  0.00000000E+00  0.00000000E+00  0.00000000E+00
  0.00000000E+00  0.00000000E+00  0.00000000E+00
  0.00000000E+00  0.00000000E+00  0.00000000E+00
  0.00000000E+00  0.00000000E+00  0.00000000E+00
  0.00000000E+00  0.00000000E+00  0.00000000E+00
  0.00000000E+00  0.00000000E+00  0.00000000E+00
  0.00000000E+00  0.00000000E+00  0.00000000E+00
  0.00000000E+00  0.00000000E+00  0.00000000E+00
  0.00000000E+00  0.00000000E+00  0.00000000E+00
  0.00000000E+00  0.00000000E+00  0.00000000E+00
  0.00000000E+00  0.00000000E+00  0.00000000E+00
  0.00000000E+00  0.00000000E+00  0.00000000E+00
  0.00000000E+00  0.00000000E+00  0.00000000E+00
  0.00000000E+00  0.00000000E+00  0.00000000E+00
  0.00000000E+00  0.00000000E+00  0.00000000E+00
  0.00000000E+00  0.00000000E+00  0.00000000E+00
  0.00000000E+00  0.00000000E+00  0.00000000E+00
  0.00000000E+00  0.00000000E+00  0.00000000E+00
  0.00000000E+00  0.00000000E+00  0.00000000E+00
  0.00000000E+00  0.00000000E+00  0.00000000E+00
  0.00000000E+00  0.00000000E+00  0.00000000E+00
  0.00000000E+00  0.00000000E+00  0.00000000E+00
  0.00000000E+00  0.00000000E+00  0.00000000E+00
  0.00000000E+00  0.00000000E+00  0.00000000E+00
  0.00000000E+00  0.00000000E+00  0.00000000E+00
  0.00000000E+00  0.00000000E+00  0.00000000E+00
  0.00000000E+00  0.00000000E+00  0.00000000E+00
  0.00000000E+00  0.00000000E+00  0.00000000E+00
  0.00000000E+00  0.00000000E+00  0.00000000E+00
  0.00000000E+00  0.00000000E+00  0.00000000E+00
  0.00000000E+00  0.00000000E+00  0.00000000E+00
  0.00000000E+00  0.00000000E+00  0.00000000E+00
  0.00000000E+00  0.00000000E+00  0.00000000E+00
  0.00000000E+00  0.00000000E+00  0.00000000E+00
  0.00000000E+00  0.00000000E+00  0.00000000E+00
  0.00000000E+00  0.00000000E+00  0.00000000E+00
  0.00000000E+00  0.00000000E+00  0.00000000E+00
  0.00000000E+00  0.00000000E+00  0.00000000E+00
  0.00000000E+00  0.00000000E+00  0.00000000E+00
  0.00000000E+00  0.00000000E+00  0.00000000E+00
  0.00000000E+00  0.00000000E+00  0.00000000E+00
  0.00000000E+00  0.00000000E+00  0.00000000E+00
  0.00000000E+00  0.00000000E+00  0.00000000E+00
  0.00000000E+00  0.00000000E+00  0.00000000E+00
  0.00000000E+00  0.00000000E+00  0.00000000E+00
  0.00000000E+00  0.00000000E+00  0.00000000E+00
  0.00000000E+00  0.00000000E+00  0.00000000E+00
  0.00000000E+00  0.00000000E+00  0.00000000E+00
  0.00000000E+00  0.00000000E+00  0.00000000E+00
  0.00000000E+00  0.00000000E+00  0.00000000E+00
  0.00000000E+00  0.00000000E+00  0.00000000E+00
  0.00000000E+00  0.00000000E+00  0.00000000E+00
  0.00000000E+00  0.00000000E+00  0.00000000E+00
  0.00000000E+00  0.00000000E+00  0.00000000E+00
  0.00000000E+00  0.00000000E+00  0.00000000E+00
  0.00000000E+00  0.00000000E+00  0.00000000E+00
  0.00000000E+00  0.00000000E+00  0.00000000E+00
  0.00000000E+00  0.00000000E+00  0.00000000E+00
  0.00000000E+00  0.00000000E+00  0.00000000E+00
  0.00000000E+00  0.00000000E+00  0.00000000E+00
  0.00000000E+00  0.00000000E+00  0.00000000E+00
  0.00000000E+00  0.00000000E+00  0.00000000E+00
  0.00000000E+00  0.00000000E+00  0.00000000E+00