 N B 
 1.0
 14.936314146199660   0.000000000000000   0.000000000000000
 -7.468157073099825  12.935227489513863   0.000000000000000
  0.000000000000001   0.000000000000001  13.341276283792837
 N B 
 143 145
Cartesian
  1.244638602698951   0.718558587756451   1.667570969693169 
  4.978771382066595   7.186607337591860   1.668352823067750 
  6.223468779874673   0.718626935183514   1.668010760755284 
  9.957542281324496   7.186231958891262   1.668010760755284 
 11.202238993557421   0.718625703117467   1.667519240258577 
 -3.734085758153694   9.342104573031746   8.338176003231391 
  1.244697880616716   9.342111091943744   8.337946452089344 
  2.489273881487916   2.874334378018692   8.338216417472719 
  6.223547423508684   9.342285882158864   8.338216417472719 
  7.468268882645257   2.874334378018692   8.338216417472719 
 12.446928455166363   2.874491090269724   8.338437972586050 
 -1.244685623912787   9.342104573031746   1.667781209613331 
 -0.000066072727465   2.874456850562652   1.667528939902715 
  4.978771382066594   2.874554272261914   1.669150860080649 
  3.733995340624509   9.342285882158864   1.667740795371908 
  8.712844883516357   9.342111091943744   1.668010760755284 
  9.957608836860743   2.874456850562652   1.667528939902715 
 -4.978768803439551  11.497978501907999   8.338107337638188 
 -0.000002578626926  11.497978501907999   8.338107337638188 
  1.244497840045830   5.030349725840861   8.338216417472719 
  6.223784521378223   5.030181324213279   8.337604389776878 
  4.978771382066636  11.498056284893019   8.338428272942020 
 11.202319162712396   5.030351851094393   8.338386243151460 
 -1.244776398579207   5.030351851094392   1.667570969693169 
 -2.489385691033248  11.497988329468789   1.667781209613331 
  2.489356380788438  11.498059547167573   1.667570969693169 
  3.733758242754952   5.030181324213278   1.668352823067750 
  7.468186383344756  11.498059547167573   1.667570969693169 
  8.713044924087345   5.030349725840860   1.667740795371908 
  0.000000482808576   7.186231958891263   8.337946452089344 
  1.244638602698951   0.718558587756452   8.338386243151460 
  4.978771382066596   7.186607337591861   8.337604389776878 
  6.223468779874674   0.718626935183515   8.337946452089344 
  9.957542281324496   7.186231958891263   8.337946452089344 
 -2.489385691033242   7.186240471716293   1.667849875206426 
 11.202238993557421   0.718625703117467   8.338437972586050 
  3.734073984258394   0.718626935183514   1.668010760755284 
  2.489437024335955   7.186207856878251   1.669150860080649 
  7.468105739797237   7.186207856878251   1.669150860080649 
  8.712904161434237   0.718558587756451   1.667570969693169 
  2.489437024335956   7.186207856878251   8.336806352763977 
 13.691617916775307   0.718625703117467   1.667519240258577 
 -1.244685623912786   9.342104573031746   8.338176003231391 
 -0.000066072727464   2.874456850562653   8.338428272942020 
  4.978771382066595   2.874554272261915   8.336806352763977 
  3.733995340624510   9.342285882158864   8.338216417472719 
  8.712844883516357   9.342111091943744   8.337946452089344 
  9.957608836860743   2.874456850562653   8.338428272942020 
 -3.734085758153695   9.342104573031746   1.667781209613331 
  1.244697880616716   9.342111091943744   1.668010760755284 
  2.489273881487915   2.874334378018691   1.667740795371908 
  6.223547423508683   9.342285882158864   1.667740795371908 
  7.468268882645257   2.874334378018691   1.667740795371908 
 12.446928455166363   2.874491090269723   1.667519240258577 
 -1.244776398579206   5.030351851094393   8.338386243151460 
 -2.489385691033247  11.497988329468789   8.338176003231391 
  2.489356380788438  11.498059547167573   8.338386243151460 
  3.733758242754953   5.030181324213279   8.337604389776878 
  7.468186383344757  11.498059547167573   8.338386243151460 
 -4.978768803439552  11.497978501907999   1.667849875206426 
  8.713044924087345   5.030349725840861   8.338216417472719 
 -0.000002578626926  11.497978501907999   1.667849875206426 
  1.244497840045829   5.030349725840860   1.667740795371908 
  0.000000482808575   7.186231958891262   1.668010760755284 
  6.223784521378223   5.030181324213278   1.668352823067750 
  4.978771382066635  11.498056284893019   1.667528939902715 
 11.202319162712396   5.030351851094392   1.667570969693169 
 -2.489385691033241   7.186240471716294   8.338107337638188 
  3.734073984258395   0.718626935183515   8.337946452089344 
  7.468105739797238   7.186207856878251   8.336806352763977 
  8.712904161434237   0.718558587756452   8.338386243151460 
 13.691617916775307   0.718625703117467   8.338437972586050 
 -0.006532095561053   1.431626843728588   5.002978606422314 
  3.709937851958499   7.973601817841307   5.002978606422314 
  4.978771382066429   1.430810541519958   5.002978606422314 
  8.718424487174202   7.908079722249373   5.002978606422314 
  9.964074859694016   1.431626843728588   5.002978606422314 
 -4.978786928268282  10.060736623751147  11.673616748318732 
  0.000015546201713  10.060736623751147  11.673616748318732 
  1.244711188529472   3.593129337430596  11.673616748318732 
  4.978771382066545  10.060711311157320  11.673616748318732 
  6.223446570018125   3.593123505342545  11.673616748318732 
 11.202239159749254   3.593138103364074  11.673616748318732 
 -2.489385691033300  10.060732491844131   5.002978606422314 
 -1.252826523405190   3.590272113944633   5.002978606422314 
  3.686617795274810   3.537842013841552   5.002978606422314 
  2.473331282766983  10.087235589537851   5.002978606422314 
  7.484211481365988  10.087235589537851   5.002978606422314 
  8.736945863875668   3.579206946605408   5.002978606422314 
 -6.223455105363484  12.216598473380428  11.673616748318732 
 -1.244681494079338  12.216615137548548  11.673616748318732 
 -0.000014413284870   5.748999812107825  11.673616748318732 
  4.978771382066590   5.748989995339477  11.673616748318732 
  3.734059998472586  12.216597136434471  11.673616748318732 
  9.957557177417939   5.748999812107825  11.673616748318732 
 -2.489385691033241   5.751497220082735   5.002978606422314 
 -3.732890708415370  12.212287562064301   5.002978606422314 
  1.242521525196018  12.215350127724779   5.002978606422314 
  2.417784265166772   5.735526154335663   5.002978606422314 
  6.225065809910623  12.225071028345390   5.002978606422314 
  7.539758498966300   5.735526154335663   5.002978606422314 
 -1.244688650752232   7.904845714232680  11.673616748318732 
  0.000014987977611   1.437234746220070  11.673616748318732 
  3.734073828537331   7.904843572564333  11.673616748318732 
  4.978771382066490   1.437276357690922  11.673616748318732 
  8.712824926113978   7.904846814163839  11.673616748318732 
 -3.730934530794124   7.908048021947746   5.002978606422314 
  9.957527776155352   1.437234746220070  11.673616748318732 
  2.474460539284616   1.410092424586790   5.002978606422314 
  1.239118276958661   7.908079722249373   5.002978606422314 
  6.247604912174575   7.973601817841307   5.002978606422314 
  7.483082224848363   1.410092424586790   5.002978606422314 
  1.244717838019005   7.904846814163839  11.673616748318732 
 12.446928455166319   1.437247498834912   5.002978606422314 
 -2.489385691033299  10.060732491844133  11.673616748318732 
 -1.244696395616289   3.593138103364074  11.673616748318732 
  3.734096194114842   3.593123505342545  11.673616748318732 
  2.489369982820090  10.060740065730805  11.673616748318732 
  7.468172781312987  10.060740065730805  11.673616748318732 
  8.712831575603612   3.593129337430596  11.673616748318732 
 -4.974439548176202  10.061861891520337   5.002978606422314 
 -0.004331833890383  10.061861891520337   5.002978606422314 
  1.220596900257297   3.579206946605408   5.002978606422314 
  4.978771382066493  10.088556092807782   5.002978606422314 
  6.270924968858262   3.537842013841552   5.002978606422314 
 11.210369287538155   3.590272113944633   5.002978606422314 
 -2.489385691033293   5.749000528771531  11.673616748318732 
 -3.734089887987229  12.216615137548548  11.673616748318732 
  1.244683723296902  12.216598473380428  11.673616748318732 
  2.489398640585689   5.749002908111735  11.673616748318732 
  6.223482765660388  12.216597136434471  11.673616748318732 
 -6.221292907262496  12.215350127724779   5.002978606422314 
  7.468144123547295   5.749002908111735  11.673616748318732 
 -1.245880673651212  12.212287562064301   5.002978606422314 
 -0.030979560014886   5.749641971893970   5.002978606422314 
 -1.247836851272463   7.908048021947746   5.002978606422314 
  3.732476954222348  12.225071028345390   5.002978606422314 
  9.988522324147869   5.749641971893970   5.002978606422314 
 -3.734082731314337   7.904845714232680  11.673616748318732 
  2.489386985961578   1.437230108179893  11.673616748318732 
  6.223468935595654   7.904843572564333  11.673616748318732 
  7.468155778171492   1.437230108179893  11.673616748318732 
 12.446928455166319   1.437247498834912  11.673616748318732 
  1.233983665489934   0.707313985803723   5.002978606422314 
  4.978771382066529   7.337276340555714   5.002978606422314 
  6.226804530094708   0.710773003803332   5.002978606422314 
  9.966011860529331   7.187270080150125   5.002978606422314 
 11.205502173631416   0.720509701011595   5.002978606422314 
 -3.734105587132949   9.342093124765237  11.673616748318732 
  1.244737998080305   9.342087575168234  11.673616748318732 
  2.489432742398941   2.874535187467851  11.673616748318732 
  6.223452947879891   9.342047899849696  11.673616748318732 
  7.468110021734249   2.874535187467851  11.673616748318732 
 12.446928455166363   2.874503747927954  11.673616748318732 
 -1.246939873074844   9.343406064392289   5.002978606422314 
 -0.016328386307804   2.865067799439406   5.002978606422314 
  4.978771382066586   2.866171567360103   5.002978606422314 
  3.717316778014166   9.394502892456282   5.002978606422314 
  8.717978712501168   9.348926902065053   5.002978606422314 
  9.973871150441084   2.865067799439406   5.002978606422314 
 -4.978797844423341  11.497995268727809  11.673616748318732 
  0.000026462356879  11.497995268727809  11.673616748318732 
  1.244751176585642   5.030386898700884  11.673616748318732 
  6.223505777524331   5.030342257052358  11.673616748318732 
  4.978771382066538  11.497951383978132  11.673616748318732 
 11.202222668329245   5.030359866850595  11.673616748318732 
 -1.259841978130230   5.026746705772033   5.002978606422314 
 -2.489385691033239  11.495385346747716   5.002978606422314 
  2.484945738446424  11.512909294442675   5.002978606422314 
  3.603275058625365   4.954846822731411   5.002978606422314 
  7.472597025686756  11.512909294442675   5.002978606422314 
  8.766605462819635   5.018685279611320   5.002978606422314 
  0.000040907665379   7.186208974536416  11.673616748318732 
  1.244693791739029   0.718638146465482  11.673616748318732 
  4.978771382066597   7.186285471913701  11.673616748318732 
  6.223468472481460   0.718673436313874  11.673616748318732 
  9.957501856467694   7.186208974536416  11.673616748318732 
 -2.489385691033182   7.187856445426489   5.002978606422314 
 11.202228031703839   0.718619374288353  11.673616748318732 
  3.730738234038375   0.710773003803332   5.002978606422314 
  2.482177388938548   7.190399209329163   5.002978606422314 
  7.475365375194631   7.190399209329163   5.002978606422314 
  8.723559098643237   0.707313985803723   5.002978606422314 
  2.489467741483577   7.186190122324803  11.673616748318732 
 13.688354736701324   0.720509701011595   5.002978606422314 
 -1.244665794933515   9.342093124765237  11.673616748318732 
  0.000024774129656   2.874509301020197  11.673616748318732 
  4.978771382066587   2.874589741368824  11.673616748318732 
  3.734089816253291   9.342047899849696  11.673616748318732 
  8.712804766052770   9.342087575168234  11.673616748318732 
  9.957517990003414   2.874509301020197  11.673616748318732 
 -3.731831508991635   9.343406064392289   5.002978606422314 
  1.239564051631924   9.348926902065053   5.002978606422314 
  2.452391905365806   2.833781813950918   5.002978606422314 
  6.240225986118908   9.394502892456282   5.002978606422314 
  7.505150858767264   2.833781813950918   5.002978606422314 
 12.446928455166372   2.870723094481453   5.002978606422314 
 -1.244679904196055   5.030359866850595  11.673616748318732 
 -2.489385691033231  11.498011226001813  11.673616748318732 
  2.489397686131514  11.497971972702342  11.673616748318732 
  3.734036986608860   5.030342257052358  11.673616748318732 
  7.468145078001684  11.497971972702342  11.673616748318732 
 -4.977369329154587  11.497170515052851   5.002978606422314 
  8.712791587547549   5.030386898700884  11.673616748318732 
 -0.001402052911772  11.497170515052851   5.002978606422314 
  1.190937301313435   5.018685279611320   5.002978606422314 
 -0.008469096396245   7.187270080150125   5.002978606422314 
  6.354267705507691   4.954846822731411   5.002978606422314 
  4.978771382066643  11.516834387139527   5.002978606422314 
 11.217384742263405   5.026746705772033   5.002978606422314 
 -2.489385691033233   7.186206938076664  11.673616748318732 
  3.734074291651610   0.718673436313874  11.673616748318732 
  7.468075022649603   7.186190122324803  11.673616748318732 
  8.712848972394159   0.718638146465482  11.673616748318732 
 13.691628878628887   0.718619374288353  11.673616748318732 
 -0.000063540070244   1.437234835544929   1.667558912375351 
  3.734098576511617   7.904921468669961   1.668710026358623 
  4.978771382066489   1.437356705693122   1.667964392565625 
  8.712755342702927   7.904806640162739   1.667964392565625 
  9.957606304203313   1.437234835544929   1.667558912375351 
 -4.978822623792326  10.060738579230538   8.338337596065140 
  0.000051241725758  10.060738579230538   8.338337596065140 
  1.244677170275359   3.593109696982375   8.338361855023502 
  4.978771382066592  10.060750592053681   8.338361855023502 
  6.223526404011658   3.593105989664050   8.337247186486005 
 11.202278346415637   3.593070051417202   8.338398300469290 
 -2.489385691033300  10.060732491844131   1.667535317450761 
 -1.244735582282567   3.593070051417201   1.667558912375351 
  3.734016360121426   3.593105989664049   1.668710026358623 
  2.489501790998171  10.060790983644621   1.667604586252052 
  7.468040973134890  10.060790983644621   1.667604586252052 
  8.712865593857817   3.593109696982374   1.667595357821126 
 -6.223542222170586  12.216648770292458   8.338413498357486 
 -1.244661952822484  12.216645073039473   8.338337596065140 
  0.000007394597312   5.748860203920271   8.338352626592576 
  4.978771382066590   5.748989995339477   8.335567531727481 
  3.734099339854217  12.216665099056389   8.338398300469290 
  9.957535369535760   5.748860203920271   8.338352626592576 
 -2.489385691033242   5.748899934947377   1.667543714487143 
 -3.734109429244084  12.216645073039473   1.667619616779487 
  1.244770840104107  12.216648770292458   1.667543714487143 
  2.489343554566500   5.748942527684496   1.668710026358623 
  6.223443424278862  12.216665099056389   1.667558912375351 
  7.468199209566587   5.748942527684496   1.668710026358623 
 -1.244672496485050   7.904813823262372   8.338337596065140 
 -0.000063540070244   1.437234835544930   8.338398300469290 
  3.734098576511617   7.904921468669962   8.337247186486005 
  4.978771382066490   1.437356705693122   8.337992820279002 
  8.712755342702927   7.904806640162739   8.337992820279002 
 -3.734098885581536   7.904813823262371   1.667619616779487 
  9.957606304203313   1.437234835544930   8.338398300469290 
  2.489276985665617   1.437318798453732   1.667604586252052 
  1.244787421430054   7.904806640162739   1.667964392565625 
  6.223444187621473   7.904921468669961   1.668710026358623 
  7.468265778467346   1.437318798453732   1.667604586252052 
  1.244787421430054   7.904806640162739   8.337992820279002 
 12.446928455166319   1.437247498834911   1.667588354082280 
 -2.489385691033300  10.060732491844131   8.338421895393880 
 -1.244735582282567   3.593070051417202   8.338398300469290 
  3.734016360121427   3.593105989664050   8.337247186486005 
  2.489501790998171  10.060790983644621   8.338352626592576 
  7.468040973134891  10.060790983644621   8.338352626592576 
  8.712865593857817   3.593109696982375   8.338361855023502 
 -4.978822623792327  10.060738579230538   1.667619616779487 
  0.000051241725758  10.060738579230538   1.667619616779487 
  1.244677170275359   3.593109696982374   1.667595357821126 
  4.978771382066591  10.060750592053681   1.667595357821126 
  6.223526404011658   3.593105989664049   1.668710026358623 
 11.202278346415637   3.593070051417201   1.667558912375351 
 -2.489385691033241   5.748899934947378   8.338413498357486 
 -3.734109429244083  12.216645073039473   8.338337596065140 
  1.244770840104108  12.216648770292458   8.338413498357486 
  2.489343554566500   5.748942527684497   8.337247186486005 
  6.223443424278863  12.216665099056389   8.338398300469290 
 -6.223542222170587  12.216648770292458   1.667543714487143 
  7.468199209566587   5.748942527684497   8.337247186486005 
 -1.244661952822485  12.216645073039473   1.667619616779487 
  0.000007394597311   5.748860203920270   1.667604586252052 
 -1.244672496485050   7.904813823262371   1.667619616779487 
  4.978771382066589   5.748989995339476   1.670389681117146 
  3.734099339854216  12.216665099056389   1.667558912375351 
  9.957535369535760   5.748860203920270   1.667604586252052 
 -3.734098885581536   7.904813823262372   8.338337596065140 
  2.489276985665617   1.437318798453733   8.338352626592576 
  6.223444187621474   7.904921468669962   8.337247186486005 
  7.468265778467347   1.437318798453733   8.338352626592576 
 12.446928455166319   1.437247498834912   8.338368858762347 
  4.978771382066589   5.748989995339477   5.002978606422314 
Generated by cif2cell 2.0.0.  :  Failed to get author information, No journal information. Species order: N B 
 1.0
 14.936314146199660   0.000000000000000   0.000000000000000
 -7.468157073099825  12.935227489513863   0.000000000000000
  0.000000000000001   0.000000000000001  13.341276283792837
 N B 
 143 145
Cartesian
  1.244638602698951   0.718558587756451   1.667570969693169 
  4.978771382066595   7.186607337591860   1.668352823067750 
  6.223468779874673   0.718626935183514   1.668010760755284 
  9.957542281324496   7.186231958891262   1.668010760755284 
 11.202238993557421   0.718625703117467   1.667519240258577 
 -3.734085758153694   9.342104573031746   8.338176003231391 
  1.244697880616716   9.342111091943744   8.337946452089344 
  2.489273881487916   2.874334378018692   8.338216417472719 
  6.223547423508684   9.342285882158864   8.338216417472719 
  7.468268882645257   2.874334378018692   8.338216417472719 
 12.446928455166363   2.874491090269724   8.338437972586050 
 -1.244685623912787   9.342104573031746   1.667781209613331 
 -0.000066072727465   2.874456850562652   1.667528939902715 
  4.978771382066594   2.874554272261914   1.669150860080649 
  3.733995340624509   9.342285882158864   1.667740795371908 
  8.712844883516357   9.342111091943744   1.668010760755284 
  9.957608836860743   2.874456850562652   1.667528939902715 
 -4.978768803439551  11.497978501907999   8.338107337638188 
 -0.000002578626926  11.497978501907999   8.338107337638188 
  1.244497840045830   5.030349725840861   8.338216417472719 
  6.223784521378223   5.030181324213279   8.337604389776878 
  4.978771382066636  11.498056284893019   8.338428272942020 
 11.202319162712396   5.030351851094393   8.338386243151460 
 -1.244776398579207   5.030351851094392   1.667570969693169 
 -2.489385691033248  11.497988329468789   1.667781209613331 
  2.489356380788438  11.498059547167573   1.667570969693169 
  3.733758242754952   5.030181324213278   1.668352823067750 
  7.468186383344756  11.498059547167573   1.667570969693169 
  8.713044924087345   5.030349725840860   1.667740795371908 
  0.000000482808576   7.186231958891263   8.337946452089344 
  1.244638602698951   0.718558587756452   8.338386243151460 
  4.978771382066596   7.186607337591861   8.337604389776878 
  6.223468779874674   0.718626935183515   8.337946452089344 
  9.957542281324496   7.186231958891263   8.337946452089344 
 -2.489385691033242   7.186240471716293   1.667849875206426 
 11.202238993557421   0.718625703117467   8.338437972586050 
  3.734073984258394   0.718626935183514   1.668010760755284 
  2.489437024335955   7.186207856878251   1.669150860080649 
  7.468105739797237   7.186207856878251   1.669150860080649 
  8.712904161434237   0.718558587756451   1.667570969693169 
  2.489437024335956   7.186207856878251   8.336806352763977 
 13.691617916775307   0.718625703117467   1.667519240258577 
 -1.244685623912786   9.342104573031746   8.338176003231391 
 -0.000066072727464   2.874456850562653   8.338428272942020 
  4.978771382066595   2.874554272261915   8.336806352763977 
  3.733995340624510   9.342285882158864   8.338216417472719 
  8.712844883516357   9.342111091943744   8.337946452089344 
  9.957608836860743   2.874456850562653   8.338428272942020 
 -3.734085758153695   9.342104573031746   1.667781209613331 
  1.244697880616716   9.342111091943744   1.668010760755284 
  2.489273881487915   2.874334378018691   1.667740795371908 
  6.223547423508683   9.342285882158864   1.667740795371908 
  7.468268882645257   2.874334378018691   1.667740795371908 
 12.446928455166363   2.874491090269723   1.667519240258577 
 -1.244776398579206   5.030351851094393   8.338386243151460 
 -2.489385691033247  11.497988329468789   8.338176003231391 
  2.489356380788438  11.498059547167573   8.338386243151460 
  3.733758242754953   5.030181324213279   8.337604389776878 
  7.468186383344757  11.498059547167573   8.338386243151460 
 -4.978768803439552  11.497978501907999   1.667849875206426 
  8.713044924087345   5.030349725840861   8.338216417472719 
 -0.000002578626926  11.497978501907999   1.667849875206426 
  1.244497840045829   5.030349725840860   1.667740795371908 
  0.000000482808575   7.186231958891262   1.668010760755284 
  6.223784521378223   5.030181324213278   1.668352823067750 
  4.978771382066635  11.498056284893019   1.667528939902715 
 11.202319162712396   5.030351851094392   1.667570969693169 
 -2.489385691033241   7.186240471716294   8.338107337638188 
  3.734073984258395   0.718626935183515   8.337946452089344 
  7.468105739797238   7.186207856878251   8.336806352763977 
  8.712904161434237   0.718558587756452   8.338386243151460 
 13.691617916775307   0.718625703117467   8.338437972586050 
 -0.006532095561053   1.431626843728588   5.002978606422314 
  3.709937851958499   7.973601817841307   5.002978606422314 
  4.978771382066429   1.430810541519958   5.002978606422314 
  8.718424487174202   7.908079722249373   5.002978606422314 
  9.964074859694016   1.431626843728588   5.002978606422314 
 -4.978786928268282  10.060736623751147  11.673616748318732 
  0.000015546201713  10.060736623751147  11.673616748318732 
  1.244711188529472   3.593129337430596  11.673616748318732 
  4.978771382066545  10.060711311157320  11.673616748318732 
  6.223446570018125   3.593123505342545  11.673616748318732 
 11.202239159749254   3.593138103364074  11.673616748318732 
 -2.489385691033300  10.060732491844131   5.002978606422314 
 -1.252826523405190   3.590272113944633   5.002978606422314 
  3.686617795274810   3.537842013841552   5.002978606422314 
  2.473331282766983  10.087235589537851   5.002978606422314 
  7.484211481365988  10.087235589537851   5.002978606422314 
  8.736945863875668   3.579206946605408   5.002978606422314 
 -6.223455105363484  12.216598473380428  11.673616748318732 
 -1.244681494079338  12.216615137548548  11.673616748318732 
 -0.000014413284870   5.748999812107825  11.673616748318732 
  4.978771382066590   5.748989995339477  11.673616748318732 
  3.734059998472586  12.216597136434471  11.673616748318732 
  9.957557177417939   5.748999812107825  11.673616748318732 
 -2.489385691033241   5.751497220082735   5.002978606422314 
 -3.732890708415370  12.212287562064301   5.002978606422314 
  1.242521525196018  12.215350127724779   5.002978606422314 
  2.417784265166772   5.735526154335663   5.002978606422314 
  6.225065809910623  12.225071028345390   5.002978606422314 
  7.539758498966300   5.735526154335663   5.002978606422314 
 -1.244688650752232   7.904845714232680  11.673616748318732 
  0.000014987977611   1.437234746220070  11.673616748318732 
  3.734073828537331   7.904843572564333  11.673616748318732 
  4.978771382066490   1.437276357690922  11.673616748318732 
  8.712824926113978   7.904846814163839  11.673616748318732 
 -3.730934530794124   7.908048021947746   5.002978606422314 
  9.957527776155352   1.437234746220070  11.673616748318732 
  2.474460539284616   1.410092424586790   5.002978606422314 
  1.239118276958661   7.908079722249373   5.002978606422314 
  6.247604912174575   7.973601817841307   5.002978606422314 
  7.483082224848363   1.410092424586790   5.002978606422314 
  1.244717838019005   7.904846814163839  11.673616748318732 
 12.446928455166319   1.437247498834912   5.002978606422314 
 -2.489385691033299  10.060732491844133  11.673616748318732 
 -1.244696395616289   3.593138103364074  11.673616748318732 
  3.734096194114842   3.593123505342545  11.673616748318732 
  2.489369982820090  10.060740065730805  11.673616748318732 
  7.468172781312987  10.060740065730805  11.673616748318732 
  8.712831575603612   3.593129337430596  11.673616748318732 
 -4.974439548176202  10.061861891520337   5.002978606422314 
 -0.004331833890383  10.061861891520337   5.002978606422314 
  1.220596900257297   3.579206946605408   5.002978606422314 
  4.978771382066493  10.088556092807782   5.002978606422314 
  6.270924968858262   3.537842013841552   5.002978606422314 
 11.210369287538155   3.590272113944633   5.002978606422314 
 -2.489385691033293   5.749000528771531  11.673616748318732 
 -3.734089887987229  12.216615137548548  11.673616748318732 
  1.244683723296902  12.216598473380428  11.673616748318732 
  2.489398640585689   5.749002908111735  11.673616748318732 
  6.223482765660388  12.216597136434471  11.673616748318732 
 -6.221292907262496  12.215350127724779   5.002978606422314 
  7.468144123547295   5.749002908111735  11.673616748318732 
 -1.245880673651212  12.212287562064301   5.002978606422314 
 -0.030979560014886   5.749641971893970   5.002978606422314 
 -1.247836851272463   7.908048021947746   5.002978606422314 
  3.732476954222348  12.225071028345390   5.002978606422314 
  9.988522324147869   5.749641971893970   5.002978606422314 
 -3.734082731314337   7.904845714232680  11.673616748318732 
  2.489386985961578   1.437230108179893  11.673616748318732 
  6.223468935595654   7.904843572564333  11.673616748318732 
  7.468155778171492   1.437230108179893  11.673616748318732 
 12.446928455166319   1.437247498834912  11.673616748318732 
  1.233983665489934   0.707313985803723   5.002978606422314 
  4.978771382066529   7.337276340555714   5.002978606422314 
  6.226804530094708   0.710773003803332   5.002978606422314 
  9.966011860529331   7.187270080150125   5.002978606422314 
 11.205502173631416   0.720509701011595   5.002978606422314 
 -3.734105587132949   9.342093124765237  11.673616748318732 
  1.244737998080305   9.342087575168234  11.673616748318732 
  2.489432742398941   2.874535187467851  11.673616748318732 
  6.223452947879891   9.342047899849696  11.673616748318732 
  7.468110021734249   2.874535187467851  11.673616748318732 
 12.446928455166363   2.874503747927954  11.673616748318732 
 -1.246939873074844   9.343406064392289   5.002978606422314 
 -0.016328386307804   2.865067799439406   5.002978606422314 
  4.978771382066586   2.866171567360103   5.002978606422314 
  3.717316778014166   9.394502892456282   5.002978606422314 
  8.717978712501168   9.348926902065053   5.002978606422314 
  9.973871150441084   2.865067799439406   5.002978606422314 
 -4.978797844423341  11.497995268727809  11.673616748318732 
  0.000026462356879  11.497995268727809  11.673616748318732 
  1.244751176585642   5.030386898700884  11.673616748318732 
  6.223505777524331   5.030342257052358  11.673616748318732 
  4.978771382066538  11.497951383978132  11.673616748318732 
 11.202222668329245   5.030359866850595  11.673616748318732 
 -1.259841978130230   5.026746705772033   5.002978606422314 
 -2.489385691033239  11.495385346747716   5.002978606422314 
  2.484945738446424  11.512909294442675   5.002978606422314 
  3.603275058625365   4.954846822731411   5.002978606422314 
  7.472597025686756  11.512909294442675   5.002978606422314 
  8.766605462819635   5.018685279611320   5.002978606422314 
  0.000040907665379   7.186208974536416  11.673616748318732 
  1.244693791739029   0.718638146465482  11.673616748318732 
  4.978771382066597   7.186285471913701  11.673616748318732 
  6.223468472481460   0.718673436313874  11.673616748318732 
  9.957501856467694   7.186208974536416  11.673616748318732 
 -2.489385691033182   7.187856445426489   5.002978606422314 
 11.202228031703839   0.718619374288353  11.673616748318732 
  3.730738234038375   0.710773003803332   5.002978606422314 
  2.482177388938548   7.190399209329163   5.002978606422314 
  7.475365375194631   7.190399209329163   5.002978606422314 
  8.723559098643237   0.707313985803723   5.002978606422314 
  2.489467741483577   7.186190122324803  11.673616748318732 
 13.688354736701324   0.720509701011595   5.002978606422314 
 -1.244665794933515   9.342093124765237  11.673616748318732 
  0.000024774129656   2.874509301020197  11.673616748318732 
  4.978771382066587   2.874589741368824  11.673616748318732 
  3.734089816253291   9.342047899849696  11.673616748318732 
  8.712804766052770   9.342087575168234  11.673616748318732 
  9.957517990003414   2.874509301020197  11.673616748318732 
 -3.731831508991635   9.343406064392289   5.002978606422314 
  1.239564051631924   9.348926902065053   5.002978606422314 
  2.452391905365806   2.833781813950918   5.002978606422314 
  6.240225986118908   9.394502892456282   5.002978606422314 