 B N 
 1.0
 17.527899999999772   0.000000000000000   0.000000000000000
 -8.763949999999658  15.179606674993195   0.000000000000000
  0.000000000000001   0.000000000000002  15.000000000000000
 B N 
  49  47
Cartesian
  7.493645965514306  14.437377906277423   1.668260484413625 
 15.037119807951496   1.453159556211705   1.667733810603135 
 13.792959107246707   3.626339412184708   1.666579809195945 
 12.533010495334034   5.790404113371675   1.667733810603135 
 11.241971513556315   7.945087613759981   1.668260484413625 
  9.954107959077774  10.093546377557127   1.653322317905730 
  8.710334056706651  12.247825969592196   1.653322317905730 
 -7.530809759680993  14.443863183050462   1.666131110945235 
  0.007709387085355   1.450829102573389   1.664341627191855 
 -1.224169465016292   3.631791751068102   1.665492912686115 
 -2.474848314892739   5.798031063005991   1.665492912686115 
 -3.747677947151993   7.955350767573345   1.664341627191855 
 -5.028604934596325  10.109917295059672   1.666131110945235 
 -6.291695193837918  12.269969052536306   1.662242579349345 
 -5.021349481181881  14.449740950120820   1.666456998699270 
  2.510725123649099   1.458674887936837   1.660048902098655 
  1.284293830097781   3.642688279142278   1.656096305576760 
  0.046781905185982   5.809735408073212   1.671784362143700 
 -1.211179997219165   7.964975737013740   1.656096305576760 
 -2.489741870473555  10.119737783328796   1.660048902098655 
 -3.768784499746296  12.280234762492745   1.666456998699270 
 -2.509578725946964  14.453575013369496   1.669222701510240 
  5.006729462965088   1.447827973721187   1.660346939083860 
  3.790577594823426   3.656800310558066   1.635921850550610 
  2.569578079289076   5.831828308187260   1.684962456918990 
  1.327313004979608   7.983494533359660   1.684962456918990 
  0.054183262857548  10.128425130635565   1.635921850550610 
 -1.251364693296966  12.287165010917326   1.660346939083860 
  0.000810447288675  14.459802307506871   1.668971225642205 
  7.514973855581557   1.444889507968227   1.668971225642205 
  6.269924647209617   3.614189037570677   1.660399182694995 
  5.090351229504809   5.860008528290478   1.607777330182050 
  3.859055534127456   8.010752613977305   1.953292022730150 
  2.612104366581095  10.152458008572651   1.607777330182050 
  1.256954344155917  12.296908299293937   1.660399182694995 
  2.506228298081515  14.468202312186136   1.672257253754295 
 10.023334289067538   1.449945508664899   1.666698260753640 
  8.774957398422190   3.610445011510174   1.672257253754295 
  7.525956827786080   5.765810497045390   1.677488241833550 
  6.078451592196152   7.808673365211754   1.640620743259575 
  4.793747800153282  10.033845605706389   1.640620743259590 
  3.748329277677098  12.308853345906318   1.677488241833550 
  5.008953387839943  14.460070839327926   1.675907099688795 
 12.532311723425469   1.454499914263019   1.667057255185455 
 11.281767237193575   3.620506501541850   1.667057255185455 
 10.019277881236032   5.781934254358805   1.675907099688795 
  8.692115422509557   7.927197101021561   1.668210555319995 
  7.384982015193767  10.046447216963607   1.618058600952930 
  6.203224281472711  12.238083011805603   1.668210555319995 
  8.739190562851723  13.706080188398143   1.664334797393850 
 16.280887698582429   0.716518523854718   1.666986502017645 
 15.048160529113302   2.904269194720651   1.666311809344230 
 13.795243666680264   5.074384858114533   1.666311809344230 
 12.516959593298544   7.235833238243086   1.666986502017645 
 11.231436410952252   9.389383754535292   1.664334797393850 
  9.972747060392173  11.540476741738484   1.654136415865065 
 -6.278450557329730  13.720600718950536   1.665309564496500 
  1.255163804824876   0.722328447716280   1.665739933924230 
  0.027940950240347   2.907715071239797   1.660751982688425 
 -1.212628861423152   5.082596942281190   1.667609363293815 
 -2.475846906143422   7.244402849870603   1.660751982688425 
 -3.754835811921923   9.399902329822638   1.665739933924230 
 -5.028774000794780  11.556097430004204   1.665309564496500 
 -3.765940656574993  13.728196793861855   1.667304663280800 
  3.754215535097428   0.722514016571757   1.663568617211730 
  2.533603992768018   2.920043405128519   1.648730411601960 
  1.309104782474956   5.100326666043100   1.667455585681575 
  0.063592351705856   7.257617477593869   1.667455585681575 
 -1.212338734554296   9.408206531094121   1.648730411601960 
 -2.505149239442630  11.564051829182420   1.663568617211730 
 -1.253196514425151  13.733388383077815   1.668470695248525 
  6.258892462637745   0.722068603826314   1.668470695248525 
  5.017993001314322   2.900000966811407   1.646668364309415 
  3.824469926635456   5.132778398017391   1.621549677567690 
  2.620538651958802   7.295677237981067   1.772557151250270 
  1.349378948063914   9.419761726258821   1.621549677567690 
  0.012498508982442  11.569771744536705   1.646668364309415 
  1.254976913495469  13.741406207769293   1.669864954592490 
  8.768146896274903   0.725245408893032   1.668261627307470 
  7.519922816464024   2.890201597156903   1.669864954592490 
  6.278677990223237   5.059868891664398   1.658254836928530 
  2.513886165913122  11.580679611289636   1.658254836928530 
  3.755668074394589  13.747352572863759   1.679052305284620 
 11.276409253606504   0.732337049311404   1.666890924800295 
 10.028419615697594   2.893918509489198   1.666890924800295 
  8.775418100145558   5.052890486967602   1.679052305284620 
  7.427363379292911   7.198996477540898   1.684638379132155 
  6.075973287392344   9.290673354936150   1.593173766396330 
  4.940223021018590  11.506849943627232   1.684638379132155 
  6.238397046312286  13.703237429524526   1.673684213045310 
 13.783507401061463   0.729351459531988   1.669779412605945 
 12.537650807182285   2.901569506556616   1.664763055783110 
 11.279383092839616   5.066621989840644   1.669779412605945 
  9.978577751289887   7.225054419014314   1.673684213045310 
  8.677896520024557   9.367761178504372   1.640772543153675 
  7.443694917249806  11.505461061293255   1.640772543153675 
