B N                                     
   1.0000000000000000     
     8.7639499999999995  -15.1796066749929999    0.0000000000000000
     8.7639499999999995   15.1796066749929999    0.0000000000000000
     0.0000000000000000    0.0000000000000000   15.0000000000000000
   B    N 
    49    47
Selective dynamics
Direct
  0.9030785197368681  0.9511035572523419  0.1112173656275751   T   T   T
  0.9057617780171029  0.0957310414772234  0.1111822540402089   T   T   T
  0.9063622649059287  0.2388954792984674  0.1111053206130627   T   T   T
  0.9057617780171029  0.3814594302308744  0.1111822540402089   T   T   T
  0.9030785197368681  0.5234053677325300  0.1112173656275751   T   T   T
  0.9003713894555738  0.6649412329098875  0.1102214878603822   T   T   T
  0.9003713894555738  0.8068605617936856  0.1102214878603822   T   T   T
  0.0461183905197447  0.9515307934062095  0.1110754073963486   T   T   T
  0.0482285932715403  0.0955775161792219  0.1109561084794573   T   T   T
  0.0497861398172895  0.2392546677148820  0.1110328608457406   T   T   T
  0.0497861398172895  0.3819618773494070  0.1110328608457406   T   T   T
  0.0482285932715403  0.5240814823403127  0.1109561084794573   T   T   T
  0.0461183905197447  0.6660197139175350  0.1110754073963486   T   T   T
  0.0452064846097970  0.8083193007069009  0.1108161719566234   T   T   T
  0.1894814750249876  0.9519180081210695  0.1110971332466184   T   T   T
  0.1912888288305838  0.0960943797272330  0.1106699268065767   T   T   T
  0.1932576571428665  0.2399725076634047  0.1104064203717842   T   T   T
  0.1940354638580478  0.3827329345525227  0.1114522908095803   T   T   T
  0.1932576571428665  0.5247155547274621  0.1104064203717842   T   T   T
  0.1912888288305838  0.6666248543513424  0.1106699268065767   T   T   T
  0.1894814750249876  0.8089955837079189  0.1110971332466184   T   T   T
  0.3329090592012819  0.9521705880021407  0.1112815134340160   T   T   T
  0.3334015366283732  0.0953798082335249  0.1106897959389243   T   T   T
  0.3367107433575522  0.2409021780901785  0.1090614567033737   T   T   T
  0.3386934956776699  0.3841883675282959  0.1123308304612660   T   T   T
  0.3386934956776699  0.5259355333963707  0.1123308304612660   T   T   T
  0.3367107433575522  0.6672389705143726  0.1090614567033737   T   T   T
  0.3334015366283732  0.8094521336418505  0.1106897959389243   T   T   T
  0.4763366519638039  0.9525808288121113  0.1112647483761467   T   T   T
  0.4763366519638039  0.0951862283986932  0.1112647483761467   T   T   T
  0.4767586340036898  0.2380950386234101  0.1106932788463330   T   T   T
  0.4834366199468738  0.3860448201167307  0.1071851553454701   T   T   T
  0.4840320695701539  0.5277312374090810  0.1302194681820098   T   T   T
  0.4834366199468733  0.6688222050771417  0.1071851553454701   T   T   T
  0.4767586340036898  0.8100940006272893  0.1106932788463330   T   T   T
  0.6195521880950944  0.9531342031424949  0.1114838169169531   T   T   T
  0.6196099201162502  0.0955193069036194  0.1111132173835764   T   T   T
  0.6195521880950944  0.2378483901995962  0.1114838169169531   T   T   T
  0.6192897649091806  0.3798392554231300  0.1118325494555699   T   T   T
  0.6039965575804855  0.5144186889951321  0.1093747162173053   T   T   T
  0.6039965575804829  0.6610082738333457  0.1093747162173055   T   T   T
  0.6192897649091806  0.8108809147330454  0.1118325494555699   T   T   T
  0.7620695679132621  0.9525985191137644  0.1117271399792532   T   T   T
  0.7629018673350286  0.0958193413969780  0.1111371503456969   T   T   T
  0.7629018673350286  0.2385112196290466  0.1111371503456969   T   T   T
  0.7620695679132621  0.3809014540464964  0.1117271399792532   T   T   T
  0.7570150903818247  0.5222267790430160  0.1112140370213332   T   T   T
  0.7522464767774256  0.6618384410127087  0.1078705733968618   T   T   T
  0.7570150903818247  0.8062187165868105  0.1112140370213332   T   T   T
  0.9500510414343954  0.9029272287389017  0.1109556531595897   T   T   T
  0.9524569321601283  0.0472027068418779  0.1111324334678434   T   T   T
  0.9541896707811303  0.1913270387634697  0.1110874539562819   T   T   T
  0.9541896707811303  0.3342896141356580  0.1110874539562819   T   T   T
  0.9524569321601283  0.4766812074362484  0.1111324334678434   T   T   T
  0.9500510414343954  0.6185525063704916  0.1109556531595897   T   T   T
  0.9490951234210312  0.7602619085480133  0.1102757610576714   T   T   T
  0.0937443710427078  0.9038838102145154  0.1110206376330996   T   T   T
  0.0954022061146629  0.0475854521913432  0.1110493289282820   T   T   T
  0.0973711071689897  0.1915540457336061  0.1107167988458955   T   T   T
  0.0982325236557245  0.3348306086648630  0.1111739575529209   T   T   T
  0.0973711071689897  0.4772457551093858  0.1107167988458955   T   T   T
  0.0954022061146629  0.6192454475983217  0.1110493289282820   T   T   T
  0.0937443710427078  0.7612909660591967  0.1110206376330996   T   T   T
  0.2373380415137626  0.9043842233723763  0.1111536442187205   T   T   T
  0.2379839682482468  0.0475976770703826  0.1109045744807816   T   T   T
  0.2407300269150529  0.1923662099848067  0.1099153607734641   T   T   T
  0.2426862177482706  0.3359986049207292  0.1111637057121046   T   T   T
  0.2426862177482706  0.4781163065015401  0.1111637057121046   T   T   T
  0.2407300269150529  0.6197925106052424  0.1099153607734641   T   T   T
  0.2379839682482468  0.7618149848528669  0.1109045744807816   T   T   T
  0.3808658747157567  0.9047262341587627  0.1112313796832350   T   T   T
  0.3808658747157567  0.0475683342319955  0.1112313796832350   T   T   T
  0.3818089640032796  0.1910458570437704  0.1097778909539608   T   T   T
  0.3872615040262370  0.3381364555692410  0.1081033118378458   T   T   T
  0.3898185104449334  0.4806236020594614  0.1181704767500183   T   T   T
  0.3872615040262370  0.6205537421319938  0.1081033118378458   T   T   T
  0.3818089640032796  0.7621918006345105  0.1097778909539608   T   T   T
  0.5242260331582737  0.9052544312895017  0.1113243303061663   T   T   T
  0.5241282485824285  0.0477776153507194  0.1112174418204981   T   T   T
  0.5242260331582737  0.1904002955437710  0.1113243303061663   T   T   T
  0.5248771762099231  0.3333954823339991  0.1105503224619021   T   T   T
  0.5248771762099221  0.7629103875509234  0.1105503224619021   T   T   T
  0.6670910823876255  0.9056461650953762  0.1119368203523077   T   T   T
  0.6674629730979824  0.0482447974437874  0.1111260616533534   T   T   T
  0.6674629730979824  0.1906451577731999  0.1111260616533534   T   T   T
  0.6670910823876255  0.3328736109672526  0.1119368203523077   T   T   T
  0.6608724338623746  0.4742544804800825  0.1123092252754771   T   T   T
  0.6526706593384018  0.6120496765072017  0.1062115844264218   T   T   T
  0.6608724338623746  0.7580466470573018  0.1123092252754771   T   T   T
  0.8072823820889856  0.9027399538684469  0.1115789475363538   T   T   T
  0.8103993440489886  0.0480481131789478  0.1113186275070626   T   T   T
  0.8108713960523098  0.1911491890851586  0.1109842037188742   T   T   T
  0.8103993440489886  0.3337782129880458  0.1113186275070626   T   T   T
  0.8072823820889856  0.4759711218945375  0.1115789475363538   T   T   T
  0.8036545141253761  0.6171280573387170  0.1093848362102445   T   T   T
  0.8036545141253761  0.7579551504616581  0.1093848362102445   T   T   T

  0.00000000E+00  0.00000000E+00  0.00000000E+00
  0.00000000E+00  0.00000000E+00  0.00000000E+00
  0.00000000E+00  0.00000000E+00  0.00000000E+00
  0.00000000E+00  0.00000000E+00  0.00000000E+00
  0.00000000E+00  0.00000000E+00  0.00000000E+00
  0.00000000E+00  0.00000000E+00  0.00000000E+00
  0.00000000E+00  0.00000000E+00  0.00000000E+00
  0.00000000E+00  0.00000000E+00  0.00000000E+00
  0.00000000E+00  0.00000000E+00  0.00000000E+00
  0.00000000E+00  0.00000000E+00  0.00000000E+00
  0.00000000E+00  0.00000000E+00  0.00000000E+00
  0.00000000E+00  0.00000000E+00  0.00000000E+00
  0.00000000E+00  0.00000000E+00  0.00000000E+00
  0.00000000E+00  0.00000000E+00  0.00000000E+00
  0.00000000E+00  0.00000000E+00  0.00000000E+00
  0.00000000E+00  0.00000000E+00  0.00000000E+00
  0.00000000E+00  0.00000000E+00  0.00000000E+00
  0.00000000E+00  0.00000000E+00  0.00000000E+00
  0.00000000E+00  0.00000000E+00  0.00000000E+00
  0.00000000E+00  0.00000000E+00  0.00000000E+00
  0.00000000E+00  0.00000000E+00  0.00000000E+00
  0.00000000E+00  0.00000000E+00  0.00000000E+00
  0.00000000E+00  0.00000000E+00  0.00000000E+00
  0.00000000E+00  0.00000000E+00  0.00000000E+00
  0.00000000E+00  0.00000000E+00  0.00000000E+00
  0.00000000E+00  0.00000000E+00  0.00000000E+00
  0.00000000E+00  0.00000000E+00  0.00000000E+00
  0.00000000E+00  0.00000000E+00  0.00000000E+00
  0.00000000E+00  0.00000000E+00  0.00000000E+00
  0.00000000E+00  0.00000000E+00  0.00000000E+00
  0.00000000E+00  0.00000000E+00  0.00000000E+00
  0.00000000E+00  0.00000000E+00  0.00000000E+00
  0.00000000E+00  0.00000000E+00  0.00000000E+00
  0.00000000E+00  0.00000000E+00  0.00000000E+00
  0.00000000E+00  0.00000000E+00  0.00000000E+00
  0.00000000E+00  0.00000000E+00  0.00000000E+00
  0.00000000E+00  0.00000000E+00  0.00000000E+00
  0.00000000E+00  0.00000000E+00  0.00000000E+00
  0.00000000E+00  0.00000000E+00  0.00000000E+00
  0.00000000E+00  0.00000000E+00  0.00000000E+00
  0.00000000E+00  0.00000000E+00  0.00000000E+00
  0.00000000E+00  0.00000000E+00  0.00000000E+00
  0.00000000E+00  0.00000000E+00  0.00000000E+00
  0.00000000E+00  0.00000000E+00  0.00000000E+00
  0.00000000E+00  0.00000000E+00  0.00000000E+00
  0.00000000E+00  0.00000000E+00  0.00000000E+00
  0.00000000E+00  0.00000000E+00  0.00000000E+00
  0.00000000E+00  0.00000000E+00  0.00000000E+00
  0.00000000E+00  0.00000000E+00  0.00000000E+00
  0.00000000E+00  0.00000000E+00  0.00000000E+00
  0.00000000E+00  0.00000000E+00  0.00000000E+00
  0.00000000E+00  0.00000000E+00  0.00000000E+00
  0.00000000E+00  0.00000000E+00  0.00000000E+00
  0.00000000E+00  0.00000000E+00  0.00000000E+00
  0.00000000E+00  0.00000000E+00  0.00000000E+00
  0.00000000E+00  0.00000000E+00  0.00000000E+00
  0.00000000E+00  0.00000000E+00  0.00000000E+00
  0.00000000E+00  0.00000000E+00  0.00000000E+00
  0.00000000E+00  0.00000000E+00  0.00000000E+00
  0.00000000E+00  0.00000000E+00  0.00000000E+00
  0.00000000E+00  0.00000000E+00  0.00000000E+00
  0.00000000E+00  0.00000000E+00  0.00000000E+00
  0.00000000E+00  0.00000000E+00  0.00000000E+00
  0.00000000E+00  0.00000000E+00  0.00000000E+00
  0.00000000E+00  0.00000000E+00  0.00000000E+00
  0.00000000E+00  0.00000000E+00  0.00000000E+00
  0.00000000E+00  0.00000000E+00  0.00000000E+00
  0.00000000E+00  0.00000000E+00  0.00000000E+00
  0.00000000E+00  0.00000000E+00  0.00000000E+00
  0.00000000E+00  0.00000000E+00  0.00000000E+00
  0.00000000E+00  0.00000000E+00  0.00000000E+00
  0.00000000E+00  0.00000000E+00  0.00000000E+00
  0.00000000E+00  0.00000000E+00  0.00000000E+00
  0.00000000E+00  0.00000000E+00  0.00000000E+00
  0.00000000E+00  0.00000000E+00  0.00000000E+00
  0.00000000E+00  0.00000000E+00  0.00000000E+00
  0.00000000E+00  0.00000000E+00  0.00000000E+00
  0.00000000E+00  0.00000000E+00  0.00000000E+00
  0.00000000E+00  0.00000000E+00  0.00000000E+00
  0.00000000E+00  0.00000000E+00  0.00000000E+00
  0.00000000E+00  0.00000000E+00  0.00000000E+00
  0.00000000E+00  0.00000000E+00  0.00000000E+00
  0.00000000E+00  0.00000000E+00  0.00000000E+00
  0.00000000E+00  0.00000000E+00  0.00000000E+00
  0.00000000E+00  0.00000000E+00  0.00000000E+00
  0.00000000E+00  0.00000000E+00  0.00000000E+00
  0.00000000E+00  0.00000000E+00  0.00000000E+00
  0.00000000E+00  0.00000000E+00  0.00000000E+00
  0.00000000E+00  0.00000000E+00  0.00000000E+00
  0.00000000E+00  0.00000000E+00  0.00000000E+00
  0.00000000E+00  0.00000000E+00  0.00000000E+00
  0.00000000E+00  0.00000000E+00  0.00000000E+00
  0.00000000E+00  0.00000000E+00  0.00000000E+00
  0.00000000E+00  0.00000000E+00  0.00000000E+00
  0.00000000E+00  0.00000000E+00  0.00000000E+00
  0.00000000E+00  0.00000000E+00  0.00000000E+00
