B C N O                                 
   1.0000000000000000     
     8.7639499999999995  -15.1796066749929999    0.0000000000000000
     8.7639499999999995   15.1796066749929999    0.0000000000000000
     0.0000000000000000    0.0000000000000000   15.0000000000000000
   B    C    N    O 
    47     1    49     1
Selective dynamics
Direct
  0.9070598609487476  0.9536704187676879  0.1111599009178015   T   T   T
  0.9047442219154441  0.0950236955511233  0.1111206776771620   T   T   T
  0.9039004728915498  0.2376073014850431  0.1112429475298428   T   T   T
  0.9037793177543192  0.3807002819107503  0.1111745182906373   T   T   T
  0.9042376538285116  0.5239365929728859  0.1111986539854197   T   T   T
  0.9065132976636998  0.6675169285992608  0.1114968586995211   T   T   T
  0.9086440389363890  0.8114681944453318  0.1113497904676161   T   T   T
  0.0497634661523617  0.9534782176025448  0.1111791448507384   T   T   T
  0.0483224705258175  0.0954932147447231  0.1111659774980977   T   T   T
  0.0467074402781936  0.2374261363526446  0.1112268909102519   T   T   T
  0.0461638455636963  0.3801767607899700  0.1112679612193097   T   T   T
  0.0465900748757164  0.5234110850114513  0.1112109981552848   T   T   T
  0.0479928190153552  0.6668583808354251  0.1112227953931671   T   T   T
  0.0496569062387415  0.8103200271795346  0.1112826355670646   T   T   T
  0.1920094350907122  0.9529829008751496  0.1111912137042659   T   T   T
  0.1915200668757977  0.0957228286173844  0.1112035302636059   T   T   T
  0.1897837381262043  0.2374175210950354  0.1113671002066225   T   T   T
  0.1883919137406539  0.3795369528356115  0.1114853385875381   T   T   T
  0.1886851540109284  0.5228229560638742  0.1116337523772181   T   T   T
  0.1895836453101283  0.6663662874298293  0.1113857095660342   T   T   T
  0.1915621833175481  0.8097820146474204  0.1111986645729322   T   T   T
  0.3344070095484423  0.9525838439397996  0.1111757627640830   T   T   T
  0.3343702577200943  0.0957852166525739  0.1112611636422534   T   T   T
  0.3336236099677887  0.2383237523850074  0.1113801911187777   T   T   T
  0.3307642621773508  0.3786531784870665  0.1112361873689504   T   T   T
  0.3302854330901829  0.5218741862548116  0.1116090280403947   T   T   T
  0.3306354055037143  0.6656837301217040  0.1119073344009497   T   T   T
  0.3339041148882017  0.8092451647277756  0.1112919527398400   T   T   T
  0.4768382736478677  0.9518172413854844  0.1110942510978467   T   T   T
  0.4768927435756791  0.0956744132450820  0.1111822576241103   T   T   T
  0.4767281312087368  0.2394798254165501  0.1113335588988779   T   T   T
  0.4757992052932781  0.3825233760512235  0.1110650203173167   T   T   T
  0.4705830179494909  0.6636294841800497  0.1097333377667972   T   T   T
  0.4766119537342688  0.8079176495703948  0.1110700821988462   T   T   T
  0.6193764636589333  0.9509023845956379  0.1109193881534466   T   T   T
  0.6191710003721034  0.0948898671700868  0.1110852986405273   T   T   T
  0.6191194185493710  0.2389553049865790  0.1112137414871495   T   T   T
  0.6191468544699227  0.3832068793483716  0.1112288767686915   T   T   T
  0.6177109532395315  0.5273865072748218  0.1107432139647531   T   T   T
  0.6193361095687725  0.8067439322237843  0.1103870244027846   T   T   T
  0.7626283973089134  0.9521389985030377  0.1109392573495041   T   T   T
  0.7616524043199496  0.0947441326242669  0.1110985910503006   T   T   T
  0.7613560247264994  0.2380093960585801  0.1112059298442572   T   T   T
  0.7613702714562202  0.3814414445423592  0.1111794455168019   T   T   T
  0.7615566878926202  0.5247910403085031  0.1113843556265949   T   T   T
  0.7672246302019718  0.6700048490617384  0.1111194831020034   T   T   T
  0.7679149231790741  0.8122751615305203  0.1107234293203893   T   T   T
  0.4692204332762914  0.5185658763490054  0.1068357379717410   T   T   T
  0.9549263373179411  0.9062866761351873  0.1112087356285612   T   T   T
  0.9533345269253104  0.0482810366850402  0.1110949974468232   T   T   T
  0.9516414012413885  0.1900227327149838  0.1111800874505697   T   T   T
  0.9511192193984954  0.3327792900200991  0.1112267863131055   T   T   T
  0.9514064670535181  0.4759365597931296  0.1111152918554082   T   T   T
  0.9529042520530280  0.6192373182127402  0.1112559284053906   T   T   T
  0.9547679383183522  0.7628191167446261  0.1114261146533399   T   T   T
  0.0969912233788265  0.9055266734810405  0.1111732801169361   T   T   T
  0.0964965778028194  0.0483719312993397  0.1111378394216667   T   T   T
  0.0948747445356494  0.1902506337125794  0.1112369494524865   T   T   T
  0.0935398957473804  0.3323404561825002  0.1112599695623399   T   T   T
  0.0936532305290858  0.4753295867659966  0.1113100709984306   T   T   T
  0.0945805245662797  0.6187019078539051  0.1112070155098937   T   T   T
  0.0964098683386855  0.7621821698961008  0.1112028980008141   T   T   T
  0.2392735532700180  0.9050891493477444  0.1111723509904334   T   T   T
  0.2392580926443938  0.0481874380960757  0.1111982912452414   T   T   T
  0.2384012980542771  0.1906949767937725  0.1112886014127551   T   T   T
  0.2361778966137037  0.3321111418403532  0.1115049030771313   T   T   T
  0.2355739488324602  0.4743587191993076  0.1117022570388106   T   T   T
  0.2358058196958667  0.6180585110082641  0.1116813196571319   T   T   T
  0.2384915124472627  0.7617612389132907  0.1112615031197155   T   T   T
  0.3816922573325607  0.9046155759501326  0.1111415547532908   T   T   T
  0.3818154022483174  0.0479642998012577  0.1111930917653019   T   T   T
  0.3815985748202935  0.1911148404051646  0.1113294475347242   T   T   T
  0.3805235728875231  0.3332938192502173  0.1113156445168465   T   T   T
  0.3771392647565526  0.4726602665844810  0.1104847658236858   T   T   T
  0.3754195590004226  0.6169332405160255  0.1121696233554019   T   T   T
  0.3809406552425992  0.7612442021464702  0.1114139271292783   T   T   T
  0.5242178157489232  0.9035065427244510  0.1110171896475416   T   T   T
  0.5241370190107976  0.0473785114738820  0.1110734511266220   T   T   T
  0.5240616025098038  0.1913241592765319  0.1112479595450585   T   T   T
  0.5239496951406639  0.3354058553722959  0.1112729953475108   T   T   T
  0.5215478180479041  0.4789119465303646  0.1100858214391349   T   T   T
  0.5014676432840882  0.6053566927861331  0.1042742625611279   T   T   T
  0.5241007917147622  0.7594003689484596  0.1104975020195422   T   T   T
  0.6672631061862542  0.9027979301905633  0.1107709617716242   T   T   T
  0.6665330500056796  0.0465804411376018  0.1109950612635145   T   T   T
  0.6662998066119747  0.1905003678789391  0.1111564908122379   T   T   T
  0.6662850866828092  0.3345823137827807  0.1111914653742432   T   T   T
  0.6659232815051841  0.4789604596270450  0.1112111910750544   T   T   T
  0.6738014391359496  0.6235037119391907  0.1104217495523677   T   T   T
  0.6745134713767303  0.7659957928280113  0.1099314357760995   T   T   T
  0.8121369689060316  0.9064564368066123  0.1110729202826642   T   T   T
  0.8095081948305827  0.0472657463067174  0.1110159464957229   T   T   T
  0.8087893799317287  0.1900424656238560  0.1112170103616124   T   T   T
  0.8086664235436009  0.3333333855374512  0.1111447364897934   T   T   T
  0.8088533528389839  0.4766921093053819  0.1112182259099813   T   T   T
  0.8114808745541527  0.6200231076625048  0.1116117183334187   T   T   T
  0.8143401051765596  0.7644365321847055  0.1111850238735449   T   T   T
  0.6296093109110789  0.6725099442121684  0.1082846730879381   T   T   T

  0.00000000E+00  0.00000000E+00  0.00000000E+00
  0.00000000E+00  0.00000000E+00  0.00000000E+00
  0.00000000E+00  0.00000000E+00  0.00000000E+00
  0.00000000E+00  0.00000000E+00  0.00000000E+00
  0.00000000E+00  0.00000000E+00  0.00000000E+00
  0.00000000E+00  0.00000000E+00  0.00000000E+00
  0.00000000E+00  0.00000000E+00  0.00000000E+00
  0.00000000E+00  0.00000000E+00  0.00000000E+00
  0.00000000E+00  0.00000000E+00  0.00000000E+00
  0.00000000E+00  0.00000000E+00  0.00000000E+00
  0.00000000E+00  0.00000000E+00  0.00000000E+00
  0.00000000E+00  0.00000000E+00  0.00000000E+00
  0.00000000E+00  0.00000000E+00  0.00000000E+00
  0.00000000E+00  0.00000000E+00  0.00000000E+00
  0.00000000E+00  0.00000000E+00  0.00000000E+00
  0.00000000E+00  0.00000000E+00  0.00000000E+00
  0.00000000E+00  0.00000000E+00  0.00000000E+00
  0.00000000E+00  0.00000000E+00  0.00000000E+00
  0.00000000E+00  0.00000000E+00  0.00000000E+00
  0.00000000E+00  0.00000000E+00  0.00000000E+00
  0.00000000E+00  0.00000000E+00  0.00000000E+00
  0.00000000E+00  0.00000000E+00  0.00000000E+00
  0.00000000E+00  0.00000000E+00  0.00000000E+00
  0.00000000E+00  0.00000000E+00  0.00000000E+00
  0.00000000E+00  0.00000000E+00  0.00000000E+00
  0.00000000E+00  0.00000000E+00  0.00000000E+00
  0.00000000E+00  0.00000000E+00  0.00000000E+00
  0.00000000E+00  0.00000000E+00  0.00000000E+00
  0.00000000E+00  0.00000000E+00  0.00000000E+00
  0.00000000E+00  0.00000000E+00  0.00000000E+00
  0.00000000E+00  0.00000000E+00  0.00000000E+00
  0.00000000E+00  0.00000000E+00  0.00000000E+00
  0.00000000E+00  0.00000000E+00  0.00000000E+00
  0.00000000E+00  0.00000000E+00  0.00000000E+00
  0.00000000E+00  0.00000000E+00  0.00000000E+00
  0.00000000E+00  0.00000000E+00  0.00000000E+00
  0.00000000E+00  0.00000000E+00  0.00000000E+00
  0.00000000E+00  0.00000000E+00  0.00000000E+00
  0.00000000E+00  0.00000000E+00  0.00000000E+00
  0.00000000E+00  0.00000000E+00  0.00000000E+00
  0.00000000E+00  0.00000000E+00  0.00000000E+00
  0.00000000E+00  0.00000000E+00  0.00000000E+00
  0.00000000E+00  0.00000000E+00  0.00000000E+00
  0.00000000E+00  0.00000000E+00  0.00000000E+00
  0.00000000E+00  0.00000000E+00  0.00000000E+00
  0.00000000E+00  0.00000000E+00  0.00000000E+00
  0.00000000E+00  0.00000000E+00  0.00000000E+00
  0.00000000E+00  0.00000000E+00  0.00000000E+00
  0.00000000E+00  0.00000000E+00  0.00000000E+00
  0.00000000E+00  0.00000000E+00  0.00000000E+00
  0.00000000E+00  0.00000000E+00  0.00000000E+00
  0.00000000E+00  0.00000000E+00  0.00000000E+00
  0.00000000E+00  0.00000000E+00  0.00000000E+00
  0.00000000E+00  0.00000000E+00  0.00000000E+00
  0.00000000E+00  0.00000000E+00  0.00000000E+00
  0.00000000E+00  0.00000000E+00  0.00000000E+00
  0.00000000E+00  0.00000000E+00  0.00000000E+00
  0.00000000E+00  0.00000000E+00  0.00000000E+00
  0.00000000E+00  0.00000000E+00  0.00000000E+00
  0.00000000E+00  0.00000000E+00  0.00000000E+00
  0.00000000E+00  0.00000000E+00  0.00000000E+00
  0.00000000E+00  0.00000000E+00  0.00000000E+00
  0.00000000E+00  0.00000000E+00  0.00000000E+00
  0.00000000E+00  0.00000000E+00  0.00000000E+00
  0.00000000E+00  0.00000000E+00  0.00000000E+00
  0.00000000E+00  0.00000000E+00  0.00000000E+00
  0.00000000E+00  0.00000000E+00  0.00000000E+00
  0.00000000E+00  0.00000000E+00  0.00000000E+00
  0.00000000E+00  0.00000000E+00  0.00000000E+00
  0.00000000E+00  0.00000000E+00  0.00000000E+00
  0.00000000E+00  0.00000000E+00  0.00000000E+00
  0.00000000E+00  0.00000000E+00  0.00000000E+00
  0.00000000E+00  0.00000000E+00  0.00000000E+00
  0.00000000E+00  0.00000000E+00  0.00000000E+00
  0.00000000E+00  0.00000000E+00  0.00000000E+00
  0.00000000E+00  0.00000000E+00  0.00000000E+00
  0.00000000E+00  0.00000000E+00  0.00000000E+00
  0.00000000E+00  0.00000000E+00  0.00000000E+00
  0.00000000E+00  0.00000000E+00  0.00000000E+00
  0.00000000E+00  0.00000000E+00  0.00000000E+00
  0.00000000E+00  0.00000000E+00  0.00000000E+00
  0.00000000E+00  0.00000000E+00  0.00000000E+00
  0.00000000E+00  0.00000000E+00  0.00000000E+00
  0.00000000E+00  0.00000000E+00  0.00000000E+00
  0.00000000E+00  0.00000000E+00  0.00000000E+00
  0.00000000E+00  0.00000000E+00  0.00000000E+00
  0.00000000E+00  0.00000000E+00  0.00000000E+00
  0.00000000E+00  0.00000000E+00  0.00000000E+00
  0.00000000E+00  0.00000000E+00  0.00000000E+00
  0.00000000E+00  0.00000000E+00  0.00000000E+00
  0.00000000E+00  0.00000000E+00  0.00000000E+00
  0.00000000E+00  0.00000000E+00  0.00000000E+00
  0.00000000E+00  0.00000000E+00  0.00000000E+00
  0.00000000E+00  0.00000000E+00  0.00000000E+00
  0.00000000E+00  0.00000000E+00  0.00000000E+00
  0.00000000E+00  0.00000000E+00  0.00000000E+00
  0.00000000E+00  0.00000000E+00  0.00000000E+00
  0.00000000E+00  0.00000000E+00  0.00000000E+00
