 Ga N B 
 1.0
 14.936314146199660   0.000000000000000   0.000000000000000
 -7.468157073099825  12.935227489513863   0.000000000000000
  0.000000000000001   0.000000000000001  13.341276283792837
 Ga N B 
   1 143 143
Cartesian
  4.101488097444104   5.242490254808866   5.002978606422314 
  1.243597958613978   0.717771931727251   1.668744792163450 
  4.977511696084419   7.185821182118866   1.700883754477979 
  6.222430658347456   0.717535299077933   1.669483503455369 
  9.956397656627122   7.185672862296734   1.670176735448178 
 11.200988745300242   0.717903871949294   1.670560817340526 
 -3.735228721625846   9.341444682761692   8.342014727419418 
  1.243233435255137   9.341757870379755   8.336473709387832 
  2.488575052347420   2.873686278163661   8.322775517393861 
  6.222394498876061   9.341336870427421   8.327984805720096 
  7.466966152693042   2.873514559288529   8.329620980232679 
 12.445774651490751   2.873890331167537   8.335655720721398 
 -1.246030240965347   9.341502277771990   1.665873070098854 
 -0.000858148946612   2.873999545144895   1.671551320421003 
  4.978014930296645   2.873375605639485   1.686180407960673 
  3.732633991803575   9.341567594287602   1.676336232610108 
  8.711788379314246   9.341399366174233   1.670176735448178 
  9.956216994653897   2.873829827293614   1.672564450549134 
 -4.979973752291873  11.497111491306846   8.339493746633494 
 -0.001291069519713  11.497234591341190   8.337339138923149 
  1.243587154536383   5.030068571980761   8.322775517393861 
  6.222473847776976   5.029483481887075   8.305073458367461 
  4.977532442883268  11.497164425818685   8.333392762295027 
 11.200978329495710   5.029747317211122   8.335271885376594 
 -1.245977984726655   5.029843954894473   1.668744792163450 
 -2.490579602555031  11.497125004572750   1.665873070098920 
  2.488016851189036  11.497379571582584   1.670981635792422 
  3.733988077221233   5.030314019203633   1.741590698116828 
  7.466992425035597  11.497200618482108   1.670685327468152 
  8.711646593503982   5.029825769684582   1.677972407126493 
 -0.001459271101382   7.185857256443750   8.336524378169546 
  1.243597958613979   0.717771931727252   8.337212420679563 
  4.977511696084420   7.185821182118866   8.305073458367461 
  6.222430658347457   0.717535299077934   8.336473709387832 
  9.956397656627122   7.185672862296735   8.335780477396916 
 -2.490739018664701   7.185630460699373   1.666463466209919 
 11.200988745300242   0.717903871949295   8.335396395502366 
  3.733019605464576   0.717550102438723   1.669432834675762 
  2.488038043213863   7.186142083739085   1.686180407960713 
  7.466969644916225   7.185551932196460   1.685048626412607 
  8.711645520504428   0.717738508885967   1.670981635792422 
  2.488038043213864   7.186142083739086   8.319776804883901 
 13.690520742293378   0.717926859374628   1.670301492124004 
 -1.246030240965346   9.341502277771990   8.340084142745855 
 -0.000858148946612   2.873999545144896   8.334405892423279 
  4.978014930296653   2.873375605639473   8.319776804883901 
  3.732633991803576   9.341567594287602   8.329620980232679 
  8.711788379314246   9.341399366174233   8.335780477396916 
  9.956216994653897   2.873829827293615   8.333392762295027 
 -3.735228721625846   9.341444682761692   1.663942485425637 
  1.243233435255137   9.341757870379755   1.669483503455369 
  2.488575052347420   2.873686278163660   1.683181695449098 
  6.222394498876060   9.341336870427421   1.677972407126519 
  7.466966152693041   2.873514559288528   1.676336232610228 
 12.445774651490751   2.873890331167536   1.670301492124004 
 -1.245977984726654   5.029843954894474   8.337212420679563 
 -2.490579602555031  11.497125004572750   8.340084142745855 
  2.488016851189036  11.497379571582584   8.334975577049791 
  3.733988077221233   5.030314019203634   8.264366514726065 
  7.466992425035598  11.497200618482108   8.335271885376594 
 -4.979973752291874  11.497111491306846   1.666463466209919 
  8.711646593503982   5.029825769684583   8.327984805720096 
 -0.001291069519714  11.497234591341190   1.668618073922520 
  1.243587154536383   5.030068571980760   1.683181695449098 
 -0.001459271101383   7.185857256443749   1.669432834675762 
  6.222473847776975   5.029483481887074   1.700883754477966 
  4.977532442883267  11.497164425818685   1.672564450549134 
 11.200978329495710   5.029747317211121   1.670685327468152 
 -2.490739018664701   7.185630460699374   8.339493746633494 
  3.733019605464576   0.717550102438723   8.336524378169546 
  7.466969644916226   7.185551932196461   8.320908586431647 
  8.711645520504428   0.717738508885968   8.334975577049791 
 13.690520742293341   0.717926859374693   8.335655720721398 
  0.020987417889800   1.450232078976828   5.002978606422314 
  3.726542533258534   7.932226242293583   5.002978606422314 
  5.012869418395148   1.378449424018119   5.002978606422314 
  8.712453731906070   7.904632505092273   5.002978606422314 
  9.979392773121502   1.444906889064407   5.002978606422314 
 -4.975202090456433  10.062880526705767  11.673616748318732 
  0.003763086481831  10.062848858237722  11.673616748318732 
  1.248628449580914   3.595390969152934  11.673616748318732 
  4.982528555210580  10.062965244506801  11.673616748318732 
  6.227299766739955   3.595399518381382  11.673616748318732 
 11.206051558748921   3.595222032025754  11.673616748318732 
 -2.490568108968705  10.060049822532529   5.002978606422314 
 -1.222954160311992   3.604802094070020   5.002978606422314 
  3.796766850976838   3.470621605508705   5.002978606422314 
  2.494956067646930  10.084642876464990   5.002978606422314 
  7.473973016266285  10.065460676848053   5.002978606422314 
  8.733316189323533   3.594356090910645   5.002978606422314 
 -6.219832604770016  12.218859282270024  11.673616748318732 
 -1.240978475215208  12.218804485389638  11.673616748318732 
  0.003915710093680   5.751066761190207  11.673616748318732 
  4.982586574084957   5.751192697478292  11.673616748318732 
  3.737819768035613  12.218796999891458  11.673616748318732 
  9.961302929190719   5.751046262093837  11.673616748318732 
 -2.486671150404452   5.756872472542077   5.002978606422314 
 -3.728209002109805  12.201351188588619   5.002978606422314 
  1.259980875671647  12.225430288421448   5.002978606422314 
  2.414644211748592   5.864528238943234   5.002978606422314 
  6.239098512004538  12.230127186197402   5.002978606422314 
  7.472039823643842   5.754186330578543   5.002978606422314 
 -1.240914474896731   7.906880718208551  11.673616748318732 
  0.003752132425063   1.439499373708601  11.673616748318732 
  3.737971512008896   7.907042532292365  11.673616748318732 
  4.982564914990030   1.439617868839782  11.673616748318732 
  8.716444038518901   7.906936309683106  11.673616748318732 
 -3.737319738667079   7.906737902536483   5.002978606422314 
  9.961312798576230   1.439390870444226  11.673616748318732 
  2.502682283386474   1.420807682090258   5.002978606422314 
  1.210821237196738   7.963790046678652   5.002978606422314 
  6.229905761178940   7.905625636579702   5.002978606422314 
  7.491649261903683   1.430116394178611   5.002978606422314 
  1.248642412618777   7.906961354471559  11.673616748318732 
 12.468133972829959   1.449490510167502   5.002978606422314 
 -2.485731427097980  10.062842282111854  11.673616748318732 
 -1.240866598457222   3.595242251648656  11.673616748318732 
  3.738012815732481   3.595603529337866  11.673616748318732 
  2.493171085846453  10.062905083489156  11.673616748318732 
  7.471817934874448  10.062960756929968  11.673616748318732 
  8.716662125714429   3.595256178145508  11.673616748318732 
 -4.978766748804219  10.056987198998394   5.002978606422314 
 -0.004327611624490  10.080208864165270   5.002978606422314 
  1.277963280731650   3.612327441816012   5.002978606422314 
  4.990076088605821  10.077838130283009   5.002978606422314 
  6.243395009988166   3.572909877442291   5.002978606422314 
 11.221764399729572   3.599896711517299   5.002978606422314 
 -2.485616522805799   5.751007301867168  11.673616748318732 
 -3.730440434918953  12.218866167728754  11.673616748318732 
  1.248424143964990  12.218758006259177  11.673616748318732 
  2.493504715176280   5.751154789932182  11.673616748318732 
  6.227193700322479  12.218856806483988  11.673616748318732 
 -6.215280531766385  12.215013362639077   5.002978606422314 
  7.471881536773766   5.751103005435824  11.673616748318732 
 -1.229989618125306  12.203117732331515   5.002978606422314 
 -0.007589002757407   5.768725090472761   5.002978606422314 
 -1.254967175376642   7.917570685282262   5.002978606422314 
  3.751636767560246  12.231696707838783   5.002978606422314 
  9.964545464042285   5.751662657368811   5.002978606422314 
 -3.730433637986993   7.906878323369797  11.673616748318732 
  2.493142078064771   1.439600220324107  11.673616748318732 
  6.227156379844450   7.907030218696558  11.673616748318732 
  7.471931290064610   1.439439451081248  11.673616748318732 
 12.450709252591640   1.439430343245983  11.673616748318732 
  1.256213086719952   0.716987528527772   5.002978606422314 
  4.979232862259596   7.315524013096301   5.002978606422314 
  6.255262314605625   0.687718343363986   5.002978606422314 
  9.965552916286205   7.187935507889564   5.002978606422314 
 11.226430203609990   0.732592504752358   5.002978606422314 
 -3.730277842725156   9.344303074028014  11.673616748318732 
  1.248134405461017   9.344462577187818  11.673616748318732 
  2.492636279826965   2.876350832931312  11.673616748318732 
  6.227334665709516   9.345123999113309  11.673616748318732 
  7.472444400024092   2.876104548297333  11.673616748318732 
 12.450946103673122   2.876547796979886  11.673616748318732 
 -1.246604131312809   9.351482941776174   5.002978606422314 
  0.028760829713999   2.891100070447204   5.002978606422314 
  5.007265180264621   2.783666356704442   5.002978606422314 
  3.738046246948211   9.390607695476215   5.002978606422314 
  8.718325517705907   9.348196730822613   5.002978606422314 
  9.987538302199992   2.876176780834899   5.002978606422314 
 -4.975166676701519  11.500346327096052  11.673616748318732 
  0.003663353010244  11.500095028522310  11.673616748318732 
  1.247925340395299   5.032253420763759  11.673616748318732 
  6.227720626543932   5.032121451644016  11.673616748318732 
  4.982568385230074  11.500834528482580  11.673616748318732 
 11.206482413720721   5.032256643034931  11.673616748318732 
 -1.240349733771362   5.041161177906216   5.002978606422314 
 -2.482223039152905  11.491637668948002   5.002978606422314 
  2.505193225440009  11.520560018455482   5.002978606422314 
  7.477970065420468  11.508913514757058   5.002978606422314 
  8.743838395703154   5.022988405567230   5.002978606422314 
  0.003437440150036   7.188226799486462  11.673616748318732 
  1.248179965603460   0.720892028398871  11.673616748318732 
  4.982419634290445   7.189046040943007  11.673616748318732 
  6.227223488254621   0.720427310377715  11.673616748318732 
  9.961748600107367   7.188369085771744  11.673616748318732 
 -2.491225591253570   7.192053118989300   5.002978606422314 
 11.206249233370908   0.720941016152594  11.673616748318732 
  3.743158975018352   0.694892776044748   5.002978606422314 
  2.424972679665280   7.256328167746618   5.002978606422314 
  7.487516104671562   7.197414436262539   5.002978606422314 
  8.740308563492121   0.721023461897153   5.002978606422314 
  2.492633532493329   7.188605507308552  11.673616748318732 
 13.713289654125957   0.735441176058014   5.002978606422314 
 -1.241104201746913   9.344176694018541  11.673616748318732 
  0.003535169737523   2.876536028870007  11.673616748318732 
  4.982446062327780   2.876123704313652  11.673616748318732 
  3.737616111743971   9.345016901144051  11.673616748318732 
  8.716798849076461   9.344685307427513  11.673616748318732 
  9.961913367969412   2.876356029964809  11.673616748318732 
 -3.732825154817031   9.342832382708716   5.002978606422314 
  1.233827022270500   9.385099396607961   5.002978606422314 
  2.512356398275602   2.859454754599033   5.002978606422314 
  6.232569068953699   9.372634470986602   5.002978606422314 
  7.512142253697915   2.853681659142868   5.002978606422314 
 12.472326950585636   2.884851628887897   5.002978606422314 
 -1.240984898252947   5.032252041013464  11.673616748318732 
 -2.485800470535546  11.500053871551877  11.673616748318732 
  2.493096992527557  11.500485370189709  11.673616748318732 
  3.737269724986171   5.032208679423796  11.673616748318732 
  7.471917607057574  11.500712632334190  11.673616748318732 
 -4.974654853349385  11.493478777942565   5.002978606422314 
  8.717396426570206   5.032210515318138  11.673616748318732 
  0.013210374686374  11.505607004060275   5.002978606422314 
  1.243152966559615   5.057779583471913   5.002978606422314 
 -0.016011406563692   7.205966871252977   5.002978606422314 
  6.335660377434989   4.966122640028099   5.002978606422314 
  4.995225618045681  11.523115997060781   5.002978606422314 
 11.216610815415198   5.033397784518732   5.002978606422314 
 -2.485534030900428   7.188176092386402  11.673616748318732 
  3.737520045559261   0.720606007258448  11.673616748318732 
  7.472367338766555   7.188668292191873  11.673616748318732 
  8.716875291666309   0.720585141036702  11.673616748318732 
 13.695407901289419   0.721076735429948  11.673616748318732 
 -0.001083719883558   1.436619222100768   1.668275955408099 
  3.729880624676240   7.906509952073064   1.679543401320276 
  4.977332054387040   1.433521539914245   1.670406227353957 
  8.714176940374470   7.905627399961435   1.669089721351732 
  9.956665559553077   1.435906221209531   1.668479608692665 
 -4.978719106014358  10.060768010431067   8.342662126878386 
 -0.002352704286827  10.060409369568371   8.340845677003392 
  1.242655453942265   3.591942458512539   8.327317042916684 
  4.977262519301751  10.061840433582793   8.335351638760431 
  6.222793095075548   3.588658894519389   8.326413811523578 
 11.201975273956219   3.592233350084797   8.337515006429150 
 -2.490407619484279  10.060142481175850   1.662567759688740 
 -1.245778809069980   3.592494356503139   1.668275955408099 
  3.731674412139675   3.587465513705224   1.700856454638113 
  2.486422045594900  10.061376827598927   1.668142602610162 
  7.468344723342221  10.061653022481682   1.668481086876299 
  8.713054992925706   3.591258062732643   1.670605574085371 
 -6.224205569285777  12.216219716134072   8.339809985803617 
 -1.246149029759789  12.214727799555030   8.340845677003392 
 -0.002538589329367   5.748710865969023   8.335174403819597 
  4.978823920382585   5.749020328350396   8.309008226460170 
  3.732478353760734  12.216514697462108   8.337477604151855 
  9.958433792171421   5.748692239897603   8.337476125968182 
 -2.490088936392382   5.748539986574644   1.666147227041410 
 -3.735183092276068  12.215099703106450   1.664315935351001 
  1.242947604583724  12.215596124773725   1.667562689230018 
  2.483287785106309   5.749734579216567   1.700856454638113 
  6.222567283438753  12.216820981275553   1.668442206415985 
  7.469924666877194   5.748736587292340   1.678512669414620 
 -1.246547657621241   7.904656688768003   8.341641277493347 
 -0.001083719883505   1.436619222100679   8.337681257437076 
  3.729880624676241   7.906509952073065   8.326413811523578 
  4.977332054387041   1.433521539914245   8.335550985490551 
  8.714176940374470   7.905627399961436   8.336867491491509 
 -3.734021638525395   7.904888756687854   1.663295085965695 
  9.956665559553077   1.435906221209531   8.337477604151855 
  2.487874663242785   1.435188580671160   1.670782809025670 
  1.240746406597785   7.905477728717946   1.670406227353957 
  6.224128566664617   7.906518728731709   1.678512669414607 
  7.467233261513138   1.434358738719562   1.668142602610162 
  1.240746406597786   7.905477728717947   8.335550985490551 
 12.446006751413824   1.436715352925355   1.668302267000623 
 -2.490407619484279  10.060142481175850   8.343389453155714 
 -1.245778809069979   3.592494356503140   8.337681257437076 
  3.731674412139675   3.587465513705225   8.305100758207676 
  2.486422045594901  10.061376827598927   8.337814610233425 
  7.468344723342222  10.061653022481682   8.337476125968182 
  8.713054992925706   3.591258062732644   8.335351638760431 
 -4.978719106014449  10.060768010431067   1.663295085965695 
 -0.002352704286827  10.060409369568371   1.665111535839835 
  1.242655453942264   3.591942458512538   1.678640169927969 
  4.977262519301751  10.061840433582793   1.670605574085371 
  6.222793095075547   3.588658894519388   1.679543401320276 
 11.201975273956203   3.592233350084796   1.668442206415971 
 -2.490088936392381   5.748539986574645   8.339809985803617 
 -3.735183092276068  12.215099703106450   8.341641277493347 
  1.242947604583724  12.215596124773725   8.338394523615731 
  2.483287785106310   5.749734579216568   8.305100758207676 
  6.222567283438754  12.216820981275553   8.337515006429150 
 -6.224205569285778  12.216219716134072   1.666147227041410 
  7.469924666877195   5.748736587292341   8.327444543426777 
 -1.246149029759789  12.214727799555030   1.665111535839835 
 -0.002538589329368   5.748710865969022   1.670782809025670 
 -1.246547657621241   7.904656688768002   1.664315935351001 
  4.978823920382660   5.749020328350369   1.696948986383177 
  3.732478353760734  12.216514697462108   1.668479608692665 
  9.958433792171421   5.748692239897602   1.668481086876299 
 -3.734021638525395   7.904888756687855   8.342662126878386 
  2.487874663242786   1.435188580671160   8.335174403819597 
  6.224128566664618   7.906518728731710   8.327444543426777 
  7.467233261513214   1.434358738719433   8.337814610233425 
 12.446006751413824   1.436715352925356   8.337654945841830 
Generated by cif2cell 2.0.0.  :  Failed to get author information, No journal information. Species order: Ga N B 
 1.0
 14.936314146199660   0.000000000000000   0.000000000000000
 -7.468157073099825  12.935227489513863   0.000000000000000
  0.000000000000001   0.000000000000001  13.341276283792837
 Ga N B 
   1 143 143
Cartesian
  4.101488097444104   5.242490254808866   5.002978606422314 
  1.243597958613978   0.717771931727251   1.668744792163450 
  4.977511696084419   7.185821182118866   1.700883754477979 
  6.222430658347456   0.717535299077933   1.669483503455369 
  9.956397656627122   7.185672862296734   1.670176735448178 
 11.200988745300242   0.717903871949294   1.670560817340526 
 -3.735228721625846   9.341444682761692   8.342014727419418 
  1.243233435255137   9.341757870379755   8.336473709387832 
  2.488575052347420   2.873686278163661   8.322775517393861 
  6.222394498876061   9.341336870427421   8.327984805720096 
  7.466966152693042   2.873514559288529   8.329620980232679 
 12.445774651490751   2.873890331167537   8.335655720721398 
 -1.246030240965347   9.341502277771990   1.665873070098854 
 -0.000858148946612   2.873999545144895   1.671551320421003 
  4.978014930296645   2.873375605639485   1.686180407960673 
  3.732633991803575   9.341567594287602   1.676336232610108 
  8.711788379314246   9.341399366174233   1.670176735448178 
  9.956216994653897   2.873829827293614   1.672564450549134 
 -4.979973752291873  11.497111491306846   8.339493746633494 
 -0.001291069519713  11.497234591341190   8.337339138923149 
  1.243587154536383   5.030068571980761   8.322775517393861 
  6.222473847776976   5.029483481887075   8.305073458367461 
  4.977532442883268  11.497164425818685   8.333392762295027 
 11.200978329495710   5.029747317211122   8.335271885376594 
 -1.245977984726655   5.029843954894473   1.668744792163450 
 -2.490579602555031  11.497125004572750   1.665873070098920 
  2.488016851189036  11.497379571582584   1.670981635792422 
  3.733988077221233   5.030314019203633   1.741590698116828 
  7.466992425035597  11.497200618482108   1.670685327468152 
  8.711646593503982   5.029825769684582   1.677972407126493 
 -0.001459271101382   7.185857256443750   8.336524378169546 
  1.243597958613979   0.717771931727252   8.337212420679563 
  4.977511696084420   7.185821182118866   8.305073458367461 
  6.222430658347457   0.717535299077934   8.336473709387832 
  9.956397656627122   7.185672862296735   8.335780477396916 
 -2.490739018664701   7.185630460699373   1.666463466209919 
 11.200988745300242   0.717903871949295   8.335396395502366 
  3.733019605464576   0.717550102438723   1.669432834675762 
  2.488038043213863   7.186142083739085   1.686180407960713 
  7.466969644916225   7.185551932196460   1.685048626412607 
  8.711645520504428   0.717738508885967   1.670981635792422 
  2.488038043213864   7.186142083739086   8.319776804883901 
 13.690520742293378   0.717926859374628   1.670301492124004 
 -1.246030240965346   9.341502277771990   8.340084142745855 
 -0.000858148946612   2.873999545144896   8.334405892423279 
  4.978014930296653   2.873375605639473   8.319776804883901 
  3.732633991803576   9.341567594287602   8.329620980232679 
  8.711788379314246   9.341399366174233   8.335780477396916 
  9.956216994653897   2.873829827293615   8.333392762295027 
 -3.735228721625846   9.341444682761692   1.663942485425637 
  1.243233435255137   9.341757870379755   1.669483503455369 
  2.488575052347420   2.873686278163660   1.683181695449098 
  6.222394498876060   9.341336870427421   1.677972407126519 
  7.466966152693041   2.873514559288528   1.676336232610228 
 12.445774651490751   2.873890331167536   1.670301492124004 
 -1.245977984726654   5.029843954894474   8.337212420679563 
 -2.490579602555031  11.497125004572750   8.340084142745855 
  2.488016851189036  11.497379571582584   8.334975577049791 
  3.733988077221233   5.030314019203634   8.264366514726065 
  7.466992425035598  11.497200618482108   8.335271885376594 
 -4.979973752291874  11.497111491306846   1.666463466209919 
  8.711646593503982   5.029825769684583   8.327984805720096 
 -0.001291069519714  11.497234591341190   1.668618073922520 
  1.243587154536383   5.030068571980760   1.683181695449098 
 -0.001459271101383   7.185857256443749   1.669432834675762 
  6.222473847776975   5.029483481887074   1.700883754477966 
  4.977532442883267  11.497164425818685   1.672564450549134 
 11.200978329495710   5.029747317211121   1.670685327468152 
 -2.490739018664701   7.185630460699374   8.339493746633494 
  3.733019605464576   0.717550102438723   8.336524378169546 
  7.466969644916226   7.185551932196461   8.320908586431647 
  8.711645520504428   0.717738508885968   8.334975577049791 
 13.690520742293341   0.717926859374693   8.335655720721398 
  0.020987417889800   1.450232078976828   5.002978606422314 
  3.726542533258534   7.932226242293583   5.002978606422314 
  5.012869418395148   1.378449424018119   5.002978606422314 
  8.712453731906070   7.904632505092273   5.002978606422314 
  9.979392773121502   1.444906889064407   5.002978606422314 
 -4.975202090456433  10.062880526705767  11.673616748318732 
  0.003763086481831  10.062848858237722  11.673616748318732 
  1.248628449580914   3.595390969152934  11.673616748318732 
  4.982528555210580  10.062965244506801  11.673616748318732 
  6.227299766739955   3.595399518381382  11.673616748318732 
 11.206051558748921   3.595222032025754  11.673616748318732 
 -2.490568108968705  10.060049822532529   5.002978606422314 
 -1.222954160311992   3.604802094070020   5.002978606422314 
  3.796766850976838   3.470621605508705   5.002978606422314 
  2.494956067646930  10.084642876464990   5.002978606422314 
  7.473973016266285  10.065460676848053   5.002978606422314 
  8.733316189323533   3.594356090910645   5.002978606422314 
 -6.219832604770016  12.218859282270024  11.673616748318732 
 -1.240978475215208  12.218804485389638  11.673616748318732 
  0.003915710093680   5.751066761190207  11.673616748318732 
  4.982586574084957   5.751192697478292  11.673616748318732 
  3.737819768035613  12.218796999891458  11.673616748318732 
  9.961302929190719   5.751046262093837  11.673616748318732 
 -2.486671150404452   5.756872472542077   5.002978606422314 
 -3.728209002109805  12.201351188588619   5.002978606422314 
  1.259980875671647  12.225430288421448   5.002978606422314 
  2.414644211748592   5.864528238943234   5.002978606422314 
  6.239098512004538  12.230127186197402   5.002978606422314 
  7.472039823643842   5.754186330578543   5.002978606422314 
 -1.240914474896731   7.906880718208551  11.673616748318732 
  0.003752132425063   1.439499373708601  11.673616748318732 
  3.737971512008896   7.907042532292365  11.673616748318732 
  4.982564914990030   1.439617868839782  11.673616748318732 
  8.716444038518901   7.906936309683106  11.673616748318732 
 -3.737319738667079   7.906737902536483   5.002978606422314 
  9.961312798576230   1.439390870444226  11.673616748318732 
  2.502682283386474   1.420807682090258   5.002978606422314 
  1.210821237196738   7.963790046678652   5.002978606422314 
  6.229905761178940   7.905625636579702   5.002978606422314 
  7.491649261903683   1.430116394178611   5.002978606422314 
  1.248642412618777   7.906961354471559  11.673616748318732 
 12.468133972829959   1.449490510167502   5.002978606422314 
 -2.485731427097980  10.062842282111854  11.673616748318732 
 -1.240866598457222   3.595242251648656  11.673616748318732 
  3.738012815732481   3.595603529337866  11.673616748318732 
  2.493171085846453  10.062905083489156  11.673616748318732 
  7.471817934874448  10.062960756929968  11.673616748318732 
  8.716662125714429   3.595256178145508  11.673616748318732 
 -4.978766748804219  10.056987198998394   5.002978606422314 
 -0.004327611624490  10.080208864165270   5.002978606422314 
  1.277963280731650   3.612327441816012   5.002978606422314 
  4.990076088605821  10.077838130283009   5.002978606422314 
  6.243395009988166   3.572909877442291   5.002978606422314 
 11.221764399729572   3.599896711517299   5.002978606422314 
 -2.485616522805799   5.751007301867168  11.673616748318732 
 -3.730440434918953  12.218866167728754  11.673616748318732 
  1.248424143964990  12.218758006259177  11.673616748318732 
  2.493504715176280   5.751154789932182  11.673616748318732 
  6.227193700322479  12.218856806483988  11.673616748318732 
 -6.215280531766385  12.215013362639077   5.002978606422314 
  7.471881536773766   5.751103005435824  11.673616748318732 
 -1.229989618125306  12.203117732331515   5.002978606422314 
 -0.007589002757407   5.768725090472761   5.002978606422314 
 -1.254967175376642   7.917570685282262   5.002978606422314 
  3.751636767560246  12.231696707838783   5.002978606422314 
  9.964545464042285   5.751662657368811   5.002978606422314 
 -3.730433637986993   7.906878323369797  11.673616748318732 
  2.493142078064771   1.439600220324107  11.673616748318732 
  6.227156379844450   7.907030218696558  11.673616748318732 
  7.471931290064610   1.439439451081248  11.673616748318732 
 12.450709252591640   1.439430343245983  11.673616748318732 
  1.256213086719952   0.716987528527772   5.002978606422314 
  4.979232862259596   7.315524013096301   5.002978606422314 
  6.255262314605625   0.687718343363986   5.002978606422314 
  9.965552916286205   7.187935507889564   5.002978606422314 
 11.226430203609990   0.732592504752358   5.002978606422314 
 -3.730277842725156   9.344303074028014  11.673616748318732 
  1.248134405461017   9.344462577187818  11.673616748318732 
  2.492636279826965   2.876350832931312  11.673616748318732 
  6.227334665709516   9.345123999113309  11.673616748318732 
  7.472444400024092   2.876104548297333  11.673616748318732 
 12.450946103673122   2.876547796979886  11.673616748318732 
 -1.246604131312809   9.351482941776174   5.002978606422314 
  0.028760829713999   2.891100070447204   5.002978606422314 
  5.007265180264621   2.783666356704442   5.002978606422314 
  3.738046246948211   9.390607695476215   5.002978606422314 
  8.718325517705907   9.348196730822613   5.002978606422314 
  9.987538302199992   2.876176780834899   5.002978606422314 
 -4.975166676701519  11.500346327096052  11.673616748318732 
  0.003663353010244  11.500095028522310  11.673616748318732 
  1.247925340395299   5.032253420763759  11.673616748318732 
  6.227720626543932   5.032121451644016  11.673616748318732 
  4.982568385230074  11.500834528482580  11.673616748318732 
 11.206482413720721   5.032256643034931  11.673616748318732 
 -1.240349733771362   5.041161177906216   5.002978606422314 
 -2.482223039152905  11.491637668948002   5.002978606422314 
  2.505193225440009  11.520560018455482   5.002978606422314 
  7.477970065420468  11.508913514757058   5.002978606422314 
  8.743838395703154   5.022988405567230   5.002978606422314 
  0.003437440150036   7.188226799486462  11.673616748318732 
  1.248179965603460   0.720892028398871  11.673616748318732 
  4.982419634290445   7.189046040943007  11.673616748318732 
  6.227223488254621   0.720427310377715  11.673616748318732 
  9.961748600107367   7.188369085771744  11.673616748318732 
 -2.491225591253570   7.192053118989300   5.002978606422314 
 11.206249233370908   0.720941016152594  11.673616748318732 
  3.743158975018352   0.694892776044748   5.002978606422314 
  2.424972679665280   7.256328167746618   5.002978606422314 
  7.487516104671562   7.197414436262539   5.002978606422314 
  8.740308563492121   0.721023461897153   5.002978606422314 
  2.492633532493329   7.188605507308552  11.673616748318732 
 13.713289654125957   0.735441176058014   5.002978606422314 
 -1.241104201746913   9.344176694018541  11.673616748318732 
  0.003535169737523   2.876536028870007  11.673616748318732 
  4.982446062327780   2.876123704313652  11.673616748318732 
  3.737616111743971   9.345016901144051  11.673616748318732 
  8.716798849076461   9.344685307427513  11.673616748318732 
  9.961913367969412   2.876356029964809  11.673616748318732 
 -3.732825154817031   9.342832382708716   5.002978606422314 
  1.233827022270500   9.385099396607961   5.002978606422314 
  2.512356398275602   2.859454754599033   5.002978606422314 
  6.232569068953699   9.372634470986602   5.002978606422314 