 P B N 
 1.0
 17.527899999999772   0.000000000000000   0.000000000000000
 -8.763949999999658  15.179606674993195   0.000000000000000
  0.000000000000001   0.000000000000002  15.000000000000000
 P B N 
   1  48  48
Cartesian
  4.291966661460518   7.641773113810599   1.696913207414895 
  7.522397243890307  14.465914362028892   1.665951087616830 
 15.018602500412534   1.448806976321054   1.665840890822745 
 13.760136179812276   3.617491404425073   1.665834870346890 
 12.508727601147994   5.785525314560806   1.665280526675340 
 11.265763453951775   7.952085876874644   1.666324880602830 
 10.038590509049744  10.124152693637956   1.668013703938200 
  8.792045531374718  12.306037195155671   1.667544350269410 
 -7.497213583447866  14.448266358789100   1.666746923520675 
 -0.002654017343330   1.432108400620834   1.666408324927665 
 -1.261736888889999   3.605119058354280   1.666201114692255 
 -2.506636701575382   5.776603660928743   1.665351813726585 
 -3.739522612860442   7.942905305664933   1.664424097298115 
 -4.982376221873542  10.110695394125258   1.666395472796685 
 -6.234895343359138  12.281175123148387   1.667450329816560 
 -4.989303664967574  14.438576566185088   1.667406818782950 
  2.502653362132556   1.412440251115662   1.667535223632375 
  1.235701794535517   3.577488762912563   1.665018863659170 
 -0.003508130027629   5.760562049334289   1.664500497202215 
 -1.212176659239288   7.931415306247082   1.664793720791310 
 -2.466994908079057  10.100840880371125   1.665160892646255 
 -3.726744988987144  12.271368072548286   1.665880738607655 
 -2.483330970384345  14.439086566907209   1.666341441809430 
  5.015507407094978   1.423801872321687   1.667519611209975 
  3.734073227282687   3.549232888599800   1.663512132751455 
  2.471362133449091   5.713976354992402   1.657669690141545 
  1.333917246823432   7.910664191881549   1.663126215262455 
  0.055339700884539  10.087808540838894   1.665860735317320 
 -1.217103242492185  12.265676300449647   1.665136674301065 
  0.015478245840280  14.446687410557088   1.664144839071855 
  7.510195539227713   1.447095537845878   1.665985754117220 
  6.234694600556661   3.625442472330494   1.667165263027500 
  4.903527669288773   5.727617795065406   1.657906296030345 
  2.580066277621277  10.069100909441877   1.663175286791805 
  1.289082652319016  12.263713930097795   1.664446883362245 
  2.507990113580787  14.462181989594319   1.664577446820630 
 10.007949318001863   1.454025456954328   1.664920495808460 
  8.741502022378565   3.630798267469865   1.667463262098465 
  7.464706208609684   5.809974904598517   1.667650607410425 
  6.255368154156677   8.069211451711201   1.658952024777450 
  5.051182348393281  10.182395532827119   1.658435297774505 
  3.773440957259706  12.302460010412481   1.664084845695090 
  5.011013119483749  14.469855773041610   1.665316445468610 
 12.511228387370940   1.454314540618044   1.665354884013015 
 11.250925147844704   3.624057222364779   1.667045677413135 
  9.990329884570471   5.793883435691376   1.667708379606405 
  8.741489707461449   7.967479747412107   1.668001206489690 
  7.557244155220491  10.171166566690074   1.664433776682870 
  6.283605313835421  12.320779274239138   1.664834836274910 
  8.778155885133927  13.742984029288609   1.666024723370115 
 16.272633295593199   0.724770918857351   1.665392128491240 
 15.012027108375449   2.891799053089606   1.665563093792250 
 13.763090231832869   5.059868891664398   1.664701090632090 
 12.521597968520334   7.229419785985265   1.664132545383975 
 11.285662952003287   9.395856392512718   1.666684645601640 
 10.038349006420340  11.568622477144055   1.667745489402930 
 -6.242488067691733  13.723836778840317   1.666562130382770 
  1.251270988127192   0.706003800333487   1.666324878964575 
 -0.015039425997347   2.871359987298582   1.666009868289855 
 -1.260225634524296   5.049108852464620   1.665578938486125 
 -2.482681014791349   7.220562932807155   1.664205010273320 
 -3.728738552836194   9.386811998776066   1.664494443348900 
 -4.982254321067356  11.554977857390172   1.666098940345395 
 -3.734067408937048  13.716871854268048   1.666102067220480 
  3.764444434791419   0.701811633092971   1.667548951791570 
  2.484522409750439   2.847117038908948   1.665836417201160 
  1.224024308305006   5.014887899986155   1.662354592419705 
  0.047529012091903   7.204863661476766   1.663695564750540 
 -1.208959459734390   9.376541871233510   1.664982315011235 
 -2.471722426131183  11.546788838239232   1.664901173256900 
 -1.229608348484983  13.715390086648883   1.664470038127485 
  6.269767598831180   0.707986003218898   1.666395166485345 
  5.003278114181152   2.868478393450351   1.666324830675525 
  3.699499849749756   4.977177652835817   1.654738336827000 
  2.569434960384813   7.138337839712928   1.658010782106990 
  1.317029286055835   9.359386303526733   1.665748468442175 
  0.039170435635110  11.538352386077092   1.664871508290420 
  1.269465946852868  13.719424404016872   1.663689227461125 
  8.763945029727820   0.720886512111829   1.663847594423970 
  7.492834147820606   2.903139158712387   1.666990595828925 
  6.206626623403480   5.093591881342941   1.665355065652680 
  3.866688979172118   9.385267830712776   1.658459428846695 
  2.548148882778387  11.536055278360218   1.663410425087400 
  3.761228017430382  13.746513615030256   1.664672513044425 
 11.263478078602628   0.730559264579416   1.664060926668120 
  9.996578578000552   2.904114221894931   1.666196487570090 
  8.725936889446498   5.081825985806021   1.668290105408025 
  7.456004474185197   7.257685998126964   1.666207881050925 
  6.303275686020734   9.487162365643716   1.656161502884220 
  5.032946936173031  11.612184776874667   1.662458005866900 
  6.269797348783728  13.756997165411635   1.665201884302620 
 13.765646619086182   0.733012902951048   1.664915028648195 
 12.504921555974278   2.900072315650439   1.665646402722345 
 11.247220904218143   5.070322382335064   1.666363300509240 
  9.996118075490495   7.239070501635188   1.667485332105195 
  8.781335696185590   9.412414688816730   1.667287228177905 
  7.540518720833023  11.604437229329795   1.666092259852980 
