 N B P 
 1.0
 17.527899999999772   0.000000000000000   0.000000000000000
 -8.763949999999658  15.179606674993195   0.000000000000000
  0.000000000000001   0.000000000000002  15.000000000000000
 N B P 
  49  47   1
Cartesian
  8.791216063273335  13.719432363065220   1.660271462738715 
 16.340366934609857   0.737272775233548   1.661622769920075 
 15.100058895695691   2.897130950283077   1.662314442542160 
 13.849749982727603   5.055741511218978   1.660820963289105 
 12.579568270499689   7.220546933178833   1.660246785279330 
 11.305620670866631   9.389216776470455   1.661595010705515 
 10.028984704279416  11.553606915268977   1.661073149353635 
 -6.239386393308164  13.756725950307660   1.660035770908035 
  1.309111030260701   0.762025145678782   1.660594431433065 
  0.079335474361796   2.930819273343344   1.661907225057600 
 -1.186342728970690   5.077694016467979   1.662063756037995 
 -2.479708944370362   7.238360655101443   1.660761318050505 
 -3.752872385036313   9.411644599562495   1.660879614876840 
 -5.003899550048391  11.585465561140481   1.660828692718275 
 -3.747610237481152  13.771165771818893   1.660128769840005 
  3.794562371878661   0.772708674210554   1.659853108009080 
  2.599378759017756   2.989811545375034   1.660920308479080 
  1.339046369215356   5.128376368009842   1.661611261635315 
 -0.010203841026176   7.255060419582922   1.661034925149750 
 -1.294639081483385   9.425827154491641   1.660242380514525 
 -2.516338051017453  11.600802738030584   1.661131098215985 
 -1.247855414473308  13.772755949340631   1.661169367793310 
  6.290666768055102   0.759583358505241   1.660845692897745 
  5.074634343004814   2.951182854917095   1.661306109616005 
  3.929348218448891   5.255633253732116   1.660593766422960 
  2.459361413032451   7.323520480410096   1.664693466177285 
  1.135056998804185   9.447097379826490   1.661297054043840 
 -0.028689647605773  11.614307923229303   1.661316736406550 
  1.265665134932398  13.760623751951940   1.661377562237310 
  8.810226321059494   0.731337341149811   1.660762384477665 
  7.596394076910063   2.883180634677535   1.661576350018260 
  6.414287733194214   5.042085211639422   1.662464505421800 
  3.642772850985658   7.979716511250324   1.658176965452025 
  3.485388974014359   9.329525676320198   1.660012807963845 
  2.478080910021567  11.601457010304047   1.661734342948425 
  3.775246992045046  13.763827237480696   1.661353025513535 
 11.324971126819021   0.725438492068140   1.660734235734405 
 10.112297939063827   2.861596989306471   1.660221700909620 
  8.920947660254720   4.987798566081027   1.661576639840865 
  7.676072897561179   7.094831274587437   1.661726766092190 
  6.399514939697793   9.053977510719450   1.658221962222075 
  4.997813596779933  11.668551577726806   1.658064236995620 
  6.307189710420443  13.739874587404788   1.660181074037955 
 13.835161139874582   0.723248521405005   1.661116941953925 
 12.604705303652876   2.879243298122319   1.660431090720420 
 11.375932366015583   5.032138753953858   1.659583368490020 
 10.116873503238441   7.186271557676105   1.661092466791215 
  8.836556386722487   9.334918693127355   1.661382727766460 
  7.503813031631545  11.477090353964838   1.659971782857240 
  7.557578528264546  14.464595464804232   1.660848789445890 
 15.088556862219507   1.451400443664350   1.662075453623970 
 13.849765228162138   3.611849047547980   1.661251303626390 
 12.603070192432359   5.774299922262572   1.660123248591300 
 11.330875302468357   7.938279204813915   1.661226991441470 
 10.048730137916500  10.097082628041761   1.661813237104275 
  8.758739083719735  12.244805823368479   1.660597450204605 
 -7.485570629741922  14.477790448433542   1.660474134032490 
  0.063018132685670   1.481091513001489   1.661774917613025 
 -1.178646075250578   3.634629026823168   1.662759701450760 
 -2.440700860706338   5.793152045858474   1.661721947691795 
 -3.723378372847347   7.962917339930186   1.660765464545415 
 -4.996103111229480  10.133552188952443   1.661423054243205 
 -6.256340769980640  12.302210097455022   1.660924878560340 
 -4.991008178221765  14.500728663233629   1.659977928656070 
  2.564641427734611   1.525134155471761   1.660598985473055 
  1.336007461117024   3.682705534456030   1.661720287644525 
  0.061553591220986   5.816686588463702   1.661700673765860 
 -1.251927953796697   7.978121443378366   1.660856297175330 
 -2.523671570626267  10.151417554058066   1.661008028173155 
 -3.760023473516734  12.323025846512186   1.660904252530815 
 -2.493621406141895  14.498453471211331   1.660773989687610 
  5.047336767973317   1.508180107242225   1.660795251701190 
  3.870859189865517   3.775661136705603   1.661136296465415 
  2.610245413262395   5.877213932367487   1.662700939806225 
  1.202649087016563   8.011272568357716   1.662752487546810 
 -0.069723039733880  10.169148948335719   1.660922287362840 
 -1.266253453545301  12.331121437189816   1.661782714671930 
  0.017958085106782  14.476510082456825   1.661136087564165 
  7.561373049282997   1.455922220085046   1.661340148655400 
  6.352054232740457   3.631271445642042   1.662385545833790 
  5.325370336637000   6.026660521205633   1.660987074406575 
  2.368048369279483  10.153276880003112   1.661872428325155 
  1.238736044449805  12.319821432080044   1.661967279027480 
  2.528367372534168  14.471990126471391   1.661405313338460 
 10.076879826164333   1.433574610407664   1.660862719171305 
  8.867257245104817   3.568639425685300   1.661112160117320 
  7.690143264653997   5.684235882586083   1.662902863452120 
  6.298582630926798   7.532658860213306   1.659401553007440 
  3.733608953249118  12.328605559427151   1.660731625872915 
  5.049916739543230  14.457628721255746   1.661106424778205 
 12.584894321630481   1.438854578002866   1.660898127130065 
 11.357432939911162   3.592694539706331   1.660190195192925 
 10.133442921699842   5.744847904102786   1.660829726322060 
  8.854350229263904   7.880212821197497   1.661658108835575 
  7.546078369852674   9.961200504733485   1.660526735516505 
  6.288709575499124  12.289269468889124   1.659524893629390 
  5.025287389388932   9.979047344605606   1.658049573549810 
