 B Sn N 
 1.0
 17.527899999999772   0.000000000000000   0.000000000000000
 -8.763949999999658  15.179606674993195   0.000000000000000
  0.000000000000001   0.000000000000002  15.000000000000000
 B Sn N 
  48   1  48
Cartesian
  7.527540242401093  14.476348923167178   1.665091525726380 
 15.015347151773350   1.450643517250179   1.665208277967075 
 13.756496225341884   3.616197594965143   1.665171772754265 
 12.511263987934367   5.784580695656793   1.664566530218730 
 11.286691390983206   7.956047857298566   1.665778143322455 
 10.057257425837550  10.134400053948379   1.666219139756985 
  8.807390796194001  12.321290094632516   1.665735718111020 
 -7.494791948348798  14.446878386201663   1.665307076812320 
 -0.009148086647362   1.422421816440907   1.665091525726380 
 -1.273804651052344   3.597466265626295   1.664642580413640 
 -2.519516971075699   5.774265136952867   1.665190070959245 
 -3.746099623491776   7.945976730026820   1.665460002877695 
 -4.977063129329494  10.115456355267066   1.665781014696615 
 -6.228617874240743  12.284593709185099   1.665561628682415 
 -4.989111450787192  14.431481810919243   1.665561628682415 
  2.497112882406781   1.391568138077023   1.665735718111020 
  1.214649825172684   3.544323947176956   1.664933855374245 
 -0.032258976806795   5.749161392234358   1.665833831266080 
 -1.249456598974914   7.934213908835177   1.666326475042215 
 -2.473141505621989  10.105708025904510   1.665763447097460 
 -3.727711977116483  12.271953750751690   1.664910019106805 
 -2.484806025520651  14.432172284559494   1.665781014696615 
  5.015948527763578   1.402596905802344   1.666219139756970 
  3.720437903569271   3.502151264214819   1.664946426834045 
  2.415859397027428   5.664535941408094   1.665873049168935 
  1.252597442096580   7.903511188191833   1.666649737161435 
  0.042463867609283  10.095241711918574   1.666643460138765 
 -1.224402912793274  12.268586714023174   1.665763447097460 
  0.009500195849022  14.450866429992836   1.665460002877695 
  7.517173851024833   1.427051958038131   1.665778143322455 
  6.258458279285372   3.569346053553294   1.665247048252080 
  4.940336674074280   5.562494284259039   1.666091856873390 
  2.545624966649474  10.143100556302301   1.666649737161435 
  1.268008610078680  12.294591557174515   1.666326475042215 
  2.503548931334940  14.474470489694635   1.665190070959245 
 10.010005874945557   1.452274561120582   1.664566530218730 
  8.753623268158300   3.617304445765248   1.664769220576110 
  7.493560609639772   5.793349002138657   1.664767724623455 
  6.416874692115492   8.119933150844300   1.666091856873390 
  5.066265386258183  10.255173775465519   1.665873049168935 
  3.768918409126077  12.332993753250738   1.665833831266080 
  5.011568212843777  14.484051410411531   1.664642580413640 
 12.510496843987330   1.458063360261946   1.665171772754250 
 11.255625438496335   3.621319860488659   1.665007652603775 
 10.008101804482967   5.790125007687546   1.664769220576110 
  8.802052496021085   7.974980470804583   1.665247048252080 
  7.591234702732621  10.206567986166325   1.664946426834045 
  6.301818048748477  12.355557777064270   1.664933855374245 
  4.314761753938663   7.628623110235665   1.660924793408835 
  8.782813612957053  13.751874055916151   1.665153642969960 
 16.268516967228429   0.727119320025687   1.665035339232405 
 15.003792754416235   2.889194654944089   1.664810482669665 
 13.754909182769190   5.059868891664398   1.664496395730615 
 12.526934220655150   7.227795997253229   1.664822342018385 
 11.297176609676882   9.399511977044783   1.665931811248815 
 10.048448021794623  11.576480681600758   1.665790863716820 
 -6.241228855785101  13.723127130333543   1.665076590307935 
  1.245896810750911   0.697551222075240   1.665153642969990 
 -0.032717467116161   2.853272836965030   1.664295396008010 
 -1.281386760708735   5.038761378218886   1.664885935786755 
 -2.505317205079175   7.217862570246424   1.665401583585900 
 -3.731121496822861   9.389254530869346   1.665535574186955 
 -4.980312507506238  11.557435320647036   1.664983196064990 
 -3.735226557689638  13.713987445518626   1.664983196064990 
  3.762659940549660   0.689176359276092   1.665790863716820 
  2.470019106179525   2.816939534266084   1.665037898343060 
  1.183343945514303   4.969823912289017   1.665384018830115 
 -0.016806721974478   7.197627894548909   1.666239318137655 
 -1.223588900406551   9.380962317006174   1.666108765248780 
 -2.477132474374286  11.549925071270792   1.665003043842000 
 -1.232931408401036  13.716246690976972   1.665535574186955 
  6.272334435877442   0.696230032016591   1.665931811248815 
  5.005785252776218   2.840701073573645   1.665411688835340 
  3.682250472242370   4.920807913577804   1.664788959457920 
  2.402218406569439   7.070654241210993   1.666089159913515 
  1.299408524682148   9.369538108859439   1.666519465773840 
  0.028016157663340  11.548805868593899   1.666108765248780 
  1.260451336924652  13.740365014569809   1.665401583585900 
  8.767974449657112   0.717086690305752   1.664822342018385 
  7.512955487795147   2.873186287929702   1.665205350597945 
  6.251288458484640   5.022528644229857   1.664726961700560 
  3.841705295340986   9.563918669424666   1.666089159913515 
  2.522230321667446  11.595369056467998   1.666239318137655 
  3.759573548821831  13.769960753293777   1.664885935786755 
 11.259417305044307   0.737592730700460   1.664496395730615 
 10.004460881103526   2.899397117852988   1.664369358205215 
  8.745969060864070   5.070264378747212   1.664261512636275 
  7.539969118435601   7.254589021994699   1.664726961700560 
  6.343542862142754   9.530301546707822   1.664788959457920 
  5.051640498700287  11.669910081182829   1.665384018830115 
  6.276596792042588  13.781325694743275   1.664295396007995 
 13.763742695886132   0.741364949643599   1.664810482669665 
 12.504866191095585   2.900064108761693   1.665169181532870 
 11.255241167180849   5.065812122412863   1.664369358205215 
 10.032187715093038   7.236624501646402   1.665205350597945 
  8.806735618453354   9.424140223975444   1.665411688835340 
  7.559430641830350  11.632058894639023   1.665037898343060 
