B N O                                   
   1.0000000000000000     
     8.7639499999999995  -15.1796066749929999    0.0000000000000000
     8.7639499999999995   15.1796066749929999    0.0000000000000000
     0.0000000000000000    0.0000000000000000   15.0000000000000000
   B    N    O 
    47    49     1
Selective dynamics
Direct
  0.9055982655263226  0.9533695541467336  0.1109871244054584   T   T   T
  0.9056479459385595  0.0963250460837089  0.1110389048671751   T   T   T
  0.9055523078887540  0.2390217847823144  0.1111092745034808   T   T   T
  0.9052427764108760  0.3814857371544570  0.1110007756299950   T   T   T
  0.9041650172928021  0.5237547224388770  0.1109816903074697   T   T   T
  0.9038210818792639  0.6662549919684804  0.1110549812347751   T   T   T
  0.9041376721183377  0.8091318193405319  0.1110143610363913   T   T   T
  0.0469540734881320  0.9514690898197679  0.1109754325459412   T   T   T
  0.0476521998100110  0.0949855011509381  0.1109787004385067   T   T   T
  0.0482864961976987  0.2384738680256461  0.1110130722179694   T   T   T
  0.0484985891578201  0.3814260075343640  0.1110174335153912   T   T   T
  0.0481492596507075  0.5238050044014878  0.1109773911540301   T   T   T
  0.0471503739885502  0.6661680095111850  0.1109909242646808   T   T   T
  0.0468636152804843  0.8086861888033124  0.1109674682888005   T   T   T
  0.1895779433946799  0.9509656702719216  0.1110332833135715   T   T   T
  0.1893719425477374  0.0932997739138650  0.1110641366337648   T   T   T
  0.1898203395502794  0.2364848130995512  0.1110144820159749   T   T   T
  0.1912959173222848  0.3808757273649834  0.1110256998160969   T   T   T
  0.1923427399027437  0.5239416280347362  0.1110149753612573   T   T   T
  0.1905591856064737  0.6663935451043422  0.1110658191264239   T   T   T
  0.1899250119822637  0.8087432013644593  0.1109859901274068   T   T   T
  0.3327869032008923  0.9514466704704876  0.1110364748447280   T   T   T
  0.3322189826825835  0.0928258141241567  0.1111243129456822   T   T   T
  0.3322096004998545  0.2338031139748973  0.1110105980701116   T   T   T
  0.3317868366655872  0.3763204017653168  0.1110371928323166   T   T   T
  0.3373798070228501  0.5252101411819073  0.1110750789448506   T   T   T
  0.3339075188965163  0.6671925061453164  0.1111019898689073   T   T   T
  0.3331815026952316  0.8095283925577301  0.1110744902851974   T   T   T
  0.4762506779939712  0.9534765309672658  0.1109785702168077   T   T   T
  0.4758737008798462  0.0946440774071280  0.1109923468155885   T   T   T
  0.4742010290560726  0.2352684228773113  0.1109821305310211   T   T   T
  0.4772593409175636  0.6729998014718660  0.1110161904830491   T   T   T
  0.4767070688500401  0.8127538709581801  0.1110487738686053   T   T   T
  0.6199252985515254  0.9545909713398161  0.1109899762330613   T   T   T
  0.6194625763355741  0.0962766820605451  0.1109862245131542   T   T   T
  0.6190714896953275  0.2382695556471423  0.1109786793187934   T   T   T
  0.6191006981943434  0.3813791055071713  0.1109945090133974   T   T   T
  0.6148700120521802  0.5228878386355489  0.1111540985993082   T   T   T
  0.6228230463430883  0.6721988526525153  0.1110350979038296   T   T   T
  0.6208087243352191  0.8132694499415244  0.1109922356205432   T   T   T
  0.7632062879121811  0.9545120731425695  0.1109908642158974   T   T   T
  0.7627737140412673  0.0967091504465503  0.1110745051230272   T   T   T
  0.7623836863094695  0.2389399894051260  0.1110734892377971   T   T   T
  0.7620067729110200  0.3813165081320967  0.1110010155071694   T   T   T
  0.7600953706185556  0.5237712635389642  0.1111019283695746   T   T   T
  0.7604336646274614  0.6662721298033202  0.1111177969472416   T   T   T
  0.7639208399971247  0.8123037263493711  0.1110278826522407   T   T   T
  0.9519332447481791  0.9044081377294021  0.1109644401207757   T   T   T
  0.9528642165019459  0.0482868706478512  0.1109768133344909   T   T   T
  0.9532078170823146  0.1914370649942799  0.1110514444023230   T   T   T
  0.9532642774217669  0.3341892080377832  0.1110306195454636   T   T   T
  0.9526357849812148  0.4765805289393407  0.1109379169917709   T   T   T
  0.9517357943429632  0.6188289762244330  0.1109894480972016   T   T   T
  0.9515678015380646  0.7613160332275954  0.1109910914800694   T   T   T
  0.0943960261020475  0.9036841707704553  0.1109609528845732   T   T   T
  0.0944175197506386  0.0465317239234048  0.1109743359446103   T   T   T
  0.0950087870602177  0.1900275158568407  0.1109648048580115   T   T   T
  0.0961628509060920  0.3338646161342180  0.1109921593067317   T   T   T
  0.0967128120301534  0.4765963848777017  0.1109668853038756   T   T   T
  0.0952939438676922  0.6188569350080104  0.1109980286842414   T   T   T
  0.0946338486532415  0.7611919023117422  0.1109438459939023   T   T   T
  0.2374605199800381  0.9036999391688088  0.1109903328583791   T   T   T
  0.2370234814682850  0.0457772671339393  0.1110903925921775   T   T   T
  0.2364621564577236  0.1880523641351372  0.1110363295738573   T   T   T
  0.2367993055029795  0.3316854531014073  0.1110300159046838   T   T   T
  0.2412854263069826  0.4765339193716989  0.1110122755914894   T   T   T
  0.2388187014888769  0.6190756600815703  0.1110571366105355   T   T   T
  0.2378827929930052  0.7614618670982727  0.1110401744192659   T   T   T
  0.3808562774303671  0.9046041122756835  0.1110028883721378   T   T   T
  0.3804837741832444  0.0462469974114718  0.1110459385797238   T   T   T
  0.3796317596672863  0.1871554483443149  0.1110686649381180   T   T   T
  0.3717621968549746  0.3256396651384406  0.1108322841808091   T   T   T
  0.3799592425600292  0.4705864401907353  0.1110977056043394   T   T   T
  0.3823843424656906  0.6200079162094685  0.1110425676190693   T   T   T
  0.3812412002620080  0.7625455027698363  0.1110845939860460   T   T   T
  0.5245518936239695  0.9072322556073745  0.1109839797682275   T   T   T
  0.5241458960866272  0.0482047123360770  0.1109311818754104   T   T   T
  0.5238440908296949  0.1893470516066892  0.1109637430049950   T   T   T
  0.5277035902940209  0.3271729846656379  0.1107914149030099   T   T   T
  0.5148619884808975  0.4647663582556156  0.1111800879909055   T   T   T
  0.5330587484171770  0.6389707814699032  0.1109349237340035   T   T   T
  0.5254435068549287  0.7675976443750364  0.1109945461705211   T   T   T
  0.6682092703930145  0.9078525015444884  0.1109654973658050   T   T   T
  0.6675903684473476  0.0493803669194765  0.1109955425447436   T   T   T
  0.6672151773478505  0.1912571793384960  0.1110005984634265   T   T   T
  0.6671978531887367  0.3335746633964363  0.1109723497757733   T   T   T
  0.6639997574735624  0.4767221940342861  0.1111094508085858   T   T   T
  0.6641113624447856  0.6183191354902863  0.1110953791902466   T   T   T
  0.6699908110980523  0.7670510897240695  0.1109915396737544   T   T   T
  0.8109838486977904  0.9069572278103774  0.1109729656131430   T   T   T
  0.8106321336672432  0.0493786207181199  0.1110256926284403   T   T   T
  0.8103880351901571  0.1917262422624925  0.1111071125678454   T   T   T
  0.8100497189782632  0.3340952272713987  0.1110070175855793   T   T   T
  0.8086039393052540  0.4765666348427693  0.1109973500636593   T   T   T
  0.8081627830454685  0.6188634343897721  0.1110990653961965   T   T   T
  0.8088955282625329  0.7618575252237800  0.1110444048109129   T   T   T
  0.4731085429555059  0.5101352676281279  0.1112895408417097   T   T   T

  0.00000000E+00  0.00000000E+00  0.00000000E+00
  0.00000000E+00  0.00000000E+00  0.00000000E+00
  0.00000000E+00  0.00000000E+00  0.00000000E+00
  0.00000000E+00  0.00000000E+00  0.00000000E+00
  0.00000000E+00  0.00000000E+00  0.00000000E+00
  0.00000000E+00  0.00000000E+00  0.00000000E+00
  0.00000000E+00  0.00000000E+00  0.00000000E+00
  0.00000000E+00  0.00000000E+00  0.00000000E+00
  0.00000000E+00  0.00000000E+00  0.00000000E+00
  0.00000000E+00  0.00000000E+00  0.00000000E+00
  0.00000000E+00  0.00000000E+00  0.00000000E+00
  0.00000000E+00  0.00000000E+00  0.00000000E+00
  0.00000000E+00  0.00000000E+00  0.00000000E+00
  0.00000000E+00  0.00000000E+00  0.00000000E+00
  0.00000000E+00  0.00000000E+00  0.00000000E+00
  0.00000000E+00  0.00000000E+00  0.00000000E+00
  0.00000000E+00  0.00000000E+00  0.00000000E+00
  0.00000000E+00  0.00000000E+00  0.00000000E+00
  0.00000000E+00  0.00000000E+00  0.00000000E+00
  0.00000000E+00  0.00000000E+00  0.00000000E+00
  0.00000000E+00  0.00000000E+00  0.00000000E+00
  0.00000000E+00  0.00000000E+00  0.00000000E+00
  0.00000000E+00  0.00000000E+00  0.00000000E+00
  0.00000000E+00  0.00000000E+00  0.00000000E+00
  0.00000000E+00  0.00000000E+00  0.00000000E+00
  0.00000000E+00  0.00000000E+00  0.00000000E+00
  0.00000000E+00  0.00000000E+00  0.00000000E+00
  0.00000000E+00  0.00000000E+00  0.00000000E+00
  0.00000000E+00  0.00000000E+00  0.00000000E+00
  0.00000000E+00  0.00000000E+00  0.00000000E+00
  0.00000000E+00  0.00000000E+00  0.00000000E+00
  0.00000000E+00  0.00000000E+00  0.00000000E+00
  0.00000000E+00  0.00000000E+00  0.00000000E+00
  0.00000000E+00  0.00000000E+00  0.00000000E+00
  0.00000000E+00  0.00000000E+00  0.00000000E+00
  0.00000000E+00  0.00000000E+00  0.00000000E+00
  0.00000000E+00  0.00000000E+00  0.00000000E+00
  0.00000000E+00  0.00000000E+00  0.00000000E+00
  0.00000000E+00  0.00000000E+00  0.00000000E+00
  0.00000000E+00  0.00000000E+00  0.00000000E+00
  0.00000000E+00  0.00000000E+00  0.00000000E+00
  0.00000000E+00  0.00000000E+00  0.00000000E+00
  0.00000000E+00  0.00000000E+00  0.00000000E+00
  0.00000000E+00  0.00000000E+00  0.00000000E+00
  0.00000000E+00  0.00000000E+00  0.00000000E+00
  0.00000000E+00  0.00000000E+00  0.00000000E+00
  0.00000000E+00  0.00000000E+00  0.00000000E+00
  0.00000000E+00  0.00000000E+00  0.00000000E+00
  0.00000000E+00  0.00000000E+00  0.00000000E+00
  0.00000000E+00  0.00000000E+00  0.00000000E+00
  0.00000000E+00  0.00000000E+00  0.00000000E+00
  0.00000000E+00  0.00000000E+00  0.00000000E+00
  0.00000000E+00  0.00000000E+00  0.00000000E+00
  0.00000000E+00  0.00000000E+00  0.00000000E+00
  0.00000000E+00  0.00000000E+00  0.00000000E+00
  0.00000000E+00  0.00000000E+00  0.00000000E+00
  0.00000000E+00  0.00000000E+00  0.00000000E+00
  0.00000000E+00  0.00000000E+00  0.00000000E+00
  0.00000000E+00  0.00000000E+00  0.00000000E+00
  0.00000000E+00  0.00000000E+00  0.00000000E+00
  0.00000000E+00  0.00000000E+00  0.00000000E+00
  0.00000000E+00  0.00000000E+00  0.00000000E+00
  0.00000000E+00  0.00000000E+00  0.00000000E+00
  0.00000000E+00  0.00000000E+00  0.00000000E+00
  0.00000000E+00  0.00000000E+00  0.00000000E+00
  0.00000000E+00  0.00000000E+00  0.00000000E+00
  0.00000000E+00  0.00000000E+00  0.00000000E+00
  0.00000000E+00  0.00000000E+00  0.00000000E+00
  0.00000000E+00  0.00000000E+00  0.00000000E+00
  0.00000000E+00  0.00000000E+00  0.00000000E+00
  0.00000000E+00  0.00000000E+00  0.00000000E+00
  0.00000000E+00  0.00000000E+00  0.00000000E+00
  0.00000000E+00  0.00000000E+00  0.00000000E+00
  0.00000000E+00  0.00000000E+00  0.00000000E+00
  0.00000000E+00  0.00000000E+00  0.00000000E+00
  0.00000000E+00  0.00000000E+00  0.00000000E+00
  0.00000000E+00  0.00000000E+00  0.00000000E+00
  0.00000000E+00  0.00000000E+00  0.00000000E+00
  0.00000000E+00  0.00000000E+00  0.00000000E+00
  0.00000000E+00  0.00000000E+00  0.00000000E+00
  0.00000000E+00  0.00000000E+00  0.00000000E+00
  0.00000000E+00  0.00000000E+00  0.00000000E+00
  0.00000000E+00  0.00000000E+00  0.00000000E+00
  0.00000000E+00  0.00000000E+00  0.00000000E+00
  0.00000000E+00  0.00000000E+00  0.00000000E+00
  0.00000000E+00  0.00000000E+00  0.00000000E+00
  0.00000000E+00  0.00000000E+00  0.00000000E+00
  0.00000000E+00  0.00000000E+00  0.00000000E+00
  0.00000000E+00  0.00000000E+00  0.00000000E+00
  0.00000000E+00  0.00000000E+00  0.00000000E+00
  0.00000000E+00  0.00000000E+00  0.00000000E+00
  0.00000000E+00  0.00000000E+00  0.00000000E+00
  0.00000000E+00  0.00000000E+00  0.00000000E+00
  0.00000000E+00  0.00000000E+00  0.00000000E+00
  0.00000000E+00  0.00000000E+00  0.00000000E+00
  0.00000000E+00  0.00000000E+00  0.00000000E+00
  0.00000000E+00  0.00000000E+00  0.00000000E+00
