Species order: X N B                    
   2.51242800000000     
     5.9449720136058266    0.0000000000000000    0.0000000000000000
    -2.9724860068029120    5.1484967885702053   -0.0000000000000001
     0.0000000000000000    0.0000000000000009    5.3101128803662583
   Si   N    B 
     1   143   144
Direct
  0.5555555555555571  0.4444444444444429  0.3750000000000000
  0.1111075025601723  0.0555452935440728  0.1251209461678163
  0.6111336998599920  0.5556007330533126  0.1248683290873356
  0.4444369394746489  0.0555454816764769  0.1251821935950820
  0.9444545183235231  0.5555630605253514  0.1251821935950820
  0.7777760729241601  0.0555547031287479  0.1250845659497258
  0.1111160325313618  0.7222246829323458  0.6248858542433784
  0.4444369394746489  0.7222247911315077  0.6248178064049182
  0.2777638696254151  0.2222072601030769  0.6247997920683881
  0.7777927398969231  0.7222361303745851  0.6247997920683881
  0.6111100571443336  0.2222072601030769  0.6247997920683881
  0.9444452968712521  0.2222239270758398  0.6249154340502739
  0.2777753170676549  0.7222246829323458  0.1251141457566216
  0.1111032947479721  0.2222183140406504  0.1251108479231000
  0.4444428501864076  0.2222190337061506  0.1252909967012148
  0.6111100571443336  0.7222361303745851  0.1252002079316119
  0.9444545183235231  0.7222247911315077  0.1251821935950820
  0.7777816859593493  0.2222183140406504  0.1251108479231000
  0.1111152770518914  0.8888847229481086  0.6248853522241453
  0.4444361125628885  0.8888847229481086  0.6248853522241453
  0.2777638696254151  0.3888899428556667  0.6247997920683881
  0.6111336998599920  0.3888663001400080  0.6251316709126645
  0.7777816859593493  0.8888967052520279  0.6248891520769002
  0.9444547064559271  0.3888955423494283  0.6248790538321836
  0.1111075025601723  0.3888955423494283  0.1251209461678163
  0.2777753170676549  0.8888839674686384  0.1251141457566216
  0.6111044576505716  0.8888924974398276  0.1251209461678163
  0.4443992669466879  0.3888663001400080  0.1248683290873356
  0.9444547064559271  0.8888924974398276  0.1251209461678163
  0.7777927398969231  0.3888899428556667  0.1252002079316119
  0.2777752088684922  0.5555630605253514  0.6248178064049182
  0.1111075025601723  0.0555452935440728  0.6248790538321836
  0.6111336998599920  0.5556007330533126  0.6251316709126645
  0.4444369394746489  0.0555454816764769  0.6248178064049182
  0.9444545183235231  0.5555630605253514  0.6248178064049182
  0.1111152770518914  0.5555638874371110  0.1251146477758546
  0.7777760729241601  0.0555547031287479  0.6249154340502741
  0.2777752088684922  0.0555454816764769  0.1251821935950820
  0.4444428501864076  0.5555571498135923  0.1252909967012148
  0.7777809662938492  0.5555571498135923  0.1252909967012148
  0.6111044576505716  0.0555452935440728  0.1251209461678163
  0.4444428501864076  0.5555571498135923  0.6247090032987851
  0.9444452968712521  0.0555547031287479  0.1250845659497258
  0.2777753170676549  0.7222246829323458  0.6248858542433784
  0.1111032947479721  0.2222183140406504  0.6248891520769002
  0.4444428501864076  0.2222190337061506  0.6247090032987851
  0.6111100571443336  0.7222361303745851  0.6247997920683881
  0.9444545183235231  0.7222247911315077  0.6248178064049182
  0.7777816859593493  0.2222183140406504  0.6248891520769002
  0.1111160325313618  0.7222246829323458  0.1251141457566216
  0.4444369394746489  0.7222247911315077  0.1251821935950820
  0.2777638696254151  0.2222072601030769  0.1252002079316119
  0.7777927398969231  0.7222361303745851  0.1252002079316119
  0.6111100571443336  0.2222072601030769  0.1252002079316119
  0.9444452968712521  0.2222239270758398  0.1250845659497258
  0.1111075025601723  0.3888955423494283  0.6248790538321836
  0.2777753170676549  0.8888839674686384  0.6248858542433784
  0.6111044576505716  0.8888924974398276  0.6248790538321836
  0.4443992669466879  0.3888663001400080  0.6251316709126645
  0.9444547064559271  0.8888924974398276  0.6248790538321836
  0.1111152770518914  0.8888847229481086  0.1251146477758546
  0.7777927398969231  0.3888899428556667  0.6247997920683881
  0.4444361125628885  0.8888847229481086  0.1251146477758546
  0.2777638696254151  0.3888899428556667  0.1252002079316119
  0.2777752088684922  0.5555630605253514  0.1251821935950820
  0.6111336998599920  0.3888663001400080  0.1248683290873356
  0.7777816859593493  0.8888967052520279  0.1251108479231000
  0.9444547064559271  0.3888955423494283  0.1251209461678163
  0.1111152770518914  0.5555638874371110  0.6248853522241453
  0.2777752088684922  0.0555454816764769  0.6248178064049182
  0.7777809662938492  0.5555571498135923  0.6247090032987851
  0.6111044576505716  0.0555452935440728  0.6248790538321836
  0.9444452968712521  0.0555547031287479  0.6249154340502741
  0.0545610115926081  0.1104690186196097  0.3750000000000000
  0.5552687599570377  0.6193729610432058  0.3750000000000000
  0.3877079314349385  0.1087491962032194  0.3750000000000000
  0.8912508037967802  0.6122920685650618  0.3750000000000000
  0.7225746736936656  0.1104690186196097  0.3750000000000000
  0.0555515696329788  0.7777784425096664  0.8750000000000000
  0.3888935395433514  0.7777784425096664  0.8750000000000000
  0.2222216928475385  0.2777775130904369  0.8750000000000000
  0.7222224869095630  0.7777783071524619  0.8750000000000000
  0.5555553708504296  0.2777787798851711  0.8750000000000000
  0.8888894580180522  0.2777767693721204  0.8750000000000000
  0.2222222222222214  0.7777777777777786  0.3750000000000000
  0.0545610115926081  0.2774253263063342  0.3750000000000000
  0.3806270389567945  0.2692291322471681  0.3750000000000000
  0.5551869096665035  0.7811134752158768  0.3750000000000000
  0.8925932322160374  0.7811134752158768  0.3750000000000000
  0.7237860877296669  0.2762139122703333  0.3750000000000000
  0.0555537880827614  0.9444462119172385  0.8750000000000000
  0.3888935395433514  0.9444484303670213  0.8750000000000000
  0.2222207379259946  0.4444412526709748  0.8750000000000000
  0.5555555555555571  0.4444444444444429  0.8750000000000000
  0.7222232306278800  0.9444460219792676  0.8750000000000000
  0.8888871814116442  0.4444412526709748  0.8750000000000000
  0.0557179976756702  0.4447693286846690  0.3750000000000000
  0.2218546455542607  0.9435254502767692  0.3750000000000000
  0.5552306713153309  0.9442820023243297  0.3750000000000000
  0.3806270389567944  0.4447312400429621  0.3750000000000000
  0.8895309813803903  0.9454389884073919  0.3750000000000000
  0.7307708677528318  0.4447312400429621  0.3750000000000000
  0.2222215574903340  0.6111064604566487  0.8750000000000000
  0.0555539780207322  0.1111105419819476  0.8750000000000000
  0.5555553708504296  0.6111099242985941  0.8750000000000000
  0.3888912791179675  0.1111158915692776  0.8750000000000000
  0.8888841084307222  0.6111087208820327  0.8750000000000000
  0.0564745497232309  0.6116625286108275  0.3750000000000000
  0.7222232306278800  0.1111105419819476  0.8750000000000000
  0.2188865247841232  0.1074067677839626  0.3750000000000000
  0.3877079314349385  0.6122920685650618  0.3750000000000000
  0.7307708677528318  0.6193729610432058  0.3750000000000000
  0.5551869096665035  0.1074067677839627  0.3750000000000000
  0.3888912791179675  0.6111087208820327  0.8750000000000000
  0.8888888888888857  0.1111111111111143  0.3750000000000000
  0.2222222222222214  0.7777777777777786  0.8750000000000000
  0.0555539780207322  0.2777767693721204  0.8750000000000000
  0.3888900757014057  0.2777787798851711  0.8750000000000000
  0.5555587473290253  0.7777792620740053  0.8750000000000000
  0.8888871814116442  0.7777792620740053  0.8750000000000000
  0.7222224869095630  0.2777775130904369  0.8750000000000000
  0.0564745497232309  0.7781453544457393  0.3750000000000000
  0.3883374713891725  0.7781453544457393  0.3750000000000000
  0.2190944912073305  0.2762139122703333  0.3750000000000000
  0.7237860877296670  0.7809055087926692  0.3750000000000000
  0.5552687599570377  0.2692291322471681  0.3750000000000000
  0.8895309813803903  0.2774253263063342  0.3750000000000000
  0.0555537880827614  0.4444409094988515  0.8750000000000000
  0.2222215574903340  0.9444484303670213  0.8750000000000000
  0.5555590905011485  0.9444462119172385  0.8750000000000000
  0.3888900757014057  0.4444446291495703  0.8750000000000000
  0.8888894580180522  0.9444460219792676  0.8750000000000000
  0.0557179976756702  0.9442820023243297  0.3750000000000000
  0.7222212201148288  0.4444446291495703  0.8750000000000000
  0.3883374713891725  0.9435254502767692  0.3750000000000000
  0.2188865247841232  0.4448130903334964  0.3750000000000000
  0.2218546455542607  0.6116625286108275  0.3750000000000000
  0.7225746736936656  0.9454389884073919  0.3750000000000000
  0.8925932322160374  0.4448130903334963  0.3750000000000000
  0.0555515696329788  0.6111064604566487  0.8750000000000000
  0.2222207379259946  0.1111128185883557  0.8750000000000000
  0.7222212201148288  0.6111099242985941  0.8750000000000000
  0.5555587473290253  0.1111128185883557  0.8750000000000000
  0.8888888888888857  0.1111111111111143  0.8750000000000000
  0.1089117868968000  0.0539595922611053  0.3750000000000000
  0.6248681703959551  0.5830696741252394  0.3750000000000000
  0.4439817610066599  0.0535492742265131  0.3750000000000000
  0.9464507257734869  0.5560182389933399  0.3750000000000000
  0.7783340634603862  0.0558336983968609  0.3750000000000000
  0.1111147550213236  0.7222240441773259  0.8750000000000000
  0.4444466523562978  0.7222394984059622  0.8750000000000000
  0.2777436982113057  0.2222006251834204  0.8750000000000000
  0.7777993748165798  0.7222563017886940  0.8750000000000000
  0.6111235936387861  0.2222006251834204  0.8750000000000000
  0.9444387910514461  0.2222109154362280  0.8750000000000000
  0.2774844428474680  0.7225155571525321  0.3750000000000000
  0.1085573172321799  0.2209453252827542  0.3750000000000000
  0.4423764429298726  0.2180862191930813  0.3750000000000000
  0.6125741728304348  0.7297930968415126  0.3750000000000000
  0.9464507257734869  0.7237658201134822  0.3750000000000000
  0.7790546747172460  0.2209453252827542  0.3750000000000000
  0.1111075779658795  0.8888924220341202  0.8750000000000000
  0.4444515107349125  0.8888924220341202  0.8750000000000000
  0.2777436982113057  0.3888764063612141  0.8750000000000000
  0.6111215446038931  0.3888784553961066  0.8750000000000000
  0.7777925747522184  0.8889184828377665  0.8750000000000000
  0.9444511171025520  0.3888745834156104  0.8750000000000000
  0.1089117868968000  0.3882855279690230  0.3750000000000000
  0.2774844428474680  0.8883022190282646  0.3750000000000000
  0.6117144720309768  0.8910882131032003  0.3750000000000000
  0.4169303258747606  0.3751318296040446  0.3750000000000000
  0.9460404077388942  0.8910882131032003  0.3750000000000000
  0.7838855906777490  0.3874258271695651  0.3750000000000000
  0.2777605015940377  0.5555533476437018  0.8750000000000000
  0.1110901329797294  0.0555488828974475  0.8750000000000000
  0.6111215446038931  0.5555764225411154  0.8750000000000000
  0.4444466523562978  0.0555404872836714  0.8750000000000000
  0.9444595127163288  0.5555533476437018  0.8750000000000000
  0.1112080338047404  0.5557494009428093  0.3750000000000000
  0.7777890845637719  0.0555612089485538  0.8750000000000000
  0.2762341798865175  0.0535492742265131  0.3750000000000000
  0.4423764429298726  0.5576235570701271  0.3750000000000000
  0.7819137808069191  0.5576235570701271  0.3750000000000000
  0.6117144720309768  0.0539595922611053  0.3750000000000000
  0.4444326567106135  0.5555673432893870  0.8750000000000000
  0.9441663016031390  0.0558336983968609  0.3750000000000000
  0.2777759558226739  0.7222240441773259  0.8750000000000000
  0.1110815171622333  0.2222074252477811  0.8750000000000000
  0.4444326567106135  0.2221986467545624  0.8750000000000000
  0.6111235936387861  0.7222563017886940  0.8750000000000000
  0.9444595127163288  0.7222394984059622  0.8750000000000000
  0.7777925747522184  0.2222074252477811  0.8750000000000000
  0.1116977809717355  0.7225155571525321  0.3750000000000000
  0.4439817610066599  0.7237658201134822  0.3750000000000000
  0.2702069031584871  0.2161144093222507  0.3750000000000000
  0.7838855906777490  0.7297930968415126  0.3750000000000000
  0.6125741728304348  0.2161144093222507  0.3750000000000000
  0.9441663016031390  0.2216659365396139  0.3750000000000000
  0.1110901329797294  0.3888745834156104  0.8750000000000000
  0.2777759558226739  0.8888852449786764  0.8750000000000000
  0.6111254165843897  0.8889098670202705  0.8750000000000000
  0.4444235774588848  0.3888784553961066  0.8750000000000000
  0.9444511171025520  0.8889098670202705  0.8750000000000000
  0.1112080338047404  0.8887919661952598  0.3750000000000000
  0.7777993748165798  0.3888764063612141  0.8750000000000000
  0.4442505990571906  0.8887919661952598  0.3750000000000000
  0.2702069031584871  0.3874258271695651  0.3750000000000000
  0.2762341798865175  0.5560182389933399  0.3750000000000000
  0.6248681703959551  0.3751318296040446  0.3750000000000000
  0.7790546747172460  0.8914426827678203  0.3750000000000000
  0.9460404077388942  0.3882855279690230  0.3750000000000000
  0.1111075779658795  0.5555484892650874  0.8750000000000000
  0.2777605015940377  0.0555404872836714  0.8750000000000000
  0.7778013532454373  0.5555673432893870  0.8750000000000000
  0.6111254165843897  0.0555488828974475  0.8750000000000000
  0.9444387910514461  0.0555612089485538  0.8750000000000000
  0.0555145961580398  0.1110817112339758  0.1248893483740826
  0.5555379066433890  0.6112267660917747  0.1245722773340129
  0.3888200997099640  0.1109735327532708  0.1248808641309495
  0.8890264672467293  0.6111799002900358  0.1248808641309495
  0.7222337817426001  0.1110817112339758  0.1248893483740826
  0.0556165831714499  0.7778021878001460  0.6251056919963142
  0.3888522712953601  0.7778021878001460  0.6251056919963142
  0.2221102761453313  0.2777218047393334  0.6251855178308977
  0.7222781952606665  0.7778897238546688  0.6251855178308977
  0.5555379066433890  0.2776444738849498  0.6254277226659872
  0.8889182887660241  0.2777662182573996  0.6251106516259172
  0.2222222222222214  0.7777777777777786  0.1248966289847674
  0.0555145961580398  0.2777662182573996  0.1248893483740826
  0.3887732339082252  0.2776444738849498  0.1245722773340129
  0.5555356997968189  0.7778582819147420  0.1248707685416239
  0.8889892487845877  0.7778582819147420  0.1248707685416239
  0.7222781952606665  0.2777218047393334  0.1248144821691024
  0.0555656010230304  0.9444343989769693  0.6251093854868370
  0.3888522712953601  0.9443834168285499  0.6251056919963142
  0.2221417180852580  0.4444643002031809  0.6251292314583762
  0.5555555555555571  0.4444444444444429  0.6256095843458964
  0.7222337817426001  0.9444854038419603  0.6251106516259172
  0.8889892487845877  0.4444643002031809  0.6251292314583762
  0.0555656010230304  0.4444645353793893  0.1248906145131630
  0.2221978121998543  0.9443834168285499  0.1248943080036859
  0.5555354646206108  0.9444343989769693  0.1248906145131630
  0.3887732339082252  0.4444620933566111  0.1245722773340129
  0.8889182887660241  0.9444854038419603  0.1248893483740826
  0.7223555261150499  0.4444620933566111  0.1245722773340129
  0.2221978121998543  0.6111477287046400  0.6251056919963142
  0.0555145961580398  0.1110817112339758  0.6251106516259172
  0.5555379066433890  0.6112267660917747  0.6254277226659872
  0.3888200997099640  0.1109735327532708  0.6251191358690504
  0.8890264672467293  0.6111799002900358  0.6251191358690504
  0.0556165831714499  0.6111477287046400  0.1248943080036859
  0.7222337817426001  0.1110817112339758  0.6251106516259172
  0.2221417180852580  0.1110107512154127  0.1248707685416239
  0.3888200997099640  0.6111799002900358  0.1248808641309495
  0.7223555261150499  0.6112267660917747  0.1245722773340129
  0.5555356997968189  0.1110107512154127  0.1248707685416239
  0.3888200997099640  0.6111799002900358  0.6251191358690504
  0.8888888888888857  0.1111111111111143  0.1249039663176260
  0.2222222222222214  0.7777777777777786  0.6251033710152327
  0.0555145961580398  0.2777662182573996  0.6251106516259172
  0.3887732339082252  0.2776444738849498  0.6254277226659872
  0.5555356997968189  0.7778582819147420  0.6251292314583762
  0.8889892487845877  0.7778582819147420  0.6251292314583762
  0.7222781952606665  0.2777218047393334  0.6251855178308977
  0.0556165831714499  0.7778021878001460  0.1248943080036859
  0.3888522712953601  0.7778021878001460  0.1248943080036859
  0.2221102761453313  0.2777218047393334  0.1248144821691024
  0.7222781952606665  0.7778897238546688  0.1248144821691024
  0.5555379066433890  0.2776444738849498  0.1245722773340129
  0.8889182887660241  0.2777662182573996  0.1248893483740826
  0.0555656010230304  0.4444645353793893  0.6251093854868370
  0.2221978121998543  0.9443834168285499  0.6251056919963142
  0.5555354646206108  0.9444343989769693  0.6251093854868370
  0.3887732339082252  0.4444620933566111  0.6254277226659872
  0.8889182887660241  0.9444854038419603  0.6251106516259172
  0.0555656010230304  0.9444343989769693  0.1248906145131630
  0.7223555261150499  0.4444620933566111  0.6254277226659872
  0.3888522712953601  0.9443834168285499  0.1248943080036859
  0.2221417180852580  0.4444643002031809  0.1248707685416239
  0.2221978121998543  0.6111477287046400  0.1248943080036859
  0.5555555555555571  0.4444444444444429  0.1243904156541035
  0.7222337817426001  0.9444854038419603  0.1248893483740826
  0.8889892487845877  0.4444643002031809  0.1248707685416239
  0.0556165831714499  0.6111477287046400  0.6251056919963142
  0.2221417180852580  0.1110107512154127  0.6251292314583762
  0.7223555261150499  0.6112267660917747  0.6254277226659872
  0.5555356997968189  0.1110107512154127  0.6251292314583762
  0.8888888888888857  0.1111111111111143  0.6250960336823737
 
  0.00000000E+00  0.00000000E+00  0.00000000E+00
  0.00000000E+00  0.00000000E+00  0.00000000E+00
  0.00000000E+00  0.00000000E+00  0.00000000E+00
  0.00000000E+00  0.00000000E+00  0.00000000E+00
  0.00000000E+00  0.00000000E+00  0.00000000E+00
  0.00000000E+00  0.00000000E+00  0.00000000E+00
  0.00000000E+00  0.00000000E+00  0.00000000E+00
  0.00000000E+00  0.00000000E+00  0.00000000E+00
  0.00000000E+00  0.00000000E+00  0.00000000E+00
  0.00000000E+00  0.00000000E+00  0.00000000E+00
  0.00000000E+00  0.00000000E+00  0.00000000E+00
  0.00000000E+00  0.00000000E+00  0.00000000E+00
  0.00000000E+00  0.00000000E+00  0.00000000E+00
  0.00000000E+00  0.00000000E+00  0.00000000E+00
  0.00000000E+00  0.00000000E+00  0.00000000E+00
  0.00000000E+00  0.00000000E+00  0.00000000E+00
  0.00000000E+00  0.00000000E+00  0.00000000E+00
  0.00000000E+00  0.00000000E+00  0.00000000E+00
  0.00000000E+00  0.00000000E+00  0.00000000E+00
  0.00000000E+00  0.00000000E+00  0.00000000E+00
  0.00000000E+00  0.00000000E+00  0.00000000E+00
  0.00000000E+00  0.00000000E+00  0.00000000E+00
  0.00000000E+00  0.00000000E+00  0.00000000E+00
  0.00000000E+00  0.00000000E+00  0.00000000E+00
  0.00000000E+00  0.00000000E+00  0.00000000E+00
  0.00000000E+00  0.00000000E+00  0.00000000E+00
  0.00000000E+00  0.00000000E+00  0.00000000E+00
  0.00000000E+00  0.00000000E+00  0.00000000E+00
  0.00000000E+00  0.00000000E+00  0.00000000E+00
  0.00000000E+00  0.00000000E+00  0.00000000E+00
  0.00000000E+00  0.00000000E+00  0.00000000E+00
  0.00000000E+00  0.00000000E+00  0.00000000E+00
  0.00000000E+00  0.00000000E+00  0.00000000E+00
  0.00000000E+00  0.00000000E+00  0.00000000E+00
  0.00000000E+00  0.00000000E+00  0.00000000E+00
  0.00000000E+00  0.00000000E+00  0.00000000E+00
  0.00000000E+00  0.00000000E+00  0.00000000E+00
  0.00000000E+00  0.00000000E+00  0.00000000E+00
  0.00000000E+00  0.00000000E+00  0.00000000E+00
  0.00000000E+00  0.00000000E+00  0.00000000E+00
  0.00000000E+00  0.00000000E+00  0.00000000E+00
  0.00000000E+00  0.00000000E+00  0.00000000E+00
  0.00000000E+00  0.00000000E+00  0.00000000E+00
  0.00000000E+00  0.00000000E+00  0.00000000E+00
  0.00000000E+00  0.00000000E+00  0.00000000E+00
  0.00000000E+00  0.00000000E+00  0.00000000E+00
  0.00000000E+00  0.00000000E+00  0.00000000E+00
  0.00000000E+00  0.00000000E+00  0.00000000E+00
  0.00000000E+00  0.00000000E+00  0.00000000E+00
  0.00000000E+00  0.00000000E+00  0.00000000E+00
  0.00000000E+00  0.00000000E+00  0.00000000E+00
  0.00000000E+00  0.00000000E+00  0.00000000E+00
  0.00000000E+00  0.00000000E+00  0.00000000E+00
  0.00000000E+00  0.00000000E+00  0.00000000E+00
  0.00000000E+00  0.00000000E+00  0.00000000E+00
  0.00000000E+00  0.00000000E+00  0.00000000E+00
  0.00000000E+00  0.00000000E+00  0.00000000E+00
  0.00000000E+00  0.00000000E+00  0.00000000E+00
  0.00000000E+00  0.00000000E+00  0.00000000E+00
  0.00000000E+00  0.00000000E+00  0.00000000E+00
  0.00000000E+00  0.00000000E+00  0.00000000E+00
  0.00000000E+00  0.00000000E+00  0.00000000E+00
  0.00000000E+00  0.00000000E+00  0.00000000E+00
  0.00000000E+00  0.00000000E+00  0.00000000E+00
  0.00000000E+00  0.00000000E+00  0.00000000E+00
  0.00000000E+00  0.00000000E+00  0.00000000E+00
  0.00000000E+00  0.00000000E+00  0.00000000E+00
  0.00000000E+00  0.00000000E+00  0.00000000E+00
  0.00000000E+00  0.00000000E+00  0.00000000E+00
  0.00000000E+00  0.00000000E+00  0.00000000E+00
  0.00000000E+00  0.00000000E+00  0.00000000E+00
  0.00000000E+00  0.00000000E+00  0.00000000E+00
  0.00000000E+00  0.00000000E+00  0.00000000E+00
  0.00000000E+00  0.00000000E+00  0.00000000E+00
  0.00000000E+00  0.00000000E+00  0.00000000E+00
  0.00000000E+00  0.00000000E+00  0.00000000E+00
  0.00000000E+00  0.00000000E+00  0.00000000E+00
  0.00000000E+00  0.00000000E+00  0.00000000E+00
  0.00000000E+00  0.00000000E+00  0.00000000E+00
  0.00000000E+00  0.00000000E+00  0.00000000E+00
  0.00000000E+00  0.00000000E+00  0.00000000E+00
  0.00000000E+00  0.00000000E+00  0.00000000E+00
  0.00000000E+00  0.00000000E+00  0.00000000E+00
  0.00000000E+00  0.00000000E+00  0.00000000E+00
  0.00000000E+00  0.00000000E+00  0.00000000E+00
  0.00000000E+00  0.00000000E+00  0.00000000E+00
  0.00000000E+00  0.00000000E+00  0.00000000E+00
  0.00000000E+00  0.00000000E+00  0.00000000E+00
  0.00000000E+00  0.00000000E+00  0.00000000E+00
  0.00000000E+00  0.00000000E+00  0.00000000E+00
  0.00000000E+00  0.00000000E+00  0.00000000E+00
  0.00000000E+00  0.00000000E+00  0.00000000E+00
  0.00000000E+00  0.00000000E+00  0.00000000E+00
  0.00000000E+00  0.00000000E+00  0.00000000E+00
  0.00000000E+00  0.00000000E+00  0.00000000E+00
  0.00000000E+00  0.00000000E+00  0.00000000E+00
  0.00000000E+00  0.00000000E+00  0.00000000E+00
  0.00000000E+00  0.00000000E+00  0.00000000E+00
  0.00000000E+00  0.00000000E+00  0.00000000E+00
  0.00000000E+00  0.00000000E+00  0.00000000E+00
  0.00000000E+00  0.00000000E+00  0.00000000E+00
  0.00000000E+00  0.00000000E+00  0.00000000E+00
  0.00000000E+00  0.00000000E+00  0.00000000E+00
  0.00000000E+00  0.00000000E+00  0.00000000E+00
  0.00000000E+00  0.00000000E+00  0.00000000E+00
  0.00000000E+00  0.00000000E+00  0.00000000E+00
  0.00000000E+00  0.00000000E+00  0.00000000E+00
  0.00000000E+00  0.00000000E+00  0.00000000E+00
  0.00000000E+00  0.00000000E+00  0.00000000E+00
  0.00000000E+00  0.00000000E+00  0.00000000E+00
  0.00000000E+00  0.00000000E+00  0.00000000E+00
  0.00000000E+00  0.00000000E+00  0.00000000E+00
  0.00000000E+00  0.00000000E+00  0.00000000E+00
  0.00000000E+00  0.00000000E+00  0.00000000E+00
  0.00000000E+00  0.00000000E+00  0.00000000E+00
  0.00000000E+00  0.00000000E+00  0.00000000E+00
  0.00000000E+00  0.00000000E+00  0.00000000E+00
  0.00000000E+00  0.00000000E+00  0.00000000E+00
  0.00000000E+00  0.00000000E+00  0.00000000E+00
  0.00000000E+00  0.00000000E+00  0.00000000E+00
  0.00000000E+00  0.00000000E+00  0.00000000E+00
  0.00000000E+00  0.00000000E+00  0.00000000E+00
  0.00000000E+00  0.00000000E+00  0.00000000E+00
  0.00000000E+00  0.00000000E+00  0.00000000E+00
  0.00000000E+00  0.00000000E+00  0.00000000E+00
  0.00000000E+00  0.00000000E+00  0.00000000E+00
  0.00000000E+00  0.00000000E+00  0.00000000E+00
  0.00000000E+00  0.00000000E+00  0.00000000E+00
  0.00000000E+00  0.00000000E+00  0.00000000E+00
  0.00000000E+00  0.00000000E+00  0.00000000E+00
  0.00000000E+00  0.00000000E+00  0.00000000E+00
  0.00000000E+00  0.00000000E+00  0.00000000E+00
  0.00000000E+00  0.00000000E+00  0.00000000E+00
  0.00000000E+00  0.00000000E+00  0.00000000E+00
  0.00000000E+00  0.00000000E+00  0.00000000E+00
  0.00000000E+00  0.00000000E+00  0.00000000E+00
  0.00000000E+00  0.00000000E+00  0.00000000E+00
  0.00000000E+00  0.00000000E+00  0.00000000E+00
  0.00000000E+00  0.00000000E+00  0.00000000E+00
  0.00000000E+00  0.00000000E+00  0.00000000E+00
  0.00000000E+00  0.00000000E+00  0.00000000E+00
  0.00000000E+00  0.00000000E+00  0.00000000E+00
  0.00000000E+00  0.00000000E+00  0.00000000E+00
  0.00000000E+00  0.00000000E+00  0.00000000E+00
  0.00000000E+00  0.00000000E+00  0.00000000E+00
  0.00000000E+00  0.00000000E+00  0.00000000E+00
  0.00000000E+00  0.00000000E+00  0.00000000E+00
  0.00000000E+00  0.00000000E+00  0.00000000E+00
  0.00000000E+00  0.00000000E+00  0.00000000E+00
  0.00000000E+00  0.00000000E+00  0.00000000E+00
  0.00000000E+00  0.00000000E+00  0.00000000E+00
  0.00000000E+00  0.00000000E+00  0.00000000E+00
  0.00000000E+00  0.00000000E+00  0.00000000E+00
  0.00000000E+00  0.00000000E+00  0.00000000E+00
  0.00000000E+00  0.00000000E+00  0.00000000E+00
  0.00000000E+00  0.00000000E+00  0.00000000E+00
  0.00000000E+00  0.00000000E+00  0.00000000E+00
  0.00000000E+00  0.00000000E+00  0.00000000E+00
  0.00000000E+00  0.00000000E+00  0.00000000E+00
  0.00000000E+00  0.00000000E+00  0.00000000E+00
  0.00000000E+00  0.00000000E+00  0.00000000E+00
  0.00000000E+00  0.00000000E+00  0.00000000E+00
  0.00000000E+00  0.00000000E+00  0.00000000E+00
  0.00000000E+00  0.00000000E+00  0.00000000E+00
  0.00000000E+00  0.00000000E+00  0.00000000E+00
  0.00000000E+00  0.00000000E+00  0.00000000E+00
  0.00000000E+00  0.00000000E+00  0.00000000E+00
  0.00000000E+00  0.00000000E+00  0.00000000E+00
  0.00000000E+00  0.00000000E+00  0.00000000E+00
  0.00000000E+00  0.00000000E+00  0.00000000E+00
  0.00000000E+00  0.00000000E+00  0.00000000E+00
  0.00000000E+00  0.00000000E+00  0.00000000E+00
  0.00000000E+00  0.00000000E+00  0.00000000E+00
  0.00000000E+00  0.00000000E+00  0.00000000E+00
  0.00000000E+00  0.00000000E+00  0.00000000E+00
  0.00000000E+00  0.00000000E+00  0.00000000E+00
  0.00000000E+00  0.00000000E+00  0.00000000E+00
  0.00000000E+00  0.00000000E+00  0.00000000E+00
  0.00000000E+00  0.00000000E+00  0.00000000E+00
  0.00000000E+00  0.00000000E+00  0.00000000E+00
  0.00000000E+00  0.00000000E+00  0.00000000E+00
  0.00000000E+00  0.00000000E+00  0.00000000E+00
  0.00000000E+00  0.00000000E+00  0.00000000E+00
  0.00000000E+00  0.00000000E+00  0.00000000E+00
  0.00000000E+00  0.00000000E+00  0.00000000E+00
  0.00000000E+00  0.00000000E+00  0.00000000E+00
  0.00000000E+00  0.00000000E+00  0.00000000E+00
  0.00000000E+00  0.00000000E+00  0.00000000E+00
  0.00000000E+00  0.00000000E+00  0.00000000E+00
  0.00000000E+00  0.00000000E+00  0.00000000E+00
  0.00000000E+00  0.00000000E+00  0.00000000E+00
  0.00000000E+00  0.00000000E+00  0.00000000E+00
  0.00000000E+00  0.00000000E+00  0.00000000E+00
  0.00000000E+00  0.00000000E+00  0.00000000E+00
  0.00000000E+00  0.00000000E+00  0.00000000E+00
  0.00000000E+00  0.00000000E+00  0.00000000E+00
  0.00000000E+00  0.00000000E+00  0.00000000E+00
  0.00000000E+00  0.00000000E+00  0.00000000E+00
  0.00000000E+00  0.00000000E+00  0.00000000E+00
  0.00000000E+00  0.00000000E+00  0.00000000E+00
  0.00000000E+00  0.00000000E+00  0.00000000E+00
  0.00000000E+00  0.00000000E+00  0.00000000E+00
  0.00000000E+00  0.00000000E+00  0.00000000E+00
  0.00000000E+00  0.00000000E+00  0.00000000E+00
  0.00000000E+00  0.00000000E+00  0.00000000E+00
  0.00000000E+00  0.00000000E+00  0.00000000E+00
  0.00000000E+00  0.00000000E+00  0.00000000E+00
  0.00000000E+00  0.00000000E+00  0.00000000E+00
  0.00000000E+00  0.00000000E+00  0.00000000E+00
  0.00000000E+00  0.00000000E+00  0.00000000E+00
  0.00000000E+00  0.00000000E+00  0.00000000E+00
  0.00000000E+00  0.00000000E+00  0.00000000E+00
  0.00000000E+00  0.00000000E+00  0.00000000E+00
  0.00000000E+00  0.00000000E+00  0.00000000E+00
  0.00000000E+00  0.00000000E+00  0.00000000E+00
  0.00000000E+00  0.00000000E+00  0.00000000E+00
  0.00000000E+00  0.00000000E+00  0.00000000E+00
  0.00000000E+00  0.00000000E+00  0.00000000E+00
  0.00000000E+00  0.00000000E+00  0.00000000E+00
  0.00000000E+00  0.00000000E+00  0.00000000E+00
  0.00000000E+00  0.00000000E+00  0.00000000E+00
  0.00000000E+00  0.00000000E+00  0.00000000E+00
  0.00000000E+00  0.00000000E+00  0.00000000E+00
  0.00000000E+00  0.00000000E+00  0.00000000E+00
  0.00000000E+00  0.00000000E+00  0.00000000E+00
  0.00000000E+00  0.00000000E+00  0.00000000E+00
  0.00000000E+00  0.00000000E+00  0.00000000E+00
  0.00000000E+00  0.00000000E+00  0.00000000E+00
  0.00000000E+00  0.00000000E+00  0.00000000E+00
  0.00000000E+00  0.00000000E+00  0.00000000E+00
  0.00000000E+00  0.00000000E+00  0.00000000E+00
  0.00000000E+00  0.00000000E+00  0.00000000E+00
  0.00000000E+00  0.00000000E+00  0.00000000E+00
  0.00000000E+00  0.00000000E+00  0.00000000E+00
  0.00000000E+00  0.00000000E+00  0.00000000E+00
  0.00000000E+00  0.00000000E+00  0.00000000E+00
  0.00000000E+00  0.00000000E+00  0.00000000E+00
  0.00000000E+00  0.00000000E+00  0.00000000E+00
  0.00000000E+00  0.00000000E+00  0.00000000E+00
  0.00000000E+00  0.00000000E+00  0.00000000E+00
  0.00000000E+00  0.00000000E+00  0.00000000E+00
  0.00000000E+00  0.00000000E+00  0.00000000E+00
  0.00000000E+00  0.00000000E+00  0.00000000E+00
  0.00000000E+00  0.00000000E+00  0.00000000E+00
  0.00000000E+00  0.00000000E+00  0.00000000E+00
  0.00000000E+00  0.00000000E+00  0.00000000E+00
  0.00000000E+00  0.00000000E+00  0.00000000E+00