Species order: N B                      
   2.51242800000000     
     5.9449720136058266    0.0000000000000000    0.0000000000000000
    -2.9724860068029120    5.1484967885702053   -0.0000000000000001
     0.0000000000000000    0.0000000000000009    5.3101128803662583
   N    B 
   143   144
Direct
  0.1111199230883464  0.0555503258675337  0.1249600374652333
  0.6111029041484415  0.5555391416302118  0.1254600761787906
  0.4444349610630823  0.0555453234076804  0.1250021097883357
  0.9444546765923194  0.5555650389369176  0.1250021097883357
  0.7777673586037257  0.0555503459685307  0.1249529306712298
  0.1111154987968103  0.7222244160650692  0.6250536416781352
  0.4444349610630823  0.7222229709887377  0.6249978902116642
  0.2777961489831180  0.2222227702085162  0.6249126462506033
  0.7777772297914839  0.7222038510168821  0.6249126462506033
  0.6110932878920700  0.2222227702085162  0.6249126462506033
  0.9444496540314695  0.2222326413962742  0.6250470693287703
  0.2777755839349301  0.7222244160650692  0.1249463583218652
  0.1111285157668835  0.2222309245501061  0.1249904875052664
  0.4444442827652331  0.2222218988638019  0.1252157563348159
  0.6110932878920700  0.7222038510168821  0.1250873537493967
  0.9444546765923194  0.7222229709887377  0.1250021097883357
  0.7777690754498939  0.2222309245501061  0.1249904875052664
  0.1111168748548992  0.8888831251451006  0.6250484751587188
  0.4444329169568731  0.8888831251451006  0.6250484751587188
  0.2777961489831180  0.3889067121079302  0.6249126462506033
  0.6111029041484415  0.3888970958515584  0.6245399238212096
  0.7777690754498939  0.8888714842331167  0.6250095124947335
  0.9444496741324663  0.3889029305541414  0.6250399625347667
  0.1111199230883464  0.3889029305541414  0.1249600374652333
  0.2777755839349301  0.8888845012031888  0.1249463583218652
  0.6110970694458587  0.8888800769116536  0.1249600374652333
  0.4444608583697884  0.3888970958515584  0.1254600761787906
  0.9444496741324663  0.8888800769116536  0.1249600374652333
  0.7777772297914839  0.3889067121079302  0.1250873537493967
  0.2777770290112621  0.5555650389369176  0.6249978902116642
  0.1111199230883464  0.0555503258675337  0.6250399625347667
  0.6111029041484415  0.5555391416302118  0.6245399238212096
  0.4444349610630823  0.0555453234076804  0.6249978902116642
  0.9444546765923194  0.5555650389369176  0.6249978902116642
  0.1111168748548992  0.5555670830431270  0.1249515248412812
  0.7777673586037257  0.0555503459685307  0.6250470693287703
  0.2777770290112621  0.0555453234076804  0.1250021097883357
  0.4444442827652331  0.5555557172347668  0.1252157563348159
  0.7777781011361982  0.5555557172347668  0.1252157563348159
  0.6110970694458587  0.0555503258675337  0.1249600374652333
  0.4444442827652331  0.5555557172347668  0.6247842436651844
  0.9444496540314695  0.0555503459685307  0.1249529306712298
  0.2777755839349301  0.7222244160650692  0.6250536416781352
  0.1111285157668835  0.2222309245501061  0.6250095124947335
  0.4444442827652331  0.2222218988638019  0.6247842436651844
  0.6110932878920700  0.7222038510168821  0.6249126462506033
  0.9444546765923194  0.7222229709887377  0.6249978902116642
  0.7777690754498939  0.2222309245501061  0.6250095124947335
  0.1111154987968103  0.7222244160650692  0.1249463583218652
  0.4444349610630823  0.7222229709887377  0.1250021097883357
  0.2777961489831180  0.2222227702085162  0.1250873537493967
  0.7777772297914839  0.7222038510168821  0.1250873537493967
  0.6110932878920700  0.2222227702085162  0.1250873537493967
  0.9444496540314695  0.2222326413962742  0.1249529306712298
  0.1111199230883464  0.3889029305541414  0.6250399625347667
  0.2777755839349301  0.8888845012031888  0.6250536416781352
  0.6110970694458587  0.8888800769116536  0.6250399625347667
  0.4444608583697884  0.3888970958515584  0.6245399238212096
  0.9444496741324663  0.8888800769116536  0.6250399625347667
  0.1111168748548992  0.8888831251451006  0.1249515248412812
  0.7777772297914839  0.3889067121079302  0.6249126462506033
  0.4444329169568731  0.8888831251451006  0.1249515248412812
  0.2777961489831180  0.3889067121079302  0.1250873537493967
  0.2777770290112621  0.5555650389369176  0.1250021097883357
  0.6111029041484415  0.3888970958515584  0.1254600761787906
  0.7777690754498939  0.8888714842331167  0.1249904875052664
  0.9444496741324663  0.3889029305541414  0.1249600374652333
  0.1111168748548992  0.5555670830431270  0.6250484751587188
  0.2777770290112621  0.0555453234076804  0.6249978902116642
  0.7777781011361982  0.5555557172347668  0.6247842436651844
  0.6110970694458587  0.0555503258675337  0.6250399625347667
  0.9444496540314695  0.0555503459685307  0.6250470693287703
  0.0557944622521113  0.1112952855944000  0.3750000000000000
  0.5552449323485935  0.6081457611723813  0.3750000000000000
  0.3892191778967910  0.1117716891269248  0.3750000000000000
  0.8882283108730752  0.6107808221032086  0.3750000000000000
  0.7221674900089533  0.1112952855944000  0.3750000000000000
  0.0555553745790924  0.7777788860111803  0.8750000000000000
  0.3888901780987524  0.7777788860111803  0.8750000000000000
  0.2222213050580067  0.2777773191956712  0.8750000000000000
  0.7222226808043286  0.7777786949419933  0.8750000000000000
  0.5555576107521351  0.2777764391898142  0.8750000000000000
  0.8888893851297294  0.2777752708617862  0.8750000000000000
  0.2222222222222214  0.7777777777777786  0.3750000000000000
  0.0557944622521113  0.2778325099910470  0.3750000000000000
  0.3918542388276182  0.2804325045095475  0.3750000000000000
  0.5556623157425638  0.7768639110963297  0.3750000000000000
  0.8878682620204299  0.7768639110963297  0.3750000000000000
  0.7217815307146082  0.2782184692853916  0.3750000000000000
  0.0555546653398145  0.9444453346601853  0.8750000000000000
  0.3888901780987524  0.9444446254209075  0.8750000000000000
  0.2222150567478676  0.4444441077665282  0.8750000000000000
  0.5555555555555571  0.4444444444444429  0.8750000000000000
  0.7222247291382137  0.9444474476012787  0.8750000000000000
  0.8888957176853248  0.4444441077665282  0.8750000000000000
  0.0554888407367093  0.4443110148067473  0.3750000000000000
  0.2223159340482029  0.9447394649833299  0.3750000000000000
  0.5556889851932529  0.9445111592632908  0.3750000000000000
  0.3918542388276182  0.4447550676514066  0.3750000000000000
  0.8887047144056002  0.9442055377478887  0.3750000000000000
  0.7195674954904527  0.4447550676514066  0.3750000000000000
  0.2222211139888196  0.6111098219012476  0.8750000000000000
  0.0555525523987212  0.1111106148702708  0.8750000000000000
  0.5555576107521351  0.6111145048956567  0.8750000000000000
  0.3888909728624313  0.1111152790582051  0.8750000000000000
  0.8888847209417946  0.6111090271375688  0.8750000000000000
  0.0552605350166700  0.6109098023982087  0.3750000000000000
  0.7222247291382137  0.1111106148702708  0.8750000000000000
  0.2231360889036705  0.1121317379795698  0.3750000000000000
  0.3892191778967910  0.6107808221032086  0.3750000000000000
  0.7195674954904527  0.6081457611723813  0.3750000000000000
  0.5556623157425638  0.1121317379795698  0.3750000000000000
  0.3888909728624313  0.6111090271375688  0.8750000000000000
  0.8888888888888857  0.1111111111111143  0.3750000000000000
  0.2222222222222214  0.7777777777777786  0.8750000000000000
  0.0555525523987212  0.2777752708617862  0.8750000000000000
  0.3888854951043435  0.2777764391898142  0.8750000000000000
  0.5555558922334716  0.7777849432521324  0.8750000000000000
  0.8888957176853248  0.7777849432521324  0.8750000000000000
  0.7222226808043286  0.2777773191956712  0.8750000000000000
  0.0552605350166700  0.7776840659517971  0.3750000000000000
  0.3890901976017917  0.7776840659517971  0.3750000000000000
  0.2231036052374476  0.2782184692853916  0.3750000000000000
  0.7217815307146082  0.7768963947625525  0.3750000000000000
  0.5552449323485935  0.2804325045095475  0.3750000000000000
  0.8887047144056002  0.2778325099910470  0.3750000000000000
  0.0555546653398145  0.4444426640129576  0.8750000000000000
  0.2222211139888196  0.9444446254209075  0.8750000000000000
  0.5555573359870423  0.9444453346601853  0.8750000000000000
  0.3888854951043435  0.4444423892478650  0.8750000000000000
  0.8888893851297294  0.9444474476012787  0.8750000000000000
  0.0554888407367093  0.9445111592632908  0.3750000000000000
  0.7222235608101857  0.4444423892478650  0.8750000000000000
  0.3890901976017917  0.9447394649833299  0.3750000000000000
  0.2231360889036705  0.4443376842574363  0.3750000000000000
  0.2223159340482029  0.6109098023982087  0.3750000000000000
  0.7221674900089533  0.9442055377478887  0.3750000000000000
  0.8878682620204299  0.4443376842574363  0.3750000000000000
  0.0555553745790924  0.6111098219012476  0.8750000000000000
  0.2222150567478676  0.1111042823146751  0.8750000000000000
  0.7222235608101857  0.6111145048956567  0.8750000000000000
  0.5555558922334716  0.1111042823146751  0.8750000000000000
  0.8888888888888857  0.1111111111111143  0.8750000000000000
  0.1113000444613322  0.0558254074082547  0.3750000000000000
  0.6106203357993240  0.5545740049319763  0.3750000000000000
  0.4445870890570432  0.0556413703813910  0.3750000000000000
  0.9443586296186085  0.5554129109429566  0.3750000000000000
  0.7777891748055475  0.0555612540694414  0.3750000000000000
  0.1113126550699069  0.7223229942016182  0.8750000000000000
  0.4443487092015262  0.7220474321436291  0.8750000000000000
  0.2776528146924775  0.2222972390259888  0.8750000000000000
  0.7777027609740115  0.7223471853075228  0.8750000000000000
  0.6113110910001827  0.2222972390259888  0.8750000000000000
  0.9443427401493587  0.2220188136320532  0.8750000000000000
  0.2778158392890839  0.7221841607109158  0.3750000000000000
  0.1111351792647168  0.2222342562990227  0.3750000000000000
  0.4441741058197957  0.2216815449729271  0.3750000000000000
  0.6113631024758444  0.7217014779725370  0.3750000000000000
  0.9443586296186085  0.7222790520089879  0.3750000000000000
  0.7777657437009768  0.2222342562990227  0.3750000000000000
  0.1110127395971869  0.8889872604028130  0.8750000000000000
  0.4446411874722976  0.8889872604028130  0.8750000000000000
  0.2776528146924775  0.3886889089998172  0.8750000000000000
  0.6110321465406149  0.3889678534593850  0.8750000000000000
  0.7776942736979352  0.8887218807291987  0.8750000000000000
  0.9446483269263809  0.3889802013135125  0.8750000000000000
  0.1113000444613322  0.3888079703864060  0.3750000000000000
  0.2778158392890839  0.8889650119114965  0.3750000000000000
  0.6111920296135941  0.8886999555386682  0.3750000000000000
  0.4454259950680238  0.3893796642006762  0.3750000000000000
  0.9441745925917453  0.8886999555386682  0.3750000000000000
  0.7770050421633644  0.3886368975241558  0.3750000000000000
  0.2779525678563706  0.5556512907984738  0.8750000000000000
  0.1109985410538037  0.0553516730736196  0.8750000000000000
  0.6110321465406149  0.5553976264145586  0.8750000000000000
  0.4443487092015262  0.0556346103912326  0.8750000000000000
  0.9443653896087673  0.5556512907984738  0.8750000000000000
  0.1110367194415528  0.5554067722164343  0.3750000000000000
  0.7779811863679473  0.0556572598506413  0.8750000000000000
  0.2777209479910124  0.0556413703813910  0.3750000000000000
  0.4441741058197957  0.5558258941802046  0.3750000000000000
  0.7783184550270730  0.5558258941802046  0.3750000000000000
  0.6111920296135941  0.0558254074082547  0.3750000000000000
  0.4443368439565777  0.5556631560434229  0.8750000000000000
  0.9444387459305590  0.0555612540694414  0.3750000000000000
  0.2776770057983823  0.7223229942016182  0.8750000000000000
  0.1112781192708014  0.2223057263020651  0.8750000000000000
  0.4443368439565777  0.2220070212464910  0.8750000000000000
  0.6113110910001827  0.7223471853075228  0.8750000000000000
  0.9443653896087673  0.7220474321436291  0.8750000000000000
  0.7776942736979352  0.2223057263020651  0.8750000000000000
  0.1110349880885035  0.7221841607109158  0.3750000000000000
  0.4445870890570432  0.7222790520089879  0.3750000000000000
  0.2782985220274627  0.2229949578366357  0.3750000000000000
  0.7770050421633644  0.7217014779725370  0.3750000000000000
  0.6113631024758444  0.2229949578366357  0.3750000000000000
  0.9444387459305590  0.2222108251944529  0.3750000000000000
  0.1109985410538037  0.3889802013135125  0.8750000000000000
  0.2776770057983823  0.8886873449300933  0.8750000000000000
  0.6110197986864871  0.8890014589461963  0.8750000000000000
  0.4446023735854411  0.3889678534593850  0.8750000000000000
  0.9446483269263809  0.8890014589461963  0.8750000000000000
  0.1110367194415528  0.8889632805584471  0.3750000000000000
  0.7777027609740115  0.3886889089998172  0.8750000000000000
  0.4445932277835660  0.8889632805584471  0.3750000000000000
  0.2782985220274627  0.3886368975241558  0.3750000000000000
  0.2777209479910124  0.5554129109429566  0.3750000000000000
  0.6106203357993240  0.3893796642006762  0.3750000000000000
  0.7777657437009768  0.8888648207352832  0.3750000000000000
  0.9441745925917453  0.3888079703864060  0.3750000000000000
  0.1110127395971869  0.5553588125277024  0.8750000000000000
  0.2779525678563706  0.0556346103912326  0.8750000000000000
  0.7779929787535088  0.5556631560434229  0.8750000000000000
  0.6110197986864871  0.0553516730736196  0.8750000000000000
  0.9443427401493587  0.0556572598506413  0.8750000000000000
  0.0555342435942602  0.1110842142539686  0.1250913684474886
  0.5555269260430035  0.6112086233699759  0.1250343006446809
  0.3888156946932673  0.1109647227198771  0.1250126968744725
  0.8890352772801227  0.6111843053067331  0.1250126968744725
  0.7222166373263725  0.1110842142539686  0.1250913684474886
  0.0556222097995205  0.7778010865858629  0.6249042952893616
  0.3888455434530068  0.7778010865858629  0.6249042952893616
  0.2221480008094102  0.2777406670713730  0.6249985815032361
  0.7222593329286271  0.7778519991905898  0.6249985815032361
  0.5555269260430035  0.2776516360063639  0.6249656993553192
  0.8889157857460311  0.2777833626736272  0.6249086315525113
  0.2222222222222214  0.7777777777777786  0.1250461152346876
  0.0555342435942602  0.2777833626736272  0.1250913684474886
  0.3887913766300244  0.2776516360063639  0.1250343006446809
  0.5555229475259127  0.7778409667148155  0.1250685558256318
  0.8889846858555678  0.7778409667148155  0.1250685558256318
  0.7222593329286271  0.2777406670713730  0.1250014184967644
  0.0555720241500834  0.9444279758499166  0.6249650453471084
  0.3888455434530068  0.9443777902004795  0.6249042952893616
  0.2221590332851843  0.4444770524740876  0.6249314441743684
  0.5555555555555571  0.4444444444444429  0.6250887704767326
  0.7222166373263725  0.9444657564057398  0.6249086315525113
  0.8889846858555678  0.4444770524740876  0.6249314441743684
  0.0555720241500834  0.4444773816334953  0.1250349546528915
  0.2221989134141369  0.9443777902004795  0.1250957047106380
  0.5555226183665044  0.9444279758499166  0.1250349546528915
  0.3887913766300244  0.4444730739569963  0.1250343006446809
  0.8889157857460311  0.9444657564057398  0.1250913684474886
  0.7223483639936362  0.4444730739569963  0.1250343006446809
  0.2221989134141369  0.6111544565469932  0.6249042952893616
  0.0555342435942602  0.1110842142539686  0.6249086315525113
  0.5555269260430035  0.6112086233699759  0.6249656993553192
  0.3888156946932673  0.1109647227198771  0.6249873031255272
  0.8890352772801227  0.6111843053067331  0.6249873031255272
  0.0556222097995205  0.6111544565469932  0.1250957047106380
  0.7222166373263725  0.1110842142539686  0.6249086315525113
  0.2221590332851843  0.1110153141444325  0.1250685558256318
  0.3888156946932673  0.6111843053067331  0.1250126968744725
  0.7223483639936362  0.6112086233699759  0.1250343006446809
  0.5555229475259127  0.1110153141444325  0.1250685558256318
  0.3888156946932673  0.6111843053067331  0.6249873031255272
  0.8888888888888857  0.1111111111111143  0.1250440749445900
  0.2222222222222214  0.7777777777777786  0.6249538847653123
  0.0555342435942602  0.2777833626736272  0.6249086315525113
  0.3887913766300244  0.2776516360063639  0.6249656993553192
  0.5555229475259127  0.7778409667148155  0.6249314441743684
  0.8889846858555678  0.7778409667148155  0.6249314441743684
  0.7222593329286271  0.2777406670713730  0.6249985815032361
  0.0556222097995205  0.7778010865858629  0.1250957047106380
  0.3888455434530068  0.7778010865858629  0.1250957047106380
  0.2221480008094102  0.2777406670713730  0.1250014184967644
  0.7222593329286271  0.7778519991905898  0.1250014184967644
  0.5555269260430035  0.2776516360063639  0.1250343006446809
  0.8889157857460311  0.2777833626736272  0.1250913684474886
  0.0555720241500834  0.4444773816334953  0.6249650453471084
  0.2221989134141369  0.9443777902004795  0.6249042952893616
  0.5555226183665044  0.9444279758499166  0.6249650453471084
  0.3887913766300244  0.4444730739569963  0.6249656993553192
  0.8889157857460311  0.9444657564057398  0.6249086315525113
  0.0555720241500834  0.9444279758499166  0.1250349546528915
  0.7223483639936362  0.4444730739569963  0.6249656993553192
  0.3888455434530068  0.9443777902004795  0.1250957047106380
  0.2221590332851843  0.4444770524740876  0.1250685558256318
  0.2221989134141369  0.6111544565469932  0.1250957047106380
  0.5555555555555571  0.4444444444444429  0.1249112295232672
  0.7222166373263725  0.9444657564057398  0.1250913684474886
  0.8889846858555678  0.4444770524740876  0.1250685558256318
  0.0556222097995205  0.6111544565469932  0.6249042952893616
  0.2221590332851843  0.1110153141444325  0.6249314441743684
  0.7223483639936362  0.6112086233699759  0.6249656993553192
  0.5555229475259127  0.1110153141444325  0.6249314441743684
  0.8888888888888857  0.1111111111111143  0.6249559250554099
 
  0.00000000E+00  0.00000000E+00  0.00000000E+00
  0.00000000E+00  0.00000000E+00  0.00000000E+00
  0.00000000E+00  0.00000000E+00  0.00000000E+00
  0.00000000E+00  0.00000000E+00  0.00000000E+00
  0.00000000E+00  0.00000000E+00  0.00000000E+00
  0.00000000E+00  0.00000000E+00  0.00000000E+00
  0.00000000E+00  0.00000000E+00  0.00000000E+00
  0.00000000E+00  0.00000000E+00  0.00000000E+00
  0.00000000E+00  0.00000000E+00  0.00000000E+00
  0.00000000E+00  0.00000000E+00  0.00000000E+00
  0.00000000E+00  0.00000000E+00  0.00000000E+00
  0.00000000E+00  0.00000000E+00  0.00000000E+00
  0.00000000E+00  0.00000000E+00  0.00000000E+00
  0.00000000E+00  0.00000000E+00  0.00000000E+00
  0.00000000E+00  0.00000000E+00  0.00000000E+00
  0.00000000E+00  0.00000000E+00  0.00000000E+00
  0.00000000E+00  0.00000000E+00  0.00000000E+00
  0.00000000E+00  0.00000000E+00  0.00000000E+00
  0.00000000E+00  0.00000000E+00  0.00000000E+00
  0.00000000E+00  0.00000000E+00  0.00000000E+00
  0.00000000E+00  0.00000000E+00  0.00000000E+00
  0.00000000E+00  0.00000000E+00  0.00000000E+00
  0.00000000E+00  0.00000000E+00  0.00000000E+00
  0.00000000E+00  0.00000000E+00  0.00000000E+00
  0.00000000E+00  0.00000000E+00  0.00000000E+00
  0.00000000E+00  0.00000000E+00  0.00000000E+00
  0.00000000E+00  0.00000000E+00  0.00000000E+00
  0.00000000E+00  0.00000000E+00  0.00000000E+00
  0.00000000E+00  0.00000000E+00  0.00000000E+00
  0.00000000E+00  0.00000000E+00  0.00000000E+00
  0.00000000E+00  0.00000000E+00  0.00000000E+00
  0.00000000E+00  0.00000000E+00  0.00000000E+00
  0.00000000E+00  0.00000000E+00  0.00000000E+00
  0.00000000E+00  0.00000000E+00  0.00000000E+00
  0.00000000E+00  0.00000000E+00  0.00000000E+00
  0.00000000E+00  0.00000000E+00  0.00000000E+00
  0.00000000E+00  0.00000000E+00  0.00000000E+00
  0.00000000E+00  0.00000000E+00  0.00000000E+00
  0.00000000E+00  0.00000000E+00  0.00000000E+00
  0.00000000E+00  0.00000000E+00  0.00000000E+00
  0.00000000E+00  0.00000000E+00  0.00000000E+00
  0.00000000E+00  0.00000000E+00  0.00000000E+00
  0.00000000E+00  0.00000000E+00  0.00000000E+00
  0.00000000E+00  0.00000000E+00  0.00000000E+00
  0.00000000E+00  0.00000000E+00  0.00000000E+00
  0.00000000E+00  0.00000000E+00  0.00000000E+00
  0.00000000E+00  0.00000000E+00  0.00000000E+00
  0.00000000E+00  0.00000000E+00  0.00000000E+00
  0.00000000E+00  0.00000000E+00  0.00000000E+00
  0.00000000E+00  0.00000000E+00  0.00000000E+00
  0.00000000E+00  0.00000000E+00  0.00000000E+00
  0.00000000E+00  0.00000000E+00  0.00000000E+00
  0.00000000E+00  0.00000000E+00  0.00000000E+00
  0.00000000E+00  0.00000000E+00  0.00000000E+00
  0.00000000E+00  0.00000000E+00  0.00000000E+00
  0.00000000E+00  0.00000000E+00  0.00000000E+00
  0.00000000E+00  0.00000000E+00  0.00000000E+00
  0.00000000E+00  0.00000000E+00  0.00000000E+00
  0.00000000E+00  0.00000000E+00  0.00000000E+00
  0.00000000E+00  0.00000000E+00  0.00000000E+00
  0.00000000E+00  0.00000000E+00  0.00000000E+00
  0.00000000E+00  0.00000000E+00  0.00000000E+00
  0.00000000E+00  0.00000000E+00  0.00000000E+00
  0.00000000E+00  0.00000000E+00  0.00000000E+00
  0.00000000E+00  0.00000000E+00  0.00000000E+00
  0.00000000E+00  0.00000000E+00  0.00000000E+00
  0.00000000E+00  0.00000000E+00  0.00000000E+00
  0.00000000E+00  0.00000000E+00  0.00000000E+00
  0.00000000E+00  0.00000000E+00  0.00000000E+00
  0.00000000E+00  0.00000000E+00  0.00000000E+00
  0.00000000E+00  0.00000000E+00  0.00000000E+00
  0.00000000E+00  0.00000000E+00  0.00000000E+00
  0.00000000E+00  0.00000000E+00  0.00000000E+00
  0.00000000E+00  0.00000000E+00  0.00000000E+00
  0.00000000E+00  0.00000000E+00  0.00000000E+00
  0.00000000E+00  0.00000000E+00  0.00000000E+00
  0.00000000E+00  0.00000000E+00  0.00000000E+00
  0.00000000E+00  0.00000000E+00  0.00000000E+00
  0.00000000E+00  0.00000000E+00  0.00000000E+00
  0.00000000E+00  0.00000000E+00  0.00000000E+00
  0.00000000E+00  0.00000000E+00  0.00000000E+00
  0.00000000E+00  0.00000000E+00  0.00000000E+00
  0.00000000E+00  0.00000000E+00  0.00000000E+00
  0.00000000E+00  0.00000000E+00  0.00000000E+00
  0.00000000E+00  0.00000000E+00  0.00000000E+00
  0.00000000E+00  0.00000000E+00  0.00000000E+00
  0.00000000E+00  0.00000000E+00  0.00000000E+00
  0.00000000E+00  0.00000000E+00  0.00000000E+00
  0.00000000E+00  0.00000000E+00  0.00000000E+00
  0.00000000E+00  0.00000000E+00  0.00000000E+00
  0.00000000E+00  0.00000000E+00  0.00000000E+00
  0.00000000E+00  0.00000000E+00  0.00000000E+00
  0.00000000E+00  0.00000000E+00  0.00000000E+00
  0.00000000E+00  0.00000000E+00  0.00000000E+00
  0.00000000E+00  0.00000000E+00  0.00000000E+00
  0.00000000E+00  0.00000000E+00  0.00000000E+00
  0.00000000E+00  0.00000000E+00  0.00000000E+00
  0.00000000E+00  0.00000000E+00  0.00000000E+00
  0.00000000E+00  0.00000000E+00  0.00000000E+00
  0.00000000E+00  0.00000000E+00  0.00000000E+00
  0.00000000E+00  0.00000000E+00  0.00000000E+00
  0.00000000E+00  0.00000000E+00  0.00000000E+00
  0.00000000E+00  0.00000000E+00  0.00000000E+00
  0.00000000E+00  0.00000000E+00  0.00000000E+00
  0.00000000E+00  0.00000000E+00  0.00000000E+00
  0.00000000E+00  0.00000000E+00  0.00000000E+00
  0.00000000E+00  0.00000000E+00  0.00000000E+00
  0.00000000E+00  0.00000000E+00  0.00000000E+00
  0.00000000E+00  0.00000000E+00  0.00000000E+00
  0.00000000E+00  0.00000000E+00  0.00000000E+00
  0.00000000E+00  0.00000000E+00  0.00000000E+00
  0.00000000E+00  0.00000000E+00  0.00000000E+00
  0.00000000E+00  0.00000000E+00  0.00000000E+00
  0.00000000E+00  0.00000000E+00  0.00000000E+00
  0.00000000E+00  0.00000000E+00  0.00000000E+00
  0.00000000E+00  0.00000000E+00  0.00000000E+00
  0.00000000E+00  0.00000000E+00  0.00000000E+00
  0.00000000E+00  0.00000000E+00  0.00000000E+00
  0.00000000E+00  0.00000000E+00  0.00000000E+00
  0.00000000E+00  0.00000000E+00  0.00000000E+00
  0.00000000E+00  0.00000000E+00  0.00000000E+00
  0.00000000E+00  0.00000000E+00  0.00000000E+00
  0.00000000E+00  0.00000000E+00  0.00000000E+00
  0.00000000E+00  0.00000000E+00  0.00000000E+00
  0.00000000E+00  0.00000000E+00  0.00000000E+00
  0.00000000E+00  0.00000000E+00  0.00000000E+00
  0.00000000E+00  0.00000000E+00  0.00000000E+00
  0.00000000E+00  0.00000000E+00  0.00000000E+00
  0.00000000E+00  0.00000000E+00  0.00000000E+00
  0.00000000E+00  0.00000000E+00  0.00000000E+00
  0.00000000E+00  0.00000000E+00  0.00000000E+00
  0.00000000E+00  0.00000000E+00  0.00000000E+00
  0.00000000E+00  0.00000000E+00  0.00000000E+00
  0.00000000E+00  0.00000000E+00  0.00000000E+00
  0.00000000E+00  0.00000000E+00  0.00000000E+00
  0.00000000E+00  0.00000000E+00  0.00000000E+00
  0.00000000E+00  0.00000000E+00  0.00000000E+00
  0.00000000E+00  0.00000000E+00  0.00000000E+00
  0.00000000E+00  0.00000000E+00  0.00000000E+00
  0.00000000E+00  0.00000000E+00  0.00000000E+00
  0.00000000E+00  0.00000000E+00  0.00000000E+00
  0.00000000E+00  0.00000000E+00  0.00000000E+00
  0.00000000E+00  0.00000000E+00  0.00000000E+00
  0.00000000E+00  0.00000000E+00  0.00000000E+00
  0.00000000E+00  0.00000000E+00  0.00000000E+00
  0.00000000E+00  0.00000000E+00  0.00000000E+00
  0.00000000E+00  0.00000000E+00  0.00000000E+00
  0.00000000E+00  0.00000000E+00  0.00000000E+00
  0.00000000E+00  0.00000000E+00  0.00000000E+00
  0.00000000E+00  0.00000000E+00  0.00000000E+00
  0.00000000E+00  0.00000000E+00  0.00000000E+00
  0.00000000E+00  0.00000000E+00  0.00000000E+00
  0.00000000E+00  0.00000000E+00  0.00000000E+00
  0.00000000E+00  0.00000000E+00  0.00000000E+00
  0.00000000E+00  0.00000000E+00  0.00000000E+00
  0.00000000E+00  0.00000000E+00  0.00000000E+00
  0.00000000E+00  0.00000000E+00  0.00000000E+00
  0.00000000E+00  0.00000000E+00  0.00000000E+00
  0.00000000E+00  0.00000000E+00  0.00000000E+00
  0.00000000E+00  0.00000000E+00  0.00000000E+00
  0.00000000E+00  0.00000000E+00  0.00000000E+00
  0.00000000E+00  0.00000000E+00  0.00000000E+00
  0.00000000E+00  0.00000000E+00  0.00000000E+00
  0.00000000E+00  0.00000000E+00  0.00000000E+00
  0.00000000E+00  0.00000000E+00  0.00000000E+00
  0.00000000E+00  0.00000000E+00  0.00000000E+00
  0.00000000E+00  0.00000000E+00  0.00000000E+00
  0.00000000E+00  0.00000000E+00  0.00000000E+00
  0.00000000E+00  0.00000000E+00  0.00000000E+00
  0.00000000E+00  0.00000000E+00  0.00000000E+00
  0.00000000E+00  0.00000000E+00  0.00000000E+00
  0.00000000E+00  0.00000000E+00  0.00000000E+00
  0.00000000E+00  0.00000000E+00  0.00000000E+00
  0.00000000E+00  0.00000000E+00  0.00000000E+00
  0.00000000E+00  0.00000000E+00  0.00000000E+00
  0.00000000E+00  0.00000000E+00  0.00000000E+00
  0.00000000E+00  0.00000000E+00  0.00000000E+00
  0.00000000E+00  0.00000000E+00  0.00000000E+00
  0.00000000E+00  0.00000000E+00  0.00000000E+00
  0.00000000E+00  0.00000000E+00  0.00000000E+00
  0.00000000E+00  0.00000000E+00  0.00000000E+00
  0.00000000E+00  0.00000000E+00  0.00000000E+00
  0.00000000E+00  0.00000000E+00  0.00000000E+00
  0.00000000E+00  0.00000000E+00  0.00000000E+00
  0.00000000E+00  0.00000000E+00  0.00000000E+00
  0.00000000E+00  0.00000000E+00  0.00000000E+00
  0.00000000E+00  0.00000000E+00  0.00000000E+00
  0.00000000E+00  0.00000000E+00  0.00000000E+00
  0.00000000E+00  0.00000000E+00  0.00000000E+00
  0.00000000E+00  0.00000000E+00  0.00000000E+00
  0.00000000E+00  0.00000000E+00  0.00000000E+00
  0.00000000E+00  0.00000000E+00  0.00000000E+00
  0.00000000E+00  0.00000000E+00  0.00000000E+00
  0.00000000E+00  0.00000000E+00  0.00000000E+00
  0.00000000E+00  0.00000000E+00  0.00000000E+00
  0.00000000E+00  0.00000000E+00  0.00000000E+00
  0.00000000E+00  0.00000000E+00  0.00000000E+00
  0.00000000E+00  0.00000000E+00  0.00000000E+00
  0.00000000E+00  0.00000000E+00  0.00000000E+00
  0.00000000E+00  0.00000000E+00  0.00000000E+00
  0.00000000E+00  0.00000000E+00  0.00000000E+00
  0.00000000E+00  0.00000000E+00  0.00000000E+00
  0.00000000E+00  0.00000000E+00  0.00000000E+00
  0.00000000E+00  0.00000000E+00  0.00000000E+00
  0.00000000E+00  0.00000000E+00  0.00000000E+00
  0.00000000E+00  0.00000000E+00  0.00000000E+00
  0.00000000E+00  0.00000000E+00  0.00000000E+00
  0.00000000E+00  0.00000000E+00  0.00000000E+00
  0.00000000E+00  0.00000000E+00  0.00000000E+00
  0.00000000E+00  0.00000000E+00  0.00000000E+00
  0.00000000E+00  0.00000000E+00  0.00000000E+00
  0.00000000E+00  0.00000000E+00  0.00000000E+00
  0.00000000E+00  0.00000000E+00  0.00000000E+00
  0.00000000E+00  0.00000000E+00  0.00000000E+00
  0.00000000E+00  0.00000000E+00  0.00000000E+00
  0.00000000E+00  0.00000000E+00  0.00000000E+00
  0.00000000E+00  0.00000000E+00  0.00000000E+00
  0.00000000E+00  0.00000000E+00  0.00000000E+00
  0.00000000E+00  0.00000000E+00  0.00000000E+00
  0.00000000E+00  0.00000000E+00  0.00000000E+00
  0.00000000E+00  0.00000000E+00  0.00000000E+00
  0.00000000E+00  0.00000000E+00  0.00000000E+00
  0.00000000E+00  0.00000000E+00  0.00000000E+00
  0.00000000E+00  0.00000000E+00  0.00000000E+00
  0.00000000E+00  0.00000000E+00  0.00000000E+00
  0.00000000E+00  0.00000000E+00  0.00000000E+00
  0.00000000E+00  0.00000000E+00  0.00000000E+00
  0.00000000E+00  0.00000000E+00  0.00000000E+00
  0.00000000E+00  0.00000000E+00  0.00000000E+00
  0.00000000E+00  0.00000000E+00  0.00000000E+00
  0.00000000E+00  0.00000000E+00  0.00000000E+00
  0.00000000E+00  0.00000000E+00  0.00000000E+00
  0.00000000E+00  0.00000000E+00  0.00000000E+00
  0.00000000E+00  0.00000000E+00  0.00000000E+00
  0.00000000E+00  0.00000000E+00  0.00000000E+00
  0.00000000E+00  0.00000000E+00  0.00000000E+00
  0.00000000E+00  0.00000000E+00  0.00000000E+00
  0.00000000E+00  0.00000000E+00  0.00000000E+00
  0.00000000E+00  0.00000000E+00  0.00000000E+00
  0.00000000E+00  0.00000000E+00  0.00000000E+00
  0.00000000E+00  0.00000000E+00  0.00000000E+00
  0.00000000E+00  0.00000000E+00  0.00000000E+00
  0.00000000E+00  0.00000000E+00  0.00000000E+00
  0.00000000E+00  0.00000000E+00  0.00000000E+00
  0.00000000E+00  0.00000000E+00  0.00000000E+00
  0.00000000E+00  0.00000000E+00  0.00000000E+00
  0.00000000E+00  0.00000000E+00  0.00000000E+00
  0.00000000E+00  0.00000000E+00  0.00000000E+00