 Se N B 
 1.0
 17.527899999999772   0.000000000000000   0.000000000000000
 -8.763949999999658  15.179606674993195   0.000000000000000
  0.000000000000001   0.000000000000002  15.000000000000000
 Se N B 
   1  49  48
Cartesian
  3.755980213596274   7.951242049921758   1.665635703407160 
  8.771127016631670  13.738057773962733   1.665312083612355 
 16.274867612286847   0.723452773391994   1.664943497845755 
 15.013810246809243   2.885397946046593   1.665087292921125 
 13.761725544775359   5.054072265349093   1.665087292921125 
 12.519954786406210   7.227152565809513   1.664943497845755 
 11.275098039292885   9.401052742033157   1.665312083612355 
 10.024695270705557  11.570469054946905   1.665492556825740 
 -6.257235476655933  13.732368557201660   1.664779639955085 
  1.252018763744878   0.714580252352822   1.665312083612355 
 -0.021870205373897   2.862200054772072   1.665067745257920 
 -1.283785005893580   5.041514923116702   1.664869607929995 
 -2.540169644465252   7.224022631950656   1.665067745257920 
 -3.763118466480170   9.401052742033157   1.665312083612355 
 -5.007975213584789  11.568586309685502   1.664779639955085 
 -3.758714950513458  13.732368557201660   1.664779639955085 
  3.755989786406219   0.712752658455006   1.665492556825740 
  2.499176979843596   2.871822287407165   1.665501975503310 
  1.191512167325350   4.988091468802387   1.665205507749450 
 -0.092402487878133   7.211896884197174   1.665205507749450 
 -1.271312953962079   9.402502422185833   1.665501975503310 
 -2.512715697892776  11.570469054946905   1.665492556825740 
 -1.259147443818825  13.738057773962733   1.665312083612355 
  6.259960809067437   0.714580252352822   1.665312083612355 
  5.012802592968924   2.871822287407165   1.665501975503310 
  3.755989786406293   5.042034598495958   1.665207899577450 
  2.231525028249989   7.071080117614402   1.664808350774250 
  1.236552442327868   9.405828084926332   1.665207899577450 
 -0.014500147399436  11.579366058755713   1.665501975503310 
  1.237690347306151  13.767468081610776   1.665067745257920 
  8.765041960507705   0.723452773391994   1.664943497845755 
  7.533849778186277   2.862200054772072   1.665067745257920 
  6.320467405487218   4.988091468802387   1.665205507749450 
  5.280454544562639   7.071080117614402   1.664808350774250 
  3.755989786397563   9.711530533104607   1.664808350774250 
  2.472075131194024  11.653702415333973   1.665205507749450 
  3.755989786397589  13.770660922100131   1.664869607929995 
 11.267870084354501   0.734587901197830   1.665087292921125 
 10.026099325985360   2.885397946046593   1.665087292921125 
  8.795764578706041   5.041514923116702   1.664869607929995 
  7.604382060690767   7.211896884197174   1.665205507749450 
  6.275427130467286   9.405828084926332   1.665207899577450 
  5.039904441601057  11.653702415333973   1.665205507749450 
  6.274289225506571  13.767468081610776   1.665067745257920 
 13.772039488439912   0.734587901197830   1.665087292921125 
 12.519954786406029   2.891352704197829   1.665581896596810 
 11.278184028036886   5.054072265349093   1.665087292921125 
 10.052149217295343   7.224022631950656   1.665067745257920 
  8.783292526774797   9.402502422185833   1.665501975503310 
  7.526479720212111  11.579366058755713   1.665501975503310 
  7.526597981236154  14.470540055030002   1.665384565531110 
 15.023472311480361   1.445952454106147   1.665258300143610 
 13.765937766939327   3.610738634084367   1.665641250349245 
 12.519945213587359   5.782188585782439   1.665258300143610 
 11.287166784681069   7.957043822104685   1.665384565531110 
 10.033307074342106  10.130001573236676   1.665847225140975 
  8.781504739897224  12.298186817528617   1.665847225140975 
 -7.505373727532542  14.452987779262177   1.665371529001110 
 -0.004588589857495   1.426142272615378   1.665384565531110 
 -1.269865694756852   3.595173615312243   1.665156133835490 
 -2.529408665566828   5.776766035071440   1.665156133835490 
 -3.775206357505961   7.957043822104685   1.665384565531110 
 -5.007984786403462  10.127383246965820   1.665371529001110 
 -6.253861209877032  12.291812513360620   1.665130179578625 
 -5.007984786403468  14.449733778769026   1.665130179578625 
  2.504177879142611   1.425537758984759   1.665847225140975 
  1.223020107920913   3.553510357852647   1.665468078117210 
 -0.052055630317080   5.752671530344490   1.665316474661220 
 -1.319047203601115   7.956500097668974   1.665468078117210 
 -2.521346647166917  10.130001573236676   1.665847225140975 
 -3.762108362929950  12.291812513360620   1.665130179578625 
 -2.510595845256811  14.452987779262177   1.665371529001110 
  5.007782548049863   1.425537758984759   1.665847225140975 
  3.755980213604989   3.577984224765705   1.665597063424575 
  2.431546819205014   5.655466589275851   1.665458283963705 
  1.105563646105173   7.952136815066251   1.665458283963705 
 -0.031372160274715  10.137870962492180   1.665597063424575 
 -1.269544312704546  12.298186817528617   1.665847225140975 
 -0.014637554043393  14.470540055030002   1.665384565531110 
  7.516549017049988   1.426142272615378   1.665384565531110 
  6.288940319271502   3.553510357852647   1.665468078117210 
  5.080413608005027   5.655466589275851   1.665458283963705 
  2.429997040505222  10.246122745407979   1.665458283963705 
  1.213912902082965  12.343715694228550   1.665468078117210 
  2.496437242786424  14.481786499351278   1.665156133835490 
 10.016418115694350   1.445952454106147   1.665258300143610 
  8.781826121949392   3.595173615312243   1.665156133835490 
  7.564016057509701   5.752671530344490   1.665316474661220 
  6.406396781087497   7.952136815066251   1.665458283963705 
  5.081963386687533  10.246122745407979   1.665458283963705 
  3.755980213596400  12.348383089045981   1.665316474661220 
  5.015523184406440  14.481786499351278   1.665156133835490 
 12.519945213587365   1.452616225826119   1.665641250349245 
 11.273952660235345   3.610738634084367   1.665641250349245 
 10.041369092759432   5.776766035071440   1.665156133835490 
  8.831007630776238   7.956500097668974   1.665468078117210 
  7.543332587467450  10.137870962492180   1.665597063424575 
  6.298047525109730  12.343715694228550   1.665468078117210 
