B N Se                                  
   1.0000000000000000     
     8.7639499999999995  -15.1796066749929999    0.0000000000000000
     8.7639499999999995   15.1796066749929999    0.0000000000000000
     0.0000000000000000    0.0000000000000000   15.0000000000000000
   B    N    Se
    48    49     1
Selective dynamics
Direct
  0.9060508205390777  0.9532882086377574  0.1110256377020736   T   T   T
  0.9047457681806788  0.0952562530153171  0.1110172200095743   T   T   T
  0.9043067731617276  0.2378677334263660  0.1110427500232833   T   T   T
  0.9047457681806788  0.3809182088563593  0.1110172200095743   T   T   T
  0.9060508205390777  0.5241930171493225  0.1110256377020736   T   T   T
  0.9060906446032694  0.6673428231789953  0.1110564816760648   T   T   T
  0.9060906446032694  0.8101782266722753  0.1110564816760648   T   T   T
  0.0478701189200402  0.9521319022759632  0.1110247686000743   T   T   T
  0.0467138125582464  0.0939512006569182  0.1110256377020736   T   T   T
  0.0459729208762634  0.2368423433022752  0.1110104089223656   T   T   T
  0.0459729208762634  0.3805609828209878  0.1110104089223656   T   T   T
  0.0467138125582464  0.5241930171493225  0.1110256377020736   T   T   T
  0.0478701189200402  0.6671703334480740  0.1110247686000743   T   T   T
  0.0480844855082412  0.8097583011561225  0.1110086786385750   T   T   T
  0.1902437200398805  0.9519175356877623  0.1110086786385750   T   T   T
  0.1898237945237282  0.0939113765927272  0.1110564816760648   T   T   T
  0.1868244495687010  0.2340976570695129  0.1110312052078144   T   T   T
  0.1865169715873967  0.3789736884171982  0.1110210983107479   T   T   T
  0.1868244495687010  0.5241571977471898  0.1110312052078144   T   T   T
  0.1898237945237282  0.6673428231789953  0.1110564816760648   T   T   T
  0.1902437200398805  0.8097583011561225  0.1110086786385750   T   T   T
  0.3328316877489237  0.9521319022759632  0.1110247686000743   T   T   T
  0.3326591980180025  0.0939113765927272  0.1110564816760648   T   T   T
  0.3321407794961014  0.2357099430422045  0.1110398042283046   T   T   T
  0.3250093837206011  0.3725700349398796  0.1110305522642470   T   T   T
  0.3250093837206011  0.5238697540277215  0.1110305522642470   T   T   T
  0.3321407794961014  0.6678612417008968  0.1110398042283046   T   T   T
  0.3326591980180025  0.8101782266722753  0.1110564816760648   T   T   T
  0.4758090040476755  0.9532882086377574  0.1110256377020736   T   T   T
  0.4758090040476755  0.0939512006569182  0.1110256377020736   T   T   T
  0.4758448234498082  0.2340976570695129  0.1110312052078144   T   T   T
  0.4761322671692771  0.3725700349398796  0.1110305522642470   T   T   T
  0.4761322671692771  0.6749926374763973  0.1110305522642470   T   T   T
  0.4758448234498082  0.8131775716273022  0.1110312052078144   T   T   T
  0.6194410383750154  0.9540291003197404  0.1110104089223656   T   T   T
  0.6190838123396443  0.0952562530153171  0.1110172200095743   T   T   T
  0.6194410383750154  0.2368423433022752  0.1110104089223656   T   T   T
  0.6210283327788050  0.3789736884171982  0.1110210983107479   T   T   T
  0.6274319862561235  0.5238697540277215  0.1110305522642470   T   T   T
  0.6274319862561235  0.6749926374763973  0.1110305522642470   T   T   T
  0.6210283327788050  0.8134850496086069  0.1110210983107479   T   T   T
  0.7631596778937284  0.9540291003197404  0.1110104089223656   T   T   T
  0.7621342877696379  0.0956952480342687  0.1110427500232833   T   T   T
  0.7621342877696379  0.2378677334263660  0.1110427500232833   T   T   T
  0.7631596778937284  0.3805609828209878  0.1110104089223656   T   T   T
  0.7659043641264905  0.5241571977471898  0.1110312052078144   T   T   T
  0.7642920781537991  0.6678612417008968  0.1110398042283046   T   T   T
  0.7659043641264905  0.8131775716273022  0.1110312052078144   T   T   T
  0.9529263842543392  0.9050338436367225  0.1110208055741573   T   T   T
  0.9523418815574545  0.0476595203605513  0.1109962331897165   T   T   T
  0.9516083231692672  0.1900838412895095  0.1110058195280746   T   T   T
  0.9516083231692672  0.3329514639977558  0.1110058195280746   T   T   T
  0.9523418815574545  0.4761093433149015  0.1109962331897165   T   T   T
  0.9529263842543392  0.6193212342926117  0.1110208055741573   T   T   T
  0.9530467822288676  0.7622377379519353  0.1110328371217160   T   T   T
  0.0953423517053012  0.9046590502126973  0.1109853093303394   T   T   T
  0.0949675582812760  0.0470750176636669  0.1110208055741573   T   T   T
  0.0930300701580502  0.1885556138610129  0.1110045163505284   T   T   T
  0.0928197326600037  0.3321242131670025  0.1109913071953333   T   T   T
  0.0930300701580502  0.4759031499710381  0.1110045163505284   T   T   T
  0.0949675582812760  0.6193212342926117  0.1110208055741573   T   T   T
  0.0953423517053012  0.7621137067236092  0.1109853093303394   T   T   T
  0.2378876951943964  0.9046590502126973  0.1109853093303394   T   T   T
  0.2377636639660705  0.0469546196891381  0.1110328371217160   T   T   T
  0.2371775483967211  0.1891895059532863  0.1110334650335543   T   T   T
  0.2322804283217525  0.3286047903348998  0.1110137005166296   T   T   T
  0.2322804283217525  0.4751043316608466  0.1110137005166296   T   T   T
  0.2371775483967211  0.6194167361184310  0.1110334650335543   T   T   T
  0.2377636639660705  0.7622377379519353  0.1110328371217160   T   T   T
  0.3806801676253865  0.9050338436367225  0.1110208055741573   T   T   T
  0.3806801676253865  0.0470750176636669  0.1110208055741573   T   T   T
  0.3805846657995681  0.1891895059532863  0.1110334650335543   T   T   T
  0.3803655782558850  0.3321584482687671  0.1110138599718303   T   T   T
  0.3602265552414161  0.4658276244577049  0.1109872233849497   T   T   T
  0.3803655782558850  0.6196358236621139  0.1110138599718303   T   T   T
  0.3805846657995681  0.7628238535212845  0.1110334650335543   T   T   T
  0.5240982519459583  0.9069713317599483  0.1110045163505284   T   T   T
  0.5238920586020951  0.0476595203605513  0.1109962331897165   T   T   T
  0.5240982519459583  0.1885556138610129  0.1110045163505284   T   T   T
  0.5248970702561498  0.3286047903348998  0.1110137005166296   T   T   T
  0.5341737774592914  0.4658276244577052  0.1109872233849497   T   T   T
  0.5341737774592914  0.6397748466765826  0.1109872233849497   T   T   T
  0.5248970702561498  0.7677209735962537  0.1110137005166296   T   T   T
  0.6678771887499946  0.9071816692579946  0.1109913071953333   T   T   T
  0.6670499379192405  0.0483930787487386  0.1110058195280746   T   T   T
  0.6670499379192405  0.1900838412895095  0.1110058195280746   T   T   T
  0.6678771887499946  0.3321242131670025  0.1109913071953333   T   T   T
  0.6713966115820971  0.4751043316608466  0.1110137005166296   T   T   T
  0.6678429536482295  0.6196358236621139  0.1110138599718303   T   T   T
  0.6713966115820971  0.7677209735962537  0.1110137005166296   T   T   T
  0.8114457880569855  0.9069713317599483  0.1110045163505284   T   T   T
  0.8099175606284890  0.0483930787487386  0.1110058195280746   T   T   T
  0.8095252739059973  0.1904761280120013  0.1110387931064537   T   T   T
  0.8099175606284890  0.3329514639977558  0.1110058195280746   T   T   T
  0.8114457880569855  0.4759031499710381  0.1110045163505284   T   T   T
  0.8108118959647127  0.6194167361184310  0.1110334650335543   T   T   T
  0.8108118959647127  0.7628238535212845  0.1110334650335543   T   T   T
  0.4761912123819982  0.5238108088150000  0.1110423802271441   T   T   T

  0.00000000E+00  0.00000000E+00  0.00000000E+00
  0.00000000E+00  0.00000000E+00  0.00000000E+00
  0.00000000E+00  0.00000000E+00  0.00000000E+00
  0.00000000E+00  0.00000000E+00  0.00000000E+00
  0.00000000E+00  0.00000000E+00  0.00000000E+00
  0.00000000E+00  0.00000000E+00  0.00000000E+00
  0.00000000E+00  0.00000000E+00  0.00000000E+00
  0.00000000E+00  0.00000000E+00  0.00000000E+00
  0.00000000E+00  0.00000000E+00  0.00000000E+00
  0.00000000E+00  0.00000000E+00  0.00000000E+00
  0.00000000E+00  0.00000000E+00  0.00000000E+00
  0.00000000E+00  0.00000000E+00  0.00000000E+00
  0.00000000E+00  0.00000000E+00  0.00000000E+00
  0.00000000E+00  0.00000000E+00  0.00000000E+00
  0.00000000E+00  0.00000000E+00  0.00000000E+00
  0.00000000E+00  0.00000000E+00  0.00000000E+00
  0.00000000E+00  0.00000000E+00  0.00000000E+00
  0.00000000E+00  0.00000000E+00  0.00000000E+00
  0.00000000E+00  0.00000000E+00  0.00000000E+00
  0.00000000E+00  0.00000000E+00  0.00000000E+00
  0.00000000E+00  0.00000000E+00  0.00000000E+00
  0.00000000E+00  0.00000000E+00  0.00000000E+00
  0.00000000E+00  0.00000000E+00  0.00000000E+00
  0.00000000E+00  0.00000000E+00  0.00000000E+00
  0.00000000E+00  0.00000000E+00  0.00000000E+00
  0.00000000E+00  0.00000000E+00  0.00000000E+00
  0.00000000E+00  0.00000000E+00  0.00000000E+00
  0.00000000E+00  0.00000000E+00  0.00000000E+00
  0.00000000E+00  0.00000000E+00  0.00000000E+00
  0.00000000E+00  0.00000000E+00  0.00000000E+00
  0.00000000E+00  0.00000000E+00  0.00000000E+00
  0.00000000E+00  0.00000000E+00  0.00000000E+00
  0.00000000E+00  0.00000000E+00  0.00000000E+00
  0.00000000E+00  0.00000000E+00  0.00000000E+00
  0.00000000E+00  0.00000000E+00  0.00000000E+00
  0.00000000E+00  0.00000000E+00  0.00000000E+00
  0.00000000E+00  0.00000000E+00  0.00000000E+00
  0.00000000E+00  0.00000000E+00  0.00000000E+00
  0.00000000E+00  0.00000000E+00  0.00000000E+00
  0.00000000E+00  0.00000000E+00  0.00000000E+00
  0.00000000E+00  0.00000000E+00  0.00000000E+00
  0.00000000E+00  0.00000000E+00  0.00000000E+00
  0.00000000E+00  0.00000000E+00  0.00000000E+00
  0.00000000E+00  0.00000000E+00  0.00000000E+00
  0.00000000E+00  0.00000000E+00  0.00000000E+00
  0.00000000E+00  0.00000000E+00  0.00000000E+00
  0.00000000E+00  0.00000000E+00  0.00000000E+00
  0.00000000E+00  0.00000000E+00  0.00000000E+00
  0.00000000E+00  0.00000000E+00  0.00000000E+00
  0.00000000E+00  0.00000000E+00  0.00000000E+00
  0.00000000E+00  0.00000000E+00  0.00000000E+00
  0.00000000E+00  0.00000000E+00  0.00000000E+00
  0.00000000E+00  0.00000000E+00  0.00000000E+00
  0.00000000E+00  0.00000000E+00  0.00000000E+00
  0.00000000E+00  0.00000000E+00  0.00000000E+00
  0.00000000E+00  0.00000000E+00  0.00000000E+00
  0.00000000E+00  0.00000000E+00  0.00000000E+00
  0.00000000E+00  0.00000000E+00  0.00000000E+00
  0.00000000E+00  0.00000000E+00  0.00000000E+00
  0.00000000E+00  0.00000000E+00  0.00000000E+00
  0.00000000E+00  0.00000000E+00  0.00000000E+00
  0.00000000E+00  0.00000000E+00  0.00000000E+00
  0.00000000E+00  0.00000000E+00  0.00000000E+00
  0.00000000E+00  0.00000000E+00  0.00000000E+00
  0.00000000E+00  0.00000000E+00  0.00000000E+00
  0.00000000E+00  0.00000000E+00  0.00000000E+00
  0.00000000E+00  0.00000000E+00  0.00000000E+00
  0.00000000E+00  0.00000000E+00  0.00000000E+00
  0.00000000E+00  0.00000000E+00  0.00000000E+00
  0.00000000E+00  0.00000000E+00  0.00000000E+00
  0.00000000E+00  0.00000000E+00  0.00000000E+00
  0.00000000E+00  0.00000000E+00  0.00000000E+00
  0.00000000E+00  0.00000000E+00  0.00000000E+00
  0.00000000E+00  0.00000000E+00  0.00000000E+00
  0.00000000E+00  0.00000000E+00  0.00000000E+00
  0.00000000E+00  0.00000000E+00  0.00000000E+00
  0.00000000E+00  0.00000000E+00  0.00000000E+00
  0.00000000E+00  0.00000000E+00  0.00000000E+00
  0.00000000E+00  0.00000000E+00  0.00000000E+00
  0.00000000E+00  0.00000000E+00  0.00000000E+00
  0.00000000E+00  0.00000000E+00  0.00000000E+00
  0.00000000E+00  0.00000000E+00  0.00000000E+00
  0.00000000E+00  0.00000000E+00  0.00000000E+00
  0.00000000E+00  0.00000000E+00  0.00000000E+00
  0.00000000E+00  0.00000000E+00  0.00000000E+00
  0.00000000E+00  0.00000000E+00  0.00000000E+00
  0.00000000E+00  0.00000000E+00  0.00000000E+00
  0.00000000E+00  0.00000000E+00  0.00000000E+00
  0.00000000E+00  0.00000000E+00  0.00000000E+00
  0.00000000E+00  0.00000000E+00  0.00000000E+00
  0.00000000E+00  0.00000000E+00  0.00000000E+00
  0.00000000E+00  0.00000000E+00  0.00000000E+00
  0.00000000E+00  0.00000000E+00  0.00000000E+00
  0.00000000E+00  0.00000000E+00  0.00000000E+00
  0.00000000E+00  0.00000000E+00  0.00000000E+00
  0.00000000E+00  0.00000000E+00  0.00000000E+00
  0.00000000E+00  0.00000000E+00  0.00000000E+00
  0.00000000E+00  0.00000000E+00  0.00000000E+00
