Species order: X N B                    
   2.51242800000000     
     5.9449720136058266    0.0000000000000000    0.0000000000000000
    -2.9724860068029120    5.1484967885702053   -0.0000000000000001
     0.0000000000000000    0.0000000000000009    5.3101128803662583
   C    N    B 
     1   143   143
Direct
  0.4411276745398670  0.3872305039367396  0.3750000000000000
  0.1108200722835263  0.0554467262131084  0.1228981807604962
  0.6110270368004130  0.5557980105122786  0.1262169255278333
  0.4442049762554710  0.0554433923493201  0.1232583407551052
  0.9441820563526802  0.5554047639586566  0.1236421574235076
  0.7775360000214069  0.0554346666771745  0.1231414399164481
  0.1108396175006648  0.7220864754169383  0.6265935139216110
  0.4442049762554710  0.7220949172396388  0.6267416592446247
  0.2774413147072125  0.2220836802471942  0.6264704735367580
  0.7776085375664711  0.7222541187265012  0.6260151811605107
  0.6109454128937554  0.2220435170331048  0.6260522971848613
  0.9441682632815054  0.2220465274886845  0.6270538003056696
  0.2775145715031183  0.7220773904162545  0.1231207591519174
  0.1107686952122598  0.2220510142728529  0.1228318531462129
  0.4441749977649083  0.2220859389374684  0.1245079665352050
  0.6109454128937554  0.7222352291940799  0.1239477028149407
  0.9441820563526802  0.7221106257275340  0.1236421574235076
  0.7775752835571972  0.2220323892038132  0.1233310272207968
  0.1108365644127080  0.8887836497639547  0.6268410641386437
  0.4441935756585353  0.8887634544959329  0.6270147758685831
  0.2774413147072125  0.3886909677931479  0.6264704735367580
  0.6110270368004130  0.3885623596214965  0.6237830744721755
  0.7775752835571972  0.8888762276869777  0.6266689727791391
  0.9442073072491513  0.3887055810613068  0.6268326575458502
  0.1108200722835270  0.3887066794037408  0.1228981807604961
  0.2775145715031183  0.8887705144203062  0.1231207591519174
  0.6108736300143180  0.8887951321341920  0.1232318721250947
  0.4440147423409845  0.3886740378369949  0.1262878594941016
  0.9442073072491513  0.8888350595209635  0.1231673424537901
  0.7776085375664711  0.3886877521731732  0.1239848188396787
  0.2775034156914813  0.5553857893862870  0.6268407207768529
  0.1108200722835270  0.0554467262131106  0.6271018192396068
  0.6110270368004130  0.5557980105122786  0.6237830744721755
  0.4442049762554710  0.0554433923493354  0.6267416592446247
  0.9441820563526802  0.5554047639586566  0.6263578425765994
  0.1108365644127080  0.5553862479821421  0.1231589358615275
  0.7775360000214069  0.0554346666771745  0.6268585600835109
  0.2775034156914813  0.0554509596386602  0.1231592792226928
  0.4441749977649083  0.5554223921608646  0.1245079665352053
  0.7775200238627195  0.5554266785978991  0.1251654271368534
  0.6108736300143180  0.0554118312137082  0.1232318721250947
  0.4441749977649083  0.5554223921608646  0.6254920334647216
  0.9441682632815054  0.0554550691257931  0.1229461996944763
  0.2775145715031183  0.7220773904162545  0.6268792408480708
  0.1107686952122598  0.2220510142728529  0.6271681468536782
  0.4441749977649083  0.2220859389374684  0.6254920334647216
  0.6109454128937554  0.7222352291940799  0.6260522971848613
  0.9441820563526802  0.7221106257275340  0.6263578425765994
  0.7775752835571972  0.2220323892038148  0.6266689727791391
  0.1108396175006648  0.7220864754169383  0.1234064860784095
  0.4442049762554710  0.7220949172396388  0.1232583407551053
  0.2774413147072127  0.2220836802471834  0.1235295264631909
  0.7776085375664711  0.7222541187265012  0.1239848188396806
  0.6109454128937554  0.2220435170331053  0.1239477028149403
  0.9441682632815054  0.2220465274886845  0.1229461996944595
  0.1108200722835270  0.3887066794037408  0.6271018192396068
  0.2775145715031183  0.8887705144203062  0.6268792408480708
  0.6108736300143180  0.8887951321341920  0.6267681278749195
  0.4440147423409836  0.3886740378369949  0.6237121405057660
  0.9442073072491513  0.8888350595209635  0.6268326575458502
  0.1108365644127080  0.8887836497639547  0.1231589358615275
  0.7776085375664711  0.3886877521731732  0.6260151811605107
  0.4441935756585353  0.8887634544959329  0.1229852241311895
  0.2774413147072125  0.3886909677931479  0.1235295264631894
  0.2775034156914813  0.5553857893862870  0.1231592792226928
  0.6110270368004130  0.3885623596214965  0.1262169255278321
  0.7775752835571972  0.8888762276869777  0.1233310272207968
  0.9442073072491513  0.3887055810613068  0.1231673424537894
  0.1108365644127080  0.5553862479821421  0.6268410641386437
  0.2775034156914813  0.0554509596386611  0.6268407207768529
  0.7775200238627195  0.5554266785978991  0.6248345728630685
  0.6108736300143180  0.0554118312137082  0.6267681278749195
  0.9441682632815054  0.0554550691257923  0.6270538003056696
  0.0522663457191866  0.1090386615678425  0.3750000000000000
  0.5557764282414694  0.5974180206781243  0.3750000000000000
  0.3899870127534616  0.1158145444580790  0.3750000000000000
  0.8959556706743027  0.6146445020039271  0.3750000000000000
  0.7206272086922820  0.1116005513802730  0.3750000000000000
  0.0559090279688028  0.7779501992662853  0.8750000000000000
  0.3892148306941953  0.7779583154524256  0.8750000000000000
  0.2225631298755109  0.2779482316044251  0.8750000000000000
  0.7225526952105406  0.7779250455875848  0.8750000000000000
  0.5558640653112642  0.2779225640721589  0.8750000000000000
  0.8892257809779540  0.2779597324165541  0.8750000000000000
  0.2254646393971210  0.7793989863651473  0.3750000000000000
  0.0522663457191862  0.2765610174846082  0.3750000000000000
  0.3832950115847592  0.2796848176645571  0.3750000000000000
  0.5557709337712587  0.7724273373041636  0.3750000000000000
  0.8913174950710546  0.7782452339451388  0.3750000000000000
  0.7213598746649849  0.2807226000496901  0.3750000000000000
  0.0558916523969810  0.9446035720672868  0.8750000000000000
  0.3892148306941953  0.9445898485748527  0.8750000000000000
  0.2225559832652775  0.4446281964578966  0.8750000000000000
  0.5558868895184896  0.4446101114259090  0.8750000000000000
  0.7225517478755669  0.9445995490439282  0.8750000000000000
  0.8892387740751559  0.4446339699164985  0.8750000000000000
  0.0558081391201112  0.4447212416295645  0.3750000000000000
  0.2245251563381195  0.9466427583132186  0.3750000000000000
  0.5558355313062586  0.9445844323198657  0.3750000000000000
  0.3832950115847596  0.4369435272536991  0.3750000000000000
  0.8870242909148373  0.9423830329124920  0.3750000000000000
  0.7277339720478649  0.4496430868614177  0.3750000000000000
  0.2225453789985564  0.6112951172605585  0.8750000000000000
  0.0558950148711959  0.1112742376526874  0.8750000000000000
  0.5558640653112642  0.6112748345723936  0.8750000000000000
  0.3891993872005520  0.1112288223035677  0.8750000000000000
  0.8892587570671950  0.6112960452001025  0.8750000000000000
  0.0596854900783706  0.6128541816503779  0.3750000000000000
  0.7225517478755669  0.1112855321647345  0.8750000000000000
  0.2203437221413046  0.1106386669689482  0.3750000000000000
  0.3899870127534616  0.6075058016288375  0.3750000000000000
  0.7277339720478649  0.6114242185199782  0.3750000000000000
  0.5557709337712587  0.1166769298003528  0.3750000000000000
  0.3891993872005520  0.6113038982302093  0.8750000000000000
  0.8861231330335341  0.1097282331834296  0.3750000000000000
  0.2225550556541812  0.7779441944936575  0.8750000000000000
  0.0558950148711959  0.2779541105519208  0.8750000000000000
  0.3892170840213408  0.2779244864319214  0.8750000000000000
  0.5558791602669607  0.7779471947486004  0.8750000000000000
  0.8892387740751559  0.7779381374918592  0.8750000000000000
  0.7225526952105406  0.2779609829561209  0.8750000000000000
  0.0596854900783725  0.7801646417612449  0.3750000000000000
  0.3908494814736889  0.7773360457572460  0.3750000000000000
  0.2164992767991718  0.2749163050662909  0.3750000000000000
  0.7213598746649849  0.7739706079488109  0.3750000000000000
  0.5557764282414693  0.2916917408967500  0.3750000000000000
  0.8870242909148373  0.2779745913354225  0.3750000000000000
  0.0558916523969810  0.4446214136627413  0.8750000000000000
  0.2225453789985622  0.9445835950712270  0.8750000000000000
  0.5558867111577690  0.9446100222452229  0.8750000000000000
  0.3892170840213408  0.4446259309231550  0.8750000000000000
  0.8892257809779540  0.9445993818946035  0.8750000000000000
  0.0558081391201079  0.9444202308236651  0.3750000000000000
  0.7225710966080986  0.4446334470819474  0.8750000000000000
  0.3908494814736889  0.9468467690501789  0.3750000000000000
  0.2203437221413045  0.4430383885057663  0.3750000000000000
  0.2245251563381195  0.6112157313582547  0.3750000000000000
  0.7206272086922820  0.9423599906455202  0.3750000000000000
  0.8913174950710546  0.4464055944584957  0.3750000000000000
  0.0559090279688049  0.6112921620359506  0.8750000000000000
  0.2225559832652775  0.1112611201406183  0.8750000000000000
  0.7225710966080986  0.6112709828595311  0.8750000000000000
  0.5558791602669607  0.1112652988516936  0.8750000000000000
  0.8892197458350219  0.1112765395842305  0.8750000000000000
  0.1096850860939557  0.0549845312149103  0.3750000000000000
  0.6136314275593702  0.5304853164697427  0.3750000000000000
  0.4451588139317982  0.0596372073202549  0.3750000000000000
  0.9485043356668885  0.5574216793899578  0.3750000000000000
  0.7749089000909214  0.0541211167121672  0.3750000000000000
  0.1114266797930639  0.7223800065634803  0.8750000000000000
  0.4447747704061421  0.7223370880252615  0.8750000000000000
  0.2782553165034523  0.2224729458653375  0.8750000000000000
  0.7780215133173076  0.7222304178260417  0.8750000000000000
  0.6113918142993136  0.2224805169977245  0.8750000000000000
  0.9447826924330139  0.2224208160510168  0.8750000000000000
  0.2801323039356806  0.7225431747716574  0.3750000000000000
  0.1067587036526804  0.2200460184930056  0.3750000000000000
  0.4455939807937314  0.2299342759813565  0.3750000000000000
  0.6093327672185103  0.7106023549181406  0.3750000000000000
  0.9485043356668885  0.7244159896105029  0.3750000000000000
  0.7751730396691153  0.2236951199409962  0.3750000000000000
  0.1114483689770341  0.8890355717170320  0.8750000000000000
  0.4447698914833647  0.8890516124080223  0.8750000000000000
  0.2782553165034523  0.3891157039714980  0.8750000000000000
  0.6113912038060798  0.3891199951387644  0.8750000000000000
  0.7780606980590654  0.8889406104901727  0.8750000000000000
  0.9447469635988347  0.3891036090501080  0.8750000000000000
  0.1096850860939646  0.3880338882123078  0.3750000000000000
  0.2801323039356801  0.8909224624977323  0.3750000000000000
  0.6096823021855604  0.8851864234367227  0.3750000000000000
  0.9444172679374613  0.8881180323786664  0.3750000000000000
  0.7788182511569582  0.3927585280257401  0.3750000000000000
  0.2781749029771229  0.5557470379048668  0.8750000000000000
  0.1115026209539816  0.0557346260532271  0.8750000000000000
  0.6113912038060798  0.5556045420004326  0.8750000000000000
  0.4447747704061421  0.0557710157140952  0.8750000000000000
  0.9447251322310877  0.5557384503352991  0.8750000000000000
  0.1135289356633230  0.5561174059856756  0.3750000000000000
  0.7780679011321446  0.0557006172327775  0.8750000000000000
  0.2792210653929714  0.0583163355445289  0.3750000000000000
  0.4455939807937314  0.5489930381454591  0.3750000000000000
  0.7848978742391125  0.5591156037859945  0.3750000000000000
  0.6096823021855604  0.0578292120826859  0.3750000000000000
  0.4448289971881742  0.5556861597683841  0.8750000000000000
  0.9412876070893357  0.0532920690002665  0.3750000000000000
  0.2781261220782396  0.7223905895909079  0.8750000000000000
  0.1115327063017456  0.2224330198175934  0.8750000000000000
  0.4448289971881770  0.2224761707532426  0.8750000000000000
  0.6113918142993136  0.7222446306349024  0.8750000000000000
  0.9447251322310877  0.7223200152287157  0.8750000000000000
  0.7780606980590654  0.2224534209023616  0.8750000000000000
  0.1145254372455659  0.7239293852892389  0.3750000000000000
  0.4451588139317982  0.7188549399449963  0.3750000000000000
  0.2737457922147097  0.2215194841708225  0.3750000000000000
  0.7788182511569639  0.7193930564645860  0.3750000000000000
  0.6093327672185103  0.2320637456341131  0.3750000000000000
  0.9412876070893357  0.2213288714224432  0.3750000000000000
  0.1115026209539977  0.3891013282341410  0.8750000000000000
  0.2781261220782396  0.8890688658207841  0.8750000000000000
  0.6114108106876209  0.8889951448150041  0.8750000000000000
  0.4449006436344579  0.3891169884839307  0.8750000000000000
  0.9447469635988347  0.8889766878820126  0.8750000000000000
  0.1135289356633008  0.8907448630110727  0.3750000000000000
  0.7780215133173076  0.3891244288244889  0.8750000000000000
  0.4452210289044308  0.8892771811190912  0.3750000000000000
  0.2737457922147097  0.3855596413771858  0.3750000000000000
  0.2792210653929714  0.5542380631818107  0.3750000000000000
  0.6136314275593645  0.4164794444228414  0.3750000000000000
  0.7751730396691097  0.8848112530611795  0.3750000000000000
  0.9444172679374614  0.3896325688922942  0.3750000000000000
  0.1114483689770341  0.5557461305931015  0.8750000000000000
  0.2781749029771229  0.0557611984057023  0.8750000000000000
  0.7780117062584723  0.5556725197958354  0.8750000000000000
  0.6114108106876209  0.0557489992059978  0.8750000000000000
  0.9447826924330139  0.0556952097153519  0.8750000000000000
  0.0552988028782603  0.1110139331673248  0.1231581667547939
  0.5555762944335473  0.6107506602983517  0.1260740763122893
  0.3888647775056162  0.1114326928893871  0.1240812466169077
  0.8881838253447957  0.6107585793391168  0.1247213160181103
  0.7219673120883796  0.1110270455287731  0.1235818256332217
  0.0551113342607863  0.7775731079174484  0.6262783218087535
  0.3887285384038344  0.7775805677632401  0.6265945121023910
  0.2221113708328823  0.2777223520830027  0.6262690125732785
  0.7219259879237124  0.7775134533112137  0.6256115212120736
  0.5555762944335473  0.2781589674683462  0.6239259236876125
  0.8885707115222030  0.2776262393299004  0.6265128509951744
  0.2219512198716647  0.7776422766027254  0.1234803259298850
  0.0552988028782600  0.2776182030439863  0.1231581667547929
  0.3889884487896243  0.2781775288181718  0.1257458093481688
  0.5554107955921579  0.7775107755094707  0.1239017440221679
  0.8884008633608181  0.7775170610276716  0.1240714681216368
  0.7219259879237124  0.2777458679461041  0.1243884787880476
  0.0552423113230112  0.9443405594920666  0.6266296823690966
  0.3887285384039044  0.9444813039738540  0.6265945121023910
  0.2220996416612206  0.4442243336564337  0.6265007323106025
  0.5555269709528928  0.4444301521431107  0.6162980140409980
  0.7219673120883796  0.9442735998929762  0.6264181743668655
  0.8884008633608181  0.4442171356663299  0.6259285318784432
  0.0552423113230111  0.4442350851644807  0.1233703176308929
  0.2220075704575907  0.9444671269137406  0.1234275399835899
  0.5553541665146564  0.9443437499242104  0.1234478785742285
  0.3889884487896244  0.4441442533048477  0.1257458093481691
  0.8885707115222031  0.9442778055257779  0.1234871490051702
  0.7215634131308153  0.4441402931323815  0.1265578718947966
  0.2220075704575907  0.6108737768771925  0.6265724600166886
  0.0552988028782603  0.1110139331673243  0.6268418332454846
  0.5555762944335472  0.6107506602983517  0.6239259236876125
  0.3888647775056162  0.1114326928893871  0.6259187533829395
  0.8881838253447957  0.6107585793391168  0.6252786839816923
  0.0551113342607868  0.6108715596763649  0.1237216781914482
  0.7219673120883796  0.1110270455287731  0.6264181743668655
  0.2220996416612206  0.1112086413381980  0.1234992676895816
  0.3888647775056162  0.6107654179494625  0.1240812466169078
  0.7215634131308153  0.6107564533316767  0.1265578718947955
  0.5554107955921579  0.1112333534162506  0.1239017440221679
  0.3888647775056162  0.6107654179494625  0.6259187533829370
  0.8886055366010530  0.1109694349670999  0.1232991040173003
  0.2219512198716647  0.7776422766027254  0.6265196740701350
  0.0552988028782603  0.2776182030439863  0.6268418332454846
  0.3889884487896244  0.2781775288181718  0.6242541906517531
  0.5554107955921579  0.7775107755094708  0.6260982559779680
  0.8884008633608181  0.7775170610276716  0.6259285318784438
  0.7219259879237124  0.2777458679461041  0.6256115212120736
  0.0551113342607863  0.7775731079174484  0.1237216781914482
  0.3887285384039044  0.7775805677632401  0.1234054878976528
  0.2221113708328823  0.2777223520830027  0.1237309874265278
  0.7219259879237124  0.7775134533112137  0.1243884787880485
  0.5555762944335473  0.2781589674683461  0.1260740763122535
  0.8885707115222030  0.2776262393299004  0.1234871490051702
  0.0552423113230111  0.4442350851644807  0.6266296823690966
  0.2220075704575907  0.9444671269137406  0.6265724600166886
  0.5553541665146564  0.9443437499242104  0.6265521214256221
  0.3889884487896244  0.4441442533048477  0.6242541906517531
  0.8885707115222031  0.9442778055257779  0.6265128509951737
  0.0552423113230111  0.9443405594920666  0.1233703176308929
  0.7215634131308153  0.4441402931323857  0.6234421281050790
  0.3887285384039044  0.9444813039738481  0.1234054878976528
  0.2220996416612206  0.4442243336564337  0.1234992676895816
  0.2220075704575907  0.6108737768771925  0.1234275399835899
  0.5555269709528928  0.4444301521431107  0.1337019859590235
  0.7219673120883796  0.9442735998929762  0.1235818256332198
  0.8884008633608181  0.4442171356663299  0.1240714681216352
  0.0551113342607860  0.6108715596763649  0.6262783218087535
  0.2220996416612206  0.1112086413381981  0.6265007323106025
  0.7215634131308153  0.6107564533316767  0.6234421281050790
  0.5554107955921579  0.1112333534162507  0.6260982559779680
  0.8886055366010530  0.1109694349671006  0.6267008959826549
 
  0.00000000E+00  0.00000000E+00  0.00000000E+00
  0.00000000E+00  0.00000000E+00  0.00000000E+00
  0.00000000E+00  0.00000000E+00  0.00000000E+00
  0.00000000E+00  0.00000000E+00  0.00000000E+00
  0.00000000E+00  0.00000000E+00  0.00000000E+00
  0.00000000E+00  0.00000000E+00  0.00000000E+00
  0.00000000E+00  0.00000000E+00  0.00000000E+00
  0.00000000E+00  0.00000000E+00  0.00000000E+00
  0.00000000E+00  0.00000000E+00  0.00000000E+00
  0.00000000E+00  0.00000000E+00  0.00000000E+00
  0.00000000E+00  0.00000000E+00  0.00000000E+00
  0.00000000E+00  0.00000000E+00  0.00000000E+00
  0.00000000E+00  0.00000000E+00  0.00000000E+00
  0.00000000E+00  0.00000000E+00  0.00000000E+00
  0.00000000E+00  0.00000000E+00  0.00000000E+00
  0.00000000E+00  0.00000000E+00  0.00000000E+00
  0.00000000E+00  0.00000000E+00  0.00000000E+00
  0.00000000E+00  0.00000000E+00  0.00000000E+00
  0.00000000E+00  0.00000000E+00  0.00000000E+00
  0.00000000E+00  0.00000000E+00  0.00000000E+00
  0.00000000E+00  0.00000000E+00  0.00000000E+00
  0.00000000E+00  0.00000000E+00  0.00000000E+00
  0.00000000E+00  0.00000000E+00  0.00000000E+00
  0.00000000E+00  0.00000000E+00  0.00000000E+00
  0.00000000E+00  0.00000000E+00  0.00000000E+00
  0.00000000E+00  0.00000000E+00  0.00000000E+00
  0.00000000E+00  0.00000000E+00  0.00000000E+00
  0.00000000E+00  0.00000000E+00  0.00000000E+00
  0.00000000E+00  0.00000000E+00  0.00000000E+00
  0.00000000E+00  0.00000000E+00  0.00000000E+00
  0.00000000E+00  0.00000000E+00  0.00000000E+00
  0.00000000E+00  0.00000000E+00  0.00000000E+00
  0.00000000E+00  0.00000000E+00  0.00000000E+00
  0.00000000E+00  0.00000000E+00  0.00000000E+00
  0.00000000E+00  0.00000000E+00  0.00000000E+00
  0.00000000E+00  0.00000000E+00  0.00000000E+00
  0.00000000E+00  0.00000000E+00  0.00000000E+00
  0.00000000E+00  0.00000000E+00  0.00000000E+00
  0.00000000E+00  0.00000000E+00  0.00000000E+00
  0.00000000E+00  0.00000000E+00  0.00000000E+00
  0.00000000E+00  0.00000000E+00  0.00000000E+00
  0.00000000E+00  0.00000000E+00  0.00000000E+00
  0.00000000E+00  0.00000000E+00  0.00000000E+00
  0.00000000E+00  0.00000000E+00  0.00000000E+00
  0.00000000E+00  0.00000000E+00  0.00000000E+00
  0.00000000E+00  0.00000000E+00  0.00000000E+00
  0.00000000E+00  0.00000000E+00  0.00000000E+00
  0.00000000E+00  0.00000000E+00  0.00000000E+00
  0.00000000E+00  0.00000000E+00  0.00000000E+00
  0.00000000E+00  0.00000000E+00  0.00000000E+00
  0.00000000E+00  0.00000000E+00  0.00000000E+00
  0.00000000E+00  0.00000000E+00  0.00000000E+00
  0.00000000E+00  0.00000000E+00  0.00000000E+00
  0.00000000E+00  0.00000000E+00  0.00000000E+00
  0.00000000E+00  0.00000000E+00  0.00000000E+00
  0.00000000E+00  0.00000000E+00  0.00000000E+00
  0.00000000E+00  0.00000000E+00  0.00000000E+00
  0.00000000E+00  0.00000000E+00  0.00000000E+00
  0.00000000E+00  0.00000000E+00  0.00000000E+00
  0.00000000E+00  0.00000000E+00  0.00000000E+00
  0.00000000E+00  0.00000000E+00  0.00000000E+00
  0.00000000E+00  0.00000000E+00  0.00000000E+00
  0.00000000E+00  0.00000000E+00  0.00000000E+00
  0.00000000E+00  0.00000000E+00  0.00000000E+00
  0.00000000E+00  0.00000000E+00  0.00000000E+00
  0.00000000E+00  0.00000000E+00  0.00000000E+00
  0.00000000E+00  0.00000000E+00  0.00000000E+00
  0.00000000E+00  0.00000000E+00  0.00000000E+00
  0.00000000E+00  0.00000000E+00  0.00000000E+00
  0.00000000E+00  0.00000000E+00  0.00000000E+00
  0.00000000E+00  0.00000000E+00  0.00000000E+00
  0.00000000E+00  0.00000000E+00  0.00000000E+00
  0.00000000E+00  0.00000000E+00  0.00000000E+00
  0.00000000E+00  0.00000000E+00  0.00000000E+00
  0.00000000E+00  0.00000000E+00  0.00000000E+00
  0.00000000E+00  0.00000000E+00  0.00000000E+00
  0.00000000E+00  0.00000000E+00  0.00000000E+00
  0.00000000E+00  0.00000000E+00  0.00000000E+00
  0.00000000E+00  0.00000000E+00  0.00000000E+00
  0.00000000E+00  0.00000000E+00  0.00000000E+00
  0.00000000E+00  0.00000000E+00  0.00000000E+00
  0.00000000E+00  0.00000000E+00  0.00000000E+00
  0.00000000E+00  0.00000000E+00  0.00000000E+00
  0.00000000E+00  0.00000000E+00  0.00000000E+00
  0.00000000E+00  0.00000000E+00  0.00000000E+00
  0.00000000E+00  0.00000000E+00  0.00000000E+00
  0.00000000E+00  0.00000000E+00  0.00000000E+00
  0.00000000E+00  0.00000000E+00  0.00000000E+00
  0.00000000E+00  0.00000000E+00  0.00000000E+00
  0.00000000E+00  0.00000000E+00  0.00000000E+00
  0.00000000E+00  0.00000000E+00  0.00000000E+00
  0.00000000E+00  0.00000000E+00  0.00000000E+00
  0.00000000E+00  0.00000000E+00  0.00000000E+00
  0.00000000E+00  0.00000000E+00  0.00000000E+00
  0.00000000E+00  0.00000000E+00  0.00000000E+00
  0.00000000E+00  0.00000000E+00  0.00000000E+00
  0.00000000E+00  0.00000000E+00  0.00000000E+00
  0.00000000E+00  0.00000000E+00  0.00000000E+00
  0.00000000E+00  0.00000000E+00  0.00000000E+00
  0.00000000E+00  0.00000000E+00  0.00000000E+00
  0.00000000E+00  0.00000000E+00  0.00000000E+00
  0.00000000E+00  0.00000000E+00  0.00000000E+00
  0.00000000E+00  0.00000000E+00  0.00000000E+00
  0.00000000E+00  0.00000000E+00  0.00000000E+00
  0.00000000E+00  0.00000000E+00  0.00000000E+00
  0.00000000E+00  0.00000000E+00  0.00000000E+00
  0.00000000E+00  0.00000000E+00  0.00000000E+00
  0.00000000E+00  0.00000000E+00  0.00000000E+00
  0.00000000E+00  0.00000000E+00  0.00000000E+00
  0.00000000E+00  0.00000000E+00  0.00000000E+00
  0.00000000E+00  0.00000000E+00  0.00000000E+00
  0.00000000E+00  0.00000000E+00  0.00000000E+00
  0.00000000E+00  0.00000000E+00  0.00000000E+00
  0.00000000E+00  0.00000000E+00  0.00000000E+00
  0.00000000E+00  0.00000000E+00  0.00000000E+00
  0.00000000E+00  0.00000000E+00  0.00000000E+00
  0.00000000E+00  0.00000000E+00  0.00000000E+00
  0.00000000E+00  0.00000000E+00  0.00000000E+00
  0.00000000E+00  0.00000000E+00  0.00000000E+00
  0.00000000E+00  0.00000000E+00  0.00000000E+00
  0.00000000E+00  0.00000000E+00  0.00000000E+00
  0.00000000E+00  0.00000000E+00  0.00000000E+00
  0.00000000E+00  0.00000000E+00  0.00000000E+00
  0.00000000E+00  0.00000000E+00  0.00000000E+00
  0.00000000E+00  0.00000000E+00  0.00000000E+00
  0.00000000E+00  0.00000000E+00  0.00000000E+00
  0.00000000E+00  0.00000000E+00  0.00000000E+00
  0.00000000E+00  0.00000000E+00  0.00000000E+00
  0.00000000E+00  0.00000000E+00  0.00000000E+00
  0.00000000E+00  0.00000000E+00  0.00000000E+00
  0.00000000E+00  0.00000000E+00  0.00000000E+00
  0.00000000E+00  0.00000000E+00  0.00000000E+00
  0.00000000E+00  0.00000000E+00  0.00000000E+00
  0.00000000E+00  0.00000000E+00  0.00000000E+00
  0.00000000E+00  0.00000000E+00  0.00000000E+00
  0.00000000E+00  0.00000000E+00  0.00000000E+00
  0.00000000E+00  0.00000000E+00  0.00000000E+00
  0.00000000E+00  0.00000000E+00  0.00000000E+00
  0.00000000E+00  0.00000000E+00  0.00000000E+00
  0.00000000E+00  0.00000000E+00  0.00000000E+00
  0.00000000E+00  0.00000000E+00  0.00000000E+00
  0.00000000E+00  0.00000000E+00  0.00000000E+00
  0.00000000E+00  0.00000000E+00  0.00000000E+00
  0.00000000E+00  0.00000000E+00  0.00000000E+00
  0.00000000E+00  0.00000000E+00  0.00000000E+00
  0.00000000E+00  0.00000000E+00  0.00000000E+00
  0.00000000E+00  0.00000000E+00  0.00000000E+00
  0.00000000E+00  0.00000000E+00  0.00000000E+00
  0.00000000E+00  0.00000000E+00  0.00000000E+00
  0.00000000E+00  0.00000000E+00  0.00000000E+00
  0.00000000E+00  0.00000000E+00  0.00000000E+00
  0.00000000E+00  0.00000000E+00  0.00000000E+00
  0.00000000E+00  0.00000000E+00  0.00000000E+00
  0.00000000E+00  0.00000000E+00  0.00000000E+00
  0.00000000E+00  0.00000000E+00  0.00000000E+00
  0.00000000E+00  0.00000000E+00  0.00000000E+00
  0.00000000E+00  0.00000000E+00  0.00000000E+00
  0.00000000E+00  0.00000000E+00  0.00000000E+00
  0.00000000E+00  0.00000000E+00  0.00000000E+00
  0.00000000E+00  0.00000000E+00  0.00000000E+00
  0.00000000E+00  0.00000000E+00  0.00000000E+00
  0.00000000E+00  0.00000000E+00  0.00000000E+00
  0.00000000E+00  0.00000000E+00  0.00000000E+00
  0.00000000E+00  0.00000000E+00  0.00000000E+00
  0.00000000E+00  0.00000000E+00  0.00000000E+00
  0.00000000E+00  0.00000000E+00  0.00000000E+00
  0.00000000E+00  0.00000000E+00  0.00000000E+00
  0.00000000E+00  0.00000000E+00  0.00000000E+00
  0.00000000E+00  0.00000000E+00  0.00000000E+00
  0.00000000E+00  0.00000000E+00  0.00000000E+00
  0.00000000E+00  0.00000000E+00  0.00000000E+00
  0.00000000E+00  0.00000000E+00  0.00000000E+00
  0.00000000E+00  0.00000000E+00  0.00000000E+00
  0.00000000E+00  0.00000000E+00  0.00000000E+00
  0.00000000E+00  0.00000000E+00  0.00000000E+00
  0.00000000E+00  0.00000000E+00  0.00000000E+00
  0.00000000E+00  0.00000000E+00  0.00000000E+00
  0.00000000E+00  0.00000000E+00  0.00000000E+00
  0.00000000E+00  0.00000000E+00  0.00000000E+00
  0.00000000E+00  0.00000000E+00  0.00000000E+00
  0.00000000E+00  0.00000000E+00  0.00000000E+00
  0.00000000E+00  0.00000000E+00  0.00000000E+00
  0.00000000E+00  0.00000000E+00  0.00000000E+00
  0.00000000E+00  0.00000000E+00  0.00000000E+00
  0.00000000E+00  0.00000000E+00  0.00000000E+00
  0.00000000E+00  0.00000000E+00  0.00000000E+00
  0.00000000E+00  0.00000000E+00  0.00000000E+00
  0.00000000E+00  0.00000000E+00  0.00000000E+00
  0.00000000E+00  0.00000000E+00  0.00000000E+00
  0.00000000E+00  0.00000000E+00  0.00000000E+00
  0.00000000E+00  0.00000000E+00  0.00000000E+00
  0.00000000E+00  0.00000000E+00  0.00000000E+00
  0.00000000E+00  0.00000000E+00  0.00000000E+00
  0.00000000E+00  0.00000000E+00  0.00000000E+00
  0.00000000E+00  0.00000000E+00  0.00000000E+00
  0.00000000E+00  0.00000000E+00  0.00000000E+00
  0.00000000E+00  0.00000000E+00  0.00000000E+00
  0.00000000E+00  0.00000000E+00  0.00000000E+00
  0.00000000E+00  0.00000000E+00  0.00000000E+00
  0.00000000E+00  0.00000000E+00  0.00000000E+00
  0.00000000E+00  0.00000000E+00  0.00000000E+00
  0.00000000E+00  0.00000000E+00  0.00000000E+00
  0.00000000E+00  0.00000000E+00  0.00000000E+00
  0.00000000E+00  0.00000000E+00  0.00000000E+00
  0.00000000E+00  0.00000000E+00  0.00000000E+00
  0.00000000E+00  0.00000000E+00  0.00000000E+00
  0.00000000E+00  0.00000000E+00  0.00000000E+00
  0.00000000E+00  0.00000000E+00  0.00000000E+00
  0.00000000E+00  0.00000000E+00  0.00000000E+00
  0.00000000E+00  0.00000000E+00  0.00000000E+00
  0.00000000E+00  0.00000000E+00  0.00000000E+00
  0.00000000E+00  0.00000000E+00  0.00000000E+00
  0.00000000E+00  0.00000000E+00  0.00000000E+00
  0.00000000E+00  0.00000000E+00  0.00000000E+00
  0.00000000E+00  0.00000000E+00  0.00000000E+00
  0.00000000E+00  0.00000000E+00  0.00000000E+00
  0.00000000E+00  0.00000000E+00  0.00000000E+00
  0.00000000E+00  0.00000000E+00  0.00000000E+00
  0.00000000E+00  0.00000000E+00  0.00000000E+00
  0.00000000E+00  0.00000000E+00  0.00000000E+00
  0.00000000E+00  0.00000000E+00  0.00000000E+00
  0.00000000E+00  0.00000000E+00  0.00000000E+00
  0.00000000E+00  0.00000000E+00  0.00000000E+00
  0.00000000E+00  0.00000000E+00  0.00000000E+00
  0.00000000E+00  0.00000000E+00  0.00000000E+00
  0.00000000E+00  0.00000000E+00  0.00000000E+00
  0.00000000E+00  0.00000000E+00  0.00000000E+00
  0.00000000E+00  0.00000000E+00  0.00000000E+00
  0.00000000E+00  0.00000000E+00  0.00000000E+00
  0.00000000E+00  0.00000000E+00  0.00000000E+00
  0.00000000E+00  0.00000000E+00  0.00000000E+00
  0.00000000E+00  0.00000000E+00  0.00000000E+00
  0.00000000E+00  0.00000000E+00  0.00000000E+00
  0.00000000E+00  0.00000000E+00  0.00000000E+00
  0.00000000E+00  0.00000000E+00  0.00000000E+00
  0.00000000E+00  0.00000000E+00  0.00000000E+00
  0.00000000E+00  0.00000000E+00  0.00000000E+00
  0.00000000E+00  0.00000000E+00  0.00000000E+00
  0.00000000E+00  0.00000000E+00  0.00000000E+00
  0.00000000E+00  0.00000000E+00  0.00000000E+00
  0.00000000E+00  0.00000000E+00  0.00000000E+00
  0.00000000E+00  0.00000000E+00  0.00000000E+00
  0.00000000E+00  0.00000000E+00  0.00000000E+00
  0.00000000E+00  0.00000000E+00  0.00000000E+00
  0.00000000E+00  0.00000000E+00  0.00000000E+00
  0.00000000E+00  0.00000000E+00  0.00000000E+00
  0.00000000E+00  0.00000000E+00  0.00000000E+00
  0.00000000E+00  0.00000000E+00  0.00000000E+00