Species order:X N B                     
   2.51242800000000     
     5.9449720136058266    0.0000000000000000    0.0000000000000000
    -2.9724860068029120    5.1484967885702053   -0.0000000000000001
     0.0000000000000000    0.0000000000000009    5.3101128803662583
   Si   N    B 
     2   143   143
Direct
  0.4274338711379721  0.3803836022356464  0.3750000000000000
  0.5789779171918070  0.4561556252625643  0.3750000000000000
  0.1110291800637434  0.0554877597979531  0.1251342400204251
  0.6110760997131149  0.5555882236539795  0.1230728276776549
  0.4443961732246142  0.0555106814571331  0.1251294831344453
  0.9443764606145347  0.5555307763618348  0.1252826349176813
  0.7777485772276413  0.0555409552804885  0.1249653807303245
  0.1110498320509557  0.7221915826921380  0.6247585076101234
  0.4443961732246142  0.7222188251008161  0.6248705168655539
  0.2776587528391763  0.2221404537660843  0.6249419980539132
  0.7777268277606784  0.7222068176084800  0.6252745380119025
  0.6110628106030367  0.2221843470287752  0.6252672042211350
  0.9443970767530290  0.2222052928270424  0.6250211570709060
  0.2777236373210836  0.7222068551073113  0.1251898227394532
  0.1110284799706195  0.2221809066519707  0.1250159853149033
  0.4443746208514207  0.2221595730439123  0.1246904249924098
  0.6110628106030367  0.7222117969075899  0.1247327957788643
  0.9443764606145347  0.7221790175860283  0.1252826349176813
  0.7777404950060541  0.2221975767804120  0.1249301305288781
  0.1110466444125104  0.8888364983251048  0.6247860930966430
  0.4444025472282544  0.8888679402807874  0.6248532547208389
  0.2776587528391763  0.3888516324064277  0.6249419980539132
  0.6110760997131149  0.3888212093924631  0.6269271723223451
  0.7777404950060541  0.8888762515589718  0.6250698694711214
  0.9443869233661426  0.3888723372089360  0.6248937245492585
  0.1110291800637434  0.3888747535991190  0.1251342400204251
  0.2777236373210836  0.8888501155471018  0.1251898227394532
  0.6110767975801159  0.8888801964565668  0.1250454989540906
  0.4441646386072612  0.3887489859702918  0.1244002580723498
  0.9443869233661426  0.8888479194905349  0.1251062754507411
  0.7777268277606784  0.3888533434855279  0.1247254619880968
  0.2777111604353450  0.5555467875110147  0.6247732508608669
  0.1110291800637434  0.0554877597979531  0.6248657599795756
  0.6110760997131149  0.5555882236539795  0.6269271723223451
  0.4443961732246142  0.0555106814571331  0.6248705168655539
  0.9443764606145347  0.5555307763618348  0.6247173650823195
  0.1110466444125104  0.5555434794207328  0.1252139069033577
  0.7777485772276413  0.0555409552804885  0.6250346192696761
  0.2777111604353450  0.0554977062576665  0.1252267491391328
  0.4443746208514207  0.5555483811408435  0.1246904249924098
  0.7776885733033809  0.5555109533183590  0.1248148547017138
  0.6110767975801159  0.0555299344568779  0.1250454989540906
  0.4443746208514207  0.5555483811408435  0.6253095750075900
  0.9443970767530290  0.0555251172593218  0.1249788429290939
  0.2777236373210836  0.7222068551073113  0.6248101772605470
  0.1110284799706195  0.2221809066519707  0.6249840146850968
  0.4443746208514207  0.2221595730439123  0.6253095750075900
  0.6110628106030367  0.7222117969075899  0.6252672042211350
  0.9443764606145347  0.7221790175860283  0.6247173650823195
  0.7777404950060541  0.2221975767804120  0.6250698694711214
  0.1110498320509557  0.7221915826921380  0.1252414923898841
  0.4443961732246142  0.7222188251008161  0.1251294831344453
  0.2776587528391763  0.2221404537660843  0.1250580019460865
  0.7777268277606784  0.7222068176084800  0.1247254619880968
  0.6110628106030367  0.2221843470287752  0.1247327957788643
  0.9443970767530290  0.2222052928270424  0.1249788429290939
  0.1110291800637434  0.3888747535991190  0.6248657599795756
  0.2777236373210836  0.8888501155471018  0.6248101772605470
  0.6110767975801159  0.8888801964565668  0.6249545010459092
  0.4441646386072612  0.3887489859702918  0.6255997419276500
  0.9443869233661426  0.8888479194905349  0.6248937245492585
  0.1110466444125104  0.8888364983251048  0.1252139069033577
  0.7777268277606784  0.3888533434855279  0.6252745380119025
  0.4444025472282544  0.8888679402807874  0.1251467452791617
  0.2776587528391763  0.3888516324064277  0.1250580019460865
  0.2777111604353450  0.5555467875110147  0.1252267491391328
  0.6110760997131149  0.3888212093924631  0.1230728276776549
  0.7777404950060541  0.8888762515589718  0.1249301305288781
  0.9443869233661426  0.3888723372089360  0.1251062754507411
  0.1110466444125104  0.5555434794207328  0.6247860930966430
  0.2777111604353450  0.0554977062576665  0.6247732508608669
  0.7776885733033809  0.5555109533183590  0.6251851452982846
  0.6110767975801159  0.0555299344568779  0.6249545010459092
  0.9443970767530290  0.0555251172593218  0.6250211570709060
  0.0556673850938565  0.1111541614499482  0.3750000000000000
  0.5547775666396646  0.6247440920269018  0.3750000000000000
  0.3864471095364312  0.1031176797402499  0.3750000000000000
  0.8902229012292558  0.6117781172812993  0.3750000000000000
  0.7232856835809763  0.1102112498576293  0.3750000000000000
  0.0555796828830710  0.7777924574947341  0.8750000000000000
  0.3889165460206042  0.7777930209742804  0.8750000000000000
  0.2222532356154241  0.2777932844743761  0.8750000000000000
  0.7222473558120118  0.7777930077571608  0.8750000000000000
  0.5555768030154702  0.2777836593492123  0.8750000000000000
  0.8889160058404184  0.2777888936410992  0.8750000000000000
  0.2206071378203286  0.7769702355768296  0.3750000000000000
  0.0556673850938565  0.2778465569772439  0.3750000000000000
  0.3783888279978633  0.2573141082060419  0.3750000000000000
  0.5551063830412710  0.7837503104000509  0.3750000000000000
  0.8922820064924890  0.7813551781042909  0.3750000000000000
  0.7241940632451115  0.2748658657858444  0.3750000000000000
  0.0555799665364389  0.9444603230838139  0.8750000000000000
  0.3889165460206042  0.9444568583796515  0.8750000000000000
  0.2222500680625671  0.4444574347737276  0.8750000000000000
  0.5555761291146342  0.4444547312239778  0.8750000000000000
  0.7222463600125048  0.9444583571220846  0.8750000000000000
  0.8889163289063948  0.4444553097298482  0.8750000000000000
  0.0549048053413882  0.4448183186428658  0.3750000000000000
  0.2203035456577472  0.9414216506619673  0.3750000000000000
  0.5551520164197316  0.9442426748765306  0.3750000000000000
  0.3783888279978633  0.4544080531251574  0.3750000000000000
  0.8902001354213011  0.9462954775043080  0.3750000000000000
  0.7308663266078392  0.4431467215826003  0.3750000000000000
  0.2222466499646695  0.6111211582543232  0.8750000000000000
  0.0555833881225772  0.1111254846782359  0.8750000000000000
  0.5555768030154702  0.6111264769995945  0.8750000000000000
  0.3889159006107404  0.1111214539221124  0.8750000000000000
  0.8889156698840865  0.6111245016087152  0.8750000000000000
  0.0550697343436643  0.6111788885036139  0.3750000000000000
  0.7222463600125048  0.1111213362237589  0.8750000000000000
  0.2173481469450008  0.1045071998426004  0.3750000000000000
  0.3864471095364312  0.6166627631295237  0.3750000000000000
  0.7308663266078392  0.6210529383585747  0.3750000000000000
  0.5551063830412710  0.1046894059745539  0.3750000000000000
  0.3889159006107404  0.6111277800219709  0.8750000000000000
  0.8899160708924174  0.1116247021128806  0.3750000000000000
  0.2222475294135776  0.7777904313734564  0.8750000000000000
  0.0555833881225772  0.2777912367776764  0.8750000000000000
  0.3889181873283755  0.2777901536886767  0.8750000000000000
  0.5555804582549728  0.7777936031232757  0.8750000000000000
  0.8889163289063948  0.7777943525098813  0.8750000000000000
  0.7222473558120118  0.2777876813881874  0.8750000000000000
  0.0550697343436643  0.7772241791733874  0.3750000000000000
  0.3871902102018426  0.7790972295392906  0.3750000000000000
  0.2218425544118951  0.2775879438726122  0.3750000000000000
  0.7241940632451115  0.7826615307926034  0.3750000000000000
  0.5547775666396646  0.2633668079460973  0.3750000000000000
  0.8902001354213011  0.2772379912503293  0.3750000000000000
  0.0555799665364389  0.4444529767859624  0.8750000000000000
  0.2222466499646695  0.9444588250436814  0.8750000000000000
  0.5555802222139292  0.9444567777736286  0.8750000000000000
  0.3889181873283755  0.4444613669730267  0.8750000000000000
  0.8889160058404184  0.9444604455326627  0.8750000000000000
  0.0549048053413882  0.9434198200318576  0.3750000000000000
  0.7222506479333920  0.4444583409192895  0.8750000000000000
  0.3871902102018426  0.9414263139958958  0.3750000000000000
  0.2173481469450008  0.4461742804357424  0.3750000000000000
  0.2203035456577472  0.6122152283291147  0.3750000000000000
  0.7232856835809763  0.9464077670566819  0.3750000000000000
  0.8922820064924890  0.4442601617215275  0.3750000000000000
  0.0555796828830710  0.6111205587216645  0.8750000000000000
  0.2222500680625671  0.1111259666221756  0.8750000000000000
  0.7222506479333920  0.6111256403474382  0.8750000000000000
  0.5555804582549728  0.1111201884650255  0.8750000000000000
  0.8889164889824337  0.1111249111578847  0.8750000000000000
  0.1079386174878845  0.0526229923252351  0.3750000000000000
  0.6229260946430226  0.5875398048009834  0.3750000000000000
  0.4438836260926858  0.0503251500375373  0.3750000000000000
  0.9452340101691409  0.5553447497300832  0.3750000000000000
  0.7793585299421424  0.0563459316377390  0.3750000000000000
  0.1111372774918536  0.7222353054125885  0.8750000000000000
  0.4444787933309968  0.7222635811477381  0.8750000000000000
  0.2777843389183164  0.2222132311601515  0.8750000000000000
  0.7778153335791744  0.7222567707015135  0.8750000000000000
  0.6111486657184019  0.2222158377841549  0.8750000000000000
  0.9444532440871517  0.2222219794197647  0.8750000000000000
  0.2763765040780754  0.7227843178179594  0.3750000000000000
  0.1101938097130927  0.2217635715232145  0.3750000000000000
  0.4429745164927503  0.2110191680216692  0.3750000000000000
  0.6128612801123507  0.7333694737270495  0.3750000000000000
  0.9452340101691409  0.7232225937723940  0.3750000000000000
  0.7797807114300204  0.2204224634271811  0.3750000000000000
  0.1111285657059101  0.8888965388370543  0.8750000000000000
  0.4444793076609319  0.8889063204971275  0.8750000000000000
  0.2777843389183164  0.3889044410914935  0.8750000000000000
  0.6111485118710112  0.3888990456444818  0.8750000000000000
  0.7778064628034047  0.8889207523999884  0.8750000000000000
  0.9444639431261485  0.3888872868996960  0.8750000000000000
  0.1079386174878845  0.3886489584959772  0.3750000000000000
  0.2763765040780754  0.8869255195934435  0.3750000000000000
  0.6123859929537817  0.8926224495781188  0.3750000000000000
  0.9456068020402848  0.8910095812709468  0.3750000000000000
  0.7838289903324079  0.3861854653240731  0.3750000000000000
  0.2777957729981531  0.5555841877223495  0.8750000000000000
  0.1111130157853405  0.0555529717240509  0.8750000000000000
  0.6111485118710112  0.5555827995598576  0.8750000000000000
  0.4444787933309968  0.0555485455165937  0.8750000000000000
  0.9444777540247430  0.5555661967213021  0.8750000000000000
  0.1099024473091924  0.5557164518253601  0.3750000000000000
  0.7778017279665024  0.0555675306499188  0.8750000000000000
  0.2751978157678277  0.0507060364656089  0.3750000000000000
  0.4429745164927503  0.5652886818044240  0.3750000000000000
  0.7811374562701037  0.5572353948017245  0.3750000000000000
  0.6123859929537817  0.0530968767089920  0.3750000000000000
  0.4444818171387659  0.5556042475006738  0.8750000000000000
  0.9451329299990960  0.0565602896197327  0.3750000000000000
  0.2778049789011394  0.7222435432047472  0.8750000000000000
  0.1111025682448193  0.2222179507890737  0.8750000000000000
  0.4444818171387659  0.2222109029714196  0.8750000000000000
  0.6111486657184019  0.7222661612675767  0.8750000000000000
  0.9444777540247430  0.7222448906367751  0.8750000000000000
  0.7778064628034047  0.2222190437367469  0.8750000000000000
  0.1102390936431139  0.7217862134882210  0.3750000000000000
  0.4438836260926858  0.7268918093884839  0.3750000000000000
  0.2691216476470862  0.2124058321143452  0.3750000000000000
  0.7838289903324079  0.7309768583416635  0.3750000000000000
  0.6128612801123507  0.2128251397186299  0.3750000000000000
  0.9451329299990960  0.2219059737127001  0.3750000000000000
  0.1111130157853405  0.3888933773946188  0.8750000000000000
  0.2778049789011394  0.8888947690297136  0.8750000000000000
  0.6111464365131225  0.8889199276653157  0.8750000000000000
  0.4444894772595805  0.3889114052964545  0.8750000000000000
  0.9444639431261485  0.8889099895597748  0.8750000000000000
  0.1099024473091924  0.8875193288171553  0.3750000000000000
  0.7778153335791744  0.3888918962109901  0.8750000000000000
  0.4440660373544392  0.8886996853438841  0.3750000000000000
  0.2691216476470862  0.3900491488660772  0.3750000000000000
  0.2751978157678277  0.5578251126355552  0.3750000000000000
  0.6229260946430226  0.3687196231753679  0.3750000000000000
  0.7797807114300204  0.8926915813361676  0.3750000000000000
  0.9456068020402848  0.3879305541026720  0.3750000000000000
  0.1111285657059101  0.5555653602021849  0.8750000000000000
  0.2777957729981531  0.0555449186091464  0.8750000000000000
  0.7778184449554769  0.5555758891444057  0.8750000000000000
  0.6111464365131225  0.0555598421811351  0.8750000000000000
  0.9444532440871517  0.0555645980007222  0.8750000000000000
  0.0554190673122726  0.1110092493277589  0.1247743435234864
  0.5555620000216973  0.6111795874752972  0.1237304041349650
  0.3887990416943834  0.1109370313225599  0.1246901600901398
  0.8888898781659903  0.6111116057496655  0.1248608902372623
  0.7221967131894237  0.1110702005297978  0.1247750214354479
  0.0555149487317865  0.7777354497556555  0.6249958988668479
  0.3888227085750820  0.7777953065170762  0.6250708317078855
  0.2219932510633162  0.2776632921983257  0.6255005322259338
  0.7222158075993617  0.7778385540938985  0.6255458941675294
  0.5555620000216973  0.2777157458797337  0.6262695958650356
  0.8888392746392100  0.2777458914327273  0.6252232874720233
  0.2221555644541861  0.7777444488937574  0.1249735730282064
  0.0554190673122726  0.2777431513178495  0.1247743435234864
  0.3887178002770748  0.2775203073053052  0.1238467390409495
  0.5555231096448335  0.7778383817681463  0.1247166166476223
  0.8888763771764107  0.7777839021702894  0.1247742573717157
  0.7222158075993617  0.2777105868388046  0.1244541058324708
  0.0554618291473185  0.9443425876648418  0.6250865428266221
  0.3888227085750820  0.9443607353913480  0.6250708317078855
  0.2220380533073728  0.4444827268436480  0.6252125796871845
  0.5556253388475023  0.4444793360904155  0.6260560270682948
  0.7221967131894237  0.9444598459929617  0.6252249785645517
  0.8888763771764107  0.4444258083394576  0.6252257426282848
  0.0554618291473185  0.4444525748158055  0.1249134571733790
  0.2221280607357531  0.9443164384642331  0.1249570822151792
  0.5555187598276978  0.9444260465805122  0.1248791736536885
  0.3887178002770748  0.4445308263051055  0.1238467390409495
  0.8888392746392100  0.9444267165398180  0.1247767125279760
  0.7222118125801524  0.4443905300149855  0.1236515911569710
  0.2221280607357531  0.6111449556048548  0.6250429177848219
  0.0554190673122726  0.1110092493277589  0.6252256564765127
  0.5555620000216973  0.6111795874752972  0.6262695958650356
  0.3887990416943834  0.1109370313225599  0.6253098399098531
  0.8888898781659903  0.6111116057496655  0.6251391097627391
  0.0555149487317865  0.6111128323094667  0.1250041011331526
  0.7221967131894237  0.1110702005297978  0.6252249785645517
  0.2220380533073728  0.1108886597970607  0.1247874203128152
  0.3887990416943834  0.6111953437051729  0.1246901600901398
  0.7222118125801524  0.6111546158985091  0.1236515911569710
  0.5555231096448335  0.1110180612100155  0.1247166166476223
  0.3887990416943834  0.6111953437051729  0.6253098399098531
  0.8888253909769176  0.1110793621551303  0.1247654900152723
  0.2221555644541861  0.7777444488937574  0.6250264269717940
  0.0554190673122726  0.2777431513178495  0.6252256564765127
  0.3887178002770748  0.2775203073053052  0.6261532609590510
  0.5555231096448335  0.7778383817681463  0.6252833833523770
  0.8888763771764107  0.7777839021702894  0.6252257426282848
  0.7222158075993617  0.2777105868388046  0.6255458941675294
  0.0555149487317865  0.7777354497556555  0.1250041011331526
  0.3888227085750820  0.7777953065170762  0.1249291682921148
  0.2219932510633162  0.2776632921983257  0.1244994677740661
  0.7222158075993617  0.7778385540938985  0.1244541058324708
  0.5555620000216973  0.2777157458797337  0.1237304041349650
  0.8888392746392100  0.2777458914327273  0.1247767125279760
  0.0554618291473185  0.4444525748158055  0.6250865428266221
  0.2221280607357531  0.9443164384642331  0.6250429177848219
  0.5555187598276978  0.9444260465805122  0.6251208263463114
  0.3887178002770748  0.4445308263051055  0.6261532609590510
  0.8888392746392100  0.9444267165398180  0.6252232874720233
  0.0554618291473185  0.9443425876648418  0.1249134571733790
  0.7222118125801524  0.4443905300149855  0.6263484088430363
  0.3888227085750820  0.9443607353913480  0.1249291682921148
  0.2220380533073728  0.4444827268436480  0.1247874203128152
  0.2221280607357531  0.6111449556048548  0.1249570822151792
  0.5556253388475023  0.4444793360904155  0.1239439729317059
  0.7221967131894237  0.9444598459929617  0.1247750214354479
  0.8888763771764107  0.4444258083394576  0.1247742573717157
  0.0555149487317865  0.6111128323094667  0.6249958988668479
  0.2220380533073728  0.1108886597970607  0.6252125796871845
  0.7222118125801524  0.6111546158985091  0.6263484088430363
  0.5555231096448335  0.1110180612100155  0.6252833833523770
  0.8888253909769176  0.1110793621551303  0.6252345099847278
 
  0.00000000E+00  0.00000000E+00  0.00000000E+00
  0.00000000E+00  0.00000000E+00  0.00000000E+00
  0.00000000E+00  0.00000000E+00  0.00000000E+00
  0.00000000E+00  0.00000000E+00  0.00000000E+00
  0.00000000E+00  0.00000000E+00  0.00000000E+00
  0.00000000E+00  0.00000000E+00  0.00000000E+00
  0.00000000E+00  0.00000000E+00  0.00000000E+00
  0.00000000E+00  0.00000000E+00  0.00000000E+00
  0.00000000E+00  0.00000000E+00  0.00000000E+00
  0.00000000E+00  0.00000000E+00  0.00000000E+00
  0.00000000E+00  0.00000000E+00  0.00000000E+00
  0.00000000E+00  0.00000000E+00  0.00000000E+00
  0.00000000E+00  0.00000000E+00  0.00000000E+00
  0.00000000E+00  0.00000000E+00  0.00000000E+00
  0.00000000E+00  0.00000000E+00  0.00000000E+00
  0.00000000E+00  0.00000000E+00  0.00000000E+00
  0.00000000E+00  0.00000000E+00  0.00000000E+00
  0.00000000E+00  0.00000000E+00  0.00000000E+00
  0.00000000E+00  0.00000000E+00  0.00000000E+00
  0.00000000E+00  0.00000000E+00  0.00000000E+00
  0.00000000E+00  0.00000000E+00  0.00000000E+00
  0.00000000E+00  0.00000000E+00  0.00000000E+00
  0.00000000E+00  0.00000000E+00  0.00000000E+00
  0.00000000E+00  0.00000000E+00  0.00000000E+00
  0.00000000E+00  0.00000000E+00  0.00000000E+00
  0.00000000E+00  0.00000000E+00  0.00000000E+00
  0.00000000E+00  0.00000000E+00  0.00000000E+00
  0.00000000E+00  0.00000000E+00  0.00000000E+00
  0.00000000E+00  0.00000000E+00  0.00000000E+00
  0.00000000E+00  0.00000000E+00  0.00000000E+00
  0.00000000E+00  0.00000000E+00  0.00000000E+00
  0.00000000E+00  0.00000000E+00  0.00000000E+00
  0.00000000E+00  0.00000000E+00  0.00000000E+00
  0.00000000E+00  0.00000000E+00  0.00000000E+00
  0.00000000E+00  0.00000000E+00  0.00000000E+00
  0.00000000E+00  0.00000000E+00  0.00000000E+00
  0.00000000E+00  0.00000000E+00  0.00000000E+00
  0.00000000E+00  0.00000000E+00  0.00000000E+00
  0.00000000E+00  0.00000000E+00  0.00000000E+00
  0.00000000E+00  0.00000000E+00  0.00000000E+00
  0.00000000E+00  0.00000000E+00  0.00000000E+00
  0.00000000E+00  0.00000000E+00  0.00000000E+00
  0.00000000E+00  0.00000000E+00  0.00000000E+00
  0.00000000E+00  0.00000000E+00  0.00000000E+00
  0.00000000E+00  0.00000000E+00  0.00000000E+00
  0.00000000E+00  0.00000000E+00  0.00000000E+00
  0.00000000E+00  0.00000000E+00  0.00000000E+00
  0.00000000E+00  0.00000000E+00  0.00000000E+00
  0.00000000E+00  0.00000000E+00  0.00000000E+00
  0.00000000E+00  0.00000000E+00  0.00000000E+00
  0.00000000E+00  0.00000000E+00  0.00000000E+00
  0.00000000E+00  0.00000000E+00  0.00000000E+00
  0.00000000E+00  0.00000000E+00  0.00000000E+00
  0.00000000E+00  0.00000000E+00  0.00000000E+00
  0.00000000E+00  0.00000000E+00  0.00000000E+00
  0.00000000E+00  0.00000000E+00  0.00000000E+00
  0.00000000E+00  0.00000000E+00  0.00000000E+00
  0.00000000E+00  0.00000000E+00  0.00000000E+00
  0.00000000E+00  0.00000000E+00  0.00000000E+00
  0.00000000E+00  0.00000000E+00  0.00000000E+00
  0.00000000E+00  0.00000000E+00  0.00000000E+00
  0.00000000E+00  0.00000000E+00  0.00000000E+00
  0.00000000E+00  0.00000000E+00  0.00000000E+00
  0.00000000E+00  0.00000000E+00  0.00000000E+00
  0.00000000E+00  0.00000000E+00  0.00000000E+00
  0.00000000E+00  0.00000000E+00  0.00000000E+00
  0.00000000E+00  0.00000000E+00  0.00000000E+00
  0.00000000E+00  0.00000000E+00  0.00000000E+00
  0.00000000E+00  0.00000000E+00  0.00000000E+00
  0.00000000E+00  0.00000000E+00  0.00000000E+00
  0.00000000E+00  0.00000000E+00  0.00000000E+00
  0.00000000E+00  0.00000000E+00  0.00000000E+00
  0.00000000E+00  0.00000000E+00  0.00000000E+00
  0.00000000E+00  0.00000000E+00  0.00000000E+00
  0.00000000E+00  0.00000000E+00  0.00000000E+00
  0.00000000E+00  0.00000000E+00  0.00000000E+00
  0.00000000E+00  0.00000000E+00  0.00000000E+00
  0.00000000E+00  0.00000000E+00  0.00000000E+00
  0.00000000E+00  0.00000000E+00  0.00000000E+00
  0.00000000E+00  0.00000000E+00  0.00000000E+00
  0.00000000E+00  0.00000000E+00  0.00000000E+00
  0.00000000E+00  0.00000000E+00  0.00000000E+00
  0.00000000E+00  0.00000000E+00  0.00000000E+00
  0.00000000E+00  0.00000000E+00  0.00000000E+00
  0.00000000E+00  0.00000000E+00  0.00000000E+00
  0.00000000E+00  0.00000000E+00  0.00000000E+00
  0.00000000E+00  0.00000000E+00  0.00000000E+00
  0.00000000E+00  0.00000000E+00  0.00000000E+00
  0.00000000E+00  0.00000000E+00  0.00000000E+00
  0.00000000E+00  0.00000000E+00  0.00000000E+00
  0.00000000E+00  0.00000000E+00  0.00000000E+00
  0.00000000E+00  0.00000000E+00  0.00000000E+00
  0.00000000E+00  0.00000000E+00  0.00000000E+00
  0.00000000E+00  0.00000000E+00  0.00000000E+00
  0.00000000E+00  0.00000000E+00  0.00000000E+00
  0.00000000E+00  0.00000000E+00  0.00000000E+00
  0.00000000E+00  0.00000000E+00  0.00000000E+00
  0.00000000E+00  0.00000000E+00  0.00000000E+00
  0.00000000E+00  0.00000000E+00  0.00000000E+00
  0.00000000E+00  0.00000000E+00  0.00000000E+00
  0.00000000E+00  0.00000000E+00  0.00000000E+00
  0.00000000E+00  0.00000000E+00  0.00000000E+00
  0.00000000E+00  0.00000000E+00  0.00000000E+00
  0.00000000E+00  0.00000000E+00  0.00000000E+00
  0.00000000E+00  0.00000000E+00  0.00000000E+00
  0.00000000E+00  0.00000000E+00  0.00000000E+00
  0.00000000E+00  0.00000000E+00  0.00000000E+00
  0.00000000E+00  0.00000000E+00  0.00000000E+00
  0.00000000E+00  0.00000000E+00  0.00000000E+00
  0.00000000E+00  0.00000000E+00  0.00000000E+00
  0.00000000E+00  0.00000000E+00  0.00000000E+00
  0.00000000E+00  0.00000000E+00  0.00000000E+00
  0.00000000E+00  0.00000000E+00  0.00000000E+00
  0.00000000E+00  0.00000000E+00  0.00000000E+00
  0.00000000E+00  0.00000000E+00  0.00000000E+00
  0.00000000E+00  0.00000000E+00  0.00000000E+00
  0.00000000E+00  0.00000000E+00  0.00000000E+00
  0.00000000E+00  0.00000000E+00  0.00000000E+00
  0.00000000E+00  0.00000000E+00  0.00000000E+00
  0.00000000E+00  0.00000000E+00  0.00000000E+00
  0.00000000E+00  0.00000000E+00  0.00000000E+00
  0.00000000E+00  0.00000000E+00  0.00000000E+00
  0.00000000E+00  0.00000000E+00  0.00000000E+00
  0.00000000E+00  0.00000000E+00  0.00000000E+00
  0.00000000E+00  0.00000000E+00  0.00000000E+00
  0.00000000E+00  0.00000000E+00  0.00000000E+00
  0.00000000E+00  0.00000000E+00  0.00000000E+00
  0.00000000E+00  0.00000000E+00  0.00000000E+00
  0.00000000E+00  0.00000000E+00  0.00000000E+00
  0.00000000E+00  0.00000000E+00  0.00000000E+00
  0.00000000E+00  0.00000000E+00  0.00000000E+00
  0.00000000E+00  0.00000000E+00  0.00000000E+00
  0.00000000E+00  0.00000000E+00  0.00000000E+00
  0.00000000E+00  0.00000000E+00  0.00000000E+00
  0.00000000E+00  0.00000000E+00  0.00000000E+00
  0.00000000E+00  0.00000000E+00  0.00000000E+00
  0.00000000E+00  0.00000000E+00  0.00000000E+00
  0.00000000E+00  0.00000000E+00  0.00000000E+00
  0.00000000E+00  0.00000000E+00  0.00000000E+00
  0.00000000E+00  0.00000000E+00  0.00000000E+00
  0.00000000E+00  0.00000000E+00  0.00000000E+00
  0.00000000E+00  0.00000000E+00  0.00000000E+00
  0.00000000E+00  0.00000000E+00  0.00000000E+00
  0.00000000E+00  0.00000000E+00  0.00000000E+00
  0.00000000E+00  0.00000000E+00  0.00000000E+00
  0.00000000E+00  0.00000000E+00  0.00000000E+00
  0.00000000E+00  0.00000000E+00  0.00000000E+00
  0.00000000E+00  0.00000000E+00  0.00000000E+00
  0.00000000E+00  0.00000000E+00  0.00000000E+00
  0.00000000E+00  0.00000000E+00  0.00000000E+00
  0.00000000E+00  0.00000000E+00  0.00000000E+00
  0.00000000E+00  0.00000000E+00  0.00000000E+00
  0.00000000E+00  0.00000000E+00  0.00000000E+00
  0.00000000E+00  0.00000000E+00  0.00000000E+00
  0.00000000E+00  0.00000000E+00  0.00000000E+00
  0.00000000E+00  0.00000000E+00  0.00000000E+00
  0.00000000E+00  0.00000000E+00  0.00000000E+00
  0.00000000E+00  0.00000000E+00  0.00000000E+00
  0.00000000E+00  0.00000000E+00  0.00000000E+00
  0.00000000E+00  0.00000000E+00  0.00000000E+00
  0.00000000E+00  0.00000000E+00  0.00000000E+00
  0.00000000E+00  0.00000000E+00  0.00000000E+00
  0.00000000E+00  0.00000000E+00  0.00000000E+00
  0.00000000E+00  0.00000000E+00  0.00000000E+00
  0.00000000E+00  0.00000000E+00  0.00000000E+00
  0.00000000E+00  0.00000000E+00  0.00000000E+00
  0.00000000E+00  0.00000000E+00  0.00000000E+00
  0.00000000E+00  0.00000000E+00  0.00000000E+00
  0.00000000E+00  0.00000000E+00  0.00000000E+00
  0.00000000E+00  0.00000000E+00  0.00000000E+00
  0.00000000E+00  0.00000000E+00  0.00000000E+00
  0.00000000E+00  0.00000000E+00  0.00000000E+00
  0.00000000E+00  0.00000000E+00  0.00000000E+00
  0.00000000E+00  0.00000000E+00  0.00000000E+00
  0.00000000E+00  0.00000000E+00  0.00000000E+00
  0.00000000E+00  0.00000000E+00  0.00000000E+00
  0.00000000E+00  0.00000000E+00  0.00000000E+00
  0.00000000E+00  0.00000000E+00  0.00000000E+00
  0.00000000E+00  0.00000000E+00  0.00000000E+00
  0.00000000E+00  0.00000000E+00  0.00000000E+00
  0.00000000E+00  0.00000000E+00  0.00000000E+00
  0.00000000E+00  0.00000000E+00  0.00000000E+00
  0.00000000E+00  0.00000000E+00  0.00000000E+00
  0.00000000E+00  0.00000000E+00  0.00000000E+00
  0.00000000E+00  0.00000000E+00  0.00000000E+00
  0.00000000E+00  0.00000000E+00  0.00000000E+00
  0.00000000E+00  0.00000000E+00  0.00000000E+00
  0.00000000E+00  0.00000000E+00  0.00000000E+00
  0.00000000E+00  0.00000000E+00  0.00000000E+00
  0.00000000E+00  0.00000000E+00  0.00000000E+00
  0.00000000E+00  0.00000000E+00  0.00000000E+00
  0.00000000E+00  0.00000000E+00  0.00000000E+00
  0.00000000E+00  0.00000000E+00  0.00000000E+00
  0.00000000E+00  0.00000000E+00  0.00000000E+00
  0.00000000E+00  0.00000000E+00  0.00000000E+00
  0.00000000E+00  0.00000000E+00  0.00000000E+00
  0.00000000E+00  0.00000000E+00  0.00000000E+00
  0.00000000E+00  0.00000000E+00  0.00000000E+00
  0.00000000E+00  0.00000000E+00  0.00000000E+00
  0.00000000E+00  0.00000000E+00  0.00000000E+00
  0.00000000E+00  0.00000000E+00  0.00000000E+00
  0.00000000E+00  0.00000000E+00  0.00000000E+00
  0.00000000E+00  0.00000000E+00  0.00000000E+00
  0.00000000E+00  0.00000000E+00  0.00000000E+00
  0.00000000E+00  0.00000000E+00  0.00000000E+00
  0.00000000E+00  0.00000000E+00  0.00000000E+00
  0.00000000E+00  0.00000000E+00  0.00000000E+00
  0.00000000E+00  0.00000000E+00  0.00000000E+00
  0.00000000E+00  0.00000000E+00  0.00000000E+00
  0.00000000E+00  0.00000000E+00  0.00000000E+00
  0.00000000E+00  0.00000000E+00  0.00000000E+00
  0.00000000E+00  0.00000000E+00  0.00000000E+00
  0.00000000E+00  0.00000000E+00  0.00000000E+00
  0.00000000E+00  0.00000000E+00  0.00000000E+00
  0.00000000E+00  0.00000000E+00  0.00000000E+00
  0.00000000E+00  0.00000000E+00  0.00000000E+00
  0.00000000E+00  0.00000000E+00  0.00000000E+00
  0.00000000E+00  0.00000000E+00  0.00000000E+00
  0.00000000E+00  0.00000000E+00  0.00000000E+00
  0.00000000E+00  0.00000000E+00  0.00000000E+00
  0.00000000E+00  0.00000000E+00  0.00000000E+00
  0.00000000E+00  0.00000000E+00  0.00000000E+00
  0.00000000E+00  0.00000000E+00  0.00000000E+00
  0.00000000E+00  0.00000000E+00  0.00000000E+00
  0.00000000E+00  0.00000000E+00  0.00000000E+00
  0.00000000E+00  0.00000000E+00  0.00000000E+00
  0.00000000E+00  0.00000000E+00  0.00000000E+00
  0.00000000E+00  0.00000000E+00  0.00000000E+00
  0.00000000E+00  0.00000000E+00  0.00000000E+00
  0.00000000E+00  0.00000000E+00  0.00000000E+00
  0.00000000E+00  0.00000000E+00  0.00000000E+00
  0.00000000E+00  0.00000000E+00  0.00000000E+00
  0.00000000E+00  0.00000000E+00  0.00000000E+00
  0.00000000E+00  0.00000000E+00  0.00000000E+00
  0.00000000E+00  0.00000000E+00  0.00000000E+00
  0.00000000E+00  0.00000000E+00  0.00000000E+00
  0.00000000E+00  0.00000000E+00  0.00000000E+00
  0.00000000E+00  0.00000000E+00  0.00000000E+00
  0.00000000E+00  0.00000000E+00  0.00000000E+00
  0.00000000E+00  0.00000000E+00  0.00000000E+00
  0.00000000E+00  0.00000000E+00  0.00000000E+00
  0.00000000E+00  0.00000000E+00  0.00000000E+00
  0.00000000E+00  0.00000000E+00  0.00000000E+00
  0.00000000E+00  0.00000000E+00  0.00000000E+00
  0.00000000E+00  0.00000000E+00  0.00000000E+00
  0.00000000E+00  0.00000000E+00  0.00000000E+00
  0.00000000E+00  0.00000000E+00  0.00000000E+00