 C N B 
 1.0
 17.527899999999772   0.000000000000000   0.000000000000000
 -8.763949999999658  15.179606674993195   0.000000000000000
  0.000000000000001   0.000000000000002  15.000000000000000
 C N B 
   4  47  46
Cartesian
  5.019003213292770   5.770020371367829   1.667092805596770 
  3.764021311797553   7.949915379546987   1.665953214461025 
  4.931632733773485   7.120945222407046   1.669729299207240 
  3.747175168110705   9.318467305509067   1.660826175061710 
  8.770565951102787  13.743935209667576   1.665229807211595 
 16.280559185288460   0.728298140271128   1.665184209111960 
 15.026647374601531   2.893296753326446   1.665254746050180 
 13.772075804279744   5.059868891664398   1.665181565408205 
 12.516998349286254   7.225692676435009   1.664746487533185 
 11.275250502147554   9.395051861138009   1.665178219503330 
 10.024974079034806  11.569334047449404   1.665437411916645 
 -6.258373098015973  13.737623466816691   1.664908055584680 
  1.256099382863491   0.731569592819065   1.665097961001690 
  0.008877931980487   2.899186515740715   1.665000876774915 
 -1.240532854608079   5.059868891664398   1.664943538903695 
 -2.502251601970690   7.224985180103100   1.665214758116370 
 -3.758593299489680   9.393904078976714   1.665236997273015 
 -5.005860326910772  11.566486679589323   1.664955945927420 
 -3.757088123039985  13.737015679665944   1.664823307688370 
  3.753878133236469   0.723032006249513   1.665418635096900 
  2.512362651727407   2.902902711041746   1.665498151581555 
  1.277994902203781   5.070181365096276   1.665077765479065 
  0.011852715987049   7.225472325807041   1.665391378301070 
 -1.265743635092933   9.393151076828433   1.665570569285670 
 -2.507709221623124  11.565963022926493   1.665153743060535 
 -1.254891562403354  13.737802531177037   1.665203589141930 
  6.258547715443194   0.722195954218304   1.665324769413300 
  5.003505162809519   2.877710545881819   1.665606923459625 
  3.800053369160192   5.059868891664398   1.665947153136315 
  2.538837429461284   7.232938973532098   1.665657699939435 
  1.216814595067871   9.395155471534933   1.665480726255000 
 -0.010867563456348  11.567809853840238   1.665492054492615 
  1.246208701666099  13.738592460110711   1.665272280137670 
  8.758845320891934   0.728862416964284   1.664932090338705 
  7.498944623391854   2.896995790296715   1.664821095571365 
  6.206191067016086   5.051045580271391   1.665102566152065 
  2.487264606116726  11.565298603754901   1.664966456007150 
  3.752230366726891  13.733770138978301   1.665029277303915 
 11.267029540851857   0.724407951522588   1.665208014179745 
 10.011066859952777   2.891643061124600   1.665314727647670 
  8.745138607993345   5.049896965071025   1.664946229186185 
  7.564295773334485   7.159263955102100   1.664363682695385 
  6.288025746309174   9.544894818408592   1.665167389197390 
  5.009082862889316  11.578936173079086   1.664724714305850 
  6.263268026730234  13.741465966338460   1.664996670220470 
 13.770866308734613   0.723014781845520   1.665385127612550 
 12.517094003813394   2.891773473137454   1.665585877717500 
 11.259583617755567   5.059868891664398   1.665325873738950 
 10.005646281729451   7.224452415526428   1.664988370635870 
  8.787565474027296   9.400030985960097   1.665084928502190 
  7.526010097522959  11.584325240121542   1.665264327200160 
  7.514722903734040  14.460709687067480   1.665342612660285 
 15.024098534881272   1.443733283435384   1.665680209630125 
 13.769850533853413   3.614487410334860   1.665677097609225 
 12.515649430065972   5.781651982409670   1.665166506624360 
 11.263353642163063   7.949815866140280   1.665085458202275 
 10.030244483507936  10.119737783328796   1.665715091956575 
  8.774045566887358  12.297381267604150   1.665659885068890 
 -7.508199469397199  14.463418614562650   1.665313968523545 
  0.002264011212706   1.450893935989235   1.665318467284200 
 -1.247611133375507   3.616912243215233   1.665151077738735 
 -2.501374082983573   5.780914143981497   1.665387370891110 
 -3.756880954798243   7.948652627543841   1.665177450426195 
 -5.005626084458165  10.119737783328796   1.665438527226615 
 -6.255843507009230  12.290381557159998   1.665211276558590 
 -5.009683013361460  14.455941704036080   1.665142482997950 
  2.505771856505522   1.449199456712443   1.665594007613145 
  1.259145632440466   3.621201255632498   1.665532268540280 
  0.010820520159170   5.785243335718006   1.665140310321405 
 -1.251374310810843   7.948810833023153   1.665814729113165 
 -2.512755433458578  10.119737783328796   1.665711211364895 
 -3.757100277096394  12.289663178204377   1.665042297608985 
 -2.503488050149482  14.455906282329654   1.665346337293845 
  5.006507298626002   1.432847236132992   1.665989189361570 
  3.769661372937304   3.604408824314671   1.666072656478890 
  2.531995242409628   5.791191607982474   1.665732890610960 
  1.256842853753835   7.964317378192141   1.665771320753070 
 -0.024238896764261  10.123296717540097   1.665964413172590 
 -1.253881032796287  12.291523438779242   1.665648858663900 
 -0.002048039536099  14.460510402449817   1.665287200119390 
  7.507311538328119   1.448272154404139   1.665180817079445 
  6.240961980826214   3.600865580335231   1.665180398490660 
  2.466852860604430  10.111335722390825   1.663800946023390 
  1.245792310002667  12.290394285191038   1.665771756684495 
  2.501706015845356  14.456680906527025   1.665419166715380 
 10.015016364927586   1.445396020971870   1.665205514206650 
  8.758114129206751   3.611117631748888   1.665237717442275 
  7.478667875314594   5.770799758114499   1.664953748201070 
  5.024624750760128  10.115652580146497   1.663810649506365 
  3.748781079021185  12.281000109907959   1.664969023034940 
  5.006080708686405  14.454519470658786   1.665321761905590 
 12.519038826224735   1.444796767500235   1.665807002374860 
 11.264377098590835   3.614532504901792   1.665804430860345 
 10.001236038085739   5.781302332004403   1.665364829748930 
  8.745584230415533   7.965676892960421   1.665098729410380 
  7.555487329089177  10.128705708293788   1.665621474833445 
  6.261758530282249  12.292677080599159   1.665126616351260 
