Species order: N B                      
   2.51242800000000     
     5.9449720136058266    0.0000000000000000    0.0000000000000000
    -2.9724860068029120    5.1484967885702053   -0.0000000000000001
     0.0000000000000000    0.0000000000000009    5.3101128803662583
   N    B 
   143   144
Direct
  0.1110949029698030  0.0555573711430700  0.1249286070357556
  0.6111840219914259  0.5557013773161793  0.1239339223018828
  0.4444646725809931  0.0555734781573774  0.1248911576878665
  0.9444265218426227  0.5555353274190071  0.1248911576878665
  0.7777909301062269  0.0555621317197813  0.1249094046999512
  0.1111004407996687  0.7222168870664986  0.6250922501656101
  0.4444646725809931  0.7222245277569515  0.6251088423121335
  0.2777338252474853  0.2222107493278662  0.6252127638901958
  0.7777892506721337  0.7222661747525148  0.6252127638901958
  0.6111435907470523  0.2222107493278662  0.6252127638901958
  0.9444378682802186  0.2222090698937732  0.6250905953000490
  0.2777831129335013  0.7222168870664986  0.1249077498343896
  0.1110731910109648  0.2222032621721468  0.1249178670300138
  0.4444469095895861  0.2222271525125082  0.1246857079134120
  0.6111435907470523  0.7222661747525148  0.1247872361098042
  0.9444265218426227  0.7222245277569515  0.1248911576878665
  0.7777967378278542  0.2222032621721468  0.1249178670300138
  0.1111019143012304  0.8888980856987693  0.6251132917673339
  0.4444628380642108  0.8888980856987693  0.6251132917673339
  0.2777338252474853  0.3888564092529475  0.6252127638901958
  0.6111840219914259  0.3888159780085746  0.6260660776981175
  0.7777967378278542  0.8889268089890351  0.6250821329699865
  0.9444426288569299  0.3888708651600615  0.6250713929642447
  0.1110949029698030  0.3888708651600615  0.1249286070357556
  0.2777831129335013  0.8888995592003313  0.1249077498343896
  0.6111291348399387  0.8889050970301974  0.1249286070357556
  0.4442986226838204  0.3888159780085746  0.1239339223018828
  0.9444426288569299  0.8889050970301974  0.1249286070357556
  0.7777892506721337  0.3888564092529475  0.1247872361098042
  0.2777754722430487  0.5555353274190071  0.6251088423121335
  0.1110949029698030  0.0555573711430700  0.6250713929642447
  0.6111840219914259  0.5557013773161793  0.6260660776981175
  0.4444646725809931  0.0555734781573774  0.6251088423121335
  0.9444265218426227  0.5555353274190071  0.6251088423121335
  0.1111019143012304  0.5555371619357893  0.1248867082326663
  0.7777909301062269  0.0555621317197813  0.6250905953000490
  0.2777754722430487  0.0555734781573774  0.1248911576878665
  0.4444469095895861  0.5555530904104140  0.1246857079134120
  0.7777728474874921  0.5555530904104140  0.1246857079134120
  0.6111291348399387  0.0555573711430700  0.1249286070357556
  0.4444469095895861  0.5555530904104140  0.6253142920865884
  0.9444378682802186  0.0555621317197813  0.1249094046999512
  0.2777831129335013  0.7222168870664986  0.6250922501656101
  0.1110731910109648  0.2222032621721468  0.6250821329699865
  0.4444469095895861  0.2222271525125082  0.6253142920865884
  0.6111435907470523  0.7222661747525148  0.6252127638901958
  0.9444265218426227  0.7222245277569515  0.6251088423121335
  0.7777967378278542  0.2222032621721468  0.6250821329699865
  0.1111004407996687  0.7222168870664986  0.1249077498343896
  0.4444646725809931  0.7222245277569515  0.1248911576878665
  0.2777338252474853  0.2222107493278662  0.1247872361098042
  0.7777892506721337  0.7222661747525148  0.1247872361098042
  0.6111435907470523  0.2222107493278662  0.1247872361098042
  0.9444378682802186  0.2222090698937732  0.1249094046999512
  0.1110949029698030  0.3888708651600615  0.6250713929642447
  0.2777831129335013  0.8888995592003313  0.6250922501656101
  0.6111291348399387  0.8889050970301974  0.6250713929642447
  0.4442986226838204  0.3888159780085746  0.6260660776981175
  0.9444426288569299  0.8889050970301974  0.6250713929642447
  0.1111019143012304  0.8888980856987693  0.1248867082326663
  0.7777892506721337  0.3888564092529475  0.6252127638901958
  0.4444628380642108  0.8888980856987693  0.1248867082326663
  0.2777338252474853  0.3888564092529475  0.1247872361098042
  0.2777754722430487  0.5555353274190071  0.1248911576878665
  0.6111840219914259  0.3888159780085746  0.1239339223018828
  0.7777967378278542  0.8889268089890351  0.1249178670300138
  0.9444426288569299  0.3888708651600615  0.1249286070357556
  0.1111019143012304  0.5555371619357893  0.6251132917673339
  0.2777754722430487  0.0555734781573774  0.6251088423121335
  0.7777728474874921  0.5555530904104140  0.6253142920865884
  0.6111291348399387  0.0555573711430700  0.6250713929642447
  0.9444378682802186  0.0555621317197813  0.6250905953000490
  0.0563471583406823  0.1115980702037452  0.3750000000000000
  0.5542793309561959  0.6046400799872806  0.3750000000000000
  0.3889880527896376  0.1113094389126179  0.3750000000000000
  0.8886905610873821  0.6110119472103621  0.3750000000000000
  0.7219175785297275  0.1115980702037452  0.3750000000000000
  0.0555624361523196  0.7777807387774359  0.8750000000000000
  0.3888849692917805  0.7777807387774359  0.8750000000000000
  0.2222291540017121  0.2777812436675239  0.8750000000000000
  0.7222187563324759  0.7777708459982878  0.8750000000000000
  0.5555459479509997  0.2777673735206962  0.8750000000000000
  0.8888906945351203  0.2777849198855321  0.8750000000000000
  0.2222222222222214  0.7777777777777786  0.3750000000000000
  0.0563471583406823  0.2780824214702729  0.3750000000000000
  0.3953599200127196  0.2829725843022512  0.3750000000000000
  0.5554582179546808  0.7754122283149342  0.3750000000000000
  0.8866206770269180  0.7754122283149342  0.3750000000000000
  0.7209655680136624  0.2790344319863381  0.3750000000000000
  0.0555590752885038  0.9444409247114965  0.8750000000000000
  0.3888849692917805  0.9444375638476807  0.8750000000000000
  0.2222233083419181  0.4444520643256808  0.8750000000000000
  0.5555555555555571  0.4444444444444429  0.8750000000000000
  0.7222150801144680  0.9444391079829243  0.8750000000000000
  0.8888954226504274  0.4444520643256808  0.8750000000000000
  0.0554864015806000  0.4443061364945287  0.3750000000000000
  0.2222603904266859  0.9446677643130815  0.3750000000000000
  0.5556938635054712  0.9445135984194001  0.3750000000000000
  0.3953599200127196  0.4457206690438039  0.3750000000000000
  0.8884019297962547  0.9436528416593172  0.3750000000000000
  0.7170274156977486  0.4457206690438039  0.3750000000000000
  0.2222192612225641  0.6111150307082195  0.8750000000000000
  0.0555608920170763  0.1111093054648800  0.8750000000000000
  0.5555459479509997  0.6111119077636393  0.8750000000000000
  0.3888806667663527  0.1110946668660480  0.8750000000000000
  0.8889053331339517  0.6111193332336472  0.8750000000000000
  0.0553322356869189  0.6109259594469406  0.3750000000000000
  0.7222150801144680  0.1111093054648800  0.8750000000000000
  0.2245877716850654  0.1133793229730820  0.3750000000000000
  0.3889880527896375  0.6110119472103621  0.3750000000000000
  0.7170274156977486  0.6046400799872806  0.3750000000000000
  0.5554582179546808  0.1133793229730820  0.3750000000000000
  0.3888806667663527  0.6111193332336472  0.8750000000000000
  0.8888888888888857  0.1111111111111143  0.3750000000000000
  0.2222222222222214  0.7777777777777786  0.8750000000000000
  0.0555608920170763  0.2777849198855321  0.8750000000000000
  0.3888880922363606  0.2777673735206962  0.8750000000000000
  0.5555479356743190  0.7777766916580824  0.8750000000000000
  0.8888954226504274  0.7777766916580824  0.8750000000000000
  0.7222187563324759  0.2777812436675239  0.8750000000000000
  0.0553322356869189  0.7777396095733139  0.3750000000000000
  0.3890740405530591  0.7777396095733139  0.3750000000000000
  0.2247355306393402  0.2790344319863381  0.3750000000000000
  0.7209655680136624  0.7752644693606595  0.3750000000000000
  0.5542793309561960  0.2829725843022512  0.3750000000000000
  0.8884019297962547  0.2780824214702729  0.3750000000000000
  0.0555590752885038  0.4444514839103365  0.8750000000000000
  0.2222192612225641  0.9444375638476807  0.8750000000000000
  0.5555485160896635  0.9444409247114965  0.8750000000000000
  0.3888880922363606  0.4444540520490000  0.8750000000000000
  0.8888906945351203  0.9444391079829243  0.8750000000000000
  0.0554864015806000  0.9445135984194001  0.3750000000000000
  0.7222326264793039  0.4444540520490000  0.8750000000000000
  0.3890740405530591  0.9446677643130815  0.3750000000000000
  0.2245877716850654  0.4445417820453190  0.3750000000000000
  0.2222603904266859  0.6109259594469406  0.3750000000000000
  0.7219175785297275  0.9436528416593172  0.3750000000000000
  0.8866206770269180  0.4445417820453190  0.3750000000000000
  0.0555624361523196  0.6111150307082195  0.8750000000000000
  0.2222233083419181  0.1111045773495730  0.8750000000000000
  0.7222326264793039  0.6111119077636393  0.8750000000000000
  0.5555479356743190  0.1111045773495730  0.8750000000000000
  0.8888888888888857  0.1111111111111143  0.8750000000000000
  0.1126855348971200  0.0566548173279766  0.3750000000000000
  0.6012585399711513  0.5358504132756322  0.3750000000000000
  0.4444869082867614  0.0562649560148525  0.3750000000000000
  0.9437350439851475  0.5555130917132386  0.3750000000000000
  0.7773377306684421  0.0553355320008888  0.3750000000000000
  0.1111045908692724  0.7222189621013004  0.8750000000000000
  0.4444414882086494  0.7221911330495945  0.8750000000000000
  0.2778588831105027  0.2222714753215166  0.8750000000000000
  0.7777285246784834  0.7221411168894972  0.8750000000000000
  0.6110792588776854  0.2222714753215166  0.8750000000000000
  0.9444522162822333  0.2222377658978028  0.8750000000000000
  0.2778904157144285  0.7221095842855720  0.3750000000000000
  0.1131829491468786  0.2232581412401037  0.3750000000000000
  0.4448854042993785  0.2231041419320926  0.3750000000000000
  0.6097424138639095  0.7165746220556256  0.3750000000000000
  0.9437350439851475  0.7215552856052446  0.3750000000000000
  0.7767418587598962  0.2232581412401037  0.3750000000000000
  0.1111164979744799  0.8888835020255199  0.8750000000000000
  0.4444336707177117  0.8888835020255199  0.8750000000000000
  0.2778588831105027  0.3889207411223146  0.8750000000000000
  0.6110740766287464  0.3889259233712540  0.8750000000000000
  0.7777500515662537  0.8888334364658362  0.8750000000000000
  0.9444322749742968  0.3889115814395693  0.8750000000000000
  0.1126855348971200  0.3893640509024718  0.3750000000000000
  0.2778904157144285  0.8891141647621855  0.3750000000000000
  0.6106359490975284  0.8873144651028803  0.3750000000000000
  0.4641495867243683  0.3987414600288482  0.3750000000000000
  0.9433451826720236  0.8873144651028803  0.3750000000000000
  0.7734988748583873  0.3902575861360904  0.3750000000000000
  0.2778088669504055  0.5555585117913511  0.8750000000000000
  0.1111459731319442  0.0555677250257033  0.8750000000000000
  0.6110740766287464  0.5554814865908206  0.8750000000000000
  0.4444414882086494  0.0555836884923906  0.8750000000000000
  0.9444163115076092  0.5555585117913511  0.8750000000000000
  0.1110808306460657  0.5554949946254601  0.3750000000000000
  0.7777622341021971  0.0555477837177665  0.8750000000000000
  0.2784447143947554  0.0562649560148525  0.3750000000000000
  0.4448854042993785  0.5551145957006216  0.3750000000000000
  0.7768958580679074  0.5551145957006216  0.3750000000000000
  0.6106359490975284  0.0566548173279766  0.3750000000000000
  0.4444717884980702  0.5555282115019300  0.8750000000000000
  0.9446644679991114  0.0553355320008888  0.3750000000000000
  0.2777810378986995  0.7222189621013004  0.8750000000000000
  0.1111665635341641  0.2222499484337463  0.8750000000000000
  0.4444717884980702  0.2222769103294760  0.8750000000000000
  0.6110792588776854  0.7221411168894972  0.8750000000000000
  0.9444163115076092  0.7221911330495945  0.8750000000000000
  0.7777500515662537  0.2222499484337463  0.8750000000000000
  0.1108858352378147  0.7221095842855720  0.3750000000000000
  0.4444869082867614  0.7215552856052446  0.3750000000000000
  0.2834253779443742  0.2265011251416126  0.3750000000000000
  0.7734988748583873  0.7165746220556256  0.3750000000000000
  0.6097424138639095  0.2265011251416126  0.3750000000000000
  0.9446644679991114  0.2226622693315582  0.3750000000000000
  0.1111459731319442  0.3889115814395693  0.8750000000000000
  0.2777810378986995  0.8888954091307276  0.8750000000000000
  0.6110884185604304  0.8888540268680557  0.8750000000000000
  0.4445185134091795  0.3889259233712540  0.8750000000000000
  0.9444322749742968  0.8888540268680557  0.8750000000000000
  0.1110808306460657  0.8889191693539344  0.3750000000000000
  0.7777285246784834  0.3889207411223146  0.8750000000000000
  0.4445050053745403  0.8889191693539344  0.3750000000000000
  0.2834253779443742  0.3902575861360904  0.3750000000000000
  0.2784447143947554  0.5555130917132386  0.3750000000000000
  0.6012585399711513  0.3987414600288482  0.3750000000000000
  0.7767418587598962  0.8868170508531218  0.3750000000000000
  0.9433451826720236  0.3893640509024718  0.3750000000000000
  0.1111164979744799  0.5555663292822884  0.8750000000000000
  0.2778088669504055  0.0555836884923906  0.8750000000000000
  0.7777230896705238  0.5555282115019300  0.8750000000000000
  0.6110884185604304  0.0555677250257033  0.8750000000000000
  0.9444522162822333  0.0555477837177665  0.8750000000000000
  0.0555839042138800  0.1111412302247159  0.1250712247385980
  0.5556464264319714  0.6109380911938900  0.1250809257069721
  0.3890088356154340  0.1113510045642104  0.1251394187275575
  0.8886489954357891  0.6109911643845662  0.1251394187275575
  0.7222239926775004  0.1111412302247159  0.1250712247385980
  0.0554630498944682  0.7777428845269846  0.6249313250555111
  0.3889465012991810  0.7777428845269846  0.6249313250555111
  0.2223247486930406  0.2778290410131880  0.6248941327801836
  0.7221709589868119  0.7776752513069597  0.6248941327801836
  0.5556464264319714  0.2780416685714170  0.6249190742930278
  0.8888587697752842  0.2777760073224998  0.6249287752614022
  0.2222222222222214  0.7777777777777786  0.1250591637765331
  0.0555839042138800  0.2777760073224998  0.1250712247385980
  0.3890619088061098  0.2780416685714170  0.1250809257069721
  0.5556024297868436  0.7776901124068264  0.1251191344063906
  0.8887543492866465  0.7776901124068264  0.1251191344063906
  0.7221709589868119  0.2778290410131880  0.1251058672198163
  0.0555381661129271  0.9444618338870732  0.6249179679963982
  0.3889465012991810  0.9445369501055316  0.6249313250555111
  0.2223098875931737  0.4443975702131561  0.6248808655936092
  0.5555555555555571  0.4444444444444429  0.6228046313346477
  0.7222239926775004  0.9444160957861202  0.6249287752614022
  0.8887543492866465  0.4443975702131561  0.6248808655936092
  0.0555381661129271  0.4444096655591830  0.1250820320036018
  0.2222571154730150  0.9445369501055316  0.1250686749444890
  0.5555903344408171  0.9444618338870732  0.1250820320036018
  0.3890619088061098  0.4443535735680286  0.1250809257069721
  0.8888587697752842  0.9444160957861202  0.1250712247385980
  0.7219583314285831  0.4443535735680286  0.1250809257069721
  0.2222571154730150  0.6110534987008194  0.6249313250555111
  0.0555839042138800  0.1111412302247159  0.6249287752614022
  0.5556464264319714  0.6109380911938900  0.6249190742930278
  0.3890088356154339  0.1113510045642104  0.6248605812724424
  0.8886489954357895  0.6109911643845662  0.6248605812724424
  0.0554630498944682  0.6110534987008194  0.1250686749444890
  0.7222239926775004  0.1111412302247159  0.6249287752614022
  0.2223098875931737  0.1112456507133533  0.1251191344063906
  0.3890088356154340  0.6109911643845662  0.1251394187275575
  0.7219583314285831  0.6109380911938900  0.1250809257069721
  0.5556024297868436  0.1112456507133532  0.1251191344063906
  0.3890088356154340  0.6109911643845662  0.6248605812724424
  0.8888888888888857  0.1111111111111143  0.1250392714675679
  0.2222222222222214  0.7777777777777786  0.6249408362234666
  0.0555839042138800  0.2777760073224998  0.6249287752614022
  0.3890619088061098  0.2780416685714170  0.6249190742930278
  0.5556024297868436  0.7776901124068264  0.6248808655936092
  0.8887543492866465  0.7776901124068264  0.6248808655936092
  0.7221709589868119  0.2778290410131880  0.6248941327801836
  0.0554630498944682  0.7777428845269846  0.1250686749444890
  0.3889465012991810  0.7777428845269846  0.1250686749444890
  0.2223247486930406  0.2778290410131880  0.1251058672198163
  0.7221709589868119  0.7776752513069597  0.1251058672198163
  0.5556464264319714  0.2780416685714170  0.1250809257069721
  0.8888587697752842  0.2777760073224998  0.1250712247385980
  0.0555381661129271  0.4444096655591830  0.6249179679963982
  0.2222571154730150  0.9445369501055316  0.6249313250555111
  0.5555903344408171  0.9444618338870732  0.6249179679963982
  0.3890619088061098  0.4443535735680286  0.6249190742930278
  0.8888587697752842  0.9444160957861202  0.6249287752614022
  0.0555381661129271  0.9444618338870732  0.1250820320036018
  0.7219583314285831  0.4443535735680286  0.6249190742930278
  0.3889465012991810  0.9445369501055316  0.1250686749444890
  0.2223098875931737  0.4443975702131561  0.1251191344063906
  0.2222571154730150  0.6110534987008194  0.1250686749444890
  0.5555555555555571  0.4444444444444429  0.1271953686653522
  0.7222239926775004  0.9444160957861202  0.1250712247385980
  0.8887543492866465  0.4443975702131561  0.1251191344063906
  0.0554630498944682  0.6110534987008194  0.6249313250555111
  0.2223098875931737  0.1112456507133533  0.6248808655936092
  0.7219583314285831  0.6109380911938900  0.6249190742930278
  0.5556024297868436  0.1112456507133533  0.6248808655936092
  0.8888888888888857  0.1111111111111143  0.6249607285324320
 
  0.00000000E+00  0.00000000E+00  0.00000000E+00
  0.00000000E+00  0.00000000E+00  0.00000000E+00
  0.00000000E+00  0.00000000E+00  0.00000000E+00
  0.00000000E+00  0.00000000E+00  0.00000000E+00
  0.00000000E+00  0.00000000E+00  0.00000000E+00
  0.00000000E+00  0.00000000E+00  0.00000000E+00
  0.00000000E+00  0.00000000E+00  0.00000000E+00
  0.00000000E+00  0.00000000E+00  0.00000000E+00
  0.00000000E+00  0.00000000E+00  0.00000000E+00
  0.00000000E+00  0.00000000E+00  0.00000000E+00
  0.00000000E+00  0.00000000E+00  0.00000000E+00
  0.00000000E+00  0.00000000E+00  0.00000000E+00
  0.00000000E+00  0.00000000E+00  0.00000000E+00
  0.00000000E+00  0.00000000E+00  0.00000000E+00
  0.00000000E+00  0.00000000E+00  0.00000000E+00
  0.00000000E+00  0.00000000E+00  0.00000000E+00
  0.00000000E+00  0.00000000E+00  0.00000000E+00
  0.00000000E+00  0.00000000E+00  0.00000000E+00
  0.00000000E+00  0.00000000E+00  0.00000000E+00
  0.00000000E+00  0.00000000E+00  0.00000000E+00
  0.00000000E+00  0.00000000E+00  0.00000000E+00
  0.00000000E+00  0.00000000E+00  0.00000000E+00
  0.00000000E+00  0.00000000E+00  0.00000000E+00
  0.00000000E+00  0.00000000E+00  0.00000000E+00
  0.00000000E+00  0.00000000E+00  0.00000000E+00
  0.00000000E+00  0.00000000E+00  0.00000000E+00
  0.00000000E+00  0.00000000E+00  0.00000000E+00
  0.00000000E+00  0.00000000E+00  0.00000000E+00
  0.00000000E+00  0.00000000E+00  0.00000000E+00
  0.00000000E+00  0.00000000E+00  0.00000000E+00
  0.00000000E+00  0.00000000E+00  0.00000000E+00
  0.00000000E+00  0.00000000E+00  0.00000000E+00
  0.00000000E+00  0.00000000E+00  0.00000000E+00
  0.00000000E+00  0.00000000E+00  0.00000000E+00
  0.00000000E+00  0.00000000E+00  0.00000000E+00
  0.00000000E+00  0.00000000E+00  0.00000000E+00
  0.00000000E+00  0.00000000E+00  0.00000000E+00
  0.00000000E+00  0.00000000E+00  0.00000000E+00
  0.00000000E+00  0.00000000E+00  0.00000000E+00
  0.00000000E+00  0.00000000E+00  0.00000000E+00
  0.00000000E+00  0.00000000E+00  0.00000000E+00
  0.00000000E+00  0.00000000E+00  0.00000000E+00
  0.00000000E+00  0.00000000E+00  0.00000000E+00
  0.00000000E+00  0.00000000E+00  0.00000000E+00
  0.00000000E+00  0.00000000E+00  0.00000000E+00
  0.00000000E+00  0.00000000E+00  0.00000000E+00
  0.00000000E+00  0.00000000E+00  0.00000000E+00
  0.00000000E+00  0.00000000E+00  0.00000000E+00
  0.00000000E+00  0.00000000E+00  0.00000000E+00
  0.00000000E+00  0.00000000E+00  0.00000000E+00
  0.00000000E+00  0.00000000E+00  0.00000000E+00
  0.00000000E+00  0.00000000E+00  0.00000000E+00
  0.00000000E+00  0.00000000E+00  0.00000000E+00
  0.00000000E+00  0.00000000E+00  0.00000000E+00
  0.00000000E+00  0.00000000E+00  0.00000000E+00
  0.00000000E+00  0.00000000E+00  0.00000000E+00
  0.00000000E+00  0.00000000E+00  0.00000000E+00
  0.00000000E+00  0.00000000E+00  0.00000000E+00
  0.00000000E+00  0.00000000E+00  0.00000000E+00
  0.00000000E+00  0.00000000E+00  0.00000000E+00
  0.00000000E+00  0.00000000E+00  0.00000000E+00
  0.00000000E+00  0.00000000E+00  0.00000000E+00
  0.00000000E+00  0.00000000E+00  0.00000000E+00
  0.00000000E+00  0.00000000E+00  0.00000000E+00
  0.00000000E+00  0.00000000E+00  0.00000000E+00
  0.00000000E+00  0.00000000E+00  0.00000000E+00
  0.00000000E+00  0.00000000E+00  0.00000000E+00
  0.00000000E+00  0.00000000E+00  0.00000000E+00
  0.00000000E+00  0.00000000E+00  0.00000000E+00
  0.00000000E+00  0.00000000E+00  0.00000000E+00
  0.00000000E+00  0.00000000E+00  0.00000000E+00
  0.00000000E+00  0.00000000E+00  0.00000000E+00
  0.00000000E+00  0.00000000E+00  0.00000000E+00
  0.00000000E+00  0.00000000E+00  0.00000000E+00
  0.00000000E+00  0.00000000E+00  0.00000000E+00
  0.00000000E+00  0.00000000E+00  0.00000000E+00
  0.00000000E+00  0.00000000E+00  0.00000000E+00
  0.00000000E+00  0.00000000E+00  0.00000000E+00
  0.00000000E+00  0.00000000E+00  0.00000000E+00
  0.00000000E+00  0.00000000E+00  0.00000000E+00
  0.00000000E+00  0.00000000E+00  0.00000000E+00
  0.00000000E+00  0.00000000E+00  0.00000000E+00
  0.00000000E+00  0.00000000E+00  0.00000000E+00
  0.00000000E+00  0.00000000E+00  0.00000000E+00
  0.00000000E+00  0.00000000E+00  0.00000000E+00
  0.00000000E+00  0.00000000E+00  0.00000000E+00
  0.00000000E+00  0.00000000E+00  0.00000000E+00
  0.00000000E+00  0.00000000E+00  0.00000000E+00
  0.00000000E+00  0.00000000E+00  0.00000000E+00
  0.00000000E+00  0.00000000E+00  0.00000000E+00
  0.00000000E+00  0.00000000E+00  0.00000000E+00
  0.00000000E+00  0.00000000E+00  0.00000000E+00
  0.00000000E+00  0.00000000E+00  0.00000000E+00
  0.00000000E+00  0.00000000E+00  0.00000000E+00
  0.00000000E+00  0.00000000E+00  0.00000000E+00
  0.00000000E+00  0.00000000E+00  0.00000000E+00
  0.00000000E+00  0.00000000E+00  0.00000000E+00
  0.00000000E+00  0.00000000E+00  0.00000000E+00
  0.00000000E+00  0.00000000E+00  0.00000000E+00
  0.00000000E+00  0.00000000E+00  0.00000000E+00
  0.00000000E+00  0.00000000E+00  0.00000000E+00
  0.00000000E+00  0.00000000E+00  0.00000000E+00
  0.00000000E+00  0.00000000E+00  0.00000000E+00
  0.00000000E+00  0.00000000E+00  0.00000000E+00
  0.00000000E+00  0.00000000E+00  0.00000000E+00
  0.00000000E+00  0.00000000E+00  0.00000000E+00
  0.00000000E+00  0.00000000E+00  0.00000000E+00
  0.00000000E+00  0.00000000E+00  0.00000000E+00
  0.00000000E+00  0.00000000E+00  0.00000000E+00
  0.00000000E+00  0.00000000E+00  0.00000000E+00
  0.00000000E+00  0.00000000E+00  0.00000000E+00
  0.00000000E+00  0.00000000E+00  0.00000000E+00
  0.00000000E+00  0.00000000E+00  0.00000000E+00
  0.00000000E+00  0.00000000E+00  0.00000000E+00
  0.00000000E+00  0.00000000E+00  0.00000000E+00
  0.00000000E+00  0.00000000E+00  0.00000000E+00
  0.00000000E+00  0.00000000E+00  0.00000000E+00
  0.00000000E+00  0.00000000E+00  0.00000000E+00
  0.00000000E+00  0.00000000E+00  0.00000000E+00
  0.00000000E+00  0.00000000E+00  0.00000000E+00
  0.00000000E+00  0.00000000E+00  0.00000000E+00
  0.00000000E+00  0.00000000E+00  0.00000000E+00
  0.00000000E+00  0.00000000E+00  0.00000000E+00
  0.00000000E+00  0.00000000E+00  0.00000000E+00
  0.00000000E+00  0.00000000E+00  0.00000000E+00
  0.00000000E+00  0.00000000E+00  0.00000000E+00
  0.00000000E+00  0.00000000E+00  0.00000000E+00
  0.00000000E+00  0.00000000E+00  0.00000000E+00
  0.00000000E+00  0.00000000E+00  0.00000000E+00
  0.00000000E+00  0.00000000E+00  0.00000000E+00
  0.00000000E+00  0.00000000E+00  0.00000000E+00
  0.00000000E+00  0.00000000E+00  0.00000000E+00
  0.00000000E+00  0.00000000E+00  0.00000000E+00
  0.00000000E+00  0.00000000E+00  0.00000000E+00
  0.00000000E+00  0.00000000E+00  0.00000000E+00
  0.00000000E+00  0.00000000E+00  0.00000000E+00
  0.00000000E+00  0.00000000E+00  0.00000000E+00
  0.00000000E+00  0.00000000E+00  0.00000000E+00
  0.00000000E+00  0.00000000E+00  0.00000000E+00
  0.00000000E+00  0.00000000E+00  0.00000000E+00
  0.00000000E+00  0.00000000E+00  0.00000000E+00
  0.00000000E+00  0.00000000E+00  0.00000000E+00
  0.00000000E+00  0.00000000E+00  0.00000000E+00
  0.00000000E+00  0.00000000E+00  0.00000000E+00
  0.00000000E+00  0.00000000E+00  0.00000000E+00
  0.00000000E+00  0.00000000E+00  0.00000000E+00
  0.00000000E+00  0.00000000E+00  0.00000000E+00
  0.00000000E+00  0.00000000E+00  0.00000000E+00
  0.00000000E+00  0.00000000E+00  0.00000000E+00
  0.00000000E+00  0.00000000E+00  0.00000000E+00
  0.00000000E+00  0.00000000E+00  0.00000000E+00
  0.00000000E+00  0.00000000E+00  0.00000000E+00
  0.00000000E+00  0.00000000E+00  0.00000000E+00
  0.00000000E+00  0.00000000E+00  0.00000000E+00
  0.00000000E+00  0.00000000E+00  0.00000000E+00
  0.00000000E+00  0.00000000E+00  0.00000000E+00
  0.00000000E+00  0.00000000E+00  0.00000000E+00
  0.00000000E+00  0.00000000E+00  0.00000000E+00
  0.00000000E+00  0.00000000E+00  0.00000000E+00
  0.00000000E+00  0.00000000E+00  0.00000000E+00
  0.00000000E+00  0.00000000E+00  0.00000000E+00
  0.00000000E+00  0.00000000E+00  0.00000000E+00
  0.00000000E+00  0.00000000E+00  0.00000000E+00
  0.00000000E+00  0.00000000E+00  0.00000000E+00
  0.00000000E+00  0.00000000E+00  0.00000000E+00
  0.00000000E+00  0.00000000E+00  0.00000000E+00
  0.00000000E+00  0.00000000E+00  0.00000000E+00
  0.00000000E+00  0.00000000E+00  0.00000000E+00
  0.00000000E+00  0.00000000E+00  0.00000000E+00
  0.00000000E+00  0.00000000E+00  0.00000000E+00
  0.00000000E+00  0.00000000E+00  0.00000000E+00
  0.00000000E+00  0.00000000E+00  0.00000000E+00
  0.00000000E+00  0.00000000E+00  0.00000000E+00
  0.00000000E+00  0.00000000E+00  0.00000000E+00
  0.00000000E+00  0.00000000E+00  0.00000000E+00
  0.00000000E+00  0.00000000E+00  0.00000000E+00
  0.00000000E+00  0.00000000E+00  0.00000000E+00
  0.00000000E+00  0.00000000E+00  0.00000000E+00
  0.00000000E+00  0.00000000E+00  0.00000000E+00
  0.00000000E+00  0.00000000E+00  0.00000000E+00
  0.00000000E+00  0.00000000E+00  0.00000000E+00
  0.00000000E+00  0.00000000E+00  0.00000000E+00
  0.00000000E+00  0.00000000E+00  0.00000000E+00
  0.00000000E+00  0.00000000E+00  0.00000000E+00
  0.00000000E+00  0.00000000E+00  0.00000000E+00
  0.00000000E+00  0.00000000E+00  0.00000000E+00
  0.00000000E+00  0.00000000E+00  0.00000000E+00
  0.00000000E+00  0.00000000E+00  0.00000000E+00
  0.00000000E+00  0.00000000E+00  0.00000000E+00
  0.00000000E+00  0.00000000E+00  0.00000000E+00
  0.00000000E+00  0.00000000E+00  0.00000000E+00
  0.00000000E+00  0.00000000E+00  0.00000000E+00
  0.00000000E+00  0.00000000E+00  0.00000000E+00
  0.00000000E+00  0.00000000E+00  0.00000000E+00
  0.00000000E+00  0.00000000E+00  0.00000000E+00
  0.00000000E+00  0.00000000E+00  0.00000000E+00
  0.00000000E+00  0.00000000E+00  0.00000000E+00
  0.00000000E+00  0.00000000E+00  0.00000000E+00
  0.00000000E+00  0.00000000E+00  0.00000000E+00
  0.00000000E+00  0.00000000E+00  0.00000000E+00
  0.00000000E+00  0.00000000E+00  0.00000000E+00
  0.00000000E+00  0.00000000E+00  0.00000000E+00
  0.00000000E+00  0.00000000E+00  0.00000000E+00
  0.00000000E+00  0.00000000E+00  0.00000000E+00
  0.00000000E+00  0.00000000E+00  0.00000000E+00
  0.00000000E+00  0.00000000E+00  0.00000000E+00
  0.00000000E+00  0.00000000E+00  0.00000000E+00
  0.00000000E+00  0.00000000E+00  0.00000000E+00
  0.00000000E+00  0.00000000E+00  0.00000000E+00
  0.00000000E+00  0.00000000E+00  0.00000000E+00
  0.00000000E+00  0.00000000E+00  0.00000000E+00
  0.00000000E+00  0.00000000E+00  0.00000000E+00
  0.00000000E+00  0.00000000E+00  0.00000000E+00
  0.00000000E+00  0.00000000E+00  0.00000000E+00
  0.00000000E+00  0.00000000E+00  0.00000000E+00
  0.00000000E+00  0.00000000E+00  0.00000000E+00
  0.00000000E+00  0.00000000E+00  0.00000000E+00
  0.00000000E+00  0.00000000E+00  0.00000000E+00
  0.00000000E+00  0.00000000E+00  0.00000000E+00
  0.00000000E+00  0.00000000E+00  0.00000000E+00
  0.00000000E+00  0.00000000E+00  0.00000000E+00
  0.00000000E+00  0.00000000E+00  0.00000000E+00
  0.00000000E+00  0.00000000E+00  0.00000000E+00
  0.00000000E+00  0.00000000E+00  0.00000000E+00
  0.00000000E+00  0.00000000E+00  0.00000000E+00
  0.00000000E+00  0.00000000E+00  0.00000000E+00
  0.00000000E+00  0.00000000E+00  0.00000000E+00
  0.00000000E+00  0.00000000E+00  0.00000000E+00
  0.00000000E+00  0.00000000E+00  0.00000000E+00
  0.00000000E+00  0.00000000E+00  0.00000000E+00
  0.00000000E+00  0.00000000E+00  0.00000000E+00
  0.00000000E+00  0.00000000E+00  0.00000000E+00
  0.00000000E+00  0.00000000E+00  0.00000000E+00
  0.00000000E+00  0.00000000E+00  0.00000000E+00
  0.00000000E+00  0.00000000E+00  0.00000000E+00
  0.00000000E+00  0.00000000E+00  0.00000000E+00
  0.00000000E+00  0.00000000E+00  0.00000000E+00
  0.00000000E+00  0.00000000E+00  0.00000000E+00
  0.00000000E+00  0.00000000E+00  0.00000000E+00
  0.00000000E+00  0.00000000E+00  0.00000000E+00
  0.00000000E+00  0.00000000E+00  0.00000000E+00
  0.00000000E+00  0.00000000E+00  0.00000000E+00
  0.00000000E+00  0.00000000E+00  0.00000000E+00
  0.00000000E+00  0.00000000E+00  0.00000000E+00
  0.00000000E+00  0.00000000E+00  0.00000000E+00
  0.00000000E+00  0.00000000E+00  0.00000000E+00
  0.00000000E+00  0.00000000E+00  0.00000000E+00
  0.00000000E+00  0.00000000E+00  0.00000000E+00