B N Ga Al                               
   1.0000000000000000     
     8.7639499999999995  -15.1796066749929999    0.0000000000000000
     8.7639499999999995   15.1796066749929999    0.0000000000000000
     0.0000000000000000    0.0000000000000000   15.0000000000000000
   B    N    Ga   Al
    48    48     1     1
Selective dynamics
Direct
  0.9055216559163897  0.9538667977703397  0.1092706985915431   T   T   T
  0.9040023289017091  0.0959996922943158  0.1118034228338253   T   T   T
  0.9034688062350383  0.2387549749560862  0.1104353021278773   T   T   T
  0.9035962591714353  0.3816100849877528  0.1078700863135948   T   T   T
  0.9047597137732218  0.5245888806800594  0.1068605764272161   T   T   T
  0.9062941975433643  0.6678407019889341  0.1065239026005792   T   T   T
  0.9068738256422231  0.8115250113278829  0.1054156437919787   T   T   T
  0.0476946729635165  0.9523073482324933  0.1083726192394648   T   T   T
  0.0461352234256498  0.0944803652796062  0.1092706985915431   T   T   T
  0.0456341478699914  0.2376790399390351  0.1090989075933029   T   T   T
  0.0460603263426353  0.3809568076987526  0.1079228309128599   T   T   T
  0.0472871804517239  0.5239386522812518  0.1078818835237699   T   T   T
  0.0483629187521939  0.6668262987858585  0.1085984162971312   T   T   T
  0.0484302269148760  0.8097090711697685  0.1081409038248513   T   T   T
  0.1902929500262424  0.9515717942811774  0.1081409038248513   T   T   T
  0.1884770098680990  0.0931281955538099  0.1054156437919787   T   T   T
  0.1864354206527289  0.2348779414267383  0.1055866798927486   T   T   T
  0.1876809218509681  0.3796067250107079  0.1061815262808373   T   T   T
  0.1898265603406238  0.5232404889029100  0.1072383646558184   T   T   T
  0.1911274950011758  0.6662406516750835  0.1094666777607719   T   T   T
  0.1909417573794030  0.8090602638166287  0.1101100207909056   T   T   T
  0.3331757224111326  0.9516391024438524  0.1085984162971312   T   T   T
  0.3321613192080282  0.0937078236526036  0.1065239026005792   T   T   T
  0.3288056420961888  0.2334530136472000  0.1069975143752662   T   T   T
  0.3257069109008853  0.3749845156157701  0.1107268888759656   T   T   T
  0.3322226066800365  0.5213782192744941  0.1067385050544014   T   T   T
  0.3344108645274522  0.6655911566695172  0.1076837725692148   T   T   T
  0.3337613695219008  0.8088745261948136  0.1094666777607719   T   T   T
  0.4760633689157536  0.9527148407442865  0.1078818835237699   T   T   T
  0.4754131405169393  0.0952423074227818  0.1068605764272161   T   T   T
  0.4743102230476120  0.2372776746625473  0.1119346883371864   T   T   T
  0.4634283358251545  0.3690545715724435  0.1443604647092509   T   T   T
  0.4786238019224981  0.6677794145169478  0.1067385050544014   T   T   T
  0.4767615322940813  0.8101754608553943  0.1072383646558184   T   T   T
  0.6190452134972506  0.9539416948533684  0.1079228309128599   T   T   T
  0.6183919362082437  0.0964057620245679  0.1078700863135948   T   T   T
  0.6177992582266500  0.2392909193259393  0.1084937511338210   T   T   T
  0.6173412560429605  0.3826607651530140  0.1201269668225205   T   T   T
  0.6309474496235531  0.5365736853718510  0.1443604647092509   T   T   T
  0.6250175055802124  0.6742951102961123  0.1107268888759656   T   T   T
  0.6203952961853030  0.8123210993450279  0.1061815262808373   T   T   T
  0.7623229812569965  0.9543678733260256  0.1090989075933029   T   T   T
  0.7612470462399180  0.0965332149609369  0.1104353021278844   T   T   T
  0.7607795472925741  0.2392224739034293  0.1087389564550610   T   T   T
  0.7607111018700644  0.3822027629693325  0.1084937511338210   T   T   T
  0.7627243465334635  0.5256917981494211  0.1119346883371864   T   T   T
  0.7665490075488107  0.6711963791008090  0.1069975143752733   T   T   T
  0.7651240797692510  0.8135666005432747  0.1055866798927486   T   T   T
  0.9531723973726078  0.9060647774454708  0.1080360775972298   T   T   T
  0.9516988058137685  0.0483025961042231  0.1114150602185564   T   T   T
  0.9508181699633744  0.1908824150374857  0.1114799061474132   T   T   T
  0.9508712484318097  0.3337844797900305  0.1088668745061547   T   T   T
  0.9518772861428259  0.4767151671089427  0.1071269039404468   T   T   T
  0.9531455293628679  0.6196726608045194  0.1071494049787172   T   T   T
  0.9535965994637186  0.7628964238012005  0.1061792027394197   T   T   T
  0.0953817668626340  0.9046196350553292  0.1084331287495664   T   T   T
  0.0939366244725207  0.0468290045454050  0.1080360775972298   T   T   T
  0.0922156060317475  0.1889033186223240  0.1080239248631583   T   T   T
  0.0927744231168799  0.3326752870566953  0.1073934698093462   T   T   T
  0.0943843136099058  0.4760689883312795  0.1075750384818666   T   T   T
  0.0956772848112585  0.6190438418227546  0.1089835119225875   T   T   T
  0.0958302848561452  0.7618782617147248  0.1094885943366089   T   T   T
  0.2381231402032667  0.9041711170618317  0.1094885943366089   T   T   T
  0.2371049781168058  0.0464048024542874  0.1061792027394197   T   T   T
  0.2344290851067466  0.1873803780360174  0.1031486741413819   T   T   T
  0.2321364243159400  0.3289924048021449  0.1060293287052603   T   T   T
  0.2363488541083894  0.4749554378738756  0.1060877214967825   T   T   T
  0.2386621410801778  0.6185408405480282  0.1083325469630367   T   T   T
  0.2385379195336192  0.7614634823843648  0.1104958350994230   T   T   T
  0.3809575600952297  0.9043241171067686  0.1089835119225875   T   T   T
  0.3803287411134588  0.0468558725551168  0.1071494049787172   T   T   T
  0.3790553998735486  0.1886162176749553  0.1077649002163605   T   T   T
  0.3738075113858939  0.3269534216485375  0.1160051459447595   T   T   T
  0.3723596665988400  0.4677665042705507  0.1086091966559170   T   T   T
  0.3822601268834686  0.6177412750345300  0.1065758685775193   T   T   T
  0.3814605613699705  0.7613392608378353  0.1083325469630367   T   T   T
  0.5239324135857378  0.9056170883081068  0.1075750384818666   T   T   T
  0.5232862348080682  0.0481241157751508  0.1071269039404468   T   T   T
  0.5226380188295706  0.1907356246770881  0.1075579508431344   T   T   T
  0.5209120051825136  0.3325296225597275  0.1242792983215084   T   T   T
  0.5322348976464472  0.6276417353191597  0.1086091966559099   T   T   T
  0.5250459640431067  0.7636525478096300  0.1060877214967825   T   T   T
  0.6673261148602943  0.9072269788011044  0.1073934698093462   T   T   T
  0.6662169221270013  0.0491301534861676  0.1088668745061547   T   T   T
  0.6655901483425808  0.1918202912287484  0.1078886213779264   T   T   T
  0.6648968757029144  0.3351045262140906  0.1104968807355492   T   T   T
  0.6674717793572622  0.4790893967344543  0.1242792983215084   T   T   T
  0.6730479802684809  0.6261938905321036  0.1160051459447595   T   T   T
  0.6710089971148522  0.7678649776020801  0.1060293287052603   T   T   T
  0.8110980832956813  0.9077857958862372  0.1080239248631583   T   T   T
  0.8091189868805057  0.0491832319546310  0.1114799061474132   T   T   T
  0.8083796480719647  0.1916217538460479  0.1103789048450773   T   T   T
  0.8081811106892430  0.3344112535744088  0.1078886213779264   T   T   T
  0.8092657772409253  0.4773633830874473  0.1075579508431344   T   T   T
  0.8113851842430428  0.6209460020444636  0.1077649002163605   T   T   T
  0.8126210238819962  0.7655723168112732  0.1031486741413819   T   T   T
  0.4917178910834203  0.5082841301135842  0.1171551095400634   T   T   T
  0.5416108961737692  0.4583905057432135  0.2546724393836092   T   T   T

  0.00000000E+00  0.00000000E+00  0.00000000E+00
  0.00000000E+00  0.00000000E+00  0.00000000E+00
  0.00000000E+00  0.00000000E+00  0.00000000E+00
  0.00000000E+00  0.00000000E+00  0.00000000E+00
  0.00000000E+00  0.00000000E+00  0.00000000E+00
  0.00000000E+00  0.00000000E+00  0.00000000E+00
  0.00000000E+00  0.00000000E+00  0.00000000E+00
  0.00000000E+00  0.00000000E+00  0.00000000E+00
  0.00000000E+00  0.00000000E+00  0.00000000E+00
  0.00000000E+00  0.00000000E+00  0.00000000E+00
  0.00000000E+00  0.00000000E+00  0.00000000E+00
  0.00000000E+00  0.00000000E+00  0.00000000E+00
  0.00000000E+00  0.00000000E+00  0.00000000E+00
  0.00000000E+00  0.00000000E+00  0.00000000E+00
  0.00000000E+00  0.00000000E+00  0.00000000E+00
  0.00000000E+00  0.00000000E+00  0.00000000E+00
  0.00000000E+00  0.00000000E+00  0.00000000E+00
  0.00000000E+00  0.00000000E+00  0.00000000E+00
  0.00000000E+00  0.00000000E+00  0.00000000E+00
  0.00000000E+00  0.00000000E+00  0.00000000E+00
  0.00000000E+00  0.00000000E+00  0.00000000E+00
  0.00000000E+00  0.00000000E+00  0.00000000E+00
  0.00000000E+00  0.00000000E+00  0.00000000E+00
  0.00000000E+00  0.00000000E+00  0.00000000E+00
  0.00000000E+00  0.00000000E+00  0.00000000E+00
  0.00000000E+00  0.00000000E+00  0.00000000E+00
  0.00000000E+00  0.00000000E+00  0.00000000E+00
  0.00000000E+00  0.00000000E+00  0.00000000E+00
  0.00000000E+00  0.00000000E+00  0.00000000E+00
  0.00000000E+00  0.00000000E+00  0.00000000E+00
  0.00000000E+00  0.00000000E+00  0.00000000E+00
  0.00000000E+00  0.00000000E+00  0.00000000E+00
  0.00000000E+00  0.00000000E+00  0.00000000E+00
  0.00000000E+00  0.00000000E+00  0.00000000E+00
  0.00000000E+00  0.00000000E+00  0.00000000E+00
  0.00000000E+00  0.00000000E+00  0.00000000E+00
  0.00000000E+00  0.00000000E+00  0.00000000E+00
  0.00000000E+00  0.00000000E+00  0.00000000E+00
  0.00000000E+00  0.00000000E+00  0.00000000E+00
  0.00000000E+00  0.00000000E+00  0.00000000E+00
  0.00000000E+00  0.00000000E+00  0.00000000E+00
  0.00000000E+00  0.00000000E+00  0.00000000E+00
  0.00000000E+00  0.00000000E+00  0.00000000E+00
  0.00000000E+00  0.00000000E+00  0.00000000E+00
  0.00000000E+00  0.00000000E+00  0.00000000E+00
  0.00000000E+00  0.00000000E+00  0.00000000E+00
  0.00000000E+00  0.00000000E+00  0.00000000E+00
  0.00000000E+00  0.00000000E+00  0.00000000E+00
  0.00000000E+00  0.00000000E+00  0.00000000E+00
  0.00000000E+00  0.00000000E+00  0.00000000E+00
  0.00000000E+00  0.00000000E+00  0.00000000E+00
  0.00000000E+00  0.00000000E+00  0.00000000E+00
  0.00000000E+00  0.00000000E+00  0.00000000E+00
  0.00000000E+00  0.00000000E+00  0.00000000E+00
  0.00000000E+00  0.00000000E+00  0.00000000E+00
  0.00000000E+00  0.00000000E+00  0.00000000E+00
  0.00000000E+00  0.00000000E+00  0.00000000E+00
  0.00000000E+00  0.00000000E+00  0.00000000E+00
  0.00000000E+00  0.00000000E+00  0.00000000E+00
  0.00000000E+00  0.00000000E+00  0.00000000E+00
  0.00000000E+00  0.00000000E+00  0.00000000E+00
  0.00000000E+00  0.00000000E+00  0.00000000E+00
  0.00000000E+00  0.00000000E+00  0.00000000E+00
  0.00000000E+00  0.00000000E+00  0.00000000E+00
  0.00000000E+00  0.00000000E+00  0.00000000E+00
  0.00000000E+00  0.00000000E+00  0.00000000E+00
  0.00000000E+00  0.00000000E+00  0.00000000E+00
  0.00000000E+00  0.00000000E+00  0.00000000E+00
  0.00000000E+00  0.00000000E+00  0.00000000E+00
  0.00000000E+00  0.00000000E+00  0.00000000E+00
  0.00000000E+00  0.00000000E+00  0.00000000E+00
  0.00000000E+00  0.00000000E+00  0.00000000E+00
  0.00000000E+00  0.00000000E+00  0.00000000E+00
  0.00000000E+00  0.00000000E+00  0.00000000E+00
  0.00000000E+00  0.00000000E+00  0.00000000E+00
  0.00000000E+00  0.00000000E+00  0.00000000E+00
  0.00000000E+00  0.00000000E+00  0.00000000E+00
  0.00000000E+00  0.00000000E+00  0.00000000E+00
  0.00000000E+00  0.00000000E+00  0.00000000E+00
  0.00000000E+00  0.00000000E+00  0.00000000E+00
  0.00000000E+00  0.00000000E+00  0.00000000E+00
  0.00000000E+00  0.00000000E+00  0.00000000E+00
  0.00000000E+00  0.00000000E+00  0.00000000E+00
  0.00000000E+00  0.00000000E+00  0.00000000E+00
  0.00000000E+00  0.00000000E+00  0.00000000E+00
  0.00000000E+00  0.00000000E+00  0.00000000E+00
  0.00000000E+00  0.00000000E+00  0.00000000E+00
  0.00000000E+00  0.00000000E+00  0.00000000E+00
  0.00000000E+00  0.00000000E+00  0.00000000E+00
  0.00000000E+00  0.00000000E+00  0.00000000E+00
  0.00000000E+00  0.00000000E+00  0.00000000E+00
  0.00000000E+00  0.00000000E+00  0.00000000E+00
  0.00000000E+00  0.00000000E+00  0.00000000E+00
  0.00000000E+00  0.00000000E+00  0.00000000E+00
  0.00000000E+00  0.00000000E+00  0.00000000E+00
  0.00000000E+00  0.00000000E+00  0.00000000E+00
  0.00000000E+00  0.00000000E+00  0.00000000E+00
  0.00000000E+00  0.00000000E+00  0.00000000E+00
