 In N B 
 1.0
 14.936314146199660   0.000000000000000   0.000000000000000
 -7.468157073099825  12.935227489513863   0.000000000000000
  0.000000000000001   0.000000000000001  13.341276283792837
 In N B 
   1 143 144
Cartesian
  4.978771382066589   5.748989995339477   5.002978606422314 
  1.243435563730953   0.718265664392053   1.656521338587602 
  4.978771382066253   7.196206500837868   1.748219337945157 
  6.223824779978575   0.719038474158707   1.667861745805825 
  9.957363878168634   7.185717884270518   1.667861745805825 
 11.202941528639222   0.719031311936129   1.657028027233784 
 -3.734302816492435   9.341979254341116   8.342382967476226 
  1.245232283876324   9.342213627589022   8.338095467038563 
  2.485921877955086   2.872793225267844   8.339900830657745 
  6.223206099175408   9.345959378747553   8.339900830657745 
  7.471620886177671   2.872793225267844   8.339900830657745 
 12.446928455165514   2.873679872632269   8.348929185611123 
 -1.244468565574031   9.341979254341116   1.663574245368589 
 -0.002575650583079   2.873007945112187   1.657153704297579 
  4.978771382066655   2.874818548747094   1.708351721897159 
  3.734336664957011   9.345959378747553   1.666056382187177 
  8.712310480257319   9.342213627589022   1.667861745805825 
  9.960118414716700   2.873007945112187   1.657153704297579 
 -4.979168401179177  11.498209209770108   8.347512570200726 
  0.000397019113239  11.498209209770108   8.347512570200726 
  1.241487160846241   5.028217382003448   8.339900830657745 
  6.232097640604029   5.025381742590275   8.257737874899284 
  4.978771382067345  11.500954095793395   8.348803508547235 
 11.203174361271349   5.029456450468342   8.349435874257720 
 -1.245631597138010   5.029456450468341   1.656521338587602 
 -2.489385691033226  11.498238966849078   1.663574245368589 
  2.489704221197633  11.499247871157323   1.656521338587602 
  3.725445123529462   5.025381742590274   1.748219337945157 
  7.467838542935861  11.499247871157323   1.656521338587602 
  8.716055603286950   5.028217382003447   1.666056382187177 
  0.000178885963962   7.185717884270519   8.338095467038563 
  1.243435563730953   0.718265664392054   8.349435874257720 
  4.978771382066387   7.196206500837869   8.257737874899485 
  6.223824779978583   0.719038474158695   8.338095467038563 
  9.957363878168634   7.185717884270519   8.338095467038563 
 -2.489385691033167   7.185779055990625   1.658444642643861 
 11.202941528639236   0.719031311936130   8.348929185611123 
  3.733717984154978   0.719038474158694   1.667861745805825 
  2.489665894485722   7.186075718635751   1.708351721897133 
  7.467876869647232   7.186075718635751   1.708351721897133 
  8.714107200402085   0.718265664392053   1.656521338587602 
  2.489665894485722   7.186075718635752   8.297605490947655 
 13.690915381692461   0.719031311936129   1.657028027233744 
 -1.244468565574030   9.341979254341116   8.342382967476226 
 -0.002575650583086   2.873007945112201   8.348803508547235 
  4.978771382066648   2.874818548747108   8.297605490947655 
  3.734336664957012   9.345959378747553   8.339900830657745 
  8.712310480257422   9.342213627589022   8.338095467038563 
  9.960118414716700   2.873007945112188   8.348803508547235 
 -3.734302816492420   9.341979254341116   1.663574245368589 
  1.245232283876324   9.342213627589022   1.667861745805825 
  2.485921877955093   2.872793225267830   1.666056382187177 
  6.223206099175407   9.345959378747553   1.666056382187177 
  7.471620886177670   2.872793225267843   1.666056382187177 
 12.446928455165514   2.873679872632268   1.657028027233744 
 -1.245631597138024   5.029456450468342   8.349435874257733 
 -2.489385691033225  11.498238966849078   8.342382967476226 
  2.489704221197634  11.499247871157323   8.349435874257720 
  3.725445123529449   5.025381742590275   8.257737874899485 
  7.467838542935862  11.499247871157323   8.349435874257720 
 -4.979168401179193  11.498209209770108   1.658444642643861 
  8.716055603286950   5.028217382003448   8.339900830657745 
  0.000397019113239  11.498209209770108   1.658444642643861 
  1.241487160846240   5.028217382003447   1.666056382187177 
  0.000178885963932   7.185717884270518   1.667861745805825 
  6.232097640603990   5.025381742590286   1.748219337945170 
  4.978771382067344  11.500954095793395   1.657153704297619 
 11.203174361271349   5.029456450468341   1.656521338587602 
 -2.489385691033167   7.185779055990626   8.347512570200726 
  3.733717984155009   0.719038474158695   8.338095467038563 
  7.467876869647233   7.186075718635752   8.297605490947641 
  8.714107200402085   0.718265664392054   8.349435874257720 
 13.690915381692468   0.719031311936117   8.348929185611123 
 -0.017204091925363   1.421791672707442   5.002978606422314 
  3.636408191218282   8.091644288189521   5.002978606422314 
  4.978771382066452   1.394110406938452   5.002978606422314 
  8.750207736044185   7.926429789540068   5.002978606422314 
  9.974746856058132   1.421791672707416   5.002978606422314 
 -4.978403293936831  10.060890588952068  11.673616748318732 
 -0.000368088129455  10.060890588952068  11.673616748318732 
  1.245235928708522   3.593432296313717  11.673616748318732 
  4.978771382066874  10.060105393391078  11.673616748318732 
  6.222876021679826   3.592688171654535  11.673616748318732 
 11.202037350967711   3.593290738859584  11.673616748318732 
 -2.489385691033300  10.060732491844131   5.002978606422314 
 -1.266680029542214   3.585947479494631   5.002978606422314 
  3.621154847598393   3.415142224534753   5.002978606422314 
  2.436828165537330  10.135697446843155   5.002978606422314 
  7.520714598595724  10.135697446843142   5.002978606422314 
  8.777309350801946   3.555903076562616   5.002978606422314 
 -6.223326524196939  12.216524237009439  11.673616748318732 
 -1.244739973469454  12.216205917871234  11.673616748318732 
  0.000025413838990   5.749360955886192  11.673616748318732 
  4.978771382066590   5.748989995339477  11.673616748318732 
  3.734028716647730  12.216346047155113  11.673616748318732 
  9.957517350294367   5.749360955886192  11.673616748318732 
 -2.489385691033174   5.757818665436803   5.002978606422314 
 -3.730552836357112  12.197346248501511   5.002978606422314 
  1.237046992931375  12.212189405047843   5.002978606422314 
  2.278791656749976   5.740183473294326   5.002978606422314 
  6.228247319683347  12.239230833816498   5.002978606422314 
  7.678751107382961   5.740183473294326   5.002978606422314 
 -1.245013805693323   7.905100968709136  11.673616748318732 
  0.000248078585058   1.437333200004098  11.673616748318732 
  3.733411544334899   7.904567130053878  11.673616748318732 
  4.978771382066587   1.436436906363897  11.673616748318732 
  8.713551912288285   7.905266539827203  11.673616748318732 
 -3.719163909711974   7.917543335322299   5.002978606422314 
  9.957294685548760   1.437333200004098  11.673616748318732 
  2.450742898358097   1.354248869095704   5.002978606422314 
  1.207335028088825   7.926429789540068   5.002978606422314 
  6.321134572914304   8.091644288189611   5.002978606422314 
  7.506799865774710   1.354248869095692   5.002978606422314 
  1.243990851844737   7.905266539827216  11.673616748318732 
 12.446928455166319   1.437247498834912   5.002978606422314 
 -2.489385691033299  10.060732491844133  11.673616748318732 
 -1.244494586834552   3.593290738859584  11.673616748318732 
  3.734666742453119   3.592688171654574  11.673616748318732 
  2.489077136694877  10.060525002540910  11.673616748318732 
  7.468465627437648  10.060525002540910  11.673616748318732 
  8.712306835425773   3.593432296313717  11.673616748318732 
 -4.960331055035541  10.067307891708005   5.002978606422314 
 -0.018440327030730  10.067307891708005   5.002978606422314 
  1.180233413330961   3.555903076562589   5.002978606422314 
  4.978771382065664  10.135163832893301   5.002978606422314 
  6.336387916534870   3.415142224534934   5.002978606422314 
 11.224222793675194   3.585947479494631   5.002978606422314 
 -2.489385691033300   5.749149001513908  11.673616748318732 
 -3.734031408596770  12.216205917871234  11.673616748318732 
  1.244555142129530  12.216524237009427  11.673616748318732 
  2.489306904722063   5.749714684310458  11.673616748318732 
  6.223514047486290  12.216346047155113  11.673616748318732 
 -6.215818374997279  12.212189405047830   5.002978606422314 
  7.468235859411855   5.749714684310471  11.673616748318732 
 -1.248218545709426  12.197346248501459   5.002978606422314 
 -0.091200318171116   5.757023670079440   5.002978606422314 
 -1.259607472354574   7.917543335322286   5.002978606422314 
  3.729295444449462  12.239230833816471   5.002978606422314 
 10.048743082303794   5.757023670079428   5.002978606422314 
 -3.733757576373367   7.905100968709136  11.673616748318732 
  2.489719659210179   1.437084027591408  11.673616748318732 
  6.224131219797984   7.904567130053878  11.673616748318732 
  7.467823104922778   1.437084027591421  11.673616748318732 
 12.446928455166319   1.437247498834912  11.673616748318732 
  1.217816962540103   0.687159422733528   5.002978606422314 
  4.978771382066097   7.619916009543505   5.002978606422314 
  6.230689966075703   0.690521896462254   5.002978606422314 
  9.985492551932538   7.194030747556680   5.002978606422314 
 11.209625389076901   0.722890240558903   5.002978606422314 
 -3.734340152694660   9.341957698274868  11.673616748318732 
  1.245116090371541   9.340852454516154  11.673616748318732 
  2.492079432981494   2.876514606544580  11.673616748318732 
  6.223062065966044   9.338766089030806  11.673616748318732 
  7.465463331151444   2.876514606544580  11.673616748318732 
 12.446928455166798   2.875062093897025  11.673616748318732 
 -1.252817657561421   9.346799604847723   5.002978606422314 
 -0.036653843674523   2.853332891157191   5.002978606422314 
  4.978771382066452   2.835219884697352   5.002978606422314 
  3.680566926220371   9.471070056781002   5.002978606422314 
  8.733573967923743   9.362417341999741   5.002978606422314 
  9.994196607807705   2.853332891157178   5.002978606422314 
 -4.978514940777544  11.497831934231572  11.673616748318732 
 -0.000256441288844  11.497831934231572  11.673616748318732 
  1.247788749082064   5.031689290443032  11.673616748318732 
  6.220865919841505   5.031866379595997  11.673616748318732 
  4.978771382066136  11.495714954060897  11.673616748318732 
 11.201172041594106   5.031106041152620  11.673616748318732 
 -1.285379693225990   5.022823211857036   5.002978606422314 
 -2.489385691033231  11.488598265836446   5.002978606422314 
  2.475574726300279  11.536987351427776   5.002978606422314 
  3.358501925164573   4.813526988237424   5.002978606422314 
  7.481968037833258  11.536987351427776   5.002978606422314 
  8.851289498117412   5.012228002687817   5.002978606422314 
  0.001299599673085   7.186499097333670  11.673616748318732 
  1.245865311007685   0.719174928757100  11.673616748318732 
  4.978771382066314   7.183237226826424  11.673616748318732 
  6.222587872765184   0.719618434169887  11.673616748318732 
  9.956243164459561   7.186499097333684  11.673616748318732 
 -2.489385691033009   7.192478862288248   5.002978606422314 
 11.201744489910926   0.718340201303843  11.673616748318732 
  3.726852798056842   0.690521896462280   5.002978606422314 
  2.455372445462582   7.205875050660668   5.002978606422314 
  7.502170318670403   7.205875050660668   5.002978606422314 
  8.739725801592972   0.687159422733541   5.002978606422314 
  2.491162366540820   7.185211730091992  11.673616748318732 
 13.684231521255290   0.722890240558903   5.002978606422314 
 -1.244431229371507   9.341957698274868  11.673616748318732 
  0.001961579251615   2.875627515978813  11.673616748318732 
  4.978771382066475   2.876546525835133  11.673616748318732 
  3.734480698166989   9.338766089030806  11.673616748318732 
  8.712426673760698   9.340852454516154  11.673616748318732 
  9.955581184880902   2.875627515978813  11.673616748318732 
 -3.725953724504806   9.346799604847723   5.002978606422314 
  1.223968796210372   9.362417341999754   5.002978606422314 
  2.404457721862064   2.763671926549908   5.002978606422314 
  6.276975837912659   9.471070056781029   5.002978606422314 
  7.553085042271221   2.763671926550025   5.002978606422314 
 12.446928455165708   2.865962015386800   5.002978606422314 
 -1.243629277460975   5.031106041152620  11.673616748318732 
 -2.489385691033239  11.498282078982564  11.673616748318732 
  2.489276793597848  11.496689016108647  11.673616748318732 
  3.736676844291657   5.031866379595997  11.673616748318732 
  7.468265970535410  11.496689016108647  11.673616748318732 
 -4.973366198725321  11.494859306622068   5.002978606422314 
  8.709754015051068   5.031689290443032  11.673616748318732 
 -0.005405183341517  11.494859306622068   5.002978606422314 
  1.106253266015831   5.012228002687803   5.002978606422314 
 -0.027949787799582   7.194030747556680   5.002978606422314 
  6.599040838967925   4.813526988237463   5.002978606422314 
  4.978771382066300  11.540304203703958   5.002978606422314 
 11.242922457359725   5.022823211857075   5.002978606422314 
 -2.489385691033331   7.186533607068763  11.673616748318732 
  3.734954891367871   0.719618434169887  11.673616748318732 
  7.466380397591970   7.185211730091992  11.673616748318732 
  8.711677453125203   0.719174928757100  11.673616748318732 
 13.692112420422621   0.718340201303843  11.673616748318732 
 -0.000493290352323   1.437755467530765   1.659591663328360 
  3.744300307719815   7.900757875365479   1.714213292597488 
  4.978771382066467   1.446205590432046   1.684462392944040 
  8.705091983723827   7.900382197793411   1.684462392944040 
  9.958036054485303   1.437755467530765   1.659591663328360 
 -4.981614012426837  10.059536585034243   8.341194351992478 
  0.002842630359805  10.059536585034243   8.341194351992478 
  1.245382333755969   3.593516823307598   8.338176907430000 
  4.978771382066239  10.059936339403299   8.338176907430000 
  6.225021492042833   3.604022744705547   8.291743920246873 
 11.202042341031255   3.592437560762707   8.346365549516282 
 -2.489385691033300  10.060732491844131   1.664872270336476 
 -1.244499576897850   3.592437560762693   1.659591663328360 
  3.732521272089460   3.604022744705546   1.714213292597488 
  2.493014503978865  10.059086932517035   1.665774851273858 
  7.464528260153327  10.059086932517035   1.665774851273858 
  8.712160430377160   3.593516823307597   1.667780305414135 
 -6.224667219062694  12.217298287551118   8.346766149831520 
 -1.244307216014663  12.219663483606890   8.341194351992478 
  0.003239502654325   5.746670130805684   8.340182361570996 
  4.978771382066590   5.748989995339477   8.022163386229487 
  3.734765095520826  12.216776957725203   8.346365549516294 
  9.954303261479232   5.746670130805671   8.340182361571010 
 -2.489385691033331   5.747600900430704   1.659191063012987 
 -3.734464166051727  12.219663483606890   1.664762860851896 
  1.245895836995498  12.217298287551118   1.659191063012987 
  2.498050197743203   5.742189365947416   1.714213292597474 
  6.222777668612298  12.216776957725203   1.659591663328360 
  7.459492566389809   5.742189365947416   1.714213292597515 
 -1.242235844658362   7.902997406891457   8.341194351992478 
 -0.000493290352323   1.437755467530765   8.346365549516282 
  3.744300307719830   7.900757875365480   8.291743920246887 
  4.978771382066483   1.446205590432047   8.321494819901121 
  8.705091983723827   7.900382197793411   8.321494819901121 
 -3.736535537408134   7.902997406891457   1.664762860851896 
  9.958036054485303   1.437755467530765   8.346365549516282 
  2.488996380740918   1.441212922695878   1.665774851273858 
  1.252450780409038   7.900382197793411   1.684462392944040 
  6.213242456413049   7.900757875365479   1.714213292597488 
  7.468546383391356   1.441212922695878   1.665774851273858 
  1.252450780409046   7.900382197793399   8.321494819901135 
 12.446928455166319   1.437247498834911   1.660041080154786 
 -2.489385691033300  10.060732491844131   8.341084942508310 
 -1.244499576897857   3.592437560762707   8.346365549516282 
  3.732521272089461   3.604022744705547   8.291743920246873 
  2.493014503978866  10.059086932517035   8.340182361570996 
  7.464528260153328  10.059086932517035   8.340182361571051 
  8.712160430377160   3.593516823307598   8.338176907430000 
 -4.981614012426838  10.059536585034243   1.664762860851896 
  0.002842630359805  10.059536585034243   1.664762860851896 
  1.245382333755968   3.593516823307597   1.667780305414135 
  4.978771382066238  10.059936339403299   1.667780305414135 
  6.225021492042892   3.604022744705442   1.714213292597488 
 11.202042341031262   3.592437560762693   1.659591663328360 
 -2.489385691033339   5.747600900430718   8.346766149831520 
 -3.734464166051711  12.219663483606865   8.341194351992478 
  1.245895836995491  12.217298287551131   8.346766149831520 
  2.498050197743203   5.742189365947417   8.291743920246873 
  6.222777668612299  12.216776957725203   8.346365549516282 
 -6.224667219062695  12.217298287551118   1.659191063012987 
  7.459492566389810   5.742189365947417   8.291743920246887 
 -1.244307216014678  12.219663483606890   1.664762860851896 
  0.003239502654332   5.746670130805670   1.665774851273858 
 -1.242235844658362   7.902997406891457   1.664762860851896 
  4.978771382066589   5.748989995339476   1.983793826614953 
  3.734765095520825  12.216776957725203   1.659591663328360 
  9.954303261479232   5.746670130805670   1.665774851273858 
 -3.736535537408134   7.902997406891457   8.341194351992478 
  2.488996380740919   1.441212922695879   8.340182361570996 
  6.213242456413050   7.900757875365480   8.291743920246887 
  7.468546383391357   1.441212922695879   8.340182361570996 
 12.446928455166319   1.437247498834912   8.345916132689627 
Generated by cif2cell 2.0.0.  :  Failed to get author information, No journal information. Species order: In N B 
 1.0
 14.936314146199660   0.000000000000000   0.000000000000000
 -7.468157073099825  12.935227489513863   0.000000000000000
  0.000000000000001   0.000000000000001  13.341276283792837
 In N B 
   1 143 144
Cartesian
  4.978771382066589   5.748989995339477   5.002978606422314 
  1.243435563730953   0.718265664392053   1.656521338587602 
  4.978771382066253   7.196206500837868   1.748219337945157 
  6.223824779978575   0.719038474158707   1.667861745805825 
  9.957363878168634   7.185717884270518   1.667861745805825 
 11.202941528639222   0.719031311936129   1.657028027233784 
 -3.734302816492435   9.341979254341116   8.342382967476226 
  1.245232283876324   9.342213627589022   8.338095467038563 
  2.485921877955086   2.872793225267844   8.339900830657745 
  6.223206099175408   9.345959378747553   8.339900830657745 
  7.471620886177671   2.872793225267844   8.339900830657745 
 12.446928455165514   2.873679872632269   8.348929185611123 
 -1.244468565574031   9.341979254341116   1.663574245368589 
 -0.002575650583079   2.873007945112187   1.657153704297579 
  4.978771382066655   2.874818548747094   1.708351721897159 
  3.734336664957011   9.345959378747553   1.666056382187177 
  8.712310480257319   9.342213627589022   1.667861745805825 
  9.960118414716700   2.873007945112187   1.657153704297579 
 -4.979168401179177  11.498209209770108   8.347512570200726 
  0.000397019113239  11.498209209770108   8.347512570200726 
  1.241487160846241   5.028217382003448   8.339900830657745 
  6.232097640604029   5.025381742590275   8.257737874899284 
  4.978771382067345  11.500954095793395   8.348803508547235 
 11.203174361271349   5.029456450468342   8.349435874257720 
 -1.245631597138010   5.029456450468341   1.656521338587602 
 -2.489385691033226  11.498238966849078   1.663574245368589 
  2.489704221197633  11.499247871157323   1.656521338587602 
  3.725445123529462   5.025381742590274   1.748219337945157 
  7.467838542935861  11.499247871157323   1.656521338587602 
  8.716055603286950   5.028217382003447   1.666056382187177 
  0.000178885963962   7.185717884270519   8.338095467038563 
  1.243435563730953   0.718265664392054   8.349435874257720 
  4.978771382066387   7.196206500837869   8.257737874899485 
  6.223824779978583   0.719038474158695   8.338095467038563 
  9.957363878168634   7.185717884270519   8.338095467038563 
 -2.489385691033167   7.185779055990625   1.658444642643861 
 11.202941528639236   0.719031311936130   8.348929185611123 
  3.733717984154978   0.719038474158694   1.667861745805825 
  2.489665894485722   7.186075718635751   1.708351721897133 
  7.467876869647232   7.186075718635751   1.708351721897133 
  8.714107200402085   0.718265664392053   1.656521338587602 
  2.489665894485722   7.186075718635752   8.297605490947655 
 13.690915381692461   0.719031311936129   1.657028027233744 
 -1.244468565574030   9.341979254341116   8.342382967476226 
 -0.002575650583086   2.873007945112201   8.348803508547235 
  4.978771382066648   2.874818548747108   8.297605490947655 
  3.734336664957012   9.345959378747553   8.339900830657745 
  8.712310480257422   9.342213627589022   8.338095467038563 
  9.960118414716700   2.873007945112188   8.348803508547235 
 -3.734302816492420   9.341979254341116   1.663574245368589 
  1.245232283876324   9.342213627589022   1.667861745805825 
  2.485921877955093   2.872793225267830   1.666056382187177 
  6.223206099175407   9.345959378747553   1.666056382187177 
  7.471620886177670   2.872793225267843   1.666056382187177 
 12.446928455165514   2.873679872632268   1.657028027233744 
 -1.245631597138024   5.029456450468342   8.349435874257733 
 -2.489385691033225  11.498238966849078   8.342382967476226 
  2.489704221197634  11.499247871157323   8.349435874257720 
  3.725445123529449   5.025381742590275   8.257737874899485 
  7.467838542935862  11.499247871157323   8.349435874257720 
 -4.979168401179193  11.498209209770108   1.658444642643861 
  8.716055603286950   5.028217382003448   8.339900830657745 
  0.000397019113239  11.498209209770108   1.658444642643861 
  1.241487160846240   5.028217382003447   1.666056382187177 
  0.000178885963932   7.185717884270518   1.667861745805825 
  6.232097640603990   5.025381742590286   1.748219337945170 
  4.978771382067344  11.500954095793395   1.657153704297619 
 11.203174361271349   5.029456450468341   1.656521338587602 
 -2.489385691033167   7.185779055990626   8.347512570200726 
  3.733717984155009   0.719038474158695   8.338095467038563 
  7.467876869647233   7.186075718635752   8.297605490947641 
  8.714107200402085   0.718265664392054   8.349435874257720 
 13.690915381692468   0.719031311936117   8.348929185611123 
 -0.017204091925363   1.421791672707442   5.002978606422314 
  3.636408191218282   8.091644288189521   5.002978606422314 
  4.978771382066452   1.394110406938452   5.002978606422314 
  8.750207736044185   7.926429789540068   5.002978606422314 
  9.974746856058132   1.421791672707416   5.002978606422314 
 -4.978403293936831  10.060890588952068  11.673616748318732 
 -0.000368088129455  10.060890588952068  11.673616748318732 
  1.245235928708522   3.593432296313717  11.673616748318732 
  4.978771382066874  10.060105393391078  11.673616748318732 
  6.222876021679826   3.592688171654535  11.673616748318732 
 11.202037350967711   3.593290738859584  11.673616748318732 
 -2.489385691033300  10.060732491844131   5.002978606422314 
 -1.266680029542214   3.585947479494631   5.002978606422314 
  3.621154847598393   3.415142224534753   5.002978606422314 
  2.436828165537330  10.135697446843155   5.002978606422314 
  7.520714598595724  10.135697446843142   5.002978606422314 
  8.777309350801946   3.555903076562616   5.002978606422314 
 -6.223326524196939  12.216524237009439  11.673616748318732 
 -1.244739973469454  12.216205917871234  11.673616748318732 
  0.000025413838990   5.749360955886192  11.673616748318732 
  4.978771382066590   5.748989995339477  11.673616748318732 
  3.734028716647730  12.216346047155113  11.673616748318732 
  9.957517350294367   5.749360955886192  11.673616748318732 
 -2.489385691033174   5.757818665436803   5.002978606422314 
 -3.730552836357112  12.197346248501511   5.002978606422314 
  1.237046992931375  12.212189405047843   5.002978606422314 
  2.278791656749976   5.740183473294326   5.002978606422314 
  6.228247319683347  12.239230833816498   5.002978606422314 
  7.678751107382961   5.740183473294326   5.002978606422314 
 -1.245013805693323   7.905100968709136  11.673616748318732 
  0.000248078585058   1.437333200004098  11.673616748318732 
  3.733411544334899   7.904567130053878  11.673616748318732 
  4.978771382066587   1.436436906363897  11.673616748318732 
  8.713551912288285   7.905266539827203  11.673616748318732 
 -3.719163909711974   7.917543335322299   5.002978606422314 
  9.957294685548760   1.437333200004098  11.673616748318732 
  2.450742898358097   1.354248869095704   5.002978606422314 
  1.207335028088825   7.926429789540068   5.002978606422314 
  6.321134572914304   8.091644288189611   5.002978606422314 
  7.506799865774710   1.354248869095692   5.002978606422314 
  1.243990851844737   7.905266539827216  11.673616748318732 
 12.446928455166319   1.437247498834912   5.002978606422314 
 -2.489385691033299  10.060732491844133  11.673616748318732 
 -1.244494586834552   3.593290738859584  11.673616748318732 
  3.734666742453119   3.592688171654574  11.673616748318732 
  2.489077136694877  10.060525002540910  11.673616748318732 
  7.468465627437648  10.060525002540910  11.673616748318732 
  8.712306835425773   3.593432296313717  11.673616748318732 
 -4.960331055035541  10.067307891708005   5.002978606422314 
 -0.018440327030730  10.067307891708005   5.002978606422314 
  1.180233413330961   3.555903076562589   5.002978606422314 
  4.978771382065664  10.135163832893301   5.002978606422314 
  6.336387916534870   3.415142224534934   5.002978606422314 
 11.224222793675194   3.585947479494631   5.002978606422314 
 -2.489385691033300   5.749149001513908  11.673616748318732 
 -3.734031408596770  12.216205917871234  11.673616748318732 
  1.244555142129530  12.216524237009427  11.673616748318732 
  2.489306904722063   5.749714684310458  11.673616748318732 
  6.223514047486290  12.216346047155113  11.673616748318732 
 -6.215818374997279  12.212189405047830   5.002978606422314 
  7.468235859411855   5.749714684310471  11.673616748318732 
 -1.248218545709426  12.197346248501459   5.002978606422314 
 -0.091200318171116   5.757023670079440   5.002978606422314 
 -1.259607472354574   7.917543335322286   5.002978606422314 
  3.729295444449462  12.239230833816471   5.002978606422314 
 10.048743082303794   5.757023670079428   5.002978606422314 
 -3.733757576373367   7.905100968709136  11.673616748318732 
  2.489719659210179   1.437084027591408  11.673616748318732 
  6.224131219797984   7.904567130053878  11.673616748318732 
  7.467823104922778   1.437084027591421  11.673616748318732 
 12.446928455166319   1.437247498834912  11.673616748318732 
  1.217816962540103   0.687159422733528   5.002978606422314 
  4.978771382066097   7.619916009543505   5.002978606422314 
  6.230689966075703   0.690521896462254   5.002978606422314 
  9.985492551932538   7.194030747556680   5.002978606422314 
 11.209625389076901   0.722890240558903   5.002978606422314 
 -3.734340152694660   9.341957698274868  11.673616748318732 
  1.245116090371541   9.340852454516154  11.673616748318732 
  2.492079432981494   2.876514606544580  11.673616748318732 
  6.223062065966044   9.338766089030806  11.673616748318732 
  7.465463331151444   2.876514606544580  11.673616748318732 
 12.446928455166798   2.875062093897025  11.673616748318732 
 -1.252817657561421   9.346799604847723   5.002978606422314 
 -0.036653843674523   2.853332891157191   5.002978606422314 
  4.978771382066452   2.835219884697352   5.002978606422314 
  3.680566926220371   9.471070056781002   5.002978606422314 
  8.733573967923743   9.362417341999741   5.002978606422314 
  9.994196607807705   2.853332891157178   5.002978606422314 
 -4.978514940777544  11.497831934231572  11.673616748318732 
 -0.000256441288844  11.497831934231572  11.673616748318732 
  1.247788749082064   5.031689290443032  11.673616748318732 
  6.220865919841505   5.031866379595997  11.673616748318732 
  4.978771382066136  11.495714954060897  11.673616748318732 
 11.201172041594106   5.031106041152620  11.673616748318732 
 -1.285379693225990   5.022823211857036   5.002978606422314 
 -2.489385691033231  11.488598265836446   5.002978606422314 
  2.475574726300279  11.536987351427776   5.002978606422314 
  3.358501925164573   4.813526988237424   5.002978606422314 
  7.481968037833258  11.536987351427776   5.002978606422314 
  8.851289498117412   5.012228002687817   5.002978606422314 
  0.001299599673085   7.186499097333670  11.673616748318732 
  1.245865311007685   0.719174928757100  11.673616748318732 
  4.978771382066314   7.183237226826424  11.673616748318732 
  6.222587872765184   0.719618434169887  11.673616748318732 
  9.956243164459561   7.186499097333684  11.673616748318732 
 -2.489385691033009   7.192478862288248   5.002978606422314 
 11.201744489910926   0.718340201303843  11.673616748318732 
  3.726852798056842   0.690521896462280   5.002978606422314 
  2.455372445462582   7.205875050660668   5.002978606422314 
  7.502170318670403   7.205875050660668   5.002978606422314 
  8.739725801592972   0.687159422733541   5.002978606422314 
  2.491162366540820   7.185211730091992  11.673616748318732 
 13.684231521255290   0.722890240558903   5.002978606422314 
 -1.244431229371507   9.341957698274868  11.673616748318732 
  0.001961579251615   2.875627515978813  11.673616748318732 
  4.978771382066475   2.876546525835133  11.673616748318732 
  3.734480698166989   9.338766089030806  11.673616748318732 
  8.712426673760698   9.340852454516154  11.673616748318732 
  9.955581184880902   2.875627515978813  11.673616748318732 
 -3.725953724504806   9.346799604847723   5.002978606422314 
  1.223968796210372   9.362417341999754   5.002978606422314 