Species order: X N B                    
   2.51242800000000     
     5.9449720136058266    0.0000000000000000    0.0000000000000000
    -2.9724860068029120    5.1484967885702053   -0.0000000000000001
     0.0000000000000000    0.0000000000000009    5.3101128803662583
   In   N    B 
     1   143   144
Direct
  0.5555555555555571  0.4444444444444428  0.3750000000000000
  0.1110130934705368  0.0555278726233714  0.1241651325818029
  0.6114964544176377  0.5563262421686501  0.1310383879890802
  0.4444846145848499  0.0555876172059292  0.1250151567456834
  0.9444123827940496  0.5555153854151951  0.1250151567456834
  0.7778407936805058  0.0555870635069251  0.1242031116053544
  0.1110910901125804  0.7222122117229353  0.6253062143395282
  0.4444846145848499  0.7222303307121906  0.6249848432542990
  0.2774800917630750  0.2220906611496950  0.6251201649117457
  0.7779093388503008  0.7225199082369440  0.6251201649117457
  0.6112772360532633  0.2220906611496945  0.6251201649117457
  0.9444129364930134  0.2221592063194764  0.6257968883946666
  0.2777877882770274  0.7222122117229353  0.1246937856604861
  0.1108811882035002  0.2221072607684116  0.1242125317733442
  0.4444569510307328  0.2222472353947860  0.1280500969740425
  0.6112772360532633  0.7225199082369440  0.1248798350882758
  0.9444123827940430  0.7222303307121906  0.1250151567456833
  0.7778927392316132  0.2221072607684116  0.1242125317733442
  0.1110933905807262  0.8889066094192236  0.6256907054943009
  0.4444798855052047  0.8889066094192236  0.6256907054943009
  0.2774800917630929  0.3887227639467224  0.6251201649117457
  0.6114964544176399  0.3885035455823394  0.6189616120109065
  0.7778927392316132  0.8891188117964541  0.6257874682266696
  0.9444721273766225  0.3888185541804765  0.6258348674182489
  0.1110130934705369  0.3888185541804765  0.1241651325818028
  0.2777877882770276  0.8889089098873826  0.1246937856604862
  0.6111814458194962  0.8889869065294265  0.1241651325818027
  0.4436737578313911  0.3885035455823394  0.1310383879890798
  0.9444721273766223  0.8889869065294265  0.1241651325818033
  0.7779093388503008  0.3887227639467224  0.1248798350882758
  0.2777696692877773  0.5555153854151951  0.6249848432542990
  0.1110130934705367  0.0555278726233715  0.6258348674182489
  0.6114964544176468  0.5563262421686498  0.6189616120109210
  0.4444846145848499  0.0555876172059283  0.6249848432542990
  0.9444123827940496  0.5555153854151951  0.6249848432542990
  0.1110933905807255  0.5555201144947691  0.1243092945056963
  0.7778407936805066  0.0555870635069251  0.6257968883946666
  0.2777696692877754  0.0555876172059283  0.1250151567456834
  0.4444569510307309  0.5555430489692782  0.1280500969740405
  0.7777527646052035  0.5555430489692780  0.1280500969740405
  0.6111814458194962  0.0555278726233713  0.1241651325818029
  0.4444569510307309  0.5555430489692782  0.6219499030259715
  0.9444129364930134  0.0555870635069251  0.1242031116053510
  0.2777877882770267  0.7222122117229353  0.6253062143395282
  0.1108811882034997  0.2221072607684128  0.6257874682266698
  0.4444569510307328  0.2222472353947866  0.6219499030259715
  0.6112772360532632  0.7225199082369440  0.6251201649117457
  0.9444123827940496  0.7222303307121906  0.6249848432542990
  0.7778927392316132  0.2221072607684120  0.6257874682266696
  0.1110910901125805  0.7222122117229353  0.1246937856604857
  0.4444846145848498  0.7222303307121906  0.1250151567456834
  0.2774800917630755  0.2220906611496943  0.1248798350882758
  0.7779093388503008  0.7225199082369440  0.1248798350882758
  0.6112772360532632  0.2220906611496945  0.1248798350882758
  0.9444129364930134  0.2221592063194762  0.1242031116053510
  0.1110130934705362  0.3888185541804765  0.6258348674182500
  0.2777877882770276  0.8889089098873826  0.6253062143395282
  0.6111814458194962  0.8889869065294265  0.6258348674182489
  0.4436737578313896  0.3885035455823394  0.6189616120109210
  0.9444721273766220  0.8889869065294265  0.6258348674182490
  0.1110933905807254  0.8889066094192236  0.1243092945056963
  0.7779093388503006  0.3887227639467224  0.6251201649117457
  0.4444798855052050  0.8889066094192236  0.1243092945056963
  0.2774800917630929  0.3887227639467224  0.1248798350882758
  0.2777696692877754  0.5555153854151951  0.1250151567456832
  0.6114964544176377  0.3885035455823396  0.1310383879890814
  0.7778927392316132  0.8891188117964541  0.1242125317733466
  0.9444721273766223  0.3888185541804765  0.1241651325818028
  0.1110933905807255  0.5555201144947691  0.6256907054943009
  0.2777696692877772  0.0555876172059282  0.6249848432542990
  0.7777527646052026  0.5555430489692782  0.6219499030259706
  0.6111814458194962  0.0555278726233715  0.6258348674182487
  0.9444129364930134  0.0555870635069243  0.6257968883946666
  0.0538062941886049  0.1099162480025993  0.3750000000000000
  0.5562363724992389  0.6255509842984314  0.3750000000000000
  0.3872214620140401  0.1077762573614275  0.3750000000000000
  0.8922237426385773  0.6127785379859568  0.3750000000000000
  0.7227766204806371  0.1099162480025970  0.3750000000000000
  0.0555863105017263  0.7777899999909614  0.8750000000000000
  0.3888703561559193  0.7777899999909614  0.8750000000000000
  0.2222707021159324  0.2778020177246042  0.8750000000000000
  0.7221979822754179  0.7777292978841274  0.8750000000000000
  0.5554995311082171  0.2777444907379476  0.8750000000000000
  0.8888822634801717  0.2777910741633675  0.8750000000000000
  0.2222222222222214  0.7777777777777786  0.3750000000000000
  0.0538062941886060  0.2772233795193501  0.3750000000000000
  0.3744490157016024  0.2640187215341429  0.3750000000000000
  0.5549344860964733  0.7835731884158829  0.3750000000000000
  0.8953053689860719  0.7835731884158821  0.3750000000000000
  0.7250993011567854  0.2749006988431604  0.3750000000000000
  0.0555617018013212  0.9444382981986935  0.8750000000000000
  0.3888703561559189  0.9444136894982701  0.8750000000000000
  0.2222382628603698  0.4444731227608479  0.8750000000000000
  0.5555555555555571  0.4444444444444429  0.8750000000000000
  0.7222089258366963  0.9444245226501407  0.8750000000000000
  0.8889015265671609  0.4444731227608479  0.8750000000000000
  0.0558968201411471  0.4451269736156140  0.3750000000000000
  0.2217138894642789  0.9429556811729419  0.3750000000000000
  0.5548730263844315  0.9441031798588650  0.3750000000000000
  0.3744490157015946  0.4437636275007679  0.3750000000000000
  0.8900837519973993  0.9461937058113913  0.3750000000000000
  0.7359812784658276  0.4437636275007683  0.3750000000000000
  0.2222100000090385  0.6111296438441089  0.8750000000000000
  0.0555754773498663  0.1111177365198484  0.8750000000000000
  0.5554995311082174  0.6110883737036583  0.8750000000000000
  0.3888575561399454  0.1110484456132187  0.8750000000000000
  0.8889515543867663  0.6111424438600505  0.8750000000000000
  0.0570443188270544  0.6120915416246659  0.3750000000000000
  0.7222089258366963  0.1111177365198484  0.8750000000000000
  0.2164268115840842  0.1046946310139145  0.3750000000000000
  0.3872214620140399  0.6127785379859569  0.3750000000000000
  0.7359812784658266  0.6255509842984385  0.3750000000000000
  0.5549344860964768  0.1046946310139144  0.3750000000000000
  0.3888575561399454  0.6111424438600506  0.8750000000000000
  0.8888888888888857  0.1111111111111143  0.3750000000000000
  0.2222222222222214  0.7777777777777786  0.8750000000000000
  0.0555754773498661  0.2777910741633675  0.8750000000000000
  0.3889116262963876  0.2777444907379508  0.8750000000000000
  0.5555268772391200  0.7777617371396541  0.8750000000000000
  0.8889015265671609  0.7777617371396541  0.8750000000000000
  0.7221979822754179  0.2778020177246042  0.8750000000000000
  0.0570443188270561  0.7782861105356843  0.3750000000000000
  0.3879084583753131  0.7782861105356843  0.3750000000000000
  0.2164680643530266  0.2749006988431585  0.3750000000000000
  0.7250993011567821  0.7835319356470171  0.3750000000000000
  0.5562363724992251  0.2640187215341569  0.3750000000000000
  0.8900837519974015  0.2772233795193503  0.3750000000000000
  0.0555617018013212  0.4444567369359795  0.8750000000000000
  0.2222100000090385  0.9444136894982701  0.8750000000000000
  0.5555432630639815  0.9444382981986934  0.8750000000000000
  0.3889116262963865  0.4445004688917569  0.8750000000000000
  0.8888822634801717  0.9444245226501407  0.8750000000000000
  0.0558968201411433  0.9441031798588641  0.3750000000000000
  0.7222555092620921  0.4445004688917583  0.8750000000000000
  0.3879084583753276  0.9429556811729377  0.3750000000000000
  0.2164268115840860  0.4450655139035208  0.3750000000000000
  0.2217138894642776  0.6120915416246652  0.3750000000000000
  0.7227766204806372  0.9461937058113885  0.3750000000000000
  0.8953053689860719  0.4450655139035204  0.3750000000000000
  0.0555863105017265  0.6111296438441089  0.8750000000000000
  0.2222382628603703  0.1110984734328335  0.8750000000000000
  0.7222555092620921  0.6110883737036578  0.8750000000000000
  0.5555268772391200  0.1110984734328336  0.8750000000000000
  0.8888888888888857  0.1111111111111143  0.8750000000000000
  0.1080955197130936  0.0531231030370811  0.3750000000000000
  0.6278745779971749  0.5890824893277449  0.3750000000000000
  0.4438419615435223  0.0533830500485617  0.3750000000000000
  0.9466169499514887  0.5561580384565036  0.3750000000000000
  0.7784374478369194  0.0558853905851229  0.3750000000000000
  0.1110877571883797  0.7222105452608436  0.8750000000000000
  0.4444242203580019  0.7221251007829944  0.8750000000000000
  0.2780361925137015  0.2223783546811580  0.8750000000000000
  0.7776216453188426  0.7219638074862942  0.8750000000000000
  0.6110088288341121  0.2223783546811580  0.8750000000000000
  0.9444663650573001  0.2222660634478782  0.8750000000000000
  0.2774151353406781  0.7225848646593070  0.3750000000000000
  0.1078390996169905  0.2205862164751477  0.3750000000000000
  0.4429262990154437  0.2191859313642351  0.3750000000000000
  0.6125133472332867  0.7321919977409650  0.3750000000000000
  0.9466169499514937  0.7237922448282821  0.3750000000000000
  0.7794137835248286  0.2205862164751468  0.3750000000000000
  0.1111225570982237  0.8888774429017551  0.8750000000000000
  0.4444215524702084  0.8888774429017551  0.8750000000000000
  0.2780361925137015  0.3889911711658757  0.8750000000000000
  0.6109951383788653  0.3890048616211163  0.8750000000000000
  0.7776902247517233  0.8887137828368359  0.8750000000000000
  0.9444018337257691  0.3889460811749282  0.8750000000000000
  0.1080955197130981  0.3883057500093338  0.3750000000000000
  0.2774151353406775  0.8881636040146836  0.3750000000000000
  0.6116942499906520  0.8919044802869067  0.3750000000000000
  0.4109175106722424  0.3721254220027886  0.3750000000000000
  0.9468768969629499  0.8919044802869072  0.3750000000000000
  0.7863453171743415  0.3874866527667217  0.3750000000000000
  0.2778748992170650  0.5555757796420292  0.8750000000000000
  0.1112109141158266  0.0555981662742387  0.8750000000000000
  0.6109951383788653  0.5553236100910962  0.8750000000000000
  0.4444242203580019  0.0556324529084049  0.8750000000000000
  0.9443675470915996  0.5555757796420299  0.8750000000000000
  0.1113523657824881  0.5560380648982739  0.3750000000000000
  0.7777339365521496  0.0555336349427306  0.8750000000000000
  0.2762077551716701  0.0533830500485635  0.3750000000000000
  0.4429262990154477  0.5570737009845571  0.3750000000000000
  0.7808140686357665  0.5570737009845570  0.3750000000000000
  0.6116942499906518  0.0531231030370815  0.3750000000000000
  0.4445237444864002  0.5554762555136190  0.8750000000000000
  0.9441146094148316  0.0558853905851231  0.3750000000000000
  0.2777894547391562  0.7222105452608436  0.8750000000000000
  0.1112862171631540  0.2223097752482497  0.8750000000000000
  0.4445237444864001  0.2223808223061443  0.8750000000000000
  0.6110088288341121  0.7219638074862942  0.8750000000000000
  0.9443675470915996  0.7221251007829944  0.8750000000000000
  0.7776902247517232  0.2223097752482497  0.8750000000000000
  0.1118363959853173  0.7225848646593070  0.3750000000000000
  0.4438419615435221  0.7237922448282826  0.3750000000000000
  0.2678080022590591  0.2136546828256649  0.3750000000000000
  0.7863453171743403  0.7321919977409669  0.3750000000000000
  0.6125133472332888  0.2136546828256741  0.3750000000000000
  0.9441146094148313  0.2215625521630863  0.3750000000000000
  0.1112109141158266  0.3889460811749282  0.8750000000000000
  0.2777894547391561  0.8889122428116411  0.8750000000000000
  0.6110539188250637  0.8887890858841569  0.8750000000000000
  0.4446763899089207  0.3890048616211161  0.8750000000000000
  0.9444018337257689  0.8887890858841569  0.8750000000000000
  0.1113523657824868  0.8886476342175313  0.3750000000000000
  0.7776216453188426  0.3889911711658757  0.8750000000000000
  0.4439619351016909  0.8886476342175313  0.3750000000000000
  0.2678080022590547  0.3874866527667214  0.3750000000000000
  0.2762077551716705  0.5561580384565036  0.3750000000000000
  0.6278745779971739  0.3721254220027921  0.3750000000000000
  0.7794137835248286  0.8921609003830256  0.3750000000000000
  0.9468768969629455  0.3883057500093375  0.3750000000000000
  0.1111225570982237  0.5555784475297894  0.8750000000000000
  0.2778748992170657  0.0556324529084045  0.8750000000000000
  0.7776191776938639  0.5554762555136190  0.8750000000000000
  0.6110539188250635  0.0555981662742389  0.8750000000000000
  0.9444663650573001  0.0555336349427306  0.8750000000000000
  0.0555421644011480  0.1111503812898768  0.1243952698396970
  0.5560813004175729  0.6107938868311629  0.1284894530428046
  0.3892351561502986  0.1118036456339428  0.1262594640207207
  0.8881963543660600  0.6107648438497095  0.1262594640207207
  0.7222748835553866  0.1111503812898768  0.1243952698396971
  0.0553190120921340  0.7776853242967052  0.6252171212528949
  0.3890329788712045  0.7776853242967052  0.6252171212528949
  0.2222837713864504  0.2778085523598821  0.6249909476471400
  0.7221914476400968  0.7777162286135705  0.6249909476471400
  0.5560813004175729  0.2786207469197739  0.6215105469571754
  0.8888496187101448  0.2777251164446055  0.6256047301603043
  0.2222222222222214  0.7777777777777786  0.1247910795730228
  0.0555421644011474  0.2777251164446048  0.1243952698396970
  0.3892061131688134  0.2786207469197743  0.1284894530428050
  0.5557349002586001  0.7776505624405593  0.1248587328408347
  0.8885823288485643  0.7776505624405593  0.1248587328408347
  0.7221914476401000  0.2778085523598821  0.1250090523528226
  0.0555018612966017  0.9444981387034174  0.6256347572961430
  0.3890329788712176  0.9446809879078617  0.6252171212528949
  0.2223494375594627  0.4442650997413313  0.6251412671591824
  0.5555555555555571  0.4444444444444429  0.6013040443495588
  0.7222748835553866  0.9444578355988648  0.6256047301603050
  0.8885823288485644  0.4442650997413305  0.6251412671591834
  0.0555018612966018  0.4443370559265447  0.1243652427038476
  0.2223146757033211  0.9446809879078617  0.1247828787470857
  0.5556629440734383  0.9444981387034174  0.1243652427038476
  0.3892061131688134  0.4439186995823935  0.1284894530428043
  0.8888496187101448  0.9444578355988648  0.1243952698396971
  0.7213792530802402  0.4439186995823935  0.1284894530428074
  0.2223146757033208  0.6109670211287848  0.6252171212528949
  0.0555421644011480  0.1111503812898769  0.6256047301603043
  0.5560813004175742  0.6107938868311625  0.6215105469571757
  0.3892351561502997  0.1118036456339427  0.6237405359793194
  0.8881963543660599  0.6107648438497095  0.6237405359793194
  0.0553190120921341  0.6109670211287848  0.1247828787470857
  0.7222748835553866  0.1111503812898769  0.6256047301603043
  0.2223494375594631  0.1114176711514519  0.1248587328408347
  0.3892351561502995  0.6107648438497095  0.1262594640207206
  0.7213792530802402  0.6107938868311629  0.1284894530428046
  0.5557349002586000  0.1114176711514518  0.1248587328408355
  0.3892351561502996  0.6107648438497094  0.6237405359793197
  0.8888888888888857  0.1111111111111143  0.1244289560340957
  0.2222222222222214  0.7777777777777786  0.6252089204269891
  0.0555421644011472  0.2777251164446055  0.6256047301603042
  0.3892061131688127  0.2786207469197743  0.6215105469571754
  0.5557349002586001  0.7776505624405593  0.6251412671591824
  0.8885823288485644  0.7776505624405593  0.6251412671591861
  0.7221914476401000  0.2778085523598821  0.6249909476471397
  0.0553190120921341  0.7776853242967052  0.1247828787470857
  0.3890329788712045  0.7776853242967052  0.1247828787470857
  0.2222837713864501  0.2778085523598821  0.1250090523528226
  0.7221914476400968  0.7777162286135705  0.1250090523528226
  0.5560813004175729  0.2786207469197663  0.1284894530428050
  0.8888496187101448  0.2777251164446048  0.1243952698396971
  0.0555018612966018  0.4443370559265465  0.6256347572961430
  0.2223146757033208  0.9446809879078601  0.6252171212528949
  0.5556629440734382  0.9444981387034177  0.6256347572961430
  0.3892061131688134  0.4439186995823935  0.6215105469571754
  0.8888496187101448  0.9444578355988648  0.6256047301603042
  0.0555018612966019  0.9444981387034174  0.1243652427038476
  0.7213792530802404  0.4439186995823935  0.6215105469571757
  0.3890329788712169  0.9446809879078617  0.1247828787470857
  0.2223494375594628  0.4442650997413305  0.1248587328408347
  0.2223146757033211  0.6109670211287848  0.1247828787470857
  0.5555555555555571  0.4444444444444429  0.1486959556504273
  0.7222748835553866  0.9444578355988649  0.1243952698396970
  0.8885823288485644  0.4442650997413305  0.1248587328408347
  0.0553190120921341  0.6109670211287848  0.6252171212528949
  0.2223494375594631  0.1114176711514519  0.6251412671591824
  0.7213792530802396  0.6107938868311629  0.6215105469571758
  0.5557349002586001  0.1114176711514519  0.6251412671591824
  0.8888888888888857  0.1111111111111143  0.6255710439658880
 
  0.00000000E+00  0.00000000E+00  0.00000000E+00
  0.00000000E+00  0.00000000E+00  0.00000000E+00
  0.00000000E+00  0.00000000E+00  0.00000000E+00
  0.00000000E+00  0.00000000E+00  0.00000000E+00
  0.00000000E+00  0.00000000E+00  0.00000000E+00
  0.00000000E+00  0.00000000E+00  0.00000000E+00
  0.00000000E+00  0.00000000E+00  0.00000000E+00
  0.00000000E+00  0.00000000E+00  0.00000000E+00
  0.00000000E+00  0.00000000E+00  0.00000000E+00
  0.00000000E+00  0.00000000E+00  0.00000000E+00
  0.00000000E+00  0.00000000E+00  0.00000000E+00
  0.00000000E+00  0.00000000E+00  0.00000000E+00
  0.00000000E+00  0.00000000E+00  0.00000000E+00
  0.00000000E+00  0.00000000E+00  0.00000000E+00
  0.00000000E+00  0.00000000E+00  0.00000000E+00
  0.00000000E+00  0.00000000E+00  0.00000000E+00
  0.00000000E+00  0.00000000E+00  0.00000000E+00
  0.00000000E+00  0.00000000E+00  0.00000000E+00
  0.00000000E+00  0.00000000E+00  0.00000000E+00
  0.00000000E+00  0.00000000E+00  0.00000000E+00
  0.00000000E+00  0.00000000E+00  0.00000000E+00
  0.00000000E+00  0.00000000E+00  0.00000000E+00
  0.00000000E+00  0.00000000E+00  0.00000000E+00
  0.00000000E+00  0.00000000E+00  0.00000000E+00
  0.00000000E+00  0.00000000E+00  0.00000000E+00
  0.00000000E+00  0.00000000E+00  0.00000000E+00
  0.00000000E+00  0.00000000E+00  0.00000000E+00
  0.00000000E+00  0.00000000E+00  0.00000000E+00
  0.00000000E+00  0.00000000E+00  0.00000000E+00
  0.00000000E+00  0.00000000E+00  0.00000000E+00
  0.00000000E+00  0.00000000E+00  0.00000000E+00
  0.00000000E+00  0.00000000E+00  0.00000000E+00
  0.00000000E+00  0.00000000E+00  0.00000000E+00
  0.00000000E+00  0.00000000E+00  0.00000000E+00
  0.00000000E+00  0.00000000E+00  0.00000000E+00
  0.00000000E+00  0.00000000E+00  0.00000000E+00
  0.00000000E+00  0.00000000E+00  0.00000000E+00
  0.00000000E+00  0.00000000E+00  0.00000000E+00
  0.00000000E+00  0.00000000E+00  0.00000000E+00
  0.00000000E+00  0.00000000E+00  0.00000000E+00
  0.00000000E+00  0.00000000E+00  0.00000000E+00
  0.00000000E+00  0.00000000E+00  0.00000000E+00
  0.00000000E+00  0.00000000E+00  0.00000000E+00
  0.00000000E+00  0.00000000E+00  0.00000000E+00
  0.00000000E+00  0.00000000E+00  0.00000000E+00
  0.00000000E+00  0.00000000E+00  0.00000000E+00
  0.00000000E+00  0.00000000E+00  0.00000000E+00
  0.00000000E+00  0.00000000E+00  0.00000000E+00
  0.00000000E+00  0.00000000E+00  0.00000000E+00
  0.00000000E+00  0.00000000E+00  0.00000000E+00
  0.00000000E+00  0.00000000E+00  0.00000000E+00
  0.00000000E+00  0.00000000E+00  0.00000000E+00
  0.00000000E+00  0.00000000E+00  0.00000000E+00
  0.00000000E+00  0.00000000E+00  0.00000000E+00
  0.00000000E+00  0.00000000E+00  0.00000000E+00
  0.00000000E+00  0.00000000E+00  0.00000000E+00
  0.00000000E+00  0.00000000E+00  0.00000000E+00
  0.00000000E+00  0.00000000E+00  0.00000000E+00
  0.00000000E+00  0.00000000E+00  0.00000000E+00
  0.00000000E+00  0.00000000E+00  0.00000000E+00
  0.00000000E+00  0.00000000E+00  0.00000000E+00
  0.00000000E+00  0.00000000E+00  0.00000000E+00
  0.00000000E+00  0.00000000E+00  0.00000000E+00
  0.00000000E+00  0.00000000E+00  0.00000000E+00
  0.00000000E+00  0.00000000E+00  0.00000000E+00
  0.00000000E+00  0.00000000E+00  0.00000000E+00
  0.00000000E+00  0.00000000E+00  0.00000000E+00
  0.00000000E+00  0.00000000E+00  0.00000000E+00
  0.00000000E+00  0.00000000E+00  0.00000000E+00
  0.00000000E+00  0.00000000E+00  0.00000000E+00
  0.00000000E+00  0.00000000E+00  0.00000000E+00
  0.00000000E+00  0.00000000E+00  0.00000000E+00
  0.00000000E+00  0.00000000E+00  0.00000000E+00
  0.00000000E+00  0.00000000E+00  0.00000000E+00
  0.00000000E+00  0.00000000E+00  0.00000000E+00
  0.00000000E+00  0.00000000E+00  0.00000000E+00
  0.00000000E+00  0.00000000E+00  0.00000000E+00
  0.00000000E+00  0.00000000E+00  0.00000000E+00
  0.00000000E+00  0.00000000E+00  0.00000000E+00
  0.00000000E+00  0.00000000E+00  0.00000000E+00
  0.00000000E+00  0.00000000E+00  0.00000000E+00
  0.00000000E+00  0.00000000E+00  0.00000000E+00
  0.00000000E+00  0.00000000E+00  0.00000000E+00
  0.00000000E+00  0.00000000E+00  0.00000000E+00
  0.00000000E+00  0.00000000E+00  0.00000000E+00
  0.00000000E+00  0.00000000E+00  0.00000000E+00
  0.00000000E+00  0.00000000E+00  0.00000000E+00
  0.00000000E+00  0.00000000E+00  0.00000000E+00
  0.00000000E+00  0.00000000E+00  0.00000000E+00
  0.00000000E+00  0.00000000E+00  0.00000000E+00
  0.00000000E+00  0.00000000E+00  0.00000000E+00
  0.00000000E+00  0.00000000E+00  0.00000000E+00
  0.00000000E+00  0.00000000E+00  0.00000000E+00
  0.00000000E+00  0.00000000E+00  0.00000000E+00
  0.00000000E+00  0.00000000E+00  0.00000000E+00
  0.00000000E+00  0.00000000E+00  0.00000000E+00
  0.00000000E+00  0.00000000E+00  0.00000000E+00
  0.00000000E+00  0.00000000E+00  0.00000000E+00
  0.00000000E+00  0.00000000E+00  0.00000000E+00
  0.00000000E+00  0.00000000E+00  0.00000000E+00
  0.00000000E+00  0.00000000E+00  0.00000000E+00
  0.00000000E+00  0.00000000E+00  0.00000000E+00
  0.00000000E+00  0.00000000E+00  0.00000000E+00
  0.00000000E+00  0.00000000E+00  0.00000000E+00
  0.00000000E+00  0.00000000E+00  0.00000000E+00
  0.00000000E+00  0.00000000E+00  0.00000000E+00
  0.00000000E+00  0.00000000E+00  0.00000000E+00
  0.00000000E+00  0.00000000E+00  0.00000000E+00
  0.00000000E+00  0.00000000E+00  0.00000000E+00
  0.00000000E+00  0.00000000E+00  0.00000000E+00
  0.00000000E+00  0.00000000E+00  0.00000000E+00
  0.00000000E+00  0.00000000E+00  0.00000000E+00
  0.00000000E+00  0.00000000E+00  0.00000000E+00
  0.00000000E+00  0.00000000E+00  0.00000000E+00
  0.00000000E+00  0.00000000E+00  0.00000000E+00
  0.00000000E+00  0.00000000E+00  0.00000000E+00
  0.00000000E+00  0.00000000E+00  0.00000000E+00
  0.00000000E+00  0.00000000E+00  0.00000000E+00
  0.00000000E+00  0.00000000E+00  0.00000000E+00
  0.00000000E+00  0.00000000E+00  0.00000000E+00
  0.00000000E+00  0.00000000E+00  0.00000000E+00
  0.00000000E+00  0.00000000E+00  0.00000000E+00
  0.00000000E+00  0.00000000E+00  0.00000000E+00
  0.00000000E+00  0.00000000E+00  0.00000000E+00
  0.00000000E+00  0.00000000E+00  0.00000000E+00
  0.00000000E+00  0.00000000E+00  0.00000000E+00
  0.00000000E+00  0.00000000E+00  0.00000000E+00
  0.00000000E+00  0.00000000E+00  0.00000000E+00
  0.00000000E+00  0.00000000E+00  0.00000000E+00
  0.00000000E+00  0.00000000E+00  0.00000000E+00
  0.00000000E+00  0.00000000E+00  0.00000000E+00
  0.00000000E+00  0.00000000E+00  0.00000000E+00
  0.00000000E+00  0.00000000E+00  0.00000000E+00
  0.00000000E+00  0.00000000E+00  0.00000000E+00
  0.00000000E+00  0.00000000E+00  0.00000000E+00
  0.00000000E+00  0.00000000E+00  0.00000000E+00
  0.00000000E+00  0.00000000E+00  0.00000000E+00
  0.00000000E+00  0.00000000E+00  0.00000000E+00
  0.00000000E+00  0.00000000E+00  0.00000000E+00
  0.00000000E+00  0.00000000E+00  0.00000000E+00
  0.00000000E+00  0.00000000E+00  0.00000000E+00
  0.00000000E+00  0.00000000E+00  0.00000000E+00
  0.00000000E+00  0.00000000E+00  0.00000000E+00
  0.00000000E+00  0.00000000E+00  0.00000000E+00
  0.00000000E+00  0.00000000E+00  0.00000000E+00
  0.00000000E+00  0.00000000E+00  0.00000000E+00
  0.00000000E+00  0.00000000E+00  0.00000000E+00
  0.00000000E+00  0.00000000E+00  0.00000000E+00
  0.00000000E+00  0.00000000E+00  0.00000000E+00
  0.00000000E+00  0.00000000E+00  0.00000000E+00
  0.00000000E+00  0.00000000E+00  0.00000000E+00
  0.00000000E+00  0.00000000E+00  0.00000000E+00
  0.00000000E+00  0.00000000E+00  0.00000000E+00
  0.00000000E+00  0.00000000E+00  0.00000000E+00
  0.00000000E+00  0.00000000E+00  0.00000000E+00
  0.00000000E+00  0.00000000E+00  0.00000000E+00
  0.00000000E+00  0.00000000E+00  0.00000000E+00
  0.00000000E+00  0.00000000E+00  0.00000000E+00
  0.00000000E+00  0.00000000E+00  0.00000000E+00
  0.00000000E+00  0.00000000E+00  0.00000000E+00
  0.00000000E+00  0.00000000E+00  0.00000000E+00
  0.00000000E+00  0.00000000E+00  0.00000000E+00
  0.00000000E+00  0.00000000E+00  0.00000000E+00
  0.00000000E+00  0.00000000E+00  0.00000000E+00
  0.00000000E+00  0.00000000E+00  0.00000000E+00
  0.00000000E+00  0.00000000E+00  0.00000000E+00
  0.00000000E+00  0.00000000E+00  0.00000000E+00
  0.00000000E+00  0.00000000E+00  0.00000000E+00
  0.00000000E+00  0.00000000E+00  0.00000000E+00
  0.00000000E+00  0.00000000E+00  0.00000000E+00
  0.00000000E+00  0.00000000E+00  0.00000000E+00
  0.00000000E+00  0.00000000E+00  0.00000000E+00
  0.00000000E+00  0.00000000E+00  0.00000000E+00
  0.00000000E+00  0.00000000E+00  0.00000000E+00
  0.00000000E+00  0.00000000E+00  0.00000000E+00
  0.00000000E+00  0.00000000E+00  0.00000000E+00
  0.00000000E+00  0.00000000E+00  0.00000000E+00
  0.00000000E+00  0.00000000E+00  0.00000000E+00
  0.00000000E+00  0.00000000E+00  0.00000000E+00
  0.00000000E+00  0.00000000E+00  0.00000000E+00
  0.00000000E+00  0.00000000E+00  0.00000000E+00
  0.00000000E+00  0.00000000E+00  0.00000000E+00
  0.00000000E+00  0.00000000E+00  0.00000000E+00
  0.00000000E+00  0.00000000E+00  0.00000000E+00
  0.00000000E+00  0.00000000E+00  0.00000000E+00
  0.00000000E+00  0.00000000E+00  0.00000000E+00
  0.00000000E+00  0.00000000E+00  0.00000000E+00
  0.00000000E+00  0.00000000E+00  0.00000000E+00
  0.00000000E+00  0.00000000E+00  0.00000000E+00
  0.00000000E+00  0.00000000E+00  0.00000000E+00
  0.00000000E+00  0.00000000E+00  0.00000000E+00
  0.00000000E+00  0.00000000E+00  0.00000000E+00
  0.00000000E+00  0.00000000E+00  0.00000000E+00
  0.00000000E+00  0.00000000E+00  0.00000000E+00
  0.00000000E+00  0.00000000E+00  0.00000000E+00
  0.00000000E+00  0.00000000E+00  0.00000000E+00
  0.00000000E+00  0.00000000E+00  0.00000000E+00
  0.00000000E+00  0.00000000E+00  0.00000000E+00
  0.00000000E+00  0.00000000E+00  0.00000000E+00
  0.00000000E+00  0.00000000E+00  0.00000000E+00
  0.00000000E+00  0.00000000E+00  0.00000000E+00
  0.00000000E+00  0.00000000E+00  0.00000000E+00
  0.00000000E+00  0.00000000E+00  0.00000000E+00
  0.00000000E+00  0.00000000E+00  0.00000000E+00
  0.00000000E+00  0.00000000E+00  0.00000000E+00
  0.00000000E+00  0.00000000E+00  0.00000000E+00
  0.00000000E+00  0.00000000E+00  0.00000000E+00
  0.00000000E+00  0.00000000E+00  0.00000000E+00
  0.00000000E+00  0.00000000E+00  0.00000000E+00
  0.00000000E+00  0.00000000E+00  0.00000000E+00
  0.00000000E+00  0.00000000E+00  0.00000000E+00
  0.00000000E+00  0.00000000E+00  0.00000000E+00
  0.00000000E+00  0.00000000E+00  0.00000000E+00
  0.00000000E+00  0.00000000E+00  0.00000000E+00
  0.00000000E+00  0.00000000E+00  0.00000000E+00
  0.00000000E+00  0.00000000E+00  0.00000000E+00
  0.00000000E+00  0.00000000E+00  0.00000000E+00
  0.00000000E+00  0.00000000E+00  0.00000000E+00
  0.00000000E+00  0.00000000E+00  0.00000000E+00
  0.00000000E+00  0.00000000E+00  0.00000000E+00
  0.00000000E+00  0.00000000E+00  0.00000000E+00
  0.00000000E+00  0.00000000E+00  0.00000000E+00
  0.00000000E+00  0.00000000E+00  0.00000000E+00
  0.00000000E+00  0.00000000E+00  0.00000000E+00
  0.00000000E+00  0.00000000E+00  0.00000000E+00
  0.00000000E+00  0.00000000E+00  0.00000000E+00
  0.00000000E+00  0.00000000E+00  0.00000000E+00
  0.00000000E+00  0.00000000E+00  0.00000000E+00
  0.00000000E+00  0.00000000E+00  0.00000000E+00
  0.00000000E+00  0.00000000E+00  0.00000000E+00
  0.00000000E+00  0.00000000E+00  0.00000000E+00
  0.00000000E+00  0.00000000E+00  0.00000000E+00
  0.00000000E+00  0.00000000E+00  0.00000000E+00
  0.00000000E+00  0.00000000E+00  0.00000000E+00
  0.00000000E+00  0.00000000E+00  0.00000000E+00
  0.00000000E+00  0.00000000E+00  0.00000000E+00
  0.00000000E+00  0.00000000E+00  0.00000000E+00
  0.00000000E+00  0.00000000E+00  0.00000000E+00
  0.00000000E+00  0.00000000E+00  0.00000000E+00
  0.00000000E+00  0.00000000E+00  0.00000000E+00
  0.00000000E+00  0.00000000E+00  0.00000000E+00
  0.00000000E+00  0.00000000E+00  0.00000000E+00
  0.00000000E+00  0.00000000E+00  0.00000000E+00
  0.00000000E+00  0.00000000E+00  0.00000000E+00
  0.00000000E+00  0.00000000E+00  0.00000000E+00
  0.00000000E+00  0.00000000E+00  0.00000000E+00
  0.00000000E+00  0.00000000E+00  0.00000000E+00