 N B O 
 1.0
 14.936314146199660   0.000000000000000   0.000000000000000
 -7.468157073099825  12.935227489513863   0.000000000000000
  0.000000000000001   0.000000000000001  13.341276283792837
 N B O 
 143 143   2
Cartesian
  1.244560656991540   0.718578791193698   1.668066117828063 
  4.979249770647583   7.186259820662878   1.675021261306204 
  6.223085024375128   0.718744262995644   1.668379084605727 
  9.957848187119342   7.186372932924001   1.666874169171910 
 11.201965997815389   0.718468088952317   1.667163681161669 
 -3.734033692083846   9.342134633391195   8.338757103883049 
  1.244607611732818   9.341720086026230   8.337578128238887 
  2.489235113647979   2.874597325781368   8.331950836678017 
  6.223797593157349   9.342284271768936   8.339269388042160 
  7.467950955777296   2.874770764951029   8.337267666671089 
 12.446759030562500   2.874447045963547   8.339044719379221 
 -1.244786528040847   9.341958286657631   1.667297210606749 
 -0.000240931580700   2.874355895756736   1.668662767938765 
  4.978496197474123   2.874971362115757   1.673656909691006 
  3.734214299359804   9.341792355948506   1.668689546173538 
  8.713119923507424   9.342305527116848   1.666874169171910 
  9.957452492565967   2.874510456945057   1.666882478943617 
 -4.978755753412907  11.498014547428086   8.338448840319430 
 -0.000318858361115  11.497795897718335   8.338779130720292 
  1.244706175568207   5.030184678025289   8.331950836678017 
  6.223722757179973   5.030769379341787   8.330935951538423 
  4.978739634408156  11.497894083570907   8.339074733901024 
 11.202329052035038   5.030401015165898   8.339146501545056 
 -1.244797874743013   5.030274246413034   1.668066117828063 
 -2.489562830813480  11.497974087117585   1.667297210606749 
  2.489141791398074  11.497636318382098   1.667340307486793 
  3.733984776565840   5.030312113569983   1.675031280483394 
  7.468233905340949  11.498043529536465   1.666810711299585 
  8.713168614273091   5.030567184306824   1.666687824802468 
  0.000004841636271   7.186024667727719   8.336553694628559 
  1.244560656991541   0.718578791193698   8.337891095016577 
  4.979249770647584   7.186259820662879   8.330935951538423 
  6.223085024375129   0.718744262995644   8.337578128238887 
  9.957848187119342   7.186372932924002   8.339083043672717 
 -2.489347949683824   7.186233750610831   1.667508372525185 
 11.201965997815389   0.718468088952318   8.338793531682960 
  3.733896644258626   0.718734355620813   1.669403518216067 
  2.489660642448748   7.185760995103623   1.673656909691006 
  7.468623467990463   7.186506767390044   1.667729246009683 
  8.712430339859219   0.718584362285749   1.667340307486793 
  2.489660642448749   7.185760995103624   8.332300303153623 
 13.691495060985343   0.718500999259569   1.666912493465408 
 -1.244786528040847   9.341958286657631   8.338660002237878 
 -0.000240931580699   2.874355895756737   8.337294444905863 
  4.978496197474124   2.874971362115758   8.332300303153623 
  3.734214299359805   9.341792355948506   8.337267666671089 
  8.713119923507424   9.342305527116848   8.339083043672717 
  9.957452492565967   2.874510456945058   8.339074733901024 
 -3.734033692083846   9.342134633391195   1.667200108961565 
  1.244607611732818   9.341720086026230   1.668379084605727 
  2.489235113647979   2.874597325781367   1.674006376166611 
  6.223797593157348   9.342284271768936   1.666687824802468 
  7.467950955777295   2.874770764951028   1.668689546173538 
 12.446759030562500   2.874447045963546   1.666912493465408 
 -1.244797874743012   5.030274246413035   8.337891095016577 
 -2.489562830813479  11.497974087117585   8.338660002237878 
  2.489141791398075  11.497636318382098   8.338616905357835 
  3.733984776565840   5.030312113569984   8.330925932361220 
  7.468233905340949  11.498043529536465   8.339146501545056 
 -4.978755753412908  11.498014547428086   1.667508372525185 
  8.713168614273091   5.030567184306824   8.339269388042160 
 -0.000318858361115  11.497795897718335   1.667178082124335 
  1.244706175568207   5.030184678025288   1.674006376166611 
  0.000004841636271   7.186024667727718   1.669403518216067 
  6.223722757179972   5.030769379341786   1.675021261306204 
  4.978739634408155  11.497894083570907   1.666882478943617 
 11.202329052035038   5.030401015165897   1.666810711299585 
 -2.489347949683824   7.186233750610832   8.338448840319430 
  3.733896644258626   0.718734355620814   8.336553694628559 
  7.468623467990464   7.186506767390045   8.338227966834971 
  8.712430339859219   0.718584362285750   8.338616905357835 
 13.691495060985343   0.718500999259570   8.339044719379221 
 -0.041543521470517   1.405609234588676   5.002978606422314 
  3.784434223813711   7.843877515094533   5.002978606422314 
  4.949367912772368   1.501261766687342   5.002978606422314 
  8.773245528198220   7.939730665041786   5.002978606422314 
  9.936542006491791   1.433535005428202   5.002978606422314 
 -4.978727211775565  10.060762224825575  11.673616748318732 
  0.000124791123362  10.060816681170849  11.673616748318732 
  1.244766835597701   3.593161465280426  11.673616748318732 
  4.978816287135898  10.060782311609048  11.673616748318732 
  6.223598401617536   3.593176931017454  11.673616748318732 
 11.202270374535097   3.593161830197500  11.673616748318732 
 -2.461999267545076  10.076544050817182   5.002978606422314 
 -1.292864146820768   3.572960134254185   5.002978606422314 
  3.578087512239798   3.557664857380602   5.002978606422314 
  2.504818363663533  10.028332787308157   5.002978606422314 
  7.502243894198463  10.086930071911018   5.002978606422314 
  8.705260107521154   3.606758646304032   5.002978606422314 
 -6.223414170454332  12.216662162360130  11.673616748318732 
 -1.244557539859297  12.216669717716091  11.673616748318732 
  0.000011584380560   5.749049069380957  11.673616748318732 
  4.978809574176201   5.749012045564234  11.673616748318732 
  3.734143993580928  12.216676987006030  11.673616748318732 
  9.957668184090194   5.749023012391123  11.673616748318732 
 -2.491557416937269   5.749651877574338   5.002978606422314 
 -3.722985662832859  12.240620793004835   5.002978606422314 
  1.240891059728697  12.214408778048316   5.002978606422314 
  2.380686209729336   5.631624750377889   5.002978606422314 
  6.208615723983424  12.200204737038595   5.002978606422314 
  7.569899660279000   5.790719181478465   5.002978606422314 
 -1.244663326274585   7.904934697498451  11.673616748318732 
 -0.000002791706812   1.437252366959439  11.673616748318732 
  3.734196012328781   7.904948349748962  11.673616748318732 
  4.978866794753735   1.437321324504848  11.673616748318732 
  8.712899041813591   7.904889604882971  11.673616748318732 
 -3.696451790608066   7.922349393465691   5.002978606422314 
  9.957638926333063   1.437267562831803  11.673616748318732 
  2.450270777012868   1.411116131602259   5.002978606422314 
  1.285429093034375   7.847389958297537   5.002978606422314 
  6.310474056448355   7.972108315666270   5.002978606422314 
  7.447814442211679   1.466812437648988   5.002978606422314 
  1.244804486765815   7.904906960567873  11.673616748318732 
 12.415581798383473   1.419149498103150   5.002978606422314 
 -2.489290414361821  10.060787499856058  11.673616748318732 
 -1.244690025450521   3.593113895335918  11.673616748318732 
  3.734187834555794   3.593138854240940  11.673616748318732 
  2.489427591165206  10.060856310915591  11.673616748318732 
  7.468248376683825  10.060824600187317  11.673616748318732 
  8.712915516333160   3.593132726135563  11.673616748318732 
 -4.944812827039674  10.084574134754590   5.002978606422314 
  0.023697787529104  10.049677982150046   5.002978606422314 
  1.155079470107746   3.541380440671883   5.002978606422314 
  4.986788975745744  10.047339573017233   5.002978606422314 
  6.195828613118939   3.667219915731324   5.002978606422314 
 11.180609404605011   3.588459067290560   5.002978606422314 
 -2.489310067304294   5.749004134952804  11.673616748318732 
 -3.734000163979743  12.216592577556657  11.673616748318732 
  1.244770172917021  12.216648385091798  11.673616748318732 
  2.489457753342155   5.749074596612312  11.673616748318732 
  6.223518921093859  12.216612305815177  11.673616748318732 
 -6.223976883705458  12.214392029176020   5.002978606422314 
  7.468235606431603   5.749008984794552  11.673616748318732 
 -1.242417437973550  12.242653880957183   5.002978606422314 
 -0.042187884869295   5.728181169747331   5.002978606422314 
 -1.218347030715405   7.902459427577562   5.002978606422314 
  3.720363044127690  12.200272797183686   5.002978606422314 
  9.997273944538017   5.765411258311747   5.002978606422314 
 -3.734030701887167   7.904884629695196  11.673616748318732 
  2.489442642844153   1.437227994182016  11.673616748318732 
  6.223519939599543   7.904919760724670  11.673616748318732 
  7.468285253627134   1.437221875877855  11.673616748318732 
 12.447004239777614   1.437291253100653  11.673616748318732 
  1.206360618781116   0.694529065253657   5.002978606422314 
  5.107307811743143   7.243020935166438   5.002978606422314 
  6.208380479832576   0.751612510954358   5.002978606422314 
 10.002725552243007   7.204842144613297   5.002978606422314 
 11.174831765917959   0.702802132862092   5.002978606422314 
 -3.731879332627197   9.343378453403407  11.673616748318732 
  1.244728551721775   9.340075448112515  11.673616748318732 
  2.487281410921746   2.875456752248873  11.673616748318732 
  6.221427202908095   9.343601581456905  11.673616748318732 
  7.470760901299867   2.875660548488975  11.673616748318732 
 12.446745023431774   2.871870000405067  11.673616748318732 
 -1.223925392376959   9.344625831340949   5.002978606422314 
 -0.085658140354412   2.825040247277807   5.002978606422314 
  4.963365822493687   2.940137192431669   5.002978606422314 
  3.753777732772261   9.310361780060381   5.002978606422314 
  8.751553412580041   9.371935859524232   5.002978606422314 
  9.938596200043115   2.870487484063466   5.002978606422314 
 -4.980916909655857  11.499098966075522  11.673616748318732 
  0.002373851101759  11.499350534251576  11.673616748318732 
  1.244473609358627   5.028063008599188  11.673616748318732 
  6.221791895301775   5.031624412336094  11.673616748318732 
  4.978792696036611  11.495629077897123  11.673616748318732 
 11.204354769028599   5.031589080688383  11.673616748318732 
 -1.284725567466362   5.009216905867305   5.002978606422314 
 -2.476822101520060  11.514706588212661   5.002978606422314 
  2.484001988576208  11.479669354780846   5.002978606422314 
  7.469606051432401  11.507083764950549   5.002978606422314 
  8.772272346391427   5.044397205748280   5.002978606422314 
  0.001948826753572   7.187717977490089  11.673616748318732 
  1.244526523850593   0.715847052684117  11.673616748318732 
  4.979024820002622   7.184160128728018  11.673616748318732 
  6.221721196156309   0.719671319055260  11.673616748318732 
  9.955439698215159   7.187530965835451  11.673616748318732 
 -2.468201432879817   7.189281728987197   5.002978606422314 
 11.204437650857420   0.719895098501461  11.673616748318732 
  3.722502724026683   0.734120741503608   5.002978606422314 
  2.538530719470815   7.140074790843826   5.002978606422314 
  7.544606208365502   7.230375422999342   5.002978606422314 
  8.694300591540738   0.723116644272185   5.002978606422314 
  2.487317918718514   7.187910940729717  11.673616748318732 
 13.651647366810939   0.692061621056650   5.002978606422314 
 -1.246858969153353   9.343541194364972  11.673616748318732 
  0.001699947707205   2.875476462936065  11.673616748318732 
  4.979186743137966   2.871867531038267  11.673616748318732 
  3.736389847268828   9.343780948385319  11.673616748318732 
  8.712918564975057   9.339640698085383  11.673616748318732 
  9.955517470926987   2.875688912500147  11.673616748318732 
 -3.703660987053007   9.359670322816759   5.002978606422314 
  1.265720077171675   9.312551452921944   5.002978606422314 
  2.358599752531017   2.807015106454291   5.002978606422314 
  6.265326609119677   9.386554594521197   5.002978606422314 
  7.450512995308832   2.907428483215524   5.002978606422314 
 12.403938010291299   2.853157619627753   5.002978606422314 
 -1.247180696259295   5.031610555500681  11.673616748318732 
 -2.489228213083330  11.495387846612639  11.673616748318732 
  2.487296326795900  11.499475669566664  11.673616748318732 
  3.736442735999328   5.031731217110556  11.673616748318732 
  7.470275658761554  11.499203819152541  11.673616748318732 
 -4.965542868306794  11.514803978993742   5.002978606422314 
  8.713124242802902   5.027855711290092  11.673616748318732 
  0.002661085646949  11.499516369193552   5.002978606422314 
  1.120860576228354   4.950842246328970   5.002978606422314 
  0.007632882567236   7.168464050416754   5.002978606422314 
  6.336908344834946   5.113290338837645   5.002978606422314 
  4.965827491432549  11.483575541665697   5.002978606422314 
 11.210844198605558   5.027069210831748   5.002978606422314 
 -2.489489393708290   7.183819925079186  11.673616748318732 
  3.736335086087973   0.719571241235777  11.673616748318732 
  7.470615988962356   7.187657149909525  11.673616748318732 
  8.713100532410445   0.716066467466202  11.673616748318732 
 13.689256270499618   0.719777391507781  11.673616748318732 
 -0.001027119933146   1.435956765000274   1.668075547100750 
  3.735203290481356   7.906030508547037   1.671168312533374 
  4.979147859753875   1.435970067426275   1.668431210338888 
  8.713868830987552   7.905449512923630   1.668127609017611 
  9.957493168486375   1.437190789475824   1.669204627029616 
 -4.978625659403040  10.060374824165864   8.336732394288411 
 -0.000654259268875  10.060967451522904   8.336994054959012 
  1.242999877007793   3.592141311262887   8.339072274621277 
  4.979471398929584  10.061307272691687   8.337819467253306 
  6.225039217703886   3.593508180087221   8.334788900311253 
 11.201812647492707   3.593244187976757   8.337188521440888 
 -2.489843335467132  10.060468270707057   1.668301683629676 
 -1.246324213773518   3.592874602049681   1.668075547100750 
  3.734515234998558   3.593026829087041   1.667284058606848 
  2.489361832549359  10.061268256450013   1.669017582810226 
  7.468851303400981  10.060877107374433   1.668563209985964 
  8.713697701863577   3.593437589049878   1.668137745591335 
 -6.223651185802597  12.215459016901525   8.337922431274620 
 -1.244816494100390  12.215919655109543   8.336994054959012 
 -0.002018054444413   5.749555488637273   8.337334206790574 
  4.980041515898175   5.749723307449050   8.332345701390736 
  3.734004626980958  12.216589143686011   8.336752585815011 
  9.958015120006698   5.749518908651242   8.337394002858664 
 -2.490470529510026   5.749400446369421   1.668034781570008 
 -3.734194495948590  12.215227160790047   1.668930324726716 
  1.244501249826039  12.216493122272844   1.668337936565104 
  2.489524436934398   5.749414146289905   1.667284058606848 
  6.223361381501700  12.216174723678840   1.668768691403739 
  7.470013226185108   5.749937069672010   1.670166924353993 
 -1.245942977865644   7.905449109459967   8.337026888117911 
 -0.001027119933145   1.435956765000274   8.337881665743863 
  3.735203290481356   7.906030508547038   8.334788900311253 
  4.979147859753875   1.435970067426276   8.337526002505754 
  8.713868830987552   7.905449512923631   8.337829603827004 
 -3.734315424513642   7.905166276959446   1.669224818556203 
  9.957493168486375   1.437190789475825   8.336752585815011 
  2.488866395372594   1.435217065770937   1.668623006054053 
  1.243774796308791   7.905825998537409   1.668431210338888 
  6.225212494557043   7.905995182150742   1.670166924353993 
  7.468609129617013   1.436958954478775   1.669017582810226 
  1.243774796308791   7.905825998537410   8.337526002505754 
 12.446268728251320   1.436866605322946   1.668069602940970 
 -2.489843335467132  10.060468270707057   8.337655529214951 
 -1.246324213773518   3.592874602049682   8.337881665743863 
  3.734515234998558   3.593026829087042   8.338673154237780 
  2.489361832549359  10.061268256450013   8.336939630034403 
  7.468851303400982  10.060877107374433   8.337394002858664 
  8.713697701863577   3.593437589049878   8.337819467253306 
 -4.978625659403041  10.060374824165864   1.669224818556203 
 -0.000654259268876  10.060967451522904   1.668963157885616 
  1.242999877007792   3.592141311262886   1.666884938223350 
  4.979471398929583  10.061307272691687   1.668137745591335 
  6.225039217703885   3.593508180087220   1.671168312533374 
 11.201812647492707   3.593244187976756   1.668768691403739 
 -2.490470529510026   5.749400446369422   8.337922431274620 
 -3.734194495948589  12.215227160790047   8.337026888117911 
  1.244501249826039  12.216493122272844   8.337619276279538 
  2.489524436934399   5.749414146289906   8.338673154237780 
  6.223361381501701  12.216174723678840   8.337188521440888 
 -6.223651185802598  12.215459016901525   1.668034781570008 
  7.470013226185109   5.749937069672010   8.335790288490635 
 -1.244816494100390  12.215919655109543   1.668963157885616 
 -0.002018054444413   5.749555488637272   1.668623006054053 
 -1.245942977865644   7.905449109459966   1.668930324726716 
  4.980041515898174   5.749723307449049   1.673611511453905 
  3.734004626980957  12.216589143686011   1.669204627029616 
  9.958015120006698   5.749518908651241   1.668563209985964 
 -3.734315424513641   7.905166276959447   8.336732394288411 
  2.488866395372594   1.435217065770937   8.337334206790574 
  6.225212494557044   7.905995182150743   8.335790288490635 
  7.468609129617014   1.436958954478776   8.336939630034403 
 12.446268728251320   1.436866605322946   8.337887609903659 
  3.487913392309123   4.888242733629495   5.002978606422314 
  5.274371587183440   5.919654853336193   5.002978606422314 
Generated by cif2cell 2.0.0.  :  Failed to get author information, No journal information. Species order: N B O 
 1.0
 14.936314146199660   0.000000000000000   0.000000000000000
 -7.468157073099825  12.935227489513863   0.000000000000000
  0.000000000000001   0.000000000000001  13.341276283792837
 N B O 
 143 143   2
Cartesian
  1.244560656991540   0.718578791193698   1.668066117828063 
  4.979249770647583   7.186259820662878   1.675021261306204 
  6.223085024375128   0.718744262995644   1.668379084605727 
  9.957848187119342   7.186372932924001   1.666874169171910 
 11.201965997815389   0.718468088952317   1.667163681161669 
 -3.734033692083846   9.342134633391195   8.338757103883049 
  1.244607611732818   9.341720086026230   8.337578128238887 
  2.489235113647979   2.874597325781368   8.331950836678017 
  6.223797593157349   9.342284271768936   8.339269388042160 
  7.467950955777296   2.874770764951029   8.337267666671089 
 12.446759030562500   2.874447045963547   8.339044719379221 
 -1.244786528040847   9.341958286657631   1.667297210606749 
 -0.000240931580700   2.874355895756736   1.668662767938765 
  4.978496197474123   2.874971362115757   1.673656909691006 
  3.734214299359804   9.341792355948506   1.668689546173538 
  8.713119923507424   9.342305527116848   1.666874169171910 
  9.957452492565967   2.874510456945057   1.666882478943617 
 -4.978755753412907  11.498014547428086   8.338448840319430 
 -0.000318858361115  11.497795897718335   8.338779130720292 
  1.244706175568207   5.030184678025289   8.331950836678017 
  6.223722757179973   5.030769379341787   8.330935951538423 
  4.978739634408156  11.497894083570907   8.339074733901024 
 11.202329052035038   5.030401015165898   8.339146501545056 
 -1.244797874743013   5.030274246413034   1.668066117828063 
 -2.489562830813480  11.497974087117585   1.667297210606749 
  2.489141791398074  11.497636318382098   1.667340307486793 
  3.733984776565840   5.030312113569983   1.675031280483394 
  7.468233905340949  11.498043529536465   1.666810711299585 
  8.713168614273091   5.030567184306824   1.666687824802468 
  0.000004841636271   7.186024667727719   8.336553694628559 
  1.244560656991541   0.718578791193698   8.337891095016577 
  4.979249770647584   7.186259820662879   8.330935951538423 
  6.223085024375129   0.718744262995644   8.337578128238887 
  9.957848187119342   7.186372932924002   8.339083043672717 
 -2.489347949683824   7.186233750610831   1.667508372525185 
 11.201965997815389   0.718468088952318   8.338793531682960 
  3.733896644258626   0.718734355620813   1.669403518216067 
  2.489660642448748   7.185760995103623   1.673656909691006 
  7.468623467990463   7.186506767390044   1.667729246009683 
  8.712430339859219   0.718584362285749   1.667340307486793 
  2.489660642448749   7.185760995103624   8.332300303153623 
 13.691495060985343   0.718500999259569   1.666912493465408 
 -1.244786528040847   9.341958286657631   8.338660002237878 
 -0.000240931580699   2.874355895756737   8.337294444905863 
  4.978496197474124   2.874971362115758   8.332300303153623 
  3.734214299359805   9.341792355948506   8.337267666671089 
  8.713119923507424   9.342305527116848   8.339083043672717 
  9.957452492565967   2.874510456945058   8.339074733901024 
 -3.734033692083846   9.342134633391195   1.667200108961565 
  1.244607611732818   9.341720086026230   1.668379084605727 
  2.489235113647979   2.874597325781367   1.674006376166611 
  6.223797593157348   9.342284271768936   1.666687824802468 
  7.467950955777295   2.874770764951028   1.668689546173538 
 12.446759030562500   2.874447045963546   1.666912493465408 
 -1.244797874743012   5.030274246413035   8.337891095016577 
 -2.489562830813479  11.497974087117585   8.338660002237878 
  2.489141791398075  11.497636318382098   8.338616905357835 
  3.733984776565840   5.030312113569984   8.330925932361220 
  7.468233905340949  11.498043529536465   8.339146501545056 
 -4.978755753412908  11.498014547428086   1.667508372525185 
  8.713168614273091   5.030567184306824   8.339269388042160 
 -0.000318858361115  11.497795897718335   1.667178082124335 
  1.244706175568207   5.030184678025288   1.674006376166611 
  0.000004841636271   7.186024667727718   1.669403518216067 
  6.223722757179972   5.030769379341786   1.675021261306204 
  4.978739634408155  11.497894083570907   1.666882478943617 
 11.202329052035038   5.030401015165897   1.666810711299585 
 -2.489347949683824   7.186233750610832   8.338448840319430 
  3.733896644258626   0.718734355620814   8.336553694628559 
  7.468623467990464   7.186506767390045   8.338227966834971 
  8.712430339859219   0.718584362285750   8.338616905357835 
 13.691495060985343   0.718500999259570   8.339044719379221 
 -0.041543521470517   1.405609234588676   5.002978606422314 
  3.784434223813711   7.843877515094533   5.002978606422314 
  4.949367912772368   1.501261766687342   5.002978606422314 
  8.773245528198220   7.939730665041786   5.002978606422314 
  9.936542006491791   1.433535005428202   5.002978606422314 
 -4.978727211775565  10.060762224825575  11.673616748318732 
  0.000124791123362  10.060816681170849  11.673616748318732 
  1.244766835597701   3.593161465280426  11.673616748318732 
  4.978816287135898  10.060782311609048  11.673616748318732 
  6.223598401617536   3.593176931017454  11.673616748318732 
 11.202270374535097   3.593161830197500  11.673616748318732 
 -2.461999267545076  10.076544050817182   5.002978606422314 
 -1.292864146820768   3.572960134254185   5.002978606422314 
  3.578087512239798   3.557664857380602   5.002978606422314 
  2.504818363663533  10.028332787308157   5.002978606422314 
  7.502243894198463  10.086930071911018   5.002978606422314 
  8.705260107521154   3.606758646304032   5.002978606422314 
 -6.223414170454332  12.216662162360130  11.673616748318732 
 -1.244557539859297  12.216669717716091  11.673616748318732 
  0.000011584380560   5.749049069380957  11.673616748318732 
  4.978809574176201   5.749012045564234  11.673616748318732 
  3.734143993580928  12.216676987006030  11.673616748318732 
  9.957668184090194   5.749023012391123  11.673616748318732 
 -2.491557416937269   5.749651877574338   5.002978606422314 
 -3.722985662832859  12.240620793004835   5.002978606422314 
  1.240891059728697  12.214408778048316   5.002978606422314 
  2.380686209729336   5.631624750377889   5.002978606422314 
  6.208615723983424  12.200204737038595   5.002978606422314 
  7.569899660279000   5.790719181478465   5.002978606422314 
 -1.244663326274585   7.904934697498451  11.673616748318732 
 -0.000002791706812   1.437252366959439  11.673616748318732 
  3.734196012328781   7.904948349748962  11.673616748318732 
  4.978866794753735   1.437321324504848  11.673616748318732 
  8.712899041813591   7.904889604882971  11.673616748318732 
 -3.696451790608066   7.922349393465691   5.002978606422314 
  9.957638926333063   1.437267562831803  11.673616748318732 
  2.450270777012868   1.411116131602259   5.002978606422314 
  1.285429093034375   7.847389958297537   5.002978606422314 
  6.310474056448355   7.972108315666270   5.002978606422314 
  7.447814442211679   1.466812437648988   5.002978606422314 
  1.244804486765815   7.904906960567873  11.673616748318732 
 12.415581798383473   1.419149498103150   5.002978606422314 
 -2.489290414361821  10.060787499856058  11.673616748318732 
 -1.244690025450521   3.593113895335918  11.673616748318732 
  3.734187834555794   3.593138854240940  11.673616748318732 
  2.489427591165206  10.060856310915591  11.673616748318732 
  7.468248376683825  10.060824600187317  11.673616748318732 
  8.712915516333160   3.593132726135563  11.673616748318732 
 -4.944812827039674  10.084574134754590   5.002978606422314 
  0.023697787529104  10.049677982150046   5.002978606422314 
  1.155079470107746   3.541380440671883   5.002978606422314 
  4.986788975745744  10.047339573017233   5.002978606422314 
  6.195828613118939   3.667219915731324   5.002978606422314 
 11.180609404605011   3.588459067290560   5.002978606422314 
 -2.489310067304294   5.749004134952804  11.673616748318732 
 -3.734000163979743  12.216592577556657  11.673616748318732 
  1.244770172917021  12.216648385091798  11.673616748318732 
  2.489457753342155   5.749074596612312  11.673616748318732 
  6.223518921093859  12.216612305815177  11.673616748318732 
 -6.223976883705458  12.214392029176020   5.002978606422314 
  7.468235606431603   5.749008984794552  11.673616748318732 
 -1.242417437973550  12.242653880957183   5.002978606422314 
 -0.042187884869295   5.728181169747331   5.002978606422314 
 -1.218347030715405   7.902459427577562   5.002978606422314 
  3.720363044127690  12.200272797183686   5.002978606422314 
  9.997273944538017   5.765411258311747   5.002978606422314 
 -3.734030701887167   7.904884629695196  11.673616748318732 
  2.489442642844153   1.437227994182016  11.673616748318732 
  6.223519939599543   7.904919760724670  11.673616748318732 
  7.468285253627134   1.437221875877855  11.673616748318732 
 12.447004239777614   1.437291253100653  11.673616748318732 
  1.206360618781116   0.694529065253657   5.002978606422314 
  5.107307811743143   7.243020935166438   5.002978606422314 
  6.208380479832576   0.751612510954358   5.002978606422314 
 10.002725552243007   7.204842144613297   5.002978606422314 
 11.174831765917959   0.702802132862092   5.002978606422314 
 -3.731879332627197   9.343378453403407  11.673616748318732 
  1.244728551721775   9.340075448112515  11.673616748318732 
  2.487281410921746   2.875456752248873  11.673616748318732 
  6.221427202908095   9.343601581456905  11.673616748318732 
  7.470760901299867   2.875660548488975  11.673616748318732 
 12.446745023431774   2.871870000405067  11.673616748318732 
 -1.223925392376959   9.344625831340949   5.002978606422314 
 -0.085658140354412   2.825040247277807   5.002978606422314 
  4.963365822493687   2.940137192431669   5.002978606422314 
  3.753777732772261   9.310361780060381   5.002978606422314 
  8.751553412580041   9.371935859524232   5.002978606422314 
  9.938596200043115   2.870487484063466   5.002978606422314 
 -4.980916909655857  11.499098966075522  11.673616748318732 
  0.002373851101759  11.499350534251576  11.673616748318732 
  1.244473609358627   5.028063008599188  11.673616748318732 
  6.221791895301775   5.031624412336094  11.673616748318732 
  4.978792696036611  11.495629077897123  11.673616748318732 
 11.204354769028599   5.031589080688383  11.673616748318732 
 -1.284725567466362   5.009216905867305   5.002978606422314 
 -2.476822101520060  11.514706588212661   5.002978606422314 
  2.484001988576208  11.479669354780846   5.002978606422314 
  7.469606051432401  11.507083764950549   5.002978606422314 
  8.772272346391427   5.044397205748280   5.002978606422314 
  0.001948826753572   7.187717977490089  11.673616748318732 
  1.244526523850593   0.715847052684117  11.673616748318732 
  4.979024820002622   7.184160128728018  11.673616748318732 
  6.221721196156309   0.719671319055260  11.673616748318732 
  9.955439698215159   7.187530965835451  11.673616748318732 
 -2.468201432879817   7.189281728987197   5.002978606422314 
 11.204437650857420   0.719895098501461  11.673616748318732 
  3.722502724026683   0.734120741503608   5.002978606422314 
  2.538530719470815   7.140074790843826   5.002978606422314 
  7.544606208365502   7.230375422999342   5.002978606422314 
  8.694300591540738   0.723116644272185   5.002978606422314 
  2.487317918718514   7.187910940729717  11.673616748318732 
 13.651647366810939   0.692061621056650   5.002978606422314 
 -1.246858969153353   9.343541194364972  11.673616748318732 
  0.001699947707205   2.875476462936065  11.673616748318732 
  4.979186743137966   2.871867531038267  11.673616748318732 
  3.736389847268828   9.343780948385319  11.673616748318732 
  8.712918564975057   9.339640698085383  11.673616748318732 
  9.955517470926987   2.875688912500147  11.673616748318732 
 -3.703660987053007   9.359670322816759   5.002978606422314 
  1.265720077171675   9.312551452921944   5.002978606422314 
  2.358599752531017   2.807015106454291   5.002978606422314 
  6.265326609119677   9.386554594521197   5.002978606422314 