Species order:X N B                     
   2.51242800000000     
     5.9449720136058266    0.0000000000000000    0.0000000000000000
    -2.9724860068029120    5.1484967885702053   -0.0000000000000001
     0.0000000000000000    0.0000000000000009    5.3101128803662583
   O    N    B 
     2   143   143
Direct
  0.4224698000235787  0.3779015666784537  0.3750000000000000
  0.5819431638345881  0.4576382485839584  0.3750000000000000
  0.1111005231463614  0.0555520799132622  0.1250304755216301
  0.6111440026786271  0.5555572815776554  0.1255518007179753
  0.4444237147879697  0.0555648722512460  0.1250539340552071
  0.9444701280623057  0.5555660260903601  0.1249411325959010
  0.7777537100966702  0.0555435217150030  0.1249628330677004
  0.1111151142822286  0.7222242238077788  0.6250344364738993
  0.4444237147879697  0.7221921758700598  0.6249460659447920
  0.2777716518874396  0.2222301330310346  0.6245242703503395
  0.7778068818447452  0.7222357920912025  0.6250728349110659
  0.6111079709114610  0.2222435413123967  0.6249227951900906
  0.9444312477794277  0.2222185151589920  0.6250559947933620
  0.2777656899091638  0.7222105907476948  0.1249728418136580
  0.1110896036558930  0.2222114684946110  0.1250751976380156
  0.4444444340368375  0.2222590491312504  0.1254495352685404
  0.6111079709114610  0.7221977629323930  0.1250772048099095
  0.9444701280623057  0.7222374353052800  0.1249411325959010
  0.7777723315780271  0.2222234173519809  0.1249417554577266
  0.1111134932250438  0.8888915604112199  0.6250113304713654
  0.4444159806295201  0.8888746569814246  0.6250360875031388
  0.2777716518874396  0.3888748521897336  0.6245242703503395
  0.6111440026786271  0.3889200544343004  0.6244481992820250
  0.7777723315780271  0.8888822475593762  0.6250582445422739
  0.9444520444732378  0.3888915768388199  0.6250636239109719
  0.1111005231463614  0.3888817765664275  0.1250304755216301
  0.2777656899091638  0.8888884324947971  0.1249728418136580
  0.6110814974511408  0.8888623201797441  0.1249760721552782
  0.4444360746879641  0.3888847040106467  0.1255525517088835
  0.9444520444732378  0.8888938009677465  0.1249363760890286
  0.7778068818447452  0.3889044230868705  0.1249271650889336
  0.2777698753080756  0.5555391023121296  0.6248692791675351
  0.1111005231463614  0.0555520799132622  0.6249695244783706
  0.6111440026786271  0.5555572815776554  0.6244481992820250
  0.4444237147879697  0.0555648722512460  0.6249460659447920
  0.9444701280623057  0.5555660260903601  0.6250588674040991
  0.1111134932250438  0.5555552661471523  0.1249886695286343
  0.7777537100966702  0.0555435217150030  0.6250371669323002
  0.2777698753080756  0.0555641063292828  0.1251307208324655
  0.4444444340368375  0.5555187182389230  0.1254495352685404
  0.7778194118682298  0.5555763726007833  0.1250052251774186
  0.6110814974511408  0.0555525106047255  0.1249760721552782
  0.4444444340368375  0.5555187182389230  0.6245504647314598
  0.9444312477794277  0.0555460659537713  0.1249440052066377
  0.2777656899091638  0.7222105907476948  0.6250271581863420
  0.1110896036558930  0.2222114684946110  0.6249248023619844
  0.4444444340368375  0.2222590491312504  0.6245504647314598
  0.6111079709114610  0.7221977629323930  0.6249227951900906
  0.9444701280623057  0.7222374353052800  0.6250588674040991
  0.7777723315780271  0.2222234173519809  0.6250582445422739
  0.1111151142822286  0.7222242238077788  0.1249655635261005
  0.4444237147879697  0.7221921758700598  0.1250539340552071
  0.2777716518874396  0.2222301330310346  0.1254757296496601
  0.7778068818447452  0.7222357920912025  0.1249271650889336
  0.6111079709114610  0.2222435413123967  0.1250772048099095
  0.9444312477794277  0.2222185151589920  0.1249440052066377
  0.1111005231463614  0.3888817765664275  0.6249695244783706
  0.2777656899091638  0.8888884324947971  0.6250271581863420
  0.6110814974511408  0.8888623201797441  0.6250239278447220
  0.4444360746879641  0.3888847040106467  0.6244474482911158
  0.9444520444732378  0.8888938009677465  0.6250636239109719
  0.1111134932250438  0.8888915604112199  0.1249886695286343
  0.7778068818447452  0.3889044230868705  0.6250728349110659
  0.4444159806295201  0.8888746569814246  0.1249639124968612
  0.2777716518874396  0.3888748521897336  0.1254757296496601
  0.2777698753080756  0.5555391023121296  0.1251307208324655
  0.6111440026786271  0.3889200544343004  0.1255518007179753
  0.7777723315780271  0.8888822475593762  0.1249417554577266
  0.9444520444732378  0.3888915768388199  0.1249363760890286
  0.1111134932250438  0.5555552661471523  0.6250113304713654
  0.2777698753080756  0.0555641063292828  0.6248692791675351
  0.7778194118682298  0.5555763726007833  0.6249947748225827
  0.6110814974511408  0.0555525106047255  0.6250239278447220
  0.9444312477794277  0.0555460659537713  0.6250559947933620
  0.0515512288344970  0.1086652117814046  0.3750000000000000
  0.5565696421000299  0.6063965648422718  0.3750000000000000
  0.3893947155211129  0.1160599431207806  0.3750000000000000
  0.8942802778657252  0.6138068055995342  0.3750000000000000
  0.7206726989273528  0.1108241046854660  0.3750000000000000
  0.0555596620998627  0.7777800763830001  0.8750000000000000
  0.3889004980350348  0.7777842863085938  0.8750000000000000
  0.2222288271610622  0.2777810802471988  0.8750000000000000
  0.7222271543978119  0.7777816292573880  0.8750000000000000
  0.5555667876801951  0.2777822758765023  0.8750000000000000
  0.8888928817702725  0.2777811084583052  0.8750000000000000
  0.2246669506177412  0.7790001419755381  0.3750000000000000
  0.0515512288344970  0.2762193503864280  0.3750000000000000
  0.3770747066650276  0.2750368990622451  0.3750000000000000
  0.5553364047347302  0.7752730128200510  0.3750000000000000
  0.8921836777183599  0.7798030672508963  0.3750000000000000
  0.7222413158477616  0.2788322547267070  0.3750000000000000
  0.0555611651884079  0.9444489609683128  0.8750000000000000
  0.3889004980350348  0.9444495450597774  0.8750000000000000
  0.2222252812630171  0.4444490113561212  0.8750000000000000
  0.5555589648848142  0.4444461491090714  0.8750000000000000
  0.7222294359265492  0.9444501070359725  0.8750000000000000
  0.8888985621161195  0.4444469969354348  0.8750000000000000
  0.0554357409881846  0.4444956134119309  0.3750000000000000
  0.2238932586931049  0.9463011611452431  0.3750000000000000
  0.5552161781383645  0.9442747557358471  0.3750000000000000
  0.3770747066650276  0.4353711409361183  0.3750000000000000
  0.8872608786454216  0.9431766659634606  0.3750000000000000
  0.7306469877164306  0.4476704554421482  0.3750000000000000
  0.2222270378597433  0.6111167897052215  0.8750000000000000
  0.0555555568213442  0.1111114874573771  0.8750000000000000
  0.5555667876801951  0.6111178451370279  0.8750000000000000
  0.3888981305234890  0.1111168184456003  0.8750000000000000
  0.8888932740133285  0.6111133036733363  0.8750000000000000
  0.0587506901457921  0.6124630896432288  0.3750000000000000
  0.7222294359265492  0.1111126622239112  0.8750000000000000
  0.2185933573365543  0.1090909404373597  0.3750000000000000
  0.3893947155211129  0.6066681057336748  0.3750000000000000
  0.7306469877164306  0.6163098656076191  0.3750000000000000
  0.5553364047347302  0.1133967252480159  0.3750000000000000
  0.3888981305234890  0.6111146454112312  0.8750000000000000
  0.8860906388006767  0.1097119860670098  0.3750000000000000
  0.2222307273701934  0.7777820303517650  0.8750000000000000
  0.0555555568213442  0.2777774026973029  0.8750000000000000
  0.3888969837157195  0.2777793322269571  0.8750000000000000
  0.5555631469268312  0.7777873500154192  0.8750000000000000
  0.8888985621161195  0.7777848985140207  0.8750000000000000
  0.7222271543978119  0.2777788584737599  0.8750000000000000
  0.0587506901457921  0.7796209338358988  0.3750000000000000
  0.3900481751232286  0.7769231728082839  0.3750000000000000
  0.2142226247729694  0.2737779790531523  0.3750000000000000
  0.7222413158477616  0.7767423944543894  0.3750000000000000
  0.5565696421000299  0.2835064105910938  0.3750000000000000
  0.8872608786454216  0.2774175460152978  0.3750000000000000
  0.0555611651884079  0.4444455375534233  0.8750000000000000
  0.2222270378597433  0.9444435814878570  0.8750000000000000
  0.5555624584098651  0.9444478958715965  0.8750000000000000
  0.3888969837157195  0.4444509848220979  0.8750000000000000
  0.8888928817702725  0.9444451066453030  0.8750000000000000
  0.0554357409881846  0.9442734609095819  0.3750000000000000
  0.7222282141220902  0.4444459124862755  0.8750000000000000
  0.3900481751232286  0.9464583356482806  0.3750000000000000
  0.2185933573365543  0.4428357502325307  0.3750000000000000
  0.2238932586931049  0.6109254308811973  0.3750000000000000
  0.7206726989273528  0.9431819275752221  0.3750000000000000
  0.8921836777183599  0.4457139438007997  0.3750000000000000
  0.0555596620998627  0.6111129190501986  0.8750000000000000
  0.2222252812630171  0.1111096032402312  0.8750000000000000
  0.7222282141220902  0.6111156349691504  0.8750000000000000
  0.5555631469268312  0.1111091302447491  0.8750000000000000
  0.8888956540216626  0.1111144936775027  0.8750000000000000
  0.1076133740782565  0.0536928373170617  0.3750000000000000
  0.6219116582233257  0.5599453848831107  0.3750000000000000
  0.4447097255950803  0.0581058594882592  0.3750000000000000
  0.9481886203838090  0.5569938488096953  0.3750000000000000
  0.7753314943137731  0.0543324138235550  0.3750000000000000
  0.1113074294175029  0.7223203813754152  0.8750000000000000
  0.4443682397795353  0.7220650317657104  0.8750000000000000
  0.2776740700737739  0.2222965738004917  0.8750000000000000
  0.7776991014960900  0.7223376310181975  0.8750000000000000
  0.6113304931652914  0.2223123289343134  0.8750000000000000
  0.9443306965281002  0.2220192882369629  0.8750000000000000
  0.2792654737973184  0.7224168140000867  0.3750000000000000
  0.1034645891721654  0.2183989612527472  0.3750000000000000
  0.4459503701382244  0.2272969064374886  0.3750000000000000
  0.6112028391599991  0.7197679196293971  0.3750000000000000
  0.9481886203838090  0.7245281049074496  0.3750000000000000
  0.7763543808847245  0.2219124082966824  0.3750000000000000
  0.1110107190847903  0.8889753949358403  0.8750000000000000
  0.4446563531370003  0.8889948432351648  0.8750000000000000
  0.2776740700737739  0.3887108296066116  0.8750000000000000
  0.6110477802548953  0.3889861555519649  0.8750000000000000
  0.7776883322730618  0.8887071438995737  0.8750000000000000
  0.9446335917355839  0.3889834241235659  0.8750000000000000
  0.1076133740782565  0.3872538700945233  0.3750000000000000
  0.2792654737973184  0.8901819931305600  0.3750000000000000
  0.6100428855190592  0.8874733253889054  0.3750000000000000
  0.9448933533782861  0.8895926858865791  0.3750000000000000
  0.7822985186745400  0.3899735980552016  0.3750000000000000
  0.2779654803238668  0.5556700091526744  0.8750000000000000
  0.1109926449182364  0.0553408939475107  0.8750000000000000
  0.6110477802548953  0.5553949580362587  0.8750000000000000
  0.4443682397795353  0.0556365413471604  0.8750000000000000
  0.9443536402679277  0.5556555516060414  0.8750000000000000
  0.1126470889780445  0.5557909000684597  0.3750000000000000
  0.7779743493626295  0.0556538413479825  0.8750000000000000
  0.2776017892477483  0.0567536011329325  0.3750000000000000
  0.4459503701382244  0.5519867970340708  0.3750000000000000
  0.7846022312109682  0.5589677822721517  0.3750000000000000
  0.6100428855190592  0.0559028934634811  0.3750000000000000
  0.4443706908071835  0.5556849268060194  0.8750000000000000
  0.9407414166900696  0.0535020834861755  0.3750000000000000
  0.2776881239909439  0.7223329625968655  0.8750000000000000
  0.1112628618657296  0.2222980975995288  0.8750000000000000
  0.4443706908071835  0.2220190973344991  0.8750000000000000
  0.6113304931652914  0.7223514975643065  0.8750000000000000
  0.9443536402679277  0.7220314219952221  0.8750000000000000
  0.7776883322730618  0.2223145217068171  0.8750000000000000
  0.1138264217470239  0.7235798775401757  0.3750000000000000
  0.4447097255950803  0.7199371994401569  0.3750000000000000
  0.2664131619696948  0.2170054688817684  0.3750000000000000
  0.7822985186745400  0.7256582539526688  0.3750000000000000
  0.6112028391599991  0.2247682528639311  0.3750000000000000
  0.9407414166900696  0.2205726665372296  0.3750000000000000
  0.1109926449182364  0.3889850843040547  0.8750000000000000
  0.2776881239909439  0.8886884947274061  0.8750000000000000
  0.6110290404197102  0.8890045172293169  0.8750000000000000
  0.4446554915543051  0.3889944124438173  0.8750000000000000
  0.9446335917355839  0.8889835009453475  0.8750000000000000
  0.1126470889780445  0.8901895222429127  0.3750000000000000
  0.7776991014960900  0.3886948038112202  0.8750000000000000
  0.4446819939604209  0.8890076636468748  0.3750000000000000
  0.2664131619696948  0.3827410264212545  0.3750000000000000
  0.2776017892477483  0.5541815214481516  0.3750000000000000
  0.6219116582233257  0.3952996066735436  0.3750000000000000
  0.7763543808847245  0.8877753059213707  0.3750000000000000
  0.9448933533782861  0.3886340008250354  0.3750000000000000
  0.1110107190847903  0.5553686574822786  0.8750000000000000
  0.2779654803238668  0.0556288045045286  0.8750000000000000
  0.7779972800225274  0.5556653066779315  0.8750000000000000
  0.6110290404197102  0.0553578565237208  0.8750000000000000
  0.9443306965281002  0.0556447416244734  0.8750000000000000
  0.0554368967323243  0.1110113267172422  0.1250311822960408
  0.5556760557907862  0.6112015049566137  0.1252630016037919
  0.3888647164138880  0.1110123551047216  0.1250578411576501
  0.8889798450521608  0.6111565891927527  0.1250350846151110
  0.7222167096968671  0.1111067270089297  0.1251158128744690
  0.0555514864883001  0.7777501271099765  0.6248826736626382
  0.3888541677903625  0.7777959421029882  0.6249022865291307
  0.2220710944859527  0.2777022139096440  0.6250580602061058
  0.7222913066516203  0.7778222130880992  0.6249641555944837
  0.5556760557907862  0.2778078841675072  0.6247369983962082
  0.8888654199913922  0.2777874753953632  0.6249168628318584
  0.2221813692666340  0.7777573512999849  0.1250481324381497
  0.0554368967323243  0.2777589033484176  0.1250311822960408
  0.3889145732419869  0.2777706717566261  0.1249718560009348
  0.5555746677242417  0.7778191968101323  0.1251017929100060
  0.8889409582353752  0.7777889577535791  0.1250677352370671
  0.7222913066516203  0.2778024268968563  0.1250358444055167
  0.0554987902481422  0.9443559478798628  0.6249718732984816
  0.3888541677903625  0.9443915590207097  0.6249022865291307
  0.2221089702699560  0.4444881617504007  0.6249277827278702
  0.5556689377299593  0.4445011355316439  0.6245538675720987
  0.7222167096968671  0.9444433160212740  0.6248841871255306
  0.8889409582353752  0.4444853338151320  0.6249322647629334
  0.0554987902481422  0.4444761757016072  0.1250281267015178
  0.2221612481543994  0.9443380234860582  0.1250952524500335
  0.5555384522114293  0.9444358927723792  0.1250508497895227
  0.3889145732419869  0.4444772348186965  0.1249718560009348
  0.8888654199913922  0.9444112779293653  0.1250831371681416
  0.7223831017191702  0.4445176611183129  0.1251879422048202
  0.2221612481543994  0.6111565580016769  0.6249047475499662
  0.0554368967323243  0.1110113267172422  0.6249688177039584
  0.5556760557907862  0.6112015049566137  0.6247369983962082
  0.3888647164138880  0.1110123551047216  0.6249421588423507
  0.8889798450521608  0.6111565891927527  0.6249649153848881
  0.0555514864883001  0.6111346927116584  0.1251173263373614
  0.7222167096968671  0.1111067270089297  0.6248841871255306
  0.2221089702699560  0.1109541418528913  0.1250722172721297
  0.3888647164138880  0.6111856946425090  0.1250578411576501
  0.7223831017191702  0.6111987739341925  0.1251879422048202
  0.5555746677242417  0.1110888042474448  0.1251017929100060
  0.3888647164138880  0.6111856946425090  0.6249421588423507
  0.8888299964554484  0.1110816648943953  0.1250307367494792
  0.2221813692666340  0.7777573512999849  0.6249518675618496
  0.0554368967323243  0.2777589033484176  0.6249688177039584
  0.3889145732419869  0.2777706717566261  0.6250281439990650
  0.5555746677242417  0.7778191968101323  0.6248982070899941
  0.8889409582353752  0.7777889577535791  0.6249322647629334
  0.7222913066516203  0.2778024268968563  0.6249641555944837
  0.0555514864883001  0.7777501271099765  0.1251173263373614
  0.3888541677903625  0.7777959421029882  0.1250977134708687
  0.2220710944859527  0.2777022139096440  0.1249419397938939
  0.7222913066516203  0.7778222130880992  0.1250358444055167
  0.5556760557907862  0.2778078841675072  0.1252630016037919
  0.8888654199913922  0.2777874753953632  0.1250831371681416
  0.0554987902481422  0.4444761757016072  0.6249718732984816
  0.2221612481543994  0.9443380234860582  0.6249047475499662
  0.5555384522114293  0.9444358927723792  0.6249491502104777
  0.3889145732419869  0.4444772348186965  0.6250281439990650
  0.8888654199913922  0.9444112779293653  0.6249168628318584
  0.0554987902481422  0.9443559478798628  0.1250281267015178
  0.7223831017191702  0.4445176611183129  0.6248120577951798
  0.3888541677903625  0.9443915590207097  0.1250977134708687
  0.2221089702699560  0.4444881617504007  0.1250722172721297
  0.2221612481543994  0.6111565580016769  0.1250952524500335
  0.5556689377299593  0.4445011355316439  0.1254461324279019
  0.7222167096968671  0.9444433160212740  0.1251158128744690
  0.8889409582353752  0.4444853338151320  0.1250677352370671
  0.0555514864883001  0.6111346927116584  0.6248826736626382
  0.2221089702699560  0.1109541418528913  0.6249277827278702
  0.7223831017191702  0.6111987739341925  0.6248120577951798
  0.5555746677242417  0.1110888042474448  0.6248982070899941
  0.8888299964554484  0.1110816648943953  0.6249692632505214
 
  0.00000000E+00  0.00000000E+00  0.00000000E+00
  0.00000000E+00  0.00000000E+00  0.00000000E+00
  0.00000000E+00  0.00000000E+00  0.00000000E+00
  0.00000000E+00  0.00000000E+00  0.00000000E+00
  0.00000000E+00  0.00000000E+00  0.00000000E+00
  0.00000000E+00  0.00000000E+00  0.00000000E+00
  0.00000000E+00  0.00000000E+00  0.00000000E+00
  0.00000000E+00  0.00000000E+00  0.00000000E+00
  0.00000000E+00  0.00000000E+00  0.00000000E+00
  0.00000000E+00  0.00000000E+00  0.00000000E+00
  0.00000000E+00  0.00000000E+00  0.00000000E+00
  0.00000000E+00  0.00000000E+00  0.00000000E+00
  0.00000000E+00  0.00000000E+00  0.00000000E+00
  0.00000000E+00  0.00000000E+00  0.00000000E+00
  0.00000000E+00  0.00000000E+00  0.00000000E+00
  0.00000000E+00  0.00000000E+00  0.00000000E+00
  0.00000000E+00  0.00000000E+00  0.00000000E+00
  0.00000000E+00  0.00000000E+00  0.00000000E+00
  0.00000000E+00  0.00000000E+00  0.00000000E+00
  0.00000000E+00  0.00000000E+00  0.00000000E+00
  0.00000000E+00  0.00000000E+00  0.00000000E+00
  0.00000000E+00  0.00000000E+00  0.00000000E+00
  0.00000000E+00  0.00000000E+00  0.00000000E+00
  0.00000000E+00  0.00000000E+00  0.00000000E+00
  0.00000000E+00  0.00000000E+00  0.00000000E+00
  0.00000000E+00  0.00000000E+00  0.00000000E+00
  0.00000000E+00  0.00000000E+00  0.00000000E+00
  0.00000000E+00  0.00000000E+00  0.00000000E+00
  0.00000000E+00  0.00000000E+00  0.00000000E+00
  0.00000000E+00  0.00000000E+00  0.00000000E+00
  0.00000000E+00  0.00000000E+00  0.00000000E+00
  0.00000000E+00  0.00000000E+00  0.00000000E+00
  0.00000000E+00  0.00000000E+00  0.00000000E+00
  0.00000000E+00  0.00000000E+00  0.00000000E+00
  0.00000000E+00  0.00000000E+00  0.00000000E+00
  0.00000000E+00  0.00000000E+00  0.00000000E+00
  0.00000000E+00  0.00000000E+00  0.00000000E+00
  0.00000000E+00  0.00000000E+00  0.00000000E+00
  0.00000000E+00  0.00000000E+00  0.00000000E+00
  0.00000000E+00  0.00000000E+00  0.00000000E+00
  0.00000000E+00  0.00000000E+00  0.00000000E+00
  0.00000000E+00  0.00000000E+00  0.00000000E+00
  0.00000000E+00  0.00000000E+00  0.00000000E+00
  0.00000000E+00  0.00000000E+00  0.00000000E+00
  0.00000000E+00  0.00000000E+00  0.00000000E+00
  0.00000000E+00  0.00000000E+00  0.00000000E+00
  0.00000000E+00  0.00000000E+00  0.00000000E+00
  0.00000000E+00  0.00000000E+00  0.00000000E+00
  0.00000000E+00  0.00000000E+00  0.00000000E+00
  0.00000000E+00  0.00000000E+00  0.00000000E+00
  0.00000000E+00  0.00000000E+00  0.00000000E+00
  0.00000000E+00  0.00000000E+00  0.00000000E+00
  0.00000000E+00  0.00000000E+00  0.00000000E+00
  0.00000000E+00  0.00000000E+00  0.00000000E+00
  0.00000000E+00  0.00000000E+00  0.00000000E+00
  0.00000000E+00  0.00000000E+00  0.00000000E+00
  0.00000000E+00  0.00000000E+00  0.00000000E+00
  0.00000000E+00  0.00000000E+00  0.00000000E+00
  0.00000000E+00  0.00000000E+00  0.00000000E+00
  0.00000000E+00  0.00000000E+00  0.00000000E+00
  0.00000000E+00  0.00000000E+00  0.00000000E+00
  0.00000000E+00  0.00000000E+00  0.00000000E+00
  0.00000000E+00  0.00000000E+00  0.00000000E+00
  0.00000000E+00  0.00000000E+00  0.00000000E+00
  0.00000000E+00  0.00000000E+00  0.00000000E+00
  0.00000000E+00  0.00000000E+00  0.00000000E+00
  0.00000000E+00  0.00000000E+00  0.00000000E+00
  0.00000000E+00  0.00000000E+00  0.00000000E+00
  0.00000000E+00  0.00000000E+00  0.00000000E+00
  0.00000000E+00  0.00000000E+00  0.00000000E+00
  0.00000000E+00  0.00000000E+00  0.00000000E+00
  0.00000000E+00  0.00000000E+00  0.00000000E+00
  0.00000000E+00  0.00000000E+00  0.00000000E+00
  0.00000000E+00  0.00000000E+00  0.00000000E+00
  0.00000000E+00  0.00000000E+00  0.00000000E+00
  0.00000000E+00  0.00000000E+00  0.00000000E+00
  0.00000000E+00  0.00000000E+00  0.00000000E+00
  0.00000000E+00  0.00000000E+00  0.00000000E+00
  0.00000000E+00  0.00000000E+00  0.00000000E+00
  0.00000000E+00  0.00000000E+00  0.00000000E+00
  0.00000000E+00  0.00000000E+00  0.00000000E+00
  0.00000000E+00  0.00000000E+00  0.00000000E+00
  0.00000000E+00  0.00000000E+00  0.00000000E+00
  0.00000000E+00  0.00000000E+00  0.00000000E+00
  0.00000000E+00  0.00000000E+00  0.00000000E+00
  0.00000000E+00  0.00000000E+00  0.00000000E+00
  0.00000000E+00  0.00000000E+00  0.00000000E+00
  0.00000000E+00  0.00000000E+00  0.00000000E+00
  0.00000000E+00  0.00000000E+00  0.00000000E+00
  0.00000000E+00  0.00000000E+00  0.00000000E+00
  0.00000000E+00  0.00000000E+00  0.00000000E+00
  0.00000000E+00  0.00000000E+00  0.00000000E+00
  0.00000000E+00  0.00000000E+00  0.00000000E+00
  0.00000000E+00  0.00000000E+00  0.00000000E+00
  0.00000000E+00  0.00000000E+00  0.00000000E+00
  0.00000000E+00  0.00000000E+00  0.00000000E+00
  0.00000000E+00  0.00000000E+00  0.00000000E+00
  0.00000000E+00  0.00000000E+00  0.00000000E+00
  0.00000000E+00  0.00000000E+00  0.00000000E+00
  0.00000000E+00  0.00000000E+00  0.00000000E+00
  0.00000000E+00  0.00000000E+00  0.00000000E+00
  0.00000000E+00  0.00000000E+00  0.00000000E+00
  0.00000000E+00  0.00000000E+00  0.00000000E+00
  0.00000000E+00  0.00000000E+00  0.00000000E+00
  0.00000000E+00  0.00000000E+00  0.00000000E+00
  0.00000000E+00  0.00000000E+00  0.00000000E+00
  0.00000000E+00  0.00000000E+00  0.00000000E+00
  0.00000000E+00  0.00000000E+00  0.00000000E+00
  0.00000000E+00  0.00000000E+00  0.00000000E+00
  0.00000000E+00  0.00000000E+00  0.00000000E+00
  0.00000000E+00  0.00000000E+00  0.00000000E+00
  0.00000000E+00  0.00000000E+00  0.00000000E+00
  0.00000000E+00  0.00000000E+00  0.00000000E+00
  0.00000000E+00  0.00000000E+00  0.00000000E+00
  0.00000000E+00  0.00000000E+00  0.00000000E+00
  0.00000000E+00  0.00000000E+00  0.00000000E+00
  0.00000000E+00  0.00000000E+00  0.00000000E+00
  0.00000000E+00  0.00000000E+00  0.00000000E+00
  0.00000000E+00  0.00000000E+00  0.00000000E+00
  0.00000000E+00  0.00000000E+00  0.00000000E+00
  0.00000000E+00  0.00000000E+00  0.00000000E+00
  0.00000000E+00  0.00000000E+00  0.00000000E+00
  0.00000000E+00  0.00000000E+00  0.00000000E+00
  0.00000000E+00  0.00000000E+00  0.00000000E+00
  0.00000000E+00  0.00000000E+00  0.00000000E+00
  0.00000000E+00  0.00000000E+00  0.00000000E+00
  0.00000000E+00  0.00000000E+00  0.00000000E+00
  0.00000000E+00  0.00000000E+00  0.00000000E+00
  0.00000000E+00  0.00000000E+00  0.00000000E+00
  0.00000000E+00  0.00000000E+00  0.00000000E+00
  0.00000000E+00  0.00000000E+00  0.00000000E+00
  0.00000000E+00  0.00000000E+00  0.00000000E+00
  0.00000000E+00  0.00000000E+00  0.00000000E+00
  0.00000000E+00  0.00000000E+00  0.00000000E+00
  0.00000000E+00  0.00000000E+00  0.00000000E+00
  0.00000000E+00  0.00000000E+00  0.00000000E+00
  0.00000000E+00  0.00000000E+00  0.00000000E+00
  0.00000000E+00  0.00000000E+00  0.00000000E+00
  0.00000000E+00  0.00000000E+00  0.00000000E+00
  0.00000000E+00  0.00000000E+00  0.00000000E+00
  0.00000000E+00  0.00000000E+00  0.00000000E+00
  0.00000000E+00  0.00000000E+00  0.00000000E+00
  0.00000000E+00  0.00000000E+00  0.00000000E+00
  0.00000000E+00  0.00000000E+00  0.00000000E+00
  0.00000000E+00  0.00000000E+00  0.00000000E+00
  0.00000000E+00  0.00000000E+00  0.00000000E+00
  0.00000000E+00  0.00000000E+00  0.00000000E+00
  0.00000000E+00  0.00000000E+00  0.00000000E+00
  0.00000000E+00  0.00000000E+00  0.00000000E+00
  0.00000000E+00  0.00000000E+00  0.00000000E+00
  0.00000000E+00  0.00000000E+00  0.00000000E+00
  0.00000000E+00  0.00000000E+00  0.00000000E+00
  0.00000000E+00  0.00000000E+00  0.00000000E+00
  0.00000000E+00  0.00000000E+00  0.00000000E+00
  0.00000000E+00  0.00000000E+00  0.00000000E+00
  0.00000000E+00  0.00000000E+00  0.00000000E+00
  0.00000000E+00  0.00000000E+00  0.00000000E+00
  0.00000000E+00  0.00000000E+00  0.00000000E+00
  0.00000000E+00  0.00000000E+00  0.00000000E+00
  0.00000000E+00  0.00000000E+00  0.00000000E+00
  0.00000000E+00  0.00000000E+00  0.00000000E+00
  0.00000000E+00  0.00000000E+00  0.00000000E+00
  0.00000000E+00  0.00000000E+00  0.00000000E+00
  0.00000000E+00  0.00000000E+00  0.00000000E+00
  0.00000000E+00  0.00000000E+00  0.00000000E+00
  0.00000000E+00  0.00000000E+00  0.00000000E+00
  0.00000000E+00  0.00000000E+00  0.00000000E+00
  0.00000000E+00  0.00000000E+00  0.00000000E+00
  0.00000000E+00  0.00000000E+00  0.00000000E+00
  0.00000000E+00  0.00000000E+00  0.00000000E+00
  0.00000000E+00  0.00000000E+00  0.00000000E+00
  0.00000000E+00  0.00000000E+00  0.00000000E+00
  0.00000000E+00  0.00000000E+00  0.00000000E+00
  0.00000000E+00  0.00000000E+00  0.00000000E+00
  0.00000000E+00  0.00000000E+00  0.00000000E+00
  0.00000000E+00  0.00000000E+00  0.00000000E+00
  0.00000000E+00  0.00000000E+00  0.00000000E+00
  0.00000000E+00  0.00000000E+00  0.00000000E+00
  0.00000000E+00  0.00000000E+00  0.00000000E+00
  0.00000000E+00  0.00000000E+00  0.00000000E+00
  0.00000000E+00  0.00000000E+00  0.00000000E+00
  0.00000000E+00  0.00000000E+00  0.00000000E+00
  0.00000000E+00  0.00000000E+00  0.00000000E+00
  0.00000000E+00  0.00000000E+00  0.00000000E+00
  0.00000000E+00  0.00000000E+00  0.00000000E+00
  0.00000000E+00  0.00000000E+00  0.00000000E+00
  0.00000000E+00  0.00000000E+00  0.00000000E+00
  0.00000000E+00  0.00000000E+00  0.00000000E+00
  0.00000000E+00  0.00000000E+00  0.00000000E+00
  0.00000000E+00  0.00000000E+00  0.00000000E+00
  0.00000000E+00  0.00000000E+00  0.00000000E+00
  0.00000000E+00  0.00000000E+00  0.00000000E+00
  0.00000000E+00  0.00000000E+00  0.00000000E+00
  0.00000000E+00  0.00000000E+00  0.00000000E+00
  0.00000000E+00  0.00000000E+00  0.00000000E+00
  0.00000000E+00  0.00000000E+00  0.00000000E+00
  0.00000000E+00  0.00000000E+00  0.00000000E+00
  0.00000000E+00  0.00000000E+00  0.00000000E+00
  0.00000000E+00  0.00000000E+00  0.00000000E+00
  0.00000000E+00  0.00000000E+00  0.00000000E+00
  0.00000000E+00  0.00000000E+00  0.00000000E+00
  0.00000000E+00  0.00000000E+00  0.00000000E+00
  0.00000000E+00  0.00000000E+00  0.00000000E+00
  0.00000000E+00  0.00000000E+00  0.00000000E+00
  0.00000000E+00  0.00000000E+00  0.00000000E+00
  0.00000000E+00  0.00000000E+00  0.00000000E+00
  0.00000000E+00  0.00000000E+00  0.00000000E+00
  0.00000000E+00  0.00000000E+00  0.00000000E+00
  0.00000000E+00  0.00000000E+00  0.00000000E+00
  0.00000000E+00  0.00000000E+00  0.00000000E+00
  0.00000000E+00  0.00000000E+00  0.00000000E+00
  0.00000000E+00  0.00000000E+00  0.00000000E+00
  0.00000000E+00  0.00000000E+00  0.00000000E+00
  0.00000000E+00  0.00000000E+00  0.00000000E+00
  0.00000000E+00  0.00000000E+00  0.00000000E+00
  0.00000000E+00  0.00000000E+00  0.00000000E+00
  0.00000000E+00  0.00000000E+00  0.00000000E+00
  0.00000000E+00  0.00000000E+00  0.00000000E+00
  0.00000000E+00  0.00000000E+00  0.00000000E+00
  0.00000000E+00  0.00000000E+00  0.00000000E+00
  0.00000000E+00  0.00000000E+00  0.00000000E+00
  0.00000000E+00  0.00000000E+00  0.00000000E+00
  0.00000000E+00  0.00000000E+00  0.00000000E+00
  0.00000000E+00  0.00000000E+00  0.00000000E+00
  0.00000000E+00  0.00000000E+00  0.00000000E+00
  0.00000000E+00  0.00000000E+00  0.00000000E+00
  0.00000000E+00  0.00000000E+00  0.00000000E+00
  0.00000000E+00  0.00000000E+00  0.00000000E+00
  0.00000000E+00  0.00000000E+00  0.00000000E+00
  0.00000000E+00  0.00000000E+00  0.00000000E+00
  0.00000000E+00  0.00000000E+00  0.00000000E+00
  0.00000000E+00  0.00000000E+00  0.00000000E+00
  0.00000000E+00  0.00000000E+00  0.00000000E+00
  0.00000000E+00  0.00000000E+00  0.00000000E+00
  0.00000000E+00  0.00000000E+00  0.00000000E+00
  0.00000000E+00  0.00000000E+00  0.00000000E+00
  0.00000000E+00  0.00000000E+00  0.00000000E+00
  0.00000000E+00  0.00000000E+00  0.00000000E+00
  0.00000000E+00  0.00000000E+00  0.00000000E+00
  0.00000000E+00  0.00000000E+00  0.00000000E+00
  0.00000000E+00  0.00000000E+00  0.00000000E+00
  0.00000000E+00  0.00000000E+00  0.00000000E+00
  0.00000000E+00  0.00000000E+00  0.00000000E+00
  0.00000000E+00  0.00000000E+00  0.00000000E+00
  0.00000000E+00  0.00000000E+00  0.00000000E+00
  0.00000000E+00  0.00000000E+00  0.00000000E+00
  0.00000000E+00  0.00000000E+00  0.00000000E+00