 N B 
 1.0
 14.936314146199660   0.000000000000000   0.000000000000000
 -7.468157073099825  12.935227489513863   0.000000000000000
  0.000000000000001   0.000000000000001  13.341276283792837
 N B 
 145 143
Cartesian
  3.734078536549917   5.030366245922021   5.002978606422314 
  1.244653829858607   0.718675357118346   1.667958735214280 
  4.978512232516229   7.186364981900865   1.668479381565975 
  6.223503243241224   0.718675357118346   1.667958735214280 
  9.957509861319769   7.186202029183093   1.667738757697358 
 11.202235609649751   0.718623749417456   1.667556696630878 
 -3.734078536549858   9.342108742426664   8.338352376881479 
  1.244757046925657   9.342116727127260   8.337998477630347 
  2.489145708648303   2.874655683900498   8.337477831278653 
  6.223400026174169   9.342116727127260   8.337998477630347 
  7.468460987507084   2.874319532604934   8.338476684227416 
 12.446819959201028   2.874466264002989   8.338226931192544 
 -1.244645680526562   9.342097980250129   1.667738757697358 
 -0.000303914407131   2.874319532604933   1.667480528617199 
  4.979011364451528   2.874655683900497   1.668479381565975 
  3.734078536549978   9.342459672556274   1.667480528617199 
  8.712802753626400   9.342097980250129   1.667738757697358 
  9.957651260098448   2.874466264002988   1.667730281652097 
 -4.978785644243212  11.498026217846769   8.338218455147270 
  0.000001129686013  11.497980642903457   8.338145113132029 
  1.244712012682053   5.030078071964780   8.337477831278653 
  6.223445060417887   5.030078071964780   8.337477831278653 
  4.978800745963905  11.498088317774506   8.338226931192544 
 11.202235609649748   5.030364941472990   8.338145113132029 
 -1.244667659765594   5.030306653520534   1.667958735214280 
 -2.489371428856489  11.498026217846769   1.667738757697358 
  2.489356327136042  11.498088317774506   1.667730281652097 
  3.734078536549917   5.030366245922020   1.667374994518093 
  7.468155943413842  11.497980642903457   1.667812099712598 
  8.712824732865535   5.030306653520534   1.667958735214280 
  0.000128648873697   7.186163218712535   8.338151169862458 
  1.244653829858608   0.718675357118346   8.337998477630347 
  4.978512232516230   7.186364981900866   8.337477831278653 
  6.223503243241225   0.718675357118346   8.337998477630347 
  9.957509861319769   7.186202029183094   8.338218455147270 
 -2.489352788219917   7.186202029183093   1.667738757697358 
 11.202235609649751   0.718623749417456   8.338400516213749 
  3.734078536549923   0.718772300341163   1.667806042982170 
  2.489644840583622   7.186364981900865   1.668479381565975 
  7.468028424226139   7.186163218712534   1.667806042982170 
  8.712929050684524   0.718544155988645   1.667730281652097 
  2.489644840583622   7.186364981900866   8.337477831278653 
 13.691542168614966   0.718544155988645   1.667730281652097 
 -1.244645680526562   9.342097980250129   8.338218455147270 
 -0.000303914407130   2.874319532604934   8.338476684227416 
  4.979011364451529   2.874655683900498   8.337477831278653 
  3.734078536549978   9.342459672556274   8.338476684227416 
  8.712802753626400   9.342097980250129   8.338218455147270 
  9.957651260098448   2.874466264002989   8.338226931192544 
 -3.734078536549859   9.342108742426664   1.667604835963149 
  1.244757046925656   9.342116727127260   1.667958735214280 
  2.489145708648303   2.874655683900497   1.668479381565975 
  6.223400026174168   9.342116727127260   1.667958735214280 
  7.468460987507083   2.874319532604933   1.667480528617199 
 12.446819959201028   2.874466264002988   1.667730281652097 
 -1.244667659765594   5.030306653520535   8.337998477630347 
 -2.489371428856489  11.498026217846769   8.338218455147270 
  2.489356327136042  11.498088317774506   8.338226931192544 
  3.734078536549917   5.030366245922021   8.338582218326534 
  7.468155943413843  11.497980642903457   8.338145113132029 
 -4.978785644243213  11.498026217846769   1.667738757697358 
  8.712824732865535   5.030306653520535   8.337998477630347 
  0.000001129686012  11.497980642903457   1.667812099712598 
  1.244712012682053   5.030078071964779   1.668479381565975 
  0.000128648873696   7.186163218712534   1.667806042982170 
  6.223445060417886   5.030078071964779   1.668479381565975 
  4.978800745963904  11.498088317774506   1.667730281652097 
 11.202235609649748   5.030364941472989   1.667812099712598 
 -2.489352788219917   7.186202029183094   8.338218455147270 
  3.734078536549923   0.718772300341163   8.338151169862458 
  7.468028424226140   7.186163218712535   8.338151169862458 
  8.712929050684524   0.718544155988646   8.338226931192544 
 13.691542168614966   0.718544155988646   8.338226931192544 
  0.002825049859118   1.439383022453358   5.002978606422314 
  3.734078536549919   7.903359022033692   5.002978606422314 
  4.968808104727922   1.454587085847143   5.002978606422314 
  8.709102549484708   7.902697699014923   5.002978606422314 
  9.956406007157385   1.437903805780834   5.002978606422314 
 -4.978776012442315  10.060735165192837  11.673616748318732 
 -0.000001939584448  10.060747766458777  11.673616748318732 
  1.244696048960558   3.593120596596426  11.673616748318732 
  4.978785446807292  10.060736777579136  11.673616748318732 
  6.223461024139261   3.593120596596426  11.673616748318732 
 11.202235609649687   3.593141983292920  11.673616748318732 
 -2.488525214387793  10.061229288267029   5.002978606422314 
 -1.241430902883110   3.594497550222930   5.002978606422314 
  3.734078536549864   3.628661378388594   5.002978606422314 
  2.489822583807693  10.057218165089955   5.002978606422314 
  7.464578730845962  10.055965795861146   5.002978606422314 
  8.709587975982942   3.594497550222930   5.002978606422314 
 -6.223476485995259  12.216594423059712  11.673616748318732 
 -1.244680587104544  12.216594423059712  11.673616748318732 
  0.000006922678612   5.748981212810321  11.673616748318732 
  4.978758482059845   5.748982547517102  11.673616748318732 
  3.734078536549922  12.216592586747536  11.673616748318732 
  9.957556962129591   5.748984037761519  11.673616748318732 
 -2.483468440092949   5.748274408035726   5.002978606422314 
 -3.734078536549909  12.220930829250262   5.002978606422314 
  1.243743035316605  12.216055366921717   5.002978606422314 
  2.520166512657604   5.731218679688768   5.002978606422314 
  6.224414037783220  12.216055366921717   5.002978606422314 
  7.448158911586842   5.748948653113497   5.002978606422314 
 -1.244703251146217   7.904867251284871  11.673616748318732 
  0.000003320814989   1.437233175544627  11.673616748318732 
  3.734078536549919   7.904857544573395  11.673616748318732 
  4.978775526620548   1.437257885315021  11.673616748318732 
  8.712860324245948   7.904867251284871  11.673616748318732 
 -3.734078536549919   7.903867650746036   5.002978606422314 
  9.957533105049610   1.437253075509356  11.673616748318732 
  2.499348968371805   1.454587085847143   5.002978606422314 
  1.254727729691001   7.887562998805604   5.002978606422314 
  6.213429343408716   7.887562998805604   5.002978606422314 
  7.465332023240714   1.439383022453358   5.002978606422314 
  1.244703912749236   7.904859639640891  11.673616748318732 
 12.448065212142003   1.437903805780834   5.002978606422314 
 -2.489381060657506  10.060735165192837  11.673616748318732 
 -1.244703589442375   3.593128784642472  11.673616748318732 
  3.734078536549858   3.593133642731940  11.673616748318732 
  2.489371626292561  10.060736777579136  11.673616748318732 
  7.468159012684184  10.060747766458777  11.673616748318732 
  8.712860662542223   3.593128784642472  11.673616748318732 
 -4.979631858712028  10.061229288267029   5.002978606422314 
  0.003578342253757  10.055965795861146   5.002978606422314 
  1.245993807548084   3.593869857866276   5.002978606422314 
  4.978334489292147  10.057218165089955   5.002978606422314 
  6.222163265551734   3.593869857866276   5.002978606422314 
 11.202235609649685   3.594215493436568   5.002978606422314 
 -2.489399889029756   5.748984037761519  11.673616748318732 
 -3.734078536549909  12.216591724710371  11.673616748318732 
  1.244672722372240  12.216592121993544  11.673616748318732 
  2.489398591039993   5.748982547517102  11.673616748318732 
  6.223484350727603  12.216592121993544  11.673616748318732 
 -6.221125318896673  12.222086023383131   5.002978606422314 
  7.468150150421224   5.748981212810321  11.673616748318732 
 -1.247031754203146  12.222086023383131   5.002978606422314 
  0.019998161513009   5.748948653113497   5.002978606422314 
 -1.240945476384993   7.902697699014923   5.002978606422314 
  4.947990560442230   5.731218679688768   5.002978606422314 
  3.734078536549922  12.215291126204574   5.002978606422314 
  9.951625513192784   5.748274408035726   5.002978606422314 
 -3.734078536549911   7.904855896894441  11.673616748318732 
  2.489381546479196   1.437257885315021  11.673616748318732 
  6.223453160350497   7.904859639640891  11.673616748318732 
  7.468153752284858   1.437233175544627  11.673616748318732 
 12.446938114249761   1.437253075509356  11.673616748318732 
  1.251244067627750   0.728263392575439   5.002978606422314 
  4.962841390731213   7.169571902257266   5.002978606422314 
  6.216913005472080   0.728263392575439   5.002978606422314 
  9.955364839840296   7.185684272679742   5.002978606422314 
 11.202235609649751   0.718623749417456   5.002978606422314 
 -3.734078536549858   9.342108742426666  11.673616748318732 
  1.244696527187764   9.342075950135513  11.673616748318732 
  2.489432811234924   2.874559652826203  11.673616748318732 
  6.223460545912078   9.342075950135513  11.673616748318732 
  7.468100284309188   2.874527784693337  11.673616748318732 
 12.446944992560020   2.874523873800182  11.673616748318732 
 -1.243124779501934   9.340499215408920   5.002978606422314 
  0.002945025199287   2.876195308761288   5.002978606422314 
  4.972303551764904   2.896623570806808   5.002978606422314 
  3.734078536549970   9.338708120243576   5.002978606422314 
  8.711281852601786   9.340499215408920   5.002978606422314 
  9.955985127952287   2.876082627135127   5.002978606422314 
 -4.978771651085117  11.497992445240932  11.673616748318732 
 -0.000011723257811  11.497973222252897  11.673616748318732 
  1.244772398625479   5.030374725635419  11.673616748318732 
  6.223384674474462   5.030374725635419  11.673616748318732 
  4.978788120832299  11.497951230810706  11.673616748318732 
 11.202235609649748   5.030379782774133  11.673616748318732 
 -1.233069058602802   5.031219949117058   5.002978606422314 
 -2.489995549311339  11.500142739191343   5.002978606422314 
  2.488789581674957  11.495837223443786   5.002978606422314 
  7.468979532466653  11.497505143542121   5.002978606422314 
  8.701226131702741   5.031219949117058   5.002978606422314 
  0.000031393100230   7.186219369359526  11.673616748318732 
  1.244719403638298   0.718643333983775  11.673616748318732 
  4.978738949159410   7.186164359304521  11.673616748318732 
  6.223437669461534   0.718643333983775  11.673616748318732 
  9.957532112675313   7.186231033916428  11.673616748318732 
 -2.487207766740461   7.185684272679742   5.002978606422314 
 11.202235609649751   0.718623749417457  11.673616748318732 
  3.734078536549915   0.724624167016267   5.002978606422314 
  2.505315682368638   7.169571902257266   5.002978606422314 
  7.462960559025935   7.183237285374990   5.002978606422314 
  8.710696173077263   0.719178887187228   5.002978606422314 
  2.489418123940428   7.186164359304521  11.673616748318732 
 13.693775046222228   0.719178887187228   5.002978606422314 
 -1.244681925040224   9.342102748122647  11.673616748318732 
  0.000056788790749   2.874527784693337  11.673616748318732 
  4.978724261864926   2.874559652826203  11.673616748318732 
  3.734078536549972   9.342043168379483  11.673616748318732 
  8.712838998140063   9.342102748122647  11.673616748318732 
  9.957526226739473   2.874523873800182  11.673616748318732 
 -3.734078536549858   9.342108742426664   5.002978606422314 
  1.249765410319313   9.331615396073657   5.002978606422314 
  2.495853521334928   2.896623570806808   5.002978606422314 
  6.218391662780525   9.331615396073657   5.002978606422314 
  7.465212047900649   2.876195308761288   5.002978606422314 
 12.448486091347206   2.876082627135127   5.002978606422314 
 -1.244662605723804   5.030379453646868  11.673616748318732 
 -2.489385422014597  11.497992445240932  11.673616748318732 
  2.489368952267662  11.497951230810706  11.673616748318732 
  3.734078536549918   5.030366245922021  11.673616748318732 
  7.468168796357652  11.497973222252897  11.673616748318732 
 -4.978161523788376  11.500142739191343   5.002978606422314 
  8.712819678823744   5.030379453646868  11.673616748318732 
 -0.000822459366798  11.497505143542121   5.002978606422314 
  1.267090667153693   5.024903264702068   5.002978606422314 
  0.005196514073884   7.183237285374990   5.002978606422314 
  6.201066405946245   5.024903264702068   5.002978606422314 
  4.979367491425003  11.495837223443786   5.002978606422314 
 11.202235609649755   5.031315940195670   5.002978606422314 
 -2.489375039575492   7.186231033916428  11.673616748318732 
  3.734078536549923   0.718659999047181  11.673616748318732 
  7.468125679999607   7.186219369359526  11.673616748318732 
  8.712816642457152   0.718623633155257  11.673616748318732 
 13.691654576842337   0.718623633155257  11.673616748318732 
 -0.000099775690452   1.437270286117972   1.667607361193040 
  3.734078536549926   7.904881969069208   1.667726642309634 
  4.978773783965107   1.437592071507406   1.667867639658494 
  8.712714521403990   7.904783071974806   1.667631939205354 
  9.957566774492633   1.437233636447362   1.667577043650641 
 -4.978786418359141  10.060741173051715   8.338347648959179 
  0.000060398125585  10.060701350525386   8.338289369662631 
  1.244674896726713   3.593108384348513   8.338230570534993 
  4.978701759855306  10.060807506485213   8.338349851651587 
  6.223482176373120   3.593108384348513   8.338230570534993 
 11.202235609649694   3.593098914160286   8.338326513760627 
 -2.489370654740679  10.060741173051715   1.667609563885449 
 -1.244722998995829   3.593020945163044   1.667607361193040 
  3.734078536549871   3.593859800806662   1.669875890495818 
  2.489455313244548  10.060807506485213   1.667607361193040 
  7.468096674974150  10.060701350525386   1.667667843181996 
  8.712880072095679   3.593020945163044   1.667607361193040 
 -6.223467457472830  12.216671617066918   8.338289369662631 
 -1.244689615626990  12.216671617066918   8.338289369662631 
  0.000297207738509   5.748815628897996   8.338089573186133 
  4.978129610719955   5.748619468479740   8.336081322348809 
  3.734078536549921  12.216631464871520   8.338380169193988 
  9.957485595897127   5.748953259687698   8.338289369662631 
 -2.489328522797278   5.748953259687697   1.667667843181996 
 -3.734078536549917  12.216760083330481   1.667631939205354 
  1.244710021335224  12.216613656559852   1.667630699084001 
  2.490027462379880   5.748619468479739   1.669875890495818 
  6.223447051764633  12.216613656559852   1.667630699084001 
  7.467859865361326   5.748815628897995   1.667867639658494 
 -1.244557448304257   7.904783071974807   8.338325273639272 
 -0.000099775690452   1.437270286117972   8.338349851651587 
  3.734078536549926   7.904881969069208   8.338230570534993 
  4.978773783965108   1.437592071507407   8.338089573186133 
  8.712714521403990   7.904783071974807   8.338325273639272 
 -3.734078536549911   7.904843881176676   1.667609563885449 
  9.957566774492633   1.437233636447363   8.338380169193988 
  2.489383289134604   1.437592071507406   1.667867639658494 
  1.244992455153709   7.904691037360829   1.667867639658494 
  6.223164617946023   7.904691037360829   1.667867639658494 
  7.468256848790299   1.437270286117972   1.667607361193040 
  1.244992455153710   7.904691037360830   8.338089573186133 
 12.446904444806739   1.437233636447362   1.667577043650641 
 -2.489370654740679  10.060741173051715   8.338347648959179 
 -1.244722998995829   3.593020945163045   8.338349851651587 
  3.734078536549871   3.593859800806662   8.336081322348809 
  2.489455313244548  10.060807506485213   8.338349851651587 
  7.468096674974151  10.060701350525386   8.338289369662631 
  8.712880072095679   3.593020945163045   8.338349851651587 
 -4.978786418359141  10.060741173051715   1.667609563885449 
  0.000060398125585  10.060701350525386   1.667667843181996 
  1.244674896726713   3.593108384348512   1.667726642309634 
  4.978701759855305  10.060807506485213   1.667607361193040 
  6.223482176373119   3.593108384348512   1.667726642309634 
 11.202235609649694   3.593098914160285   1.667630699084001 
 -2.489328522797277   5.748953259687698   8.338289369662631 
 -3.734078536549917  12.216760083330481   8.338325273639272 
  1.244710021335224  12.216613656559852   8.338326513760627 
  2.490027462379880   5.748619468479740   8.336081322348809 
  6.223447051764634  12.216613656559852   8.338326513760627 
 -6.223467457472831  12.216671617066918   1.667667843181996 
  7.467859865361326   5.748815628897996   8.338089573186133 
 -1.244689615626990  12.216671617066918   1.667667843181996 
  0.000297207738509   5.748815628897995   1.667867639658494 
 -1.244557448304258   7.904783071974806   1.667631939205354 
  4.978129610719954   5.748619468479739   1.669875890495818 
  3.734078536549920  12.216631464871520   1.667577043650641 
  9.957485595897127   5.748953259687697   1.667667843181996 
 -3.734078536549911   7.904843881176677   8.338347648959179 
  2.489383289134605   1.437592071507407   8.338089573186133 
  6.223164617946024   7.904691037360830   8.338089573186133 
  7.468256848790300   1.437270286117972   8.338349851651587 
 12.446904444806739   1.437233636447363   8.338380169193988 
Generated by cif2cell 2.0.0.  :  Failed to get author information, No journal information. Species order: N B 
 1.0
 14.936314146199660   0.000000000000000   0.000000000000000
 -7.468157073099825  12.935227489513863   0.000000000000000
  0.000000000000001   0.000000000000001  13.341276283792837
 N B 
 145 143
Cartesian
  3.734078536549917   5.030366245922021   5.002978606422314 
  1.244653829858607   0.718675357118346   1.667958735214280 
  4.978512232516229   7.186364981900865   1.668479381565975 
  6.223503243241224   0.718675357118346   1.667958735214280 
  9.957509861319769   7.186202029183093   1.667738757697358 
 11.202235609649751   0.718623749417456   1.667556696630878 
 -3.734078536549858   9.342108742426664   8.338352376881479 
  1.244757046925657   9.342116727127260   8.337998477630347 
  2.489145708648303   2.874655683900498   8.337477831278653 
  6.223400026174169   9.342116727127260   8.337998477630347 
  7.468460987507084   2.874319532604934   8.338476684227416 
 12.446819959201028   2.874466264002989   8.338226931192544 
 -1.244645680526562   9.342097980250129   1.667738757697358 
 -0.000303914407131   2.874319532604933   1.667480528617199 
  4.979011364451528   2.874655683900497   1.668479381565975 
  3.734078536549978   9.342459672556274   1.667480528617199 
  8.712802753626400   9.342097980250129   1.667738757697358 
  9.957651260098448   2.874466264002988   1.667730281652097 
 -4.978785644243212  11.498026217846769   8.338218455147270 
  0.000001129686013  11.497980642903457   8.338145113132029 
  1.244712012682053   5.030078071964780   8.337477831278653 
  6.223445060417887   5.030078071964780   8.337477831278653 
  4.978800745963905  11.498088317774506   8.338226931192544 
 11.202235609649748   5.030364941472990   8.338145113132029 
 -1.244667659765594   5.030306653520534   1.667958735214280 
 -2.489371428856489  11.498026217846769   1.667738757697358 
  2.489356327136042  11.498088317774506   1.667730281652097 
  3.734078536549917   5.030366245922020   1.667374994518093 
  7.468155943413842  11.497980642903457   1.667812099712598 
  8.712824732865535   5.030306653520534   1.667958735214280 
  0.000128648873697   7.186163218712535   8.338151169862458 
  1.244653829858608   0.718675357118346   8.337998477630347 
  4.978512232516230   7.186364981900866   8.337477831278653 
  6.223503243241225   0.718675357118346   8.337998477630347 
  9.957509861319769   7.186202029183094   8.338218455147270 
 -2.489352788219917   7.186202029183093   1.667738757697358 
 11.202235609649751   0.718623749417456   8.338400516213749 
  3.734078536549923   0.718772300341163   1.667806042982170 
  2.489644840583622   7.186364981900865   1.668479381565975 
  7.468028424226139   7.186163218712534   1.667806042982170 
  8.712929050684524   0.718544155988645   1.667730281652097 
  2.489644840583622   7.186364981900866   8.337477831278653 
 13.691542168614966   0.718544155988645   1.667730281652097 
 -1.244645680526562   9.342097980250129   8.338218455147270 
 -0.000303914407130   2.874319532604934   8.338476684227416 
  4.979011364451529   2.874655683900498   8.337477831278653 
  3.734078536549978   9.342459672556274   8.338476684227416 
  8.712802753626400   9.342097980250129   8.338218455147270 
  9.957651260098448   2.874466264002989   8.338226931192544 
 -3.734078536549859   9.342108742426664   1.667604835963149 
  1.244757046925656   9.342116727127260   1.667958735214280 
  2.489145708648303   2.874655683900497   1.668479381565975 
  6.223400026174168   9.342116727127260   1.667958735214280 
  7.468460987507083   2.874319532604933   1.667480528617199 
 12.446819959201028   2.874466264002988   1.667730281652097 
 -1.244667659765594   5.030306653520535   8.337998477630347 
 -2.489371428856489  11.498026217846769   8.338218455147270 
  2.489356327136042  11.498088317774506   8.338226931192544 
  3.734078536549917   5.030366245922021   8.338582218326534 
  7.468155943413843  11.497980642903457   8.338145113132029 
 -4.978785644243213  11.498026217846769   1.667738757697358 
  8.712824732865535   5.030306653520535   8.337998477630347 
  0.000001129686012  11.497980642903457   1.667812099712598 
  1.244712012682053   5.030078071964779   1.668479381565975 
  0.000128648873696   7.186163218712534   1.667806042982170 
  6.223445060417886   5.030078071964779   1.668479381565975 
  4.978800745963904  11.498088317774506   1.667730281652097 
 11.202235609649748   5.030364941472989   1.667812099712598 
 -2.489352788219917   7.186202029183094   8.338218455147270 
  3.734078536549923   0.718772300341163   8.338151169862458 
  7.468028424226140   7.186163218712535   8.338151169862458 
  8.712929050684524   0.718544155988646   8.338226931192544 
 13.691542168614966   0.718544155988646   8.338226931192544 
  0.002825049859118   1.439383022453358   5.002978606422314 
  3.734078536549919   7.903359022033692   5.002978606422314 
  4.968808104727922   1.454587085847143   5.002978606422314 
  8.709102549484708   7.902697699014923   5.002978606422314 
  9.956406007157385   1.437903805780834   5.002978606422314 
 -4.978776012442315  10.060735165192837  11.673616748318732 
 -0.000001939584448  10.060747766458777  11.673616748318732 
  1.244696048960558   3.593120596596426  11.673616748318732 
  4.978785446807292  10.060736777579136  11.673616748318732 
  6.223461024139261   3.593120596596426  11.673616748318732 
 11.202235609649687   3.593141983292920  11.673616748318732 
 -2.488525214387793  10.061229288267029   5.002978606422314 
 -1.241430902883110   3.594497550222930   5.002978606422314 
  3.734078536549864   3.628661378388594   5.002978606422314 
  2.489822583807693  10.057218165089955   5.002978606422314 
  7.464578730845962  10.055965795861146   5.002978606422314 
  8.709587975982942   3.594497550222930   5.002978606422314 
 -6.223476485995259  12.216594423059712  11.673616748318732 
 -1.244680587104544  12.216594423059712  11.673616748318732 
  0.000006922678612   5.748981212810321  11.673616748318732 
  4.978758482059845   5.748982547517102  11.673616748318732 
  3.734078536549922  12.216592586747536  11.673616748318732 
  9.957556962129591   5.748984037761519  11.673616748318732 
 -2.483468440092949   5.748274408035726   5.002978606422314 
 -3.734078536549909  12.220930829250262   5.002978606422314 
  1.243743035316605  12.216055366921717   5.002978606422314 
  2.520166512657604   5.731218679688768   5.002978606422314 
  6.224414037783220  12.216055366921717   5.002978606422314 
  7.448158911586842   5.748948653113497   5.002978606422314 
 -1.244703251146217   7.904867251284871  11.673616748318732 
  0.000003320814989   1.437233175544627  11.673616748318732 
  3.734078536549919   7.904857544573395  11.673616748318732 
  4.978775526620548   1.437257885315021  11.673616748318732 
  8.712860324245948   7.904867251284871  11.673616748318732 
 -3.734078536549919   7.903867650746036   5.002978606422314 
  9.957533105049610   1.437253075509356  11.673616748318732 
  2.499348968371805   1.454587085847143   5.002978606422314 
  1.254727729691001   7.887562998805604   5.002978606422314 
  6.213429343408716   7.887562998805604   5.002978606422314 
  7.465332023240714   1.439383022453358   5.002978606422314 
  1.244703912749236   7.904859639640891  11.673616748318732 
 12.448065212142003   1.437903805780834   5.002978606422314 
 -2.489381060657506  10.060735165192837  11.673616748318732 
 -1.244703589442375   3.593128784642472  11.673616748318732 
  3.734078536549858   3.593133642731940  11.673616748318732 
  2.489371626292561  10.060736777579136  11.673616748318732 
  7.468159012684184  10.060747766458777  11.673616748318732 
  8.712860662542223   3.593128784642472  11.673616748318732 
 -4.979631858712028  10.061229288267029   5.002978606422314 
  0.003578342253757  10.055965795861146   5.002978606422314 
  1.245993807548084   3.593869857866276   5.002978606422314 
  4.978334489292147  10.057218165089955   5.002978606422314 
  6.222163265551734   3.593869857866276   5.002978606422314 
 11.202235609649685   3.594215493436568   5.002978606422314 
 -2.489399889029756   5.748984037761519  11.673616748318732 
 -3.734078536549909  12.216591724710371  11.673616748318732 
  1.244672722372240  12.216592121993544  11.673616748318732 
  2.489398591039993   5.748982547517102  11.673616748318732 
  6.223484350727603  12.216592121993544  11.673616748318732 
 -6.221125318896673  12.222086023383131   5.002978606422314 
  7.468150150421224   5.748981212810321  11.673616748318732 
 -1.247031754203146  12.222086023383131   5.002978606422314 
  0.019998161513009   5.748948653113497   5.002978606422314 
 -1.240945476384993   7.902697699014923   5.002978606422314 
  4.947990560442230   5.731218679688768   5.002978606422314 
  3.734078536549922  12.215291126204574   5.002978606422314 
  9.951625513192784   5.748274408035726   5.002978606422314 
 -3.734078536549911   7.904855896894441  11.673616748318732 
  2.489381546479196   1.437257885315021  11.673616748318732 
  6.223453160350497   7.904859639640891  11.673616748318732 
  7.468153752284858   1.437233175544627  11.673616748318732 
 12.446938114249761   1.437253075509356  11.673616748318732 
  1.251244067627750   0.728263392575439   5.002978606422314 
  4.962841390731213   7.169571902257266   5.002978606422314 
  6.216913005472080   0.728263392575439   5.002978606422314 
  9.955364839840296   7.185684272679742   5.002978606422314 
 11.202235609649751   0.718623749417456   5.002978606422314 
 -3.734078536549858   9.342108742426666  11.673616748318732 
  1.244696527187764   9.342075950135513  11.673616748318732 
  2.489432811234924   2.874559652826203  11.673616748318732 
  6.223460545912078   9.342075950135513  11.673616748318732 
  7.468100284309188   2.874527784693337  11.673616748318732 
 12.446944992560020   2.874523873800182  11.673616748318732 
 -1.243124779501934   9.340499215408920   5.002978606422314 
  0.002945025199287   2.876195308761288   5.002978606422314 
  4.972303551764904   2.896623570806808   5.002978606422314 
  3.734078536549970   9.338708120243576   5.002978606422314 
  8.711281852601786   9.340499215408920   5.002978606422314 
  9.955985127952287   2.876082627135127   5.002978606422314 
 -4.978771651085117  11.497992445240932  11.673616748318732 
 -0.000011723257811  11.497973222252897  11.673616748318732 
  1.244772398625479   5.030374725635419  11.673616748318732 
  6.223384674474462   5.030374725635419  11.673616748318732 
  4.978788120832299  11.497951230810706  11.673616748318732 
 11.202235609649748   5.030379782774133  11.673616748318732 
 -1.233069058602802   5.031219949117058   5.002978606422314 
 -2.489995549311339  11.500142739191343   5.002978606422314 
  2.488789581674957  11.495837223443786   5.002978606422314 
  7.468979532466653  11.497505143542121   5.002978606422314 
  8.701226131702741   5.031219949117058   5.002978606422314 
  0.000031393100230   7.186219369359526  11.673616748318732 
  1.244719403638298   0.718643333983775  11.673616748318732 
  4.978738949159410   7.186164359304521  11.673616748318732 
  6.223437669461534   0.718643333983775  11.673616748318732 
  9.957532112675313   7.186231033916428  11.673616748318732 
 -2.487207766740461   7.185684272679742   5.002978606422314 
 11.202235609649751   0.718623749417457  11.673616748318732 
  3.734078536549915   0.724624167016267   5.002978606422314 
  2.505315682368638   7.169571902257266   5.002978606422314 
  7.462960559025935   7.183237285374990   5.002978606422314 
  8.710696173077263   0.719178887187228   5.002978606422314 
  2.489418123940428   7.186164359304521  11.673616748318732 
 13.693775046222228   0.719178887187228   5.002978606422314 
 -1.244681925040224   9.342102748122647  11.673616748318732 
  0.000056788790749   2.874527784693337  11.673616748318732 
  4.978724261864926   2.874559652826203  11.673616748318732 
  3.734078536549972   9.342043168379483  11.673616748318732 
  8.712838998140063   9.342102748122647  11.673616748318732 
  9.957526226739473   2.874523873800182  11.673616748318732 
 -3.734078536549858   9.342108742426664   5.002978606422314 
  1.249765410319313   9.331615396073657   5.002978606422314 
  2.495853521334928   2.896623570806808   5.002978606422314 