B N S                                   
   1.0000000000000000     
     8.7639499999999995  -15.1796066749929999    0.0000000000000000
     8.7639499999999995   15.1796066749929999    0.0000000000000000
     0.0000000000000000    0.0000000000000000   15.0000000000000000
   B    N    S 
    49    47     1
Selective dynamics
Direct
  0.9056981293795051  0.9526146310771726  0.1125677094927887   T   T   T
  0.9037969539840549  0.0939528072559975  0.1155673318149457   T   T   T
  0.9033028437504659  0.2365904219629011  0.1151476753947296   T   T   T
  0.9037042840827750  0.3798828679751832  0.1126437700057340   T   T   T
  0.9056397433793382  0.5237338824475365  0.1086160547857549   T   T   T
  0.9078904474909694  0.6677645152544045  0.1054079524943934   T   T   T
  0.9079792171287508  0.8112842066685069  0.1071355436413735   T   T   T
  0.0492395751934825  0.9534639820903266  0.1141263189268179   T   T   T
  0.0480834440007323  0.0957287157039746  0.1143040216764107   T   T   T
  0.0462650273592090  0.2371698240449144  0.1139620895443581   T   T   T
  0.0456054988871882  0.3797229375821948  0.1138647200629619   T   T   T
  0.0463391742895978  0.5232318742821418  0.1147838096734339   T   T   T
  0.0483716876676026  0.6669934177901349  0.1144842556128854   T   T   T
  0.0495145262510992  0.8104972971752168  0.1136278824215839   T   T   T
  0.1917299411326623  0.9531332187518403  0.1140632061747823   T   T   T
  0.1911103749513971  0.0960370543988951  0.1108835474809310   T   T   T
  0.1907196664421680  0.2394746879473488  0.1086119944578101   T   T   T
  0.1878467013963429  0.3800968302486848  0.1074601687172182   T   T   T
  0.1870379473010526  0.5229454562491960  0.1100147601253149   T   T   T
  0.1892801380123706  0.6664018211040764  0.1146305162501030   T   T   T
  0.1913391690572468  0.8098601181891658  0.1158953701509155   T   T   T
  0.3339958924022915  0.9522086671057319  0.1116256132702694   T   T   T
  0.3339094672528734  0.0956385190284283  0.1083806242806182   T   T   T
  0.3327118706684908  0.2385433581469716  0.1056642179453247   T   T   T
  0.3341321135394393  0.3858510510954079  0.1056783363553833   T   T   T
  0.3266385717922436  0.5227852023993744  0.1034733056037853   T   T   T
  0.3300322530598899  0.6656988233022368  0.1088036589706261   T   T   T
  0.3333964295147736  0.8088091353848895  0.1127569955059244   T   T   T
  0.4761349687997279  0.9498001934263233  0.1094825301410272   T   T   T
  0.4763141618254947  0.0941801061485327  0.1065983174957884   T   T   T
  0.4762160112203825  0.2378014043742952  0.1065517066397921   T   T   T
  0.4719163213662071  0.3759543248926596  0.1212104863556502   T   T   T
  0.4732089505092861  0.5571793304625348  0.1140963405403752   T   T   T
  0.4693674942100963  0.6545290061884553  0.1118884010147448   T   T   T
  0.4754195983470227  0.8040807685755224  0.1110125717775944   T   T   T
  0.6180093267304863  0.9492063142742625  0.1108562699920154   T   T   T
  0.6184284691442740  0.0933095588109072  0.1085698371348594   T   T   T
  0.6188107649683970  0.2372252942571398  0.1062006287514174   T   T   T
  0.6199299231217217  0.3812912030823135  0.1094406403544321   T   T   T
  0.6324386691160523  0.5313023636380685  0.1198001620755977   T   T   T
  0.6261227359195725  0.6674665818806678  0.1184512625938742   T   T   T
  0.6171620934408447  0.8048497108306403  0.1117427534212999   T   T   T
  0.7608242517217529  0.9501881691906610  0.1123478637756734   T   T   T
  0.7606716834496526  0.0931917374989407  0.1132458195950604   T   T   T
  0.7609636456475064  0.2366437647816159  0.1105761394590688   T   T   T
  0.7619967385390040  0.3803705085270424  0.1064018869154924   T   T   T
  0.7654873190185147  0.5247276179407127  0.1019954791805645   T   T   T
  0.7687463477012294  0.6698761903336610  0.0989842337391999   T   T   T
  0.7638954035619998  0.8097474951851120  0.1062458123761281   T   T   T
  0.9543253117956156  0.9059333585034397  0.1121145189152355   T   T   T
  0.9527265974079200  0.0476251878157691  0.1153004595115944   T   T   T
  0.9510384305757354  0.1891335826381495  0.1160737390721318   T   T   T
  0.9505547967084955  0.3318171942400077  0.1149260437794928   T   T   T
  0.9514793080684693  0.4752116726390807  0.1129067501151692   T   T   T
  0.9536313517137255  0.6190807914417114  0.1098505285477727   T   T   T
  0.9547550206786735  0.7629233152331097  0.1085776306659198   T   T   T
  0.0967175118862008  0.9057174993993329  0.1150096364419352   T   T   T
  0.0961865603284318  0.0485163552226860  0.1140335956042671   T   T   T
  0.0953142611876988  0.1909217131847077  0.1128103802259761   T   T   T
  0.0929499300245805  0.3319626811045187  0.1121695948025425   T   T   T
  0.0924500952356117  0.4748562787978103  0.1139261169595284   T   T   T
  0.0943695347198896  0.6185635825467072  0.1160675447956044   T   T   T
  0.0962406203866818  0.7623237469935665  0.1159197675416124   T   T   T
  0.2389675552446293  0.9052059954973315  0.1146866963220938   T   T   T
  0.2389535973369409  0.0484723762960226  0.1112650646506984   T   T   T
  0.2381030297562943  0.1912504662204742  0.1071744782183063   T   T   T
  0.2380272187119156  0.3348687625725340  0.1058782840172537   T   T   T
  0.2326933783221984  0.4743956694441882  0.1050607409013052   T   T   T
  0.2350314955976583  0.6180709754209983  0.1109839535506833   T   T   T
  0.2380696554497863  0.7617523290716485  0.1152475692522908   T   T   T
  0.3810980962494774  0.9040504521715274  0.1113632532275976   T   T   T
  0.3813303396485035  0.0476518444461422  0.1085027534406419   T   T   T
  0.3812027997245949  0.1913143084199868  0.1060153058822140   T   T   T
  0.3799198459397307  0.3343505438603214  0.1077075616682221   T   T   T
  0.3790458429529377  0.4810126518884146  0.1039738723374010   T   T   T
  0.3745631463627255  0.6171240207151366  0.1053859717540940   T   T   T
  0.3800473416193809  0.7605610074664620  0.1111167846504164   T   T   T
  0.5229626595156043  0.9007760866893025  0.1101566557830652   T   T   T
  0.5234089252162483  0.0457587778016473  0.1074768508450508   T   T   T
  0.5236792362010076  0.1900211260796251  0.1050782684070327   T   T   T
  0.5239678079712660  0.3340451871796959  0.1118563635133457   T   T   T
  0.5216905854882751  0.7535373550165070  0.1122197266316722   T   T   T
  0.6652806447068119  0.9011853913701587  0.1115862191828322   T   T   T
  0.6655398421756749  0.0451463873887427  0.1108441186948839   T   T   T
  0.6658272371182596  0.1890812044476952  0.1079139447127607   T   T   T
  0.6664290138942772  0.3330142727178313  0.1061117307810288   T   T   T
  0.6701215857449085  0.4770083863089591  0.1080280192961074   T   T   T
  0.6748074847734908  0.6225539436377845  0.1045780528725269   T   T   T
  0.6684710600002234  0.7607254943867832  0.1097299225413269   T   T   T
  0.8104354280581328  0.9045062830740589  0.1102861595310007   T   T   T
  0.8084071075634932  0.0457097858985391  0.1145946092754663   T   T   T
  0.8081183354295483  0.1887134567267684  0.1137150050137611   T   T   T
  0.8085312673849095  0.3321131057129690  0.1098343140919292   T   T   T
  0.8107084400004292  0.4757611941659844  0.1038855915521864   T   T   T
  0.8134275896172589  0.6199500901504079  0.0991999837172365   T   T   T
  0.8135117389532694  0.7640154865709877  0.1016137778445402   T   T   T
  0.5237787359491820  0.4897072286476460  0.1663056483702839   T   T   T

  0.00000000E+00  0.00000000E+00  0.00000000E+00
  0.00000000E+00  0.00000000E+00  0.00000000E+00
  0.00000000E+00  0.00000000E+00  0.00000000E+00
  0.00000000E+00  0.00000000E+00  0.00000000E+00
  0.00000000E+00  0.00000000E+00  0.00000000E+00
  0.00000000E+00  0.00000000E+00  0.00000000E+00
  0.00000000E+00  0.00000000E+00  0.00000000E+00
  0.00000000E+00  0.00000000E+00  0.00000000E+00
  0.00000000E+00  0.00000000E+00  0.00000000E+00
  0.00000000E+00  0.00000000E+00  0.00000000E+00
  0.00000000E+00  0.00000000E+00  0.00000000E+00
  0.00000000E+00  0.00000000E+00  0.00000000E+00
  0.00000000E+00  0.00000000E+00  0.00000000E+00
  0.00000000E+00  0.00000000E+00  0.00000000E+00
  0.00000000E+00  0.00000000E+00  0.00000000E+00
  0.00000000E+00  0.00000000E+00  0.00000000E+00
  0.00000000E+00  0.00000000E+00  0.00000000E+00
  0.00000000E+00  0.00000000E+00  0.00000000E+00
  0.00000000E+00  0.00000000E+00  0.00000000E+00
  0.00000000E+00  0.00000000E+00  0.00000000E+00
  0.00000000E+00  0.00000000E+00  0.00000000E+00
  0.00000000E+00  0.00000000E+00  0.00000000E+00
  0.00000000E+00  0.00000000E+00  0.00000000E+00
  0.00000000E+00  0.00000000E+00  0.00000000E+00
  0.00000000E+00  0.00000000E+00  0.00000000E+00
  0.00000000E+00  0.00000000E+00  0.00000000E+00
  0.00000000E+00  0.00000000E+00  0.00000000E+00
  0.00000000E+00  0.00000000E+00  0.00000000E+00
  0.00000000E+00  0.00000000E+00  0.00000000E+00
  0.00000000E+00  0.00000000E+00  0.00000000E+00
  0.00000000E+00  0.00000000E+00  0.00000000E+00
  0.00000000E+00  0.00000000E+00  0.00000000E+00
  0.00000000E+00  0.00000000E+00  0.00000000E+00
  0.00000000E+00  0.00000000E+00  0.00000000E+00
  0.00000000E+00  0.00000000E+00  0.00000000E+00
  0.00000000E+00  0.00000000E+00  0.00000000E+00
  0.00000000E+00  0.00000000E+00  0.00000000E+00
  0.00000000E+00  0.00000000E+00  0.00000000E+00
  0.00000000E+00  0.00000000E+00  0.00000000E+00
  0.00000000E+00  0.00000000E+00  0.00000000E+00
  0.00000000E+00  0.00000000E+00  0.00000000E+00
  0.00000000E+00  0.00000000E+00  0.00000000E+00
  0.00000000E+00  0.00000000E+00  0.00000000E+00
  0.00000000E+00  0.00000000E+00  0.00000000E+00
  0.00000000E+00  0.00000000E+00  0.00000000E+00
  0.00000000E+00  0.00000000E+00  0.00000000E+00
  0.00000000E+00  0.00000000E+00  0.00000000E+00
  0.00000000E+00  0.00000000E+00  0.00000000E+00
  0.00000000E+00  0.00000000E+00  0.00000000E+00
  0.00000000E+00  0.00000000E+00  0.00000000E+00
  0.00000000E+00  0.00000000E+00  0.00000000E+00
  0.00000000E+00  0.00000000E+00  0.00000000E+00
  0.00000000E+00  0.00000000E+00  0.00000000E+00
  0.00000000E+00  0.00000000E+00  0.00000000E+00
  0.00000000E+00  0.00000000E+00  0.00000000E+00
  0.00000000E+00  0.00000000E+00  0.00000000E+00
  0.00000000E+00  0.00000000E+00  0.00000000E+00
  0.00000000E+00  0.00000000E+00  0.00000000E+00
  0.00000000E+00  0.00000000E+00  0.00000000E+00
  0.00000000E+00  0.00000000E+00  0.00000000E+00
  0.00000000E+00  0.00000000E+00  0.00000000E+00
  0.00000000E+00  0.00000000E+00  0.00000000E+00
  0.00000000E+00  0.00000000E+00  0.00000000E+00
  0.00000000E+00  0.00000000E+00  0.00000000E+00
  0.00000000E+00  0.00000000E+00  0.00000000E+00
  0.00000000E+00  0.00000000E+00  0.00000000E+00
  0.00000000E+00  0.00000000E+00  0.00000000E+00
  0.00000000E+00  0.00000000E+00  0.00000000E+00
  0.00000000E+00  0.00000000E+00  0.00000000E+00
  0.00000000E+00  0.00000000E+00  0.00000000E+00
  0.00000000E+00  0.00000000E+00  0.00000000E+00
  0.00000000E+00  0.00000000E+00  0.00000000E+00
  0.00000000E+00  0.00000000E+00  0.00000000E+00
  0.00000000E+00  0.00000000E+00  0.00000000E+00
  0.00000000E+00  0.00000000E+00  0.00000000E+00
  0.00000000E+00  0.00000000E+00  0.00000000E+00
  0.00000000E+00  0.00000000E+00  0.00000000E+00
  0.00000000E+00  0.00000000E+00  0.00000000E+00
  0.00000000E+00  0.00000000E+00  0.00000000E+00
  0.00000000E+00  0.00000000E+00  0.00000000E+00
  0.00000000E+00  0.00000000E+00  0.00000000E+00
  0.00000000E+00  0.00000000E+00  0.00000000E+00
  0.00000000E+00  0.00000000E+00  0.00000000E+00
  0.00000000E+00  0.00000000E+00  0.00000000E+00
  0.00000000E+00  0.00000000E+00  0.00000000E+00
  0.00000000E+00  0.00000000E+00  0.00000000E+00
  0.00000000E+00  0.00000000E+00  0.00000000E+00
  0.00000000E+00  0.00000000E+00  0.00000000E+00
  0.00000000E+00  0.00000000E+00  0.00000000E+00
  0.00000000E+00  0.00000000E+00  0.00000000E+00
  0.00000000E+00  0.00000000E+00  0.00000000E+00
  0.00000000E+00  0.00000000E+00  0.00000000E+00
  0.00000000E+00  0.00000000E+00  0.00000000E+00
  0.00000000E+00  0.00000000E+00  0.00000000E+00
  0.00000000E+00  0.00000000E+00  0.00000000E+00
  0.00000000E+00  0.00000000E+00  0.00000000E+00
  0.00000000E+00  0.00000000E+00  0.00000000E+00
