 S B N 
 1.0
 17.527899999999772   0.000000000000000   0.000000000000000
 -8.763949999999658  15.179606674993195   0.000000000000000
  0.000000000000001   0.000000000000002  15.000000000000000
 S B N 
   1  48  49
Cartesian
  3.755980213596274   7.951242049921758   1.669543317871965 
  7.520309110801401  14.464036988140922   1.665012531583275 
 15.024027345640732   1.445632004984248   1.665080227921845 
 13.768823678599023   3.612404815957961   1.665466373689035 
 12.519945213587352   5.782829484026252   1.665080227921845 
 11.278390528335223   7.954849033991651   1.665012531583275 
 10.027755219916228  10.126208973123360   1.665611274047040 
  8.775444324639757  12.295275070614352   1.665611274047040 
 -7.507977681095103  14.454491172552498   1.665094152185250 
 -0.002101203946384   1.434840127617523   1.665012531583275 
 -1.261651853174381   3.603636290963594   1.665062842210425 
 -2.517972852677535   5.779648092718845   1.665062842210425 
 -3.766430101160115   7.954849033991651   1.665012531583275 
 -5.007984786403453  10.124376460385221   1.665094152185250 
 -6.255958076530701  12.290601886833660   1.664816485712505 
 -5.007984786403485  14.452155031822977   1.664816485712505 
  2.503669318311030   1.432242106012354   1.665611274047040 
  1.236820113820923   3.580213887733750   1.665107377628355 
 -0.030185908558908   5.765298020088694   1.664974482825765 
 -1.289021265403350   7.955099488410189   1.665107377628355 
 -2.515794792741040  10.126208973123360   1.665611274047040 
 -3.760011496276264  12.290601886833660   1.664816485712505 
 -2.507991891694269  14.454491172552498   1.665094152185250 
  5.008291108881462   1.432242106012354   1.665611274047040 
  3.755980213604981   3.586169317066839   1.665123294018000 
  2.466381056235501   5.698568171120730   1.666344942308385 
  1.160307829441392   7.960753358333633   1.666344942308385 
 -0.024283662409619  10.133778416341606   1.665123294018000 
 -1.263483897447071  12.295275070614368   1.665611274047040 
 -0.008348683608675  14.464036988140922   1.665012531583275 
  7.514061631138875   1.434840127617523   1.665012531583275 
  6.275140313371528   3.580213887733750   1.665107377628355 
  5.045579370974560   5.698568171120730   1.666344942308385 
  2.449906986810956  10.194404620295687   1.666344942308385 
  1.230138834380728  12.318412773606246   1.665107377628355 
  2.499659214093237  14.470441766052538   1.665062842210425 
 10.015863081533981   1.445632004984248   1.665080227921845 
  8.773612280366921   3.603636290963594   1.665062842210425 
  7.542146335751495   5.765298020088694   1.664974482825765 
  6.351652597751313   7.960753358333633   1.666344942308385 
  5.062053440381818  10.194404620295687   1.666344942308385 
  3.755980213596392  12.323130109557590   1.664974482825765 
  5.012301213099628  14.470441766052538   1.665062842210425 
 12.519945213587347   1.449283862078932   1.665466373689035 
 11.271066748575612   3.612404815957961   1.665466373689035 
 10.029933279870159   5.779648092718845   1.665062842210425 
  8.800981692578477   7.955099488410189   1.665107377628355 
  7.536244089602373  10.133778416341606   1.665123294018000 
  6.281821592811950  12.318412773606246   1.665107377628355 
  8.767464510303412  13.736094606676934   1.664990627635800 
 16.275707982789864   0.722967585255868   1.664626013498340 
 15.019603496757311   2.888550444032170   1.665011185033980 
 13.765992206520487   5.059868891664398   1.665011185033980 
 12.519954786406217   7.228122942081780   1.664626013498340 
 11.271566633387351   9.398862502154310   1.664990627635800 
 10.020409640926980  11.567994745440609   1.665130155539655 
 -6.258643562497704  13.733181515941448   1.664568098004555 
  1.251887663322173   0.718733659517500   1.664990627635800 
 -0.009797056831994   2.878070597897450   1.664860235512965 
 -1.267066482553272   5.051167367067672   1.664853463563150 
 -2.520388776675876   7.226543013728934   1.664860235512965 
 -3.759587060574651   9.398862502154310   1.664990627635800 
 -5.007975213584780  11.566960392205909   1.664568098004555 
 -3.757306864671686  13.733181515941448   1.664568098004555 
  3.755989786406236   0.717701277467604   1.665130155539655 
  2.501235781461601   2.881030069181747   1.665260400787530 
  1.221599382492488   5.027243263668528   1.664578510685475 
 -0.043452431336730   7.218377279427974   1.664578510685475 
 -1.262309380223776   9.399681505801071   1.665260400787530 
 -2.508430068114199  11.567994745440609   1.665130155539655 
 -1.255484937490601  13.736094606676934   1.664990627635800 
  6.260091909490161   0.718733659517500   1.664990627635800 
  5.010743791350921   2.881030069181747   1.665260400787530 
  3.755989786406284   5.046544742963466   1.664622943219965 
  2.355109976273183   7.142431920623380   1.670168480539140 
  1.240458342011445   9.403573012692600   1.664622943219965 
 -0.007555375279154  11.572979193365892   1.665260400787530 
  1.245398066553641  13.749077156707150   1.664860235512965 
  8.764201590004706   0.722967585255868   1.664626013498340 
  7.521776629644393   2.878070597897450   1.664860235512965 
  6.290380190320095   5.027243263668528   1.664578510685475 
  5.156869596539448   7.142431920623380   1.670168480539140 
  3.755989786397563   9.568826927086652   1.670168480539140 
  2.490937972568313  11.608070225237014   1.664578510685475 
  3.755989786397588  13.751356034198162   1.664853463563150 
 11.264958816920869   0.727994550579510   1.665011185033980 
 10.017561290236786   2.888550444032170   1.665011185033980 
  8.779046055365734   5.051167367067672   1.664853463563150 
  7.555432004149364   7.218377279427974   1.664578510685475 
  6.271521230783690   9.403573012692600   1.664622943219965 
  5.021041600226800  11.608070225237014   1.664578510685475 
  6.266581506259080  13.749077156707150   1.664860235512965 
 13.772205970073077   0.727994550579510   1.665011185033980 
 12.519954786406029   2.891352704197829   1.665244605376770 
 11.271197153152171   5.059868891664398   1.665011185033980 
 10.032368349505948   7.226543013728934   1.664860235512965 
  8.774288953036493   9.399681505801071   1.665260400787530 
  7.519534948091796  11.572979193365892   1.665260400787530 
