 N B S 
 1.0
 17.527899999999772   0.000000000000000   0.000000000000000
 -8.763949999999658  15.179606674993195   0.000000000000000
  0.000000000000001   0.000000000000002  15.000000000000000
 N B S 
  49  47   1
Cartesian
  8.782310982315682  13.708656441240334   1.660300005385920 
 16.343444109884274   0.743324753662715   1.661571031774605 
 15.106346388456217   2.905447503677365   1.662007083949860 
 13.856707285241523   5.059868891664398   1.660452057091035 
 12.585653861998596   7.220720837123374   1.659931556320245 
 11.304330809284313   9.383937813449830   1.661129064580680 
 10.016280459759649  11.541835429269554   1.660765771539765 
 -6.245420002638950  13.744012080842721   1.659707925015945 
  1.307457436903149   0.752031623722407   1.660811923706880 
  0.087193246824034   2.932965904844010   1.663267029730590 
 -1.175380169114806   5.082298790308529   1.663146692330250 
 -2.468615901221544   7.241089309168445   1.660930968944040 
 -3.745271847416119   9.409321821909369   1.660841937818670 
 -5.007656258950792  11.576658487033791   1.660877246174175 
 -3.750929826293981  13.760446934646239   1.660300915629525 
  3.790808349142910   0.758717832102891   1.660192216137600 
  2.600244369485842   2.979052970211149   1.661957804289465 
  1.351343664136662   5.132715614946933   1.662894595777275 
  0.005010092025075   7.260459686962218   1.662509409087510 
 -1.276368671728201   9.427072720188100   1.661435006393610 
 -2.514792113463945  11.594929358880854   1.661869528447065 
 -1.250941319972443  13.766928095388899   1.661299457284770 
  6.286363017786244   0.748613240909145   1.660729033382190 
  5.069594500616633   2.935195025184377   1.661822321841825 
  3.932701872488927   5.243570848900947   1.662445216800555 
  2.467351248985511   7.331564293332609   1.657740316436700 
  1.168649444399644   9.452973091740740   1.659967453796235 
 -0.026067367641508  11.612452937465948   1.662450268158780 
  1.258934107167586  13.768413288999358   1.661453541252225 
  8.804786426671228   0.731024271164281   1.660111003077645 
  7.590344262341695   2.872688467029263   1.660795083887970 
  6.401237479672499   5.019502940044966   1.662511590505575 
  3.650608765310183   8.008785207733668   1.648313094581685 
  3.524213423679804   9.339915682332848   1.657841671978005 
  2.472920478098018  11.615271340883659   1.662046301565765 
  3.758204311878178  13.810463606001257   1.660790614424190 
 11.316465189798890   0.746314414883476   1.659960198347685 
 10.106365118961520   2.867858274653133   1.659293751482340 
  8.914329831873461   4.982454276089160   1.660460279598675 
  7.683054050442815   7.074328670658043   1.662828632945985 
  6.414856212180728   8.966047498229207   1.663724149136505 
  4.956471848219145  11.784598481109677   1.657118351394345 
  6.303473749410983  13.762273767865473   1.660458314705205 
 13.834813640432424   0.742856914232556   1.660543891183845 
 12.604885044728567   2.890364808086682   1.659694052933805 
 11.375725018655285   5.035175770180574   1.659131977692660 
 10.120474427028292   7.181648201045143   1.660617512300730 
  8.827367899419631   9.320933798793273   1.662057151557645 
  7.473714851466742  11.458851606044240   1.660845063930135 
  7.558218207310055  14.473781091345007   1.660927453544865 
 15.092490162728044   1.461853360262120   1.661724647418150 
 13.854190616715291   3.618028041271365   1.660821799534455 
 12.607869731427417   5.775303172479687   1.659832351661700 
 11.337949991916487   7.934362094735827   1.660811000960895 
 10.050106031110447  10.090999063153122   1.661598831396120 
  8.745115016237959  12.234475094275057   1.660724421529770 
 -7.490625447288632  14.465930577465500   1.660258134310665 
  0.066656576758837   1.480888648778739   1.662342529129575 
 -1.171731255303899   3.637943499590169   1.663497848567985 
 -2.433006410747364   5.795444692438888   1.661933089818210 
 -3.715681871898366   7.961657759417987   1.660508170065615 
 -4.992295690334588  10.128082994053418   1.661364379497345 
 -6.261634777887843  12.291936400374931   1.660500759443445 
 -4.995916992733783  14.485280131380389   1.660013608734615 
  2.561382370009224   1.508748316829679   1.661076454350960 
  1.340454582398341   3.680294430051553   1.663254799951335 
  0.069461863374282   5.818232797411813   1.663181476739385 
 -1.243544932527882   7.980174555390119   1.661964672225060 
 -2.516150585124705  10.149136122318380   1.661718840600240 
 -3.762571586087669  12.313976290436303   1.661152764436725 
 -2.498427731437814  14.486721680348053   1.660909767055320 
  5.042242802816649   1.484446713403951   1.661199557634225 
  3.865725452538528   3.743110473967575   1.662466509945390 
  2.613534762630060   5.883951504588561   1.661474365944060 
  1.210479002495943   8.016753192633217   1.660733842292985 
 -0.057124419335389  10.173450199642952   1.661544661739520 
 -1.270295897085235  12.328192056898040   1.662520299380370 
  0.010285128031839  14.477953024338577   1.661025761875050 
  7.556200165535116   1.444101986591427   1.660804718771520 
  6.345639267233600   3.598424788583873   1.661898732759105 
  5.295687786235968   5.941278657040549   1.663615237453815 
  2.385828221591096  10.178832556657708   1.660850948296260 
  1.227692672526956  12.331942756167974   1.662569273336355 
  2.512210158043484  14.501371748407612   1.661053408463190 
 10.068079699596080   1.442334384845805   1.659852740981205 
  8.861888178496425   3.562552185683704   1.660255463268465 
  7.685971232227763   5.666586329784430   1.662280960828440 
  6.328294683462963   7.527602801514856   1.664281547025270 
  3.700918271836766  12.389430956450232   1.660584045332730 
  5.044797338964674  14.484973081329725   1.660533393712305 
 12.582213314762187   1.453811878932611   1.660177632947955 
 11.356428006282501   3.597080407381413   1.659456818305230 
 10.133949845940130   5.740654100325846   1.660157297342565 
  8.865166707266379   7.869924053825682   1.661950521553215 
  7.544292729568221   9.944102945844389   1.662610753876095 
  6.274061048339792  12.319104326172381   1.659854234554050 
  5.054061366686230  10.040902766570193   1.659401358219690 
