 B Ga N 
 1.0
 17.527899999999772   0.000000000000000   0.000000000000000
 -8.763949999999658  15.179606674993195   0.000000000000000
  0.000000000000001   0.000000000000002  15.000000000000000
 B Ga N 
  48   1  48
Cartesian
  7.555796981137460  14.493234660901651   1.660580134552170 
 15.045804492823718   1.473845821412747   1.662150710509170 
 13.779508401153915   3.639934273384864   1.662531883666560 
 12.513538968691254   5.803260616311441   1.660953406103325 
 11.249209933269519   7.964086994489567   1.660768995531270 
 10.049982133274039  10.134442009945788   1.662092871407145 
  8.823600205113278  12.330129988088714   1.660796820831105 
 -7.470930693217453  14.441403554832418   1.660513438643175 
  0.021795451083727   1.422089201473188   1.662236085868245 
 -1.238843861824900   3.612975109170983   1.661873373756360 
 -2.498312178510507   5.793722019675631   1.661326794091755 
 -3.756695123806753   7.957334339029308   1.660465899196080 
 -4.980952468521166  10.115677360389412   1.661414036240895 
 -6.218498514353998  12.277954836868153   1.660836470067570 
 -4.966062831941707  14.411738345234314   1.660543821957060 
  2.529797569961387   1.363620789161486   1.661352592651770 
  1.254398005131532   3.513543734100718   1.660862091011955 
  0.013641831410683   5.765425819909066   1.659651318551325 
 -1.252274157855733   7.959425402798730   1.661131371164745 
 -2.475519242964792  10.119737783328796   1.660770275076570 
 -3.715731961868615  12.266824854981435   1.660562265995535 
 -2.457027767995272  14.418927531339914   1.661325482388735 
  5.059271887131226   1.356821825512599   1.662260665394880 
  3.792564390072203   3.414467312248944   1.661813083001505 
  2.533845046379000   5.447856147742042   1.651579258503645 
  1.161928132842017   8.059682830831060   1.667273348320080 
  0.027580368892023  10.160147442072381   1.661332300567860 
 -1.210537145404428  12.285974217892841   1.660792003415745 
  0.045844269815948  14.450300281740319   1.661342059536135 
  7.551484665639167   1.417624448443715   1.662104888308920 
  6.290307233741079   3.546516787510260   1.662149388419130 
  4.996517061699929   5.582706131929625   1.660183257622725 
  2.629982960428182  10.133176289315175   1.662683784797070 
  1.315279443654717  12.296847821542741   1.661253430088340 
  2.536767737134932  14.496525645261768   1.660808321293080 
 10.036414792236686   1.470039179959804   1.660933462241280 
  8.766606597552448   3.637338678972740   1.661559612738825 
  7.472838060474393   5.826449513887593   1.661599332011610 
  6.172234895335236   8.161907975655758   1.661891531105475 
  5.134440994955042  10.301625636328149   1.659736986413430 
  3.810359199910269  12.363205616790212   1.660437824930820 
  5.043090302945222  14.512782445647495   1.660500226939380 
 12.537184671765985   1.484436710832294   1.661465270547165 
 11.269589630919405   3.645827974837451   1.661161454690100 
  9.993650353411651   5.813088347714434   1.660623302021880 
  8.706735230467235   7.987340859766058   1.661231477650965 
  7.599173898337733  10.222179511495863   1.660182041382285 
  6.332584047846124  12.385258051076560   1.659233559703335 
  3.069218865405253   7.348751084094371   1.663804204484025 
  8.804422336720524  13.761092885002311   1.660214464622985 
 16.297518530490226   0.745689145708890   1.661681443497075 
 15.037793705922848   2.917848289114789   1.662386206268280 
 13.777769254985323   5.083679407052961   1.661626083601215 
 12.511977572884113   7.243538041535404   1.660116283803465 
 11.289752096629018   9.403077738524852   1.661571050910975 
 10.056376148290328  11.576643200561897   1.661396580616980 
 -6.221233845031675  13.715665866853925   1.660106896122660 
  1.273699311557422   0.694589354247012   1.660890405533400 
  0.003238127325590   2.860563657767396   1.662200286377895 
 -1.230634374865189   5.067762295572458   1.660646819978490 
 -2.492922306656252   7.236808045816232   1.660286499260370 
 -3.726391925369693   9.395845574423950   1.660630250321475 
 -4.968722350821043  11.554100240531548   1.660743134008305 
 -3.710122931256200  13.704037452268780   1.660363033113180 
  3.793323927152798   0.668160798554422   1.660965836330550 
  2.512724997231067   2.796134197562755   1.661522235074820 
  1.244655075225077   4.966814682582767   1.656395523413280 
  0.022169400012475   7.229345238358663   1.662076897658100 
 -1.207612974404880   9.400592806595505   1.660812333956400 
 -2.457958868110005  11.554093839010713   1.660357974254565 
 -1.202017164001979  13.719274713602408   1.660934849922525 
  6.311378445217738   0.675629970709471   1.661870354170590 
  5.058669696223470   2.789465053776793   1.662612890498595 
  3.786642201276932   4.839269503888555   1.657968226234140 
  1.308929482218988   9.450108914029993   1.662782737334400 
  0.051242352507649  11.581038078858544   1.660843726230390 
  1.302649887725241  13.739398067701165   1.660849462167735 
  8.803005739688221   0.716594158155953   1.661304194717820 
  7.540066842674157   2.867783480804384   1.661870992233645 
  6.260396951342806   5.009316754391075   1.661488189940730 
  4.703208682793310   7.994390590146090   1.663592641518405 
  3.965804774281627   9.517038414016669   1.661780277358395 
  2.584948175737035  11.580608481554155   1.661322848593305 
  3.790709346941413  13.794644012835841   1.660330536037635 
 11.289545850963632   0.758742867771089   1.660474882548330 
 10.019936179821020   2.920456996239727   1.660784313035835 
  8.730083348322010   5.097511179166434   1.660961769673095 
  7.389079202169530   7.288008548282544   1.661492355586395 
  6.352965204153710   9.566395638080165   1.659276806121345 
  5.078581891189569  11.704326655322498   1.658815226751120 
  6.303723124014867  13.807928080821746   1.659737696050875 
 13.793274932733548   0.770211402709723   1.661222032716375 
 12.527175883213124   2.927777487110301   1.661603603436825 
 11.254415691584317   5.090837965365813   1.660502362049625 
  9.971903157846082   7.255676453607335   1.660415681272620 
  8.792157437670770   9.430405515644228   1.661197648568415 
  7.574576396901642  11.649058434573073   1.659519194234325 
