 C N B 
 1.0
 17.527899999999772   0.000000000000000   0.000000000000000
 -8.763949999999658  15.179606674993195   0.000000000000000
  0.000000000000001   0.000000000000002  15.000000000000000
 C N B 
   3  47  47
Cartesian
  3.688057684838608   7.949685591186340   1.663433193230640 
  4.932782327743171   7.262159439283160   1.662097865634510 
  3.744914308546057   9.361087628410706   1.662222045454185 
  8.770915721401861  13.737936520788782   1.665262280337810 
 16.271532898311399   0.717564623740228   1.665312236207475 
 15.020093993635589   2.891164783477636   1.665846367302240 
 13.768270539399609   5.059868891664398   1.665468141426675 
 12.523024745604330   7.230216148185902   1.664812231976355 
 11.279673270289425   9.398102315936303   1.665455594411580 
 10.028943114362136  11.573770455053458   1.665690820053450 
 -6.254295345363913  13.731688946804939   1.665111078605670 
  1.247384745573013   0.708814764495465   1.665312989611050 
 -0.015310772828008   2.870129396010327   1.665189319436685 
 -1.262996381295497   5.063265182795731   1.665146912619105 
 -2.501952100179400   7.232403653815845   1.665269007418425 
 -3.759404757485800   9.400588488584750   1.665415478876490 
 -5.004443607630193  11.566806364549617   1.665239287095660 
 -3.756021896787057  13.731962828383319   1.665068153688015 
  3.759977890710497   0.707761745460979   1.665712712734740 
  2.498305103755945   2.846398060203969   1.665505702230045 
  1.114603946248763   4.963107437685378   1.663700824139325 
  0.012626172589488   7.251546615538470   1.665407412383850 
 -1.270194751718577   9.406727059331295   1.665686950406805 
 -2.510442597991275  11.571044954677674   1.665409407485955 
 -1.255861981441751  13.738880910854260   1.665320050289280 
  6.264918345806086   0.714538137898856   1.665504122841795 
  5.018318445836117   2.863649603071588   1.665743761997970 
  3.871935776749842   4.937496382015702   1.664376036083355 
  2.527607811709868   7.265333432372914   1.664897661080745 
  1.208432089688027   9.426328303809393   1.665286982160975 
 -0.015696598751724  11.581837753616734   1.665552190656405 
  1.244324649936550  13.745416502652652   1.665341615149695 
  8.762910118460624   0.725166062358737   1.664882679856710 
  7.517418572876788   2.885575366454642   1.665373854701010 
  6.272984574405701   5.043084766424675   1.665201630331500 
  2.484498509686738  11.584853881730012   1.664883774551415 
  3.759329772458938  13.728125398352667   1.665072502586790 
 11.267471345606955   0.723642723239734   1.665380397826350 
 10.015222256451146   2.892601769389518   1.665374907812280 
  8.759913168535908   5.066860888861732   1.665086216131050 
  7.515913835397326   7.246959415684763   1.665356065153290 
  6.323427355273741   9.438537052066785   1.665237343554150 
  5.027636138726304  11.571629297650846   1.665067091835690 
  6.266694068004636  13.740788417163770   1.665142380412230 
 13.770363221942798   0.720814645017557   1.665417834686085 
 12.516711407107044   2.892061374062853   1.665776720536380 
 11.266898702729959   5.059868891664398   1.665476921070915 
 10.022434556328815   7.232245331288348   1.665484560851955 
  8.793581165419974   9.406723225962500   1.665737287339095 
  7.534866902334201  11.585638208522903   1.665344833529235 
  7.516853879716832  14.460752531641340   1.665338787387135 
 15.021879940294754   1.439693305478278   1.665927368151345 
 13.761911431173386   3.619675161712768   1.666107421774125 
 12.520045178319370   5.785349147794363   1.665345806188575 
 11.276995509915764   7.954096551708057   1.665401880323310 
 10.042735383192156  10.125660839558162   1.666090823155815 
  8.783885528437111  12.301463707054564   1.665819075290835 
 -7.505985680808762  14.444759047050173   1.665473469190110 
 -0.011994085995796   1.432192071862381   1.665511157259780 
 -1.256030583146428   3.616990337464536   1.665518501318910 
 -2.512758257140656   5.786207511231529   1.665548674269360 
 -3.758783496648804   7.956211120384229   1.665353283779805 
 -5.001382266026769  10.119737783328796   1.665697625312760 
 -6.248345411156117  12.290684915307498   1.665552553430955 
 -5.004132019475335  14.446426978781449   1.665505682003490 
  2.506923992684118   1.414275699519738   1.665988556528880 
  1.252687257944081   3.566856306940531   1.665133732114140 
 -0.016005302473421   5.804181981247017   1.665041426036520 
 -1.257134256876066   7.964288594569958   1.665737911815480 
 -2.519354721483244  10.128186232126408   1.665834136071135 
 -3.757621599587464  12.288158822718891   1.665270461263905 
 -2.501885253454718  14.453130157020118   1.665580901402880 
  5.014877258820329   1.418323585789011   1.666160967543390 
  3.739311234059040   3.530713173422087   1.665657589020360 
  1.241742631629416   7.986045226738979   1.665498582979155 
 -0.044727276352694  10.146211263821577   1.665942255348510 
 -1.266944421292457  12.299967658808777   1.665756687456330 
 -0.007245947364881  14.464718986030157   1.665347303171490 
  7.516003234030649   1.439668952075535   1.665393955059375 
  6.271262111929584   3.595914018189938   1.665912816659940 
  5.005614545995370   5.725354648571721   1.664120594555520 
  2.425731315348720  10.163195986209544   1.664120638244130 
  1.229664483505084  12.311614697943828   1.665679013473590 
  2.499650335835090  14.457208801075874   1.665539654766315 
 10.012582363451795   1.447888271876629   1.665276855111810 
  8.765524699496147   3.613923711134690   1.665401510399970 
  7.518395035747174   5.783622063215118   1.665356378993055 
  6.313670216748319   8.014359011283355   1.664480429397030 
  5.086427604678365  10.151223422572762   1.664661019721805 
  3.754919519872027  12.294570069808611   1.665095539555545 
  5.009349616306270  14.459803391625286   1.665312218161005 
 12.519136996316288   1.448603709780316   1.665787992140085 
 11.266735850539407   3.613386967331462   1.665997299562725 
 10.017953636572312   5.787824678569436   1.665498004021155 
  8.789326095332090   7.962960971827727   1.666043161097415 
  7.569191302216102  10.154050193838623   1.665791649173025 
  6.283910486058122  12.302146735186543   1.665398994250080 
