Species order:X N B                     
   2.51242800000000     
     5.9449720136058266    0.0000000000000000    0.0000000000000000
    -2.9724860068029120    5.1484967885702053   -0.0000000000000001
     0.0000000000000000    0.0000000000000009    5.3101128803662583
   C    N    B 
     3   141   143
Direct
  0.3919266380054153  0.4473053448563537  0.3750000000000000
  0.4508050382161845  0.4016100764323687  0.3750000000000000
  0.5553787068509372  0.4473053448563537  0.3750000000000000
  0.1110506121662494  0.0555385501916622  0.1247835288767846
  0.6111337112891052  0.5556199401740084  0.1243418555285276
  0.4444879380254131  0.0555385501916622  0.1247835288767846
  0.9444313430724147  0.5555441881436680  0.1248614916164334
  0.7777753870331825  0.0555507740663658  0.1248615507486438
  0.1111140855574929  0.7222281711149781  0.6251323060656491
  0.4444852675115264  0.7222530730426697  0.6252334746031647
  0.2776289892516687  0.2221736586326713  0.6259106986259940
  0.7777678055311420  0.7222530730426697  0.6252334746031647
  0.6111500584791302  0.2221736447327742  0.6253058202367865
  0.9444108415444815  0.2221949303135761  0.6251303718174112
  0.2778053613973849  0.7222338875227016  0.1248688926662550
  0.1110235862536514  0.2221736447327742  0.1246941797632138
  0.4445446693810025  0.2221736586326713  0.1240893013740063
  0.6111337960126798  0.7222675920253544  0.1247167592049212
  0.9444285261253160  0.7222338875227016  0.1248688926662550
  0.7777840887690947  0.2221949303135761  0.1248696281825879
  0.1111083299422297  0.8889114052517585  0.6251343772185460
  0.4444853831711015  0.8889008611171890  0.6251190259676830
  0.2777114973255068  0.3888601061911967  0.6254591287596655
  0.6111486088656977  0.3888601061911967  0.6254591287596655
  0.7777736098960841  0.8889150468852277  0.6251437831750702
  0.9444338497687351  0.3888676995374697  0.6251473765606631
  0.1110844899281798  0.3888607554568648  0.1247708753651092
  0.2778030753095349  0.8889114052517585  0.1248656227814538
  0.6111414369891500  0.8889150468852277  0.1248562168249298
  0.4444271890292546  0.3888543780585089  0.1250203853677135
  0.9444154779460878  0.8889008611171890  0.1248809740323170
  0.7777762655286924  0.3888607554568648  0.1247708753651092
  0.2777956022341663  0.5555578559343207  0.6251805809503889
  0.1110506121662494  0.0555385501916622  0.6252164711232157
  0.6111337112891052  0.5556199401740084  0.6256581444714739
  0.4444879380254131  0.0555385501916622  0.6252164711232157
  0.9444313430724147  0.5555441881436680  0.6251385083835663
  0.1111128450712534  0.5555441881436680  0.1248614916164334
  0.7777753870331825  0.0555507740663658  0.6251384492513559
  0.2777916097633293  0.0555832195266589  0.1248190414132120
  0.4444862288849030  0.5556199401740084  0.1243418555285276
  0.7777622537001547  0.5555578559343207  0.1248194190496125
  0.6111435309508184  0.0555392313192123  0.1248633809520158
  0.4444862288849030  0.5556199401740084  0.6256581444714739
  0.9443957003683942  0.0555392313192123  0.1248633809520158
  0.2778053613973849  0.7222338875227016  0.6251311073337442
  0.1110235862536514  0.2221736447327742  0.6253058202367865
  0.4445446693810025  0.2221736586326713  0.6259106986259940
  0.6111337960126798  0.7222675920253544  0.6252832407950786
  0.9444285261253160  0.7222338875227016  0.6251311073337442
  0.7777840887690947  0.2221949303135761  0.6251303718174112
  0.1111140855574929  0.7222281711149781  0.1248676939343508
  0.4444852675115264  0.7222530730426697  0.1247665253968361
  0.2776289892516687  0.2221736586326713  0.1240893013740063
  0.7777678055311420  0.7222530730426697  0.1247665253968361
  0.6111500584791302  0.2221736447327742  0.1246941797632138
  0.9444108415444815  0.2221949303135761  0.1248696281825879
  0.1110844899281798  0.3888607554568648  0.6252291246348912
  0.2778030753095349  0.8889114052517585  0.6251343772185460
  0.6111414369891500  0.8889150468852277  0.6251437831750702
  0.4444271890292546  0.3888543780585089  0.6249796146322862
  0.9444154779460878  0.8889008611171890  0.6251190259676830
  0.1111083299422297  0.8889114052517585  0.1248656227814538
  0.7777762655286924  0.3888607554568648  0.6252291246348912
  0.4444853831711015  0.8889008611171890  0.1248809740323170
  0.2777114973255068  0.3888601061911967  0.1245408712403340
  0.2777956022341663  0.5555578559343207  0.1248194190496125
  0.6111486088656977  0.3888601061911967  0.1245408712403340
  0.7777736098960841  0.8889150468852277  0.1248562168249298
  0.9444338497687351  0.3888676995374697  0.1248526234393366
  0.1111128450712534  0.5555441881436680  0.6251385083835663
  0.2777916097633293  0.0555832195266589  0.6251809585867882
  0.7777622537001547  0.5555578559343207  0.6251805809503889
  0.6111435309508184  0.0555392313192123  0.6251366190479840
  0.9443957003683942  0.0555392313192123  0.6251366190479840
  0.0579421505398087  0.1107313119409263  0.3750000000000000
  0.5594028952539646  0.6188057905079291  0.3750000000000000
  0.3840592650147445  0.1071660368986261  0.3750000000000000
  0.8876852092528139  0.6094650861092117  0.3750000000000000
  0.7216601031365630  0.1119832947496098  0.3750000000000000
  0.0555608097291858  0.7777793119664780  0.8750000000000000
  0.3888818407983598  0.7777814717044689  0.8750000000000000
  0.2222226540116554  0.2777917829188275  0.8750000000000000
  0.7222262852613009  0.7777773856753954  0.8750000000000000
  0.5555691289071725  0.2777917829188275  0.8750000000000000
  0.8888967188852162  0.2777934377704396  0.8750000000000000
  0.2207276519085211  0.7746967256460003  0.3750000000000000
  0.0590206562193531  0.2767989769397713  0.3750000000000000
  0.5566520220852400  0.7815931478361438  0.3750000000000000
  0.8903064045378906  0.7786891715531232  0.3750000000000000
  0.7177783207204178  0.2767989769397713  0.3750000000000000
  0.0555582198899357  0.9444426980353341  0.8750000000000000
  0.3888844781453977  0.9444426980353341  0.8750000000000000
  0.2222169313481608  0.4444627994950018  0.8750000000000000
  0.5555620613220634  0.4444515850573595  0.8750000000000000
  0.7222235146416361  0.9444470292832730  0.8750000000000000
  0.8889058317643875  0.4444623709967646  0.8750000000000000
  0.0551277928225986  0.4427631600887899  0.3750000000000000
  0.2193486444046867  0.9386972888093740  0.3750000000000000
  0.5552074647495441  0.9460750549423199  0.3750000000000000
  0.8908675901927749  0.9460750549423199  0.3750000000000000
  0.7206549783093286  0.4428841051397420  0.3750000000000000
  0.2222131380079586  0.6111224742327168  0.8750000000000000
  0.0555630331541000  0.1111145761540240  0.8750000000000000
  0.5555556367494457  0.6111112734988936  0.8750000000000000
  0.3888824063067965  0.1111024912425016  0.8750000000000000
  0.8889093362247520  0.6111224742327168  0.8750000000000000
  0.0543461130041874  0.6086922260083742  0.3750000000000000
  0.7222214556029628  0.1111181212224336  0.8750000000000000
  0.2231067718838747  0.1071660368986261  0.3750000000000000
  0.3897205163855891  0.6147049949246236  0.3750000000000000
  0.7249844785390278  0.6147049949246236  0.3750000000000000
  0.5527891614011179  0.1107313119409263  0.3750000000000000
  0.3888793010114341  0.6111161643974727  0.8750000000000000
  0.8903231916130392  0.1119832947496098  0.3750000000000000
  0.2222185022372923  0.7777793119664780  0.8750000000000000
  0.0555606797231557  0.2777926421375539  0.8750000000000000
  0.3888923183895002  0.2777846367790076  0.8750000000000000
  0.5555511004140941  0.7777773856753954  0.8750000000000000
  0.8888996309061020  0.7777814717044689  0.8750000000000000
  0.7222319624143981  0.2777926421375539  0.8750000000000000
  0.0539690737374784  0.7746967256460003  0.3750000000000000
  0.3883827670152239  0.7786891715531232  0.3750000000000000
  0.2307408636424287  0.2743952881630438  0.3750000000000000
  0.7249411257509030  0.7815931478361438  0.3750000000000000
  0.5436544245206151  0.2743952881630438  0.3750000000000000
  0.8885616156506327  0.2771232313012736  0.3750000000000000
  0.0555565392323781  0.4444623709967646  0.8750000000000000
  0.2222176733769366  0.9444353467538732  0.8750000000000000
  0.5555496592191265  0.9444476262249576  0.8750000000000000
  0.3888895237352964  0.4444515850573595  0.8750000000000000
  0.8888979670058306  0.9444476262249576  0.8750000000000000
  0.0560874504795692  0.9431687724325348  0.3750000000000000
  0.7222458681468411  0.4444627994950018  0.8750000000000000
  0.3870813219529661  0.9431687724325348  0.3750000000000000
  0.2222291268304139  0.4428841051397420  0.3750000000000000
  0.2217798768563903  0.6094650861092117  0.3750000000000000
  0.7234226408705875  0.9468452817411774  0.3750000000000000
  0.8876353672661903  0.4427631600887899  0.3750000000000000
  0.0555605399704222  0.6111210799408445  0.8750000000000000
  0.2222200849356981  0.1111024912425016  0.8750000000000000
  0.7222368633860321  0.6111161643974727  0.8750000000000000
  0.5555515429999243  0.1111145761540240  0.8750000000000000
  0.8888966656194637  0.1111181212224336  0.8750000000000000
  0.1137528976938307  0.0551067905402406  0.3750000000000000
  0.6132240006900039  0.5614448317642263  0.3750000000000000
  0.4413538928464097  0.0551067905402406  0.3750000000000000
  0.9429659585306827  0.5536811816462178  0.3750000000000000
  0.7788189007963988  0.0576378015927979  0.3750000000000000
  0.1111165587395825  0.7222331174791577  0.8750000000000000
  0.4444144687060381  0.7221507133697861  0.8750000000000000
  0.2778717645099896  0.2222977745353835  0.8750000000000000
  0.7777362446637482  0.7221507133697861  0.8750000000000000
  0.6110515564446136  0.2222841764756574  0.8750000000000000
  0.9445037474996359  0.2222654204311244  0.8750000000000000
  0.2771687618819285  0.7204097305251972  0.3750000000000000
  0.1191830361904310  0.2221280337255420  0.3750000000000000
  0.4228883159203096  0.2200278614358989  0.3750000000000000
  0.6136671302534433  0.7273342605068797  0.3750000000000000
  0.9432409686432683  0.7204097305251972  0.3750000000000000
  0.7758301302367449  0.2229398059917239  0.3750000000000000
  0.1111472580020790  0.8889294088999539  0.8750000000000000
  0.4444170086529233  0.8888923444607757  0.8750000000000000
  0.2778581375269500  0.3888930826284406  0.8750000000000000
  0.6110349451014980  0.3888930826284406  0.8750000000000000
  0.7777743363233409  0.8888533337429543  0.8750000000000000
  0.9444593844321836  0.3889187688643684  0.8750000000000000
  0.1123359978332284  0.3879187651877430  0.3750000000000000
  0.2761682282121029  0.8855962849568212  0.3750000000000000
  0.6118413874659658  0.8917377149795156  0.3750000000000000
  0.9458132708404778  0.8895115111557791  0.3750000000000000
  0.7755827673545214  0.3879187651877430  0.3750000000000000
  0.2778008083854212  0.5555198480588309  0.8750000000000000
  0.1112098190255777  0.0556255926026284  0.8750000000000000
  0.6110348027826242  0.5554543979906833  0.8750000000000000
  0.4444157735770504  0.0556255926026284  0.8750000000000000
  0.9444292002265818  0.5555577514737702  0.8750000000000000
  0.1107152231155356  0.5536811816462178  0.3750000000000000
  0.7777857117804873  0.0555714235609748  0.8750000000000000
  0.2746118042723723  0.0492236085447441  0.3750000000000000
  0.4482208310742213  0.5614448317642263  0.3750000000000000
  0.7756568237393470  0.5543157430875375  0.3750000000000000
  0.6098833498936375  0.0571641822889905  0.3750000000000000
  0.4444195952080593  0.5554543979906833  0.8750000000000000
  0.9472808323953529  0.0571641822889905  0.3750000000000000
  0.2777740192312224  0.7222090901873136  0.8750000000000000
  0.1112326200310509  0.2222841764756574  0.8750000000000000
  0.4444260100253938  0.2222977745353835  0.8750000000000000
  0.6110577149584812  0.7221154299169557  0.8750000000000000
  0.9444350709560910  0.7222090901873136  0.8750000000000000
  0.7777616729314880  0.2222654204311244  0.8750000000000000
  0.1097680313227600  0.7195360626455128  0.3750000000000000
  0.4448854848215475  0.7244061314247355  0.3750000000000000
  0.2971395455155891  0.2200278614358989  0.3750000000000000
  0.7795206466031901  0.7244061314247355  0.3750000000000000
  0.6029449975351179  0.2221280337255420  0.3750000000000000
  0.9471096757549790  0.2229398059917239  0.3750000000000000
  0.1111850204024843  0.3889153619496467  0.8750000000000000
  0.2777821508978820  0.8889294088999539  0.8750000000000000
  0.6110789974196208  0.8888533337429543  0.8750000000000000
  0.4444343570171395  0.3888687140342788  0.8750000000000000
  0.9444753358078518  0.8888923444607757  0.8750000000000000
  0.1094280567447258  0.8855962849568212  0.3750000000000000
  0.7777303415471691  0.3889153619496467  0.8750000000000000
  0.4436982403153009  0.8895115111557791  0.3750000000000000
  0.2786332270238696  0.3856596354655529  0.3750000000000000
  0.2786589193481908  0.5543157430875375  0.3750000000000000
  0.6070264084416908  0.3856596354655529  0.3750000000000000
  0.7798963275135575  0.8917377149795156  0.3750000000000000
  0.9439800418164461  0.3879600836328931  0.3750000000000000
  0.1111285512471877  0.5555577514737702  0.8750000000000000
  0.2778206140301263  0.0556412280602523  0.8750000000000000
  0.7777190396734093  0.5555198480588309  0.8750000000000000
  0.6110727790172933  0.0555891100892495  0.8750000000000000
  0.9445163310719564  0.0555891100892495  0.8750000000000000
  0.0556941844312907  0.1112262413192311  0.1253263238923756
  0.5554235209100965  0.6108470418201927  0.1253515066081507
  0.3890261091553802  0.1114656012175604  0.1255490552071917
  0.8886729250444414  0.6110133242022521  0.1252749808089433
  0.7221969412643657  0.1111254959424413  0.1252352304930621
  0.0555514931031196  0.7778563270521297  0.6247828793002150
  0.3889801936793375  0.7777506602087781  0.6247599917675135
  0.2224621333863139  0.2778185948657683  0.6244554767329905
  0.7221126451366777  0.7776703260545721  0.6247708413238435
  0.5553564614794542  0.2778185948657683  0.6244554767329905
  0.8888696236517895  0.2777392473035856  0.6247429906548839
  0.2223048339490098  0.7778563270521297  0.1252171206997848
  0.0556843671592040  0.2777474220652179  0.1253109697277312
  0.3889276195946315  0.2778552391892711  0.1273792264425502
  0.5555576809178948  0.7776703260545721  0.1252291586761566
  0.8887704665294340  0.7777506602087781  0.1252400082324858
  0.7220630549060144  0.2777474220652179  0.1253109697277312
  0.0556353290380186  0.9446171883237234  0.6246968763234725
  0.3889818592857054  0.9446171883237234  0.6246968763234725
  0.2224348917322076  0.4442898711135890  0.6245746712719561
  0.5552459127501500  0.4442467933205697  0.6231703869028762
  0.7222135248454403  0.9444270496908790  0.6247990723567644
  0.8887385867229028  0.4443516771298859  0.6247643447203458
  0.0556130904069836  0.4443516771298859  0.1252356552796545
  0.2223702992147830  0.9447405984295659  0.1253551502051474
  0.5555845014512404  0.9444758217085634  0.1252396458659999
  0.3890008805704201  0.4442467933205697  0.1268296130971239
  0.8888913202573238  0.9444758217085634  0.1252396458659999
  0.7218549793813814  0.4442898711135890  0.1254253287280436
  0.2223403991578032  0.6110133242022511  0.6247250191910575
  0.0556941844312907  0.1112262413192311  0.6246736761076236
  0.5554235209100965  0.6108470418201927  0.6246484933918495
  0.3890261091553802  0.1114656012175604  0.6244509447928086
  0.8886729250444414  0.6110133242022521  0.6247250191910575
  0.0555316231219076  0.6110632462438147  0.1252025483936201
  0.7221969412643657  0.1111254959424413  0.6247647695069376
  0.2224394920621729  0.1114656012175604  0.1255490552071917
  0.3890210068769833  0.6108993558250198  0.1253188899410170
  0.7218783489480287  0.6108993558250198  0.1253188899410170
  0.5555320568879406  0.1112262413192311  0.1253263238923756
  0.3890210068769833  0.6108993558250198  0.6246811100589825
  0.8889285546780696  0.1111254959424413  0.1252352304930621
  0.2223048339490098  0.7778563270521297  0.6247828793002150
  0.0556843671592040  0.2777474220652179  0.6246890302722682
  0.3889276195946315  0.2778552391892711  0.6226207735574494
  0.5555576809178948  0.7776703260545721  0.6247708413238435
  0.8887704665294340  0.7777506602087781  0.6247599917675135
  0.7220630549060144  0.2777474220652179  0.6246890302722682
  0.0555514931031196  0.7778563270521297  0.1252171206997848
  0.3889801936793375  0.7777506602087781  0.1252400082324858
  0.2224621333863139  0.2778185948657683  0.1255445232670099
  0.7221126451366777  0.7776703260545721  0.1252291586761566
  0.5553564614794542  0.2778185948657683  0.1255445232670099
  0.8888696236517895  0.2777392473035856  0.1252570093451162
  0.0556130904069836  0.4443516771298859  0.6247643447203458
  0.2223702992147830  0.9447405984295659  0.6246448497948529
  0.5555845014512404  0.9444758217085634  0.6247603541340002
  0.3890008805704201  0.4442467933205697  0.6231703869028762
  0.8888913202573238  0.9444758217085634  0.6247603541340002
  0.0556353290380186  0.9446171883237234  0.1253031236765274
  0.7218549793813814  0.4442898711135890  0.6245746712719561
  0.3889818592857054  0.9446171883237234  0.1253031236765274
  0.2224348917322076  0.4442898711135890  0.1254253287280436
  0.2223403991578032  0.6110133242022521  0.1252749808089433
  0.5552459127501500  0.4442467933205697  0.1268296130971239
  0.7222135248454403  0.9444270496908790  0.1252009276432354
  0.8887385867229028  0.4443516771298859  0.1252356552796545
  0.0555316231219076  0.6110632462438147  0.6247974516063800
  0.2224394920621729  0.1114656012175604  0.6244509447928086
  0.7218783489480287  0.6108993558250198  0.6246811100589825
  0.5555320568879406  0.1112262413192311  0.6246736761076236
  0.8889285546780696  0.1111254959424413  0.6247647695069376
 
  0.00000000E+00  0.00000000E+00  0.00000000E+00
  0.00000000E+00  0.00000000E+00  0.00000000E+00
  0.00000000E+00  0.00000000E+00  0.00000000E+00
  0.00000000E+00  0.00000000E+00  0.00000000E+00
  0.00000000E+00  0.00000000E+00  0.00000000E+00
  0.00000000E+00  0.00000000E+00  0.00000000E+00
  0.00000000E+00  0.00000000E+00  0.00000000E+00
  0.00000000E+00  0.00000000E+00  0.00000000E+00
  0.00000000E+00  0.00000000E+00  0.00000000E+00
  0.00000000E+00  0.00000000E+00  0.00000000E+00
  0.00000000E+00  0.00000000E+00  0.00000000E+00
  0.00000000E+00  0.00000000E+00  0.00000000E+00
  0.00000000E+00  0.00000000E+00  0.00000000E+00
  0.00000000E+00  0.00000000E+00  0.00000000E+00
  0.00000000E+00  0.00000000E+00  0.00000000E+00
  0.00000000E+00  0.00000000E+00  0.00000000E+00
  0.00000000E+00  0.00000000E+00  0.00000000E+00
  0.00000000E+00  0.00000000E+00  0.00000000E+00
  0.00000000E+00  0.00000000E+00  0.00000000E+00
  0.00000000E+00  0.00000000E+00  0.00000000E+00
  0.00000000E+00  0.00000000E+00  0.00000000E+00
  0.00000000E+00  0.00000000E+00  0.00000000E+00
  0.00000000E+00  0.00000000E+00  0.00000000E+00
  0.00000000E+00  0.00000000E+00  0.00000000E+00
  0.00000000E+00  0.00000000E+00  0.00000000E+00
  0.00000000E+00  0.00000000E+00  0.00000000E+00
  0.00000000E+00  0.00000000E+00  0.00000000E+00
  0.00000000E+00  0.00000000E+00  0.00000000E+00
  0.00000000E+00  0.00000000E+00  0.00000000E+00
  0.00000000E+00  0.00000000E+00  0.00000000E+00
  0.00000000E+00  0.00000000E+00  0.00000000E+00
  0.00000000E+00  0.00000000E+00  0.00000000E+00
  0.00000000E+00  0.00000000E+00  0.00000000E+00
  0.00000000E+00  0.00000000E+00  0.00000000E+00
  0.00000000E+00  0.00000000E+00  0.00000000E+00
  0.00000000E+00  0.00000000E+00  0.00000000E+00
  0.00000000E+00  0.00000000E+00  0.00000000E+00
  0.00000000E+00  0.00000000E+00  0.00000000E+00
  0.00000000E+00  0.00000000E+00  0.00000000E+00
  0.00000000E+00  0.00000000E+00  0.00000000E+00
  0.00000000E+00  0.00000000E+00  0.00000000E+00
  0.00000000E+00  0.00000000E+00  0.00000000E+00
  0.00000000E+00  0.00000000E+00  0.00000000E+00
  0.00000000E+00  0.00000000E+00  0.00000000E+00
  0.00000000E+00  0.00000000E+00  0.00000000E+00
  0.00000000E+00  0.00000000E+00  0.00000000E+00
  0.00000000E+00  0.00000000E+00  0.00000000E+00
  0.00000000E+00  0.00000000E+00  0.00000000E+00
  0.00000000E+00  0.00000000E+00  0.00000000E+00
  0.00000000E+00  0.00000000E+00  0.00000000E+00
  0.00000000E+00  0.00000000E+00  0.00000000E+00
  0.00000000E+00  0.00000000E+00  0.00000000E+00
  0.00000000E+00  0.00000000E+00  0.00000000E+00
  0.00000000E+00  0.00000000E+00  0.00000000E+00
  0.00000000E+00  0.00000000E+00  0.00000000E+00
  0.00000000E+00  0.00000000E+00  0.00000000E+00
  0.00000000E+00  0.00000000E+00  0.00000000E+00
  0.00000000E+00  0.00000000E+00  0.00000000E+00
  0.00000000E+00  0.00000000E+00  0.00000000E+00
  0.00000000E+00  0.00000000E+00  0.00000000E+00
  0.00000000E+00  0.00000000E+00  0.00000000E+00
  0.00000000E+00  0.00000000E+00  0.00000000E+00
  0.00000000E+00  0.00000000E+00  0.00000000E+00
  0.00000000E+00  0.00000000E+00  0.00000000E+00
  0.00000000E+00  0.00000000E+00  0.00000000E+00
  0.00000000E+00  0.00000000E+00  0.00000000E+00
  0.00000000E+00  0.00000000E+00  0.00000000E+00
  0.00000000E+00  0.00000000E+00  0.00000000E+00
  0.00000000E+00  0.00000000E+00  0.00000000E+00
  0.00000000E+00  0.00000000E+00  0.00000000E+00
  0.00000000E+00  0.00000000E+00  0.00000000E+00
  0.00000000E+00  0.00000000E+00  0.00000000E+00
  0.00000000E+00  0.00000000E+00  0.00000000E+00
  0.00000000E+00  0.00000000E+00  0.00000000E+00
  0.00000000E+00  0.00000000E+00  0.00000000E+00
  0.00000000E+00  0.00000000E+00  0.00000000E+00
  0.00000000E+00  0.00000000E+00  0.00000000E+00
  0.00000000E+00  0.00000000E+00  0.00000000E+00
  0.00000000E+00  0.00000000E+00  0.00000000E+00
  0.00000000E+00  0.00000000E+00  0.00000000E+00
  0.00000000E+00  0.00000000E+00  0.00000000E+00
  0.00000000E+00  0.00000000E+00  0.00000000E+00
  0.00000000E+00  0.00000000E+00  0.00000000E+00
  0.00000000E+00  0.00000000E+00  0.00000000E+00
  0.00000000E+00  0.00000000E+00  0.00000000E+00
  0.00000000E+00  0.00000000E+00  0.00000000E+00
  0.00000000E+00  0.00000000E+00  0.00000000E+00
  0.00000000E+00  0.00000000E+00  0.00000000E+00
  0.00000000E+00  0.00000000E+00  0.00000000E+00
  0.00000000E+00  0.00000000E+00  0.00000000E+00
  0.00000000E+00  0.00000000E+00  0.00000000E+00
  0.00000000E+00  0.00000000E+00  0.00000000E+00
  0.00000000E+00  0.00000000E+00  0.00000000E+00
  0.00000000E+00  0.00000000E+00  0.00000000E+00
  0.00000000E+00  0.00000000E+00  0.00000000E+00
  0.00000000E+00  0.00000000E+00  0.00000000E+00
  0.00000000E+00  0.00000000E+00  0.00000000E+00
  0.00000000E+00  0.00000000E+00  0.00000000E+00
  0.00000000E+00  0.00000000E+00  0.00000000E+00
  0.00000000E+00  0.00000000E+00  0.00000000E+00
  0.00000000E+00  0.00000000E+00  0.00000000E+00
  0.00000000E+00  0.00000000E+00  0.00000000E+00
  0.00000000E+00  0.00000000E+00  0.00000000E+00
  0.00000000E+00  0.00000000E+00  0.00000000E+00
  0.00000000E+00  0.00000000E+00  0.00000000E+00
  0.00000000E+00  0.00000000E+00  0.00000000E+00
  0.00000000E+00  0.00000000E+00  0.00000000E+00
  0.00000000E+00  0.00000000E+00  0.00000000E+00
  0.00000000E+00  0.00000000E+00  0.00000000E+00
  0.00000000E+00  0.00000000E+00  0.00000000E+00
  0.00000000E+00  0.00000000E+00  0.00000000E+00
  0.00000000E+00  0.00000000E+00  0.00000000E+00
  0.00000000E+00  0.00000000E+00  0.00000000E+00
  0.00000000E+00  0.00000000E+00  0.00000000E+00
  0.00000000E+00  0.00000000E+00  0.00000000E+00
  0.00000000E+00  0.00000000E+00  0.00000000E+00
  0.00000000E+00  0.00000000E+00  0.00000000E+00
  0.00000000E+00  0.00000000E+00  0.00000000E+00
  0.00000000E+00  0.00000000E+00  0.00000000E+00
  0.00000000E+00  0.00000000E+00  0.00000000E+00
  0.00000000E+00  0.00000000E+00  0.00000000E+00
  0.00000000E+00  0.00000000E+00  0.00000000E+00
  0.00000000E+00  0.00000000E+00  0.00000000E+00
  0.00000000E+00  0.00000000E+00  0.00000000E+00
  0.00000000E+00  0.00000000E+00  0.00000000E+00
  0.00000000E+00  0.00000000E+00  0.00000000E+00
  0.00000000E+00  0.00000000E+00  0.00000000E+00
  0.00000000E+00  0.00000000E+00  0.00000000E+00
  0.00000000E+00  0.00000000E+00  0.00000000E+00
  0.00000000E+00  0.00000000E+00  0.00000000E+00
  0.00000000E+00  0.00000000E+00  0.00000000E+00
  0.00000000E+00  0.00000000E+00  0.00000000E+00
  0.00000000E+00  0.00000000E+00  0.00000000E+00
  0.00000000E+00  0.00000000E+00  0.00000000E+00
  0.00000000E+00  0.00000000E+00  0.00000000E+00
  0.00000000E+00  0.00000000E+00  0.00000000E+00
  0.00000000E+00  0.00000000E+00  0.00000000E+00
  0.00000000E+00  0.00000000E+00  0.00000000E+00
  0.00000000E+00  0.00000000E+00  0.00000000E+00
  0.00000000E+00  0.00000000E+00  0.00000000E+00
  0.00000000E+00  0.00000000E+00  0.00000000E+00
  0.00000000E+00  0.00000000E+00  0.00000000E+00
  0.00000000E+00  0.00000000E+00  0.00000000E+00
  0.00000000E+00  0.00000000E+00  0.00000000E+00
  0.00000000E+00  0.00000000E+00  0.00000000E+00
  0.00000000E+00  0.00000000E+00  0.00000000E+00
  0.00000000E+00  0.00000000E+00  0.00000000E+00
  0.00000000E+00  0.00000000E+00  0.00000000E+00
  0.00000000E+00  0.00000000E+00  0.00000000E+00
  0.00000000E+00  0.00000000E+00  0.00000000E+00
  0.00000000E+00  0.00000000E+00  0.00000000E+00
  0.00000000E+00  0.00000000E+00  0.00000000E+00
  0.00000000E+00  0.00000000E+00  0.00000000E+00
  0.00000000E+00  0.00000000E+00  0.00000000E+00
  0.00000000E+00  0.00000000E+00  0.00000000E+00
  0.00000000E+00  0.00000000E+00  0.00000000E+00
  0.00000000E+00  0.00000000E+00  0.00000000E+00
  0.00000000E+00  0.00000000E+00  0.00000000E+00
  0.00000000E+00  0.00000000E+00  0.00000000E+00
  0.00000000E+00  0.00000000E+00  0.00000000E+00
  0.00000000E+00  0.00000000E+00  0.00000000E+00
  0.00000000E+00  0.00000000E+00  0.00000000E+00
  0.00000000E+00  0.00000000E+00  0.00000000E+00
  0.00000000E+00  0.00000000E+00  0.00000000E+00
  0.00000000E+00  0.00000000E+00  0.00000000E+00
  0.00000000E+00  0.00000000E+00  0.00000000E+00
  0.00000000E+00  0.00000000E+00  0.00000000E+00
  0.00000000E+00  0.00000000E+00  0.00000000E+00
  0.00000000E+00  0.00000000E+00  0.00000000E+00
  0.00000000E+00  0.00000000E+00  0.00000000E+00
  0.00000000E+00  0.00000000E+00  0.00000000E+00
  0.00000000E+00  0.00000000E+00  0.00000000E+00
  0.00000000E+00  0.00000000E+00  0.00000000E+00
  0.00000000E+00  0.00000000E+00  0.00000000E+00
  0.00000000E+00  0.00000000E+00  0.00000000E+00
  0.00000000E+00  0.00000000E+00  0.00000000E+00
  0.00000000E+00  0.00000000E+00  0.00000000E+00
  0.00000000E+00  0.00000000E+00  0.00000000E+00
  0.00000000E+00  0.00000000E+00  0.00000000E+00
  0.00000000E+00  0.00000000E+00  0.00000000E+00
  0.00000000E+00  0.00000000E+00  0.00000000E+00
  0.00000000E+00  0.00000000E+00  0.00000000E+00
  0.00000000E+00  0.00000000E+00  0.00000000E+00
  0.00000000E+00  0.00000000E+00  0.00000000E+00
  0.00000000E+00  0.00000000E+00  0.00000000E+00
  0.00000000E+00  0.00000000E+00  0.00000000E+00
  0.00000000E+00  0.00000000E+00  0.00000000E+00
  0.00000000E+00  0.00000000E+00  0.00000000E+00
  0.00000000E+00  0.00000000E+00  0.00000000E+00
  0.00000000E+00  0.00000000E+00  0.00000000E+00
  0.00000000E+00  0.00000000E+00  0.00000000E+00
  0.00000000E+00  0.00000000E+00  0.00000000E+00
  0.00000000E+00  0.00000000E+00  0.00000000E+00
  0.00000000E+00  0.00000000E+00  0.00000000E+00
  0.00000000E+00  0.00000000E+00  0.00000000E+00
  0.00000000E+00  0.00000000E+00  0.00000000E+00
  0.00000000E+00  0.00000000E+00  0.00000000E+00
  0.00000000E+00  0.00000000E+00  0.00000000E+00
  0.00000000E+00  0.00000000E+00  0.00000000E+00
  0.00000000E+00  0.00000000E+00  0.00000000E+00
  0.00000000E+00  0.00000000E+00  0.00000000E+00
  0.00000000E+00  0.00000000E+00  0.00000000E+00
  0.00000000E+00  0.00000000E+00  0.00000000E+00
  0.00000000E+00  0.00000000E+00  0.00000000E+00
  0.00000000E+00  0.00000000E+00  0.00000000E+00
  0.00000000E+00  0.00000000E+00  0.00000000E+00
  0.00000000E+00  0.00000000E+00  0.00000000E+00
  0.00000000E+00  0.00000000E+00  0.00000000E+00
  0.00000000E+00  0.00000000E+00  0.00000000E+00
  0.00000000E+00  0.00000000E+00  0.00000000E+00
  0.00000000E+00  0.00000000E+00  0.00000000E+00
  0.00000000E+00  0.00000000E+00  0.00000000E+00
  0.00000000E+00  0.00000000E+00  0.00000000E+00
  0.00000000E+00  0.00000000E+00  0.00000000E+00
  0.00000000E+00  0.00000000E+00  0.00000000E+00
  0.00000000E+00  0.00000000E+00  0.00000000E+00
  0.00000000E+00  0.00000000E+00  0.00000000E+00
  0.00000000E+00  0.00000000E+00  0.00000000E+00
  0.00000000E+00  0.00000000E+00  0.00000000E+00
  0.00000000E+00  0.00000000E+00  0.00000000E+00
  0.00000000E+00  0.00000000E+00  0.00000000E+00
  0.00000000E+00  0.00000000E+00  0.00000000E+00
  0.00000000E+00  0.00000000E+00  0.00000000E+00
  0.00000000E+00  0.00000000E+00  0.00000000E+00
  0.00000000E+00  0.00000000E+00  0.00000000E+00
  0.00000000E+00  0.00000000E+00  0.00000000E+00
  0.00000000E+00  0.00000000E+00  0.00000000E+00
  0.00000000E+00  0.00000000E+00  0.00000000E+00
  0.00000000E+00  0.00000000E+00  0.00000000E+00
  0.00000000E+00  0.00000000E+00  0.00000000E+00
  0.00000000E+00  0.00000000E+00  0.00000000E+00
  0.00000000E+00  0.00000000E+00  0.00000000E+00
  0.00000000E+00  0.00000000E+00  0.00000000E+00
  0.00000000E+00  0.00000000E+00  0.00000000E+00
  0.00000000E+00  0.00000000E+00  0.00000000E+00
  0.00000000E+00  0.00000000E+00  0.00000000E+00
  0.00000000E+00  0.00000000E+00  0.00000000E+00
  0.00000000E+00  0.00000000E+00  0.00000000E+00
  0.00000000E+00  0.00000000E+00  0.00000000E+00
  0.00000000E+00  0.00000000E+00  0.00000000E+00
  0.00000000E+00  0.00000000E+00  0.00000000E+00
  0.00000000E+00  0.00000000E+00  0.00000000E+00
  0.00000000E+00  0.00000000E+00  0.00000000E+00
  0.00000000E+00  0.00000000E+00  0.00000000E+00
  0.00000000E+00  0.00000000E+00  0.00000000E+00
  0.00000000E+00  0.00000000E+00  0.00000000E+00
  0.00000000E+00  0.00000000E+00  0.00000000E+00
  0.00000000E+00  0.00000000E+00  0.00000000E+00