B N Al                                  
   1.0000000000000000     
     8.7639499999999995  -15.1796066749929999    0.0000000000000000
     8.7639499999999995   15.1796066749929999    0.0000000000000000
     0.0000000000000000    0.0000000000000000   15.0000000000000000
   B    N    Al
    48    48     2
Selective dynamics
Direct
  0.9067862230474817  0.9546831787052766  0.1110227972823281   T   T   T
  0.9041179306348389  0.0958840905611291  0.1109997480439772   T   T   T
  0.9034211189621967  0.2382039541172538  0.1110295422027247   T   T   T
  0.9043438902541983  0.3811496165430715  0.1109498328424604   T   T   T
  0.9075912131269231  0.5247823302071575  0.1110044843798473   T   T   T
  0.9089986019901105  0.6688392794811251  0.1110879114068221   T   T   T
  0.9100938637739369  0.8135819146869722  0.1110413808430515   T   T   T
  0.0481986882024062  0.9518033329935743  0.1110235077027527   T   T   T
  0.0453188424907194  0.0932157981485002  0.1110227972823281   T   T   T
  0.0442265421446907  0.2363405119020763  0.1109774902706473   T   T   T
  0.0450016957729675  0.3802371595132418  0.1109662953144517   T   T   T
  0.0472062644360803  0.5239864743529610  0.1109874095829977   T   T   T
  0.0494837021795683  0.6670655685192831  0.1110685619945666   T   T   T
  0.0496508278734593  0.8097832096665080  0.1110691520366657   T   T   T
  0.1902188115295270  0.9503511933225627  0.1110691520366657   T   T   T
  0.1864201065090351  0.0899081574220752  0.1110413808430515   T   T   T
  0.1832154096908527  0.2315997623651123  0.1110008383903730   T   T   T
  0.1842532620866884  0.3774404800645400  0.1110046228220044   T   T   T
  0.1865650150944929  0.5232366231672447  0.1110569821461136   T   T   T
  0.1911258822184123  0.6664715189372682  0.1110825142534150   T   T   T
  0.1912450628235617  0.8087569583724492  0.1110485332998678   T   T   T
  0.3329364526777057  0.9505183190164207  0.1110685619945666   T   T   T
  0.3311627417158570  0.0910034192058673  0.1110879114068221   T   T   T
  0.3232636135279086  0.2267943754162255  0.1110672399651769   T   T   T
  0.3200481282120842  0.3702472035831378  0.1110119311186260   T   T   T
  0.3232122683779570  0.5193744617797550  0.1111168438254243   T   T   T
  0.3338029385289065  0.6661990826680775  0.1111615777403332   T   T   T
  0.3335305022597438  0.8088761389776000  0.1110825142534150   T   T   T
  0.4760155468440435  0.9527957567599129  0.1109874095829977   T   T   T
  0.4752196909898456  0.0924108080690458  0.1110044843798473   T   T   T
  0.4737864424064924  0.2303323075968502  0.1110306082147568   T   T   T
  0.4553730237401563  0.3494969382238853  0.1109680960625405   T   T   T
  0.4806275594172748  0.6767897528190500  0.1111168438254243   T   T   T
  0.4767653980297512  0.8134370061015366  0.1110569821461136   T   T   T
  0.6197648616827964  0.9550003254230459  0.1109662953144516   T   T   T
  0.6188524046529176  0.0956581309417959  0.1109498328424604   T   T   T
  0.6188243418014386  0.2369683064312481  0.1109739822522653   T   T   T
  0.6204621345994696  0.3795398865965461  0.1109861820936013   T   T   T
  0.6505050829721500  0.5446289974568309  0.1109680960625380   T   T   T
  0.6297548176128694  0.6799538929849014  0.1110119311186239   T   T   T
  0.6225615411314663  0.8157487591093241  0.1110046228220044   T   T   T
  0.7636615092939306  0.9557754790513135  0.1109774902706473   T   T   T
  0.7617980670787518  0.0965809022337799  0.1110295422027247   T   T   T
  0.7615934832169511  0.2384085379790534  0.1110065588423890   T   T   T
  0.7630337147647445  0.3811776793945732  0.1109739822522653   T   T   T
  0.7696697135991631  0.5262155787905092  0.1110306082147568   T   T   T
  0.7732076457797643  0.6767384076691058  0.1110672399651769   T   T   T
  0.7684022588308986  0.8167866115051581  0.1110008383903730   T   T   T
  0.9546788761250103  0.9071491852545716  0.1110003728434566   T   T   T
  0.9516785445529142  0.0483228573650898  0.1110121040154146   T   T   T
  0.9501953493308428  0.1902249853979367  0.1109894998996480   T   T   T
  0.9506169481317168  0.3330002234817966  0.1109604819657879   T   T   T
  0.9528967260014423  0.4762050927569869  0.1109350649917620   T   T   T
  0.9548811839806276  0.6198558907976813  0.1110535066903226   T   T   T
  0.9554829188885732  0.7636688451091252  0.1110550537432226   T   T   T
  0.0958271279791875  0.9041742739387940  0.1110378521704920   T   T   T
  0.0928522166634183  0.0453225257930133  0.1110003728434566   T   T   T
  0.0899731107759577  0.1869676072692061  0.1109729667495610   T   T   T
  0.0904524779505983  0.3310955143132985  0.1109584109849948   T   T   T
  0.0925083560197283  0.4754186715363277  0.1109643635486302   T   T   T
  0.0960884008840662  0.6190054256767340  0.1110296696960022   T   T   T
  0.0966311409576851  0.7618150309104007  0.1110439669192642   T   T   T
  0.2381863710076204  0.9033702609602847  0.1110439669192642   T   T   T
  0.2363325568088812  0.0445184830294499  0.1110550537432226   T   T   T
  0.2302328786243784  0.1829220873731230  0.1110371948887394   T   T   T
  0.2271469124211548  0.3251278516804795  0.1109820304962928   T   T   T
  0.2299038762561759  0.4733998023060407  0.1110509729597411   T   T   T
  0.2380525826517470  0.6186067109882402  0.1110949556189271   T   T   T
  0.2386491996206689  0.7613522022973269  0.1110546943715341   T   T   T
  0.3809959762412428  0.9039130010339329  0.1110296696960022   T   T   T
  0.3801455111203337  0.0451202179373900  0.1110535066903226   T   T   T
  0.3776520942691174  0.1851264479548115  0.1110650947480398   T   T   T
  0.3653601347183555  0.3191643362105882  0.1109785714452937   T   T   T
  0.3571806342817296  0.4620536868402488  0.1110403847133761   T   T   T
  0.3816942686585409  0.6183071332594495  0.1111494722091112   T   T   T
  0.3813946909297468  0.7619488192662415  0.1110949556189271   T   T   T
  0.5245827303806571  0.9074930458982786  0.1109643635486302   T   T   T
  0.5237963091599908  0.0471046759165565  0.1109350649917620   T   T   T
  0.5233995609272780  0.1866533776567111  0.1109853309915966   T   T   T
  0.5224922082879665  0.3246040558604389  0.1109762448807713   T   T   T
  0.5379477150767610  0.6428207676362520  0.1110403847133761   T   T   T
  0.5266015996109372  0.7700975256618255  0.1110509729597411   T   T   T
  0.6689058876037227  0.9095489239673917  0.1109584109849948   T   T   T
  0.6670011784351972  0.0493844537863086  0.1109604819657879   T   T   T
  0.6666383461777194  0.1905337085077678  0.1109522229381205   T   T   T
  0.6674186204660935  0.3325827814509084  0.1109728635033713   T   T   T
  0.6753973460565798  0.4775091936290063  0.1109762448807713   T   T   T
  0.6808370657063960  0.6346412671996310  0.1109785714452937   T   T   T
  0.6748735502365091  0.7728544894968872  0.1109820304962928   T   T   T
  0.8130337946487874  0.9100282911420637  0.1109729667495610   T   T   T
  0.8097764165200627  0.0498060525871683  0.1109894998996480   T   T   T
  0.8088457009130703  0.1911557010049260  0.1110333549326979   T   T   T
  0.8094676934102454  0.3333630557392969  0.1109522229381205   T   T   T
  0.8133480242612828  0.4766018409897371  0.1109853309915968   T   T   T
  0.8148749539631883  0.6223493076488709  0.1110650947480398   T   T   T
  0.8170793145448692  0.7697685232936107  0.1110371948887394   T   T   T
  0.4658418452729836  0.5341601759240237  0.1110694737030251   T   T   T
  0.5349141001941559  0.4650873017228417  0.1111143195297483   T   T   T

  0.00000000E+00  0.00000000E+00  0.00000000E+00
  0.00000000E+00  0.00000000E+00  0.00000000E+00
  0.00000000E+00  0.00000000E+00  0.00000000E+00
  0.00000000E+00  0.00000000E+00  0.00000000E+00
  0.00000000E+00  0.00000000E+00  0.00000000E+00
  0.00000000E+00  0.00000000E+00  0.00000000E+00
  0.00000000E+00  0.00000000E+00  0.00000000E+00
  0.00000000E+00  0.00000000E+00  0.00000000E+00
  0.00000000E+00  0.00000000E+00  0.00000000E+00
  0.00000000E+00  0.00000000E+00  0.00000000E+00
  0.00000000E+00  0.00000000E+00  0.00000000E+00
  0.00000000E+00  0.00000000E+00  0.00000000E+00
  0.00000000E+00  0.00000000E+00  0.00000000E+00
  0.00000000E+00  0.00000000E+00  0.00000000E+00
  0.00000000E+00  0.00000000E+00  0.00000000E+00
  0.00000000E+00  0.00000000E+00  0.00000000E+00
  0.00000000E+00  0.00000000E+00  0.00000000E+00
  0.00000000E+00  0.00000000E+00  0.00000000E+00
  0.00000000E+00  0.00000000E+00  0.00000000E+00
  0.00000000E+00  0.00000000E+00  0.00000000E+00
  0.00000000E+00  0.00000000E+00  0.00000000E+00
  0.00000000E+00  0.00000000E+00  0.00000000E+00
  0.00000000E+00  0.00000000E+00  0.00000000E+00
  0.00000000E+00  0.00000000E+00  0.00000000E+00
  0.00000000E+00  0.00000000E+00  0.00000000E+00
  0.00000000E+00  0.00000000E+00  0.00000000E+00
  0.00000000E+00  0.00000000E+00  0.00000000E+00
  0.00000000E+00  0.00000000E+00  0.00000000E+00
  0.00000000E+00  0.00000000E+00  0.00000000E+00
  0.00000000E+00  0.00000000E+00  0.00000000E+00
  0.00000000E+00  0.00000000E+00  0.00000000E+00
  0.00000000E+00  0.00000000E+00  0.00000000E+00
  0.00000000E+00  0.00000000E+00  0.00000000E+00
  0.00000000E+00  0.00000000E+00  0.00000000E+00
  0.00000000E+00  0.00000000E+00  0.00000000E+00
  0.00000000E+00  0.00000000E+00  0.00000000E+00
  0.00000000E+00  0.00000000E+00  0.00000000E+00
  0.00000000E+00  0.00000000E+00  0.00000000E+00
  0.00000000E+00  0.00000000E+00  0.00000000E+00
  0.00000000E+00  0.00000000E+00  0.00000000E+00
  0.00000000E+00  0.00000000E+00  0.00000000E+00
  0.00000000E+00  0.00000000E+00  0.00000000E+00
  0.00000000E+00  0.00000000E+00  0.00000000E+00
  0.00000000E+00  0.00000000E+00  0.00000000E+00
  0.00000000E+00  0.00000000E+00  0.00000000E+00
  0.00000000E+00  0.00000000E+00  0.00000000E+00
  0.00000000E+00  0.00000000E+00  0.00000000E+00
  0.00000000E+00  0.00000000E+00  0.00000000E+00
  0.00000000E+00  0.00000000E+00  0.00000000E+00
  0.00000000E+00  0.00000000E+00  0.00000000E+00
  0.00000000E+00  0.00000000E+00  0.00000000E+00
  0.00000000E+00  0.00000000E+00  0.00000000E+00
  0.00000000E+00  0.00000000E+00  0.00000000E+00
  0.00000000E+00  0.00000000E+00  0.00000000E+00
  0.00000000E+00  0.00000000E+00  0.00000000E+00
  0.00000000E+00  0.00000000E+00  0.00000000E+00
  0.00000000E+00  0.00000000E+00  0.00000000E+00
  0.00000000E+00  0.00000000E+00  0.00000000E+00
  0.00000000E+00  0.00000000E+00  0.00000000E+00
  0.00000000E+00  0.00000000E+00  0.00000000E+00
  0.00000000E+00  0.00000000E+00  0.00000000E+00
  0.00000000E+00  0.00000000E+00  0.00000000E+00
  0.00000000E+00  0.00000000E+00  0.00000000E+00
  0.00000000E+00  0.00000000E+00  0.00000000E+00
  0.00000000E+00  0.00000000E+00  0.00000000E+00
  0.00000000E+00  0.00000000E+00  0.00000000E+00
  0.00000000E+00  0.00000000E+00  0.00000000E+00
  0.00000000E+00  0.00000000E+00  0.00000000E+00
  0.00000000E+00  0.00000000E+00  0.00000000E+00
  0.00000000E+00  0.00000000E+00  0.00000000E+00
  0.00000000E+00  0.00000000E+00  0.00000000E+00
  0.00000000E+00  0.00000000E+00  0.00000000E+00
  0.00000000E+00  0.00000000E+00  0.00000000E+00
  0.00000000E+00  0.00000000E+00  0.00000000E+00
  0.00000000E+00  0.00000000E+00  0.00000000E+00
  0.00000000E+00  0.00000000E+00  0.00000000E+00
  0.00000000E+00  0.00000000E+00  0.00000000E+00
  0.00000000E+00  0.00000000E+00  0.00000000E+00
  0.00000000E+00  0.00000000E+00  0.00000000E+00
  0.00000000E+00  0.00000000E+00  0.00000000E+00
  0.00000000E+00  0.00000000E+00  0.00000000E+00
  0.00000000E+00  0.00000000E+00  0.00000000E+00
  0.00000000E+00  0.00000000E+00  0.00000000E+00
  0.00000000E+00  0.00000000E+00  0.00000000E+00
  0.00000000E+00  0.00000000E+00  0.00000000E+00
  0.00000000E+00  0.00000000E+00  0.00000000E+00
  0.00000000E+00  0.00000000E+00  0.00000000E+00
  0.00000000E+00  0.00000000E+00  0.00000000E+00
  0.00000000E+00  0.00000000E+00  0.00000000E+00
  0.00000000E+00  0.00000000E+00  0.00000000E+00
  0.00000000E+00  0.00000000E+00  0.00000000E+00
  0.00000000E+00  0.00000000E+00  0.00000000E+00
  0.00000000E+00  0.00000000E+00  0.00000000E+00
  0.00000000E+00  0.00000000E+00  0.00000000E+00
  0.00000000E+00  0.00000000E+00  0.00000000E+00
  0.00000000E+00  0.00000000E+00  0.00000000E+00
  0.00000000E+00  0.00000000E+00  0.00000000E+00
  0.00000000E+00  0.00000000E+00  0.00000000E+00
