Species order:X N B                     
   2.51242800000000     
     5.9449720136058266    0.0000000000000000    0.0000000000000000
    -2.9724860068029120    5.1484967885702053   -0.0000000000000001
     0.0000000000000000    0.0000000000000009    5.3101128803662583
   C    N    B 
     4   142   142
Direct
  0.7174729842442112  0.6089394664480325  0.3750000000000000
  0.6089037136871857  0.5541281318306777  0.3750000000000000
  0.4443708979427611  0.3897594211527091  0.3750000000000000
  0.5522240715880075  0.4459830948938979  0.3750000000000000
  0.1107855175377878  0.0555780862214516  0.1250264818861934
  0.6107452923635787  0.5556334388886572  0.1244029021988361
  0.4441246394203004  0.0555901930442354  0.1249181395132686
  0.9440984636481442  0.5555648389606461  0.1247388590149310
  0.7774812349395158  0.0556081690178081  0.1250070424393541
  0.1107334682484800  0.7222246395067891  0.6251348791567474
  0.4440943757105602  0.7222386639219777  0.6251734342764675
  0.2774446750755496  0.2222596080413818  0.6251386201561734
  0.7774453276449560  0.7223537084986725  0.6256351487789515
  0.6108160787428039  0.2222480074138416  0.6252135369991595
  0.9441312034262731  0.2222518789913366  0.6250154033815823
  0.2774200212502648  0.7222262301925216  0.1247991629751190
  0.1107638654554683  0.2222269375731200  0.1248456031785085
  0.4441418628338775  0.2222732610337499  0.1247895104060487
  0.6107826917190513  0.7222960212316072  0.1248373307198842
  0.9440611751735688  0.7222371461580569  0.1248600518292600
  0.7774798485446850  0.2222505715502995  0.1249757978175221
  0.1107566061245580  0.8889077176054698  0.6250516198478453
  0.4441036783647377  0.8889217080307990  0.6251231254160435
  0.2774102868051555  0.3888670812019155  0.6251832610982317
  0.6107944235098247  0.3888943414890657  0.6255483560824021
  0.7774788488141166  0.8889975987695394  0.6251923032080503
  0.9441284020295414  0.3888988776465398  0.6251039353631531
  0.1107663108690655  0.3888841048752808  0.1249208986286644
  0.2774309130648636  0.8889126944520611  0.1248155548792130
  0.6107856823495796  0.8889490037777337  0.1249148767135699
  0.4440691135124232  0.3889078975128512  0.1245066276620808
  0.9441124369917389  0.8889475827031877  0.1249436859552162
  0.7774671404459641  0.3889053582534557  0.1246990849991818
  0.2774233412257997  0.5555577060890436  0.6251596681860389
  0.1107855175377878  0.0555780862214516  0.6249735181137825
  0.6107452923635787  0.5556334388886572  0.6255970978011212
  0.4441246394203004  0.0555901930442354  0.6250818604867060
  0.9440984636481442  0.5555648389606461  0.6252611409850733
  0.1107612914666594  0.5555610562201531  0.1248752641030089
  0.7774812349395158  0.0556081690178081  0.6249929575606603
  0.2774531721704668  0.0555835449070284  0.1248943674064714
  0.4440898548771048  0.5555736746296916  0.1249383149510014
  0.7774418325305452  0.5555439308908534  0.1241529743320658
  0.6108015086388835  0.0555824957214607  0.1250265613105765
  0.4440898548771048  0.5555736746296980  0.6250616850489760
  0.9441438594101274  0.0555986573691189  0.1250220384145552
  0.2774200212502648  0.7222262301925216  0.6252008370248793
  0.1107638654554683  0.2222269375731200  0.6251543968215341
  0.4441418628338775  0.2222732610337499  0.6252104895939766
  0.6107826917190513  0.7222960212316072  0.6251626692801175
  0.9440611751735688  0.7222371461580569  0.6251399481707616
  0.7774798485446519  0.2222505715502996  0.6250242021824381
  0.1107334682484800  0.7222246395067891  0.1248651208432839
  0.4440943757105602  0.7222386639219777  0.1248265657234807
  0.2774446750755496  0.2222596080413818  0.1248613798438380
  0.7774453276449560  0.7223537084986722  0.1243648512211129
  0.6108160787428039  0.2222480074138416  0.1247864630008109
  0.9441312034262731  0.2222518789913366  0.1249845966183809
  0.1107663108690664  0.3888841048752808  0.6250791013713989
  0.2774309130648636  0.8889126944520611  0.6251844451208183
  0.6107856823495796  0.8889490037777337  0.6250851232864467
  0.4440691135124232  0.3889078975128512  0.6254933723379209
  0.9441124369917389  0.8889475827031877  0.6250563140447739
  0.1107566061245580  0.8889077176054698  0.1249483801521817
  0.7774671404459641  0.3889053582534557  0.6253009150008555
  0.4441036783647380  0.8889217080307990  0.1248768745839936
  0.2774102868051555  0.3888670812019155  0.1248167389017671
  0.2774233412257997  0.5555577060890436  0.1248403318139490
  0.6107944235098247  0.3888943414890657  0.1244516439176563
  0.7774788488141166  0.8889975987695394  0.1248076967919663
  0.9441284020295414  0.3888988776465305  0.1248960646368629
  0.1107612914666594  0.5555610562201531  0.6251247358969981
  0.2774531721704668  0.0555835449070284  0.6251056325935443
  0.7774418325305452  0.5555439308908534  0.6258470256678929
  0.6108015086388835  0.0555824957214607  0.6249734386894076
  0.9441438594101274  0.0555986573691189  0.6249779615854233
  0.0560877338156965  0.1113775777274584  0.3750000000000000
  0.5557892188222876  0.6105170876294530  0.3750000000000000
  0.3892068994526977  0.1122144816245534  0.3750000000000000
  0.8897928498557767  0.6108808346480656  0.3750000000000000
  0.7223398034989917  0.1109320608327910  0.3750000000000000
  0.0559415746821617  0.7776141958338212  0.8750000000000000
  0.3892691559529153  0.7776480630267115  0.8750000000000000
  0.2226513757596069  0.2776648882649208  0.8750000000000000
  0.7226070278485927  0.7776572269692794  0.8750000000000000
  0.5559571305077207  0.2776671308670889  0.8750000000000000
  0.8892942440119415  0.2776482147895881  0.8750000000000000
  0.2227689912334564  0.7780027342622693  0.3750000000000000
  0.0559720295836798  0.2779082334753323  0.3750000000000000
  0.3898896701925513  0.2808082198800122  0.3750000000000000
  0.5555558570125936  0.7773588131289761  0.3750000000000000
  0.8898956971350119  0.7788386862630132  0.3750000000000000
  0.7225258039213109  0.2767676767154506  0.3750000000000000
  0.0559540495551733  0.9443150910800618  0.8750000000000000
  0.3892706475741979  0.9443361454825095  0.8750000000000000
  0.2226306855010313  0.4443099567086596  0.8750000000000000
  0.5559605424242618  0.4443298142906066  0.8750000000000000
  0.7226212319035104  0.9443475728060542  0.8750000000000000
  0.8892879822147546  0.4442973672885095  0.8750000000000000
  0.0563330312762405  0.4445521315825813  0.3750000000000000
  0.2228225903839296  0.9448363853585652  0.3750000000000000
  0.5555952696456546  0.9441652223597340  0.3750000000000000
  0.3883681256775355  0.4425318365974807  0.3750000000000000
  0.8895383117976344  0.9451216496907976  0.3750000000000000
  0.7230124944962653  0.4422172572523159  0.3750000000000000
  0.2226196833691701  0.6109812404767347  0.8750000000000000
  0.0559712822600265  0.1109595594108684  0.8750000000000000
  0.5559539378035432  0.6110208114587946  0.8750000000000000
  0.3892831621855537  0.1109746713783707  0.8750000000000000
  0.8892888186289715  0.6109849087543895  0.8750000000000000
  0.0564265459111968  0.6112919716745081  0.3750000000000000
  0.7226149447480088  0.1109747721854092  0.8750000000000000
  0.2234431882100317  0.1121331792607454  0.3750000000000000
  0.3893911655134206  0.6103570909477268  0.3750000000000000
  0.5555924742703979  0.1106391991346851  0.3750000000000000
  0.3892894014002033  0.6110125950539086  0.8750000000000000
  0.8892977886745271  0.1113203140429087  0.3750000000000000
  0.2226073790000549  0.7776278974021942  0.8750000000000000
  0.0559684277719864  0.2776526043114508  0.8750000000000000
  0.3893074289633381  0.2776812953025923  0.8750000000000000
  0.5559410674887652  0.7776748462723200  0.8750000000000000
  0.8892824106372015  0.7776372641621108  0.8750000000000000
  0.7226112163129990  0.2776650363793812  0.8750000000000000
  0.0561258898169079  0.7780164764415536  0.3750000000000000
  0.3892112541081773  0.7776263585686822  0.3750000000000000
  0.2220897662966669  0.2777106597453632  0.3750000000000000
  0.7225961088775091  0.7802152001222515  0.3750000000000000
  0.5559176213148812  0.2770401864525653  0.3750000000000000
  0.8893705002686173  0.2776861823506974  0.3750000000000000
  0.0559488409043600  0.4442852932101523  0.8750000000000000
  0.2226179140685519  0.9443161799577909  0.8750000000000000
  0.5559465476885437  0.9443476674039994  0.8750000000000000
  0.3893027681388563  0.4443315332924357  0.8750000000000000
  0.8893047719076876  0.9443250485081046  0.8750000000000000
  0.0566231228816521  0.9452283896293435  0.3750000000000000
  0.7226231796802294  0.4443139839788789  0.8750000000000000
  0.3891815383439315  0.9447646165727664  0.3750000000000000
  0.2228518479691244  0.4446139937448152  0.3750000000000000
  0.2228935888014518  0.6112191491653352  0.3750000000000000
  0.7223359526378721  0.9451786802067244  0.3750000000000000
  0.8898038076018840  0.4441807554872327  0.3750000000000000
  0.0559410088934822  0.6109724707611252  0.8750000000000000
  0.2226338238585954  0.1109757518320108  0.8750000000000000
  0.7226149636802283  0.6110082804219543  0.8750000000000000
  0.5559420334004920  0.1109806731721112  0.8750000000000000
  0.8893042306328803  0.1109718032795641  0.8750000000000000
  0.1121066398517273  0.0561817481613750  0.3750000000000000
  0.4445885060682621  0.0561890618123237  0.3750000000000000
  0.9448489748917002  0.5558477827907264  0.3750000000000000
  0.7780196090493978  0.0557519119365833  0.3750000000000000
  0.1114499830976585  0.7220423344761833  0.8750000000000000
  0.4448337542100845  0.7220866755738372  0.8750000000000000
  0.2783145882594426  0.2222597111340564  0.8750000000000000
  0.7781056629958892  0.7220263750615912  0.8750000000000000
  0.6115720458398216  0.2222648437405365  0.8750000000000000
  0.9449298920000018  0.2222171938008304  0.8750000000000000
  0.2781745486712279  0.7223135125581238  0.3750000000000000
  0.1114994630107899  0.2223511169471437  0.3750000000000000
  0.4453182871332551  0.2242232100164988  0.3750000000000000
  0.6120224193380546  0.7219640652441855  0.3750000000000000
  0.9440184965616666  0.7218703705780909  0.3750000000000000
  0.7780968623895859  0.2219514175877131  0.3750000000000000
  0.1115374420365648  0.8888088086407950  0.8750000000000000
  0.4448974534914503  0.8888679924615658  0.8750000000000000
  0.2782689701948909  0.3887529029692552  0.8750000000000000
  0.6115495728341845  0.3887915512999783  0.8750000000000000
  0.7782181612117429  0.8888146302084839  0.8750000000000000
  0.9448480752377331  0.3887341707978940  0.8750000000000000
  0.1117949166383826  0.3890303959087109  0.3750000000000000
  0.2781541720446832  0.8891653533386769  0.3750000000000000
  0.6112357597695649  0.8885399581131675  0.3750000000000000
  0.9450301904262889  0.8890052462211060  0.3750000000000000
  0.7783225790256797  0.3879853933585787  0.3750000000000000
  0.2782708819077893  0.5555549510654516  0.8750000000000000
  0.1114997927490795  0.0553854623416917  0.8750000000000000
  0.6116025690211898  0.5555636557815314  0.8750000000000000
  0.4448130664162614  0.0554300313787036  0.8750000000000000
  0.9448680932594378  0.5555484274705911  0.8750000000000000
  0.1117174704298053  0.5557602358805718  0.3750000000000000
  0.7781602287056989  0.0554018302920737  0.8750000000000000
  0.2783958385930717  0.0560771381254360  0.3750000000000000
  0.4449706767382878  0.5543303729367404  0.3750000000000000
  0.7768410774862777  0.5538728234207460  0.3750000000000000
  0.6111844614470598  0.0552841153138856  0.3750000000000000
  0.4449492841364055  0.5555334314695882  0.8750000000000000
  0.9448923359157069  0.0556485696086619  0.3750000000000000
  0.2782022817346625  0.7220573553026365  0.8750000000000000
  0.1116128563458810  0.2221828674706878  0.8750000000000000
  0.4449350255868216  0.2222363475109806  0.8750000000000000
  0.6115398500858337  0.7220638167060369  0.8750000000000000
  0.9448091283654633  0.7220272472220113  0.8750000000000000
  0.7782201999122345  0.2221994797187990  0.8750000000000000
  0.1113977447291407  0.7223905561688251  0.3750000000000000
  0.4448040882232758  0.7217406568572386  0.3750000000000000
  0.2790046884543350  0.2235665466043996  0.3750000000000000
  0.7771402449000689  0.7227802311897389  0.3750000000000000
  0.6112566078162737  0.2219313444060613  0.3750000000000000
  0.9449097912745609  0.2223367161049510  0.3750000000000000
  0.1114949769831456  0.3887302182085023  0.8750000000000000
  0.2782360378581911  0.8888816368303969  0.8750000000000000
  0.6115836517874740  0.8889037092886762  0.8750000000000000
  0.4448987034872896  0.3887927001151631  0.8750000000000000
  0.9448786693133988  0.8888250797052002  0.8750000000000000
  0.1115255259108800  0.8890306602760863  0.3750000000000000
  0.7781269901727769  0.3887753964424674  0.8750000000000000
  0.4446326266755281  0.8889234652845478  0.3750000000000000
  0.2781148986256157  0.3886616139767812  0.3750000000000000
  0.2784512198503958  0.5556085946157996  0.3750000000000000
  0.6121862978893999  0.3888750125312943  0.3750000000000000
  0.7780164249078159  0.8897576945392119  0.3750000000000000
  0.9450533126864918  0.3889223227164876  0.3750000000000000
  0.1115476908223555  0.5555006981654338  0.8750000000000000
  0.2782146072251993  0.0554107193088747  0.8750000000000000
  0.7781889880026956  0.5555260443574729  0.8750000000000000
  0.6115285504182789  0.0554194529639703  0.8750000000000000
  0.9448893663619776  0.0553693610268659  0.8750000000000000
  0.0551768832477188  0.1110340983215101  0.1250749600583861
  0.5554010338530527  0.6110825389420994  0.1251967785982157
  0.3885888032829493  0.1111957613501751  0.1249966386845766
  0.8883065059557242  0.6110653589580214  0.1250565059282773
  0.7218856993618165  0.1110815053107465  0.1251137355314267
  0.0549782275261971  0.7776367335469113  0.6248932271333857
  0.3885206091267911  0.7776889866613071  0.6251118408495429
  0.2219633122869711  0.2778313070550553  0.6250585803806760
  0.7218846298580902  0.7776394835537752  0.6249250016482264
  0.5553654672349760  0.2780551038858008  0.6250434511725287
  0.8885846077076556  0.2778338430228649  0.6249394715262995
  0.2217710139522298  0.7777104017241505  0.1249162160662003
  0.0552229969510856  0.2777925578483741  0.1249996461461018
  0.3886930920731196  0.2780221968811741  0.1250432450659283
  0.5552642842212592  0.7776871422624513  0.1250184467708703
  0.8883028552366340  0.7776266001611352  0.1251984400601529
  0.7219047299680067  0.2779208515115270  0.1249978000290744
  0.0551178102869201  0.9444341454559763  0.6248548749712080
  0.3885485612571573  0.9445310785682509  0.6250586559148457
  0.2218901196589917  0.4443666883879887  0.6250294334686106
  0.5553031868858077  0.4446034374159017  0.6241873017873236
  0.7219191339738061  0.9444614013304266  0.6249491831600184
  0.8884548224832135  0.4444360181484595  0.6250252848544110
  0.0551507189045062  0.4443621745062947  0.1249976640143385
  0.2218596106990979  0.9444934031507402  0.1249837480426784
  0.5552855847783179  0.9444988112937619  0.1250257272351176
  0.3886387595402455  0.4443669676495863  0.1250708324020514
  0.8885370359434719  0.9444315421848816  0.1251179418775150
  0.7218133563409235  0.4445432415665136  0.1249364393748509
  0.2218809065971177  0.6111041226224281  0.6250914941880734
  0.0551768832477175  0.1110340983215101  0.6249250399416360
  0.5554010338530527  0.6110825389420994  0.6248032214017034
  0.3885888032829493  0.1111957613501751  0.6250033613154028
  0.8883065059557242  0.6110653589580214  0.6249434940717091
  0.0550693136947969  0.6111023374866111  0.1249845709645941
  0.7218856993618165  0.1110815053107454  0.6248862644685366
  0.2218921258338568  0.1111332350529287  0.1250511950665597
  0.3886101814647777  0.6110868693003090  0.1249761179382090
  0.7217908535378998  0.6111261639941995  0.1261247800749391
  0.5552573919212445  0.1111813833458181  0.1250359683534784
  0.3886101814647777  0.6110868693003090  0.6250238820617908
  0.8885438556100347  0.1110602810924873  0.1251170296844427
  0.2217710139522298  0.7777104017241505  0.6250837839338276
  0.0552229969510856  0.2777925578483741  0.6250003538538615
  0.3886930920731196  0.2780221968811741  0.6249567549341377
  0.5552642842212592  0.7776871422624513  0.6249815532291221
  0.8883028552366340  0.7776266001611352  0.6248015599398420
  0.7219047299680067  0.2779208515115270  0.6250021999708919
  0.0549782275261968  0.7776367335469113  0.1251067728666154
  0.3885206091267911  0.7776889866613071  0.1248881591504334
  0.2219633122869711  0.2778313070550553  0.1249414196193505
  0.7218846298580902  0.7776394835537752  0.1250749983517790
  0.5553654672349760  0.2780551038858008  0.1249565488274510
  0.8885846077076556  0.2778338430228649  0.1250605284737528
  0.0551507189045062  0.4443621745062947  0.6250023359856954
  0.2218596106990979  0.9444934031507402  0.6250162519572491
  0.5552855847783179  0.9444988112937618  0.6249742727649237
  0.3886387595402455  0.4443669676495863  0.6249291675979630
  0.8885370359434719  0.9444315421848816  0.6248820581224583
  0.0551178102869201  0.9444341454559763  0.1251451250287609
  0.7218133563409235  0.4445432415665136  0.6250635606251218
  0.3885485612571573  0.9445310785682509  0.1249413440851656
  0.2218901196589917  0.4443666883879887  0.1249705665313522
  0.2218809065971177  0.6111041226224281  0.1249085058119408
  0.5553031868858077  0.4446034374159017  0.1258126982126838
  0.7219191339738061  0.9444614013304266  0.1250508168399739
  0.8884548224832135  0.4444360181484595  0.1249747151456067
  0.0550693136947952  0.6111023374866111  0.6250154290353489
  0.2218921258338568  0.1111332350529287  0.6249488049334256
  0.7217908535378998  0.6111261639941995  0.6238752199250490
  0.5552573919212445  0.1111813833458181  0.6249640316465011
  0.8885438556100347  0.1110602810924873  0.6248829703154988
 
  0.00000000E+00  0.00000000E+00  0.00000000E+00
  0.00000000E+00  0.00000000E+00  0.00000000E+00
  0.00000000E+00  0.00000000E+00  0.00000000E+00
  0.00000000E+00  0.00000000E+00  0.00000000E+00
  0.00000000E+00  0.00000000E+00  0.00000000E+00
  0.00000000E+00  0.00000000E+00  0.00000000E+00
  0.00000000E+00  0.00000000E+00  0.00000000E+00
  0.00000000E+00  0.00000000E+00  0.00000000E+00
  0.00000000E+00  0.00000000E+00  0.00000000E+00
  0.00000000E+00  0.00000000E+00  0.00000000E+00
  0.00000000E+00  0.00000000E+00  0.00000000E+00
  0.00000000E+00  0.00000000E+00  0.00000000E+00
  0.00000000E+00  0.00000000E+00  0.00000000E+00
  0.00000000E+00  0.00000000E+00  0.00000000E+00
  0.00000000E+00  0.00000000E+00  0.00000000E+00
  0.00000000E+00  0.00000000E+00  0.00000000E+00
  0.00000000E+00  0.00000000E+00  0.00000000E+00
  0.00000000E+00  0.00000000E+00  0.00000000E+00
  0.00000000E+00  0.00000000E+00  0.00000000E+00
  0.00000000E+00  0.00000000E+00  0.00000000E+00
  0.00000000E+00  0.00000000E+00  0.00000000E+00
  0.00000000E+00  0.00000000E+00  0.00000000E+00
  0.00000000E+00  0.00000000E+00  0.00000000E+00
  0.00000000E+00  0.00000000E+00  0.00000000E+00
  0.00000000E+00  0.00000000E+00  0.00000000E+00
  0.00000000E+00  0.00000000E+00  0.00000000E+00
  0.00000000E+00  0.00000000E+00  0.00000000E+00
  0.00000000E+00  0.00000000E+00  0.00000000E+00
  0.00000000E+00  0.00000000E+00  0.00000000E+00
  0.00000000E+00  0.00000000E+00  0.00000000E+00
  0.00000000E+00  0.00000000E+00  0.00000000E+00
  0.00000000E+00  0.00000000E+00  0.00000000E+00
  0.00000000E+00  0.00000000E+00  0.00000000E+00
  0.00000000E+00  0.00000000E+00  0.00000000E+00
  0.00000000E+00  0.00000000E+00  0.00000000E+00
  0.00000000E+00  0.00000000E+00  0.00000000E+00
  0.00000000E+00  0.00000000E+00  0.00000000E+00
  0.00000000E+00  0.00000000E+00  0.00000000E+00
  0.00000000E+00  0.00000000E+00  0.00000000E+00
  0.00000000E+00  0.00000000E+00  0.00000000E+00
  0.00000000E+00  0.00000000E+00  0.00000000E+00
  0.00000000E+00  0.00000000E+00  0.00000000E+00
  0.00000000E+00  0.00000000E+00  0.00000000E+00
  0.00000000E+00  0.00000000E+00  0.00000000E+00
  0.00000000E+00  0.00000000E+00  0.00000000E+00
  0.00000000E+00  0.00000000E+00  0.00000000E+00
  0.00000000E+00  0.00000000E+00  0.00000000E+00
  0.00000000E+00  0.00000000E+00  0.00000000E+00
  0.00000000E+00  0.00000000E+00  0.00000000E+00
  0.00000000E+00  0.00000000E+00  0.00000000E+00
  0.00000000E+00  0.00000000E+00  0.00000000E+00
  0.00000000E+00  0.00000000E+00  0.00000000E+00
  0.00000000E+00  0.00000000E+00  0.00000000E+00
  0.00000000E+00  0.00000000E+00  0.00000000E+00
  0.00000000E+00  0.00000000E+00  0.00000000E+00
  0.00000000E+00  0.00000000E+00  0.00000000E+00
  0.00000000E+00  0.00000000E+00  0.00000000E+00
  0.00000000E+00  0.00000000E+00  0.00000000E+00
  0.00000000E+00  0.00000000E+00  0.00000000E+00
  0.00000000E+00  0.00000000E+00  0.00000000E+00
  0.00000000E+00  0.00000000E+00  0.00000000E+00
  0.00000000E+00  0.00000000E+00  0.00000000E+00
  0.00000000E+00  0.00000000E+00  0.00000000E+00
  0.00000000E+00  0.00000000E+00  0.00000000E+00
  0.00000000E+00  0.00000000E+00  0.00000000E+00
  0.00000000E+00  0.00000000E+00  0.00000000E+00
  0.00000000E+00  0.00000000E+00  0.00000000E+00
  0.00000000E+00  0.00000000E+00  0.00000000E+00
  0.00000000E+00  0.00000000E+00  0.00000000E+00
  0.00000000E+00  0.00000000E+00  0.00000000E+00
  0.00000000E+00  0.00000000E+00  0.00000000E+00
  0.00000000E+00  0.00000000E+00  0.00000000E+00
  0.00000000E+00  0.00000000E+00  0.00000000E+00
  0.00000000E+00  0.00000000E+00  0.00000000E+00
  0.00000000E+00  0.00000000E+00  0.00000000E+00
  0.00000000E+00  0.00000000E+00  0.00000000E+00
  0.00000000E+00  0.00000000E+00  0.00000000E+00
  0.00000000E+00  0.00000000E+00  0.00000000E+00
  0.00000000E+00  0.00000000E+00  0.00000000E+00
  0.00000000E+00  0.00000000E+00  0.00000000E+00
  0.00000000E+00  0.00000000E+00  0.00000000E+00
  0.00000000E+00  0.00000000E+00  0.00000000E+00
  0.00000000E+00  0.00000000E+00  0.00000000E+00
  0.00000000E+00  0.00000000E+00  0.00000000E+00
  0.00000000E+00  0.00000000E+00  0.00000000E+00
  0.00000000E+00  0.00000000E+00  0.00000000E+00
  0.00000000E+00  0.00000000E+00  0.00000000E+00
  0.00000000E+00  0.00000000E+00  0.00000000E+00
  0.00000000E+00  0.00000000E+00  0.00000000E+00
  0.00000000E+00  0.00000000E+00  0.00000000E+00
  0.00000000E+00  0.00000000E+00  0.00000000E+00
  0.00000000E+00  0.00000000E+00  0.00000000E+00
  0.00000000E+00  0.00000000E+00  0.00000000E+00
  0.00000000E+00  0.00000000E+00  0.00000000E+00
  0.00000000E+00  0.00000000E+00  0.00000000E+00
  0.00000000E+00  0.00000000E+00  0.00000000E+00
  0.00000000E+00  0.00000000E+00  0.00000000E+00
  0.00000000E+00  0.00000000E+00  0.00000000E+00
  0.00000000E+00  0.00000000E+00  0.00000000E+00
  0.00000000E+00  0.00000000E+00  0.00000000E+00
  0.00000000E+00  0.00000000E+00  0.00000000E+00
  0.00000000E+00  0.00000000E+00  0.00000000E+00
  0.00000000E+00  0.00000000E+00  0.00000000E+00
  0.00000000E+00  0.00000000E+00  0.00000000E+00
  0.00000000E+00  0.00000000E+00  0.00000000E+00
  0.00000000E+00  0.00000000E+00  0.00000000E+00
  0.00000000E+00  0.00000000E+00  0.00000000E+00
  0.00000000E+00  0.00000000E+00  0.00000000E+00
  0.00000000E+00  0.00000000E+00  0.00000000E+00
  0.00000000E+00  0.00000000E+00  0.00000000E+00
  0.00000000E+00  0.00000000E+00  0.00000000E+00
  0.00000000E+00  0.00000000E+00  0.00000000E+00
  0.00000000E+00  0.00000000E+00  0.00000000E+00
  0.00000000E+00  0.00000000E+00  0.00000000E+00
  0.00000000E+00  0.00000000E+00  0.00000000E+00
  0.00000000E+00  0.00000000E+00  0.00000000E+00
  0.00000000E+00  0.00000000E+00  0.00000000E+00
  0.00000000E+00  0.00000000E+00  0.00000000E+00
  0.00000000E+00  0.00000000E+00  0.00000000E+00
  0.00000000E+00  0.00000000E+00  0.00000000E+00
  0.00000000E+00  0.00000000E+00  0.00000000E+00
  0.00000000E+00  0.00000000E+00  0.00000000E+00
  0.00000000E+00  0.00000000E+00  0.00000000E+00
  0.00000000E+00  0.00000000E+00  0.00000000E+00
  0.00000000E+00  0.00000000E+00  0.00000000E+00
  0.00000000E+00  0.00000000E+00  0.00000000E+00
  0.00000000E+00  0.00000000E+00  0.00000000E+00
  0.00000000E+00  0.00000000E+00  0.00000000E+00
  0.00000000E+00  0.00000000E+00  0.00000000E+00
  0.00000000E+00  0.00000000E+00  0.00000000E+00
  0.00000000E+00  0.00000000E+00  0.00000000E+00
  0.00000000E+00  0.00000000E+00  0.00000000E+00
  0.00000000E+00  0.00000000E+00  0.00000000E+00
  0.00000000E+00  0.00000000E+00  0.00000000E+00
  0.00000000E+00  0.00000000E+00  0.00000000E+00
  0.00000000E+00  0.00000000E+00  0.00000000E+00
  0.00000000E+00  0.00000000E+00  0.00000000E+00
  0.00000000E+00  0.00000000E+00  0.00000000E+00
  0.00000000E+00  0.00000000E+00  0.00000000E+00
  0.00000000E+00  0.00000000E+00  0.00000000E+00
  0.00000000E+00  0.00000000E+00  0.00000000E+00
  0.00000000E+00  0.00000000E+00  0.00000000E+00
  0.00000000E+00  0.00000000E+00  0.00000000E+00
  0.00000000E+00  0.00000000E+00  0.00000000E+00
  0.00000000E+00  0.00000000E+00  0.00000000E+00
  0.00000000E+00  0.00000000E+00  0.00000000E+00
  0.00000000E+00  0.00000000E+00  0.00000000E+00
  0.00000000E+00  0.00000000E+00  0.00000000E+00
  0.00000000E+00  0.00000000E+00  0.00000000E+00
  0.00000000E+00  0.00000000E+00  0.00000000E+00
  0.00000000E+00  0.00000000E+00  0.00000000E+00
  0.00000000E+00  0.00000000E+00  0.00000000E+00
  0.00000000E+00  0.00000000E+00  0.00000000E+00
  0.00000000E+00  0.00000000E+00  0.00000000E+00
  0.00000000E+00  0.00000000E+00  0.00000000E+00
  0.00000000E+00  0.00000000E+00  0.00000000E+00
  0.00000000E+00  0.00000000E+00  0.00000000E+00
  0.00000000E+00  0.00000000E+00  0.00000000E+00
  0.00000000E+00  0.00000000E+00  0.00000000E+00
  0.00000000E+00  0.00000000E+00  0.00000000E+00
  0.00000000E+00  0.00000000E+00  0.00000000E+00
  0.00000000E+00  0.00000000E+00  0.00000000E+00
  0.00000000E+00  0.00000000E+00  0.00000000E+00
  0.00000000E+00  0.00000000E+00  0.00000000E+00
  0.00000000E+00  0.00000000E+00  0.00000000E+00
  0.00000000E+00  0.00000000E+00  0.00000000E+00
  0.00000000E+00  0.00000000E+00  0.00000000E+00
  0.00000000E+00  0.00000000E+00  0.00000000E+00
  0.00000000E+00  0.00000000E+00  0.00000000E+00
  0.00000000E+00  0.00000000E+00  0.00000000E+00
  0.00000000E+00  0.00000000E+00  0.00000000E+00
  0.00000000E+00  0.00000000E+00  0.00000000E+00
  0.00000000E+00  0.00000000E+00  0.00000000E+00
  0.00000000E+00  0.00000000E+00  0.00000000E+00
  0.00000000E+00  0.00000000E+00  0.00000000E+00
  0.00000000E+00  0.00000000E+00  0.00000000E+00
  0.00000000E+00  0.00000000E+00  0.00000000E+00
  0.00000000E+00  0.00000000E+00  0.00000000E+00
  0.00000000E+00  0.00000000E+00  0.00000000E+00
  0.00000000E+00  0.00000000E+00  0.00000000E+00
  0.00000000E+00  0.00000000E+00  0.00000000E+00
  0.00000000E+00  0.00000000E+00  0.00000000E+00
  0.00000000E+00  0.00000000E+00  0.00000000E+00
  0.00000000E+00  0.00000000E+00  0.00000000E+00
  0.00000000E+00  0.00000000E+00  0.00000000E+00
  0.00000000E+00  0.00000000E+00  0.00000000E+00
  0.00000000E+00  0.00000000E+00  0.00000000E+00
  0.00000000E+00  0.00000000E+00  0.00000000E+00
  0.00000000E+00  0.00000000E+00  0.00000000E+00
  0.00000000E+00  0.00000000E+00  0.00000000E+00
  0.00000000E+00  0.00000000E+00  0.00000000E+00
  0.00000000E+00  0.00000000E+00  0.00000000E+00
  0.00000000E+00  0.00000000E+00  0.00000000E+00
  0.00000000E+00  0.00000000E+00  0.00000000E+00
  0.00000000E+00  0.00000000E+00  0.00000000E+00
  0.00000000E+00  0.00000000E+00  0.00000000E+00
  0.00000000E+00  0.00000000E+00  0.00000000E+00
  0.00000000E+00  0.00000000E+00  0.00000000E+00
  0.00000000E+00  0.00000000E+00  0.00000000E+00
  0.00000000E+00  0.00000000E+00  0.00000000E+00
  0.00000000E+00  0.00000000E+00  0.00000000E+00
  0.00000000E+00  0.00000000E+00  0.00000000E+00
  0.00000000E+00  0.00000000E+00  0.00000000E+00
  0.00000000E+00  0.00000000E+00  0.00000000E+00
  0.00000000E+00  0.00000000E+00  0.00000000E+00
  0.00000000E+00  0.00000000E+00  0.00000000E+00
  0.00000000E+00  0.00000000E+00  0.00000000E+00
  0.00000000E+00  0.00000000E+00  0.00000000E+00
  0.00000000E+00  0.00000000E+00  0.00000000E+00
  0.00000000E+00  0.00000000E+00  0.00000000E+00
  0.00000000E+00  0.00000000E+00  0.00000000E+00
  0.00000000E+00  0.00000000E+00  0.00000000E+00
  0.00000000E+00  0.00000000E+00  0.00000000E+00
  0.00000000E+00  0.00000000E+00  0.00000000E+00
  0.00000000E+00  0.00000000E+00  0.00000000E+00
  0.00000000E+00  0.00000000E+00  0.00000000E+00
  0.00000000E+00  0.00000000E+00  0.00000000E+00
  0.00000000E+00  0.00000000E+00  0.00000000E+00
  0.00000000E+00  0.00000000E+00  0.00000000E+00
  0.00000000E+00  0.00000000E+00  0.00000000E+00
  0.00000000E+00  0.00000000E+00  0.00000000E+00
  0.00000000E+00  0.00000000E+00  0.00000000E+00
  0.00000000E+00  0.00000000E+00  0.00000000E+00
  0.00000000E+00  0.00000000E+00  0.00000000E+00
  0.00000000E+00  0.00000000E+00  0.00000000E+00
  0.00000000E+00  0.00000000E+00  0.00000000E+00
  0.00000000E+00  0.00000000E+00  0.00000000E+00
  0.00000000E+00  0.00000000E+00  0.00000000E+00
  0.00000000E+00  0.00000000E+00  0.00000000E+00
  0.00000000E+00  0.00000000E+00  0.00000000E+00
  0.00000000E+00  0.00000000E+00  0.00000000E+00
  0.00000000E+00  0.00000000E+00  0.00000000E+00
  0.00000000E+00  0.00000000E+00  0.00000000E+00
  0.00000000E+00  0.00000000E+00  0.00000000E+00
  0.00000000E+00  0.00000000E+00  0.00000000E+00
  0.00000000E+00  0.00000000E+00  0.00000000E+00
  0.00000000E+00  0.00000000E+00  0.00000000E+00
  0.00000000E+00  0.00000000E+00  0.00000000E+00
  0.00000000E+00  0.00000000E+00  0.00000000E+00
  0.00000000E+00  0.00000000E+00  0.00000000E+00
  0.00000000E+00  0.00000000E+00  0.00000000E+00
  0.00000000E+00  0.00000000E+00  0.00000000E+00
  0.00000000E+00  0.00000000E+00  0.00000000E+00
  0.00000000E+00  0.00000000E+00  0.00000000E+00
  0.00000000E+00  0.00000000E+00  0.00000000E+00
  0.00000000E+00  0.00000000E+00  0.00000000E+00
  0.00000000E+00  0.00000000E+00  0.00000000E+00