 B Al N 
 1.0
 17.527899999999772   0.000000000000000   0.000000000000000
 -8.763949999999658  15.179606674993195   0.000000000000000
  0.000000000000001   0.000000000000002  15.000000000000000
 B Al N 
  47   1  49
Cartesian
  7.575918097454974  14.493846716070438   1.660115968059660 
 15.075426175135707   1.460104311383550   1.662051916166115 
 13.824084624500202   3.616557325836795   1.661565554258115 
 12.582587393680511   5.781505763844606   1.660151880744180 
 11.350400386502731   7.955705077546559   1.661317230158445 
 10.106112913161768  10.132854945752911   1.661812964010525 
  8.813775842694074  12.296307801384486   1.660867281837810 
 -7.463516424599095  14.477955907676099   1.660522201888635 
  0.055032338817563   1.470287629331497   1.661878134173100 
 -1.206961037745741   3.622955604866897   1.662844656904470 
 -2.466462276091290   5.787899023398087   1.660950650954700 
 -3.718635117213644   7.963338821417322   1.660255353690120 
 -4.961508131637892  10.140226147379940   1.661626393316625 
 -6.215225539510145  12.310943297325379   1.661403646167255 
 -4.969367056419820  14.481341382113888   1.660829480326140 
  2.553669798536725   1.476179792599338   1.660744436397480 
  1.296151585342308   3.635798897633138   1.661925678156750 
  0.017525793972368   5.789765671857022   1.660890395246415 
 -1.259962410261982   7.966603218339203   1.660381572569265 
 -2.502234794266589  10.144786307782001   1.660805422156005 
 -3.727724092776287  12.314128201426399   1.661012176915515 
 -2.474484161936447  14.477395507168112   1.660819359800880 
  5.048255826493262   1.465082585067817   1.661406891433320 
  3.811798290793160   3.653639826062457   1.661374236530490 
  2.517290062013683   5.807608502485189   1.660395815237040 
  1.179499143774898   7.979427822995111   1.660034989184670 
 -0.056496896338142  10.152908244099651   1.661006373230085 
 -1.240151626617554  12.316011790807044   1.661525983818210 
  0.029884300126947  14.464195537295090   1.661332781804850 
  7.555992943889088   1.444463459633504   1.661168192953080 
  6.321340540620109   3.600196944452381   1.662328803554055 
  5.114165214074704   5.740756080916651   1.662249741727890 
  2.387716360940776  10.099208316133433   1.661575776319095 
  1.267240053318463  12.296980120941772   1.662071514053610 
  2.523633981982897  14.485548001044231   1.661595444500340 
 10.060201821785165   1.444266054763369   1.660380203122035 
  8.837450899898464   3.583919678026553   1.661001852717705 
  7.643508847789944   5.715942581749649   1.662109003530900 
  6.518616065080182   7.852390341787009   1.661813445135480 
  3.759577153448931  12.361591632127071   1.661055428754510 
  5.050456830363689  14.485081770623220   1.660518884357640 
 12.566266869621291   1.452830186668499   1.660835505560925 
 11.330370857098220   3.605601376749834   1.660023653873775 
 10.108503980711795   5.764317622298753   1.660623849181110 
  8.903953289958594   7.935761662105026   1.661712541517805 
  7.644892900955544  10.093635316913350   1.661274011750865 
  6.323124118398823  12.359662998997008   1.660068789334800 
  5.001976376569133  10.060113321554805   1.663527092799480 
  8.814476491936663  13.746689590139926   1.660082321896320 
 16.335142232108716   0.751637204394152   1.661314537785330 
 15.075349461286370   2.900776252693798   1.662537354824400 
 13.822913576924375   5.059868891664398   1.660566979900890 
 12.578752984715901   7.226570141173724   1.660179174893640 
 11.334858871279778   9.401476784336637   1.661656374987345 
 10.066875511734555  11.576122417132057   1.661370147379140 
 -6.216540710827192  13.756336973386661   1.660521739342350 
  1.305507441537550   0.749865801737666   1.660477226345925 
  0.053705895172353   2.914178600628557   1.662590249429580 
 -1.215914513223004   5.065059904534231   1.661515085355540 
 -2.482832492180161   7.231932662334941   1.659971498739435 
 -3.729997342133633   9.408818759344490   1.660607784057585 
 -4.971409211894004  11.585164782505455   1.661254489584540 
 -3.723910706888371  13.759106091324970   1.660513516916505 
  3.799053873106623   0.752283670394116   1.660623409005630 
  2.562940332201795   2.936568968129228   1.660869211439220 
  1.288359654048484   5.081892240912589   1.661083814289855 
 -0.018631072501627   7.230174289977555   1.660087808187510 
 -1.272943531665573   9.411064923792480   1.660310327900190 
 -2.485527020867029  11.588706833454333   1.660946096426475 
 -1.227567426248208  13.756280411749980   1.661029957585485 
  6.295597955046389   0.744665060678142   1.660909282581735 
  5.055040861619409   2.924661634292770   1.661645686111890 
  3.828495166137849   5.151097340339597   1.661187798477195 
  2.428530017448953   7.243592794953945   1.658643545966040 
  1.156943244749020   9.409791846113070   1.660739163568875 
  0.003533701302003  11.589720551760930   1.661386255246125 
  1.280112049382072  13.742079877038446   1.661719092612525 
  8.803988432753298   0.728460501658220   1.660521676351620 
  7.566761463656128   2.891905714499036   1.661449334498520 
  6.344856933651162   5.066892352600991   1.662296321230785 
  3.608729757042800   7.883260087513882   1.657558643548365 
  3.514740003348379   9.220764465541627   1.660109588260470 
  2.521948364112184  11.556235762121306   1.661935565586855 
  3.772667654434805  13.787143959371125   1.660933857717930 
 11.307035013386406   0.738784193029581   1.660640638635180 
 10.077325437753908   2.881359578908651   1.659847129423545 
  8.863432039113505   5.020120167374600   1.661010696435210 
  7.683371192385381   7.136551040800683   1.661889057434985 
  6.478276948591669   9.215227651348474   1.660927776772155 
  5.039902261537470  11.752466791823833   1.660286751585960 
  6.325706248677625  13.787609463223541   1.659523126679205 
 13.820780127401205   0.741691055047749   1.660979849436120 
 12.575214481666890   2.892739346882089   1.660366117379145 
 11.340464934165624   5.048624094053596   1.659807170014560 
 10.118349992727826   7.209663085280893   1.660915208471970 
  8.878286445841312   9.379915686833614   1.661541946131915 
  7.556849459605707  11.551005090539666   1.660558406806140 
