Species order: X N B                    
   2.51242800000000     
     5.9449720136058266    0.0000000000000000    0.0000000000000000
    -2.9724860068029120    5.1484967885702053   -0.0000000000000001
     0.0000000000000000    0.0000000000000009    5.3101128803662583
   Si   N    B 
     1   143   144
Direct
  0.5555555555555571  0.4444444444444429  0.3750000000000000
  0.1110890530512339  0.0555422187057002  0.1252054168627268
  0.6111470591639065  0.5556274516608749  0.1268027544596998
  0.4444412562545322  0.0555538175734348  0.1254371451378772
  0.9444461824265874  0.5555587437454659  0.1254371451378772
  0.7777859281237676  0.0555596307285350  0.1250733955745437
  0.1111114938137445  0.7222224135735995  0.6245208531433983
  0.4444412562545322  0.7222207720144366  0.6245628548621212
  0.2777325657048491  0.2221819287232009  0.6247752877211671
  0.7778180712767236  0.7222674342951241  0.6247752877211671
  0.6111160296851280  0.2221819287232009  0.6247752877211671
  0.9444403692713359  0.2222140718762442  0.6249266044256441
  0.2777775864264339  0.7222224135735995  0.1254791468565846
  0.1110972144186195  0.2222152738759638  0.1251104537006200
  0.4444614631421937  0.2222562596178175  0.1258004461745097
  0.6111160296851280  0.7222674342951241  0.1252247122787623
  0.9444461824265874  0.7222207720144366  0.1254371451378772
  0.7777847261239358  0.2222152738759638  0.1251104537006200
  0.1111112429937037  0.8888887570062106  0.6244707409128250
  0.4444441806792854  0.8888887570062106  0.6244707409128250
  0.2777325657048491  0.3888839703149861  0.6247752877211529
  0.6111470591639065  0.3888529408362268  0.6231972455403032
  0.7777847261239358  0.8889027855814549  0.6248895462993604
  0.9444577812943428  0.3888801676788066  0.6247945831373178
  0.1110890530512339  0.3888801676788066  0.1252054168627268
  0.2777775864264339  0.8888885061861963  0.1254791468565846
  0.6111198323210036  0.8889109469486188  0.1252054168627268
  0.4443725483390996  0.3888529408362268  0.1268027544596998
  0.9444577812943428  0.8889109469486188  0.1252054168627268
  0.7778180712767236  0.3888839703149861  0.1252247122787623
  0.2777792279854889  0.5555587437454659  0.6245628548621212
  0.1110890530512339  0.0555422187057002  0.6247945831373178
  0.6111470591639065  0.5556274516608749  0.6231972455403032
  0.4444412562545322  0.0555538175734348  0.6245628548621212
  0.9444461824265874  0.5555587437454659  0.6245628548621212
  0.1111112429937037  0.5555558193206495  0.1255292590871692
  0.7777859281237676  0.0555596307285350  0.6249266044256441
  0.2777792279854889  0.0555538175734348  0.1254371451378772
  0.4444614631421937  0.5555385368577238  0.1258004461745097
  0.7777437403822769  0.5555385368577238  0.1258004461745097
  0.6111198323210036  0.0555422187057002  0.1252054168627268
  0.4444614631421937  0.5555385368577238  0.6241995538254904
  0.9444403692713359  0.0555596307285350  0.1250733955745437
  0.2777775864264339  0.7222224135735995  0.6245208531433983
  0.1110972144186195  0.2222152738759638  0.6248895462993604
  0.4444614631421937  0.2222562596178175  0.6241995538254904
  0.6111160296851280  0.7222674342951241  0.6247752877211529
  0.9444461824265874  0.7222207720144366  0.6245628548621212
  0.7777847261239358  0.2222152738759638  0.6248895462993604
  0.1111114938137445  0.7222224135735995  0.1254791468565846
  0.4444412562545322  0.7222207720144366  0.1254371451378772
  0.2777325657048562  0.2221819287232009  0.1252247122787623
  0.7778180712767236  0.7222674342951241  0.1252247122787623
  0.6111160296851280  0.2221819287232009  0.1252247122787623
  0.9444403692713359  0.2222140718762442  0.1250733955745437
  0.1110890530512339  0.3888801676788066  0.6247945831373178
  0.2777775864264339  0.8888885061861963  0.6245208531433983
  0.6111198323210036  0.8889109469486188  0.6247945831373178
  0.4443725483390996  0.3888529408362268  0.6231972455403032
  0.9444577812943428  0.8889109469486188  0.6247945831373178
  0.1111112429937037  0.8888887570062106  0.1255292590871692
  0.7778180712767236  0.3888839703149861  0.6247752877211671
  0.4444441806792854  0.8888887570062106  0.1255292590871692
  0.2777325657048562  0.3888839703149861  0.1252247122787623
  0.2777792279854889  0.5555587437454659  0.1254371451378772
  0.6111470591639065  0.3888529408362268  0.1268027544596998
  0.7777847261239358  0.8889027855814549  0.1251104537006200
  0.9444577812943428  0.3888801676788066  0.1252054168627268
  0.1111112429937037  0.5555558193206495  0.6244707409128250
  0.2777792279854889  0.0555538175734348  0.6245628548621212
  0.7777437403822769  0.5555385368577238  0.6241995538254904
  0.6111198323210036  0.0555422187057002  0.6247945831373178
  0.9444403692713359  0.0555596307285350  0.6249266044256441
  0.0543876987810845  0.1103342815031889  0.3750000000000000
  0.5563550310840494  0.6207099886166624  0.3750000000000000
  0.3878142826393587  0.1089618986120665  0.3750000000000000
  0.8910381013879326  0.6121857173605845  0.3750000000000000
  0.7226132493887186  0.1103342815031889  0.3750000000000000
  0.0555533148587108  0.7777799171765563  0.8750000000000000
  0.3888932689845683  0.7777799171765563  0.8750000000000000
  0.2222302337344728  0.2777817835339135  0.8750000000000000
  0.7222182164660097  0.7777697662655088  0.8750000000000000
  0.5555447837902244  0.2777778005724071  0.8750000000000000
  0.8888857569427876  0.2777791778204785  0.8750000000000000
  0.2222222222222214  0.7777777777777786  0.3750000000000000
  0.0543876987810845  0.2773867506112219  0.3750000000000000
  0.3792900113832383  0.2689783758006234  0.3750000000000000
  0.5552653072382979  0.7815700616716937  0.3750000000000000
  0.8929714211001242  0.7815700616717932  0.3750000000000000
  0.7241008950077475  0.2758991049923019  0.3750000000000000
  0.0555581207843136  0.9444418792156628  0.8750000000000000
  0.3888932689845683  0.9444466851411955  0.8750000000000000
  0.2222249908184533  0.4444447221262656  0.8750000000000000
  0.5555555555555571  0.4444444444444429  0.8750000000000000
  0.7222208221794718  0.9444399124555821  0.8750000000000000
  0.8888863979744940  0.4444447221262656  0.8750000000000000
  0.0557174903291147  0.4447683139915734  0.3750000000000000
  0.2218752218808671  0.9435164135519626  0.3750000000000000
  0.5552316860085521  0.9442825096708277  0.3750000000000000
  0.3792900113832383  0.4436449689159164  0.3750000000000000
  0.8896657184969584  0.9456123012188444  0.3750000000000000
  0.7310216241991285  0.4436449689159164  0.3750000000000000
  0.2222200828234062  0.6111067310153326  0.8750000000000000
  0.0555600875443336  0.1111142430571560  0.8750000000000000
  0.5555447837902244  0.6111003165510264  0.8750000000000000
  0.3888934640805881  0.1111202614946382  0.8750000000000000
  0.8888797385054740  0.6111065359192559  0.8750000000000000
  0.0564835864479776  0.6116921416622481  0.3750000000000000
  0.7222208221794718  0.1111142430571560  0.8750000000000000
  0.2184299383282405  0.1070285788998239  0.3750000000000000
  0.3878142826393587  0.6121857173605845  0.3750000000000000
  0.7310216241991285  0.6207099886166624  0.3750000000000000
  0.5552653072382979  0.1070285788998239  0.3750000000000000
  0.3888934640805881  0.6111065359192559  0.8750000000000000
  0.8888888888888857  0.1111111111111143  0.3750000000000000
  0.2222222222222214  0.7777777777777786  0.8750000000000000
  0.0555600875443336  0.2777791778204785  0.8750000000000000
  0.3888996834487682  0.2777778005724071  0.8750000000000000
  0.5555552778736579  0.7777750091815879  0.8750000000000000
  0.8888863979744940  0.7777750091815879  0.8750000000000000
  0.7222182164660097  0.2777817835339135  0.8750000000000000
  0.0564835864479705  0.7781247781191957  0.3750000000000000
  0.3883078583378692  0.7781247781191957  0.3750000000000000
  0.2184648766512393  0.2758991049923019  0.3750000000000000
  0.7241008950077475  0.7815351233487249  0.3750000000000000
  0.5563550310840494  0.2689783758006234  0.3750000000000000
  0.8896657184969584  0.2773867506112219  0.3750000000000000
  0.0555581207843136  0.4444495749019571  0.8750000000000000
  0.2222200828234062  0.9444466851411955  0.8750000000000000
  0.5555504250980123  0.9444418792156628  0.8750000000000000
  0.3888996834487682  0.4444552162097041  0.8750000000000000
  0.8888857569427876  0.9444399124555821  0.8750000000000000
  0.0557174903291218  0.9442825096708277  0.3750000000000000
  0.7222221994276105  0.4444552162097041  0.8750000000000000
  0.3883078583378692  0.9435164135519626  0.3750000000000000
  0.2184299383282405  0.4447346927616741  0.3750000000000000
  0.2218752218808671  0.6116921416622481  0.3750000000000000
  0.7226132493887186  0.9456123012188444  0.3750000000000000
  0.8929714211001242  0.4447346927616741  0.3750000000000000
  0.0555533148587108  0.6111067310153326  0.8750000000000000
  0.2222249908184533  0.1111136020254528  0.8750000000000000
  0.7222221994276105  0.6111003165510264  0.8750000000000000
  0.5555552778736579  0.1111136020254528  0.8750000000000000
  0.8888888888888857  0.1111111111111143  0.8750000000000000
  0.1087473956383793  0.0537788214594783  0.3750000000000000
  0.6245233480007736  0.5823800293343687  0.3750000000000000
  0.4438642471306857  0.0536749216439973  0.3750000000000000
  0.9463250783559104  0.5561357528691983  0.3750000000000000
  0.7782796507289781  0.0558064920311113  0.3750000000000000
  0.1111042722362747  0.7222188027847534  0.8750000000000000
  0.4444306020907786  0.7222315582031202  0.8750000000000000
  0.2777491914398930  0.2222063658399328  0.8750000000000000
  0.7777936341600226  0.7222508085600716  0.8750000000000000
  0.6111238410666993  0.2222063658399328  0.8750000000000000
  0.9444456888486612  0.2222247110306549  0.8750000000000000
  0.2775299585919995  0.7224700414081687  0.3750000000000000
  0.1083527863053146  0.2208430598193717  0.3750000000000000
  0.4428032880180449  0.2189399093695402  0.3750000000000000
  0.6127268686814771  0.7301932330356008  0.3750000000000000
  0.9463250783559104  0.7235226588200964  0.3750000000000000
  0.7791569401807847  0.2208430598193717  0.3750000000000000
  0.1111101646608964  0.8888898353391220  0.8750000000000000
  0.4444463373448576  0.8888898353391220  0.8750000000000000
  0.2777491914398930  0.3888761589332947  0.8750000000000000
  0.6111370070254520  0.3888629929745266  0.8750000000000000
  0.7777896889732079  0.8889127112797692  0.8750000000000000
  0.9444588866490548  0.3888768657394683  0.8750000000000000
  0.1087473956383793  0.3883019075122280  0.3750000000000000
  0.2775299585919995  0.8883932505173205  0.3750000000000000
  0.6116980924875666  0.8912526043616077  0.3750000000000000
  0.4176199706654046  0.3754766519994799  0.3750000000000000
  0.9462211785404691  0.8912526043616077  0.3750000000000000
  0.7841330310209241  0.3872731313185794  0.3750000000000000
  0.2777684417969636  0.5555693979092996  0.8750000000000000
  0.1110846457569396  0.0555411133508586  0.8750000000000000
  0.6111370070254520  0.5556073473842754  0.8750000000000000
  0.4444306020907786  0.0555323772211074  0.8750000000000000
  0.9444676227788299  0.5555693979092996  0.8750000000000000
  0.1112525436695117  0.5558384206721807  0.3750000000000000
  0.7777752889692855  0.0555543111513407  0.8750000000000000
  0.2764773411799487  0.0536749216439973  0.3750000000000000
  0.4428032880180449  0.5571967119819677  0.3750000000000000
  0.7810600906305745  0.5571967119819677  0.3750000000000000
  0.6116980924875666  0.0537788214594783  0.3750000000000000
  0.4444299231815251  0.5555700768183452  0.8750000000000000
  0.9441935079688755  0.0558064920311113  0.3750000000000000
  0.2777811972152224  0.7222188027847534  0.8750000000000000
  0.1110872887201671  0.2222103110267658  0.8750000000000000
  0.4444299231815251  0.2221931796964152  0.8750000000000000
  0.6111238410666993  0.7222508085600716  0.8750000000000000
  0.9444676227788299  0.7222315582031202  0.8750000000000000
  0.7777896889732079  0.2222103110267658  0.8750000000000000
  0.1116067494828108  0.7224700414081687  0.3750000000000000
  0.4438642471306857  0.7235226588200964  0.3750000000000000
  0.2698067669642176  0.2158669689790926  0.3750000000000000
  0.7841330310209241  0.7301932330356008  0.3750000000000000
  0.6127268686814771  0.2158669689790926  0.3750000000000000
  0.9441935079688755  0.2217203492710916  0.3750000000000000
  0.1110846457569396  0.3888768657394683  0.8750000000000000
  0.2777811972152224  0.8888957277637806  0.8750000000000000
  0.6111231342605354  0.8889153542431878  0.8750000000000000
  0.4443926526157801  0.3888629929745266  0.8750000000000000
  0.9444588866490548  0.8889153542431878  0.8750000000000000
  0.1112525436695117  0.8887474563305006  0.3750000000000000
  0.7777936341600084  0.3888761589332947  0.8750000000000000
  0.4441615793277122  0.8887474563305006  0.3750000000000000
  0.2698067669642176  0.3872731313185794  0.3750000000000000
  0.2764773411799487  0.5561357528691983  0.3750000000000000
  0.6245233480007736  0.3754766519994799  0.3750000000000000
  0.7791569401807847  0.8916472136946387  0.3750000000000000
  0.9462211785404691  0.3883019075122280  0.3750000000000000
  0.1111101646608964  0.5555536626550538  0.8750000000000000
  0.2777684417969636  0.0555323772211074  0.8750000000000000
  0.7778068203036212  0.5555700768183452  0.8750000000000000
  0.6111231342605354  0.0555411133508586  0.8750000000000000
  0.9444456888486612  0.0555543111513407  0.8750000000000000
  0.0555028838744331  0.1110505273373059  0.1250981484631456
  0.5555830262869754  0.6113222110649620  0.1256540550666920
  0.3888099349271001  0.1109532031874832  0.1254480862294102
  0.8890467968124641  0.6111900650729067  0.1254480862294102
  0.7222143101295583  0.1110505273373059  0.1250981484631456
  0.0555792645426129  0.7777655322977587  0.6245335873912731
  0.3888529344219033  0.7777655322977587  0.6245335873912731
  0.2221390799385309  0.2777362066359325  0.6249197420209230
  0.7222637933641207  0.7778609200614708  0.6249197420209230
  0.5555830262869754  0.2775941485552436  0.6243459449333411
  0.8889494726627009  0.2777856898704986  0.6249018515368950
  0.2222222222222214  0.7777777777777786  0.1254489346573777
  0.0555028838744331  0.2777856898704986  0.1250981484631456
  0.3886777889349438  0.2775941485552436  0.1256540550666920
  0.5555487362490538  0.7778597139490300  0.1251889134372914
  0.8889776443667278  0.7778597139490300  0.1251889134372914
  0.7222637933641207  0.2777362066359325  0.1250802579789704
  0.0555395709757215  0.9444604290242135  0.6246942718520798
  0.3888529344219033  0.9444207354575540  0.6245335873912731
  0.2221402860508920  0.4444512637509495  0.6248110865627466
  0.5555555555555571  0.4444444444444429  0.6238122280191269
  0.7222143101295583  0.9444971161254002  0.6249018515368950
  0.8889776443667278  0.4444512637509495  0.6248110865627466
  0.0555395709757215  0.4444124752848505  0.1253057281479560
  0.2222344677021817  0.9444207354575540  0.1254664126087452
  0.5555875247151977  0.9444604290242135  0.1253057281479560
  0.3886777889349438  0.4444169737129877  0.1256540550666920
  0.8889494726627009  0.9444971161254002  0.1250981484631456
  0.7224058514446834  0.4444169737129877  0.1256540550666920
  0.2222344677021817  0.6111470655781249  0.6245335873912731
  0.0555028838744331  0.1110505273373059  0.6249018515368950
  0.5555830262869754  0.6113222110649620  0.6243459449333411
  0.3888099349271001  0.1109532031874832  0.6245519137706019
  0.8890467968124641  0.6111900650729067  0.6245519137706019
  0.0555792645426129  0.6111470655781249  0.1254664126087452
  0.7222143101295583  0.1110505273373059  0.6249018515368950
  0.2221402860508920  0.1110223556332915  0.1251889134372914
  0.3888099349271001  0.6111900650729067  0.1254480862294102
  0.7224058514446834  0.6113222110649620  0.1256540550666920
  0.5555487362490538  0.1110223556332915  0.1251889134372914
  0.3888099349271001  0.6111900650729067  0.6245519137706019
  0.8888888888888857  0.1111111111111143  0.1250415061149387
  0.2222222222222214  0.7777777777777786  0.6245510653424157
  0.0555028838744331  0.2777856898704986  0.6249018515368950
  0.3886777889349509  0.2775941485552436  0.6243459449333411
  0.5555487362490538  0.7778597139490300  0.6248110865627466
  0.8889776443667278  0.7778597139490300  0.6248110865627466
  0.7222637933641207  0.2777362066359325  0.6249197420209230
  0.0555792645426129  0.7777655322977587  0.1254664126087452
  0.3888529344219104  0.7777655322977587  0.1254664126087452
  0.2221390799385309  0.2777362066359325  0.1250802579789704
  0.7222637933641207  0.7778609200614708  0.1250802579789704
  0.5555830262869754  0.2775941485552436  0.1256540550666920
  0.8889494726627009  0.2777856898704986  0.1250981484631456
  0.0555395709757215  0.4444124752848505  0.6246942718520798
  0.2222344677021817  0.9444207354575540  0.6245335873912731
  0.5555875247151977  0.9444604290242135  0.6246942718520798
  0.3886777889349509  0.4444169737129877  0.6243459449333411
  0.8889494726627009  0.9444971161254002  0.6249018515368950
  0.0555395709757215  0.9444604290242135  0.1253057281479560
  0.7224058514446834  0.4444169737129877  0.6243459449333411
  0.3888529344219033  0.9444207354575540  0.1254664126087452
  0.2221402860508920  0.4444512637509495  0.1251889134372914
  0.2222344677021817  0.6111470655781249  0.1254664126087452
  0.5555555555555571  0.4444444444444429  0.1261877719808718
  0.7222143101295583  0.9444971161254002  0.1250981484631456
  0.8889776443667278  0.4444512637509495  0.1251889134372914
  0.0555792645426129  0.6111470655781249  0.6245335873912731
  0.2221402860508920  0.1110223556332915  0.6248110865627466
  0.7224058514446834  0.6113222110649620  0.6243459449333411
  0.5555487362490538  0.1110223556332915  0.6248110865627466
  0.8888888888888857  0.1111111111111143  0.6249584938851870
 
  0.00000000E+00  0.00000000E+00  0.00000000E+00
  0.00000000E+00  0.00000000E+00  0.00000000E+00
  0.00000000E+00  0.00000000E+00  0.00000000E+00
  0.00000000E+00  0.00000000E+00  0.00000000E+00
  0.00000000E+00  0.00000000E+00  0.00000000E+00
  0.00000000E+00  0.00000000E+00  0.00000000E+00
  0.00000000E+00  0.00000000E+00  0.00000000E+00
  0.00000000E+00  0.00000000E+00  0.00000000E+00
  0.00000000E+00  0.00000000E+00  0.00000000E+00
  0.00000000E+00  0.00000000E+00  0.00000000E+00
  0.00000000E+00  0.00000000E+00  0.00000000E+00
  0.00000000E+00  0.00000000E+00  0.00000000E+00
  0.00000000E+00  0.00000000E+00  0.00000000E+00
  0.00000000E+00  0.00000000E+00  0.00000000E+00
  0.00000000E+00  0.00000000E+00  0.00000000E+00
  0.00000000E+00  0.00000000E+00  0.00000000E+00
  0.00000000E+00  0.00000000E+00  0.00000000E+00
  0.00000000E+00  0.00000000E+00  0.00000000E+00
  0.00000000E+00  0.00000000E+00  0.00000000E+00
  0.00000000E+00  0.00000000E+00  0.00000000E+00
  0.00000000E+00  0.00000000E+00  0.00000000E+00
  0.00000000E+00  0.00000000E+00  0.00000000E+00
  0.00000000E+00  0.00000000E+00  0.00000000E+00
  0.00000000E+00  0.00000000E+00  0.00000000E+00
  0.00000000E+00  0.00000000E+00  0.00000000E+00
  0.00000000E+00  0.00000000E+00  0.00000000E+00
  0.00000000E+00  0.00000000E+00  0.00000000E+00
  0.00000000E+00  0.00000000E+00  0.00000000E+00
  0.00000000E+00  0.00000000E+00  0.00000000E+00
  0.00000000E+00  0.00000000E+00  0.00000000E+00
  0.00000000E+00  0.00000000E+00  0.00000000E+00
  0.00000000E+00  0.00000000E+00  0.00000000E+00
  0.00000000E+00  0.00000000E+00  0.00000000E+00
  0.00000000E+00  0.00000000E+00  0.00000000E+00
  0.00000000E+00  0.00000000E+00  0.00000000E+00
  0.00000000E+00  0.00000000E+00  0.00000000E+00
  0.00000000E+00  0.00000000E+00  0.00000000E+00
  0.00000000E+00  0.00000000E+00  0.00000000E+00
  0.00000000E+00  0.00000000E+00  0.00000000E+00
  0.00000000E+00  0.00000000E+00  0.00000000E+00
  0.00000000E+00  0.00000000E+00  0.00000000E+00
  0.00000000E+00  0.00000000E+00  0.00000000E+00
  0.00000000E+00  0.00000000E+00  0.00000000E+00
  0.00000000E+00  0.00000000E+00  0.00000000E+00
  0.00000000E+00  0.00000000E+00  0.00000000E+00
  0.00000000E+00  0.00000000E+00  0.00000000E+00
  0.00000000E+00  0.00000000E+00  0.00000000E+00
  0.00000000E+00  0.00000000E+00  0.00000000E+00
  0.00000000E+00  0.00000000E+00  0.00000000E+00
  0.00000000E+00  0.00000000E+00  0.00000000E+00
  0.00000000E+00  0.00000000E+00  0.00000000E+00
  0.00000000E+00  0.00000000E+00  0.00000000E+00
  0.00000000E+00  0.00000000E+00  0.00000000E+00
  0.00000000E+00  0.00000000E+00  0.00000000E+00
  0.00000000E+00  0.00000000E+00  0.00000000E+00
  0.00000000E+00  0.00000000E+00  0.00000000E+00
  0.00000000E+00  0.00000000E+00  0.00000000E+00
  0.00000000E+00  0.00000000E+00  0.00000000E+00
  0.00000000E+00  0.00000000E+00  0.00000000E+00
  0.00000000E+00  0.00000000E+00  0.00000000E+00
  0.00000000E+00  0.00000000E+00  0.00000000E+00
  0.00000000E+00  0.00000000E+00  0.00000000E+00
  0.00000000E+00  0.00000000E+00  0.00000000E+00
  0.00000000E+00  0.00000000E+00  0.00000000E+00
  0.00000000E+00  0.00000000E+00  0.00000000E+00
  0.00000000E+00  0.00000000E+00  0.00000000E+00
  0.00000000E+00  0.00000000E+00  0.00000000E+00
  0.00000000E+00  0.00000000E+00  0.00000000E+00
  0.00000000E+00  0.00000000E+00  0.00000000E+00
  0.00000000E+00  0.00000000E+00  0.00000000E+00
  0.00000000E+00  0.00000000E+00  0.00000000E+00
  0.00000000E+00  0.00000000E+00  0.00000000E+00
  0.00000000E+00  0.00000000E+00  0.00000000E+00
  0.00000000E+00  0.00000000E+00  0.00000000E+00
  0.00000000E+00  0.00000000E+00  0.00000000E+00
  0.00000000E+00  0.00000000E+00  0.00000000E+00
  0.00000000E+00  0.00000000E+00  0.00000000E+00
  0.00000000E+00  0.00000000E+00  0.00000000E+00
  0.00000000E+00  0.00000000E+00  0.00000000E+00
  0.00000000E+00  0.00000000E+00  0.00000000E+00
  0.00000000E+00  0.00000000E+00  0.00000000E+00
  0.00000000E+00  0.00000000E+00  0.00000000E+00
  0.00000000E+00  0.00000000E+00  0.00000000E+00
  0.00000000E+00  0.00000000E+00  0.00000000E+00
  0.00000000E+00  0.00000000E+00  0.00000000E+00
  0.00000000E+00  0.00000000E+00  0.00000000E+00
  0.00000000E+00  0.00000000E+00  0.00000000E+00
  0.00000000E+00  0.00000000E+00  0.00000000E+00
  0.00000000E+00  0.00000000E+00  0.00000000E+00
  0.00000000E+00  0.00000000E+00  0.00000000E+00
  0.00000000E+00  0.00000000E+00  0.00000000E+00
  0.00000000E+00  0.00000000E+00  0.00000000E+00
  0.00000000E+00  0.00000000E+00  0.00000000E+00
  0.00000000E+00  0.00000000E+00  0.00000000E+00
  0.00000000E+00  0.00000000E+00  0.00000000E+00
  0.00000000E+00  0.00000000E+00  0.00000000E+00
  0.00000000E+00  0.00000000E+00  0.00000000E+00
  0.00000000E+00  0.00000000E+00  0.00000000E+00
  0.00000000E+00  0.00000000E+00  0.00000000E+00
  0.00000000E+00  0.00000000E+00  0.00000000E+00
  0.00000000E+00  0.00000000E+00  0.00000000E+00
  0.00000000E+00  0.00000000E+00  0.00000000E+00
  0.00000000E+00  0.00000000E+00  0.00000000E+00
  0.00000000E+00  0.00000000E+00  0.00000000E+00
  0.00000000E+00  0.00000000E+00  0.00000000E+00
  0.00000000E+00  0.00000000E+00  0.00000000E+00
  0.00000000E+00  0.00000000E+00  0.00000000E+00
  0.00000000E+00  0.00000000E+00  0.00000000E+00
  0.00000000E+00  0.00000000E+00  0.00000000E+00
  0.00000000E+00  0.00000000E+00  0.00000000E+00
  0.00000000E+00  0.00000000E+00  0.00000000E+00
  0.00000000E+00  0.00000000E+00  0.00000000E+00
  0.00000000E+00  0.00000000E+00  0.00000000E+00
  0.00000000E+00  0.00000000E+00  0.00000000E+00
  0.00000000E+00  0.00000000E+00  0.00000000E+00
  0.00000000E+00  0.00000000E+00  0.00000000E+00
  0.00000000E+00  0.00000000E+00  0.00000000E+00
  0.00000000E+00  0.00000000E+00  0.00000000E+00
  0.00000000E+00  0.00000000E+00  0.00000000E+00
  0.00000000E+00  0.00000000E+00  0.00000000E+00
  0.00000000E+00  0.00000000E+00  0.00000000E+00
  0.00000000E+00  0.00000000E+00  0.00000000E+00
  0.00000000E+00  0.00000000E+00  0.00000000E+00
  0.00000000E+00  0.00000000E+00  0.00000000E+00
  0.00000000E+00  0.00000000E+00  0.00000000E+00
  0.00000000E+00  0.00000000E+00  0.00000000E+00
  0.00000000E+00  0.00000000E+00  0.00000000E+00
  0.00000000E+00  0.00000000E+00  0.00000000E+00
  0.00000000E+00  0.00000000E+00  0.00000000E+00
  0.00000000E+00  0.00000000E+00  0.00000000E+00
  0.00000000E+00  0.00000000E+00  0.00000000E+00
  0.00000000E+00  0.00000000E+00  0.00000000E+00
  0.00000000E+00  0.00000000E+00  0.00000000E+00
  0.00000000E+00  0.00000000E+00  0.00000000E+00
  0.00000000E+00  0.00000000E+00  0.00000000E+00
  0.00000000E+00  0.00000000E+00  0.00000000E+00
  0.00000000E+00  0.00000000E+00  0.00000000E+00
  0.00000000E+00  0.00000000E+00  0.00000000E+00
  0.00000000E+00  0.00000000E+00  0.00000000E+00
  0.00000000E+00  0.00000000E+00  0.00000000E+00
  0.00000000E+00  0.00000000E+00  0.00000000E+00
  0.00000000E+00  0.00000000E+00  0.00000000E+00
  0.00000000E+00  0.00000000E+00  0.00000000E+00
  0.00000000E+00  0.00000000E+00  0.00000000E+00
  0.00000000E+00  0.00000000E+00  0.00000000E+00
  0.00000000E+00  0.00000000E+00  0.00000000E+00
  0.00000000E+00  0.00000000E+00  0.00000000E+00
  0.00000000E+00  0.00000000E+00  0.00000000E+00
  0.00000000E+00  0.00000000E+00  0.00000000E+00
  0.00000000E+00  0.00000000E+00  0.00000000E+00
  0.00000000E+00  0.00000000E+00  0.00000000E+00
  0.00000000E+00  0.00000000E+00  0.00000000E+00
  0.00000000E+00  0.00000000E+00  0.00000000E+00
  0.00000000E+00  0.00000000E+00  0.00000000E+00
  0.00000000E+00  0.00000000E+00  0.00000000E+00
  0.00000000E+00  0.00000000E+00  0.00000000E+00
  0.00000000E+00  0.00000000E+00  0.00000000E+00
  0.00000000E+00  0.00000000E+00  0.00000000E+00
  0.00000000E+00  0.00000000E+00  0.00000000E+00
  0.00000000E+00  0.00000000E+00  0.00000000E+00
  0.00000000E+00  0.00000000E+00  0.00000000E+00
  0.00000000E+00  0.00000000E+00  0.00000000E+00
  0.00000000E+00  0.00000000E+00  0.00000000E+00
  0.00000000E+00  0.00000000E+00  0.00000000E+00
  0.00000000E+00  0.00000000E+00  0.00000000E+00
  0.00000000E+00  0.00000000E+00  0.00000000E+00
  0.00000000E+00  0.00000000E+00  0.00000000E+00
  0.00000000E+00  0.00000000E+00  0.00000000E+00
  0.00000000E+00  0.00000000E+00  0.00000000E+00
  0.00000000E+00  0.00000000E+00  0.00000000E+00
  0.00000000E+00  0.00000000E+00  0.00000000E+00
  0.00000000E+00  0.00000000E+00  0.00000000E+00
  0.00000000E+00  0.00000000E+00  0.00000000E+00
  0.00000000E+00  0.00000000E+00  0.00000000E+00
  0.00000000E+00  0.00000000E+00  0.00000000E+00
  0.00000000E+00  0.00000000E+00  0.00000000E+00
  0.00000000E+00  0.00000000E+00  0.00000000E+00
  0.00000000E+00  0.00000000E+00  0.00000000E+00
  0.00000000E+00  0.00000000E+00  0.00000000E+00
  0.00000000E+00  0.00000000E+00  0.00000000E+00
  0.00000000E+00  0.00000000E+00  0.00000000E+00
  0.00000000E+00  0.00000000E+00  0.00000000E+00
  0.00000000E+00  0.00000000E+00  0.00000000E+00
  0.00000000E+00  0.00000000E+00  0.00000000E+00
  0.00000000E+00  0.00000000E+00  0.00000000E+00
  0.00000000E+00  0.00000000E+00  0.00000000E+00
  0.00000000E+00  0.00000000E+00  0.00000000E+00
  0.00000000E+00  0.00000000E+00  0.00000000E+00
  0.00000000E+00  0.00000000E+00  0.00000000E+00
  0.00000000E+00  0.00000000E+00  0.00000000E+00
  0.00000000E+00  0.00000000E+00  0.00000000E+00
  0.00000000E+00  0.00000000E+00  0.00000000E+00
  0.00000000E+00  0.00000000E+00  0.00000000E+00
  0.00000000E+00  0.00000000E+00  0.00000000E+00
  0.00000000E+00  0.00000000E+00  0.00000000E+00
  0.00000000E+00  0.00000000E+00  0.00000000E+00
  0.00000000E+00  0.00000000E+00  0.00000000E+00
  0.00000000E+00  0.00000000E+00  0.00000000E+00
  0.00000000E+00  0.00000000E+00  0.00000000E+00
  0.00000000E+00  0.00000000E+00  0.00000000E+00
  0.00000000E+00  0.00000000E+00  0.00000000E+00
  0.00000000E+00  0.00000000E+00  0.00000000E+00
  0.00000000E+00  0.00000000E+00  0.00000000E+00
  0.00000000E+00  0.00000000E+00  0.00000000E+00
  0.00000000E+00  0.00000000E+00  0.00000000E+00
  0.00000000E+00  0.00000000E+00  0.00000000E+00
  0.00000000E+00  0.00000000E+00  0.00000000E+00
  0.00000000E+00  0.00000000E+00  0.00000000E+00
  0.00000000E+00  0.00000000E+00  0.00000000E+00
  0.00000000E+00  0.00000000E+00  0.00000000E+00
  0.00000000E+00  0.00000000E+00  0.00000000E+00
  0.00000000E+00  0.00000000E+00  0.00000000E+00
  0.00000000E+00  0.00000000E+00  0.00000000E+00
  0.00000000E+00  0.00000000E+00  0.00000000E+00
  0.00000000E+00  0.00000000E+00  0.00000000E+00
  0.00000000E+00  0.00000000E+00  0.00000000E+00
  0.00000000E+00  0.00000000E+00  0.00000000E+00
  0.00000000E+00  0.00000000E+00  0.00000000E+00
  0.00000000E+00  0.00000000E+00  0.00000000E+00
  0.00000000E+00  0.00000000E+00  0.00000000E+00
  0.00000000E+00  0.00000000E+00  0.00000000E+00
  0.00000000E+00  0.00000000E+00  0.00000000E+00
  0.00000000E+00  0.00000000E+00  0.00000000E+00
  0.00000000E+00  0.00000000E+00  0.00000000E+00
  0.00000000E+00  0.00000000E+00  0.00000000E+00
  0.00000000E+00  0.00000000E+00  0.00000000E+00
  0.00000000E+00  0.00000000E+00  0.00000000E+00
  0.00000000E+00  0.00000000E+00  0.00000000E+00
  0.00000000E+00  0.00000000E+00  0.00000000E+00
  0.00000000E+00  0.00000000E+00  0.00000000E+00
  0.00000000E+00  0.00000000E+00  0.00000000E+00
  0.00000000E+00  0.00000000E+00  0.00000000E+00
  0.00000000E+00  0.00000000E+00  0.00000000E+00
  0.00000000E+00  0.00000000E+00  0.00000000E+00
  0.00000000E+00  0.00000000E+00  0.00000000E+00
  0.00000000E+00  0.00000000E+00  0.00000000E+00
  0.00000000E+00  0.00000000E+00  0.00000000E+00
  0.00000000E+00  0.00000000E+00  0.00000000E+00
  0.00000000E+00  0.00000000E+00  0.00000000E+00
  0.00000000E+00  0.00000000E+00  0.00000000E+00
  0.00000000E+00  0.00000000E+00  0.00000000E+00
  0.00000000E+00  0.00000000E+00  0.00000000E+00
  0.00000000E+00  0.00000000E+00  0.00000000E+00
  0.00000000E+00  0.00000000E+00  0.00000000E+00
  0.00000000E+00  0.00000000E+00  0.00000000E+00
  0.00000000E+00  0.00000000E+00  0.00000000E+00
  0.00000000E+00  0.00000000E+00  0.00000000E+00