Species order: X N B                    
   2.51242800000000     
     5.9449720136058266    0.0000000000000000    0.0000000000000000
    -2.9724860068029120    5.1484967885702053   -0.0000000000000001
     0.0000000000000000    0.0000000000000009    5.3101128803662583
   C    N    B 
     1   143   143
Direct
  0.4444971565449906  0.3889152449391597  0.3750000000000000
  0.1111234010043998  0.0555446979491449  0.1252754060582569
  0.6110915320516239  0.5555373894567260  0.1272151422900354
  0.4444217615825622  0.0555428651009388  0.1254120072010450
  0.9444588126256135  0.5555716219533061  0.1252878114701368
  0.7777681056491068  0.0555507194912198  0.1251523564946031
  0.1111178934202584  0.7222256133767954  0.6248364158537544
  0.4444217615825622  0.7222122298149591  0.6245879927989528
  0.2778009365254661  0.2222268656714526  0.6243263828979078
  0.7777760750986643  0.7222020194232790  0.6243052085344443
  0.6110897085573553  0.2222201859043205  0.6242789075537530
  0.9444558285849823  0.2222382864316227  0.6248218346821180
  0.2777683238740573  0.7222246700300716  0.1251931227624124
  0.1111358374989503  0.2222345854161399  0.1253410277863309
  0.4444319320461669  0.2222269152127360  0.1261313666039510
  0.6110897085573553  0.7222028559863650  0.1257210924462463
  0.9444588126256135  0.7222205240056397  0.1252878114701368
  0.7777709383189806  0.2222329616280504  0.1252193269134070
  0.1111172735568202  0.8888769940704616  0.6248132680537815
  0.4444192526401507  0.8888762929867381  0.6248130429614297
  0.2778009365254661  0.3889074041873421  0.6243263828979078
  0.6110915320516239  0.3888874759282289  0.6227848577099612
  0.7777709383189806  0.8888713100242561  0.6247806730865890
  0.9444549013854564  0.3889126452199985  0.6248194429637021
  0.1111234010043998  0.3889120363885825  0.1252754060582569
  0.2777683238740573  0.8888769871773161  0.1251931227624124
  0.6110848297433668  0.8888739677225624  0.1251891345790249
  0.4444232904708461  0.3888783119020898  0.1257135021143843
  0.9444549013854564  0.8888755894987924  0.1251805570362984
  0.7777760750986643  0.3889073890087150  0.1256947914655589
  0.2777765553248299  0.5555688759380475  0.6245800281607223
  0.1111234010043998  0.0555446979491449  0.6247245939417427
  0.6110915320516239  0.5555373894567260  0.6227848577099612
  0.4444217615825622  0.0555428651009388  0.6245879927989528
  0.9444588126256135  0.5555716219533061  0.6247121885298655
  0.1111172735568202  0.5555736128196903  0.1251867319462192
  0.7777681056491068  0.0555507194912198  0.6248476435054005
  0.2777765553248299  0.0555410127201193  0.1254199718392797
  0.4444319320461669  0.5555383501667637  0.1261313666039510
  0.7777800192695817  0.5555566763014562  0.1260747767051224
  0.6110848297433668  0.0555441953541286  0.1251891345790249
  0.4444319320461669  0.5555383501667637  0.6238686333960520
  0.9444558285849823  0.0555508754866944  0.1251781653178795
  0.2777683238740573  0.7222246700300716  0.6248068772375872
  0.1111358374989503  0.2222345854161399  0.6246589722136701
  0.4444319320461669  0.2222269152127360  0.6238686333960520
  0.6110897085573553  0.7222028559863650  0.6242789075537530
  0.9444588126256135  0.7222205240056397  0.6247121885298655
  0.7777709383189806  0.2222329616280504  0.6247806730865890
  0.1111178934202584  0.7222256133767954  0.1251635841462471
  0.4444217615825622  0.7222122298149591  0.1254120072010450
  0.2778009365254661  0.2222268656714526  0.1256736171020933
  0.7777760750986643  0.7222020194232790  0.1256947914655589
  0.6110897085573553  0.2222201859043205  0.1257210924462463
  0.9444558285849823  0.2222382864316227  0.1251781653178795
  0.1111234010043998  0.3889120363885825  0.6247245939417427
  0.2777683238740573  0.8888769871773161  0.6248068772375872
  0.6110848297433668  0.8888739677225624  0.6248108654209723
  0.4444232904708461  0.3888783119020898  0.6242864978856147
  0.9444549013854564  0.8888755894987924  0.6248194429637021
  0.1111172735568202  0.8888769940704616  0.1251867319462192
  0.7777760750986643  0.3889073890087150  0.6243052085344443
  0.4444192526401507  0.8888762929867381  0.1251869570385714
  0.2778009365254661  0.3889074041873421  0.1256736171020933
  0.2777765553248299  0.5555688759380475  0.1254199718392797
  0.6110915320516239  0.3888874759282289  0.1272151422900354
  0.7777709383189806  0.8888713100242561  0.1252193269134070
  0.9444549013854564  0.3889126452199985  0.1251805570362984
  0.1111172735568202  0.5555736128196903  0.6248132680537815
  0.2777765553248299  0.0555410127201193  0.6245800281607223
  0.7777800192695817  0.5555566763014562  0.6239252232948795
  0.6110848297433668  0.0555441953541286  0.6248108654209723
  0.9444558285849823  0.0555508754866944  0.6248218346821180
  0.0552990856779521  0.1110709753179482  0.3750000000000000
  0.5540583944490193  0.6096914750194328  0.3750000000000000
  0.3888981948936016  0.1131788347680387  0.3750000000000000
  0.8885124183608568  0.6109228758471037  0.3750000000000000
  0.7217925934652463  0.1109520774788511  0.3750000000000000
  0.0555562726393136  0.7777819890663081  0.8750000000000000
  0.3889041189543224  0.7777825514423716  0.8750000000000000
  0.2222302897160215  0.2777818115246771  0.8750000000000000
  0.7222312044726280  0.7777847214783798  0.8750000000000000
  0.5555672569567573  0.2777872564770138  0.8750000000000000
  0.8888978415500530  0.2777789575184322  0.8750000000000000
  0.2221932795249347  0.7777633064291368  0.3750000000000000
  0.0552990856779521  0.2775614436933398  0.3750000000000000
  0.3925085197498532  0.2853281604270090  0.3750000000000000
  0.5550229934454957  0.7772985815862906  0.3750000000000000
  0.8883917447094017  0.7774424515486759  0.3750000000000000
  0.7216436068074518  0.2776831625928006  0.3750000000000000
  0.0555595590644823  0.9444521419085196  0.8750000000000000
  0.3889041189543224  0.9444549008452863  0.8750000000000000
  0.2222300364208546  0.4444431893563119  0.8750000000000000
  0.5555676816215093  0.4444505074774189  0.8750000000000000
  0.7222326108175459  0.9444512617372975  0.8750000000000000
  0.8888925991431530  0.4444412907209266  0.8750000000000000
  0.0557387106070025  0.4440888676972471  0.3750000000000000
  0.2223596509029728  0.9452090023900809  0.3750000000000000
  0.5551454349351841  0.9442393841342565  0.3750000000000000
  0.3925085197498531  0.4405136926561792  0.3750000000000000
  0.8885344477043871  0.9442585026410253  0.3750000000000000
  0.7206760701318620  0.4451528526078329  0.3750000000000000
  0.2222302217732280  0.6111087312292939  0.8750000000000000
  0.0555622864809772  0.1111163677789176  0.8750000000000000
  0.5555672569567573  0.6111133338130789  0.8750000000000000
  0.3889041964950622  0.1111256808241679  0.8750000000000000
  0.8888878949875922  0.6111106141604725  0.8750000000000000
  0.0554328664502986  0.6108642842814740  0.3750000000000000
  0.7222326108175459  0.1111146824135826  0.8750000000000000
  0.2234446559446191  0.1130752306872733  0.3750000000000000
  0.3888981948936016  0.6090526934589032  0.3750000000000000
  0.7206760701318620  0.6088565508573645  0.3750000000000000
  0.5550229934454957  0.1110577451925460  0.3750000000000000
  0.3889041964950622  0.6111118490042370  0.8750000000000000
  0.8885318023337464  0.1109325678335450  0.3750000000000000
  0.2222297937760124  0.7777815635546748  0.8750000000000000
  0.0555622864809772  0.2777792520353956  0.8750000000000000
  0.3889008176025122  0.2777853078023767  0.8750000000000000
  0.5555692639209361  0.7777838318914690  0.8750000000000000
  0.8888925991431530  0.7777846417555629  0.8750000000000000
  0.7222312044726280  0.2777798163275860  0.8750000000000000
  0.0554328664502986  0.7779019155021620  0.3750000000000000
  0.3887408391359354  0.7771417221929156  0.3750000000000000
  0.2218472680070461  0.2775903006701916  0.3750000000000000
  0.7216436068074518  0.7772937775479903  0.3750000000000000
  0.5540583944490193  0.2777002527629197  0.3750000000000000
  0.8885344477043871  0.2776092783966941  0.3750000000000000
  0.0555595590644823  0.4444407504892897  0.8750000000000000
  0.2222302217732280  0.9444548238772670  0.8750000000000000
  0.5555679842549562  0.9444506587941445  0.8750000000000000
  0.3889008176025122  0.4444488431334733  0.8750000000000000
  0.8888978415500530  0.9444522173649577  0.8750000000000000
  0.0557387106070025  0.9449831762430850  0.3750000000000000
  0.7222243152849036  0.4444444295653209  0.8750000000000000
  0.3887408391359354  0.9449324502763543  0.3750000000000000
  0.2234446559446191  0.4437027585906802  0.3750000000000000
  0.2223596509029728  0.6104839818462287  0.3750000000000000
  0.7217925934652463  0.9441738493197325  0.3750000000000000
  0.8883917447094017  0.4442826264940594  0.3750000000000000
  0.0555562726393136  0.6111076169063421  0.8750000000000000
  0.2222300364208546  0.1111201803978775  0.8750000000000000
  0.7222243152849036  0.6111132190529224  0.8750000000000000
  0.5555692639209361  0.1111187653628049  0.8750000000000000
  0.8888992650331127  0.1111162991832279  0.8750000000000000
  0.1110339999102793  0.0560587006408975  0.3750000000000000
  0.6153299901631297  0.5664009649988695  0.3750000000000000
  0.4440274843055747  0.0556412716318829  0.3750000000000000
  0.9448860890498215  0.5554769643145258  0.3750000000000000
  0.7775279603049590  0.0554306468191457  0.3750000000000000
  0.1111264985664323  0.7222299159498785  0.8750000000000000
  0.4444534301872108  0.7222646350696046  0.8750000000000000
  0.2777231378705226  0.2221811042319681  0.8750000000000000
  0.7778309715260818  0.7222939582174017  0.8750000000000000
  0.6111449394110345  0.2221814431115752  0.8750000000000000
  0.9444399235880444  0.2222080687127712  0.8750000000000000
  0.2775409023358462  0.7219240180998755  0.3750000000000000
  0.1094368929071316  0.2213851131202298  0.3750000000000000
  0.4436854724500900  0.2223504759800467  0.3750000000000000
  0.6114677920096726  0.7242745106495128  0.3750000000000000
  0.9448860890498215  0.7227424580686339  0.3750000000000000
  0.7778068984481012  0.2216425772562553  0.3750000000000000
  0.1111126027066109  0.8888923615174033  0.8750000000000000
  0.4444581303410342  0.8888957318371790  0.8750000000000000
  0.2777231378705226  0.3888753669718842  0.8750000000000000
  0.6111452031844498  0.3888742195970297  0.8750000000000000
  0.7778123446411662  0.8889473766378012  0.8750000000000000
  0.9444634339468515  0.3888710489423101  0.8750000000000000
  0.1110339999102793  0.3883086326027120  0.3750000000000000
  0.2775409023358462  0.8889502175692998  0.3750000000000000
  0.6109393432626329  0.8891785114273335  0.3750000000000000
  0.9445544045363422  0.8894476701326250  0.3750000000000000
  0.7784642835552537  0.3878639383990009  0.3750000000000000
  0.2777537666324901  0.5555666391826239  0.8750000000000000
  0.1110796586801654  0.0555391819849839  0.8750000000000000
  0.6111452031844498  0.5556043169207469  0.8750000000000000
  0.4444534301872108  0.0555221284509422  0.8750000000000000
  0.9444855984678309  0.5555606608577960  0.8750000000000000
  0.1110612958325501  0.5551848033783346  0.3750000000000000
  0.7778011266206821  0.0555672299770095  0.8750000000000000
  0.2772238136189237  0.0557625097374772  0.3750000000000000
  0.4436854724500900  0.5546683298033793  0.3750000000000000
  0.7794803954083435  0.5564068643708415  0.3750000000000000
  0.6109393432626329  0.0550941651686258  0.3750000000000000
  0.4444329113011201  0.5555898530752733  0.8750000000000000
  0.9439153427194910  0.0554094245869120  0.3750000000000000
  0.2777799819305910  0.7222340312336060  0.8750000000000000
  0.1110613714954112  0.2221973524143706  0.8750000000000000
  0.4444329113011201  0.2221763915591863  0.8750000000000000
  0.6111449394110345  0.7222968296327872  0.8750000000000000
  0.9444855984678309  0.7222582709433698  0.8750000000000000
  0.7778123446411662  0.2221983013366901  0.8750000000000000
  0.1111248182392847  0.7222290757863081  0.3750000000000000
  0.4440274843055747  0.7217195460070299  0.3750000000000000
  0.2764491697317286  0.2230732843870037  0.3750000000000000
  0.7784642835552537  0.7239336784895773  0.3750000000000000
  0.6114677920096726  0.2205266146934863  0.3750000000000000
  0.9439153427194910  0.2218392514659172  0.3750000000000000
  0.1110796586801654  0.3888738100285106  0.8750000000000000
  0.2777799819305910  0.8888792840303122  0.8750000000000000
  0.6111403599079070  0.8889306263912666  0.8750000000000000
  0.4444177486767412  0.3888755410050372  0.8750000000000000
  0.9444634339468515  0.8889257183378685  0.8750000000000000
  0.1110612958325501  0.8892098257875488  0.3750000000000000
  0.7778309715260818  0.3888703466420093  0.8750000000000000
  0.4441140046351650  0.8887236689842488  0.3750000000000000
  0.2764491697317286  0.3867092186780547  0.3750000000000000
  0.2772238136189237  0.5547946372147831  0.3750000000000000
  0.6153299901631297  0.3822623584975877  0.3750000000000000
  0.7778068984481012  0.8894976545251718  0.3750000000000000
  0.9445544045363422  0.3884400677370450  0.3750000000000000
  0.1111126027066109  0.5555535745225358  0.8750000000000000
  0.2777537666324901  0.0555204607832026  0.8750000000000000
  0.7778385070386210  0.5555859201859801  0.8750000000000000
  0.6111403599079070  0.0555430668499685  0.8750000000000000
  0.9444399235880444  0.0555651882086091  0.8750000000000000
  0.0554921893667688  0.1110428282393599  0.1247727051446287
  0.5555317515185588  0.6112892538826840  0.1252723867264322
  0.3887618746732666  0.1108547391281417  0.1249151003082199
  0.8891422147679680  0.6112377740506569  0.1248356797109990
  0.7222230459924279  0.1110634792040189  0.1247229545104070
  0.0556622481547760  0.7778071813191759  0.6252552055774432
  0.3888039156266426  0.7778183678875425  0.6252147961089314
  0.2220536482395802  0.2776934907864579  0.6252490705654101
  0.7223102736342920  0.7779372674347151  0.6251476865457244
  0.5555317515185588  0.2775758309692089  0.6247276132735664
  0.8889367017403279  0.2777859314419209  0.6252732079368157
  0.2222084227655631  0.7777708780494511  0.1247657133055509
  0.0554921893667688  0.2777826944607446  0.1247727051446287
  0.3887564405769772  0.2776374535630840  0.1246411021518670
  0.5555052277374555  0.7779019530568330  0.1248096222508500
  0.8890614860233710  0.7778888666887704  0.1247739508123475
  0.7223102736342920  0.2777063395329129  0.1248523134542734
  0.0555710062679585  0.9443965508285106  0.6252499804672524
  0.3888039156266426  0.9443188810724360  0.6252147961089314
  0.2220899068369565  0.4445052027006082  0.6251730009791223
  0.5554902483617579  0.4444117908475432  0.6244374168506697
  0.7222230459924279  0.9444929001217449  0.6252770454895887
  0.8890614860233710  0.4445059526679346  0.6252260491876528
  0.0555710062679585  0.4445077887727761  0.1247500195327489
  0.2221667414668808  0.9443060211359047  0.1247861839985774
  0.5554961545560818  0.9444147439447058  0.1247234530123338
  0.3887564405769772  0.4444523203472290  0.1246411021518670
  0.8889367017403279  0.9444841036317408  0.1247267920631848
  0.7224367531090830  0.4444920232624280  0.1253064115809306
  0.2221667414668808  0.6111940536643137  0.6252138160014254
  0.0554921893667688  0.1110428282393599  0.6252272948553741
  0.5555317515185588  0.6112892538826840  0.6247276132735664
  0.3887618746732666  0.1108547391281417  0.6250848996917791
  0.8891422147679680  0.6112377740506569  0.6251643202890000
  0.0556622481547760  0.6111884001689365  0.1247447944225554
  0.7222230459924279  0.1110634792040189  0.6252770454895887
  0.2220899068369565  0.1109180374696840  0.1248269990208780
  0.3887618746732666  0.6112404688784665  0.1249151003082199
  0.7224367531090830  0.6112780631799922  0.1253064115809306
  0.5555052277374555  0.1109366080139583  0.1248096222508500
  0.3887618746732666  0.6112404688784665  0.6250848996917791
  0.8888840053419644  0.1111086693376525  0.1247550461124030
  0.2222084227655631  0.7777708780494511  0.6252342866944508
  0.0554921893667688  0.2777826944607446  0.6252272948553741
  0.3887564405769772  0.2776374535630840  0.6253588978481325
  0.5555052277374555  0.7779019530568330  0.6251903777491479
  0.8890614860233710  0.7778888666887704  0.6252260491876528
  0.7223102736342920  0.2777063395329129  0.6251476865457244
  0.0556622481547760  0.7778071813191759  0.1247447944225554
  0.3888039156266426  0.7778183678875425  0.1247852038910696
  0.2220536482395802  0.2776934907864579  0.1247509294345911
  0.7223102736342920  0.7779372674347151  0.1248523134542734
  0.5555317515185588  0.2775758309692089  0.1252723867264322
  0.8889367017403279  0.2777859314419209  0.1247267920631848
  0.0555710062679585  0.4445077887727761  0.6252499804672524
  0.2221667414668808  0.9443060211359047  0.6252138160014254
  0.5554961545560818  0.9444147439447058  0.6252765469876644
  0.3887564405769772  0.4444523203472290  0.6253588978481325
  0.8889367017403279  0.9444841036317408  0.6252732079368157
  0.0555710062679585  0.9443965508285106  0.1247500195327489
  0.7224367531090830  0.4444920232624280  0.6246935884190706
  0.3888039156266426  0.9443188810724360  0.1247852038910696
  0.2220899068369565  0.4445052027006082  0.1248269990208780
  0.2221667414668808  0.6111940536643137  0.1247861839985774
  0.5554902483617579  0.4444117908475432  0.1255625831493287
  0.7222230459924279  0.9444929001217449  0.1247229545104070
  0.8890614860233710  0.4445059526679346  0.1247739508123475
  0.0556622481547760  0.6111884001689365  0.6252552055774432
  0.2220899068369565  0.1109180374696840  0.6251730009791223
  0.7224367531090830  0.6112780631799922  0.6246935884190706
  0.5555052277374555  0.1109366080139583  0.6251903777491479
  0.8888840053419644  0.1111086693376525  0.6252449538875992
 
  0.00000000E+00  0.00000000E+00  0.00000000E+00
  0.00000000E+00  0.00000000E+00  0.00000000E+00
  0.00000000E+00  0.00000000E+00  0.00000000E+00
  0.00000000E+00  0.00000000E+00  0.00000000E+00
  0.00000000E+00  0.00000000E+00  0.00000000E+00
  0.00000000E+00  0.00000000E+00  0.00000000E+00
  0.00000000E+00  0.00000000E+00  0.00000000E+00
  0.00000000E+00  0.00000000E+00  0.00000000E+00
  0.00000000E+00  0.00000000E+00  0.00000000E+00
  0.00000000E+00  0.00000000E+00  0.00000000E+00
  0.00000000E+00  0.00000000E+00  0.00000000E+00
  0.00000000E+00  0.00000000E+00  0.00000000E+00
  0.00000000E+00  0.00000000E+00  0.00000000E+00
  0.00000000E+00  0.00000000E+00  0.00000000E+00
  0.00000000E+00  0.00000000E+00  0.00000000E+00
  0.00000000E+00  0.00000000E+00  0.00000000E+00
  0.00000000E+00  0.00000000E+00  0.00000000E+00
  0.00000000E+00  0.00000000E+00  0.00000000E+00
  0.00000000E+00  0.00000000E+00  0.00000000E+00
  0.00000000E+00  0.00000000E+00  0.00000000E+00
  0.00000000E+00  0.00000000E+00  0.00000000E+00
  0.00000000E+00  0.00000000E+00  0.00000000E+00
  0.00000000E+00  0.00000000E+00  0.00000000E+00
  0.00000000E+00  0.00000000E+00  0.00000000E+00
  0.00000000E+00  0.00000000E+00  0.00000000E+00
  0.00000000E+00  0.00000000E+00  0.00000000E+00
  0.00000000E+00  0.00000000E+00  0.00000000E+00
  0.00000000E+00  0.00000000E+00  0.00000000E+00
  0.00000000E+00  0.00000000E+00  0.00000000E+00
  0.00000000E+00  0.00000000E+00  0.00000000E+00
  0.00000000E+00  0.00000000E+00  0.00000000E+00
  0.00000000E+00  0.00000000E+00  0.00000000E+00
  0.00000000E+00  0.00000000E+00  0.00000000E+00
  0.00000000E+00  0.00000000E+00  0.00000000E+00
  0.00000000E+00  0.00000000E+00  0.00000000E+00
  0.00000000E+00  0.00000000E+00  0.00000000E+00
  0.00000000E+00  0.00000000E+00  0.00000000E+00
  0.00000000E+00  0.00000000E+00  0.00000000E+00
  0.00000000E+00  0.00000000E+00  0.00000000E+00
  0.00000000E+00  0.00000000E+00  0.00000000E+00
  0.00000000E+00  0.00000000E+00  0.00000000E+00
  0.00000000E+00  0.00000000E+00  0.00000000E+00
  0.00000000E+00  0.00000000E+00  0.00000000E+00
  0.00000000E+00  0.00000000E+00  0.00000000E+00
  0.00000000E+00  0.00000000E+00  0.00000000E+00
  0.00000000E+00  0.00000000E+00  0.00000000E+00
  0.00000000E+00  0.00000000E+00  0.00000000E+00
  0.00000000E+00  0.00000000E+00  0.00000000E+00
  0.00000000E+00  0.00000000E+00  0.00000000E+00
  0.00000000E+00  0.00000000E+00  0.00000000E+00
  0.00000000E+00  0.00000000E+00  0.00000000E+00
  0.00000000E+00  0.00000000E+00  0.00000000E+00
  0.00000000E+00  0.00000000E+00  0.00000000E+00
  0.00000000E+00  0.00000000E+00  0.00000000E+00
  0.00000000E+00  0.00000000E+00  0.00000000E+00
  0.00000000E+00  0.00000000E+00  0.00000000E+00
  0.00000000E+00  0.00000000E+00  0.00000000E+00
  0.00000000E+00  0.00000000E+00  0.00000000E+00
  0.00000000E+00  0.00000000E+00  0.00000000E+00
  0.00000000E+00  0.00000000E+00  0.00000000E+00
  0.00000000E+00  0.00000000E+00  0.00000000E+00
  0.00000000E+00  0.00000000E+00  0.00000000E+00
  0.00000000E+00  0.00000000E+00  0.00000000E+00
  0.00000000E+00  0.00000000E+00  0.00000000E+00
  0.00000000E+00  0.00000000E+00  0.00000000E+00
  0.00000000E+00  0.00000000E+00  0.00000000E+00
  0.00000000E+00  0.00000000E+00  0.00000000E+00
  0.00000000E+00  0.00000000E+00  0.00000000E+00
  0.00000000E+00  0.00000000E+00  0.00000000E+00
  0.00000000E+00  0.00000000E+00  0.00000000E+00
  0.00000000E+00  0.00000000E+00  0.00000000E+00
  0.00000000E+00  0.00000000E+00  0.00000000E+00
  0.00000000E+00  0.00000000E+00  0.00000000E+00
  0.00000000E+00  0.00000000E+00  0.00000000E+00
  0.00000000E+00  0.00000000E+00  0.00000000E+00
  0.00000000E+00  0.00000000E+00  0.00000000E+00
  0.00000000E+00  0.00000000E+00  0.00000000E+00
  0.00000000E+00  0.00000000E+00  0.00000000E+00
  0.00000000E+00  0.00000000E+00  0.00000000E+00
  0.00000000E+00  0.00000000E+00  0.00000000E+00
  0.00000000E+00  0.00000000E+00  0.00000000E+00
  0.00000000E+00  0.00000000E+00  0.00000000E+00
  0.00000000E+00  0.00000000E+00  0.00000000E+00
  0.00000000E+00  0.00000000E+00  0.00000000E+00
  0.00000000E+00  0.00000000E+00  0.00000000E+00
  0.00000000E+00  0.00000000E+00  0.00000000E+00
  0.00000000E+00  0.00000000E+00  0.00000000E+00
  0.00000000E+00  0.00000000E+00  0.00000000E+00
  0.00000000E+00  0.00000000E+00  0.00000000E+00
  0.00000000E+00  0.00000000E+00  0.00000000E+00
  0.00000000E+00  0.00000000E+00  0.00000000E+00
  0.00000000E+00  0.00000000E+00  0.00000000E+00
  0.00000000E+00  0.00000000E+00  0.00000000E+00
  0.00000000E+00  0.00000000E+00  0.00000000E+00
  0.00000000E+00  0.00000000E+00  0.00000000E+00
  0.00000000E+00  0.00000000E+00  0.00000000E+00
  0.00000000E+00  0.00000000E+00  0.00000000E+00
  0.00000000E+00  0.00000000E+00  0.00000000E+00
  0.00000000E+00  0.00000000E+00  0.00000000E+00
  0.00000000E+00  0.00000000E+00  0.00000000E+00
  0.00000000E+00  0.00000000E+00  0.00000000E+00
  0.00000000E+00  0.00000000E+00  0.00000000E+00
  0.00000000E+00  0.00000000E+00  0.00000000E+00
  0.00000000E+00  0.00000000E+00  0.00000000E+00
  0.00000000E+00  0.00000000E+00  0.00000000E+00
  0.00000000E+00  0.00000000E+00  0.00000000E+00
  0.00000000E+00  0.00000000E+00  0.00000000E+00
  0.00000000E+00  0.00000000E+00  0.00000000E+00
  0.00000000E+00  0.00000000E+00  0.00000000E+00
  0.00000000E+00  0.00000000E+00  0.00000000E+00
  0.00000000E+00  0.00000000E+00  0.00000000E+00
  0.00000000E+00  0.00000000E+00  0.00000000E+00
  0.00000000E+00  0.00000000E+00  0.00000000E+00
  0.00000000E+00  0.00000000E+00  0.00000000E+00
  0.00000000E+00  0.00000000E+00  0.00000000E+00
  0.00000000E+00  0.00000000E+00  0.00000000E+00
  0.00000000E+00  0.00000000E+00  0.00000000E+00
  0.00000000E+00  0.00000000E+00  0.00000000E+00
  0.00000000E+00  0.00000000E+00  0.00000000E+00
  0.00000000E+00  0.00000000E+00  0.00000000E+00
  0.00000000E+00  0.00000000E+00  0.00000000E+00
  0.00000000E+00  0.00000000E+00  0.00000000E+00
  0.00000000E+00  0.00000000E+00  0.00000000E+00
  0.00000000E+00  0.00000000E+00  0.00000000E+00
  0.00000000E+00  0.00000000E+00  0.00000000E+00
  0.00000000E+00  0.00000000E+00  0.00000000E+00
  0.00000000E+00  0.00000000E+00  0.00000000E+00
  0.00000000E+00  0.00000000E+00  0.00000000E+00
  0.00000000E+00  0.00000000E+00  0.00000000E+00
  0.00000000E+00  0.00000000E+00  0.00000000E+00
  0.00000000E+00  0.00000000E+00  0.00000000E+00
  0.00000000E+00  0.00000000E+00  0.00000000E+00
  0.00000000E+00  0.00000000E+00  0.00000000E+00
  0.00000000E+00  0.00000000E+00  0.00000000E+00
  0.00000000E+00  0.00000000E+00  0.00000000E+00
  0.00000000E+00  0.00000000E+00  0.00000000E+00
  0.00000000E+00  0.00000000E+00  0.00000000E+00
  0.00000000E+00  0.00000000E+00  0.00000000E+00
  0.00000000E+00  0.00000000E+00  0.00000000E+00
  0.00000000E+00  0.00000000E+00  0.00000000E+00
  0.00000000E+00  0.00000000E+00  0.00000000E+00
  0.00000000E+00  0.00000000E+00  0.00000000E+00
  0.00000000E+00  0.00000000E+00  0.00000000E+00
  0.00000000E+00  0.00000000E+00  0.00000000E+00
  0.00000000E+00  0.00000000E+00  0.00000000E+00
  0.00000000E+00  0.00000000E+00  0.00000000E+00
  0.00000000E+00  0.00000000E+00  0.00000000E+00
  0.00000000E+00  0.00000000E+00  0.00000000E+00
  0.00000000E+00  0.00000000E+00  0.00000000E+00
  0.00000000E+00  0.00000000E+00  0.00000000E+00
  0.00000000E+00  0.00000000E+00  0.00000000E+00
  0.00000000E+00  0.00000000E+00  0.00000000E+00
  0.00000000E+00  0.00000000E+00  0.00000000E+00
  0.00000000E+00  0.00000000E+00  0.00000000E+00
  0.00000000E+00  0.00000000E+00  0.00000000E+00
  0.00000000E+00  0.00000000E+00  0.00000000E+00
  0.00000000E+00  0.00000000E+00  0.00000000E+00
  0.00000000E+00  0.00000000E+00  0.00000000E+00
  0.00000000E+00  0.00000000E+00  0.00000000E+00
  0.00000000E+00  0.00000000E+00  0.00000000E+00
  0.00000000E+00  0.00000000E+00  0.00000000E+00
  0.00000000E+00  0.00000000E+00  0.00000000E+00
  0.00000000E+00  0.00000000E+00  0.00000000E+00
  0.00000000E+00  0.00000000E+00  0.00000000E+00
  0.00000000E+00  0.00000000E+00  0.00000000E+00
  0.00000000E+00  0.00000000E+00  0.00000000E+00
  0.00000000E+00  0.00000000E+00  0.00000000E+00
  0.00000000E+00  0.00000000E+00  0.00000000E+00
  0.00000000E+00  0.00000000E+00  0.00000000E+00
  0.00000000E+00  0.00000000E+00  0.00000000E+00
  0.00000000E+00  0.00000000E+00  0.00000000E+00
  0.00000000E+00  0.00000000E+00  0.00000000E+00
  0.00000000E+00  0.00000000E+00  0.00000000E+00
  0.00000000E+00  0.00000000E+00  0.00000000E+00
  0.00000000E+00  0.00000000E+00  0.00000000E+00
  0.00000000E+00  0.00000000E+00  0.00000000E+00
  0.00000000E+00  0.00000000E+00  0.00000000E+00
  0.00000000E+00  0.00000000E+00  0.00000000E+00
  0.00000000E+00  0.00000000E+00  0.00000000E+00
  0.00000000E+00  0.00000000E+00  0.00000000E+00
  0.00000000E+00  0.00000000E+00  0.00000000E+00
  0.00000000E+00  0.00000000E+00  0.00000000E+00
  0.00000000E+00  0.00000000E+00  0.00000000E+00
  0.00000000E+00  0.00000000E+00  0.00000000E+00
  0.00000000E+00  0.00000000E+00  0.00000000E+00
  0.00000000E+00  0.00000000E+00  0.00000000E+00
  0.00000000E+00  0.00000000E+00  0.00000000E+00
  0.00000000E+00  0.00000000E+00  0.00000000E+00
  0.00000000E+00  0.00000000E+00  0.00000000E+00
  0.00000000E+00  0.00000000E+00  0.00000000E+00
  0.00000000E+00  0.00000000E+00  0.00000000E+00
  0.00000000E+00  0.00000000E+00  0.00000000E+00
  0.00000000E+00  0.00000000E+00  0.00000000E+00
  0.00000000E+00  0.00000000E+00  0.00000000E+00
  0.00000000E+00  0.00000000E+00  0.00000000E+00
  0.00000000E+00  0.00000000E+00  0.00000000E+00
  0.00000000E+00  0.00000000E+00  0.00000000E+00
  0.00000000E+00  0.00000000E+00  0.00000000E+00
  0.00000000E+00  0.00000000E+00  0.00000000E+00
  0.00000000E+00  0.00000000E+00  0.00000000E+00
  0.00000000E+00  0.00000000E+00  0.00000000E+00
  0.00000000E+00  0.00000000E+00  0.00000000E+00
  0.00000000E+00  0.00000000E+00  0.00000000E+00
  0.00000000E+00  0.00000000E+00  0.00000000E+00
  0.00000000E+00  0.00000000E+00  0.00000000E+00
  0.00000000E+00  0.00000000E+00  0.00000000E+00
  0.00000000E+00  0.00000000E+00  0.00000000E+00
  0.00000000E+00  0.00000000E+00  0.00000000E+00
  0.00000000E+00  0.00000000E+00  0.00000000E+00
  0.00000000E+00  0.00000000E+00  0.00000000E+00
  0.00000000E+00  0.00000000E+00  0.00000000E+00
  0.00000000E+00  0.00000000E+00  0.00000000E+00
  0.00000000E+00  0.00000000E+00  0.00000000E+00
  0.00000000E+00  0.00000000E+00  0.00000000E+00
  0.00000000E+00  0.00000000E+00  0.00000000E+00
  0.00000000E+00  0.00000000E+00  0.00000000E+00
  0.00000000E+00  0.00000000E+00  0.00000000E+00
  0.00000000E+00  0.00000000E+00  0.00000000E+00
  0.00000000E+00  0.00000000E+00  0.00000000E+00
  0.00000000E+00  0.00000000E+00  0.00000000E+00
  0.00000000E+00  0.00000000E+00  0.00000000E+00
  0.00000000E+00  0.00000000E+00  0.00000000E+00
  0.00000000E+00  0.00000000E+00  0.00000000E+00
  0.00000000E+00  0.00000000E+00  0.00000000E+00
  0.00000000E+00  0.00000000E+00  0.00000000E+00
  0.00000000E+00  0.00000000E+00  0.00000000E+00
  0.00000000E+00  0.00000000E+00  0.00000000E+00
  0.00000000E+00  0.00000000E+00  0.00000000E+00
  0.00000000E+00  0.00000000E+00  0.00000000E+00
  0.00000000E+00  0.00000000E+00  0.00000000E+00
  0.00000000E+00  0.00000000E+00  0.00000000E+00
  0.00000000E+00  0.00000000E+00  0.00000000E+00
  0.00000000E+00  0.00000000E+00  0.00000000E+00
  0.00000000E+00  0.00000000E+00  0.00000000E+00
  0.00000000E+00  0.00000000E+00  0.00000000E+00
  0.00000000E+00  0.00000000E+00  0.00000000E+00
  0.00000000E+00  0.00000000E+00  0.00000000E+00
  0.00000000E+00  0.00000000E+00  0.00000000E+00
  0.00000000E+00  0.00000000E+00  0.00000000E+00
  0.00000000E+00  0.00000000E+00  0.00000000E+00
  0.00000000E+00  0.00000000E+00  0.00000000E+00
  0.00000000E+00  0.00000000E+00  0.00000000E+00
  0.00000000E+00  0.00000000E+00  0.00000000E+00
  0.00000000E+00  0.00000000E+00  0.00000000E+00
  0.00000000E+00  0.00000000E+00  0.00000000E+00
  0.00000000E+00  0.00000000E+00  0.00000000E+00
  0.00000000E+00  0.00000000E+00  0.00000000E+00
  0.00000000E+00  0.00000000E+00  0.00000000E+00