 N B As 
 1.0
 17.527899999999772   0.000000000000000   0.000000000000000
 -8.763949999999658  15.179606674993195   0.000000000000000
  0.000000000000001   0.000000000000002  15.000000000000000
 N B As 
  48  49   1
Cartesian
  8.770565993825008  13.752814732431874   1.665273400359840 
 16.270545001066839   0.725961633257681   1.665387390448095 
 15.018343935966346   2.888110696545469   1.665250403089425 
 13.772017949345503   5.053643599563900   1.665135394971630 
 12.539609765453163   7.224709564424881   1.665126345352230 
 11.291394846281982   9.403719908561468   1.665709196164665 
 10.033634966172450  11.582275006034143   1.665710533213770 
 -6.257695578151559  13.732617178420268   1.664945478847530 
  1.238962967005396   0.707689362196766   1.665303048302175 
 -0.017008899238456   2.880135907643839   1.665185357480460 
 -1.270066003995449   5.050676073312641   1.665092049283530 
 -2.523538379132761   7.224577077853632   1.665355429358865 
 -3.755923117226164   9.399363812875924   1.665368496272490 
 -5.001864637457732  11.568837570752212   1.665239287125300 
 -3.755884366216097  13.726929912532196   1.665190881608325 
  3.750230864366292   0.699102695545925   1.665640743172845 
  2.465886705896226   2.833936889661846   1.665564207182175 
  1.219398057225073   5.041139624845130   1.665117298395315 
 -0.068686139031516   7.224169039669572   1.665292705196940 
 -1.275197091972568   9.403567748003596   1.665606287559525 
 -2.509847409019534  11.568802563558506   1.665520639671870 
 -1.254073831163944  13.732651474382548   1.665395344812570 
  6.265816396588873   0.699135550727216   1.665700927740105 
  5.007828353390299   2.837951521275238   1.665136109460675 
  3.685574666410287   4.932805819005814   1.664056377574485 
  2.358622630936179   7.231156259610150   1.664412099575745 
  1.205918660025297   9.423516162785003   1.665260101630275 
 -0.017362469519304  11.582197019091149   1.665645592831620 
  1.245527436175939  13.752790540764455   1.665332346608235 
  8.776997656425873   0.707656345123893   1.665136044262980 
  7.549869136662249   2.834031208808477   1.665009935308635 
  6.329933244856506   4.932839074340982   1.664066159537295 
  3.680903501670372   9.521434536004236   1.664365978127025 
  2.473314040823103  11.627038239435008   1.665204462108480 
  3.754925186845388  13.754200705217672   1.665110315341110 
 11.273389255381396   0.725895954540405   1.665222518757420 
 10.032983616684692   2.880153204943112   1.664993276692290 
  8.796371574290513   5.041168495732473   1.664839697734845 
  7.656984568672812   7.231337975472089   1.664182222480710 
  6.334833570877921   9.521447185679161   1.664100199490070 
  5.007922242254245  11.603042818835094   1.665020618854800 
  6.261217446068965  13.754288215876450   1.665195516302580 
 13.771966960492014   0.729320483487230   1.665350645624925 
 12.525530950172019   2.888144829947596   1.665195909643785 
 11.286173240557599   5.050735472569300   1.664992511656380 
 10.084568974830592   7.224249906911421   1.665057661923030 
  8.810152067538322   9.423754575147671   1.665193614995295 
  7.542658544268412  11.627163029958757   1.665500417558715 
  7.514569055256960  14.467192946837454   1.665525500451315 
 15.021326017439028   1.447190190367335   1.665670161841650 
 13.771909485667461   3.611125465595369   1.665469072914705 
 12.530271367094178   5.779884317886721   1.665251176090050 
 11.310435366327408   7.957733028672946   1.665605661366735 
 10.049712964364049  10.139189289820321   1.666108073584830 
  8.790902879810101  12.321801221797866   1.665869302831020 
 -7.508652756686518  14.454881484156491   1.665303461037030 
 -0.007692886444410   1.438239762322798   1.665532156070580 
 -1.263486371803423   3.607507076210011   1.665240520538805 
 -2.513970607767136   5.779652996860040   1.665426887131050 
 -3.755978922552593   7.955010100684739   1.665472281808335 
 -4.996737409400644  10.127093681708287   1.665729529211775 
 -6.247839596214318  12.294203744481258   1.665549625306620 
 -5.007074566284134  14.443278972416957   1.665484074523095 
  2.488442563150356   1.405580776008031   1.665879895556535 
  1.230818160217834   3.591692516450449   1.665523594500885 
 -0.030163097359799   5.775795842974449   1.665362775676950 
 -1.294437134278684   7.957628084702660   1.665723304194330 
 -2.514978013101024  10.126924556186104   1.665854207806380 
 -3.755897329224958  12.288223498210712   1.665341394453885 
 -2.504726944638555  14.443370320491598   1.665729782686995 
  5.008017209717606   1.406701850687375   1.666048355531430 
  3.715697179396258   3.514236939992179   1.665053127726570 
  2.463987618056629   5.759753641125088   1.664771447199120 
  1.145264613481818   7.966464389034046   1.665144713401155 
 -0.033512190944335  10.139100217468989   1.665842214649185 
 -1.263700841585896  12.294177394375001   1.665869497331955 
 -0.003281804390092  14.454892970698944   1.665470423633220 
  7.527582255518020   1.405638897656730   1.665587732431305 
  6.299778931274799   3.514368717440390   1.664824553177145 
  5.007721669724608   5.452982905903008   1.664773539022980 
  3.470137376524038   8.116269977861265   1.665436190377380 
  2.437436440115039  10.204576247301860   1.665089602663200 
  1.225243731992469  12.321835070910307   1.665701776297170 
  2.501664230129380  14.466967870123193   1.665459316031100 
 10.023584994226235   1.438151899105845   1.665284540597100 
  8.785109705793605   3.591662050136579   1.665064874056605 
  7.551558044317771   5.759869724711455   1.664616620842470 
  6.545409135463373   8.116326158939833   1.664870912170740 
  5.007865449984322  10.165878281640955   1.664736697731090 
  3.746909794160480  12.317856812339667   1.665282168378795 
  5.008044725264318  14.470091417330687   1.665303154254450 
 12.522610667568825   1.447234841314101   1.665541119530250 
 11.279533444095723   3.607513935851468   1.665363020910705 
 10.046052789247003   5.775677762796824   1.665089273881380 
  8.870322811368128   7.966681211207389   1.664912537659620 
  7.578389762584615  10.204618755957963   1.665044401579830 
  6.268883475913554  12.317870100966118   1.665467183321325 
  5.007794504080839   7.228513010999792   1.668407386383450 
