 N B Sb 
 1.0
 14.936314146199660   0.000000000000000   0.000000000000000
 -7.468157073099825  12.935227489513863   0.000000000000000
  0.000000000000001   0.000000000000001  13.341276283792837
 N B Sb 
 144 143   1
Cartesian
  1.242888681597972   0.717710265594966   1.664410962103890 
  4.979086953897560   7.187149773465531   1.663291195415098 
  6.225268391501858   0.717710265594966   1.664410962103890 
  9.958680091498092   7.186040075749339   1.665519524080345 
 11.202235609649751   0.718623749417456   1.666106345127644 
 -3.734078536549858   9.342108742426664   8.340101107581138 
  1.244803827279750   9.344127936124105   8.341546250740723 
  2.488753419907314   2.873765564801821   8.342666017429531 
  6.223353245820088   9.344127936124105   8.341546250740723 
  7.469923703103180   2.873475033361780   8.340343096109615 
 12.445386932135825   2.873025045752835   8.340240476930234 
 -1.245090539827855   9.343192406029722   1.665519524080345 
 -0.001766630003258   2.873475033361779   1.665614116735013 
  4.979403653192534   2.873765564801821   1.663291195415098 
  3.734078536549970   9.344148671042596   1.665614116735013 
  8.713247612927692   9.343192406029722   1.665519524080345 
  9.959084287163652   2.873025045752835   1.665716735914393 
 -4.979511015120250  11.497093745500942   8.340437688764283 
  0.001286241204005  11.498722602384307   8.340114752925841 
  1.243745002559718   5.030183399498789   8.342666017429531 
  6.224412070540223   5.030183399498789   8.342666017429531 
  4.978269127879476  11.500049964742360   8.340240476930234 
 11.202235609649748   5.028881022511286   8.340114752925841 
 -1.246386027672136   5.029260536047068   1.664410962103890 
 -2.488646057979450  11.497093745500942   1.665519524080345 
  2.489887945220470  11.500049964742360   1.665716735914393 
  3.734078536549917   5.030366245922020   1.583831891937962 
  7.466870831895849  11.498722602384307   1.665842459918788 
  8.714543100772088   5.029260536047068   1.664410962103890 
 -0.000849201822305   7.186727781075098   8.340577631726850 
  1.242888681597973   0.717710265594966   8.341546250740723 
  4.979086953897561   7.187149773465532   8.342666017429531 
  6.225268391501859   0.717710265594966   8.341546250740723 
  9.958680091498092   7.186040075749340   8.340437688764283 
 -2.490523018398256   7.186040075749339   1.665519524080345 
 11.202235609649751   0.718623749417456   8.339850867716985 
  3.734078536549915   0.717643175616049   1.665379581117777 
  2.489070119202277   7.187149773465531   1.663291195415098 
  7.469006274922140   7.186727781075097   1.665379581117777 
  8.714893695834157   0.718023727270946   1.665716735914393 
  2.489070119202278   7.187149773465532   8.342666017429531 
 13.689577523465335   0.718023727270946   1.665716735914393 
 -1.245090539827854   9.343192406029722   8.340437688764283 
 -0.001766630003257   2.873475033361780   8.340343096109615 
  4.979403653192535   2.873765564801821   8.342666017429531 
  3.734078536549970   9.344148671042596   8.340343096109615 
  8.713247612927692   9.343192406029722   8.340437688764283 
  9.959084287163652   2.873025045752835   8.340240476930234 
 -3.734078536549859   9.342108742426664   1.665856105263490 
  1.244803827279750   9.344127936124105   1.664410962103890 
  2.488753419907313   2.873765564801821   1.663291195415098 
  6.223353245820087   9.344127936124105   1.664410962103890 
  7.469923703103179   2.873475033361779   1.665614116735013 
 12.445386932135825   2.873025045752835   1.665716735914393 
 -1.246386027672135   5.029260536047069   8.341546250740723 
 -2.488646057979449  11.497093745500942   8.340437688764283 
  2.489887945220471  11.500049964742360   8.340240476930234 
  3.734078536549917   5.030366245922021   8.422125320906666 
  7.466870831895850  11.498722602384307   8.340114752925841 
 -4.979511015120250  11.497093745500942   1.665519524080345 
  8.714543100772088   5.029260536047069   8.341546250740723 
  0.001286241204005  11.498722602384307   1.665842459918788 
  1.243745002559718   5.030183399498788   1.663291195415098 
 -0.000849201822305   7.186727781075097   1.665379581117777 
  6.224412070540222   5.030183399498788   1.663291195415098 
  4.978269127879475  11.500049964742360   1.665716735914393 
 11.202235609649748   5.028881022511285   1.665842459918788 
 -2.490523018398256   7.186040075749340   8.340437688764283 
  3.734078536549915   0.717643175616049   8.340577631726850 
  7.469006274922141   7.186727781075098   8.340577631726850 
  8.714893695834157   0.718023727270946   8.340240476930234 
 13.689577523465335   0.718023727270946   8.340240476930234 
 -0.036322337061564   1.413532398776827   5.002978606422314 
  3.734078536549919   7.928117729289712   5.002978606422314 
  5.060797445554778   1.287503086703004   5.002978606422314 
  8.734991690777115   7.917644801709181   5.002978606422314 
  9.981922973652793   1.423171578305807   5.002978606422314 
 -4.978675543113869  10.060677159199004  11.673616748318732 
 -0.000034784539494  10.061254488163426  11.673616748318732 
  1.244075761521000   3.592762473476222  11.673616748318732 
  4.978856182430454  10.061560132412772  11.673616748318732 
  6.224081311578819   3.592762473476222  11.673616748318732 
 11.202235609649694   3.592689070477224  11.673616748318732 
 -2.501665483132404  10.053642750570113   5.002978606422314 
 -1.283391893150998   3.573520230496107   5.002978606422314 
  3.734078536549864   3.088291588466442   5.002978606422314 
  2.487008980460484  10.104046108493311   5.002978606422314 
  7.498018907469972  10.105479413968927   5.002978606422314 
  8.751548966250830   3.573520230496107   5.002978606422314 
 -6.223898897386619  12.216312617641943  11.673616748318732 
 -1.244258175713199  12.216312617641943  11.673616748318732 
 -0.000701176485336   5.748907390871656  11.673616748318732 
  4.979182629493157   5.749227429151900  11.673616748318732 
  3.734078536549928  12.217071334327745  11.673616748318732 
  9.958012218475989   5.748759121474651  11.673616748318732 
 -2.543068579519574   5.752477641445267   5.002978606422314 
 -3.734078536549910  12.191036623861747   5.002978606422314 
  1.261512243558692  12.226314424083574   5.002978606422314 
  2.052192547147357   6.001403574649856   5.002978606422314 
  6.206644829541147  12.226314424083574   5.002978606422314 
  7.638852569824984   5.752825546652137   5.002978606422314 
 -1.245206058102071   7.905157547016182  11.673616748318732 
 -0.000674357575704   1.436760239281197  11.673616748318732 
  3.734078536549919   7.905573790813803  11.673616748318732 
  4.979193507876739   1.436681564419989  11.673616748318732 
  8.713363131201804   7.905157547016182  11.673616748318732 
 -3.734078536549911   7.919040726139882   5.002978606422314 
  9.957947712616082   1.437013701719244  11.673616748318732 
  2.407359627544948   1.287503086703004   5.002978606422314 
  1.156023412279716   8.050770104411104   5.002978606422314 
  6.312133660820017   8.050770104411104   5.002978606422314 
  7.504479410161395   1.413532398776827   5.002978606422314 
  1.244413794841495   7.905509782474588  11.673616748318732 
 12.422548245646608   1.423171578305807   5.002978606422314 
 -2.489481529985952  10.060677159199004  11.673616748318732 
 -1.245452003456230   3.592778366072264  11.673616748318732 
  3.734078536549857   3.592643879462342  11.673616748318732 
  2.489300890669401  10.061560132412772  11.673616748318732 
  7.468191857639230  10.061254488163426  11.673616748318732 
  8.713609076556063   3.592778366072264  11.673616748318732 
 -4.966491589967417  10.053642750570113   5.002978606422314 
 -0.029861834370252  10.105479413968927   5.002978606422314 
  1.224552138099524   3.581490504238266   5.002978606422314 
  4.981148092639353  10.104046108493311   5.002978606422314 
  6.243604935000310   3.581490504238266   5.002978606422314 
 11.202235609649694   3.573697379112868   5.002978606422314 
 -2.489855145376154   5.748759121474651  11.673616748318732 
 -3.734078536549903  12.216011133247733  11.673616748318732 
  1.245064956376329  12.216818578401400  11.673616748318732 
  2.488974443606681   5.749227429151900  11.673616748318732 
  6.223092116723513  12.216818578401400  11.673616748318732 
 -6.247285281699297  12.168369171865821   5.002978606422314 
  7.468858249585172   5.748907390871656  11.673616748318732 
 -1.220871791400538  12.168369171865821   5.002978606422314 
 -0.170695496725148   5.752825546652137   5.002978606422314 
 -1.266834617677397   7.917644801709181   5.002978606422314 
  5.415964525952471   6.001403574649843   5.002978606422314 
  3.734078536549928  12.244755581154617   5.002978606422314 
 10.011225652619409   5.752477641445267   5.002978606422314 
 -3.734078536549918   7.904971908882090  11.673616748318732 
  2.488963565222973   1.436681564419989  11.673616748318732 
  6.223743278258238   7.905509782474588  11.673616748318732 
  7.468831430675536   1.436760239281197  11.673616748318732 
 12.446523506683304   1.437013701719244  11.673616748318732 
  1.167299181962838   0.645918657332684   5.002978606422314 
  5.103896643873316   7.321842151440820   5.002978606422314 
  6.300857891136992   0.645918657332684   5.002978606422314 
  9.966241866754340   7.193361355033121   5.002978606422314 
 11.202235609649751   0.718623749417456   5.002978606422314 
 -3.734078536549858   9.342108742426666  11.673616748318732 
  1.244685701819676   9.340694269009974  11.673616748318732 
  2.490751675249261   2.875823469919859  11.673616748318732 
  6.223471371280178   9.340694269009974  11.673616748318732 
  7.466408062995235   2.875504789124476  11.673616748318732 
 12.447706852342741   2.875390278904681  11.673616748318732 
 -1.255211841303934   9.346080455857450   5.002978606422314 
 -0.013081104079942   2.866942618707858   5.002978606422314 
  5.033645829227396   2.698331013656722   5.002978606422314 
  3.734078536549970   9.357213500350438   5.002978606422314 
  8.723368914403771   9.346080455857450   5.002978606422314 
  9.967240706243871   2.856948068235285   5.002978606422314 
 -4.978356014901753  11.498257657933173  11.673616748318732 
 -0.000812330872028  11.497510991231314  11.673616748318732 
  1.246526328341482   5.030884986829158  11.673616748318732 
  6.221630744758458   5.030884986829158  11.673616748318732 
  4.979157519771403  11.496858238332496  11.673616748318732 
 11.202235609649746   5.031304244817302  11.673616748318732 
 -1.346354134023387   4.999693913234842   5.002978606422314 
 -2.491205584199290  11.486884416389445   5.002978606422314 
  2.499732806626636  11.515152119628505   5.002978606422314 
  7.466083005121900  11.499177454384322   5.002978606422314 
  8.814511207123324   4.999693913234842   5.002978606422314 
  0.000863852749603   7.185738748556871  11.673616748318732 
  1.245921387276980   0.719324799502762  11.673616748318732 
  4.978303883457752   7.184390281017139  11.673616748318732 
  6.222235685822851   0.719324799502762  11.673616748318732 
  9.957094613654768   7.186458379063820  11.673616748318732 
 -2.498084793654502   7.193361355033121   5.002978606422314 
 11.202235609649751   0.718623749417457  11.673616748318732 
  3.734078536549908   0.661381977298605   5.002978606422314 
  2.364260429226534   7.321842151440820   5.002978606422314 
  7.517729901912406   7.214858380233815   5.002978606422314 
  8.732894976320527   0.718998549902351   5.002978606422314 
  2.489853189642072   7.184390281017139  11.673616748318732 
 13.671576242978963   0.718998549902351   5.002978606422314 
 -1.244660062203027   9.341610190283015  11.673616748318732 
  0.001749010104704   2.875504789124476  11.673616748318732 
  4.977405397850557   2.875823469919859  11.673616748318732 
  3.734078536549973   9.340089159517204  11.673616748318732 
  8.712817135302863   9.341610190283015  11.673616748318732 
  9.956764366956751   2.875390278904681  11.673616748318732 
 -3.734078536549858   9.342108742426664   5.002978606422314 
  1.220425220563639   9.445486167198629   5.002978606422314 
  2.434511243872437   2.698331013656722   5.002978606422314 
  6.247731852536197   9.445486167198629   5.002978606422314 
  7.481238177179878   2.866942618707858   5.002978606422314 
 12.437230513055621   2.856948068235285   5.002978606422314 
 -1.243471447453217   5.031079669253406  11.673616748318732 
 -2.489801058197961  11.498257657933173  11.673616748318732 
  2.488999553328543  11.496858238332496  11.673616748318732 
  3.734078536549918   5.030366245922021  11.673616748318732 
  7.468969403971870  11.497510991231314  11.673616748318732 
 -4.976951488900426  11.486884416389445   5.002978606422314 
  8.711628520553155   5.031079669253406  11.673616748318732 
  0.002074067977940  11.499177454384322   5.002978606422314 
  1.064693136549097   5.070925572668600   5.002978606422314 
 -0.049572828812570   7.214858380233815   5.002978606422314 
  6.403463936550840   5.070925572668600   5.002978606422314 
  4.968424266473322  11.515152119628505   5.002978606422314 
 11.202235609649748   5.027971318511256   5.002978606422314 
 -2.488937540554916   7.186458379063820  11.673616748318732 
  3.734078536549916   0.719621240652503  11.673616748318732 
  7.467293220350235   7.185738748556871  11.673616748318732 
  8.711685383735313   0.718850220528966  11.673616748318732 
 13.692785835564163   0.718850220528966  11.673616748318732 
  0.002036778093034   1.439423407451768   1.669919566405049 
  3.734078536549918   7.899703502749843   1.674544908237518 
  4.977140836404013   1.441618680089456   1.673217413048299 
  8.710178489812257   7.903318893452663   1.670661491004731 
  9.956341272648311   1.437941180267073   1.669260795421321 
 -4.980073436200888  10.061484233149098   8.336151054155373 
  0.000957772645496  10.059348324591554   8.336027000620733 
  1.249159580111937   3.595697617508201   8.331412304607110 
  4.977905378974550  10.057880635965265   8.336037646439566 
  6.218997492987898   3.595697617508201   8.331412304607110 
 11.202235609649687   3.593634601374364   8.336616540444767 
 -2.488083636898919  10.061484233149098   1.669806158689255 
 -1.241790064331596   3.593794694349211   1.669919566405049 
  3.734078536549872   3.602181527013277   1.674814057736744 
  2.490251694125288  10.057880635965265   1.669919566405049 
  7.467199300454221  10.059348324591554   1.669930212223894 
  8.709947137431428   3.593794694349211   1.669919566405049 
 -6.222744389902107  12.218125279164788   8.336027000620733 
 -1.245412683197712  12.218125279164788   8.336027000620733 
  0.004600826842208   5.748216498677927   8.332739799796329 
  4.970922784421687   5.744458605376432   8.331143155107883 
  3.734078536549921  12.215216377232098   8.336696417423308 
  9.955865153806478   5.748852623523661   8.336027000620733 
 -2.487708080706644   5.748852623523661   1.669930212223894 
 -3.734078536549910  12.219688440374780   1.670661491004731 
  1.244246102599329  12.216345812952820   1.669340672399860 
  2.497234288678149   5.744458605376431   1.674814057736744 
  6.223910970500497  12.216345812952820   1.669340672399860 
  7.463556246257628   5.748216498677926   1.673217413048299 
 -1.242021416712539   7.903318893452663   8.335295721839897 
  0.002036778093035   1.439423407451769   8.336037646439566 
  3.734078536549918   7.899703502749844   8.331412304607110 
  4.977140836404014   1.441618680089457   8.332739799796329 
  8.710178489812257   7.903318893452663   8.335295721839897 
 -3.734078536549904   7.903357760981895   1.669806158689255 
  9.956341272648311   1.437941180267073   8.336696417423308 
  2.491016236695698   1.441618680089456   1.673217413048299 
  1.247663126696314   7.901263558998848   1.673217413048299 
  6.220493946403420   7.901263558998848   1.673217413048299 
  7.466120295006797   1.439423407451768   1.669919566405049 
  1.247663126696315   7.901263558998849   8.332739799796329 
 12.448129946651074   1.437941180267073   1.669260795421321 
 -2.488083636898918  10.061484233149098   8.336151054155373 
 -1.241790064331596   3.593794694349212   8.336037646439566 
  3.734078536549873   3.602181527013278   8.331143155107883 
  2.490251694125288  10.057880635965265   8.336037646439566 
  7.467199300454222  10.059348324591554   8.336027000620733 
  8.709947137431428   3.593794694349212   8.336037646439566 
 -4.980073436200889  10.061484233149098   1.669806158689255 
  0.000957772645496  10.059348324591554   1.669930212223894 
  1.249159580111936   3.595697617508200   1.674544908237518 
  4.977905378974549  10.057880635965265   1.669919566405049 
  6.218997492987897   3.595697617508200   1.674544908237518 
 11.202235609649687   3.593634601374363   1.669340672399860 
 -2.487708080706643   5.748852623523661   8.336027000620733 
 -3.734078536549910  12.219688440374780   8.335295721839897 
  1.244246102599330  12.216345812952820   8.336616540444767 
  2.497234288678149   5.744458605376432   8.331143155107883 
  6.223910970500498  12.216345812952820   8.336616540444767 
 -6.222744389902108  12.218125279164788   1.669930212223894 
  7.463556246257629   5.748216498677927   8.332739799796329 
 -1.245412683197713  12.218125279164788   1.669930212223894 
  0.004600826842207   5.748216498677926   1.673217413048299 
 -1.242021416712540   7.903318893452663   1.670661491004731 
  4.970922784421687   5.744458605376431   1.674814057736744 
  3.734078536549920  12.215216377232098   1.669260795421321 
  9.955865153806478   5.748852623523661   1.669930212223894 
 -3.734078536549903   7.903357760981896   8.336151054155373 
  2.491016236695699   1.441618680089457   8.332739799796329 
  6.220493946403421   7.901263558998849   8.332739799796329 
  7.466120295006798   1.439423407451769   8.336037646439566 
 12.448129946651074   1.437941180267073   8.336696417423308 
  3.734078536549917   5.030366245922021   5.002978606422314 
Generated by cif2cell 2.0.0.  :  Failed to get author information, No journal information. Species order: N B Sb 
 1.0
 14.936314146199660   0.000000000000000   0.000000000000000
 -7.468157073099825  12.935227489513863   0.000000000000000
  0.000000000000001   0.000000000000001  13.341276283792837
 N B Sb 
 144 143   1
Cartesian
  1.242888681597972   0.717710265594966   1.664410962103890 
  4.979086953897560   7.187149773465531   1.663291195415098 
  6.225268391501858   0.717710265594966   1.664410962103890 
  9.958680091498092   7.186040075749339   1.665519524080345 
 11.202235609649751   0.718623749417456   1.666106345127644 
 -3.734078536549858   9.342108742426664   8.340101107581138 
  1.244803827279750   9.344127936124105   8.341546250740723 
  2.488753419907314   2.873765564801821   8.342666017429531 
  6.223353245820088   9.344127936124105   8.341546250740723 
  7.469923703103180   2.873475033361780   8.340343096109615 
 12.445386932135825   2.873025045752835   8.340240476930234 
 -1.245090539827855   9.343192406029722   1.665519524080345 
 -0.001766630003258   2.873475033361779   1.665614116735013 
  4.979403653192534   2.873765564801821   1.663291195415098 
  3.734078536549970   9.344148671042596   1.665614116735013 
  8.713247612927692   9.343192406029722   1.665519524080345 
  9.959084287163652   2.873025045752835   1.665716735914393 
 -4.979511015120250  11.497093745500942   8.340437688764283 
  0.001286241204005  11.498722602384307   8.340114752925841 
  1.243745002559718   5.030183399498789   8.342666017429531 
  6.224412070540223   5.030183399498789   8.342666017429531 
  4.978269127879476  11.500049964742360   8.340240476930234 
 11.202235609649748   5.028881022511286   8.340114752925841 
 -1.246386027672136   5.029260536047068   1.664410962103890 
 -2.488646057979450  11.497093745500942   1.665519524080345 
  2.489887945220470  11.500049964742360   1.665716735914393 
  3.734078536549917   5.030366245922020   1.583831891937962 
  7.466870831895849  11.498722602384307   1.665842459918788 
  8.714543100772088   5.029260536047068   1.664410962103890 
 -0.000849201822305   7.186727781075098   8.340577631726850 
  1.242888681597973   0.717710265594966   8.341546250740723 
  4.979086953897561   7.187149773465532   8.342666017429531 
  6.225268391501859   0.717710265594966   8.341546250740723 
  9.958680091498092   7.186040075749340   8.340437688764283 
 -2.490523018398256   7.186040075749339   1.665519524080345 
 11.202235609649751   0.718623749417456   8.339850867716985 
  3.734078536549915   0.717643175616049   1.665379581117777 
  2.489070119202277   7.187149773465531   1.663291195415098 
  7.469006274922140   7.186727781075097   1.665379581117777 
  8.714893695834157   0.718023727270946   1.665716735914393 
  2.489070119202278   7.187149773465532   8.342666017429531 
 13.689577523465335   0.718023727270946   1.665716735914393 
 -1.245090539827854   9.343192406029722   8.340437688764283 
 -0.001766630003257   2.873475033361780   8.340343096109615 
  4.979403653192535   2.873765564801821   8.342666017429531 
  3.734078536549970   9.344148671042596   8.340343096109615 
  8.713247612927692   9.343192406029722   8.340437688764283 
  9.959084287163652   2.873025045752835   8.340240476930234 
 -3.734078536549859   9.342108742426664   1.665856105263490 
  1.244803827279750   9.344127936124105   1.664410962103890 
  2.488753419907313   2.873765564801821   1.663291195415098 
  6.223353245820087   9.344127936124105   1.664410962103890 
  7.469923703103179   2.873475033361779   1.665614116735013 
 12.445386932135825   2.873025045752835   1.665716735914393 
 -1.246386027672135   5.029260536047069   8.341546250740723 
 -2.488646057979449  11.497093745500942   8.340437688764283 
  2.489887945220471  11.500049964742360   8.340240476930234 
  3.734078536549917   5.030366245922021   8.422125320906666 
  7.466870831895850  11.498722602384307   8.340114752925841 
 -4.979511015120250  11.497093745500942   1.665519524080345 
  8.714543100772088   5.029260536047069   8.341546250740723 
  0.001286241204005  11.498722602384307   1.665842459918788 
  1.243745002559718   5.030183399498788   1.663291195415098 
 -0.000849201822305   7.186727781075097   1.665379581117777 
  6.224412070540222   5.030183399498788   1.663291195415098 
  4.978269127879475  11.500049964742360   1.665716735914393 
 11.202235609649748   5.028881022511285   1.665842459918788 
 -2.490523018398256   7.186040075749340   8.340437688764283 
  3.734078536549915   0.717643175616049   8.340577631726850 
  7.469006274922141   7.186727781075098   8.340577631726850 
  8.714893695834157   0.718023727270946   8.340240476930234 
 13.689577523465335   0.718023727270946   8.340240476930234 
 -0.036322337061564   1.413532398776827   5.002978606422314 
  3.734078536549919   7.928117729289712   5.002978606422314 
  5.060797445554778   1.287503086703004   5.002978606422314 
  8.734991690777115   7.917644801709181   5.002978606422314 
  9.981922973652793   1.423171578305807   5.002978606422314 
 -4.978675543113869  10.060677159199004  11.673616748318732 
 -0.000034784539494  10.061254488163426  11.673616748318732 
  1.244075761521000   3.592762473476222  11.673616748318732 
  4.978856182430454  10.061560132412772  11.673616748318732 
  6.224081311578819   3.592762473476222  11.673616748318732 
 11.202235609649694   3.592689070477224  11.673616748318732 
 -2.501665483132404  10.053642750570113   5.002978606422314 
 -1.283391893150998   3.573520230496107   5.002978606422314 
  3.734078536549864   3.088291588466442   5.002978606422314 
  2.487008980460484  10.104046108493311   5.002978606422314 
  7.498018907469972  10.105479413968927   5.002978606422314 
  8.751548966250830   3.573520230496107   5.002978606422314 
 -6.223898897386619  12.216312617641943  11.673616748318732 
 -1.244258175713199  12.216312617641943  11.673616748318732 
 -0.000701176485336   5.748907390871656  11.673616748318732 
  4.979182629493157   5.749227429151900  11.673616748318732 
  3.734078536549928  12.217071334327745  11.673616748318732 
  9.958012218475989   5.748759121474651  11.673616748318732 
 -2.543068579519574   5.752477641445267   5.002978606422314 
 -3.734078536549910  12.191036623861747   5.002978606422314 
  1.261512243558692  12.226314424083574   5.002978606422314 
  2.052192547147357   6.001403574649856   5.002978606422314 
  6.206644829541147  12.226314424083574   5.002978606422314 
  7.638852569824984   5.752825546652137   5.002978606422314 
 -1.245206058102071   7.905157547016182  11.673616748318732 
 -0.000674357575704   1.436760239281197  11.673616748318732 
  3.734078536549919   7.905573790813803  11.673616748318732 
  4.979193507876739   1.436681564419989  11.673616748318732 
  8.713363131201804   7.905157547016182  11.673616748318732 
 -3.734078536549911   7.919040726139882   5.002978606422314 
  9.957947712616082   1.437013701719244  11.673616748318732 
  2.407359627544948   1.287503086703004   5.002978606422314 
  1.156023412279716   8.050770104411104   5.002978606422314 
  6.312133660820017   8.050770104411104   5.002978606422314 
  7.504479410161395   1.413532398776827   5.002978606422314 
  1.244413794841495   7.905509782474588  11.673616748318732 
 12.422548245646608   1.423171578305807   5.002978606422314 
 -2.489481529985952  10.060677159199004  11.673616748318732 
 -1.245452003456230   3.592778366072264  11.673616748318732 
  3.734078536549857   3.592643879462342  11.673616748318732 
  2.489300890669401  10.061560132412772  11.673616748318732 
  7.468191857639230  10.061254488163426  11.673616748318732 
  8.713609076556063   3.592778366072264  11.673616748318732 
 -4.966491589967417  10.053642750570113   5.002978606422314 
 -0.029861834370252  10.105479413968927   5.002978606422314 
  1.224552138099524   3.581490504238266   5.002978606422314 
  4.981148092639353  10.104046108493311   5.002978606422314 
  6.243604935000310   3.581490504238266   5.002978606422314 
 11.202235609649694   3.573697379112868   5.002978606422314 
 -2.489855145376154   5.748759121474651  11.673616748318732 
 -3.734078536549903  12.216011133247733  11.673616748318732 
  1.245064956376329  12.216818578401400  11.673616748318732 
  2.488974443606681   5.749227429151900  11.673616748318732 
  6.223092116723513  12.216818578401400  11.673616748318732 
 -6.247285281699297  12.168369171865821   5.002978606422314 
  7.468858249585172   5.748907390871656  11.673616748318732 
 -1.220871791400538  12.168369171865821   5.002978606422314 
 -0.170695496725148   5.752825546652137   5.002978606422314 
 -1.266834617677397   7.917644801709181   5.002978606422314 
  5.415964525952471   6.001403574649843   5.002978606422314 
  3.734078536549928  12.244755581154617   5.002978606422314 
 10.011225652619409   5.752477641445267   5.002978606422314 
 -3.734078536549918   7.904971908882090  11.673616748318732 
  2.488963565222973   1.436681564419989  11.673616748318732 
  6.223743278258238   7.905509782474588  11.673616748318732 
  7.468831430675536   1.436760239281197  11.673616748318732 
 12.446523506683304   1.437013701719244  11.673616748318732 
  1.167299181962838   0.645918657332684   5.002978606422314 
  5.103896643873316   7.321842151440820   5.002978606422314 
  6.300857891136992   0.645918657332684   5.002978606422314 
  9.966241866754340   7.193361355033121   5.002978606422314 
 11.202235609649751   0.718623749417456   5.002978606422314 
 -3.734078536549858   9.342108742426666  11.673616748318732 
  1.244685701819676   9.340694269009974  11.673616748318732 
  2.490751675249261   2.875823469919859  11.673616748318732 
  6.223471371280178   9.340694269009974  11.673616748318732 
  7.466408062995235   2.875504789124476  11.673616748318732 
 12.447706852342741   2.875390278904681  11.673616748318732 
 -1.255211841303934   9.346080455857450   5.002978606422314 
 -0.013081104079942   2.866942618707858   5.002978606422314 
  5.033645829227396   2.698331013656722   5.002978606422314 
  3.734078536549970   9.357213500350438   5.002978606422314 
  8.723368914403771   9.346080455857450   5.002978606422314 
  9.967240706243871   2.856948068235285   5.002978606422314 
 -4.978356014901753  11.498257657933173  11.673616748318732 
 -0.000812330872028  11.497510991231314  11.673616748318732 
  1.246526328341482   5.030884986829158  11.673616748318732 
  6.221630744758458   5.030884986829158  11.673616748318732 
  4.979157519771403  11.496858238332496  11.673616748318732 
 11.202235609649746   5.031304244817302  11.673616748318732 
 -1.346354134023387   4.999693913234842   5.002978606422314 
 -2.491205584199290  11.486884416389445   5.002978606422314 
  2.499732806626636  11.515152119628505   5.002978606422314 
  7.466083005121900  11.499177454384322   5.002978606422314 
  8.814511207123324   4.999693913234842   5.002978606422314 
  0.000863852749603   7.185738748556871  11.673616748318732 
  1.245921387276980   0.719324799502762  11.673616748318732 
  4.978303883457752   7.184390281017139  11.673616748318732 
  6.222235685822851   0.719324799502762  11.673616748318732 
  9.957094613654768   7.186458379063820  11.673616748318732 
 -2.498084793654502   7.193361355033121   5.002978606422314 
 11.202235609649751   0.718623749417457  11.673616748318732 
  3.734078536549908   0.661381977298605   5.002978606422314 
  2.364260429226534   7.321842151440820   5.002978606422314 
  7.517729901912406   7.214858380233815   5.002978606422314 
  8.732894976320527   0.718998549902351   5.002978606422314 
  2.489853189642072   7.184390281017139  11.673616748318732 
 13.671576242978963   0.718998549902351   5.002978606422314 
 -1.244660062203027   9.341610190283015  11.673616748318732 
  0.001749010104704   2.875504789124476  11.673616748318732 
  4.977405397850557   2.875823469919859  11.673616748318732 
  3.734078536549973   9.340089159517204  11.673616748318732 
  8.712817135302863   9.341610190283015  11.673616748318732 
  9.956764366956751   2.875390278904681  11.673616748318732 
 -3.734078536549858   9.342108742426664   5.002978606422314 
  1.220425220563639   9.445486167198629   5.002978606422314 
  2.434511243872437   2.698331013656722   5.002978606422314 