B N O                                   
   1.0000000000000000     
     8.7639499999999995  -15.1796066749929999    0.0000000000000000
     8.7639499999999995   15.1796066749929999    0.0000000000000000
     0.0000000000000000    0.0000000000000000   15.0000000000000000
   B    N    O 
    47    48     2
Selective dynamics
Direct
  0.9037551122943082  0.9515438569261745  0.1109960025184056   T   T   T
  0.9044011469947772  0.0947846603291322  0.1110959695686110   T   T   T
  0.9049772155553025  0.2379854235691759  0.1111206078692348   T   T   T
  0.9058232340494176  0.3811947132736311  0.1110599905668950   T   T   T
  0.9066070895347796  0.5243705502895413  0.1110097269770839   T   T   T
  0.9053425964097933  0.6672187175568134  0.1110250447044037   T   T   T
  0.9041189050039176  0.8091574844877232  0.1109911816957328   T   T   T
  0.0468535431549479  0.9523012235494256  0.1110112458973050   T   T   T
  0.0468655190050504  0.0951914153332847  0.1111261993550838   T   T   T
  0.0471006636904898  0.2382302704965210  0.1111619213941975   T   T   T
  0.0476156874736354  0.3814751827638287  0.1111297691002105   T   T   T
  0.0484084553595059  0.5247637829066405  0.1110801722065285   T   T   T
  0.0481579750814525  0.6677640112443786  0.1110584186778050   T   T   T
  0.0477595527725824  0.8103240422354628  0.1109784665945746   T   T   T
  0.1904756904891066  0.9533951803523810  0.1110190674566466   T   T   T
  0.1891973468663265  0.0952001470946494  0.1112196971900114   T   T   T
  0.1897459536401209  0.2389894191041479  0.1113095602286111   T   T   T
  0.1893078677278426  0.3817420889704329  0.1112565435416272   T   T   T
  0.1902427676066699  0.5249921796681323  0.1110380974488416   T   T   T
  0.1905154652770723  0.6681271899426695  0.1110792171380103   T   T   T
  0.1907894299295041  0.8109536734142636  0.1110645293629514   T   T   T
  0.3336945351878050  0.9538178300932619  0.1111084988110169   T   T   T
  0.3332355469685908  0.0964799517530530  0.1110938981372281   T   T   T
  0.3317492559415684  0.2397814634380583  0.1101729092124996   T   T   T
  0.3333701801065516  0.3810686095522501  0.1102409354637866   T   T   T
  0.3320051646033798  0.5261326395530508  0.1111179966652152   T   T   T
  0.3324804090805162  0.6684571923857208  0.1110391684394654   T   T   T
  0.3334976035398634  0.8111503633322851  0.1111234047008760   T   T   T
  0.4765872749606329  0.9530003515688887  0.1110286421287692   T   T   T
  0.4766669260304119  0.0952546042963508  0.1110408670419177   T   T   T
  0.4750423629379164  0.2366455887000482  0.1109330090314955   T   T   T
  0.4735679935293138  0.6676591513898888  0.1112203873672599   T   T   T
  0.4759898799405976  0.8103635693873630  0.1110778173866580   T   T   T
  0.6192062747356293  0.9521437770768180  0.1110533632672348   T   T   T
  0.6196617561887394  0.0950972134901597  0.1109553928022751   T   T   T
  0.6199293161132391  0.2377268649771095  0.1109727373712925   T   T   T
  0.6223385779483135  0.3813550223834702  0.1110657564072608   T   T   T
  0.6231489611666852  0.5223589396339933  0.1111023993100378   T   T   T
  0.6159823154686154  0.6629566349304833  0.1112779555699211   T   T   T
  0.6182565001192484  0.8086585119477311  0.1110875516585469   T   T   T
  0.7614337840964270  0.9515337894499679  0.1110571763325643   T   T   T
  0.7621392515484853  0.0948068053803037  0.1110983403276564   T   T   T
  0.7626794960618591  0.2378099969775435  0.1109592918992459   T   T   T
  0.7639367724871957  0.3808070333432476  0.1108940475780481   T   T   T
  0.7652778728088631  0.5240007690707386  0.1110088307645385   T   T   T
  0.7612985884816786  0.6658204683862676  0.1111254292683151   T   T   T
  0.7601003477291982  0.8076519839242934  0.1110610300955062   T   T   T
  0.9515662607075009  0.9043147225948006  0.1109561136259651   T   T   T
  0.9514546084357386  0.0468937863083948  0.1110266795371665   T   T   T
  0.9519302828669390  0.1900318670373485  0.1111019583558276   T   T   T
  0.9527435073052462  0.3332899457521388  0.1111143116639628   T   T   T
  0.9537973567141257  0.4766184704192881  0.1110665247839469   T   T   T
  0.9534270370562780  0.6198736098654234  0.1110339735124400   T   T   T
  0.9526637037435078  0.7624912753037514  0.1109766931513145   T   T   T
  0.0950256997346432  0.9052753233493375  0.1109547244562591   T   T   T
  0.0938055756048738  0.0470838197045213  0.1111140458259809   T   T   T
  0.0940277098956191  0.1904226658067576  0.1112168933040566   T   T   T
  0.0941522012567474  0.3335170553384426  0.1111618407686553   T   T   T
  0.0952994431900605  0.4769088316227350  0.1110664867319728   T   T   T
  0.0956079744682805  0.6201557122056160  0.1110587192487638   T   T   T
  0.0956273695285822  0.7629988002186163  0.1110170542823477   T   T   T
  0.2382690893456245  0.9058484593390785  0.1110245270776890   T   T   T
  0.2374137851717556  0.0479372616611018  0.1110825270548359   T   T   T
  0.2349784834828793  0.1891756304038837  0.1112976876494451   T   T   T
  0.2359383671375839  0.3347180007127841  0.1113441419983401   T   T   T
  0.2368180568320630  0.4771866872396938  0.1110789655876283   T   T   T
  0.2375160707698725  0.6204554278989834  0.1110064948852563   T   T   T
  0.2382844907488907  0.7633545552550164  0.1111165179085684   T   T   T
  0.3813055571584907  0.9059937017107190  0.1110953270884858   T   T   T
  0.3810958165408727  0.0482973045735912  0.1111287533553911   T   T   T
  0.3795537621287588  0.1904183717138144  0.1108099924914229   T   T   T
  0.3694023867345935  0.3287631137433052  0.1082386140712864   T   T   T
  0.3777814368930260  0.4792209014084442  0.1110208388670415   T   T   T
  0.3791579936097197  0.6211736206592510  0.1110356122424054   T   T   T
  0.3808135040458135  0.7635598543687729  0.1110590909987681   T   T   T
  0.5240647278465672  0.9052326089830194  0.1110260470764436   T   T   T
  0.5244788834804539  0.0475490495415738  0.1109365980887996   T   T   T
  0.5246151754058752  0.1891388358891977  0.1110461160085768   T   T   T
  0.5305249096604089  0.3270220451067787  0.1109348259377045   T   T   T
  0.5199191432601225  0.6205563537036973  0.1114804245895509   T   T   T
  0.5232570305421907  0.7626569263403633  0.1111105710716329   T   T   T
  0.6663564639242606  0.9040685645460526  0.1110358594373836   T   T   T
  0.6670914680422891  0.0471811480914671  0.1110348481296227   T   T   T
  0.6677300963105139  0.1898809009757959  0.1108913461317585   T   T   T
  0.6697591612964389  0.3325230979944130  0.1109590790827326   T   T   T
  0.6727502754187250  0.4765079079175231  0.1111758131149213   T   T   T
  0.6662308754464348  0.6183062940021602  0.1111982178920447   T   T   T
  0.6643005460118350  0.7595820000604709  0.1111081627326651   T   T   T
  0.8083206141207790  0.9033776870780399  0.1109947520378955   T   T   T
  0.8092769107111886  0.0468381079922097  0.1111006820919692   T   T   T
  0.8099960248389410  0.1899525848437466  0.1110636885679186   T   T   T
  0.8112033381517693  0.3329775586188967  0.1109216838526578   T   T   T
  0.8126244963533430  0.4763065913058584  0.1108568343110514   T   T   T
  0.8108747903156228  0.6197201118847619  0.1110171990314384   T   T   T
  0.8088826648817837  0.7613179865498290  0.1110432746371196   T   T   T
  0.4722060446126929  0.5261300397040927  0.1111462045584117   T   T   T
  0.5386333164725693  0.4640809275676070  0.1109002408830574   T   T   T

  0.00000000E+00  0.00000000E+00  0.00000000E+00
  0.00000000E+00  0.00000000E+00  0.00000000E+00
  0.00000000E+00  0.00000000E+00  0.00000000E+00
  0.00000000E+00  0.00000000E+00  0.00000000E+00
  0.00000000E+00  0.00000000E+00  0.00000000E+00
  0.00000000E+00  0.00000000E+00  0.00000000E+00
  0.00000000E+00  0.00000000E+00  0.00000000E+00
  0.00000000E+00  0.00000000E+00  0.00000000E+00
  0.00000000E+00  0.00000000E+00  0.00000000E+00
  0.00000000E+00  0.00000000E+00  0.00000000E+00
  0.00000000E+00  0.00000000E+00  0.00000000E+00
  0.00000000E+00  0.00000000E+00  0.00000000E+00
  0.00000000E+00  0.00000000E+00  0.00000000E+00
  0.00000000E+00  0.00000000E+00  0.00000000E+00
  0.00000000E+00  0.00000000E+00  0.00000000E+00
  0.00000000E+00  0.00000000E+00  0.00000000E+00
  0.00000000E+00  0.00000000E+00  0.00000000E+00
  0.00000000E+00  0.00000000E+00  0.00000000E+00
  0.00000000E+00  0.00000000E+00  0.00000000E+00
  0.00000000E+00  0.00000000E+00  0.00000000E+00
  0.00000000E+00  0.00000000E+00  0.00000000E+00
  0.00000000E+00  0.00000000E+00  0.00000000E+00
  0.00000000E+00  0.00000000E+00  0.00000000E+00
  0.00000000E+00  0.00000000E+00  0.00000000E+00
  0.00000000E+00  0.00000000E+00  0.00000000E+00
  0.00000000E+00  0.00000000E+00  0.00000000E+00
  0.00000000E+00  0.00000000E+00  0.00000000E+00
  0.00000000E+00  0.00000000E+00  0.00000000E+00
  0.00000000E+00  0.00000000E+00  0.00000000E+00
  0.00000000E+00  0.00000000E+00  0.00000000E+00
  0.00000000E+00  0.00000000E+00  0.00000000E+00
  0.00000000E+00  0.00000000E+00  0.00000000E+00
  0.00000000E+00  0.00000000E+00  0.00000000E+00
  0.00000000E+00  0.00000000E+00  0.00000000E+00
  0.00000000E+00  0.00000000E+00  0.00000000E+00
  0.00000000E+00  0.00000000E+00  0.00000000E+00
  0.00000000E+00  0.00000000E+00  0.00000000E+00
  0.00000000E+00  0.00000000E+00  0.00000000E+00
  0.00000000E+00  0.00000000E+00  0.00000000E+00
  0.00000000E+00  0.00000000E+00  0.00000000E+00
  0.00000000E+00  0.00000000E+00  0.00000000E+00
  0.00000000E+00  0.00000000E+00  0.00000000E+00
  0.00000000E+00  0.00000000E+00  0.00000000E+00
  0.00000000E+00  0.00000000E+00  0.00000000E+00
  0.00000000E+00  0.00000000E+00  0.00000000E+00
  0.00000000E+00  0.00000000E+00  0.00000000E+00
  0.00000000E+00  0.00000000E+00  0.00000000E+00
  0.00000000E+00  0.00000000E+00  0.00000000E+00
  0.00000000E+00  0.00000000E+00  0.00000000E+00
  0.00000000E+00  0.00000000E+00  0.00000000E+00
  0.00000000E+00  0.00000000E+00  0.00000000E+00
  0.00000000E+00  0.00000000E+00  0.00000000E+00
  0.00000000E+00  0.00000000E+00  0.00000000E+00
  0.00000000E+00  0.00000000E+00  0.00000000E+00
  0.00000000E+00  0.00000000E+00  0.00000000E+00
  0.00000000E+00  0.00000000E+00  0.00000000E+00
  0.00000000E+00  0.00000000E+00  0.00000000E+00
  0.00000000E+00  0.00000000E+00  0.00000000E+00
  0.00000000E+00  0.00000000E+00  0.00000000E+00
  0.00000000E+00  0.00000000E+00  0.00000000E+00
  0.00000000E+00  0.00000000E+00  0.00000000E+00
  0.00000000E+00  0.00000000E+00  0.00000000E+00
  0.00000000E+00  0.00000000E+00  0.00000000E+00
  0.00000000E+00  0.00000000E+00  0.00000000E+00
  0.00000000E+00  0.00000000E+00  0.00000000E+00
  0.00000000E+00  0.00000000E+00  0.00000000E+00
  0.00000000E+00  0.00000000E+00  0.00000000E+00
  0.00000000E+00  0.00000000E+00  0.00000000E+00
  0.00000000E+00  0.00000000E+00  0.00000000E+00
  0.00000000E+00  0.00000000E+00  0.00000000E+00
  0.00000000E+00  0.00000000E+00  0.00000000E+00
  0.00000000E+00  0.00000000E+00  0.00000000E+00
  0.00000000E+00  0.00000000E+00  0.00000000E+00
  0.00000000E+00  0.00000000E+00  0.00000000E+00
  0.00000000E+00  0.00000000E+00  0.00000000E+00
  0.00000000E+00  0.00000000E+00  0.00000000E+00
  0.00000000E+00  0.00000000E+00  0.00000000E+00
  0.00000000E+00  0.00000000E+00  0.00000000E+00
  0.00000000E+00  0.00000000E+00  0.00000000E+00
  0.00000000E+00  0.00000000E+00  0.00000000E+00
  0.00000000E+00  0.00000000E+00  0.00000000E+00
  0.00000000E+00  0.00000000E+00  0.00000000E+00
  0.00000000E+00  0.00000000E+00  0.00000000E+00
  0.00000000E+00  0.00000000E+00  0.00000000E+00
  0.00000000E+00  0.00000000E+00  0.00000000E+00
  0.00000000E+00  0.00000000E+00  0.00000000E+00
  0.00000000E+00  0.00000000E+00  0.00000000E+00
  0.00000000E+00  0.00000000E+00  0.00000000E+00
  0.00000000E+00  0.00000000E+00  0.00000000E+00
  0.00000000E+00  0.00000000E+00  0.00000000E+00
  0.00000000E+00  0.00000000E+00  0.00000000E+00
  0.00000000E+00  0.00000000E+00  0.00000000E+00
  0.00000000E+00  0.00000000E+00  0.00000000E+00
  0.00000000E+00  0.00000000E+00  0.00000000E+00
  0.00000000E+00  0.00000000E+00  0.00000000E+00
  0.00000000E+00  0.00000000E+00  0.00000000E+00
  0.00000000E+00  0.00000000E+00  0.00000000E+00
