 B Si N 
 1.0
 17.527899999999772   0.000000000000000   0.000000000000000
 -8.763949999999658  15.179606674993195   0.000000000000000
  0.000000000000001   0.000000000000002  15.000000000000000
 B Si N 
  48   2  48
Cartesian
  7.514924519262850  14.467001170059749   1.674313144671660 
 15.016947032644755   1.449719825598563   1.643590577300160 
 13.760506541274179   3.617548673264070   1.645613093661120 
 12.508978364565129   5.786317817683677   1.666661116758105 
 11.263189711308684   7.954670306405177   1.692850354712940 
 10.020931500872189  10.125317587600634   1.695802094170320 
  8.772637858318024  12.298956875563015   1.705337798744805 
 -7.509810085414993  14.455549111679760   1.691443993144920 
 -0.007360556558696   1.438021229719253   1.674313144671660 
 -1.265708970409196   3.609442769196491   1.669522443150180 
 -2.517042103313906   5.781914223179901   1.673871482139900 
 -3.760723221749295   7.951630254891344   1.671297111443730 
 -5.004386242513686  10.119737783328796   1.675166386120065 
 -6.254774227320472  12.288873077297055   1.686118241719635 
 -5.005895668821559  14.451994193100941   1.686118241719635 
  2.499077548533071   1.432831674667509   1.705337798744805 
  1.230235034025528   3.585995113293812   1.716918546798120 
 -0.021356840164224   5.770166477225755   1.752132170568210 
 -1.258012832290238   7.947008480407318   1.725226133343645 
 -2.499932984247259  10.119737783328796   1.673109708455715 
 -3.751564150553090  12.285724809506386   1.661724406538775 
 -2.502210834917404  14.453694080655493   1.675166386120065 
  5.005651211866897   1.438597312814236   1.695802094170320 
  3.741525972573675   3.588533060639747   1.685714406453120 
  2.455558189482918   5.725383063580684   1.746150787382865 
  1.244380575188403   7.932367472823208   1.834631294267430 
  0.012142548917504  10.112747733426344   1.747949011410450 
 -1.249984205784233  12.284773936406056   1.673109708455715 
 -0.002707699433213  14.460704075144942   1.671297111443730 
  7.506616005255800   1.448093785113806   1.692850354712940 
  6.250242432718506   3.613281625630449   1.684565922171690 
  4.980276894777676   5.719100003763163   1.377792259668015 
  2.516526257645262  10.135788429468109   1.834631294267430 
  1.252650069410102  12.295604186800025   1.725226133343645 
  2.498162062227419  14.468502648228672   1.673871482139900 
 10.007358671459006   1.453385408008264   1.666661116758105 
  8.753165393212690   3.621096484863967   1.689819020447355 
  7.500425866133526   5.789385344453415   1.639990085040735 
  6.301220270998390   8.007041045328931   1.377792259668015 
  5.033419628935519  10.190370051615117   1.746150787382865 
  3.756178540236003  12.313049683467408   1.752132170568210 
  5.005244096825678  14.471052093527691   1.669522443150180 
 12.511331933824261   1.453914785636184   1.645613093661120 
 11.256744637857970   3.620673690436166   1.661893151834580 
 10.004588864820096   5.788625519472675   1.689819020447355 
  8.759895251187938   7.960127816607860   1.684565922171690 
  7.526969907104173  10.145114284480913   1.685714406453120 
  6.273522364714343  12.321225007214959   1.716918546798120 
  4.001297437625483   7.809608084591721   1.488517482292800 
  5.134712134527283   7.155224537280512  14.658066374508795 
  8.766269945374077  13.740938839401691   1.692174381323925 
 16.269912134441526   0.726313819859882   1.655038827157275 
 15.011453256469562   2.892633009659223   1.642898392965105 
 13.760426759182831   5.059868891664398   1.654231076495940 
 12.513113748741866   7.231029413801052   1.675347642655995 
 11.269458876134149   9.399595679509551   1.692523677428055 
 10.020715367065492  11.570054017968417   1.700495092635930 
 -6.257771544127142  13.732678055900555   1.688695319783550 
  1.247095152256005   0.717346066730426   1.692174381323925 
 -0.018034703951174   2.877037498008128   1.681179758979150 
 -1.270016498386392   5.053841807171043   1.691837758066305 
 -2.511139129900154   7.227211720124669   1.679775275305170 
 -3.753586637622369   9.396626058441436   1.666991193415320 
 -5.003996222908847  11.564831508241319   1.669283718322650 
 -3.753473701738773  13.730800050916979   1.669283718322650 
  3.754359267153339   0.716406874601146   1.700495092635930 
  2.489591305715622   2.873546382973431   1.716581094419490 
  1.214487986205457   5.021040406222181   1.760582581497390 
 -0.012758111572014   7.217911216966609   1.788142019626890 
 -1.245594801054682   9.393353374804326   1.708355456203755 
 -2.499335055415465  11.562743737410903   1.658928853427970 
 -1.250547908945171  13.732016309823122   1.666991193415320 
  6.258403080648881   0.720192442166038   1.692523677428055 
  5.001103156426168   2.883795936209452   1.683926268932325 
  3.724509833788362   5.030240524575430   1.628652634905180 
  2.454999701520855   7.150346116865464   1.842828682331205 
  1.268191984507294   9.387560986731932   1.825615066395060 
  0.006282236506884  11.561668008690370   1.708355456203755 
  1.249443773215010  13.740732374425580   1.679775275305170 
  8.758263992828244   0.727438861801807   1.675347642655995 
  7.503067123571758   2.895574295437964   1.703876423473635 
  6.246710688333748   5.064717432866368   1.627681698820515 
  3.799080754025208   9.478362789324065   1.842828682331205 
  2.506688754381692  11.581721195799496   1.788142019626890 
  3.752198645410907  13.752573602799433   1.691837758066305 
 11.262176093252085   0.732814369357268   1.654231076495940 
 10.004880727844762   2.898942370392406   1.672774171968240 
  8.750433242375143   5.067686982350143   1.688332997438550 
  7.501143670644741   7.237459092920153   1.627681698820515 
  6.269901121787889   9.438987560563532   1.628652634905075 
  5.022857734207971  11.617330303801152   1.760582581497390 
  6.263357373448406  13.756727718324417   1.681179758979150 
 13.764595244383354   0.733011582902259   1.642898392965105 
 12.508482787289033   2.897976065976251   1.644108820486050 
 11.255844913403532   5.065675898198759   1.672774171968240 
 10.007854949739293   7.233994072509792   1.703876423473635 
  8.767073324464452   9.406647607040773   1.683926268932325 
  7.520193772588976  11.586805448279925   1.716581094419490 
