B Ge N                                  
   1.0000000000000000     
     8.7639499999999995  -15.1796066749929999    0.0000000000000000
     8.7639499999999995   15.1796066749929999    0.0000000000000000
     0.0000000000000000    0.0000000000000000   15.0000000000000000
   B    Ge   N 
    48     1    49
Selective dynamics
Direct
  0.9054520473636710  0.9529238756260577  0.1085564189756814   T   T   T
  0.9047055510298165  0.0952961956621408  0.1096325534200902   T   T   T
  0.9045590809563181  0.2380867551480635  0.1102931749404600   T   T   T
  0.9049027784899452  0.3810734317518849  0.1097781053361855   T   T   T
  0.9056318347350568  0.5240980474802238  0.1093153787821556   T   T   T
  0.9059504370143938  0.6672232712239556  0.1091659962666186   T   T   T
  0.9057417466331933  0.8100652357290145  0.1090418237282494   T   T   T
  0.0477694267587254  0.9522322966062976  0.1101935879516700   T   T   T
  0.0470778397159774  0.0945496731083682  0.1085564185026798   T   T   T
  0.0467877753111857  0.2374740571547067  0.1076715684159765   T   T   T
  0.0469634472098780  0.3809016350346578  0.1075736962820221   T   T   T
  0.0474616798656712  0.5240546179462225  0.1085156647813767   T   T   T
  0.0480734030107644  0.6669522292145186  0.1103100033350954   T   T   T
  0.0480773568629084  0.8096744509538371  0.1109833460163497   T   T   T
  0.1903272987392287  0.9519244062301300  0.1109833444903572   T   T   T
  0.1899364653069873  0.0942599660748106  0.1090418196042523   T   T   T
  0.1884131542961653  0.2358238235433903  0.1069134906464127   T   T   T
  0.1886364133159560  0.3799682572182454  0.1080843230972949   T   T   T
  0.1890623007239125  0.5239837925275854  0.1068895689419330   T   T   T
  0.1903891873890864  0.6668805056085243  0.1090982023660584   T   T   T
  0.1905029210261929  0.8094987735148016  0.1109311355467265   T   T   T
  0.3330495064904683  0.9519283208232550  0.1103100057490933   T   T   T
  0.3327784427530971  0.0940513029056052  0.1091659918896185   T   T   T
  0.3323176484010858  0.2363439746332890  0.1082489371492002   T   T   T
  0.3284646578956285  0.3758626780823716  0.1188081148890585   T   T   T
  0.3289023458842321  0.5234151231114723  0.1215949228723266   T   T   T
  0.3330550946016641  0.6669466081722801  0.1097920098681489   T   T   T
  0.3331211477114251  0.8096124414539208  0.1090982058990616   T   T   T
  0.4759470694727955  0.9525399010642862  0.1085156700923792   T   T   T
  0.4759036940257617  0.0943699879409667  0.1093153874751553   T   T   T
  0.4757301445785241  0.2358126760795061  0.1078038429260037   T   T   T
  0.4748255243465716  0.3760513956008777  0.1104838471580095   T   T   T
  0.4765866613215256  0.6710995114558105  0.1215949233863334   T   T   T
  0.4760179232624305  0.8109393863440703  0.1068895746789332   T   T   T
  0.6191001039374203  0.9530382372071362  0.1075736983890229   T   T   T
  0.6189282385961823  0.0950989087920889  0.1097781064221861   T   T   T
  0.6190094720684954  0.2372400288382120  0.1082987292051241   T   T   T
  0.6199559503004740  0.3800457839085064  0.1073916099964450   T   T   T
  0.6239501733691126  0.5251761428563910  0.1104838419000079   T   T   T
  0.6241389713727089  0.6715370658204327  0.1188081146020570   T   T   T
  0.6200334859418005  0.8113653560870414  0.1080843187492937   T   T   T
  0.7625276833733245  0.9532139442158152  0.1076715706419716   T   T   T
  0.7619149406129270  0.0954425955777098  0.1102931773434581   T   T   T
  0.7619809880718150  0.2380207171081994  0.1104002298041357   T   T   T
  0.7627617935457717  0.3809922833625025  0.1082987207981258   T   T   T
  0.7641890760965105  0.5242715382285512  0.1078038349620071   T   T   T
  0.7636576841377585  0.6676840321439119  0.1082489457772016   T   T   T
  0.7641778478806642  0.8115885623858243  0.1069134931204088   T   T   T
  0.4721416283936828  0.5278600271532387  0.1911057696701820   T   T   T
  0.9526869837658611  0.9049402798472255  0.1094033602686093   T   T   T
  0.9523203577484080  0.0476813595616099  0.1092483161438255   T   T   T
  0.9520285056826040  0.1903878323716280  0.1096247088654861   T   T   T
  0.9521143882800710  0.3332880196946190  0.1095674906916221   T   T   T
  0.9524803490695858  0.4762379528185577  0.1094516369434843   T   T   T
  0.9527927180076602  0.6192192693957411  0.1098402922270749   T   T   T
  0.9528272259100895  0.7620846827753719  0.1099362423801718   T   T   T
  0.0953178182766340  0.9046839341913914  0.1111961871660617   T   T   T
  0.0950614255908198  0.0473147350491624  0.1094033667655989   T   T   T
  0.0941016560083450  0.1894771060125398  0.1069360159856993   T   T   T
  0.0943167182982743  0.3328573565520619  0.1066977554365417   T   T   T
  0.0944852033744947  0.4761110805517909  0.1068103690163747   T   T   T
  0.0953145484660070  0.6191609821951009  0.1093402896267424   T   T   T
  0.0954060143237541  0.7619604104665149  0.1111570950664741   T   T   T
  0.2380413016944723  0.9045956964342751  0.1111570959584762   T   T   T
  0.2379170466016513  0.0471745430539187  0.1099362349571744   T   T   T
  0.2375437439108030  0.1896361000371562  0.1078123019984291   T   T   T
  0.2352838364476647  0.3307531329005018  0.1088816697750973   T   T   T
  0.2359228816297091  0.4756903459780570  0.1084660380701435   T   T   T
  0.2379350913815067  0.6190745330855584  0.1081546539990761   T   T   T
  0.2380774864696973  0.7619241477253271  0.1099891218726100   T   T   T
  0.3808406889079359  0.9046870773169458  0.1093402937767455   T   T   T
  0.3807824577912582  0.0472090329123670  0.1098402999750745   T   T   T
  0.3807559526384136  0.1897724781578951  0.1079028878609618   T   T   T
  0.3804818519587472  0.3324077213356661  0.1116415249392659   T   T   T
  0.3694174742347620  0.4691788252949713  0.1351576487040514   T   T   T
  0.3809519716897168  0.6190498262692733  0.1169154746475136   T   T   T
  0.3809272054034086  0.7620666154984935  0.1081546586200758   T   T   T
  0.5238906516762148  0.9055163921414885  0.1068103827943667   T   T   T
  0.5237637055304052  0.0475213126904192  0.1094516373884907   T   T   T
  0.5238184927330254  0.1896091899375897  0.1083157057845851   T   T   T
  0.5240125962930298  0.3314914852546121  0.1070619349241058   T   T   T
  0.5287015053478801  0.4713000912771889  0.1259747207649203   T   T   T
  0.5308228339880873  0.6305842079042510  0.1351576502820521   T   T   T
  0.5243114366349471  0.7640789746982599  0.1084660352541419   T   T   T
  0.6671444340600253  0.9056850291746924  0.1066977532235422   T   T   T
  0.6667136500363817  0.0478872659688684  0.1095674892236266   T   T   T
  0.6666763537179542  0.1903678492449425  0.1098619435123066   T   T   T
  0.6669534093158327  0.3330484012331805  0.1072319444685071   T   T   T
  0.6685101788774001  0.4759891197169641  0.1070619145251130   T   T   T
  0.6675939093083906  0.6195198425862660  0.1116415275742633   T   T   T
  0.6692485335534842  0.7647179210203253  0.1088816626440976   T   T   T
  0.8105246065034653  0.9059000590256474  0.1069360163617037   T   T   T
  0.8096138929053426  0.0479732033904268  0.1096247185524857   T   T   T
  0.8094393323030081  0.1905623223889733  0.1110558747863182   T   T   T
  0.8096338888630515  0.3333253314430234  0.1098619375723115   T   T   T
  0.8103927016174005  0.4761832617169839  0.1083156852735824   T   T   T
  0.8102292432091035  0.6192457514085512  0.1079029032139643   T   T   T
  0.8103655620568535  0.7624579478732032  0.1078123132944243   T   T   T

  0.00000000E+00  0.00000000E+00  0.00000000E+00
  0.00000000E+00  0.00000000E+00  0.00000000E+00
  0.00000000E+00  0.00000000E+00  0.00000000E+00
  0.00000000E+00  0.00000000E+00  0.00000000E+00
  0.00000000E+00  0.00000000E+00  0.00000000E+00
  0.00000000E+00  0.00000000E+00  0.00000000E+00
  0.00000000E+00  0.00000000E+00  0.00000000E+00
  0.00000000E+00  0.00000000E+00  0.00000000E+00
  0.00000000E+00  0.00000000E+00  0.00000000E+00
  0.00000000E+00  0.00000000E+00  0.00000000E+00
  0.00000000E+00  0.00000000E+00  0.00000000E+00
  0.00000000E+00  0.00000000E+00  0.00000000E+00
  0.00000000E+00  0.00000000E+00  0.00000000E+00
  0.00000000E+00  0.00000000E+00  0.00000000E+00
  0.00000000E+00  0.00000000E+00  0.00000000E+00
  0.00000000E+00  0.00000000E+00  0.00000000E+00
  0.00000000E+00  0.00000000E+00  0.00000000E+00
  0.00000000E+00  0.00000000E+00  0.00000000E+00
  0.00000000E+00  0.00000000E+00  0.00000000E+00
  0.00000000E+00  0.00000000E+00  0.00000000E+00
  0.00000000E+00  0.00000000E+00  0.00000000E+00
  0.00000000E+00  0.00000000E+00  0.00000000E+00
  0.00000000E+00  0.00000000E+00  0.00000000E+00
  0.00000000E+00  0.00000000E+00  0.00000000E+00
  0.00000000E+00  0.00000000E+00  0.00000000E+00
  0.00000000E+00  0.00000000E+00  0.00000000E+00
  0.00000000E+00  0.00000000E+00  0.00000000E+00
  0.00000000E+00  0.00000000E+00  0.00000000E+00
  0.00000000E+00  0.00000000E+00  0.00000000E+00
  0.00000000E+00  0.00000000E+00  0.00000000E+00
  0.00000000E+00  0.00000000E+00  0.00000000E+00
  0.00000000E+00  0.00000000E+00  0.00000000E+00
  0.00000000E+00  0.00000000E+00  0.00000000E+00
  0.00000000E+00  0.00000000E+00  0.00000000E+00
  0.00000000E+00  0.00000000E+00  0.00000000E+00
  0.00000000E+00  0.00000000E+00  0.00000000E+00
  0.00000000E+00  0.00000000E+00  0.00000000E+00
  0.00000000E+00  0.00000000E+00  0.00000000E+00
  0.00000000E+00  0.00000000E+00  0.00000000E+00
  0.00000000E+00  0.00000000E+00  0.00000000E+00
  0.00000000E+00  0.00000000E+00  0.00000000E+00
  0.00000000E+00  0.00000000E+00  0.00000000E+00
  0.00000000E+00  0.00000000E+00  0.00000000E+00
  0.00000000E+00  0.00000000E+00  0.00000000E+00
  0.00000000E+00  0.00000000E+00  0.00000000E+00
  0.00000000E+00  0.00000000E+00  0.00000000E+00
  0.00000000E+00  0.00000000E+00  0.00000000E+00
  0.00000000E+00  0.00000000E+00  0.00000000E+00
  0.00000000E+00  0.00000000E+00  0.00000000E+00
  0.00000000E+00  0.00000000E+00  0.00000000E+00
  0.00000000E+00  0.00000000E+00  0.00000000E+00
  0.00000000E+00  0.00000000E+00  0.00000000E+00
  0.00000000E+00  0.00000000E+00  0.00000000E+00
  0.00000000E+00  0.00000000E+00  0.00000000E+00
  0.00000000E+00  0.00000000E+00  0.00000000E+00
  0.00000000E+00  0.00000000E+00  0.00000000E+00
  0.00000000E+00  0.00000000E+00  0.00000000E+00
  0.00000000E+00  0.00000000E+00  0.00000000E+00
  0.00000000E+00  0.00000000E+00  0.00000000E+00
  0.00000000E+00  0.00000000E+00  0.00000000E+00
  0.00000000E+00  0.00000000E+00  0.00000000E+00
  0.00000000E+00  0.00000000E+00  0.00000000E+00
  0.00000000E+00  0.00000000E+00  0.00000000E+00
  0.00000000E+00  0.00000000E+00  0.00000000E+00
  0.00000000E+00  0.00000000E+00  0.00000000E+00
  0.00000000E+00  0.00000000E+00  0.00000000E+00
  0.00000000E+00  0.00000000E+00  0.00000000E+00
  0.00000000E+00  0.00000000E+00  0.00000000E+00
  0.00000000E+00  0.00000000E+00  0.00000000E+00
  0.00000000E+00  0.00000000E+00  0.00000000E+00
  0.00000000E+00  0.00000000E+00  0.00000000E+00
  0.00000000E+00  0.00000000E+00  0.00000000E+00
  0.00000000E+00  0.00000000E+00  0.00000000E+00
  0.00000000E+00  0.00000000E+00  0.00000000E+00
  0.00000000E+00  0.00000000E+00  0.00000000E+00
  0.00000000E+00  0.00000000E+00  0.00000000E+00
  0.00000000E+00  0.00000000E+00  0.00000000E+00
  0.00000000E+00  0.00000000E+00  0.00000000E+00
  0.00000000E+00  0.00000000E+00  0.00000000E+00
  0.00000000E+00  0.00000000E+00  0.00000000E+00
  0.00000000E+00  0.00000000E+00  0.00000000E+00
  0.00000000E+00  0.00000000E+00  0.00000000E+00
  0.00000000E+00  0.00000000E+00  0.00000000E+00
  0.00000000E+00  0.00000000E+00  0.00000000E+00
  0.00000000E+00  0.00000000E+00  0.00000000E+00
  0.00000000E+00  0.00000000E+00  0.00000000E+00
  0.00000000E+00  0.00000000E+00  0.00000000E+00
  0.00000000E+00  0.00000000E+00  0.00000000E+00
  0.00000000E+00  0.00000000E+00  0.00000000E+00
  0.00000000E+00  0.00000000E+00  0.00000000E+00
  0.00000000E+00  0.00000000E+00  0.00000000E+00
  0.00000000E+00  0.00000000E+00  0.00000000E+00
  0.00000000E+00  0.00000000E+00  0.00000000E+00
  0.00000000E+00  0.00000000E+00  0.00000000E+00
  0.00000000E+00  0.00000000E+00  0.00000000E+00
  0.00000000E+00  0.00000000E+00  0.00000000E+00
  0.00000000E+00  0.00000000E+00  0.00000000E+00
  0.00000000E+00  0.00000000E+00  0.00000000E+00
