 B Ge N 
 1.0
 17.527899999999772   0.000000000000000   0.000000000000000
 -8.763949999999658  15.179606674993195   0.000000000000000
  0.000000000000001   0.000000000000002  15.000000000000000
 B Ge N 
  48   1  49
Cartesian
  7.519295741192817  14.465009623213694   1.628346284635215 
 15.022417333922135   1.446558767774493   1.644488301301350 
 13.768440697314254   3.614063297673007   1.654397624106900 
 12.521336908891897   5.784544808283478   1.646671580042775 
 11.280655152838269   7.955602219881709   1.639730681732340 
 10.031897277101429  10.128186821581957   1.637489943999285 
  8.776379538144720  12.296471659452077   1.635627355923735 
 -7.508018500558196  14.454511725709063   1.652903819275050 
 -0.003452940880387   1.435226849034208   1.628346277540200 
 -1.261119316323987   3.604762783123306   1.615073526239640 
 -2.515032278011851   5.781937001687917   1.613605444230330 
 -3.760884890432138   7.954942976637495   1.627734971720655 
 -5.002510188591996  10.124072510486304   1.654650050026425 
 -6.253251301079250  12.290539700270315   1.664750190245250 
 -5.006580040408934  14.449838070899816   1.664750167355355 
  2.503097740572986   1.430829210213834   1.635627294063780 
  1.235738728844695   3.579712885981660   1.603702359696195 
 -0.023622618887007   5.767768693555603   1.621264846459425 
 -1.278302657663318   7.953867874639979   1.603343534128995 
 -2.507384769490479  10.122983774357987   1.636473035490870 
 -3.755290626689808  12.287872985844094   1.663967033200890 
 -2.504993762464442  14.449897492883744   1.654650086236395 
  5.008646350632388   1.427661785377729   1.637489878344270 
  3.753523732921987   3.587608574937896   1.623734057238000 
  2.463253959548845   5.705447617099993   1.782121723335870 
  1.177783460231550   7.945235696575285   1.823923843084905 
 -0.007330334022796  10.123987185276013   1.646880148022235 
 -1.256488791308804  12.289598420451476   1.636473088485930 
 -0.005659426919911  14.459181040392794   1.627735051385685 
  7.514538502698840   1.432499298867730   1.639730812127325 
  6.271899898630895   3.579543671864478   1.617057643890060 
  5.026998679717984   5.708312274803594   1.657257707370150 
  2.472080777554549  10.187026623679287   1.823923850794995 
  1.236562322201602  12.309740921963330   1.603343620183995 
  2.499145252833410  14.466745587033190   1.613605475835345 
 10.015070191581479   1.443564030684964   1.646671596332790 
  8.770776374732666   3.601210325328101   1.624480938076860 
  7.535823653386715   5.768945518220580   1.610874149946675 
  6.333918786610244   7.971967283650053   1.657257628500120 
  5.054528208326809  10.193668526833191   1.782121719030855 
  3.757119525760407  12.316206975117078   1.621264781239410 
  5.011589634989264  14.469412750314977   1.615073559629580 
 12.518314752055909   1.448781060910083   1.654397660151870 
 11.269924897123474   3.613060866202285   1.656003447062040 
 10.030615119316085   5.783313007650349   1.624480811971890 
  8.799940159453930   7.958235741203063   1.617057524430105 
  7.533766048290625  10.135180991118098   1.623734186658030 
  6.281711318546352  12.319595158939984   1.603702396806135 
  3.649512363352080   8.012707591637396   2.866586545052730 
  8.767750817182641  13.736637512439147   1.641050404029135 
 16.274298947448145   0.723784283874166   1.638724742157390 
 15.018511001240633   2.890012411105850   1.644370632982290 
 13.767249119667486   5.059868891664398   1.643512360374330 
 12.521254703852540   7.229104807489677   1.641774554152260 
 11.273648765945651   9.399504955004000   1.647604383406125 
 10.022188277420286  11.568145737567109   1.649043635702580 
 -6.257883578085341  13.732746286210745   1.667942807490930 
  1.251563189379225   0.718219067977794   1.641050501483985 
 -0.011163466889886   2.876187943186346   1.604040239785485 
 -1.263971223294035   5.052643751338270   1.600466331548130 
 -2.516486508173917   7.227178936382190   1.602155535245625 
 -3.755632015851242   9.398620178224098   1.640104344401130 
 -5.005515860842448  11.566259332798065   1.667356425997110 
 -3.755467321794374  13.731406871763838   1.667356439377140 
  3.756750864531647   0.716091008631023   1.649043524357610 
  2.501681689973541   2.878601409943691   1.617184529976435 
  1.225327637787732   5.020702463951372   1.633225046626455 
 -0.033693730716908   7.220792351038336   1.626990571052160 
 -1.255035766009103   9.397307914743832   1.622319809986140 
 -2.504466759364972  11.565708878649875   1.649836828089150 
 -1.253294800142215  13.732793997620398   1.640104406651190 
  6.260579237926981   0.716614551116540   1.647604499626110 
  5.010695752298950   2.880671576175583   1.618543317914430 
  3.755843203548039   5.045818465606153   1.674622874088990 
  2.363252780695699   7.121950028213008   2.027364730560765 
  1.251966339647720   9.396932874990434   1.753732119712710 
 -0.001859751307440  11.567871483410412   1.622319879301140 
  1.246802568607323  13.745382670466688   1.602155741915505 
  8.764003445813085   0.721354835319923   1.641774560827365 
  7.519712698621593   2.878192925216694   1.624735586768775 
  6.279665584367438   5.031910362274316   1.605929023861590 
  5.136576680638425   7.154150011476121   1.889620811473800 
  3.777801082997424   9.572020251448665   2.027364754230780 
  2.493728499887013  11.598418304551664   1.626990528812130 
  3.756262614325328  13.747942514301561   1.600466298353130 
 11.265585062078671   0.726909862148203   1.643512338354405 
 10.016892354276370   2.889709075102620   1.647929152684605 
  8.771473127159414   5.055543734455006   1.608479167027605 
  7.546034718601704   7.225327618879762   1.605928717876695 
  6.272078358532700   9.404067537813217   1.674622913613945 
  5.028571747346144  11.608117258407045   1.633224939661470 
  6.267531428034390  13.751206582862441   1.604040245425560 
 13.770396597601859   0.728214358406132   1.644370778287290 
 12.517693007372936   2.892661100937860   1.665838121794770 
 11.269865173935951   5.059868891664398   1.647929063584665 
 10.031235938155056   7.228274618079162   1.624735279103730 
  8.774578348987911   9.399906941542417   1.618543548209460 
  7.521863202913048  11.573811754937685   1.617184699416360 
Generated by cif2cell 2.0.0.  :  Failed to get author information, No journal information. Species order: B Ge N 
 1.0
 17.527899999999772   0.000000000000000   0.000000000000000
 -8.763949999999658  15.179606674993195   0.000000000000000
  0.000000000000001   0.000000000000002  15.000000000000000
 B Ge N 
  48   1  49
Cartesian
  7.519295741192817  14.465009623213694   1.628346284635215 
 15.022417333922135   1.446558767774493   1.644488301301350 
 13.768440697314254   3.614063297673007   1.654397624106900 
 12.521336908891897   5.784544808283478   1.646671580042775 
 11.280655152838269   7.955602219881709   1.639730681732340 
 10.031897277101429  10.128186821581957   1.637489943999285 
  8.776379538144720  12.296471659452077   1.635627355923735 
 -7.508018500558196  14.454511725709063   1.652903819275050 
 -0.003452940880387   1.435226849034208   1.628346277540200 
 -1.261119316323987   3.604762783123306   1.615073526239640 
 -2.515032278011851   5.781937001687917   1.613605444230330 
 -3.760884890432138   7.954942976637495   1.627734971720655 
 -5.002510188591996  10.124072510486304   1.654650050026425 
 -6.253251301079250  12.290539700270315   1.664750190245250 
 -5.006580040408934  14.449838070899816   1.664750167355355 
  2.503097740572986   1.430829210213834   1.635627294063780 
  1.235738728844695   3.579712885981660   1.603702359696195 
 -0.023622618887007   5.767768693555603   1.621264846459425 
 -1.278302657663318   7.953867874639979   1.603343534128995 
 -2.507384769490479  10.122983774357987   1.636473035490870 
 -3.755290626689808  12.287872985844094   1.663967033200890 
 -2.504993762464442  14.449897492883744   1.654650086236395 
  5.008646350632388   1.427661785377729   1.637489878344270 
  3.753523732921987   3.587608574937896   1.623734057238000 
  2.463253959548845   5.705447617099993   1.782121723335870 
  1.177783460231550   7.945235696575285   1.823923843084905 
 -0.007330334022796  10.123987185276013   1.646880148022235 
 -1.256488791308804  12.289598420451476   1.636473088485930 
 -0.005659426919911  14.459181040392794   1.627735051385685 
  7.514538502698840   1.432499298867730   1.639730812127325 
  6.271899898630895   3.579543671864478   1.617057643890060 
  5.026998679717984   5.708312274803594   1.657257707370150 
  2.472080777554549  10.187026623679287   1.823923850794995 
  1.236562322201602  12.309740921963330   1.603343620183995 
  2.499145252833410  14.466745587033190   1.613605475835345 
 10.015070191581479   1.443564030684964   1.646671596332790 
  8.770776374732666   3.601210325328101   1.624480938076860 
  7.535823653386715   5.768945518220580   1.610874149946675 
  6.333918786610244   7.971967283650053   1.657257628500120 
  5.054528208326809  10.193668526833191   1.782121719030855 
  3.757119525760407  12.316206975117078   1.621264781239410 
  5.011589634989264  14.469412750314977   1.615073559629580 
 12.518314752055909   1.448781060910083   1.654397660151870 
 11.269924897123474   3.613060866202285   1.656003447062040 
 10.030615119316085   5.783313007650349   1.624480811971890 
  8.799940159453930   7.958235741203063   1.617057524430105 
  7.533766048290625  10.135180991118098   1.623734186658030 
  6.281711318546352  12.319595158939984   1.603702396806135 
  3.649512363352080   8.012707591637396   2.866586545052730 
  8.767750817182641  13.736637512439147   1.641050404029135 
 16.274298947448145   0.723784283874166   1.638724742157390 
 15.018511001240633   2.890012411105850   1.644370632982290 
 13.767249119667486   5.059868891664398   1.643512360374330 
 12.521254703852540   7.229104807489677   1.641774554152260 
 11.273648765945651   9.399504955004000   1.647604383406125 
 10.022188277420286  11.568145737567109   1.649043635702580 
 -6.257883578085341  13.732746286210745   1.667942807490930 
  1.251563189379225   0.718219067977794   1.641050501483985 
 -0.011163466889886   2.876187943186346   1.604040239785485 
 -1.263971223294035   5.052643751338270   1.600466331548130 
 -2.516486508173917   7.227178936382190   1.602155535245625 
 -3.755632015851242   9.398620178224098   1.640104344401130 
 -5.005515860842448  11.566259332798065   1.667356425997110 
 -3.755467321794374  13.731406871763838   1.667356439377140 
  3.756750864531647   0.716091008631023   1.649043524357610 
  2.501681689973541   2.878601409943691   1.617184529976435 
  1.225327637787732   5.020702463951372   1.633225046626455 
 -0.033693730716908   7.220792351038336   1.626990571052160 
 -1.255035766009103   9.397307914743832   1.622319809986140 
 -2.504466759364972  11.565708878649875   1.649836828089150 
 -1.253294800142215  13.732793997620398   1.640104406651190 
  6.260579237926981   0.716614551116540   1.647604499626110 
  5.010695752298950   2.880671576175583   1.618543317914430 
  3.755843203548039   5.045818465606153   1.674622874088990 
  2.363252780695699   7.121950028213008   2.027364730560765 
  1.251966339647720   9.396932874990434   1.753732119712710 
 -0.001859751307440  11.567871483410412   1.622319879301140 
  1.246802568607323  13.745382670466688   1.602155741915505 
  8.764003445813085   0.721354835319923   1.641774560827365 
  7.519712698621593   2.878192925216694   1.624735586768775 
  6.279665584367438   5.031910362274316   1.605929023861590 
  5.136576680638425   7.154150011476121   1.889620811473800 
  3.777801082997424   9.572020251448665   2.027364754230780 
  2.493728499887013  11.598418304551664   1.626990528812130 
  3.756262614325328  13.747942514301561   1.600466298353130 
 11.265585062078671   0.726909862148203   1.643512338354405 
 10.016892354276370   2.889709075102620   1.647929152684605 
  8.771473127159414   5.055543734455006   1.608479167027605 
  7.546034718601704   7.225327618879762   1.605928717876695 
  6.272078358532700   9.404067537813217   1.674622913613945 
  5.028571747346144  11.608117258407045   1.633224939661470 
  6.267531428034390  13.751206582862441   1.604040245425560 
 13.770396597601859   0.728214358406132   1.644370778287290 
 12.517693007372936   2.892661100937860   1.665838121794770 
 11.269865173935951   5.059868891664398   1.647929063584665 
 10.031235938155056   7.228274618079162   1.624735279103730 
  8.774578348987911   9.399906941542417   1.618543548209460 
  7.521863202913048  11.573811754937685   1.617184699416360 
