Species order: X N B                    
   2.51242800000000     
     5.9449720136058266    0.0000000000000000    0.0000000000000000
    -2.9724860068029120    5.1484967885702053   -0.0000000000000001
     0.0000000000000000    0.0000000000000009    5.3101128803662583
   P    N    B 
     1   143   143
Direct
  0.5149340501961767  0.4241336917647526  0.3750000000000000
  0.1110232537016063  0.0555095438131695  0.1249385394445911
  0.6111028066597844  0.5556475701428448  0.1250963011172611
  0.4444833470581353  0.0555723651491787  0.1248899443319731
  0.9444047515223164  0.5555274832395951  0.1247937415874317
  0.7777924344676181  0.0555628839004776  0.1248159434920718
  0.1111049081521341  0.7222191207427328  0.6251433285753051
  0.4444833470581353  0.7222443152422839  0.6251100556680251
  0.2775730939536483  0.2221091426974771  0.6255164699689669
  0.7777445530744036  0.7222465316726793  0.6253407770623751
  0.6111300045400893  0.2221810725344849  0.6253553494633665
  0.9443953847442946  0.2221912380834319  0.6251497748005327
  0.2778079468443970  0.7222329286129159  0.1248600695207909
  0.1109749167725018  0.2221541250529133  0.1248909029768056
  0.4444217188918381  0.2222076226079812  0.1246899289403660
  0.6111300045400893  0.7222822653389198  0.1246446505366342
  0.9444047515223164  0.7222106016160599  0.1247937415874317
  0.7777859348010379  0.2221911389697350  0.1247944281609955
  0.1110939788032991  0.8888882922429393  0.6251240172583513
  0.4444992198392427  0.8889162765862740  0.6251367967390778
  0.2775730939536483  0.3887972845894949  0.6255164699689669
  0.6111028066597844  0.3887885698502639  0.6249036988827423
  0.7777859348010379  0.8889281291646357  0.6252055718390137
  0.9444045819990854  0.3888583829851650  0.6251684502666131
  0.1110232537016063  0.3888470432217679  0.1249385394445911
  0.2778079468443970  0.8889083515648112  0.1248600695207909
  0.6111564064001990  0.8889308795907376  0.1248231579820054
  0.4439476441220485  0.3886404887276872  0.1228557476049311
  0.9444045819990854  0.8888795323472691  0.1248315497333735
  0.7777445530744036  0.3888313547350607  0.1246592229376260
  0.2777677572279152  0.5555463223121182  0.6251207608061240
  0.1110232537016063  0.0555095438131695  0.6250614605554097
  0.6111028066597844  0.5556475701428448  0.6249036988827423
  0.4444833470581353  0.0555723651491787  0.6251100556680251
  0.9444047515223164  0.5555274832395951  0.6252062584125603
  0.1110939788032991  0.5555390198936857  0.1248759827416506
  0.7777924344676181  0.0555628839004776  0.6251840565079188
  0.2777677572279152  0.0555547682491455  0.1248792391938675
  0.4444217188918381  0.5555474296171949  0.1246899289403660
  0.7777336658867554  0.5555334996100503  0.1249350448106576
  0.6111564064001990  0.0555588601427948  0.1248231579820054
  0.4444217188918381  0.5555474296171949  0.6253100710596363
  0.9443953847442946  0.0555374799942058  0.1248502251994763
  0.2778079468443970  0.7222329286129159  0.6251399304792091
  0.1109749167725018  0.2221541250529133  0.6251090970231938
  0.4444217188918381  0.2222076226079812  0.6253100710596363
  0.6111300045400893  0.7222822653389198  0.6253553494633665
  0.9444047515223164  0.7222106016160599  0.6252062584125603
  0.7777859348010379  0.2221911389697350  0.6252055718390137
  0.1111049081521341  0.7222191207427328  0.1248566714246965
  0.4444833470581353  0.7222443152422839  0.1248899443319731
  0.2775730939536483  0.2221091426974771  0.1244835300310364
  0.7777445530744036  0.7222465316726793  0.1246592229376260
  0.6111300045400893  0.2221810725344849  0.1246446505366342
  0.9443953847442946  0.2221912380834319  0.1248502251994763
  0.1110232537016063  0.3888470432217679  0.6250614605554097
  0.2778079468443970  0.8889083515648112  0.6251399304792091
  0.6111564064001990  0.8889308795907376  0.6251768420179867
  0.4439476441220485  0.3886404887276872  0.6271442523950699
  0.9444045819990854  0.8888795323472691  0.6251684502666131
  0.1110939788032991  0.8888882922429393  0.1248759827416506
  0.7777445530744036  0.3888313547350607  0.6253407770623751
  0.4444992198392427  0.8889162765862740  0.1248632032609233
  0.2775730939536483  0.3887972845894949  0.1244835300310364
  0.2777677572279152  0.5555463223121182  0.1248792391938675
  0.6111028066597844  0.3887885698502639  0.1250963011172598
  0.7777859348010379  0.8889281291646357  0.1247944281609955
  0.9444045819990854  0.3888583829851650  0.1248315497333735
  0.1110939788032991  0.5555390198936857  0.6251240172583513
  0.2777677572279152  0.0555547682491455  0.6251207608061240
  0.7777336658867554  0.5555334996100503  0.6250649551893358
  0.6111564064001990  0.0555588601427948  0.6251768420179867
  0.9443953847442946  0.0555374799942058  0.6251497748005327
  0.0568878495868965  0.1119150442178820  0.3750000000000000
  0.5548083675719405  0.6194378587296165  0.3750000000000000
  0.3866135630560716  0.1046466209302418  0.3750000000000000
  0.8850728888928114  0.6092031111130897  0.3750000000000000
  0.7226190172950658  0.1104388814822468  0.3750000000000000
  0.0555570779516790  0.7777731460784809  0.8750000000000000
  0.3888777016721123  0.7777788029244427  0.8750000000000000
  0.2222190868243215  0.2777762100788257  0.8750000000000000
  0.7222138683883099  0.7777636183189234  0.8750000000000000
  0.5555393422234196  0.2777720738376788  0.8750000000000000
  0.8888888299844805  0.2777883209444062  0.8750000000000000
  0.2191400746533496  0.7762367039933442  0.3750000000000000
  0.0568878495868965  0.2783061387023554  0.3750000000000000
  0.3897792552106414  0.2703275103850145  0.3750000000000000
  0.5545914805855735  0.7812098005272010  0.3750000000000000
  0.8873637199229948  0.7775103389143430  0.3750000000000000
  0.7224088038126970  0.2756131556385309  0.3750000000000000
  0.0555558653823883  0.9444321881017490  0.8750000000000000
  0.3888777016721123  0.9444322320810168  0.8750000000000000
  0.2222144447751986  0.4444538805749229  0.8750000000000000
  0.5555496898008749  0.4444415115671018  0.8750000000000000
  0.7222122977511318  0.9444345827067474  0.8750000000000000
  0.8888935545082515  0.4444555863482682  0.8750000000000000
  0.0544351780186034  0.4441907617255302  0.3750000000000000
  0.2194734797574638  0.9416435334361816  0.3750000000000000
  0.5545743288912224  0.9439538311122727  0.3750000000000000
  0.3897792552106414  0.4527850781589613  0.3750000000000000
  0.8895017627324129  0.9454425519689256  0.3750000000000000
  0.7196645868630155  0.4413600668128162  0.3750000000000000
  0.2222128691693838  0.6111208058175773  0.8750000000000000
  0.0555544632214762  0.1111036855852572  0.8750000000000000
  0.5555393422234196  0.6111006017190803  0.8750000000000000
  0.3888715695468899  0.1110894088799604  0.8750000000000000
  0.8889002746578724  0.6111168039956165  0.8750000000000000
  0.0524834994438141  0.6099000786976508  0.3750000000000000
  0.7222122977511318  0.1111110483777173  0.8750000000000000
  0.2215790643842145  0.1093137029561046  0.3750000000000000
  0.3866135630560716  0.6153002754591814  0.3750000000000000
  0.7196645868630155  0.6116378533835271  0.3750000000000000
  0.5545914805855735  0.1067150133917030  0.3750000000000000
  0.3888715695468899  0.6111154940002742  0.8750000000000000
  0.8899987810025123  0.1116660571679277  0.3750000000000000
  0.2222143905641038  0.7777738619487184  0.8750000000000000
  0.0555544632214762  0.2777841109695527  0.8750000000000000
  0.3888761834170107  0.2777560105987005  0.8750000000000000
  0.5555392740423930  0.7777682966771167  0.8750000000000000
  0.8888935545082515  0.7777713014933162  0.8750000000000000
  0.7222138683883099  0.2777835834027196  0.8750000000000000
  0.0524834994438141  0.7759167540795016  0.3750000000000000
  0.3865019591790616  0.7782857280163250  0.3750000000000000
  0.2251616011387451  0.2792474672360473  0.3750000000000000
  0.7224088038126970  0.7801289815075096  0.3750000000000000
  0.5548083675719405  0.2687038421756648  0.3750000000000000
  0.8895017627324129  0.2773925440968144  0.3750000000000000
  0.0555558653823883  0.4444570106139601  0.8750000000000000
  0.2222128691693838  0.9444253966851545  0.8750000000000000
  0.5555423448714559  0.9444378391023935  0.8750000000000000
  0.3888761834170107  0.4444535061516503  0.8750000000000000
  0.8888888299844805  0.9444338423734234  0.8750000000000000
  0.0544351780186034  0.9435777496264118  0.3750000000000000
  0.7222239738293373  0.4444527211716377  0.8750000000000000
  0.3865019591790616  0.9415495644960661  0.3750000000000000
  0.2215790643842145  0.4455986947614435  0.3750000000000000
  0.2194734797574638  0.6111632796546177  0.3750000000000000
  0.7226190172950658  0.9455134691461379  0.3750000000000000
  0.8873637199229948  0.4431867143419929  0.3750000000000000
  0.0555570779516790  0.6111172652065334  0.8750000000000000
  0.2222144447751986  0.1110938975336103  0.8750000000000000
  0.7222239738293373  0.6111045859910349  0.8750000000000000
  0.5555392740423930  0.1111043106986036  0.8750000000000000
  0.8888863804387771  0.1111098568860567  0.8750000000000000
  0.1117062016336403  0.0553899367335086  0.3750000000000000
  0.6065402226592903  0.5604348663126069  0.3750000000000000
  0.4430370296356286  0.0519855726530658  0.3750000000000000
  0.9411276792724739  0.5541590869778501  0.3750000000000000
  0.7788207830618102  0.0560770581975770  0.3750000000000000
  0.1111024363088928  0.7222178848211094  0.8750000000000000
  0.4444195320561435  0.7221382337378044  0.8750000000000000
  0.2778979120989762  0.2223129144958471  0.8750000000000000
  0.7776954576386471  0.7221019623029818  0.8750000000000000
  0.6110379986350258  0.2222987334465613  0.8750000000000000
  0.9444857871036932  0.2222574635363449  0.8750000000000000
  0.2753677621596195  0.7217035502161249  0.3750000000000000
  0.1150464167748683  0.2241898750540965  0.3750000000000000
  0.4422896706316418  0.2161791752738150  0.3750000000000000
  0.6107070866735232  0.7267368801240517  0.3750000000000000
  0.9411276792724739  0.7203019256279671  0.3750000000000000
  0.7783457808832429  0.2215376206795227  0.3750000000000000
  0.1111284278302259  0.8889013483258438  0.8750000000000000
  0.4444205769065329  0.8888769551199150  0.8750000000000000
  0.2778979120989762  0.3889183309364595  0.8750000000000000
  0.6110075081417948  0.3889303415885421  0.8750000000000000
  0.7777417213212506  0.8888083803502486  0.8750000000000000
  0.9444448945124260  0.3889218335928115  0.8750000000000000
  0.1117062016336403  0.3896495982334535  0.3750000000000000
  0.2753677621596195  0.8869975452768168  0.3750000000000000
  0.6110785892851635  0.8903918863271865  0.3750000000000000
  0.9436614079554283  0.8885458051213938  0.3750000000000000
  0.7757924220351732  0.3871699615733079  0.3750000000000000
  0.2778190604720973  0.5555286306403069  0.8750000000000000
  0.1111887141453993  0.0556033258940563  0.8750000000000000
  0.6110075081417948  0.5554104998865923  0.8750000000000000
  0.4444195320561435  0.0556146316516780  0.8750000000000000
  0.9444028268668172  0.5555543130711452  0.8750000000000000
  0.1088041423930745  0.5550446745319281  0.3750000000000000
  0.7777636129359701  0.0555484731346486  0.8750000000000000
  0.2761937341866132  0.0531370602341621  0.3750000000000000
  0.4422896706316418  0.5594438286911634  0.3750000000000000
  0.7722757768648677  0.5528045550991117  0.3750000000000000
  0.6110785892851635  0.0540200362913034  0.3750000000000000
  0.4444398376475311  0.5554546018621274  0.8750000000000000
  0.9461694376348009  0.0566751049820040  0.3750000000000000
  0.2777814713217214  0.7222046510015795  0.8750000000000000
  0.1112277227574705  0.2222805280454023  0.8750000000000000
  0.4444398376475311  0.2223185691187364  0.8750000000000000
  0.6110379986350258  0.7220725985218079  0.8750000000000000
  0.9444028268668172  0.7221818471289994  0.8750000000000000
  0.7777417213212506  0.2222666743043432  0.8750000000000000
  0.1080968023314009  0.7207150678323656  0.3750000000000000
  0.4430370296356286  0.7243847903159003  0.3750000000000000
  0.2827860071088956  0.2233995720878704  0.3750000000000000
  0.7757924220351732  0.7219557937951971  0.3750000000000000
  0.6107070866735232  0.2173035398828108  0.3750000000000000
  0.9461694376348009  0.2228276659861285  0.3750000000000000
  0.1111887141453993  0.3889187215846697  0.8750000000000000
  0.2777814713217214  0.8889101536534703  0.8750000000000000
  0.6110669299543916  0.8888226956685704  0.8750000000000000
  0.4444857276773944  0.3889095305053582  0.8750000000000000
  0.9444448945124260  0.8888563942529323  0.8750000000000000
  0.1088041423930745  0.8870928011944662  0.3750000000000000
  0.7776954576386471  0.3889268286689810  0.8750000000000000
  0.4430517742837281  0.8881925538085267  0.3750000000000000
  0.2827860071088956  0.3927197683543529  0.3750000000000000
  0.2761937341866132  0.5563900072857896  0.3750000000000000
  0.6065402226592903  0.3794386896800145  0.3750000000000000
  0.7783457808832429  0.8901414935370567  0.3750000000000000
  0.9436614079554283  0.3884489361673577  0.3750000000000000
  0.1111284278302259  0.5555604128377104  0.8750000000000000
  0.2778190604720973  0.0556237631651353  0.8750000000000000
  0.7776750509898711  0.5555041921616012  0.8750000000000000
  0.6110669299543916  0.0555775676191513  0.8750000000000000
  0.9444857871036932  0.0555616569006795  0.8750000000000000
  0.0556275569407583  0.1111963732630177  0.1253531427062579
  0.5554774396611870  0.6107704246899640  0.1258165755951701
  0.3890464222964538  0.1115179514555305  0.1255433558016023
  0.8885183728647109  0.6109258530990191  0.1252213998875855
  0.7222231762831225  0.1111410797249590  0.1251550285928470
  0.0554603779636258  0.7777693109481552  0.6248429286662120
  0.3890031174748615  0.7777223382546873  0.6247651761762971
  0.2223743015241182  0.2778538174287278  0.6244452682713660
  0.7220728262849966  0.7776174939002505  0.6248167887582978
  0.5554774396611870  0.2780403483045703  0.6241834244048330
  0.8888485006496072  0.2777490094656765  0.6248236870183025
  0.2222796700707436  0.7778065017020293  0.1251710444625598
  0.0556275569407583  0.2777645170110742  0.1253531427062579
  0.3889423726078960  0.2781268780260461  0.1256430010827788
  0.5555909309773629  0.7776382014166329  0.1252461039369866
  0.8886611282209238  0.7776600785707447  0.1251177405810080
  0.7220728262849966  0.2777886657180854  0.1251832112417014
  0.0555583471463199  0.9445341548230473  0.6247293319201257
  0.3890031174748615  0.9446141125534915  0.6247651761762971
  0.2223631188091787  0.4443071130297889  0.6244639089129804
  0.5549325703703147  0.4441329518518217  0.6202207064627852
  0.7222231762831225  0.9444154298914907  0.6248449714071519
  0.8886611282209238  0.4443343829835160  0.6248822594189865
  0.0555583471463199  0.4443575256566044  0.1252706680798635
  0.2223281522405095  0.9446628862843248  0.1252672742119117
  0.5556230844952658  0.9444782089142988  0.1251945965321620
  0.3889423726078960  0.4441488279151860  0.1256430010827788
  0.8888485006496072  0.9444328245172556  0.1251763129816978
  0.7216735201116303  0.4442246143553868  0.1256996463525631
  0.2223281522405095  0.6109985992895079  0.6247327257880883
  0.0556275569407583  0.1111963732630177  0.6246468572937445
  0.5554774396611870  0.6107704246899640  0.6241834244048330
  0.3890464222964538  0.1115179514555305  0.6244566441984035
  0.8885183728647109  0.6109258530990191  0.6247786001124129
  0.0554603779636258  0.6110244003487981  0.1251570713337943
  0.7222231762831225  0.1111410797249590  0.6248449714071519
  0.2223631188091787  0.1113893391127291  0.1255360910870152
  0.3890464222964538  0.6108618041742712  0.1255433558016023
  0.7216735201116303  0.6107822390895762  0.1256996463525631
  0.5555909309773629  0.1112860628940689  0.1252461039369866
  0.3890464222964538  0.6108618041742712  0.6244566441984035
  0.8889079742849069  0.1111206538091287  0.1251740845025043
  0.2222796700707436  0.7778065017020293  0.6248289555374478
  0.0556275569407583  0.2777645170110742  0.6246468572937445
  0.3889423726078960  0.2781268780260461  0.6243569989172194
  0.5555909309773629  0.7776382014166329  0.6247538960630081
  0.8886611282209238  0.7776600785707447  0.6248822594189865
  0.7220728262849966  0.2777886657180854  0.6248167887582978
  0.0554603779636258  0.7777693109481552  0.1251570713337943
  0.3890031174748615  0.7777223382546873  0.1252348238237036
  0.2223743015241182  0.2778538174287278  0.1255547317286363
  0.7220728262849966  0.7776174939002505  0.1251832112417014
  0.5554774396611870  0.2780403483045703  0.1258165755951701
  0.8888485006496072  0.2777490094656765  0.1251763129816978
  0.0555583471463199  0.4443575256566044  0.6247293319201257
  0.2223281522405095  0.9446628862843248  0.6247327257880883
  0.5556230844952658  0.9444782089142988  0.6248054034678469
  0.3889423726078960  0.4441488279151860  0.6243569989172194
  0.8888485006496072  0.9444328245172556  0.6248236870183025
  0.0555583471463199  0.9445341548230473  0.1252706680798635
  0.7216735201116303  0.4442246143553868  0.6243003536474301
  0.3890031174748615  0.9446141125534915  0.1252348238237036
  0.2223631188091787  0.4443071130297889  0.1255360910870152
  0.2223281522405095  0.6109985992895079  0.1252672742119117
  0.5549325703703147  0.4441329518518217  0.1297792935372089
  0.7222231762831225  0.9444154298914907  0.1251550285928470
  0.8886611282209238  0.4443343829835160  0.1251177405810080
  0.0554603779636258  0.6110244003487981  0.6248429286662120
  0.2223631188091787  0.1113893391127291  0.6244639089129804
  0.7216735201116303  0.6107822390895762  0.6243003536474301
  0.5555909309773629  0.1112860628940689  0.6247538960630081
  0.8889079742849069  0.1111206538091294  0.6248259154975074
 
  0.00000000E+00  0.00000000E+00  0.00000000E+00
  0.00000000E+00  0.00000000E+00  0.00000000E+00
  0.00000000E+00  0.00000000E+00  0.00000000E+00
  0.00000000E+00  0.00000000E+00  0.00000000E+00
  0.00000000E+00  0.00000000E+00  0.00000000E+00
  0.00000000E+00  0.00000000E+00  0.00000000E+00
  0.00000000E+00  0.00000000E+00  0.00000000E+00
  0.00000000E+00  0.00000000E+00  0.00000000E+00
  0.00000000E+00  0.00000000E+00  0.00000000E+00
  0.00000000E+00  0.00000000E+00  0.00000000E+00
  0.00000000E+00  0.00000000E+00  0.00000000E+00
  0.00000000E+00  0.00000000E+00  0.00000000E+00
  0.00000000E+00  0.00000000E+00  0.00000000E+00
  0.00000000E+00  0.00000000E+00  0.00000000E+00
  0.00000000E+00  0.00000000E+00  0.00000000E+00
  0.00000000E+00  0.00000000E+00  0.00000000E+00
  0.00000000E+00  0.00000000E+00  0.00000000E+00
  0.00000000E+00  0.00000000E+00  0.00000000E+00
  0.00000000E+00  0.00000000E+00  0.00000000E+00
  0.00000000E+00  0.00000000E+00  0.00000000E+00
  0.00000000E+00  0.00000000E+00  0.00000000E+00
  0.00000000E+00  0.00000000E+00  0.00000000E+00
  0.00000000E+00  0.00000000E+00  0.00000000E+00
  0.00000000E+00  0.00000000E+00  0.00000000E+00
  0.00000000E+00  0.00000000E+00  0.00000000E+00
  0.00000000E+00  0.00000000E+00  0.00000000E+00
  0.00000000E+00  0.00000000E+00  0.00000000E+00
  0.00000000E+00  0.00000000E+00  0.00000000E+00
  0.00000000E+00  0.00000000E+00  0.00000000E+00
  0.00000000E+00  0.00000000E+00  0.00000000E+00
  0.00000000E+00  0.00000000E+00  0.00000000E+00
  0.00000000E+00  0.00000000E+00  0.00000000E+00
  0.00000000E+00  0.00000000E+00  0.00000000E+00
  0.00000000E+00  0.00000000E+00  0.00000000E+00
  0.00000000E+00  0.00000000E+00  0.00000000E+00
  0.00000000E+00  0.00000000E+00  0.00000000E+00
  0.00000000E+00  0.00000000E+00  0.00000000E+00
  0.00000000E+00  0.00000000E+00  0.00000000E+00
  0.00000000E+00  0.00000000E+00  0.00000000E+00
  0.00000000E+00  0.00000000E+00  0.00000000E+00
  0.00000000E+00  0.00000000E+00  0.00000000E+00
  0.00000000E+00  0.00000000E+00  0.00000000E+00
  0.00000000E+00  0.00000000E+00  0.00000000E+00
  0.00000000E+00  0.00000000E+00  0.00000000E+00
  0.00000000E+00  0.00000000E+00  0.00000000E+00
  0.00000000E+00  0.00000000E+00  0.00000000E+00
  0.00000000E+00  0.00000000E+00  0.00000000E+00
  0.00000000E+00  0.00000000E+00  0.00000000E+00
  0.00000000E+00  0.00000000E+00  0.00000000E+00
  0.00000000E+00  0.00000000E+00  0.00000000E+00
  0.00000000E+00  0.00000000E+00  0.00000000E+00
  0.00000000E+00  0.00000000E+00  0.00000000E+00
  0.00000000E+00  0.00000000E+00  0.00000000E+00
  0.00000000E+00  0.00000000E+00  0.00000000E+00
  0.00000000E+00  0.00000000E+00  0.00000000E+00
  0.00000000E+00  0.00000000E+00  0.00000000E+00
  0.00000000E+00  0.00000000E+00  0.00000000E+00
  0.00000000E+00  0.00000000E+00  0.00000000E+00
  0.00000000E+00  0.00000000E+00  0.00000000E+00
  0.00000000E+00  0.00000000E+00  0.00000000E+00
  0.00000000E+00  0.00000000E+00  0.00000000E+00
  0.00000000E+00  0.00000000E+00  0.00000000E+00
  0.00000000E+00  0.00000000E+00  0.00000000E+00
  0.00000000E+00  0.00000000E+00  0.00000000E+00
  0.00000000E+00  0.00000000E+00  0.00000000E+00
  0.00000000E+00  0.00000000E+00  0.00000000E+00
  0.00000000E+00  0.00000000E+00  0.00000000E+00
  0.00000000E+00  0.00000000E+00  0.00000000E+00
  0.00000000E+00  0.00000000E+00  0.00000000E+00
  0.00000000E+00  0.00000000E+00  0.00000000E+00
  0.00000000E+00  0.00000000E+00  0.00000000E+00
  0.00000000E+00  0.00000000E+00  0.00000000E+00
  0.00000000E+00  0.00000000E+00  0.00000000E+00
  0.00000000E+00  0.00000000E+00  0.00000000E+00
  0.00000000E+00  0.00000000E+00  0.00000000E+00
  0.00000000E+00  0.00000000E+00  0.00000000E+00
  0.00000000E+00  0.00000000E+00  0.00000000E+00
  0.00000000E+00  0.00000000E+00  0.00000000E+00
  0.00000000E+00  0.00000000E+00  0.00000000E+00
  0.00000000E+00  0.00000000E+00  0.00000000E+00
  0.00000000E+00  0.00000000E+00  0.00000000E+00
  0.00000000E+00  0.00000000E+00  0.00000000E+00
  0.00000000E+00  0.00000000E+00  0.00000000E+00
  0.00000000E+00  0.00000000E+00  0.00000000E+00
  0.00000000E+00  0.00000000E+00  0.00000000E+00
  0.00000000E+00  0.00000000E+00  0.00000000E+00
  0.00000000E+00  0.00000000E+00  0.00000000E+00
  0.00000000E+00  0.00000000E+00  0.00000000E+00
  0.00000000E+00  0.00000000E+00  0.00000000E+00
  0.00000000E+00  0.00000000E+00  0.00000000E+00
  0.00000000E+00  0.00000000E+00  0.00000000E+00
  0.00000000E+00  0.00000000E+00  0.00000000E+00
  0.00000000E+00  0.00000000E+00  0.00000000E+00
  0.00000000E+00  0.00000000E+00  0.00000000E+00
  0.00000000E+00  0.00000000E+00  0.00000000E+00
  0.00000000E+00  0.00000000E+00  0.00000000E+00
  0.00000000E+00  0.00000000E+00  0.00000000E+00
  0.00000000E+00  0.00000000E+00  0.00000000E+00
  0.00000000E+00  0.00000000E+00  0.00000000E+00
  0.00000000E+00  0.00000000E+00  0.00000000E+00
  0.00000000E+00  0.00000000E+00  0.00000000E+00
  0.00000000E+00  0.00000000E+00  0.00000000E+00
  0.00000000E+00  0.00000000E+00  0.00000000E+00
  0.00000000E+00  0.00000000E+00  0.00000000E+00
  0.00000000E+00  0.00000000E+00  0.00000000E+00
  0.00000000E+00  0.00000000E+00  0.00000000E+00
  0.00000000E+00  0.00000000E+00  0.00000000E+00
  0.00000000E+00  0.00000000E+00  0.00000000E+00
  0.00000000E+00  0.00000000E+00  0.00000000E+00
  0.00000000E+00  0.00000000E+00  0.00000000E+00
  0.00000000E+00  0.00000000E+00  0.00000000E+00
  0.00000000E+00  0.00000000E+00  0.00000000E+00
  0.00000000E+00  0.00000000E+00  0.00000000E+00
  0.00000000E+00  0.00000000E+00  0.00000000E+00
  0.00000000E+00  0.00000000E+00  0.00000000E+00
  0.00000000E+00  0.00000000E+00  0.00000000E+00
  0.00000000E+00  0.00000000E+00  0.00000000E+00
  0.00000000E+00  0.00000000E+00  0.00000000E+00
  0.00000000E+00  0.00000000E+00  0.00000000E+00
  0.00000000E+00  0.00000000E+00  0.00000000E+00
  0.00000000E+00  0.00000000E+00  0.00000000E+00
  0.00000000E+00  0.00000000E+00  0.00000000E+00
  0.00000000E+00  0.00000000E+00  0.00000000E+00
  0.00000000E+00  0.00000000E+00  0.00000000E+00
  0.00000000E+00  0.00000000E+00  0.00000000E+00
  0.00000000E+00  0.00000000E+00  0.00000000E+00
  0.00000000E+00  0.00000000E+00  0.00000000E+00
  0.00000000E+00  0.00000000E+00  0.00000000E+00
  0.00000000E+00  0.00000000E+00  0.00000000E+00
  0.00000000E+00  0.00000000E+00  0.00000000E+00
  0.00000000E+00  0.00000000E+00  0.00000000E+00
  0.00000000E+00  0.00000000E+00  0.00000000E+00
  0.00000000E+00  0.00000000E+00  0.00000000E+00
  0.00000000E+00  0.00000000E+00  0.00000000E+00
  0.00000000E+00  0.00000000E+00  0.00000000E+00
  0.00000000E+00  0.00000000E+00  0.00000000E+00
  0.00000000E+00  0.00000000E+00  0.00000000E+00
  0.00000000E+00  0.00000000E+00  0.00000000E+00
  0.00000000E+00  0.00000000E+00  0.00000000E+00
  0.00000000E+00  0.00000000E+00  0.00000000E+00
  0.00000000E+00  0.00000000E+00  0.00000000E+00
  0.00000000E+00  0.00000000E+00  0.00000000E+00
  0.00000000E+00  0.00000000E+00  0.00000000E+00
  0.00000000E+00  0.00000000E+00  0.00000000E+00
  0.00000000E+00  0.00000000E+00  0.00000000E+00
  0.00000000E+00  0.00000000E+00  0.00000000E+00
  0.00000000E+00  0.00000000E+00  0.00000000E+00
  0.00000000E+00  0.00000000E+00  0.00000000E+00
  0.00000000E+00  0.00000000E+00  0.00000000E+00
  0.00000000E+00  0.00000000E+00  0.00000000E+00
  0.00000000E+00  0.00000000E+00  0.00000000E+00
  0.00000000E+00  0.00000000E+00  0.00000000E+00
  0.00000000E+00  0.00000000E+00  0.00000000E+00
  0.00000000E+00  0.00000000E+00  0.00000000E+00
  0.00000000E+00  0.00000000E+00  0.00000000E+00
  0.00000000E+00  0.00000000E+00  0.00000000E+00
  0.00000000E+00  0.00000000E+00  0.00000000E+00
  0.00000000E+00  0.00000000E+00  0.00000000E+00
  0.00000000E+00  0.00000000E+00  0.00000000E+00
  0.00000000E+00  0.00000000E+00  0.00000000E+00
  0.00000000E+00  0.00000000E+00  0.00000000E+00
  0.00000000E+00  0.00000000E+00  0.00000000E+00
  0.00000000E+00  0.00000000E+00  0.00000000E+00
  0.00000000E+00  0.00000000E+00  0.00000000E+00
  0.00000000E+00  0.00000000E+00  0.00000000E+00
  0.00000000E+00  0.00000000E+00  0.00000000E+00
  0.00000000E+00  0.00000000E+00  0.00000000E+00
  0.00000000E+00  0.00000000E+00  0.00000000E+00
  0.00000000E+00  0.00000000E+00  0.00000000E+00
  0.00000000E+00  0.00000000E+00  0.00000000E+00
  0.00000000E+00  0.00000000E+00  0.00000000E+00
  0.00000000E+00  0.00000000E+00  0.00000000E+00
  0.00000000E+00  0.00000000E+00  0.00000000E+00
  0.00000000E+00  0.00000000E+00  0.00000000E+00
  0.00000000E+00  0.00000000E+00  0.00000000E+00
  0.00000000E+00  0.00000000E+00  0.00000000E+00
  0.00000000E+00  0.00000000E+00  0.00000000E+00
  0.00000000E+00  0.00000000E+00  0.00000000E+00
  0.00000000E+00  0.00000000E+00  0.00000000E+00
  0.00000000E+00  0.00000000E+00  0.00000000E+00
  0.00000000E+00  0.00000000E+00  0.00000000E+00
  0.00000000E+00  0.00000000E+00  0.00000000E+00
  0.00000000E+00  0.00000000E+00  0.00000000E+00
  0.00000000E+00  0.00000000E+00  0.00000000E+00
  0.00000000E+00  0.00000000E+00  0.00000000E+00
  0.00000000E+00  0.00000000E+00  0.00000000E+00
  0.00000000E+00  0.00000000E+00  0.00000000E+00
  0.00000000E+00  0.00000000E+00  0.00000000E+00
  0.00000000E+00  0.00000000E+00  0.00000000E+00
  0.00000000E+00  0.00000000E+00  0.00000000E+00
  0.00000000E+00  0.00000000E+00  0.00000000E+00
  0.00000000E+00  0.00000000E+00  0.00000000E+00
  0.00000000E+00  0.00000000E+00  0.00000000E+00
  0.00000000E+00  0.00000000E+00  0.00000000E+00
  0.00000000E+00  0.00000000E+00  0.00000000E+00
  0.00000000E+00  0.00000000E+00  0.00000000E+00
  0.00000000E+00  0.00000000E+00  0.00000000E+00
  0.00000000E+00  0.00000000E+00  0.00000000E+00
  0.00000000E+00  0.00000000E+00  0.00000000E+00
  0.00000000E+00  0.00000000E+00  0.00000000E+00
  0.00000000E+00  0.00000000E+00  0.00000000E+00
  0.00000000E+00  0.00000000E+00  0.00000000E+00
  0.00000000E+00  0.00000000E+00  0.00000000E+00
  0.00000000E+00  0.00000000E+00  0.00000000E+00
  0.00000000E+00  0.00000000E+00  0.00000000E+00
  0.00000000E+00  0.00000000E+00  0.00000000E+00
  0.00000000E+00  0.00000000E+00  0.00000000E+00
  0.00000000E+00  0.00000000E+00  0.00000000E+00
  0.00000000E+00  0.00000000E+00  0.00000000E+00
  0.00000000E+00  0.00000000E+00  0.00000000E+00
  0.00000000E+00  0.00000000E+00  0.00000000E+00
  0.00000000E+00  0.00000000E+00  0.00000000E+00
  0.00000000E+00  0.00000000E+00  0.00000000E+00
  0.00000000E+00  0.00000000E+00  0.00000000E+00
  0.00000000E+00  0.00000000E+00  0.00000000E+00
  0.00000000E+00  0.00000000E+00  0.00000000E+00
  0.00000000E+00  0.00000000E+00  0.00000000E+00
  0.00000000E+00  0.00000000E+00  0.00000000E+00
  0.00000000E+00  0.00000000E+00  0.00000000E+00
  0.00000000E+00  0.00000000E+00  0.00000000E+00
  0.00000000E+00  0.00000000E+00  0.00000000E+00
  0.00000000E+00  0.00000000E+00  0.00000000E+00
  0.00000000E+00  0.00000000E+00  0.00000000E+00
  0.00000000E+00  0.00000000E+00  0.00000000E+00
  0.00000000E+00  0.00000000E+00  0.00000000E+00
  0.00000000E+00  0.00000000E+00  0.00000000E+00
  0.00000000E+00  0.00000000E+00  0.00000000E+00
  0.00000000E+00  0.00000000E+00  0.00000000E+00
  0.00000000E+00  0.00000000E+00  0.00000000E+00
  0.00000000E+00  0.00000000E+00  0.00000000E+00
  0.00000000E+00  0.00000000E+00  0.00000000E+00
  0.00000000E+00  0.00000000E+00  0.00000000E+00
  0.00000000E+00  0.00000000E+00  0.00000000E+00
  0.00000000E+00  0.00000000E+00  0.00000000E+00
  0.00000000E+00  0.00000000E+00  0.00000000E+00
  0.00000000E+00  0.00000000E+00  0.00000000E+00
  0.00000000E+00  0.00000000E+00  0.00000000E+00
  0.00000000E+00  0.00000000E+00  0.00000000E+00
  0.00000000E+00  0.00000000E+00  0.00000000E+00
  0.00000000E+00  0.00000000E+00  0.00000000E+00
  0.00000000E+00  0.00000000E+00  0.00000000E+00
  0.00000000E+00  0.00000000E+00  0.00000000E+00
  0.00000000E+00  0.00000000E+00  0.00000000E+00
  0.00000000E+00  0.00000000E+00  0.00000000E+00
  0.00000000E+00  0.00000000E+00  0.00000000E+00
  0.00000000E+00  0.00000000E+00  0.00000000E+00
  0.00000000E+00  0.00000000E+00  0.00000000E+00
  0.00000000E+00  0.00000000E+00  0.00000000E+00