 Ge N B 
 1.0
 14.936314146199660   0.000000000000000   0.000000000000000
 -7.468157073099825  12.935227489513863   0.000000000000000
  0.000000000000001   0.000000000000001  13.341276283792837
 Ge N B 
   1 143 143
Cartesian
  4.175347004158197   5.285132714480565   5.002978606422314 
  1.245893379578896   0.719039367536364   1.667596318950670 
  4.979460414798929   7.187311923711889   1.683987902256594 
  6.224296340370236   0.718566208057112   1.667812069477211 
  9.958098087989459   7.186640011713071   1.670073902959494 
 11.203230312390895   0.719198041312818   1.668778569426117 
 -3.733588054089569   9.342391922607213   8.336268332358980 
  1.245059069630379   9.342858143919193   8.338145143367390 
  2.491011826614491   2.875087228195816   8.327168143464883 
  6.224248397637715   9.342679896578931   8.335591243480655 
  7.469082552484616   2.874451323121225   8.337067075193128 
 12.448130623919392   2.875254744923412   8.337132416512500 
 -1.244292527352895   9.342575370940031   1.669011144819595 
  0.001620083742478   2.875430353454513   1.669183666222358 
  4.979913951103915   2.874549982227217   1.680534472198014 
  3.734503452973891   9.342932068358669   1.668890137651487 
  8.713476170958591   9.342388408224327   1.670073902959494 
  9.958448206479416   2.874964116496211   1.668559244695776 
 -4.978040071871046  11.498129557444376   8.337087304632741 
  0.000555473694465  11.498300693566037   8.337585367874592 
  1.246018799987803   5.031478405382207   8.327168143464883 
  6.224739227223542   5.030425751003414   8.321969310588088 
  4.979630372060841  11.498529567339292   8.337397968148812 
 11.203113522434325   5.030954121399635   8.337169286281464 
 -1.243732642636212   5.031198129858562   1.667596318950670 
 -2.488781419804744  11.498093362121768   1.669011144819595 
  2.489999734517902  11.498593652112469   1.667718143352519 
  3.736602732273913   5.031823591002834   1.737979817811601 
  7.469105144589932  11.498446347714014   1.668787926563204 
  8.713736637649088   5.030759780033976   1.670365969364053 
  0.000508045892107   7.187049649171549   8.336460096800511 
  1.245893379578896   0.719039367536364   8.338360893894009 
  4.979460414798930   7.187311923711890   8.321969310588088 
  6.224296340370237   0.718566208057112   8.338145143367390 
  9.958098087989459   7.186640011713072   8.335883309885201 
 -2.488890507317127   7.186796043999009   1.668869908211927 
 11.203230312390895   0.719198041312819   8.337178643418484 
  3.735035906355233   0.718657652567874   1.669497116044169 
  2.490004593575585   7.187199495707496   1.680534472198014 
  7.468668719002630   7.186532893074060   1.674295567893069 
  8.713688386749519   0.718848695957363   1.667718143352519 
  2.490004593575585   7.187199495707497   8.325422740646628 
 13.692880345481694   0.719284984470276   1.668824796332060 
 -1.244292527352895   9.342575370940031   8.336946068024899 
  0.001620083742478   2.875430353454514   8.336773546622258 
  4.979913951103916   2.874549982227218   8.325422740646628 
  3.734503452973891   9.342932068358669   8.337067075193128 
  8.713476170958591   9.342388408224327   8.335883309885201 
  9.958448206479416   2.874964116496212   8.337397968148812 
 -3.733588054089569   9.342391922607213   1.669688880485755 
  1.245059069630378   9.342858143919193   1.667812069477211 
  2.491011826614491   2.875087228195815   1.678789069379731 
  6.224248397637714   9.342679896578931   1.670365969364053 
  7.469082552484615   2.874451323121225   1.668890137651487 
 12.448130623919392   2.875254744923411   1.668824796332060 
 -1.243732642636212   5.031198129858563   8.338360893894009 
 -2.488781419804744  11.498093362121768   8.336946068024899 
  2.489999734517902  11.498593652112469   8.338239069492083 
  3.736602732273913   5.031823591002835   8.267977395033201 
  7.469105144589933  11.498446347714014   8.337169286281464 
 -4.978040071871047  11.498129557444376   1.668869908211927 
  8.713736637649088   5.030759780033977   8.335591243480655 
  0.000555473694465  11.498300693566037   1.668371844969943 
  1.246018799987803   5.031478405382206   1.678789069379731 
  0.000508045892107   7.187049649171549   1.669497116044169 
  6.224739227223541   5.030425751003413   1.683987902256594 
  4.979630372060840  11.498529567339292   1.668559244695776 
 11.203113522434325   5.030954121399634   1.668787926563204 
 -2.488890507317126   7.186796043999010   8.337087304632741 
  3.735035906355234   0.718657652567874   8.336460096800511 
  7.468668719002631   7.186532893074061   8.331661644951465 
  8.713688386749519   0.718848695957364   8.338239069492083 
 13.692880345481694   0.719284984470276   8.337132416512500 
  0.016086837043519   1.450218324635927   5.002978606422314 
  3.662355908640814   8.001998625368595   5.002978606422314 
  4.992109533466027   1.364665346828365   5.002978606422314 
  8.661321977251095   7.875111572773915   5.002978606422314 
  9.970717672036903   1.430767759149262   5.002978606422314 
 -4.978829406432423  10.060769149947996  11.673616748318732 
  0.000142147800016  10.060757547177307  11.673616748318732 
  1.244738146082768   3.593144901381300  11.673616748318732 
  4.978802336516061  10.060804391328851  11.673616748318732 
  6.223499782724411   3.593193335567952  11.673616748318732 
 11.202310169021100   3.593094383748265  11.673616748318732 
 -2.521059435956973  10.042445646686110   5.002978606422314 
 -1.225416362343123   3.600564943732920   5.002978606422314 
  3.806973525790215   3.514006443682609   5.002978606422314 
  2.454946628467194  10.103073719646403   5.002978606422314 
  7.444059151402966  10.054596928459336   5.002978606422314 
  8.729245157618900   3.566534006506918   5.002978606422314 
 -6.223504884165496  12.216675362065782  11.673616748318732 
 -1.244600073061502  12.216714316035590  11.673616748318732 
  0.000099799136825   5.748901608594682  11.673616748318732 
  4.978692123584123   5.748944235433290  11.673616748318732 
  3.734124472884403  12.216661002598343  11.673616748318732 
  9.957595570265999   5.748926275295852  11.673616748318732 
 -2.498474548729607   5.744552337818803   5.002978606422314 
 -3.752978790342635  12.187408489972908   5.002978606422314 
  1.237505242375982  12.212453975488318   5.002978606422314 
  2.457319921153182   5.851675059532444   5.002978606422314 
  6.226334563942245  12.230089323911290   5.002978606422314 
  7.432902455369256   5.707162660768637   5.002978606422314 
 -1.244571666838666   7.904780641575250  11.673616748318732 
 -0.000026879535460   1.437267628660094  11.673616748318732 
  3.734160909639524   7.904854741007259  11.673616748318732 
  4.978821916239469   1.437465915953428  11.673616748318732 
  8.712780622781473   7.904821235622872  11.673616748318732 
 -3.771384941761135   7.887634744738812   5.002978606422314 
  9.957615323081701   1.437258649616518  11.673616748318732 
  2.498663370169234   1.429342420924152   5.002978606422314 
  1.188503933717364   7.952703497546588   5.002978606422314 
  6.169613384406976   7.895243516321805   5.002978606422314 
  7.487606120721039   1.386251781868894   5.002978606422314 
  1.244907267376338   7.904795798910118  11.673616748318732 
 12.461801425622811   1.445834412331686   5.002978606422314 
 -2.489336580000301  10.060760846112323  11.673616748318732 
 -1.244688852344380   3.593085403814072  11.673616748318732 
  3.734118267272327   3.593356649631691  11.673616748318732 
  2.489474631557100  10.060783680149170  11.673616748318732 
  7.468128292989876  10.060810083318287  11.673616748318732 
  8.712927662621514   3.593109604684456  11.673616748318732 
 -5.012343170297145  10.037037446633864   5.002978606422314 
 -0.033088970178121  10.066812706051813   5.002978606422314 
  1.280976189108113   3.614066945276853   5.002978606422314 
  4.963945940872162  10.088223555611609   5.002978606422314 
  6.271726353904508   3.482436438403219   5.002978606422314 
 11.215349635997683   3.588861739384310   5.002978606422314 
 -2.489343992879414   5.748918974721561  11.673616748318732 
 -3.734087750604819  12.216748984918155  11.673616748318732 
  1.244767302023941  12.216646727580983  11.673616748318732 
  2.489611586041609   5.748905451882233  11.673616748318732 
  6.223480407998466  12.216680492075540  11.673616748318732 
 -6.231851780577552  12.210951387200337   5.002978606422314 
  7.468133497082143   5.748944362258849  11.673616748318732 
 -1.255971710641377  12.184907744233252   5.002978606422314 
 -0.002207158721664   5.760977240114867   5.002978606422314 
 -1.279426800689953   7.903090768731347   5.002978606422314 
  3.735054371324237  12.231253414876319   5.002978606422314 
  9.940180249526854   5.731188364664115   5.002978606422314 
 -3.734075801883611   7.904792663964939  11.673616748318732 
  2.489359045435303   1.437378120795079  11.673616748318732 
  6.223412920167178   7.904863642702029  11.673616748318732 
  7.468245873734286   1.437298929435412  11.673616748318732 
 12.446957366588300   1.437264190852202  11.673616748318732 
  1.248669967167188   0.715679408943723   5.002978606422314 
  4.878958475724547   7.341050493278931   5.002978606422314 
  6.239307750422126   0.667722915186879   5.002978606422314 
  9.923856330024137   7.167347049865051   5.002978606422314 
 11.217892787237588   0.727663425112500   5.002978606422314 
 -3.733982040359526   9.342164454528286  11.673616748318732 
  1.244556504166525   9.342499758302104  11.673616748318732 
  2.488750160994573   2.873998274973351  11.673616748318732 
  6.223633254703120   9.342916044225284  11.673616748318732 
  7.468859509959619   2.873998205773247  11.673616748318732 
 12.446940593028444   2.874366167081591  11.673616748318732 
 -1.275101167152645   9.337717910642906   5.002978606422314 
  0.024390176333683   2.888576672541553   5.002978606422314 
  5.014531501314088   2.766585552870062   5.002978606422314 
  3.696768232520494   9.428849535802581   5.002978606422314 
  8.679647096901499   9.322380656879782   5.002978606422314 
  9.982009509325476   2.861266361226255   5.002978606422314 
 -4.978838765952222  11.498046019164038  11.673616748318732 
  0.000114142463051  11.498045890860695  11.673616748318732 
  1.243944906023604   5.030064222111815  11.673616748318732 
  6.224211370610738   5.030019290772930  11.673616748318732 
  4.978808958763123  11.498575996042778  11.673616748318732 
 11.202565690549116   5.030154655458523  11.673616748318732 
 -1.245254158338927   5.035282704542125   5.002978606422314 
 -2.508392423719662  11.473841027547458   5.002978606422314 
  2.482106934164655  11.526271649158424   5.002978606422314 
  7.459042370681466  11.499435618897200   5.002978606422314 
  8.714341766248499   4.998976059528604   5.002978606422314 
 -0.000337056970280   7.186225870571270  11.673616748318732 
  1.244340721281393   0.718487332499253  11.673616748318732 
  4.978844481607354   7.187058016590797  11.673616748318732 
  6.223734686589453   0.718310166407077  11.673616748318732 
  9.957956104966350   7.186240912195366  11.673616748318732 
 -2.519396307317428   7.178812616010180   5.002978606422314 
 11.202364173060522   0.718697975537264  11.673616748318732 
  3.726435146522025   0.680845921644146   5.002978606422314 
  2.413813430152210   7.271161388284999   5.002978606422314 
  7.420698426652696   7.158837231872744   5.002978606422314 
  8.733711835140562   0.698174331821477   5.002978606422314 
  2.488986155317681   7.186638809876380  11.673616748318732 
 13.705473164987465   0.732766173469466   5.002978606422314 
 -1.244735345911404   9.342170087443105  11.673616748318732 
 -0.000515624513397   2.874197301718083  11.673616748318732 
  4.978919163801623   2.873948331739336  11.673616748318732 
  3.733999520577111   9.342965466539953  11.673616748318732 
  8.713059549126054   9.342464997078276  11.673616748318732 
  9.958077708267298   2.874229537361536  11.673616748318732 
 -3.766131883951599   9.323602733675907   5.002978606422314 
  1.208533191418539   9.381280052806066   5.002978606422314 
  2.513341202836324   2.869089599955113   5.002978606422314 
  6.197025452553027   9.359095813571184   5.002978606422314 
  7.524621651692950   2.798812929869595   5.002978606422314 
 12.466102085818735   2.879419852021191   5.002978606422314 
 -1.244987048150866   5.030129505848058  11.673616748318732 
 -2.489353814887893  11.497912511748988  11.673616748318732 
  2.489445998810154  11.498382264865043  11.673616748318732 
  3.733568256628849   5.030071635672290  11.673616748318732 
  7.468138870832977  11.498371644354785  11.673616748318732 
 -5.000206823318823  11.475702473675788   5.002978606422314 
  8.713633576042554   5.030108976802524  11.673616748318732 
 -0.010214180670343  11.492082830719307   5.002978606422314 
  1.251989389679741   5.053815026561455   5.002978606422314 
 -0.036538253565417   7.198507038125850   5.002978606422314 
  6.307629764472843   4.866519233851959   5.002978606422314 
  4.979548419445221  11.525783131785296   5.002978606422314 
 11.198938869456104   5.021744867970527   5.002978606422314 
 -2.489362200630714   7.186146123775093  11.673616748318732 
  3.733899941729134   0.718337661320325  11.673616748318732 
  7.468678783870377   7.186538704028239  11.673616748318732 
  8.713228452169359   0.718474840391148  11.673616748318732 
 13.691515799051835   0.718698676408558  11.673616748318732 
  0.000952354319346   1.437480108327813   1.666223648177563 
  3.732897924020544   7.908297082762728   1.670394644592073 
  4.979691949114882   1.434347566376821   1.667369591300865 
  8.715507486174872   7.906395590937096   1.667143267722776 
  9.958816309252967   1.437233165272633   1.665954583272035 
 -4.977377499135044  10.061336774187366   8.338853524056161 
 -0.000560372930078  10.061625666254173   8.340256594217342 
  1.244650079949252   3.593094056375390   8.333253942511629 
  4.979519514157285  10.062995182384457   8.340937854005421 
  6.225849445323899   3.590378387059164   8.335562568252556 
 11.203796458568759   3.593585664016366   8.339558487570526 
 -2.489010185956518  10.060949289801172   1.667157541602914 
 -1.244015222626945   3.593827205374719   1.666223648177563 
  3.734579293283991   3.588454243441674   1.692881212679782 
  2.488740948394567  10.062709663232207   1.664476397605136 
  7.470047118731348  10.062445218395869   1.666266755312779 
  8.715183532150592   3.592635303213108   1.665019358839153 
 -6.222300397257665  12.216843317236613   8.339974793278085 
 -1.244199520252529  12.215671855698309   8.340256594217342 
 -0.000916356486697   5.750284066286474   8.338165169552338 
  4.983017875195011   5.751441709290275   8.321586108269981 
  3.734702895880877  12.217713829304117   8.340002629572579 
  9.959971051652325   5.749770459594986   8.339690457531876 
 -2.488596295980914   5.749878113396942   1.665982419566516 
 -3.733335894891539  12.215647392767499   1.666430775177330 
  1.245078924302673  12.216826642787588   1.665514660354712 
  2.485596490747224   5.751755915215135   1.692881212679782 
  6.224649013964794  12.217722016447231   1.666398725274061 
  7.472284725078564   5.750045399545559   1.668511805191919 
 -1.245149745769169   7.905982563798376   8.339526437667191 
  0.000952354319347   1.437480108327814   8.339733564667064 
  3.732897924020544   7.908297082762729   8.335562568252556 
  4.979691949114883   1.434347566376821   8.338587621543802 
  8.715507486174872   7.906395590937096   8.338813945121677 
 -3.732858271223860   7.905766240448787   1.667103688788507 
  9.958816309252967   1.437233165272634   8.340002629572579 
  2.490048211104305   1.435806875364989   1.667792043292209 
  1.242641713862815   7.907108444270670   1.667369591300865 
  6.226442060426187   7.907908192960487   1.668511805191919 
  7.469546982430110   1.435700549636949   1.664476397605136 
  1.242641713862815   7.907108444270671   8.338587621543802 
 12.448046034875754   1.437892733781037   1.666857412216458 
 -2.489010185956518  10.060949289801172   8.338799671241619 
 -1.244015222626944   3.593827205374720   8.339733564667064 
  3.734579293283991   3.588454243441675   8.313076000164966 
  2.488740948394568  10.062709663232207   8.341480815239452 
  7.470047118731348  10.062445218395869   8.339690457531876 
  8.715183532150592   3.592635303213108   8.340937854005421 
 -4.977377499135045  10.061336774187366   1.667103688788507 
 -0.000560372930079  10.061625666254173   1.665700618627178 
  1.244650079949252   3.593094056375389   1.672703270333039 
  4.979519514157285  10.062995182384457   1.665019358839153 
  6.225849445323898   3.590378387059163   1.670394644592073 
 11.203796458568759   3.593585664016365   1.666398725274061 
 -2.488596295980913   5.749878113396943   8.339974793278085 
 -3.733335894891538  12.215647392767499   8.339526437667191 
  1.245078924302673  12.216826642787588   8.340442552489982 
  2.485596490747224   5.751755915215136   8.313076000164966 
  6.224649013964795  12.217722016447231   8.339558487570526 
 -6.222300397257666  12.216843317236613   1.665982419566516 
  7.472284725078565   5.750045399545560   8.337445407652842 
 -1.244199520252529  12.215671855698309   1.665700618627178 
 -0.000916356486698   5.750284066286473   1.667792043292209 
 -1.245149745769170   7.905982563798375   1.666430775177330 
  4.983017875195010   5.751441709290274   1.684371104574580 
  3.734702895880877  12.217713829304117   1.665954583272035 
  9.959971051652325   5.749770459594985   1.666266755312779 
 -3.732858271223859   7.905766240448788   8.338853524056161 
  2.490048211104305   1.435806875364990   8.338165169552338 
  6.226442060426188   7.907908192960488   8.337445407652842 
  7.469546982430111   1.435700549636950   8.341480815239452 
 12.448046034875754   1.437892733781038   8.339099800628382 
Generated by cif2cell 2.0.0.  :  Failed to get author information, No journal information. Species order: Ge N B 
 1.0
 14.936314146199660   0.000000000000000   0.000000000000000
 -7.468157073099825  12.935227489513863   0.000000000000000
  0.000000000000001   0.000000000000001  13.341276283792837
 Ge N B 
   1 143 143
Cartesian
  4.175347004158197   5.285132714480565   5.002978606422314 
  1.245893379578896   0.719039367536364   1.667596318950670 
  4.979460414798929   7.187311923711889   1.683987902256594 
  6.224296340370236   0.718566208057112   1.667812069477211 
  9.958098087989459   7.186640011713071   1.670073902959494 
 11.203230312390895   0.719198041312818   1.668778569426117 
 -3.733588054089569   9.342391922607213   8.336268332358980 
  1.245059069630379   9.342858143919193   8.338145143367390 
  2.491011826614491   2.875087228195816   8.327168143464883 
  6.224248397637715   9.342679896578931   8.335591243480655 
  7.469082552484616   2.874451323121225   8.337067075193128 
 12.448130623919392   2.875254744923412   8.337132416512500 
 -1.244292527352895   9.342575370940031   1.669011144819595 
  0.001620083742478   2.875430353454513   1.669183666222358 
  4.979913951103915   2.874549982227217   1.680534472198014 
  3.734503452973891   9.342932068358669   1.668890137651487 
  8.713476170958591   9.342388408224327   1.670073902959494 
  9.958448206479416   2.874964116496211   1.668559244695776 
 -4.978040071871046  11.498129557444376   8.337087304632741 
  0.000555473694465  11.498300693566037   8.337585367874592 
  1.246018799987803   5.031478405382207   8.327168143464883 
  6.224739227223542   5.030425751003414   8.321969310588088 
  4.979630372060841  11.498529567339292   8.337397968148812 
 11.203113522434325   5.030954121399635   8.337169286281464 
 -1.243732642636212   5.031198129858562   1.667596318950670 
 -2.488781419804744  11.498093362121768   1.669011144819595 
  2.489999734517902  11.498593652112469   1.667718143352519 
  3.736602732273913   5.031823591002834   1.737979817811601 
  7.469105144589932  11.498446347714014   1.668787926563204 
  8.713736637649088   5.030759780033976   1.670365969364053 
  0.000508045892107   7.187049649171549   8.336460096800511 
  1.245893379578896   0.719039367536364   8.338360893894009 
  4.979460414798930   7.187311923711890   8.321969310588088 
  6.224296340370237   0.718566208057112   8.338145143367390 
  9.958098087989459   7.186640011713072   8.335883309885201 
 -2.488890507317127   7.186796043999009   1.668869908211927 
 11.203230312390895   0.719198041312819   8.337178643418484 
  3.735035906355233   0.718657652567874   1.669497116044169 
  2.490004593575585   7.187199495707496   1.680534472198014 
  7.468668719002630   7.186532893074060   1.674295567893069 
  8.713688386749519   0.718848695957363   1.667718143352519 
  2.490004593575585   7.187199495707497   8.325422740646628 
 13.692880345481694   0.719284984470276   1.668824796332060 
 -1.244292527352895   9.342575370940031   8.336946068024899 
  0.001620083742478   2.875430353454514   8.336773546622258 
  4.979913951103916   2.874549982227218   8.325422740646628 
  3.734503452973891   9.342932068358669   8.337067075193128 
  8.713476170958591   9.342388408224327   8.335883309885201 
  9.958448206479416   2.874964116496212   8.337397968148812 
 -3.733588054089569   9.342391922607213   1.669688880485755 
  1.245059069630378   9.342858143919193   1.667812069477211 
  2.491011826614491   2.875087228195815   1.678789069379731 
  6.224248397637714   9.342679896578931   1.670365969364053 
  7.469082552484615   2.874451323121225   1.668890137651487 
 12.448130623919392   2.875254744923411   1.668824796332060 
 -1.243732642636212   5.031198129858563   8.338360893894009 
 -2.488781419804744  11.498093362121768   8.336946068024899 
  2.489999734517902  11.498593652112469   8.338239069492083 
  3.736602732273913   5.031823591002835   8.267977395033201 
  7.469105144589933  11.498446347714014   8.337169286281464 
 -4.978040071871047  11.498129557444376   1.668869908211927 
  8.713736637649088   5.030759780033977   8.335591243480655 
  0.000555473694465  11.498300693566037   1.668371844969943 
  1.246018799987803   5.031478405382206   1.678789069379731 
  0.000508045892107   7.187049649171549   1.669497116044169 
  6.224739227223541   5.030425751003413   1.683987902256594 
  4.979630372060840  11.498529567339292   1.668559244695776 
 11.203113522434325   5.030954121399634   1.668787926563204 
 -2.488890507317126   7.186796043999010   8.337087304632741 
  3.735035906355234   0.718657652567874   8.336460096800511 
  7.468668719002631   7.186532893074061   8.331661644951465 
  8.713688386749519   0.718848695957364   8.338239069492083 
 13.692880345481694   0.719284984470276   8.337132416512500 
  0.016086837043519   1.450218324635927   5.002978606422314 
  3.662355908640814   8.001998625368595   5.002978606422314 
  4.992109533466027   1.364665346828365   5.002978606422314 
  8.661321977251095   7.875111572773915   5.002978606422314 
  9.970717672036903   1.430767759149262   5.002978606422314 
 -4.978829406432423  10.060769149947996  11.673616748318732 
  0.000142147800016  10.060757547177307  11.673616748318732 
  1.244738146082768   3.593144901381300  11.673616748318732 
  4.978802336516061  10.060804391328851  11.673616748318732 
  6.223499782724411   3.593193335567952  11.673616748318732 
 11.202310169021100   3.593094383748265  11.673616748318732 
 -2.521059435956973  10.042445646686110   5.002978606422314 
 -1.225416362343123   3.600564943732920   5.002978606422314 
  3.806973525790215   3.514006443682609   5.002978606422314 
  2.454946628467194  10.103073719646403   5.002978606422314 
  7.444059151402966  10.054596928459336   5.002978606422314 
  8.729245157618900   3.566534006506918   5.002978606422314 
 -6.223504884165496  12.216675362065782  11.673616748318732 
 -1.244600073061502  12.216714316035590  11.673616748318732 
  0.000099799136825   5.748901608594682  11.673616748318732 
  4.978692123584123   5.748944235433290  11.673616748318732 
  3.734124472884403  12.216661002598343  11.673616748318732 
  9.957595570265999   5.748926275295852  11.673616748318732 
 -2.498474548729607   5.744552337818803   5.002978606422314 
 -3.752978790342635  12.187408489972908   5.002978606422314 
  1.237505242375982  12.212453975488318   5.002978606422314 
  2.457319921153182   5.851675059532444   5.002978606422314 
  6.226334563942245  12.230089323911290   5.002978606422314 
  7.432902455369256   5.707162660768637   5.002978606422314 
 -1.244571666838666   7.904780641575250  11.673616748318732 
 -0.000026879535460   1.437267628660094  11.673616748318732 
  3.734160909639524   7.904854741007259  11.673616748318732 
  4.978821916239469   1.437465915953428  11.673616748318732 
  8.712780622781473   7.904821235622872  11.673616748318732 
 -3.771384941761135   7.887634744738812   5.002978606422314 
  9.957615323081701   1.437258649616518  11.673616748318732 
  2.498663370169234   1.429342420924152   5.002978606422314 
  1.188503933717364   7.952703497546588   5.002978606422314 
  6.169613384406976   7.895243516321805   5.002978606422314 
  7.487606120721039   1.386251781868894   5.002978606422314 
  1.244907267376338   7.904795798910118  11.673616748318732 
 12.461801425622811   1.445834412331686   5.002978606422314 
 -2.489336580000301  10.060760846112323  11.673616748318732 
 -1.244688852344380   3.593085403814072  11.673616748318732 
  3.734118267272327   3.593356649631691  11.673616748318732 
  2.489474631557100  10.060783680149170  11.673616748318732 
  7.468128292989876  10.060810083318287  11.673616748318732 
  8.712927662621514   3.593109604684456  11.673616748318732 
 -5.012343170297145  10.037037446633864   5.002978606422314 
 -0.033088970178121  10.066812706051813   5.002978606422314 
  1.280976189108113   3.614066945276853   5.002978606422314 
  4.963945940872162  10.088223555611609   5.002978606422314 
  6.271726353904508   3.482436438403219   5.002978606422314 
 11.215349635997683   3.588861739384310   5.002978606422314 
 -2.489343992879414   5.748918974721561  11.673616748318732 
 -3.734087750604819  12.216748984918155  11.673616748318732 
  1.244767302023941  12.216646727580983  11.673616748318732 
  2.489611586041609   5.748905451882233  11.673616748318732 
  6.223480407998466  12.216680492075540  11.673616748318732 
 -6.231851780577552  12.210951387200337   5.002978606422314 
  7.468133497082143   5.748944362258849  11.673616748318732 
 -1.255971710641377  12.184907744233252   5.002978606422314 
 -0.002207158721664   5.760977240114867   5.002978606422314 
 -1.279426800689953   7.903090768731347   5.002978606422314 
  3.735054371324237  12.231253414876319   5.002978606422314 
  9.940180249526854   5.731188364664115   5.002978606422314 
 -3.734075801883611   7.904792663964939  11.673616748318732 
  2.489359045435303   1.437378120795079  11.673616748318732 
  6.223412920167178   7.904863642702029  11.673616748318732 
  7.468245873734286   1.437298929435412  11.673616748318732 
 12.446957366588300   1.437264190852202  11.673616748318732 
  1.248669967167188   0.715679408943723   5.002978606422314 
  4.878958475724547   7.341050493278931   5.002978606422314 
  6.239307750422126   0.667722915186879   5.002978606422314 
  9.923856330024137   7.167347049865051   5.002978606422314 
 11.217892787237588   0.727663425112500   5.002978606422314 
 -3.733982040359526   9.342164454528286  11.673616748318732 
  1.244556504166525   9.342499758302104  11.673616748318732 
  2.488750160994573   2.873998274973351  11.673616748318732 
  6.223633254703120   9.342916044225284  11.673616748318732 
  7.468859509959619   2.873998205773247  11.673616748318732 
 12.446940593028444   2.874366167081591  11.673616748318732 
 -1.275101167152645   9.337717910642906   5.002978606422314 
  0.024390176333683   2.888576672541553   5.002978606422314 
  5.014531501314088   2.766585552870062   5.002978606422314 
  3.696768232520494   9.428849535802581   5.002978606422314 
  8.679647096901499   9.322380656879782   5.002978606422314 
  9.982009509325476   2.861266361226255   5.002978606422314 
 -4.978838765952222  11.498046019164038  11.673616748318732 
  0.000114142463051  11.498045890860695  11.673616748318732 
  1.243944906023604   5.030064222111815  11.673616748318732 
  6.224211370610738   5.030019290772930  11.673616748318732 
  4.978808958763123  11.498575996042778  11.673616748318732 
 11.202565690549116   5.030154655458523  11.673616748318732 
 -1.245254158338927   5.035282704542125   5.002978606422314 
 -2.508392423719662  11.473841027547458   5.002978606422314 
  2.482106934164655  11.526271649158424   5.002978606422314 
  7.459042370681466  11.499435618897200   5.002978606422314 
  8.714341766248499   4.998976059528604   5.002978606422314 
 -0.000337056970280   7.186225870571270  11.673616748318732 
  1.244340721281393   0.718487332499253  11.673616748318732 
  4.978844481607354   7.187058016590797  11.673616748318732 
  6.223734686589453   0.718310166407077  11.673616748318732 
  9.957956104966350   7.186240912195366  11.673616748318732 
 -2.519396307317428   7.178812616010180   5.002978606422314 
 11.202364173060522   0.718697975537264  11.673616748318732 
  3.726435146522025   0.680845921644146   5.002978606422314 
  2.413813430152210   7.271161388284999   5.002978606422314 
  7.420698426652696   7.158837231872744   5.002978606422314 
  8.733711835140562   0.698174331821477   5.002978606422314 
  2.488986155317681   7.186638809876380  11.673616748318732 
 13.705473164987465   0.732766173469466   5.002978606422314 
 -1.244735345911404   9.342170087443105  11.673616748318732 
 -0.000515624513397   2.874197301718083  11.673616748318732 
  4.978919163801623   2.873948331739336  11.673616748318732 
  3.733999520577111   9.342965466539953  11.673616748318732 
  8.713059549126054   9.342464997078276  11.673616748318732 
  9.958077708267298   2.874229537361536  11.673616748318732 
 -3.766131883951599   9.323602733675907   5.002978606422314 
  1.208533191418539   9.381280052806066   5.002978606422314 
  2.513341202836324   2.869089599955113   5.002978606422314 
  6.197025452553027   9.359095813571184   5.002978606422314 