 N B Se 
 1.0
 14.936314146199660   0.000000000000000   0.000000000000000
 -7.468157073099825  12.935227489513863   0.000000000000000
  0.000000000000001   0.000000000000001  13.341276283792837
 N B Se 
 143 143   1
Cartesian
  1.244278377171888   0.718039744015253   1.670559374128833 
  4.977740376336846   7.185531821510448   1.666324138370482 
  6.223122007543498   0.718128440054155   1.670416430150668 
  9.956855475399076   7.185995371348377   1.670488264871729 
 11.201876824106838   0.718416604487707   1.668877649478953 
 -3.734599452563600   9.341807991425846   8.336664615996145 
  1.244092785005449   9.342060025860283   8.335540782693920 
  2.488574299706028   2.873866655676863   8.339978495204209 
  6.222768928578188   9.341406062637789   8.333713479383420 
  7.467537667931347   2.874038068393412   8.335022158896081 
 12.446415503534530   2.874377470544711   8.336405397081272 
 -1.245219423627016   9.341966615792071   1.669610238967541 
 -0.000630223925155   2.874131137716854   1.669891303665531 
  4.978324873566931   2.873916650395500   1.666066501811544 
  3.733373121604683   9.341800786453621   1.670935053948521 
  8.712296589731320   9.341634594336250   1.670488264871729 
  9.957006633161578   2.874322441128657   1.669756635583999 
 -4.979179146956913  11.497471633980862   8.336391147972174 
 -0.000400611434478  11.497748697559421   8.336383606582242 
  1.243742989724915   5.029977731416662   8.339978495204209 
  6.222337594264668   5.029826205100573   8.339633074474186 
  4.978353878232675  11.497601965908339   8.336200577260669 
 11.201524513188932   5.030315810903348   8.335821816310165 
 -1.245405843203211   5.030299308507463   1.670559374128833 
 -2.489772065364533  11.497595023975533   1.669610238967541 
  2.488925811709582  11.497825103920347   1.669335725936941 
  3.732179502071148   5.029269837854502   1.641866587506982 
  7.467757846861948  11.497389380588800   1.670135396534409 
  8.711893730566064   5.030115439214935   1.672243733461235 
 -0.000674902350322   7.186174228844135   8.336059529354483 
  1.244278377171889   0.718039744015253   8.335397838715874 
  4.977740376336861   7.185531821510449   8.339633074474186 
  6.223122007543499   0.718128440054156   8.335540782693920 
  9.956855475399069   7.185995371348390   8.335468947972911 
 -2.490029823293232   7.186138537769628   1.669566064872453 
 11.201876824106838   0.718416604487707   8.337079563365622 
  3.733686295991593   0.718070899502094   1.669897683490146 
  2.488661573351741   7.186139980107848   1.666066501811544 
  7.467299031889914   7.185742103850870   1.672519578160826 
  8.712485843086972   0.718302925619678   1.669335725936941 
  2.488661573351741   7.186139980107849   8.339890711033018 
 13.691263043391135   0.718238283835931   1.669551815763343 
 -1.245219423627015   9.341966615792071   8.336346973877045 
 -0.000630223925154   2.874131137716855   8.336065909179043 
  4.978324873566932   2.873916650395501   8.339890711033018 
  3.733373121604683   9.341800786453621   8.335022158896081 
  8.712296589731327   9.341634594336238   8.335468947972911 
  9.957006633161578   2.874322441128658   8.336200577260669 
 -3.734599452563600   9.341807991425846   1.669292596848455 
  1.244092785005448   9.342060025860283   1.670416430150668 
  2.488574299706013   2.873866655676862   1.665978717640419 
  6.222768928578187   9.341406062637789   1.672243733461235 
  7.467537667931346   2.874038068393411   1.670935053948521 
 12.446415503534530   2.874377470544710   1.669551815763343 
 -1.245405843203210   5.030299308507464   8.335397838715874 
 -2.489772065364532  11.497595023975533   8.336346973877045 
  2.488925811709583  11.497825103920347   8.336621486907713 
  3.732179502071148   5.029269837854503   8.364090625337631 
  7.467757846861949  11.497389380588800   8.335821816310165 
 -4.979179146956914  11.497471633980862   1.669566064872453 
  8.711893730566064   5.030115439214936   8.333713479383420 
 -0.000400611434478  11.497748697559421   1.669573606262345 
  1.243742989724914   5.029977731416661   1.665978717640419 
 -0.000674902350322   7.186174228844134   1.669897683490146 
  6.222337594264667   5.029826205100572   1.666324138370482 
  4.978353878232674  11.497601965908339   1.669756635583999 
 11.201524513188932   5.030315810903347   1.670135396534409 
 -2.490029823293231   7.186138537769629   8.336391147972174 
  3.733686295991593   0.718070899502095   8.336059529354483 
  7.467299031889914   7.185742103850870   8.333437634683829 
  8.712485843086972   0.718302925619678   8.336621486907713 
 13.691263043391135   0.718238283835931   8.336405397081272 
  0.037135440066046   1.463015744867505   5.002978606422314 
  3.674552306237481   8.003837446335014   5.002978606422314 
  5.006802609963993   1.378079483493669   5.002978606422314 
  8.680438739255633   7.886148640463208   5.002978606422314 
  9.987851396352841   1.441909624270527   5.002978606422314 
 -4.979207475111750  10.060501415048471  11.673616748318732 
 -0.000331840466791  10.060527315642634  11.673616748318732 
  1.244246485458014   3.592861040987248  11.673616748318732 
  4.978407046349881  10.060476185053821  11.673616748318732 
  6.223045271163971   3.592944188124417  11.673616748318732 
 11.201846002264976   3.592917115499120  11.673616748318732 
 -2.503323406327876  10.052685548166876   5.002978606422314 
 -1.203809169808416   3.612394858548826   5.002978606422314 
  3.839846979639288   3.538776669484185   5.002978606422314 
  2.473263898365373  10.109244528296427   5.002978606422314 
  7.460467320579671  10.062272925063521   5.002978606422314 
  8.743262728795454   3.578479140391754   5.002978606422314 
 -6.223903207599284  12.216361399614422  11.673616748318732 
 -1.245036453552758  12.216418945922905  11.673616748318732 
 -0.000448243575181   5.748730182695377  11.673616748318732 
  4.978425388416217   5.748790235812297  11.673616748318732 
  3.733713261033097  12.216371857803304  11.673616748318732 
  9.957150136210371   5.748760100095095  11.673616748318732 
 -2.474268160535497   5.754139621118338   5.002978606422314 
 -3.735361582277756  12.200069629496230   5.002978606422314 
  1.255065583995776  12.222592443449541   5.002978606422314 
  2.495208292879322   5.867759192775155   5.002978606422314 
  6.244944075316851  12.240251191560986   5.002978606422314 
  7.438467245331163   5.724051020911626   5.002978606422314 
 -1.245104944415431   7.904603536316376  11.673616748318732 
 -0.000428363700616   1.436987206189162  11.673616748318732 
  3.733717885844078   7.904585696171089  11.673616748318732 
  4.978368961871757   1.437036777942781  11.673616748318732 
  8.712444910527150   7.904627412062572  11.673616748318732 
 -3.752486499914327   7.897063493648762   5.002978606422314 
  9.957159310418151   1.437047102104508  11.673616748318732 
  2.527290351390126   1.456047572937284   5.002978606422314 
  1.207467455088306   7.958721006720948   5.002978606422314 
  6.187021528299939   7.891618585724187   5.002978606422314 
  7.502108832722875   1.399029598603850   5.002978606422314 
  1.244309145773502   7.904618097926301  11.673616748318732 
 12.480988828522570   1.456912264560885   5.002978606422314 
 -2.489772765644330  10.060509014213190  11.673616748318732 
 -1.245132447410570   3.592877919563283  11.673616748318732 
  3.733673491624556   3.592837767682223  11.673616748318732 
  2.489039052725979  10.060485590712556  11.673616748318732 
  7.467761664016602  10.060507413711001  11.673616748318732 
  8.712445782566581   3.592931376496169  11.673616748318732 
 -4.994728413291828  10.048689602910180   5.002978606422314 
 -0.014781332407244  10.075683551260525   5.002978606422314 
  1.301939327054777   3.626170018613428   5.002978606422314 
  4.981299515856328  10.094390561407392   5.002978606422314 
  6.279417018372810   3.492079418073574   5.002978606422314 
 11.233454827219688   3.599897115161745   5.002978606422314 
 -2.489815054055036   5.748730997734683  11.673616748318732 
 -3.734507767046613  12.216375705618987  11.673616748318732 
  1.244343071637567  12.216401798053143  11.673616748318732 
  2.488939833267957   5.748779705846949  11.673616748318732 
  6.223094805813314  12.216367145997795  11.673616748318732 
 -6.211445755589768  12.227121092660445   5.002978606422314 
  7.467753271304823   5.748782178268041  11.673616748318732 
 -1.239135514452124  12.196327201021733   5.002978606422314 
  0.035233671944116   5.772416357079164   5.002978606422314 
 -1.259653328189298   7.912017148697355   5.002978606422314 
  3.753270371722694  12.240520722834846   5.002978606422314 
  9.955031942173823   5.741560257698588   5.002978606422314 
 -3.734496701447750   7.904599114334041  11.673616748318732 
  2.488936564895643   1.436989214833764  11.673616748318732 
  6.223082351822428   7.904615449515036  11.673616748318732 
  7.467769931293989   1.437070751820668  11.673616748318732 
 12.446545518383397   1.437026410180218  11.673616748318732 
  1.273077360838457   0.735591151035920   5.002978606422314 
  4.891507762780499   7.365852988440017   5.002978606422314 
  6.253266016704912   0.679912038641485   5.002978606422314 
  9.943061237355469   7.178409001108871   5.002978606422314 
 11.236466199617126   0.738386789749604   5.002978606422314 
 -3.734361032558707   9.341945643279921  11.673616748318732 
  1.244121250830930   9.341989610228804  11.673616748318732 
  2.488664830234658   2.874017697816457  11.673616748318732 
  6.223198564779147   9.342271513358492  11.673616748318732 
  7.467955006422018   2.874029957097995  11.673616748318732 
 12.446620422758581   2.874206917367121  11.673616748318732 
 -1.257106987082779   9.347029713649645   5.002978606422314 
  0.044967188756690   2.900456816203094   5.002978606422314 
  5.032148458025894   2.782696857008855   5.002978606422314 
  3.713990117669412   9.437682002771373   5.002978606422314 
  8.698829481359560   9.333481618884441   5.002978606422314 
  9.999623665197159   2.872427381395392   5.002978606422314 
 -4.979171648133727  11.497814240077117  11.673616748318732 
 -0.000384052033702  11.497758258133937  11.673616748318732 
  1.243919061319182   5.029980612084464  11.673616748318732 
  6.223098772227402   5.030052059905291  11.673616748318732 
  4.978428771548318  11.498093959213229  11.673616748318732 
 11.202102981741612   5.030050458898279  11.673616748318732 
 -1.215806387017868   5.046464256455552   5.002978606422314 
 -2.491331075725901  11.484768543104941   5.002978606422314 
  2.500116278128247  11.535576203552870   5.002978606422314 
  7.478562807591387  11.512057874396108   5.002978606422314 
  8.729971371990224   5.008954282250849   5.002978606422314 
 -0.000652970647672   7.185963037248531  11.673616748318732 
  1.244130119041934   0.718359949292713  11.673616748318732 
  4.978316561316658   7.186078093560632  11.673616748318732 
  6.223075258730577   0.718188299997863  11.673616748318732 
  9.957475367480672   7.186073812743875  11.673616748318732 
 -2.498981768648795   7.188781398824958   5.002978606422314 
 11.201985471384525   0.718479332022685  11.673616748318732 
  3.746439000423246   0.694383331338841   5.002978606422314 
  2.436574707180413   7.278362468265383   5.002978606422314 
  7.442684130028574   7.171530683635122   5.002978606422314 
  8.750774487598866   0.709118604002176   5.002978606422314 
  2.488625665546236   7.185989650360671  11.673616748318732 
 13.725625732301058   0.744339022752799   5.002978606422314 
 -1.245135248895575   9.341885055817317  11.673616748318732 
 -0.000610768550591   2.874142370282614  11.673616748318732 
  4.978176730284187   2.873960718197315  11.673616748318732 
  3.733574766262116   9.342166267836257  11.673616748318732 
  8.712674468013283   9.342132215928848  11.673616748318732 
  9.957470158519937   2.874141303990109  11.673616748318732 
 -3.747854245746535   9.334155333013770   5.002978606422314 
  1.226068415121529   9.387273704272367   5.002978606422314 
  2.536624177462600   2.901572805901099   5.002978606422314 
  6.213481649785981   9.367642337833495   5.002978606422314 
  7.540881735040604   2.809311286424964   5.002978606422314 
 12.486200750949067   2.891086062624571   5.002978606422314 
 -1.245202666363497   5.030010810561903  11.673616748318732 
 -2.489800611008875  11.497708701418684  11.673616748318732 
  2.489008553737209  11.497930811113465  11.673616748318732 
  3.733374313776371   5.029959662714197  11.673616748318732 
  7.467817279561044  11.498023025053092  11.673616748318732 
 -4.981366334822092  11.488397591361988   5.002978606422314 
  8.712858050976468   5.030054789718874  11.673616748318732 
  0.006515800891634  11.501741890077730   5.002978606422314 
  1.291762158538487   5.057737071090420   5.002978606422314 
 -0.014812585917765   7.209062178930552   5.002978606422314 
  6.335383998887516   4.864985987661357   5.002978606422314 
  4.998021224379798  11.535456928151655   5.002978606422314 
 11.219630281826120   5.032338934478137   5.002978606422314 
 -2.489729368298724   7.185973728892761  11.673616748318732 
  3.733514364556015   0.718195488711618  11.673616748318732 
  7.468058488755211   7.186180576476453  11.673616748318732 
  8.712618759215387   0.718321728721005  11.673616748318732 
 13.691217799618673   0.718501025678479  11.673616748318732 
 -0.000510447740139   1.436740268007728   1.667006838489379 
  3.732027725748139   7.905308861719878   1.659217046387968 
  4.978149172110227   1.435383317878334   1.664952919799060 
  8.713526931550444   7.905252117191485   1.666267439401142 
  9.957429397873218   1.436618099136380   1.665910949985713 
 -4.978514316396253  10.060724857052731   8.339469476861350 
 -0.001217939948772  10.060768039502602   8.339224581023357 
  1.243327520236349   3.592330476169110   8.343165547158813 
  4.978032500759195  10.061545087464618   8.340443051400738 
  6.222826470852330   3.591118883770591   8.346740166456726 
 11.202273805710863   3.592901808436097   8.339458367002402 
 -2.489821493288590  10.060480881294666   1.666656724369975 
 -1.245387344168602   3.592930301790500   1.667006838489379 
  3.732364498976720   3.591556767964667   1.651776710975242 
  2.487788845817477  10.061378710764503   1.665788240201018 
  7.468429535220557  10.061132279878334   1.666600279895166 
  8.713184206413143   3.592072559294409   1.665514161443890 
 -6.223533314511069  12.216161081275931   8.338870996215247 
 -1.245271030315672  12.215531199331163   8.339224581023357 
 -0.001498359462441   5.748982763539177   8.340072047668302 
  4.976352781263226   5.747593615514584   8.355849454141847 
  3.733476777291904  12.216820261884751   8.340046262858927 
  9.958025221787205   5.749026060440549   8.339356932949435 
 -2.489803588280957   5.749151493715097   1.667086216629286 
 -3.734387908397340  12.215662230401389   1.666791069013837 
  1.243956093792590  12.216178376290156   1.666126283036196 
  2.487175958646387   5.748286584819371   1.651776710975242 
  6.223295451230807  12.216745288181297   1.666498845842144 
  7.468191383527965   5.748552002068097   1.662453071839691 
 -1.245662902754158   7.905064074560230   8.339166143830750 
 -0.000510447740138   1.436740268007729   8.338950374355250 
  3.732027725748140   7.905308861719879   8.346740166456726 
  4.978149172110228   1.435383317878335   8.341004293045566 
  8.713526931550444   7.905252117191486   8.339689773443471 
 -3.733956615638090   7.905087686388475   1.666487735983225 
  9.957429397873218   1.436618099136381   8.340046262858927 
  2.488630248379237   1.435953497376603   1.665885165176312 
  1.242767312472776   7.905254484441559   1.664952919799060 
  6.223102069497532   7.905109953929904   1.662453071839691 
  7.467918292493369   1.435541480851917   1.665788240201018 
  1.242767312472777   7.905254484441560   8.341004293045566 
 12.446672251479672   1.437099579567441   1.666413874030138 
 -2.489821493288589  10.060480881294666   8.339300488474718 
 -1.245387344168602   3.592930301790501   8.338950374355250 
  3.732364498976720   3.591556767964668   8.354180501869452 
  2.487788845817477  10.061378710764503   8.340168972643543 
  7.468429535220558  10.061132279878334   8.339356932949435 
  8.713184206413143   3.592072559294410   8.340443051400738 
 -4.978514316396254  10.060724857052731   1.666487735983225 
 -0.001217939948773  10.060768039502602   1.666732631821351 
  1.243327520236349   3.592330476169109   1.662791665685828 
  4.978032500759210  10.061545087464618   1.665514161443890 
  6.222826470852329   3.591118883770590   1.659217046387968 
 11.202273805710863   3.592901808436096   1.666498845842144 
 -2.489803588280942   5.749151493715072   8.338870996215247 
 -3.734387908397340  12.215662230401389   8.339166143830750 
  1.243956093792590  12.216178376290156   8.339830929808446 
  2.487175958646373   5.748286584819372   8.354180501869452 
  6.223295451230808  12.216745288181297   8.339458367002402 
 -6.223533314511069  12.216161081275931   1.667086216629286 
  7.468191383527966   5.748552002068098   8.343504141004937 
 -1.245271030315672  12.215531199331163   1.666732631821351 
 -0.001498359462441   5.748982763539177   1.665885165176312 
 -1.245662902754159   7.905064074560229   1.666791069013837 
  4.976352781263225   5.747593615514583   1.650107758702716 
  3.733476777291903  12.216820261884751   1.665910949985713 
  9.958025221787205   5.749026060440548   1.666600279895166 
 -3.733956615638090   7.905087686388476   8.339469476861350 
  2.488630248379237   1.435953497376604   8.340072047668302 
  6.223102069497533   7.905109953929905   8.343504141004937 
  7.467918292493370   1.435541480851918   8.340168972643543 
 12.446672251479672   1.437099579567442   8.339543338814449 
  4.301993066759030   5.358251852814947   5.002978606422314 
Generated by cif2cell 2.0.0.  :  Failed to get author information, No journal information. Species order: N B Se 
 1.0
 14.936314146199660   0.000000000000000   0.000000000000000
 -7.468157073099825  12.935227489513863   0.000000000000000
  0.000000000000001   0.000000000000001  13.341276283792837
 N B Se 
 143 143   1
Cartesian
  1.244278377171888   0.718039744015253   1.670559374128833 
  4.977740376336846   7.185531821510448   1.666324138370482 
  6.223122007543498   0.718128440054155   1.670416430150668 
  9.956855475399076   7.185995371348377   1.670488264871729 
 11.201876824106838   0.718416604487707   1.668877649478953 
 -3.734599452563600   9.341807991425846   8.336664615996145 
  1.244092785005449   9.342060025860283   8.335540782693920 
  2.488574299706028   2.873866655676863   8.339978495204209 
  6.222768928578188   9.341406062637789   8.333713479383420 
  7.467537667931347   2.874038068393412   8.335022158896081 
 12.446415503534530   2.874377470544711   8.336405397081272 
 -1.245219423627016   9.341966615792071   1.669610238967541 
 -0.000630223925155   2.874131137716854   1.669891303665531 
  4.978324873566931   2.873916650395500   1.666066501811544 
  3.733373121604683   9.341800786453621   1.670935053948521 
  8.712296589731320   9.341634594336250   1.670488264871729 
  9.957006633161578   2.874322441128657   1.669756635583999 
 -4.979179146956913  11.497471633980862   8.336391147972174 
 -0.000400611434478  11.497748697559421   8.336383606582242 
  1.243742989724915   5.029977731416662   8.339978495204209 
  6.222337594264668   5.029826205100573   8.339633074474186 
  4.978353878232675  11.497601965908339   8.336200577260669 
 11.201524513188932   5.030315810903348   8.335821816310165 
 -1.245405843203211   5.030299308507463   1.670559374128833 
 -2.489772065364533  11.497595023975533   1.669610238967541 
  2.488925811709582  11.497825103920347   1.669335725936941 
  3.732179502071148   5.029269837854502   1.641866587506982 
  7.467757846861948  11.497389380588800   1.670135396534409 
  8.711893730566064   5.030115439214935   1.672243733461235 
 -0.000674902350322   7.186174228844135   8.336059529354483 
  1.244278377171889   0.718039744015253   8.335397838715874 
  4.977740376336861   7.185531821510449   8.339633074474186 
  6.223122007543499   0.718128440054156   8.335540782693920 
  9.956855475399069   7.185995371348390   8.335468947972911 
 -2.490029823293232   7.186138537769628   1.669566064872453 
 11.201876824106838   0.718416604487707   8.337079563365622 
  3.733686295991593   0.718070899502094   1.669897683490146 
  2.488661573351741   7.186139980107848   1.666066501811544 
  7.467299031889914   7.185742103850870   1.672519578160826 
  8.712485843086972   0.718302925619678   1.669335725936941 
  2.488661573351741   7.186139980107849   8.339890711033018 
 13.691263043391135   0.718238283835931   1.669551815763343 
 -1.245219423627015   9.341966615792071   8.336346973877045 
 -0.000630223925154   2.874131137716855   8.336065909179043 
  4.978324873566932   2.873916650395501   8.339890711033018 
  3.733373121604683   9.341800786453621   8.335022158896081 
  8.712296589731327   9.341634594336238   8.335468947972911 
  9.957006633161578   2.874322441128658   8.336200577260669 
 -3.734599452563600   9.341807991425846   1.669292596848455 
  1.244092785005448   9.342060025860283   1.670416430150668 
  2.488574299706013   2.873866655676862   1.665978717640419 
  6.222768928578187   9.341406062637789   1.672243733461235 
  7.467537667931346   2.874038068393411   1.670935053948521 
 12.446415503534530   2.874377470544710   1.669551815763343 
 -1.245405843203210   5.030299308507464   8.335397838715874 
 -2.489772065364532  11.497595023975533   8.336346973877045 
  2.488925811709583  11.497825103920347   8.336621486907713 
  3.732179502071148   5.029269837854503   8.364090625337631 
  7.467757846861949  11.497389380588800   8.335821816310165 
 -4.979179146956914  11.497471633980862   1.669566064872453 
  8.711893730566064   5.030115439214936   8.333713479383420 
 -0.000400611434478  11.497748697559421   1.669573606262345 
  1.243742989724914   5.029977731416661   1.665978717640419 
 -0.000674902350322   7.186174228844134   1.669897683490146 
  6.222337594264667   5.029826205100572   1.666324138370482 
  4.978353878232674  11.497601965908339   1.669756635583999 
 11.201524513188932   5.030315810903347   1.670135396534409 
 -2.490029823293231   7.186138537769629   8.336391147972174 
  3.733686295991593   0.718070899502095   8.336059529354483 
  7.467299031889914   7.185742103850870   8.333437634683829 
  8.712485843086972   0.718302925619678   8.336621486907713 
 13.691263043391135   0.718238283835931   8.336405397081272 
  0.037135440066046   1.463015744867505   5.002978606422314 
  3.674552306237481   8.003837446335014   5.002978606422314 
  5.006802609963993   1.378079483493669   5.002978606422314 
  8.680438739255633   7.886148640463208   5.002978606422314 
  9.987851396352841   1.441909624270527   5.002978606422314 
 -4.979207475111750  10.060501415048471  11.673616748318732 
 -0.000331840466791  10.060527315642634  11.673616748318732 
  1.244246485458014   3.592861040987248  11.673616748318732 
  4.978407046349881  10.060476185053821  11.673616748318732 
  6.223045271163971   3.592944188124417  11.673616748318732 
 11.201846002264976   3.592917115499120  11.673616748318732 
 -2.503323406327876  10.052685548166876   5.002978606422314 
 -1.203809169808416   3.612394858548826   5.002978606422314 
  3.839846979639288   3.538776669484185   5.002978606422314 
  2.473263898365373  10.109244528296427   5.002978606422314 
  7.460467320579671  10.062272925063521   5.002978606422314 
  8.743262728795454   3.578479140391754   5.002978606422314 
 -6.223903207599284  12.216361399614422  11.673616748318732 
 -1.245036453552758  12.216418945922905  11.673616748318732 
 -0.000448243575181   5.748730182695377  11.673616748318732 
  4.978425388416217   5.748790235812297  11.673616748318732 
  3.733713261033097  12.216371857803304  11.673616748318732 
  9.957150136210371   5.748760100095095  11.673616748318732 
 -2.474268160535497   5.754139621118338   5.002978606422314 
 -3.735361582277756  12.200069629496230   5.002978606422314 
  1.255065583995776  12.222592443449541   5.002978606422314 
  2.495208292879322   5.867759192775155   5.002978606422314 
  6.244944075316851  12.240251191560986   5.002978606422314 
  7.438467245331163   5.724051020911626   5.002978606422314 
 -1.245104944415431   7.904603536316376  11.673616748318732 
 -0.000428363700616   1.436987206189162  11.673616748318732 
  3.733717885844078   7.904585696171089  11.673616748318732 
  4.978368961871757   1.437036777942781  11.673616748318732 
  8.712444910527150   7.904627412062572  11.673616748318732 
 -3.752486499914327   7.897063493648762   5.002978606422314 
  9.957159310418151   1.437047102104508  11.673616748318732 
  2.527290351390126   1.456047572937284   5.002978606422314 
  1.207467455088306   7.958721006720948   5.002978606422314 
  6.187021528299939   7.891618585724187   5.002978606422314 
  7.502108832722875   1.399029598603850   5.002978606422314 
  1.244309145773502   7.904618097926301  11.673616748318732 
 12.480988828522570   1.456912264560885   5.002978606422314 
 -2.489772765644330  10.060509014213190  11.673616748318732 
 -1.245132447410570   3.592877919563283  11.673616748318732 
  3.733673491624556   3.592837767682223  11.673616748318732 
  2.489039052725979  10.060485590712556  11.673616748318732 
  7.467761664016602  10.060507413711001  11.673616748318732 
  8.712445782566581   3.592931376496169  11.673616748318732 
 -4.994728413291828  10.048689602910180   5.002978606422314 
 -0.014781332407244  10.075683551260525   5.002978606422314 
  1.301939327054777   3.626170018613428   5.002978606422314 
  4.981299515856328  10.094390561407392   5.002978606422314 
  6.279417018372810   3.492079418073574   5.002978606422314 
 11.233454827219688   3.599897115161745   5.002978606422314 
 -2.489815054055036   5.748730997734683  11.673616748318732 
 -3.734507767046613  12.216375705618987  11.673616748318732 
  1.244343071637567  12.216401798053143  11.673616748318732 
  2.488939833267957   5.748779705846949  11.673616748318732 
  6.223094805813314  12.216367145997795  11.673616748318732 
 -6.211445755589768  12.227121092660445   5.002978606422314 
  7.467753271304823   5.748782178268041  11.673616748318732 
 -1.239135514452124  12.196327201021733   5.002978606422314 
  0.035233671944116   5.772416357079164   5.002978606422314 
 -1.259653328189298   7.912017148697355   5.002978606422314 
  3.753270371722694  12.240520722834846   5.002978606422314 
  9.955031942173823   5.741560257698588   5.002978606422314 
 -3.734496701447750   7.904599114334041  11.673616748318732 
  2.488936564895643   1.436989214833764  11.673616748318732 
  6.223082351822428   7.904615449515036  11.673616748318732 
  7.467769931293989   1.437070751820668  11.673616748318732 
 12.446545518383397   1.437026410180218  11.673616748318732 
  1.273077360838457   0.735591151035920   5.002978606422314 
  4.891507762780499   7.365852988440017   5.002978606422314 
  6.253266016704912   0.679912038641485   5.002978606422314 
  9.943061237355469   7.178409001108871   5.002978606422314 
 11.236466199617126   0.738386789749604   5.002978606422314 
 -3.734361032558707   9.341945643279921  11.673616748318732 
  1.244121250830930   9.341989610228804  11.673616748318732 
  2.488664830234658   2.874017697816457  11.673616748318732 
  6.223198564779147   9.342271513358492  11.673616748318732 
  7.467955006422018   2.874029957097995  11.673616748318732 
 12.446620422758581   2.874206917367121  11.673616748318732 
 -1.257106987082779   9.347029713649645   5.002978606422314 
  0.044967188756690   2.900456816203094   5.002978606422314 
  5.032148458025894   2.782696857008855   5.002978606422314 
  3.713990117669412   9.437682002771373   5.002978606422314 
  8.698829481359560   9.333481618884441   5.002978606422314 
  9.999623665197159   2.872427381395392   5.002978606422314 
 -4.979171648133727  11.497814240077117  11.673616748318732 
 -0.000384052033702  11.497758258133937  11.673616748318732 
  1.243919061319182   5.029980612084464  11.673616748318732 
  6.223098772227402   5.030052059905291  11.673616748318732 
  4.978428771548318  11.498093959213229  11.673616748318732 
 11.202102981741612   5.030050458898279  11.673616748318732 
 -1.215806387017868   5.046464256455552   5.002978606422314 
 -2.491331075725901  11.484768543104941   5.002978606422314 
  2.500116278128247  11.535576203552870   5.002978606422314 
  7.478562807591387  11.512057874396108   5.002978606422314 
  8.729971371990224   5.008954282250849   5.002978606422314 
 -0.000652970647672   7.185963037248531  11.673616748318732 
  1.244130119041934   0.718359949292713  11.673616748318732 
  4.978316561316658   7.186078093560632  11.673616748318732 
  6.223075258730577   0.718188299997863  11.673616748318732 
  9.957475367480672   7.186073812743875  11.673616748318732 
 -2.498981768648795   7.188781398824958   5.002978606422314 
 11.201985471384525   0.718479332022685  11.673616748318732 
  3.746439000423246   0.694383331338841   5.002978606422314 
  2.436574707180413   7.278362468265383   5.002978606422314 
  7.442684130028574   7.171530683635122   5.002978606422314 
  8.750774487598866   0.709118604002176   5.002978606422314 
  2.488625665546236   7.185989650360671  11.673616748318732 
 13.725625732301058   0.744339022752799   5.002978606422314 
 -1.245135248895575   9.341885055817317  11.673616748318732 
 -0.000610768550591   2.874142370282614  11.673616748318732 
  4.978176730284187   2.873960718197315  11.673616748318732 
  3.733574766262116   9.342166267836257  11.673616748318732 
  8.712674468013283   9.342132215928848  11.673616748318732 
  9.957470158519937   2.874141303990109  11.673616748318732 
 -3.747854245746535   9.334155333013770   5.002978606422314 
  1.226068415121529   9.387273704272367   5.002978606422314 
  2.536624177462600   2.901572805901099   5.002978606422314 
  6.213481649785981   9.367642337833495   5.002978606422314 
  7.540881735040604   2.809311286424964   5.002978606422314 