Species order: X N B                    
   2.51242800000000     
     5.9449720136058266    0.0000000000000000    0.0000000000000000
    -2.9724860068029120    5.1484967885702053   -0.0000000000000001
     0.0000000000000000    0.0000000000000009    5.3101128803662583
   Se   N    B 
     1   143   143
Direct
  0.4951409794932060  0.4142371564132670  0.3750000000000000
  0.1110607878510646  0.0555104071109183  0.1252173584140706
  0.6110148071623525  0.5555010012259548  0.1248999048460420
  0.4444023867434769  0.0555172640478349  0.1252066439985139
  0.9443890707823280  0.5555368374598597  0.1252120283949940
  0.7777457497473571  0.0555395415403478  0.1250913041585330
  0.1110646100347287  0.7221989716840252  0.6248775933171882
  0.4444023867434769  0.7222184560289774  0.6247933560014826
  0.2776991663657189  0.2221736461926631  0.6251259862848146
  0.7777040653906719  0.7221678992665992  0.6246563898468492
  0.6110519791592430  0.2221868978124502  0.6247544823744918
  0.9444055589507785  0.2222131364040459  0.6248581634733440
  0.2777370291061060  0.7222112346586306  0.1251462156582283
  0.1110548523474907  0.2221940928404094  0.1251672829603375
  0.4443921947765244  0.2221775111976412  0.1248805936082370
  0.6110519791592430  0.7221984146801199  0.1252455176255060
  0.9443890707823280  0.7221855666557997  0.1252120283949936
  0.7777352132916029  0.2222088821753443  0.1251571888674878
  0.1110641607885609  0.8888495887143432  0.6248570954264195
  0.4444086827046940  0.8888710080190124  0.6248565301589171
  0.2776991663657184  0.3888588535063870  0.6251259862848146
  0.6110148071623525  0.3888471392697252  0.6251000951539608
  0.7777352132916032  0.8888596644495852  0.6248428111325147
  0.9443948863590161  0.3888849898450755  0.6248144209738486
  0.1110607878510646  0.3888837140734753  0.1252173584140706
  0.2777370291061060  0.8888591277808013  0.1251462156582283
  0.6110743347531609  0.8888769148622422  0.1251256394386251
  0.4442749216326629  0.3888041274829963  0.1230666806219685
  0.9443948863590161  0.8888432298472781  0.1251855790261468
  0.7777040653906719  0.3888694994574063  0.1253436101531528
  0.2777301469768445  0.5555506646226136  0.6248322388376925
  0.1110607878510646  0.0555104071109183  0.6247826415859347
  0.6110148071623526  0.5555010012259548  0.6251000951539613
  0.4444023867434769  0.0555172640478349  0.6247933560014826
  0.9443890707823280  0.5555368374598608  0.6247879716050069
  0.1110641607885609  0.5555479054075527  0.1251429045735801
  0.7777457497473571  0.0555395415403478  0.6249086958414630
  0.2777301469768445  0.0555128156875636  0.1251677611623078
  0.4443921947765244  0.5555480169122193  0.1248805936082370
  0.7777011822445464  0.5555172577889415  0.1253642861884683
  0.6110743347531609  0.0555307532242458  0.1251256394386251
  0.4443921947765244  0.5555480169122193  0.6251194063917584
  0.9444055589507785  0.0555257558800710  0.1251418365266553
  0.2777370291061060  0.7222112346586306  0.6248537843417691
  0.1110548523474907  0.2221940928404094  0.6248327170396590
  0.4443921947765244  0.2221775111976412  0.6251194063917584
  0.6110519791592430  0.7221984146801201  0.6247544823744918
  0.9443890707823280  0.7221855666557989  0.6247879716050069
  0.7777352132916032  0.2222088821753443  0.6248428111325147
  0.1110646100347287  0.7221989716840252  0.1251224066828098
  0.4444023867434769  0.7222184560289774  0.1252066439985139
  0.2776991663657184  0.2221736461926631  0.1248740137151854
  0.7777040653906717  0.7221678992665992  0.1253436101531528
  0.6110519791592430  0.2221868978124502  0.1252455176255060
  0.9444055589507785  0.2222131364040459  0.1251418365266553
  0.1110607878510645  0.3888837140734753  0.6247826415859347
  0.2777370291061060  0.8888591277808013  0.6248537843417691
  0.6110743347531609  0.8888769148622422  0.6248743605613774
  0.4442749216326630  0.3888041274829963  0.6269333193780302
  0.9443948863590161  0.8888432298472781  0.6248144209738486
  0.1110641607885609  0.8888495887143432  0.1251429045735801
  0.7777040653906717  0.3888694994574060  0.6246563898468492
  0.4444086827046940  0.8888710080190124  0.1251434698410805
  0.2776991663657184  0.3888588535063870  0.1248740137151854
  0.2777301469768445  0.5555506646226136  0.1251677611623078
  0.6110148071623525  0.3888471392697252  0.1248999048460421
  0.7777352132916032  0.8888596644495852  0.1251571888674878
  0.9443948863590161  0.3888849898450755  0.1251855790261468
  0.1110641607885609  0.5555479054075527  0.6248570954264195
  0.2777301469768445  0.0555128156875637  0.6248322388376925
  0.7777011822445464  0.5555172577889415  0.6246357138115345
  0.6110743347531609  0.0555307532242457  0.6248743605613774
  0.9444055589507785  0.0555257558800710  0.6248581634733440
  0.0590378567002972  0.1131032095147552  0.3750000000000000
  0.5553960588422459  0.6187627896628366  0.3750000000000000
  0.3884785171179667  0.1065369344768638  0.3750000000000000
  0.8859956111102228  0.6096644722217861  0.3750000000000000
  0.7244316235023499  0.1114715319417022  0.3750000000000000
  0.0555174266510748  0.7777599136315279  0.8750000000000000
  0.3888587409556336  0.7777619159615362  0.8750000000000000
  0.2221823765990669  0.2777578549662044  0.8750000000000000
  0.7221879222934692  0.7777579631444052  0.8750000000000000
  0.5555207586117933  0.2777642829271526  0.8750000000000000
  0.8888550104211853  0.2777621899894514  0.8750000000000000
  0.2209780317070184  0.7771556825201752  0.3750000000000000
  0.0590378567002971  0.2792679805188787  0.3750000000000000
  0.3938696377690192  0.2735766860190859  0.3750000000000000
  0.5563513773707921  0.7815281591677952  0.3750000000000000
  0.8884335969795393  0.7778968659979625  0.3750000000000000
  0.7236925065974427  0.2766460151777543  0.3750000000000000
  0.0555167979776853  0.9444257095221402  0.8750000000000000
  0.3888587409556336  0.9444301583274305  0.8750000000000000
  0.2221821690692595  0.4444243587795938  0.8750000000000000
  0.5555246694304634  0.4444290013818961  0.8750000000000000
  0.7221888034807378  0.9444265180265823  0.8750000000000000
  0.8888537156862610  0.4444266716418722  0.8750000000000000
  0.0567667424755910  0.4448425530809583  0.3750000000000000
  0.2214972094227000  0.9431662210337162  0.3750000000000000
  0.5564815080922243  0.9449074207127764  0.3750000000000000
  0.3938696377690187  0.4536262850832690  0.3750000000000000
  0.8912410562213697  0.9462725878987230  0.3750000000000000
  0.7192704664586274  0.4425164555901246  0.3750000000000000
  0.2221846703698613  0.6110911882086622  0.8750000000000000
  0.0555168148244735  0.1110909883381702  0.8750000000000000
  0.5555207586117933  0.6110898090179746  0.8750000000000000
  0.3888538012525787  0.1110948206444565  0.8750000000000000
  0.8888527346690196  0.6110930340011855  0.8750000000000000
  0.0540217101791893  0.6105082805888524  0.3750000000000000
  0.7221888034807378  0.1110956187874910  0.8750000000000000
  0.2254866747319506  0.1125645122296964  0.3750000000000000
  0.3884785171179665  0.6152749159744425  0.3750000000000000
  0.7192704664586268  0.6100873442018432  0.3750000000000000
  0.5563513773707938  0.1081565515363372  0.3750000000000000
  0.3888538012525791  0.6110923139414666  0.8750000000000000
  0.8919293867451286  0.1126313600392381  0.3750000000000000
  0.2221876688862127  0.7777605011097710  0.8750000000000000
  0.0555168148244735  0.2777591598196401  0.8750000000000000
  0.3888509097425677  0.2777560557473620  0.8750000000000000
  0.5555228040522540  0.7777586902795670  0.8750000000000000
  0.8888537156862610  0.7777603773777234  0.8750000000000000
  0.7221879222934692  0.2777632924823957  0.8750000000000000
  0.0540217101791893  0.7768467629236747  0.3750000000000000
  0.3884771852939906  0.7789336182474201  0.3750000000000000
  0.2273324951653160  0.2803329142493267  0.3750000000000000
  0.7236925065974419  0.7803798247530289  0.3750000000000000
  0.5553960588422562  0.2699666025127486  0.3750000000000000
  0.8912410562213757  0.2783018016559859  0.3750000000000000
  0.0555167979776853  0.4444244217888692  0.8750000000000000
  0.2221846703698613  0.9444268154945377  0.8750000000000000
  0.5555243319773985  0.9444288326553635  0.8750000000000000
  0.3888509097425677  0.4444281873285399  0.8750000000000000
  0.8888550104211853  0.9444261537650709  0.8750000000000000
  0.0567667424755911  0.9452575227279574  0.3750000000000000
  0.7221871543311728  0.4444283784671262  0.8750000000000000
  0.3884771852939921  0.9428769003799018  0.3750000000000000
  0.2254866747319503  0.4462554958355897  0.3750000000000000
  0.2214972094226998  0.6116643217223159  0.3750000000000000
  0.7244316235023504  0.9462934248939808  0.3750000000000000
  0.8884335969795393  0.4438700643149157  0.3750000000000000
  0.0555174266510748  0.6110908463528780  0.8750000000000000
  0.2221821690692595  0.1110911436229995  0.8750000000000000
  0.7221871543311728  0.6110921091973858  0.8750000000000000
  0.5555228040522540  0.1110974471060252  0.8750000000000000
  0.8888547049280887  0.1110940191307159  0.8750000000000000
  0.1136673407699126  0.0568672759433286  0.3750000000000000
  0.6122116125144659  0.5694413178594082  0.3750000000000000
  0.4449433340909456  0.0525628203441078  0.3750000000000000
  0.9431722892681165  0.5549503483358257  0.3750000000000000
  0.7808334705127072  0.0570834019230188  0.3750000000000000
  0.1110858932868610  0.7222096133100947  0.8750000000000000
  0.4444015707015683  0.7222130123186493  0.8750000000000000
  0.2777110658709683  0.2221853229984797  0.8750000000000000
  0.7777662831773653  0.7222348057606213  0.8750000000000000
  0.6110796068207958  0.2221862707422706  0.8750000000000000
  0.9444126858965570  0.2221999512337249  0.8750000000000000
  0.2771368554315956  0.7226026539716414  0.3750000000000000
  0.1151252374269283  0.2242292853801294  0.3750000000000000
  0.4444697113700043  0.2151254671991420  0.3750000000000000
  0.6134604744388606  0.7296108251998021  0.3750000000000000
  0.9431722892681160  0.7215552742656264  0.3750000000000000
  0.7805152109792532  0.2220623783945024  0.3750000000000000
  0.1110779059831969  0.8888760749973662  0.8750000000000000
  0.4444101609275556  0.8888717471304441  0.8750000000000000
  0.2777110658709678  0.3888590762058182  0.8750000000000000
  0.6110744989501858  0.3888645997129139  0.8750000000000000
  0.7777592450426194  0.8888976995985830  0.8750000000000000
  0.9444233584102167  0.3888644759418390  0.8750000000000000
  0.1136673407699125  0.3901333981599119  0.3750000000000000
  0.2771368554315957  0.8878675347932798  0.3750000000000000
  0.6132827828100803  0.8917953868924496  0.3750000000000000
  0.9456852863458565  0.8899772256598139  0.3750000000000000
  0.7780964139779618  0.3872335671182773  0.3750000000000000
  0.2777234518965900  0.5555343377666874  0.8750000000000000
  0.1110632390898925  0.0555351616254963  0.8750000000000000
  0.6110744989501858  0.5555432325706007  0.8750000000000000
  0.4444015707015683  0.0555218917162513  0.8750000000000000
  0.9444336052127031  0.5555429016280834  0.8750000000000000
  0.1105669772972964  0.5557522204114806  0.3750000000000000
  0.7777554484612084  0.0555443908972708  0.8750000000000000
  0.2776683298903262  0.0536815708808953  0.3750000000000000
  0.4444697113700041  0.5626775775041993  0.3750000000000000
  0.7755038617525413  0.5544185975429371  0.3750000000000000
  0.6132827828100803  0.0548207292509573  0.3750000000000000
  0.4443839798498486  0.5555363951802242  0.8750000000000000
  0.9477150740738385  0.0575435587318587  0.3750000000000000
  0.2777395120518780  0.7222049293984549  0.8750000000000000
  0.1110565890878386  0.2221949612105845  0.8750000000000000
  0.4443839798498486  0.2221809180029600  0.8750000000000000
  0.6110796068207958  0.7222266694118544  0.8750000000000000
  0.9444336052127031  0.7222240369179582  0.8750000000000000
  0.7777592450426194  0.2221948787773600  0.8750000000000000
  0.1098813825393665  0.7216073579363518  0.3750000000000000
  0.4449433340909456  0.7257138470801766  0.3750000000000000
  0.2819871071802896  0.2243155606079060  0.3750000000000000
  0.7780964139779615  0.7241961801930048  0.3750000000000000
  0.6134604744388603  0.2171829825723879  0.3750000000000000
  0.9477150740738385  0.2235048486753145  0.3750000000000000
  0.1110632390898925  0.3888614107977265  0.8750000000000000
  0.2777395120518780  0.8888679159867482  0.8750000000000000
  0.6110839604280515  0.8888850869019844  0.8750000000000000
  0.4443815799593474  0.3888574566463410  0.8750000000000000
  0.9444233584102167  0.8888922158017041  0.8750000000000000
  0.1105669772972969  0.8881480902191503  0.3750000000000000
  0.7777662831773653  0.3888648107500671  0.8750000000000000
  0.4450260962788345  0.8891797148060819  0.3750000000000000
  0.2819871071802886  0.3910048799057113  0.3750000000000000
  0.2776683298903262  0.5573200923427662  0.3750000000000000
  0.6122116125144665  0.3761036279883928  0.3750000000000000
  0.7805152109792538  0.8917861659180747  0.3750000000000000
  0.9456852863458565  0.3890413940193693  0.3750000000000000
  0.1110779059831969  0.5555351643191573  0.8750000000000000
  0.2777234518965900  0.0555224474632416  0.8750000000000000
  0.7777689773607839  0.5555511553470582  0.8750000000000000
  0.6110839604280515  0.0555322068593939  0.8750000000000000
  0.9444126858965570  0.0555460679961708  0.8750000000000000
  0.0555017740411288  0.1110718979756980  0.1249510768706948
  0.5554355541725167  0.6111457156921619  0.1243671902967485
  0.3887751730606883  0.1109669945149360  0.1247971246815168
  0.8889493244088658  0.6111413288711004  0.1248956549550921
  0.7221903033471516  0.1110624533121660  0.1248689341670771
  0.0555724712228986  0.7777771875452988  0.6250878326380400
  0.3888087207505612  0.7777805259055954  0.6250694763854006
  0.2221003425075068  0.2777168379204222  0.6253648728715864
  0.7222041636165665  0.7778405981356847  0.6251608072559607
  0.5554355541725167  0.2776231718136987  0.6256328097032560
  0.8888830605749800  0.2777610066269600  0.6250869998947017
  0.2221833190719476  0.7777583262026385  0.1249248339452087
  0.0555017740411288  0.2777632093987646  0.1249510768706948
  0.3887137555451167  0.2776570238811973  0.1238094973703412
  0.5554736243283344  0.7778277358415929  0.1248597364125234
  0.8889225839387498  0.7778086846972377  0.1249206031299855
  0.7222041636165668  0.2776968988142171  0.1248391927440388
  0.0555338195292585  0.9444102232588600  0.6250429733132371
  0.3888087207505612  0.9443615281782916  0.6250694763854006
  0.2221216261360934  0.4444438853665064  0.6251329985422709
  0.5553396521513037  0.4443364927423161  0.6263155995272094
  0.7221903033471516  0.9444611833683245  0.6251310658329235
  0.8889225839387498  0.4444472325748494  0.6250793968700126
  0.0555338195292585  0.4444569296037295  0.1249570266867560
  0.2221651162511672  0.9443716579630468  0.1249349037946753
  0.5554897872794937  0.9444115603064098  0.1248850745307050
  0.3887137555451176  0.4443900649972569  0.1238094973703412
  0.8888830605749800  0.9444553872813586  0.1249130001052922
  0.7222075890869742  0.4444105839443680  0.1246097477090149
  0.2221651162511671  0.6111267916214532  0.6250650962053217
  0.0555017740411287  0.1110718979756980  0.6250489231293050
  0.5554355541725167  0.6111457156921619  0.6256328097032560
  0.3887751730606883  0.1109669945149360  0.6252028753184828
  0.8889493244088658  0.6111413288711004  0.6251043450449070
  0.0555724712228986  0.6111286170109381  0.1249121673619558
  0.7221903033471516  0.1110624533121660  0.6251310658329235
  0.2221216261360934  0.1110110741029243  0.1248670014577285
  0.3887751730606883  0.6111415118790966  0.1247971246815168
  0.7222075890869742  0.6111303384759413  0.1246097477090148
  0.5554736243283344  0.1109792218200771  0.1248597364125227
  0.3887751730606884  0.6111415118790966  0.6252028753184828
  0.8888660181249083  0.1110996757291238  0.1249066310135953
  0.2221833190719476  0.7777583262026385  0.6250751660547957
  0.0555017740411288  0.2777632093987646  0.6250489231293050
  0.3887137555451167  0.2776570238811968  0.6261905026296638
  0.5554736243283344  0.7778277358415929  0.6251402635874717
  0.8889225839387498  0.7778086846972377  0.6250793968700126
  0.7222041636165668  0.2776968988142171  0.6251608072559607
  0.0555724712228986  0.7777771875452988  0.1249121673619558
  0.3888087207505612  0.7777805259055954  0.1249305236146047
  0.2221003425075068  0.2777168379204215  0.1246351271284150
  0.7222041636165668  0.7778405981356847  0.1248391927440388
  0.5554355541725173  0.2776231718136987  0.1243671902967485
  0.8888830605749800  0.2777610066269600  0.1249130001052922
  0.0555338195292585  0.4444569296037282  0.6250429733132371
  0.2221651162511671  0.9443716579630468  0.6250650962053217
  0.5554897872794937  0.9444115603064098  0.6251149254692965
  0.3887137555451167  0.4443900649972569  0.6261905026296638
  0.8888830605749800  0.9444553872813586  0.6250869998947017
  0.0555338195292585  0.9444102232588600  0.1249570266867560
  0.7222075890869739  0.4444105839443677  0.6253902522909848
  0.3888087207505612  0.9443615281782916  0.1249305236146047
  0.2221216261360934  0.4444438853665064  0.1248670014577285
  0.2221651162511671  0.6111267916214532  0.1249349037946753
  0.5553396521513037  0.4443364927423161  0.1236844004727856
  0.7221903033471516  0.9444611833683245  0.1248689341670771
  0.8889225839387498  0.4444472325748494  0.1249206031299855
  0.0555724712228986  0.6111286170109381  0.6250878326380400
  0.2221216261360934  0.1110110741029243  0.6251329985422709
  0.7222075890869736  0.6111303384759413  0.6253902522909848
  0.5554736243283344  0.1109792218200771  0.6251402635874717
  0.8888660181249083  0.1110996757291238  0.6250933689864018
 
  0.00000000E+00  0.00000000E+00  0.00000000E+00
  0.00000000E+00  0.00000000E+00  0.00000000E+00
  0.00000000E+00  0.00000000E+00  0.00000000E+00
  0.00000000E+00  0.00000000E+00  0.00000000E+00
  0.00000000E+00  0.00000000E+00  0.00000000E+00
  0.00000000E+00  0.00000000E+00  0.00000000E+00
  0.00000000E+00  0.00000000E+00  0.00000000E+00
  0.00000000E+00  0.00000000E+00  0.00000000E+00
  0.00000000E+00  0.00000000E+00  0.00000000E+00
  0.00000000E+00  0.00000000E+00  0.00000000E+00
  0.00000000E+00  0.00000000E+00  0.00000000E+00
  0.00000000E+00  0.00000000E+00  0.00000000E+00
  0.00000000E+00  0.00000000E+00  0.00000000E+00
  0.00000000E+00  0.00000000E+00  0.00000000E+00
  0.00000000E+00  0.00000000E+00  0.00000000E+00
  0.00000000E+00  0.00000000E+00  0.00000000E+00
  0.00000000E+00  0.00000000E+00  0.00000000E+00
  0.00000000E+00  0.00000000E+00  0.00000000E+00
  0.00000000E+00  0.00000000E+00  0.00000000E+00
  0.00000000E+00  0.00000000E+00  0.00000000E+00
  0.00000000E+00  0.00000000E+00  0.00000000E+00
  0.00000000E+00  0.00000000E+00  0.00000000E+00
  0.00000000E+00  0.00000000E+00  0.00000000E+00
  0.00000000E+00  0.00000000E+00  0.00000000E+00
  0.00000000E+00  0.00000000E+00  0.00000000E+00
  0.00000000E+00  0.00000000E+00  0.00000000E+00
  0.00000000E+00  0.00000000E+00  0.00000000E+00
  0.00000000E+00  0.00000000E+00  0.00000000E+00
  0.00000000E+00  0.00000000E+00  0.00000000E+00
  0.00000000E+00  0.00000000E+00  0.00000000E+00
  0.00000000E+00  0.00000000E+00  0.00000000E+00
  0.00000000E+00  0.00000000E+00  0.00000000E+00
  0.00000000E+00  0.00000000E+00  0.00000000E+00
  0.00000000E+00  0.00000000E+00  0.00000000E+00
  0.00000000E+00  0.00000000E+00  0.00000000E+00
  0.00000000E+00  0.00000000E+00  0.00000000E+00
  0.00000000E+00  0.00000000E+00  0.00000000E+00
  0.00000000E+00  0.00000000E+00  0.00000000E+00
  0.00000000E+00  0.00000000E+00  0.00000000E+00
  0.00000000E+00  0.00000000E+00  0.00000000E+00
  0.00000000E+00  0.00000000E+00  0.00000000E+00
  0.00000000E+00  0.00000000E+00  0.00000000E+00
  0.00000000E+00  0.00000000E+00  0.00000000E+00
  0.00000000E+00  0.00000000E+00  0.00000000E+00
  0.00000000E+00  0.00000000E+00  0.00000000E+00
  0.00000000E+00  0.00000000E+00  0.00000000E+00
  0.00000000E+00  0.00000000E+00  0.00000000E+00
  0.00000000E+00  0.00000000E+00  0.00000000E+00
  0.00000000E+00  0.00000000E+00  0.00000000E+00
  0.00000000E+00  0.00000000E+00  0.00000000E+00
  0.00000000E+00  0.00000000E+00  0.00000000E+00
  0.00000000E+00  0.00000000E+00  0.00000000E+00
  0.00000000E+00  0.00000000E+00  0.00000000E+00
  0.00000000E+00  0.00000000E+00  0.00000000E+00
  0.00000000E+00  0.00000000E+00  0.00000000E+00
  0.00000000E+00  0.00000000E+00  0.00000000E+00
  0.00000000E+00  0.00000000E+00  0.00000000E+00
  0.00000000E+00  0.00000000E+00  0.00000000E+00
  0.00000000E+00  0.00000000E+00  0.00000000E+00
  0.00000000E+00  0.00000000E+00  0.00000000E+00
  0.00000000E+00  0.00000000E+00  0.00000000E+00
  0.00000000E+00  0.00000000E+00  0.00000000E+00
  0.00000000E+00  0.00000000E+00  0.00000000E+00
  0.00000000E+00  0.00000000E+00  0.00000000E+00
  0.00000000E+00  0.00000000E+00  0.00000000E+00
  0.00000000E+00  0.00000000E+00  0.00000000E+00
  0.00000000E+00  0.00000000E+00  0.00000000E+00
  0.00000000E+00  0.00000000E+00  0.00000000E+00
  0.00000000E+00  0.00000000E+00  0.00000000E+00
  0.00000000E+00  0.00000000E+00  0.00000000E+00
  0.00000000E+00  0.00000000E+00  0.00000000E+00
  0.00000000E+00  0.00000000E+00  0.00000000E+00
  0.00000000E+00  0.00000000E+00  0.00000000E+00
  0.00000000E+00  0.00000000E+00  0.00000000E+00
  0.00000000E+00  0.00000000E+00  0.00000000E+00
  0.00000000E+00  0.00000000E+00  0.00000000E+00
  0.00000000E+00  0.00000000E+00  0.00000000E+00
  0.00000000E+00  0.00000000E+00  0.00000000E+00
  0.00000000E+00  0.00000000E+00  0.00000000E+00
  0.00000000E+00  0.00000000E+00  0.00000000E+00
  0.00000000E+00  0.00000000E+00  0.00000000E+00
  0.00000000E+00  0.00000000E+00  0.00000000E+00
  0.00000000E+00  0.00000000E+00  0.00000000E+00
  0.00000000E+00  0.00000000E+00  0.00000000E+00
  0.00000000E+00  0.00000000E+00  0.00000000E+00
  0.00000000E+00  0.00000000E+00  0.00000000E+00
  0.00000000E+00  0.00000000E+00  0.00000000E+00
  0.00000000E+00  0.00000000E+00  0.00000000E+00
  0.00000000E+00  0.00000000E+00  0.00000000E+00
  0.00000000E+00  0.00000000E+00  0.00000000E+00
  0.00000000E+00  0.00000000E+00  0.00000000E+00
  0.00000000E+00  0.00000000E+00  0.00000000E+00
  0.00000000E+00  0.00000000E+00  0.00000000E+00
  0.00000000E+00  0.00000000E+00  0.00000000E+00
  0.00000000E+00  0.00000000E+00  0.00000000E+00
  0.00000000E+00  0.00000000E+00  0.00000000E+00
  0.00000000E+00  0.00000000E+00  0.00000000E+00
  0.00000000E+00  0.00000000E+00  0.00000000E+00
  0.00000000E+00  0.00000000E+00  0.00000000E+00
  0.00000000E+00  0.00000000E+00  0.00000000E+00
  0.00000000E+00  0.00000000E+00  0.00000000E+00
  0.00000000E+00  0.00000000E+00  0.00000000E+00
  0.00000000E+00  0.00000000E+00  0.00000000E+00
  0.00000000E+00  0.00000000E+00  0.00000000E+00
  0.00000000E+00  0.00000000E+00  0.00000000E+00
  0.00000000E+00  0.00000000E+00  0.00000000E+00
  0.00000000E+00  0.00000000E+00  0.00000000E+00
  0.00000000E+00  0.00000000E+00  0.00000000E+00
  0.00000000E+00  0.00000000E+00  0.00000000E+00
  0.00000000E+00  0.00000000E+00  0.00000000E+00
  0.00000000E+00  0.00000000E+00  0.00000000E+00
  0.00000000E+00  0.00000000E+00  0.00000000E+00
  0.00000000E+00  0.00000000E+00  0.00000000E+00
  0.00000000E+00  0.00000000E+00  0.00000000E+00
  0.00000000E+00  0.00000000E+00  0.00000000E+00
  0.00000000E+00  0.00000000E+00  0.00000000E+00
  0.00000000E+00  0.00000000E+00  0.00000000E+00
  0.00000000E+00  0.00000000E+00  0.00000000E+00
  0.00000000E+00  0.00000000E+00  0.00000000E+00
  0.00000000E+00  0.00000000E+00  0.00000000E+00
  0.00000000E+00  0.00000000E+00  0.00000000E+00
  0.00000000E+00  0.00000000E+00  0.00000000E+00
  0.00000000E+00  0.00000000E+00  0.00000000E+00
  0.00000000E+00  0.00000000E+00  0.00000000E+00
  0.00000000E+00  0.00000000E+00  0.00000000E+00
  0.00000000E+00  0.00000000E+00  0.00000000E+00
  0.00000000E+00  0.00000000E+00  0.00000000E+00
  0.00000000E+00  0.00000000E+00  0.00000000E+00
  0.00000000E+00  0.00000000E+00  0.00000000E+00
  0.00000000E+00  0.00000000E+00  0.00000000E+00
  0.00000000E+00  0.00000000E+00  0.00000000E+00
  0.00000000E+00  0.00000000E+00  0.00000000E+00
  0.00000000E+00  0.00000000E+00  0.00000000E+00
  0.00000000E+00  0.00000000E+00  0.00000000E+00
  0.00000000E+00  0.00000000E+00  0.00000000E+00
  0.00000000E+00  0.00000000E+00  0.00000000E+00
  0.00000000E+00  0.00000000E+00  0.00000000E+00
  0.00000000E+00  0.00000000E+00  0.00000000E+00
  0.00000000E+00  0.00000000E+00  0.00000000E+00
  0.00000000E+00  0.00000000E+00  0.00000000E+00
  0.00000000E+00  0.00000000E+00  0.00000000E+00
  0.00000000E+00  0.00000000E+00  0.00000000E+00
  0.00000000E+00  0.00000000E+00  0.00000000E+00
  0.00000000E+00  0.00000000E+00  0.00000000E+00
  0.00000000E+00  0.00000000E+00  0.00000000E+00
  0.00000000E+00  0.00000000E+00  0.00000000E+00
  0.00000000E+00  0.00000000E+00  0.00000000E+00
  0.00000000E+00  0.00000000E+00  0.00000000E+00
  0.00000000E+00  0.00000000E+00  0.00000000E+00
  0.00000000E+00  0.00000000E+00  0.00000000E+00
  0.00000000E+00  0.00000000E+00  0.00000000E+00
  0.00000000E+00  0.00000000E+00  0.00000000E+00
  0.00000000E+00  0.00000000E+00  0.00000000E+00
  0.00000000E+00  0.00000000E+00  0.00000000E+00
  0.00000000E+00  0.00000000E+00  0.00000000E+00
  0.00000000E+00  0.00000000E+00  0.00000000E+00
  0.00000000E+00  0.00000000E+00  0.00000000E+00
  0.00000000E+00  0.00000000E+00  0.00000000E+00
  0.00000000E+00  0.00000000E+00  0.00000000E+00
  0.00000000E+00  0.00000000E+00  0.00000000E+00
  0.00000000E+00  0.00000000E+00  0.00000000E+00
  0.00000000E+00  0.00000000E+00  0.00000000E+00
  0.00000000E+00  0.00000000E+00  0.00000000E+00
  0.00000000E+00  0.00000000E+00  0.00000000E+00
  0.00000000E+00  0.00000000E+00  0.00000000E+00
  0.00000000E+00  0.00000000E+00  0.00000000E+00
  0.00000000E+00  0.00000000E+00  0.00000000E+00
  0.00000000E+00  0.00000000E+00  0.00000000E+00
  0.00000000E+00  0.00000000E+00  0.00000000E+00
  0.00000000E+00  0.00000000E+00  0.00000000E+00
  0.00000000E+00  0.00000000E+00  0.00000000E+00
  0.00000000E+00  0.00000000E+00  0.00000000E+00
  0.00000000E+00  0.00000000E+00  0.00000000E+00
  0.00000000E+00  0.00000000E+00  0.00000000E+00
  0.00000000E+00  0.00000000E+00  0.00000000E+00
  0.00000000E+00  0.00000000E+00  0.00000000E+00
  0.00000000E+00  0.00000000E+00  0.00000000E+00
  0.00000000E+00  0.00000000E+00  0.00000000E+00
  0.00000000E+00  0.00000000E+00  0.00000000E+00
  0.00000000E+00  0.00000000E+00  0.00000000E+00
  0.00000000E+00  0.00000000E+00  0.00000000E+00
  0.00000000E+00  0.00000000E+00  0.00000000E+00
  0.00000000E+00  0.00000000E+00  0.00000000E+00
  0.00000000E+00  0.00000000E+00  0.00000000E+00
  0.00000000E+00  0.00000000E+00  0.00000000E+00
  0.00000000E+00  0.00000000E+00  0.00000000E+00
  0.00000000E+00  0.00000000E+00  0.00000000E+00
  0.00000000E+00  0.00000000E+00  0.00000000E+00
  0.00000000E+00  0.00000000E+00  0.00000000E+00
  0.00000000E+00  0.00000000E+00  0.00000000E+00
  0.00000000E+00  0.00000000E+00  0.00000000E+00
  0.00000000E+00  0.00000000E+00  0.00000000E+00
  0.00000000E+00  0.00000000E+00  0.00000000E+00
  0.00000000E+00  0.00000000E+00  0.00000000E+00
  0.00000000E+00  0.00000000E+00  0.00000000E+00
  0.00000000E+00  0.00000000E+00  0.00000000E+00
  0.00000000E+00  0.00000000E+00  0.00000000E+00
  0.00000000E+00  0.00000000E+00  0.00000000E+00
  0.00000000E+00  0.00000000E+00  0.00000000E+00
  0.00000000E+00  0.00000000E+00  0.00000000E+00
  0.00000000E+00  0.00000000E+00  0.00000000E+00
  0.00000000E+00  0.00000000E+00  0.00000000E+00
  0.00000000E+00  0.00000000E+00  0.00000000E+00
  0.00000000E+00  0.00000000E+00  0.00000000E+00
  0.00000000E+00  0.00000000E+00  0.00000000E+00
  0.00000000E+00  0.00000000E+00  0.00000000E+00
  0.00000000E+00  0.00000000E+00  0.00000000E+00
  0.00000000E+00  0.00000000E+00  0.00000000E+00
  0.00000000E+00  0.00000000E+00  0.00000000E+00
  0.00000000E+00  0.00000000E+00  0.00000000E+00
  0.00000000E+00  0.00000000E+00  0.00000000E+00
  0.00000000E+00  0.00000000E+00  0.00000000E+00
  0.00000000E+00  0.00000000E+00  0.00000000E+00
  0.00000000E+00  0.00000000E+00  0.00000000E+00
  0.00000000E+00  0.00000000E+00  0.00000000E+00
  0.00000000E+00  0.00000000E+00  0.00000000E+00
  0.00000000E+00  0.00000000E+00  0.00000000E+00
  0.00000000E+00  0.00000000E+00  0.00000000E+00
  0.00000000E+00  0.00000000E+00  0.00000000E+00
  0.00000000E+00  0.00000000E+00  0.00000000E+00
  0.00000000E+00  0.00000000E+00  0.00000000E+00
  0.00000000E+00  0.00000000E+00  0.00000000E+00
  0.00000000E+00  0.00000000E+00  0.00000000E+00
  0.00000000E+00  0.00000000E+00  0.00000000E+00
  0.00000000E+00  0.00000000E+00  0.00000000E+00
  0.00000000E+00  0.00000000E+00  0.00000000E+00
  0.00000000E+00  0.00000000E+00  0.00000000E+00
  0.00000000E+00  0.00000000E+00  0.00000000E+00
  0.00000000E+00  0.00000000E+00  0.00000000E+00
  0.00000000E+00  0.00000000E+00  0.00000000E+00
  0.00000000E+00  0.00000000E+00  0.00000000E+00
  0.00000000E+00  0.00000000E+00  0.00000000E+00
  0.00000000E+00  0.00000000E+00  0.00000000E+00
  0.00000000E+00  0.00000000E+00  0.00000000E+00
  0.00000000E+00  0.00000000E+00  0.00000000E+00
  0.00000000E+00  0.00000000E+00  0.00000000E+00
  0.00000000E+00  0.00000000E+00  0.00000000E+00
  0.00000000E+00  0.00000000E+00  0.00000000E+00
  0.00000000E+00  0.00000000E+00  0.00000000E+00
  0.00000000E+00  0.00000000E+00  0.00000000E+00
  0.00000000E+00  0.00000000E+00  0.00000000E+00
  0.00000000E+00  0.00000000E+00  0.00000000E+00
  0.00000000E+00  0.00000000E+00  0.00000000E+00
  0.00000000E+00  0.00000000E+00  0.00000000E+00
  0.00000000E+00  0.00000000E+00  0.00000000E+00
  0.00000000E+00  0.00000000E+00  0.00000000E+00
  0.00000000E+00  0.00000000E+00  0.00000000E+00
  0.00000000E+00  0.00000000E+00  0.00000000E+00