 B Sb N 
 1.0
 14.936314146199660   0.000000000000000   0.000000000000000
 -7.468157073099825  12.935227489513863   0.000000000000000
  0.000000000000001   0.000000000000001  13.341276283792837
 B Sb N 
 143   1 143
Cartesian
  1.273401470663406   0.724985514957745   5.002978606422314 
  4.859766183881130   7.402464965573841   5.002978606422314 
  6.258870673073035   0.662442443560871   5.002978606422314 
  9.932048522922408   7.175164882260759   5.002978606422314 
 11.242715566751180   0.741994863546387   5.002978606422314 
 -3.734799196097655   9.341692669441750  11.673616748318732 
  1.244117902230275   9.341222252033917  11.673616748318732 
  2.489369774935263   2.874648662274750  11.673616748318732 
  6.222643172984593   9.340776295143051  11.673616748318732 
  7.466537415822395   2.874630873628665  11.673616748318732 
 12.446388577843587   2.874331089204260  11.673616748318732 
 -1.266845364662747   9.347589058903200   5.002978606422314 
  0.062796628504598   2.910750648041196   5.002978606422314 
  5.038137069044419   2.755218396124391   5.002978606422314 
  3.693291022896712   9.470325998730857   5.002978606422314 
  8.690513634807370   9.325566387845337   5.002978606422314 
 10.007662187371411   2.870375604254764   5.002978606422314 
 -4.979366908123545  11.497632138955874  11.673616748318732 
 -0.000820283501618  11.497506399779247  11.673616748318732 
  1.244817964919274   5.030275629874266  11.673616748318732 
  6.221767307828020   5.030370158252371  11.673616748318732 
  4.978088113174130  11.496952947618709  11.673616748318732 
 11.201339490766618   5.030208821486947  11.673616748318732 
 -1.224829082372318   5.052047761836338   5.002978606422314 
 -2.495715857316327  11.476055188101412   5.002978606422314 
  2.495349145126875  11.548287395006000   5.002978606422314 
  7.479472816722279  11.512894943411242   5.002978606422314 
  8.738978520852754   5.007022282327457   5.002978606422314 
 -0.000294213598523   7.185768142101606  11.673616748318732 
  1.244431313202382   0.718472650910022  11.673616748318732 
  4.977926310367888   7.184765962390483  11.673616748318732 
  6.222409032739816   0.718569079121827  11.673616748318732 
  9.956556260540058   7.185883432539645  11.673616748318732 
 -2.509052128924878   7.190131737085837   5.002978606422314 
 11.201430862709090   0.718159128554282  11.673616748318732 
  3.746949801244700   0.679924662561020   5.002978606422314 
  2.415771967507064   7.297287987982640   5.002978606422314 
  7.416655825333097   7.156503234913408   5.002978606422314 
  8.759399135807524   0.698634549994731   5.002978606422314 
  2.489098125803678   7.185326809220775  11.673616748318732 
 13.733100637538461   0.750404144389748   5.002978606422314 
 -1.245300405113187   9.341622601844660  11.673616748318732 
 -0.000020036918332   2.874483429349267  11.673616748318732 
  4.977838923146853   2.874701301351646  11.673616748318732 
  3.733386379942702   9.340638140100724  11.673616748318732 
  8.712050040450475   9.341431436070314  11.673616748318732 
  9.956311684305589   2.874416790981984  11.673616748318732 
 -3.756148180429991   9.329366827591446   5.002978606422314 
  1.213741630172654   9.400862276605940   5.002978606422314 
  2.558479040009102   2.877017111155800   5.002978606422314 
  6.216312063203588   9.376408757525640   5.002978606422314 
  7.558802717435963   2.775063346536694   5.002978606422314 
 12.495190752982692   2.894526959632079   5.002978606422314 
 -1.244954466819875   5.030215301548080  11.673616748318732 
 -2.490110480925377  11.497696898925055  11.673616748318732 
  2.488584821751111  11.497121934576539  11.673616748318732 
  3.733939719152380   5.030286099660719  11.673616748318732 
  7.467572680099583  11.497282641176703  11.673616748318732 
 -4.985232087723159  11.479001234408271   5.002978606422314 
  8.711285458118933   5.030321415426029  11.673616748318732 
  0.002659847707190  11.499515654470260   5.002978606422314 
  1.281423734355069   5.088941784624001   5.002978606422314 
 -0.027078759973648   7.216733879807285   5.002978606422314 
  6.351220111718938   4.819190985409617   5.002978606422314 
  5.000263594340445  11.543444381133366   5.002978606422314 
 11.220810209423249   5.032708490995847   5.002978606422314 
 -2.489984702490515   7.185895679341560  11.673616748318732 
  3.733524958932115   0.718603629003713  11.673616748318732 
  7.466918020669360   7.185522126921197  11.673616748318732 
  8.711706385593176   0.718359204324517  11.673616748318732 
 13.691209413126842   0.718238156173321  11.673616748318732 
 -0.000182927503556   1.437608390542793   1.677857314347962 
  3.735632408953776   7.902488010124369   1.638707119879592 
  4.978239709451945   1.440111703643609   1.665407857518696 
  8.710083151162456   7.903263849657733   1.667413744134201 
  9.957200493587417   1.437290368526051   1.675257023021992 
 -4.979954072292562  10.060412451736257   8.327445708656704 
  0.000838624275331  10.060143173295335   8.328096613021977 
  1.245218915710645   3.593422473855200   8.343873487106809 
  4.978020289477673  10.059583587496688   8.343174068236165 
  6.222185883313745   3.595651056795960   8.367250092965701 
 11.201675980566897   3.592661274062644   8.329176356099421 
 -2.489477803998261  10.060679310399525   1.680341902722778 
 -1.244471767881385   3.592779881368219   1.677857314347962 
  3.733051836672473   3.594898580455032   1.635254191232123 
  2.490133927101586  10.059624815305030   1.669124359194213 
  7.466441171099147  10.059758071871251   1.670906404350667 
  8.711479391970265   3.593042733998972   1.662783144608063 
 -6.224222465371813  12.216930532777468   8.326646894287807 
 -1.244783898213184  12.217624669297566   8.328096613021977 
  0.001183856306673   5.747902163224678   8.336173862208833 
  4.977061280016383   5.748002667460441   8.365256898640098 
  3.733944527518479  12.216285890263663   8.330700189821396 
  9.955840940683260   5.747991190601282   8.335050808493747 
 -2.489481799163055   5.748169945810214   1.679310318556408 
 -3.734489810902932  12.217881172523576   1.677993443019921 
  1.244842418069646  12.216690095849534   1.677227065655760 
  2.490413722005447   5.747210930479936   1.635254191232042 
  6.222788229780998  12.216347823606210   1.676780856745139 
  7.464456505284518   5.747195366433743   1.640127835755430 
 -1.243792193759486   7.903866353340366   8.327963769825320 
 -0.000182927503623   1.437608390542806   8.328099898496760 
  3.735632408953777   7.902488010124370   8.367250092965701 
  4.978239709451945   1.440111703643610   8.340549355327385 
  8.710083151162456   7.903263849657734   8.338543468711453 
 -3.734947044526731   7.903997023865455   1.678511504188524 
  9.957200493587417   1.437290368526051   8.330700189821396 
  2.489035528939966   1.438816664528699   1.669783350636675 
  1.246907483335652   7.902968699196181   1.665407857518696 
  6.220059749453054   7.902553772307760   1.640127835755430 
  7.467571915112141   1.438449328547281   1.669124359194213 
  1.246907483335652   7.902968699196181   8.340549355327385 
 12.446676904613568   1.437102266055618   1.678726271245712 
 -2.489477803998462  10.060679310399873   8.325615310121195 
 -1.244471767881414   3.592779881368220   8.328099898496760 
  3.733051836672473   3.594898580455033   8.370703021612785 
  2.490133927101586  10.059624815305030   8.336832853650789 
  7.466441171099148  10.059758071871251   8.335050808493747 
  8.711479391970265   3.593042733998973   8.343174068236165 
 -4.979954072292593  10.060412451736257   1.678511504188524 
  0.000838624275330  10.060143173295335   1.677860599823437 
  1.245218915710645   3.593422473855199   1.662083725736646 
  4.978020289477672  10.059583587496688   1.662783144608063 
  6.222185883313976   3.595651056795558   1.638707119879592 
 11.201675980566897   3.592661274062643   1.676780856745139 
 -2.489481799163099   5.748169945810215   8.326646894287807 
 -3.734489810902932  12.217881172523576   8.327963769825320 
  1.244842418069646  12.216690095849534   8.328730147189228 
  2.490413722005448   5.747210930479937   8.370703021612785 
  6.222788229780999  12.216347823606210   8.329176356099421 
 -6.224222465371844  12.216930532777468   1.679310318556408 
  7.464456505284579   5.747195366433640   8.365829377089170 
 -1.244783898213185  12.217624669297566   1.677860599823437 
  0.001183856306748   5.747902163224677   1.669783350636675 
 -1.243792193759487   7.903866353340365   1.677993443019921 
  4.977061280016188   5.748002667460078   1.640700314204331 
  3.733944527518479  12.216285890263663   1.675257023021992 
  9.955840940683260   5.747991190601281   1.670906404350667 
 -3.734947044526701   7.903997023865456   8.327445708656704 
  2.489035528939906   1.438816664528700   8.336173862208833 
  6.220059749453631   7.902553772306764   8.365829377089170 
  7.467571915112254   1.438449328547088   8.336832853650789 
 12.446676904613568   1.437102266055619   8.327230941598462 
  4.433423256777299   5.434133108401508   5.002978606422314 
  1.243875632259416   0.718154417085203   1.674921376233660 
  4.978666862920316   7.188124473080167   1.605224621328472 
  6.223376273631400   0.718623404225440   1.669672234470113 
  9.956960567274567   7.185824715606759   1.671426926026307 
 11.202090411625463   0.718539919299486   1.675203214525423 
 -3.734477795481731   9.341878230176327   8.327985682968608 
  1.244648569595486   9.342032744666447   8.336284978373888 
  2.487885032624434   2.873494321186166   8.356747489835394 
  6.222880302253889   9.342378467504522   8.350116076273329 
  7.468376610104842   2.873953257400608   8.352406657395758 
 12.446421522973656   2.874092834720623   8.329032765470716 
 -1.244835744557075   9.341951827018093   1.677550655875653 
 -0.001075603109746   2.873873997925066   1.671606413402871 
  4.978599774294304   2.874443409235941   1.640388213336655 
  3.733719144217614   9.342569737183760   1.653550555448563 
  8.712201343461800   9.341810934440486   1.671426926026307 
  9.957580461660012   2.874009592454039   1.670452057058072 
 -4.979250853847486  11.497801060234385   8.328403233466593 
 -0.000054389255945  11.497948589027629   8.329021270136565 
  1.243075905056334   5.029566975859590   8.356747489835394 
  6.225046139679764   5.029332240231842   8.400732591515288 
  4.978369857581961  11.498255340303006   8.335505155786676 
 11.201793827760602   5.029938260499918   8.330424772173176 
 -1.245507905867621   5.029893184646834   1.674921376233660 
 -2.489593033283826  11.497934694185608   1.677550655875653 
  2.489258501629739  11.498149360359260   1.673028233205630 
  3.730188684495250   5.028120438791936   1.593374310762687 
  7.467565535906546  11.497811389052327   1.675532440671771 
  8.712791544721091   5.029725689214348   1.655841136572112 
 -0.000205448501480   7.185934670274674   8.337164168605211 
  1.243875632259416   0.718154417085204   8.331035836610553 
  4.978666862920331   7.188124473080168   8.400732591515942 
  6.223376273631401   0.718623404225440   8.336284978373888 
  9.956960567274567   7.185824715606760   8.334530286818895 
 -2.489780385233197   7.185911724652101   1.677553979378155 
 11.202090411625463   0.718539919299487   8.330753998317871 
  3.733713559108860   0.718597237746357   1.668793044239031 
  2.489255210252558   7.186114671701671   1.640388213336722 
  7.467596157585928   7.185913649452006   1.647079881079780 
  8.712933002361693   0.718428915320577   1.673028233205630 
  2.489255210252559   7.186114671701672   8.365568999507520 
 13.691019551256540   0.718385814734604   1.676924447374152 
 -1.244835744557074   9.341951827018093   8.328406556967694 
 -0.001075603109790   2.873873997925067   8.334350799441035 
  4.978599774294358   2.874443409235851   8.365568999507493 
  3.733719144217614   9.342569737183760   8.352406657395758 
  8.712201343461800   9.341810934440486   8.334530286818895 
  9.957580461660012   2.874009592454040   8.335505155786676 
 -3.734477795481850   9.341878230176327   1.677971529876140 
  1.244648569595485   9.342032744666447   1.669672234470113 
  2.487885032624433   2.873494321186165   1.649209723009728 
  6.222880302254095   9.342378467504522   1.655841136572099 
  7.468376610104841   2.873953257400607   1.653550555448589 
 12.446421522973656   2.874092834720622   1.676924447374152 
 -1.245507905867620   5.029893184646835   8.331035836610553 
 -2.489593033284451  11.497934694185608   8.328406556967694 
  2.489258501629739  11.498149360359260   8.332928979638758 
  3.730188684495250   5.028120438791936   8.412582902082287 
  7.467565535906547  11.497811389052327   8.330424772173176 
 -4.979250853847487  11.497801060234385   1.677553979378302 
  8.712791544721091   5.029725689214349   8.350116076272890 
 -0.000054389255945  11.497948589027629   1.676935942708077 
  1.243075905056334   5.029566975859590   1.649209723009728 
 -0.000205448501421   7.185934670274673   1.668793044239031 
  6.225046139679777   5.029332240231841   1.605224621328459 
  4.978369857581960  11.498255340303006   1.670452057058072 
 11.201793827760602   5.029938260499917   1.675532440671771 
 -2.489780385233196   7.185911724652102   8.328403233466593 
  3.733713559108943   0.718597237746319   8.337164168605211 
  7.467596157585929   7.185913649452007   8.358877331765008 
  8.712933002361707   0.718428915320577   8.332928979638758 
 13.691019551256540   0.718385814734605   8.329032765470716 
  0.040462734788509   1.464408808842746   5.002978606422314 
  3.634778299143962   8.086875158992557   5.002978606422314 
  5.015308628935277   1.338244059007328   5.002978606422314 
  8.676997402859110   7.884161783968295   5.002978606422314 
  9.997419591823871   1.437303927837896   5.002978606422314 
 -4.979320561397575  10.060373245449677  11.673616748318732 
 -0.000845759996815  10.060388831847296  11.673616748318732 
  1.243972408934664   3.592702802833723  11.673616748318732 
  4.978078030861772  10.060288337374203  11.673616748318732 
  6.222694691266125   3.592479128655566  11.673616748318732 
 11.201540020954344   3.592802597352385  11.673616748318732 
 -2.512739512901835  10.047249156502657   5.002978606422314 
 -1.200939093655401   3.614579848316491   5.002978606422314 
  3.830933169096656   3.468950080759967   5.002978606422314 
  2.450426156213385  10.143257328368474   5.002978606422314 
  7.466594172895508  10.077315983482872   5.002978606422314 
  8.765887930129214   3.563267064921451   5.002978606422314 
 -6.224090845703100  12.216103989630154  11.673616748318732 
 -1.245413343802932  12.216043120452717  11.673616748318732 
 -0.000893941458692   5.748733650965717  11.673616748318732 
  4.978058902257867   5.748578644930111  11.673616748318732 
  3.733318652074568  12.216151836001806  11.673616748318732 
  9.956970216707081   5.748729639819441  11.673616748318732 
 -2.481744063213755   5.756922654225977   5.002978606422314 
 -3.738954994807514  12.182319530391505   5.002978606422314 
  1.252029473668553  12.220839544334568   5.002978606422314 
  2.430279787913270   5.894952900762513   5.002978606422314 
  6.248961129691036  12.250102003664821   5.002978606422314 
  7.488636875074036   5.704178429074330   5.002978606422314 
 -1.245544996621303   7.904587452427709  11.673616748318732 
 -0.000644489636100   1.436786648049173  11.673616748318732 
  3.733139842581518   7.904514614806783  11.673616748318732 
  4.978067593975068   1.436490414069000  11.673616748318732 
  8.712466619668515   7.904639945838614  11.673616748318732 
 -3.759933064372574   7.896700263515499   5.002978606422314 
  9.956771461469268   1.436815371622842  11.673616748318732 
  2.516828750390229   1.421344540506142   5.002978606422314 
  1.177221974998754   7.986005147477458   5.002978606422314 
  6.194896173802258   7.945003055497343   5.002978606422314 
  7.520145910563203   1.362245133698920   5.002978606422314 
  1.243685296830574   7.904630287609085  11.673616748318732 
 12.487205304415111   1.460501348591373   5.002978606422314 
 -2.490085568243861  10.060328417548543  11.673616748318732 
 -1.245414198822688   3.592791028083068  11.673616748318732 
  3.733405163514675   3.592360044571540  11.673616748318732 
  2.488494983568721  10.060344419894326  11.673616748318732 
  7.467645324893276  10.060366828986881  11.673616748318732 
  8.712118593959516   3.592740364565761  11.673616748318732 
 -4.998766262044073  10.042422303985491   5.002978606422314 
 -0.030798171850889  10.081618125076831   5.002978606422314 
  1.305697257663378   3.628339660861580   5.002978606422314 
  4.979438072721223  10.121590598264067   5.002978606422314 
  6.331442783459277   3.416115261191873   5.002978606422314 
 11.243994407937334   3.598450580244845   5.002978606422314 
 -2.490131796691836   5.748697203361030  11.673616748318732 
 -3.734741722206592  12.216002651175545  11.673616748318732 
  1.243876125379360  12.216132206504975  11.673616748318732 
  2.488391948863615   5.748786188441847  11.673616748318732 
  6.222842639534351  12.216159417481999  11.673616748318732 
 -6.212773529558258  12.219255254471294   5.002978606422314 
  7.467673355643574   5.748779798019395  11.673616748318732 
 -1.242004442489064  12.179488924268185   5.002978606422314 
 -0.000050836229318   5.780707861064258   5.002978606422314 
 -1.276822071198436   7.917780211712710   5.002978606422314 
  3.754065819346126  12.251109871396244   5.002978606422314 
  9.971123039074703   5.739344738237634   5.002978606422314 
 -3.734664242719068   7.904565263536848  11.673616748318732 
  2.488716719564019   1.436601495009215  11.673616748318732 
  6.223040332636480   7.904547430645740  11.673616748318732 
  7.467375639201247   1.436670159516888  11.673616748318732 
 12.446252588188759   1.436857286854267  11.673616748318732 
Generated by cif2cell 2.0.0.  :  Failed to get author information, No journal information. Species order: B Sb N 
 1.0
 14.936314146199660   0.000000000000000   0.000000000000000
 -7.468157073099825  12.935227489513863   0.000000000000000
  0.000000000000001   0.000000000000001  13.341276283792837
 B Sb N 
 143   1 143
Cartesian
  1.273401470663406   0.724985514957745   5.002978606422314 
  4.859766183881130   7.402464965573841   5.002978606422314 
  6.258870673073035   0.662442443560871   5.002978606422314 
  9.932048522922408   7.175164882260759   5.002978606422314 
 11.242715566751180   0.741994863546387   5.002978606422314 
 -3.734799196097655   9.341692669441750  11.673616748318732 
  1.244117902230275   9.341222252033917  11.673616748318732 
  2.489369774935263   2.874648662274750  11.673616748318732 
  6.222643172984593   9.340776295143051  11.673616748318732 
  7.466537415822395   2.874630873628665  11.673616748318732 
 12.446388577843587   2.874331089204260  11.673616748318732 
 -1.266845364662747   9.347589058903200   5.002978606422314 
  0.062796628504598   2.910750648041196   5.002978606422314 
  5.038137069044419   2.755218396124391   5.002978606422314 
  3.693291022896712   9.470325998730857   5.002978606422314 
  8.690513634807370   9.325566387845337   5.002978606422314 
 10.007662187371411   2.870375604254764   5.002978606422314 
 -4.979366908123545  11.497632138955874  11.673616748318732 
 -0.000820283501618  11.497506399779247  11.673616748318732 
  1.244817964919274   5.030275629874266  11.673616748318732 
  6.221767307828020   5.030370158252371  11.673616748318732 
  4.978088113174130  11.496952947618709  11.673616748318732 
 11.201339490766618   5.030208821486947  11.673616748318732 
 -1.224829082372318   5.052047761836338   5.002978606422314 
 -2.495715857316327  11.476055188101412   5.002978606422314 
  2.495349145126875  11.548287395006000   5.002978606422314 
  7.479472816722279  11.512894943411242   5.002978606422314 
  8.738978520852754   5.007022282327457   5.002978606422314 
 -0.000294213598523   7.185768142101606  11.673616748318732 
  1.244431313202382   0.718472650910022  11.673616748318732 
  4.977926310367888   7.184765962390483  11.673616748318732 
  6.222409032739816   0.718569079121827  11.673616748318732 
  9.956556260540058   7.185883432539645  11.673616748318732 
 -2.509052128924878   7.190131737085837   5.002978606422314 
 11.201430862709090   0.718159128554282  11.673616748318732 
  3.746949801244700   0.679924662561020   5.002978606422314 
  2.415771967507064   7.297287987982640   5.002978606422314 
  7.416655825333097   7.156503234913408   5.002978606422314 
  8.759399135807524   0.698634549994731   5.002978606422314 
  2.489098125803678   7.185326809220775  11.673616748318732 
 13.733100637538461   0.750404144389748   5.002978606422314 
 -1.245300405113187   9.341622601844660  11.673616748318732 
 -0.000020036918332   2.874483429349267  11.673616748318732 
  4.977838923146853   2.874701301351646  11.673616748318732 
  3.733386379942702   9.340638140100724  11.673616748318732 
  8.712050040450475   9.341431436070314  11.673616748318732 
  9.956311684305589   2.874416790981984  11.673616748318732 
 -3.756148180429991   9.329366827591446   5.002978606422314 
  1.213741630172654   9.400862276605940   5.002978606422314 
  2.558479040009102   2.877017111155800   5.002978606422314 
  6.216312063203588   9.376408757525640   5.002978606422314 
  7.558802717435963   2.775063346536694   5.002978606422314 
 12.495190752982692   2.894526959632079   5.002978606422314 
 -1.244954466819875   5.030215301548080  11.673616748318732 
 -2.490110480925377  11.497696898925055  11.673616748318732 
  2.488584821751111  11.497121934576539  11.673616748318732 
  3.733939719152380   5.030286099660719  11.673616748318732 
  7.467572680099583  11.497282641176703  11.673616748318732 
 -4.985232087723159  11.479001234408271   5.002978606422314 
  8.711285458118933   5.030321415426029  11.673616748318732 
  0.002659847707190  11.499515654470260   5.002978606422314 
  1.281423734355069   5.088941784624001   5.002978606422314 
 -0.027078759973648   7.216733879807285   5.002978606422314 
  6.351220111718938   4.819190985409617   5.002978606422314 
  5.000263594340445  11.543444381133366   5.002978606422314 
 11.220810209423249   5.032708490995847   5.002978606422314 
 -2.489984702490515   7.185895679341560  11.673616748318732 
  3.733524958932115   0.718603629003713  11.673616748318732 
  7.466918020669360   7.185522126921197  11.673616748318732 
  8.711706385593176   0.718359204324517  11.673616748318732 
 13.691209413126842   0.718238156173321  11.673616748318732 
 -0.000182927503556   1.437608390542793   1.677857314347962 
  3.735632408953776   7.902488010124369   1.638707119879592 
  4.978239709451945   1.440111703643609   1.665407857518696 
  8.710083151162456   7.903263849657733   1.667413744134201 
  9.957200493587417   1.437290368526051   1.675257023021992 
 -4.979954072292562  10.060412451736257   8.327445708656704 
  0.000838624275331  10.060143173295335   8.328096613021977 
  1.245218915710645   3.593422473855200   8.343873487106809 
  4.978020289477673  10.059583587496688   8.343174068236165 
  6.222185883313745   3.595651056795960   8.367250092965701 
 11.201675980566897   3.592661274062644   8.329176356099421 
 -2.489477803998261  10.060679310399525   1.680341902722778 
 -1.244471767881385   3.592779881368219   1.677857314347962 
  3.733051836672473   3.594898580455032   1.635254191232123 
  2.490133927101586  10.059624815305030   1.669124359194213 
  7.466441171099147  10.059758071871251   1.670906404350667 
  8.711479391970265   3.593042733998972   1.662783144608063 
 -6.224222465371813  12.216930532777468   8.326646894287807 
 -1.244783898213184  12.217624669297566   8.328096613021977 
  0.001183856306673   5.747902163224678   8.336173862208833 
  4.977061280016383   5.748002667460441   8.365256898640098 
  3.733944527518479  12.216285890263663   8.330700189821396 
  9.955840940683260   5.747991190601282   8.335050808493747 
 -2.489481799163055   5.748169945810214   1.679310318556408 
 -3.734489810902932  12.217881172523576   1.677993443019921 
  1.244842418069646  12.216690095849534   1.677227065655760 
  2.490413722005447   5.747210930479936   1.635254191232042 
  6.222788229780998  12.216347823606210   1.676780856745139 
  7.464456505284518   5.747195366433743   1.640127835755430 
 -1.243792193759486   7.903866353340366   8.327963769825320 
 -0.000182927503623   1.437608390542806   8.328099898496760 
  3.735632408953777   7.902488010124370   8.367250092965701 
  4.978239709451945   1.440111703643610   8.340549355327385 
  8.710083151162456   7.903263849657734   8.338543468711453 
 -3.734947044526731   7.903997023865455   1.678511504188524 
  9.957200493587417   1.437290368526051   8.330700189821396 
  2.489035528939966   1.438816664528699   1.669783350636675 
  1.246907483335652   7.902968699196181   1.665407857518696 
  6.220059749453054   7.902553772307760   1.640127835755430 
  7.467571915112141   1.438449328547281   1.669124359194213 
  1.246907483335652   7.902968699196181   8.340549355327385 
 12.446676904613568   1.437102266055618   1.678726271245712 
 -2.489477803998462  10.060679310399873   8.325615310121195 
 -1.244471767881414   3.592779881368220   8.328099898496760 
  3.733051836672473   3.594898580455033   8.370703021612785 
  2.490133927101586  10.059624815305030   8.336832853650789 
  7.466441171099148  10.059758071871251   8.335050808493747 
  8.711479391970265   3.593042733998973   8.343174068236165 
 -4.979954072292593  10.060412451736257   1.678511504188524 
  0.000838624275330  10.060143173295335   1.677860599823437 
  1.245218915710645   3.593422473855199   1.662083725736646 
  4.978020289477672  10.059583587496688   1.662783144608063 
  6.222185883313976   3.595651056795558   1.638707119879592 
 11.201675980566897   3.592661274062643   1.676780856745139 
 -2.489481799163099   5.748169945810215   8.326646894287807 
 -3.734489810902932  12.217881172523576   8.327963769825320 
  1.244842418069646  12.216690095849534   8.328730147189228 
  2.490413722005448   5.747210930479937   8.370703021612785 
  6.222788229780999  12.216347823606210   8.329176356099421 
 -6.224222465371844  12.216930532777468   1.679310318556408 
  7.464456505284579   5.747195366433640   8.365829377089170 
 -1.244783898213185  12.217624669297566   1.677860599823437 
  0.001183856306748   5.747902163224677   1.669783350636675 
 -1.243792193759487   7.903866353340365   1.677993443019921 
  4.977061280016188   5.748002667460078   1.640700314204331 
  3.733944527518479  12.216285890263663   1.675257023021992 
  9.955840940683260   5.747991190601281   1.670906404350667 
 -3.734947044526701   7.903997023865456   8.327445708656704 
  2.489035528939906   1.438816664528700   8.336173862208833 
  6.220059749453631   7.902553772306764   8.365829377089170 
  7.467571915112254   1.438449328547088   8.336832853650789 
 12.446676904613568   1.437102266055619   8.327230941598462 
  4.433423256777299   5.434133108401508   5.002978606422314 
  1.243875632259416   0.718154417085203   1.674921376233660 
  4.978666862920316   7.188124473080167   1.605224621328472 
  6.223376273631400   0.718623404225440   1.669672234470113 
  9.956960567274567   7.185824715606759   1.671426926026307 
 11.202090411625463   0.718539919299486   1.675203214525423 
 -3.734477795481731   9.341878230176327   8.327985682968608 
  1.244648569595486   9.342032744666447   8.336284978373888 
  2.487885032624434   2.873494321186166   8.356747489835394 
  6.222880302253889   9.342378467504522   8.350116076273329 
  7.468376610104842   2.873953257400608   8.352406657395758 
 12.446421522973656   2.874092834720623   8.329032765470716 
 -1.244835744557075   9.341951827018093   1.677550655875653 
 -0.001075603109746   2.873873997925066   1.671606413402871 
  4.978599774294304   2.874443409235941   1.640388213336655 
  3.733719144217614   9.342569737183760   1.653550555448563 
  8.712201343461800   9.341810934440486   1.671426926026307 
  9.957580461660012   2.874009592454039   1.670452057058072 
 -4.979250853847486  11.497801060234385   8.328403233466593 
 -0.000054389255945  11.497948589027629   8.329021270136565 
  1.243075905056334   5.029566975859590   8.356747489835394 
  6.225046139679764   5.029332240231842   8.400732591515288 
  4.978369857581961  11.498255340303006   8.335505155786676 
 11.201793827760602   5.029938260499918   8.330424772173176 
 -1.245507905867621   5.029893184646834   1.674921376233660 
 -2.489593033283826  11.497934694185608   1.677550655875653 
  2.489258501629739  11.498149360359260   1.673028233205630 
  3.730188684495250   5.028120438791936   1.593374310762687 
  7.467565535906546  11.497811389052327   1.675532440671771 
  8.712791544721091   5.029725689214348   1.655841136572112 
 -0.000205448501480   7.185934670274674   8.337164168605211 
  1.243875632259416   0.718154417085204   8.331035836610553 
  4.978666862920331   7.188124473080168   8.400732591515942 
  6.223376273631401   0.718623404225440   8.336284978373888 
  9.956960567274567   7.185824715606760   8.334530286818895 
 -2.489780385233197   7.185911724652101   1.677553979378155 
 11.202090411625463   0.718539919299487   8.330753998317871 
  3.733713559108860   0.718597237746357   1.668793044239031 
  2.489255210252558   7.186114671701671   1.640388213336722 
  7.467596157585928   7.185913649452006   1.647079881079780 
  8.712933002361693   0.718428915320577   1.673028233205630 
  2.489255210252559   7.186114671701672   8.365568999507520 
 13.691019551256540   0.718385814734604   1.676924447374152 
 -1.244835744557074   9.341951827018093   8.328406556967694 
 -0.001075603109790   2.873873997925067   8.334350799441035 
  4.978599774294358   2.874443409235851   8.365568999507493 
  3.733719144217614   9.342569737183760   8.352406657395758 
  8.712201343461800   9.341810934440486   8.334530286818895 
  9.957580461660012   2.874009592454040   8.335505155786676 
 -3.734477795481850   9.341878230176327   1.677971529876140 
  1.244648569595485   9.342032744666447   1.669672234470113 
  2.487885032624433   2.873494321186165   1.649209723009728 