 N Se B 
 1.0
 14.936314146199660   0.000000000000000   0.000000000000000
 -7.468157073099825  12.935227489513863   0.000000000000000
  0.000000000000001   0.000000000000001  13.341276283792837
 N Se B 
 143   1 144
Cartesian
  1.244515034317213   0.718497815298945   1.668110211580812 
  4.978771382066552   7.187019961029621   1.658387884761100 
  6.223422891080126   0.718982973318521   1.669759041423355 
  9.957210998857704   7.186093680685572   1.669759041423355 
 11.202303147302532   0.718662742299416   1.667286236863949 
 -3.734181877607646   9.342049078439132   8.337740534681261 
  1.244983274289083   9.341893332014401   8.336198171421273 
  2.488714567595395   2.874290005005943   8.337528245961606 
  6.223306194718806   9.342792448704865   8.337528245961606 
  7.468828196537781   2.874290005005943   8.337528245961606 
 12.446928455166312   2.874417011905734   8.338670975980666 
 -1.244589504458820   9.342049078439132   1.668216678163366 
 -0.000500327243414   2.874206133601093   1.667745419873449 
  4.978771382066535   2.875282643149498   1.671244229748123 
  3.734236569414480   9.342792448704865   1.668428966883022 
  8.712559489844111   9.341893332014401   1.669759041423355 
  9.958043091376497   2.874206133601093   1.667745419873449 
 -4.978725821627147  11.497953686347030   8.337677342328124 
 -0.000045560439317  11.497953686347030   8.337677342328124 
  1.244179754943286   5.029887532307624   8.337528245961606 
  6.224141863757446   5.029975012494450   8.347569328083528 
  4.978771382066546  11.498557718816320   8.338211792971180 
 11.202433577395317   5.030275223965456   8.337847001263816 
 -1.244890813262126   5.030275223965456   1.668110211580812 
 -2.489385691033233  11.498099318654017   1.668216678163366 
  2.489365534487241  11.498196946754016   1.668110211580812 
  3.733400900375640   5.029975012494449   1.658387884761100 
  7.468177229645939  11.498196946754016   1.668110211580812 
  8.713363009189996   5.029887532307623   1.668428966883022 
  0.000331765275489   7.186093680685573   8.336198171421273 
  1.244515034317214   0.718497815298946   8.337847001263816 
  4.978771382066553   7.187019961029621   8.347569328083528 
  6.223422891080127   0.718982973318522   8.336198171421273 
  9.957210998857704   7.186093680685573   8.336198171421273 
 -2.489385691033241   7.186290102838208   1.668279870516490 
 11.202303147302532   0.718662742299417   8.338670975980666 
  3.734119873052941   0.718982973318521   1.669759041423355 
  2.490067812027890   7.185843671434511   1.671244229748123 
  7.467474952105182   7.185843671434511   1.671244229748123 
  8.713027729815957   0.718497815298945   1.668110211580812 
  2.490067812027891   7.185843671434512   8.334712983096505 
 13.691553763030196   0.718662742299416   1.667286236863949 
 -1.244589504458820   9.342049078439132   8.337740534681261 
 -0.000500327243414   2.874206133601094   8.338211792971180 
  4.978771382066536   2.875282643149499   8.334712983096505 
  3.734236569414481   9.342792448704865   8.337528245961606 
  8.712559489844111   9.341893332014401   8.336198171421273 
  9.958043091376497   2.874206133601094   8.338211792971180 
 -3.734181877607647   9.342049078439132   1.668216678163366 
  1.244983274289083   9.341893332014401   1.669759041423355 
  2.488714567595394   2.874290005005942   1.668428966883022 
  6.223306194718805   9.342792448704865   1.668428966883022 
  7.468828196537780   2.874290005005942   1.668428966883022 
 12.446928455166312   2.874417011905734   1.667286236863949 
 -1.244890813262126   5.030275223965456   8.337847001263816 
 -2.489385691033232  11.498099318654017   8.337740534681261 
  2.489365534487241  11.498196946754016   8.337847001263816 
  3.733400900375640   5.029975012494450   8.347569328083528 
  7.468177229645940  11.498196946754016   8.337847001263816 
 -4.978725821627148  11.497953686347030   1.668279870516490 
  8.713363009189996   5.029887532307624   8.337528245961606 
 -0.000045560439317  11.497953686347030   1.668279870516490 
  1.244179754943285   5.029887532307623   1.668428966883022 
  0.000331765275488   7.186093680685572   1.669759041423355 
  6.224141863757445   5.029975012494449   1.658387884761100 
  4.978771382066546  11.498557718816320   1.667745419873449 
 11.202433577395317   5.030275223965456   1.668110211580812 
 -2.489385691033240   7.186290102838209   8.337677342328124 
  3.734119873052942   0.718982973318522   8.336198171421273 
  7.467474952105183   7.185843671434512   8.334712983096505 
  8.713027729815957   0.718497815298946   8.337847001263816 
 13.691553763030196   0.718662742299417   8.338670975980666 
 -0.009206402842950   1.430157487438314   5.002978606422314 
  3.653466346457428   8.014894323854520   5.002978606422314 
  4.978771382066482   1.394596368766581   5.002978606422314 
  8.749786880755707   7.926186808626015   5.002978606422314 
  9.966749166976033   1.430157487438314   5.002978606422314 
 -4.978794623151771  10.060715677546982  11.673616748318732 
  0.000023241085202  10.060715677546982  11.673616748318732 
  1.244660979496102   3.593100349231612  11.673616748318732 
  4.978771382066607  10.060769287555209  11.673616748318732 
  6.223469603883173   3.593063012067024  11.673616748318732 
 11.202252489611082   3.593184549778744  11.673616748318732 
 -2.489385691033300  10.060732491844131   5.002978606422314 
 -1.255436176920667   3.588690774046017   5.002978606422314 
  3.679093188832032   3.468290002480973   5.002978606422314 
  2.454265938884934  10.106594642036134   5.002978606422314 
  7.503276825248143  10.106594642036134   5.002978606422314 
  8.741940831100694   3.576323100933436   5.002978606422314 
 -6.223406959142803  12.216570676146958  11.673616748318732 
 -1.244695786582513  12.216632274615209  11.673616748318732 
 -0.000029392620148   5.749036875653431  11.673616748318732 
  4.978771382066590   5.748989995339477  11.673616748318732 
  3.734013109766719  12.216585457226016  11.673616748318732 
  9.957572156753340   5.749036875653431  11.673616748318732 
 -2.489385691033286   5.753916758846628   5.002978606422314 
 -3.732140620273264  12.200524138106017   5.002978606422314 
  1.240426143161021  12.214140358342870   5.002978606422314 
  2.353788153222819   5.763785659683027   5.002978606422314 
  6.225001156144256  12.228121724534189   5.002978606422314 
  7.603754610910252   5.763785659683027   5.002978606422314 
 -1.244666663365570   7.904849523370182  11.673616748318732 
  0.000048546821820   1.437199979013763  11.673616748318732 
  3.734032956756495   7.904893767114372  11.673616748318732 
  4.978771382066483   1.437299538155020  11.673616748318732 
  8.712804851243181   7.904835223931796  11.673616748318732 
 -3.721122150881817   7.914579329313027   5.002978606422314 
  9.957494217311263   1.437199979013763  11.673616748318732 
  2.467227779968967   1.383901826203817   5.002978606422314 
  1.207755883377278   7.926186808626015   5.002978606422314 
  6.304076417675749   8.014894323854520   5.002978606422314 
  7.490314984164102   1.383901826203817   5.002978606422314 
  1.244737912889776   7.904835223931796  11.673616748318732 
 12.446928455166319   1.437247498834912   5.002978606422314 
 -2.489385691033299  10.060732491844133  11.673616748318732 
 -1.244709725478012   3.593184549778744  11.673616748318732 
  3.734073160249794   3.593063012067024  11.673616748318732 
  2.489330395180288  10.060734506442898  11.673616748318732 
  7.468212368952789  10.060734506442898  11.673616748318732 
  8.712881784637089   3.593100349231612  11.673616748318732 
 -4.963877080121789  10.067094008113338   5.002978606422314 
 -0.014894301944794  10.067094008113338   5.002978606422314 
  1.215601933032374   3.576323100933436   5.002978606422314 
  4.978771382066529  10.094323784151635   5.002978606422314 
  6.278449575301142   3.468290002480973   5.002978606422314 
 11.212978941053752   3.588690774046017   5.002978606422314 
 -2.489385691033241   5.749056123238381  11.673616748318732 
 -3.734075595484054  12.216632274615209  11.673616748318732 
  1.244635577076326  12.216570676146958  11.673616748318732 
  2.489334734939805   5.749013206837216  11.673616748318732 
  6.223529654366372  12.216585457226016  11.673616748318732 
 -6.219197525227590  12.214140358342870   5.002978606422314 
  7.468208029193163   5.749013206837216  11.673616748318732 
 -1.246630761793317  12.200524138106017   5.002978606422314 
 -0.057277663212636   5.756473517778569   5.002978606422314 
 -1.257649231184770   7.914579329313027   5.002978606422314 
  3.732541607988821  12.228121724534189   5.002978606422314 
 10.014820427345709   5.756473517778569   5.002978606422314 
 -3.734104718701001   7.904849523370182  11.673616748318732 
  2.489411594266048   1.437198603922104  11.673616748318732 
  6.223509807376475   7.904893767114372  11.673616748318732 
  7.468131169867037   1.437198603922104  11.673616748318732 
 12.446928455166319   1.437247498834912  11.673616748318732 
  4.978771382066589   5.748989995339477   5.002978606422314 
  1.227496147529970   0.698875010538031   5.002978606422314 
  4.978771382066546   7.520350498721220   5.002978606422314 
  6.231955085022354   0.688934643775498   5.002978606422314 
  9.987499712554250   7.193728748753113   5.002978606422314 
 11.206773959087522   0.721243966687098   5.002978606422314 
 -3.734157282348679   9.342063278518518  11.673616748318732 
  1.244791154720284   9.342072357643023  11.673616748318732 
  2.489356803540300   2.874520258763853  11.673616748318732 
  6.223427907087492   9.342121129182413  11.673616748318732 
  7.468185960592889   2.874520258763853  11.673616748318732 
 12.446928455166416   2.874561897259396  11.673616748318732 
 -1.252180602080441   9.346431800694411   5.002978606422314 
 -0.020635079361884   2.862581329045368   5.002978606422314 
  4.978771382066490   2.814205246112003   5.002978606422314 
  3.690447955572361   9.423410685331454   5.002978606422314 
  8.734316009598432   9.364306593489909   5.002978606422314 
  9.978177843495073   2.862581329045368   5.002978606422314 
 -4.978783624858401  11.497987059058163  11.673616748318732 
  0.000012242791938  11.497987059058163  11.673616748318732 
  1.244700278519413   5.030328598072166  11.673616748318732 
  6.223686160162255   5.030238113087797  11.673616748318732 
  4.978771382066591  11.497959015679964  11.673616748318732 
 11.202204101148496   5.030356608855675  11.673616748318732 
 -1.270394104072209   5.025347838044042   5.002978606422314 
 -2.489385691033291  11.489333874143535   5.002978606422314 
  2.480881130464426  11.522747137436356   5.002978606422314 
  3.444728186877609   4.863309743648644   5.002978606422314 
  7.476661633668773  11.522747137436356   5.002978606422314 
  8.805074757037882   5.027500465978112   5.002978606422314 
  0.000080664748783   7.186170548298420  11.673616748318732 
  1.244700253823023   0.718655855113149  11.673616748318732 
  4.978771382066538   7.186493759842928  11.673616748318732 
  6.223481872038034   0.718727080077081  11.673616748318732 
  9.957462099384289   7.186170548298420  11.673616748318732 
 -2.489385691033286   7.189246537605005   5.002978606422314 
 11.202177672905623   0.718590299622586  11.673616748318732 
  3.725587679110714   0.688934643775498   5.002978606422314 
  2.437173234596323   7.216382369953299   5.002978606422314 
  7.520369529536659   7.216382369953299   5.002978606422314 
  8.730046616603218   0.698875010538031   5.002978606422314 
  2.489496501531743   7.186173517703254  11.673616748318732 
 13.687082951245085   0.721243966687098   5.002978606422314 
 -1.244614099717784   9.342063278518518  11.673616748318732 
  0.000018164882019   2.874505485169234  11.673616748318732 
  4.978771382066536   2.874622950612016  11.673616748318732 
  3.734114857045702   9.342121129182413  11.673616748318732 
  8.712751609412791   9.342072357643023  11.673616748318732 
  9.957524599251155   2.874505485169234  11.673616748318732 
 -3.726590779986129   9.346431800694411   5.002978606422314 
  1.223226754534644   9.364306593489909   5.002978606422314 
  2.440791433589523   2.796058834708863   5.002978606422314 
  6.267094808560821   9.423410685331454   5.002978606422314 
  7.516751330543652   2.796058834708863   5.002978606422314 
 12.446928455166297   2.869254563130552   5.002978606422314 
 -1.244661337015320   5.030356608855675  11.673616748318732 
 -2.489385691033238  11.498070918495262  11.673616748318732 
  2.489409791228246  11.497957522049608  11.673616748318732 
  3.733856603970819   5.030238113087797  11.673616748318732 
  7.468132972904936  11.497957522049608  11.673616748318732 
 -4.976165474014547  11.496475468963684   5.002978606422314 
  8.712842485613791   5.030328598072166  11.673616748318732 
 -0.002605908052022  11.496475468963684   5.002978606422314 
  1.152468007095293   5.027500465978112   5.002978606422314 
 -0.029956948421177   7.193728748753113   5.002978606422314 
  6.512814577255494   4.863309743648644   5.002978606422314 
  4.978771382066599  11.521807327927680   5.002978606422314 
 11.227936868205385   5.025347838044042   5.002978606422314 
 -2.489385691033234   7.186223357415956  11.673616748318732 
  3.734060892095035   0.718727080077081  11.673616748318732 
  7.468046262601332   7.186173517703254  11.673616748318732 
  8.712842510310148   0.718655855113149  11.673616748318732 
 13.691679237427206   0.718590299622586  11.673616748318732 
 -0.000336887854636   1.437210617095610   1.667534087286576 
  3.734269670117357   7.905556176173315   1.666877202180929 
  4.978771382066535   1.437647948970542   1.670254748493647 
  8.712503118626024   7.904661018523989   1.670254748493647 
  9.957879651987703   1.437210617095610   1.667534087286576 
 -4.978951790524760  10.060703163334358   8.337912463759828 
  0.000180408458192  10.060703163334358   8.337912463759828 
  1.244191121144801   3.592829076386067   8.338414816964846 
  4.978771382066539  10.061311833246386   8.338414816964846 
  6.224161623636399   3.592936807321382   8.339080010663686 
 11.202435994100183   3.592845434516511   8.338423125558052 
 -2.489385691033300  10.060732491844131   1.667577772058950 
 -1.244893229967114   3.592845434516510   1.667534087286576 
  3.733381140496672   3.592936807321381   1.666877202180929 
  2.489845993477193  10.060996905406737   1.668691234407470 
  7.467696770655884  10.060996905406737   1.668691234407470 
  8.713351642988270   3.592829076386066   1.667542395879781 
 -6.223707114603780  12.216743970983149   8.338287547347418 
 -1.244628040522067  12.216774642659189   8.337912463759828 
  0.000001162359623   5.748459154948335   8.337265978437157 
  4.978771382066590   5.748989995339477   8.347415317279371 
  3.734215039954060  12.216913934406401   8.338423125558052 
  9.957541601773450   5.748459154948335   8.337265978437157 
 -2.489385691033287   5.748709533566071   1.667669665497209 
 -3.734143341544532  12.216774642659189   1.668044749084800 
  1.244935732537213  12.216743970983149   1.667669665497209 
  2.488879428547485   5.748477002523836   1.666877202180929 
  6.223327724179017  12.216913934406401   1.667534087286576 
  7.468663335585585   5.748477002523836   1.666877202180929 
 -1.244577242053049   7.904719669538839   8.337912463759828 
 -0.000336887854635   1.437210617095610   8.338423125558052 
  3.734269670117357   7.905556176173316   8.339080010663686 
  4.978771382066536   1.437647948970543   8.335702464350980 
  8.712503118626024   7.904661018523989   8.335702464350980 
 -3.734194140013536   7.904719669538838   1.668044749084800 
  9.957879651987703   1.437210617095610   8.338423125558052 
  2.488926550948967   1.437513925663449   1.668691234407470 
  1.245039645507050   7.904661018523989   1.670254748493647 
  6.223273094015731   7.905556176173315   1.666877202180929 
  7.468616213184102   1.437513925663449   1.668691234407470 
  1.245039645507050   7.904661018523989   8.335702464350980 
 12.446928455166319   1.437247498834911   1.666995355941653 
 -2.489385691033300  10.060732491844131   8.338379440785678 
 -1.244893229967113   3.592845434516511   8.338423125558052 
  3.733381140496673   3.592936807321382   8.339080010663686 
  2.489845993477193  10.060996905406737   8.337265978437157 
  7.467696770655885  10.060996905406737   8.337265978437157 
  8.713351642988270   3.592829076386067   8.338414816964846 
 -4.978951790524761  10.060703163334358   1.668044749084800 
  0.000180408458191  10.060703163334358   1.668044749084800 
  1.244191121144801   3.592829076386066   1.667542395879781 
  4.978771382066538  10.061311833246386   1.667542395879781 
  6.224161623636398   3.592936807321381   1.666877202180929 
 11.202435994100183   3.592845434516510   1.667534087286576 
 -2.489385691033287   5.748709533566072   8.338287547347418 
 -3.734143341544532  12.216774642659189   8.337912463759828 
  1.244935732537213  12.216743970983149   8.338287547347418 
  2.488879428547486   5.748477002523837   8.339080010663686 
  6.223327724179018  12.216913934406401   8.338423125558052 
 -6.223707114603781  12.216743970983149   1.667669665497209 
  7.468663335585586   5.748477002523837   8.339080010663686 
 -1.244628040522067  12.216774642659189   1.668044749084800 
  0.000001162359622   5.748459154948334   1.668691234407470 
 -1.244577242053050   7.904719669538838   1.668044749084800 
  4.978771382066589   5.748989995339476   1.658541895565257 
  3.734215039954059  12.216913934406401   1.667534087286576 
  9.957541601773450   5.748459154948334   1.668691234407470 
 -3.734194140013536   7.904719669538839   8.337912463759828 
  2.488926550948967   1.437513925663449   8.337265978437157 
  6.223273094015732   7.905556176173316   8.339080010663686 
  7.468616213184103   1.437513925663449   8.337265978437157 
 12.446928455166319   1.437247498834912   8.338961856902975 
Generated by cif2cell 2.0.0.  :  Failed to get author information, No journal information. Species order: N Se B 
 1.0
 14.936314146199660   0.000000000000000   0.000000000000000
 -7.468157073099825  12.935227489513863   0.000000000000000
  0.000000000000001   0.000000000000001  13.341276283792837
 N Se B 
 143   1 144
Cartesian
  1.244515034317213   0.718497815298945   1.668110211580812 
  4.978771382066552   7.187019961029621   1.658387884761100 
  6.223422891080126   0.718982973318521   1.669759041423355 
  9.957210998857704   7.186093680685572   1.669759041423355 
 11.202303147302532   0.718662742299416   1.667286236863949 
 -3.734181877607646   9.342049078439132   8.337740534681261 
  1.244983274289083   9.341893332014401   8.336198171421273 
  2.488714567595395   2.874290005005943   8.337528245961606 
  6.223306194718806   9.342792448704865   8.337528245961606 
  7.468828196537781   2.874290005005943   8.337528245961606 
 12.446928455166312   2.874417011905734   8.338670975980666 
 -1.244589504458820   9.342049078439132   1.668216678163366 
 -0.000500327243414   2.874206133601093   1.667745419873449 
  4.978771382066535   2.875282643149498   1.671244229748123 
  3.734236569414480   9.342792448704865   1.668428966883022 
  8.712559489844111   9.341893332014401   1.669759041423355 
  9.958043091376497   2.874206133601093   1.667745419873449 
 -4.978725821627147  11.497953686347030   8.337677342328124 
 -0.000045560439317  11.497953686347030   8.337677342328124 
  1.244179754943286   5.029887532307624   8.337528245961606 
  6.224141863757446   5.029975012494450   8.347569328083528 
  4.978771382066546  11.498557718816320   8.338211792971180 
 11.202433577395317   5.030275223965456   8.337847001263816 
 -1.244890813262126   5.030275223965456   1.668110211580812 
 -2.489385691033233  11.498099318654017   1.668216678163366 
  2.489365534487241  11.498196946754016   1.668110211580812 
  3.733400900375640   5.029975012494449   1.658387884761100 
  7.468177229645939  11.498196946754016   1.668110211580812 
  8.713363009189996   5.029887532307623   1.668428966883022 
  0.000331765275489   7.186093680685573   8.336198171421273 
  1.244515034317214   0.718497815298946   8.337847001263816 
  4.978771382066553   7.187019961029621   8.347569328083528 
  6.223422891080127   0.718982973318522   8.336198171421273 
  9.957210998857704   7.186093680685573   8.336198171421273 
 -2.489385691033241   7.186290102838208   1.668279870516490 
 11.202303147302532   0.718662742299417   8.338670975980666 
  3.734119873052941   0.718982973318521   1.669759041423355 
  2.490067812027890   7.185843671434511   1.671244229748123 
  7.467474952105182   7.185843671434511   1.671244229748123 
  8.713027729815957   0.718497815298945   1.668110211580812 
  2.490067812027891   7.185843671434512   8.334712983096505 
 13.691553763030196   0.718662742299416   1.667286236863949 
 -1.244589504458820   9.342049078439132   8.337740534681261 
 -0.000500327243414   2.874206133601094   8.338211792971180 
  4.978771382066536   2.875282643149499   8.334712983096505 
  3.734236569414481   9.342792448704865   8.337528245961606 
  8.712559489844111   9.341893332014401   8.336198171421273 
  9.958043091376497   2.874206133601094   8.338211792971180 
 -3.734181877607647   9.342049078439132   1.668216678163366 
  1.244983274289083   9.341893332014401   1.669759041423355 
  2.488714567595394   2.874290005005942   1.668428966883022 
  6.223306194718805   9.342792448704865   1.668428966883022 
  7.468828196537780   2.874290005005942   1.668428966883022 
 12.446928455166312   2.874417011905734   1.667286236863949 
 -1.244890813262126   5.030275223965456   8.337847001263816 
 -2.489385691033232  11.498099318654017   8.337740534681261 
  2.489365534487241  11.498196946754016   8.337847001263816 
  3.733400900375640   5.029975012494450   8.347569328083528 
  7.468177229645940  11.498196946754016   8.337847001263816 
 -4.978725821627148  11.497953686347030   1.668279870516490 
  8.713363009189996   5.029887532307624   8.337528245961606 
 -0.000045560439317  11.497953686347030   1.668279870516490 
  1.244179754943285   5.029887532307623   1.668428966883022 
  0.000331765275488   7.186093680685572   1.669759041423355 
  6.224141863757445   5.029975012494449   1.658387884761100 
  4.978771382066546  11.498557718816320   1.667745419873449 
 11.202433577395317   5.030275223965456   1.668110211580812 
 -2.489385691033240   7.186290102838209   8.337677342328124 
  3.734119873052942   0.718982973318522   8.336198171421273 
  7.467474952105183   7.185843671434512   8.334712983096505 
  8.713027729815957   0.718497815298946   8.337847001263816 
 13.691553763030196   0.718662742299417   8.338670975980666 
 -0.009206402842950   1.430157487438314   5.002978606422314 
  3.653466346457428   8.014894323854520   5.002978606422314 
  4.978771382066482   1.394596368766581   5.002978606422314 
  8.749786880755707   7.926186808626015   5.002978606422314 
  9.966749166976033   1.430157487438314   5.002978606422314 
 -4.978794623151771  10.060715677546982  11.673616748318732 
  0.000023241085202  10.060715677546982  11.673616748318732 
  1.244660979496102   3.593100349231612  11.673616748318732 
  4.978771382066607  10.060769287555209  11.673616748318732 
  6.223469603883173   3.593063012067024  11.673616748318732 
 11.202252489611082   3.593184549778744  11.673616748318732 
 -2.489385691033300  10.060732491844131   5.002978606422314 
 -1.255436176920667   3.588690774046017   5.002978606422314 
  3.679093188832032   3.468290002480973   5.002978606422314 
  2.454265938884934  10.106594642036134   5.002978606422314 
  7.503276825248143  10.106594642036134   5.002978606422314 
  8.741940831100694   3.576323100933436   5.002978606422314 
 -6.223406959142803  12.216570676146958  11.673616748318732 
 -1.244695786582513  12.216632274615209  11.673616748318732 
 -0.000029392620148   5.749036875653431  11.673616748318732 
  4.978771382066590   5.748989995339477  11.673616748318732 
  3.734013109766719  12.216585457226016  11.673616748318732 
  9.957572156753340   5.749036875653431  11.673616748318732 
 -2.489385691033286   5.753916758846628   5.002978606422314 
 -3.732140620273264  12.200524138106017   5.002978606422314 
  1.240426143161021  12.214140358342870   5.002978606422314 
  2.353788153222819   5.763785659683027   5.002978606422314 
  6.225001156144256  12.228121724534189   5.002978606422314 
  7.603754610910252   5.763785659683027   5.002978606422314 
 -1.244666663365570   7.904849523370182  11.673616748318732 
  0.000048546821820   1.437199979013763  11.673616748318732 
  3.734032956756495   7.904893767114372  11.673616748318732 
  4.978771382066483   1.437299538155020  11.673616748318732 
  8.712804851243181   7.904835223931796  11.673616748318732 
 -3.721122150881817   7.914579329313027   5.002978606422314 
  9.957494217311263   1.437199979013763  11.673616748318732 
  2.467227779968967   1.383901826203817   5.002978606422314 
  1.207755883377278   7.926186808626015   5.002978606422314 
  6.304076417675749   8.014894323854520   5.002978606422314 
  7.490314984164102   1.383901826203817   5.002978606422314 
  1.244737912889776   7.904835223931796  11.673616748318732 
 12.446928455166319   1.437247498834912   5.002978606422314 
 -2.489385691033299  10.060732491844133  11.673616748318732 
 -1.244709725478012   3.593184549778744  11.673616748318732 
  3.734073160249794   3.593063012067024  11.673616748318732 
  2.489330395180288  10.060734506442898  11.673616748318732 
  7.468212368952789  10.060734506442898  11.673616748318732 
  8.712881784637089   3.593100349231612  11.673616748318732 
 -4.963877080121789  10.067094008113338   5.002978606422314 
 -0.014894301944794  10.067094008113338   5.002978606422314 
  1.215601933032374   3.576323100933436   5.002978606422314 
  4.978771382066529  10.094323784151635   5.002978606422314 
  6.278449575301142   3.468290002480973   5.002978606422314 
 11.212978941053752   3.588690774046017   5.002978606422314 
 -2.489385691033241   5.749056123238381  11.673616748318732 
 -3.734075595484054  12.216632274615209  11.673616748318732 
  1.244635577076326  12.216570676146958  11.673616748318732 
  2.489334734939805   5.749013206837216  11.673616748318732 
  6.223529654366372  12.216585457226016  11.673616748318732 
 -6.219197525227590  12.214140358342870   5.002978606422314 
  7.468208029193163   5.749013206837216  11.673616748318732 
 -1.246630761793317  12.200524138106017   5.002978606422314 
 -0.057277663212636   5.756473517778569   5.002978606422314 
 -1.257649231184770   7.914579329313027   5.002978606422314 
  3.732541607988821  12.228121724534189   5.002978606422314 
 10.014820427345709   5.756473517778569   5.002978606422314 
 -3.734104718701001   7.904849523370182  11.673616748318732 
  2.489411594266048   1.437198603922104  11.673616748318732 
  6.223509807376475   7.904893767114372  11.673616748318732 
  7.468131169867037   1.437198603922104  11.673616748318732 
 12.446928455166319   1.437247498834912  11.673616748318732 
  4.978771382066589   5.748989995339477   5.002978606422314 
  1.227496147529970   0.698875010538031   5.002978606422314 
  4.978771382066546   7.520350498721220   5.002978606422314 
  6.231955085022354   0.688934643775498   5.002978606422314 
  9.987499712554250   7.193728748753113   5.002978606422314 
 11.206773959087522   0.721243966687098   5.002978606422314 
 -3.734157282348679   9.342063278518518  11.673616748318732 
  1.244791154720284   9.342072357643023  11.673616748318732 
  2.489356803540300   2.874520258763853  11.673616748318732 
  6.223427907087492   9.342121129182413  11.673616748318732 
  7.468185960592889   2.874520258763853  11.673616748318732 
 12.446928455166416   2.874561897259396  11.673616748318732 
 -1.252180602080441   9.346431800694411   5.002978606422314 
 -0.020635079361884   2.862581329045368   5.002978606422314 
  4.978771382066490   2.814205246112003   5.002978606422314 
  3.690447955572361   9.423410685331454   5.002978606422314 
  8.734316009598432   9.364306593489909   5.002978606422314 
  9.978177843495073   2.862581329045368   5.002978606422314 
 -4.978783624858401  11.497987059058163  11.673616748318732 
  0.000012242791938  11.497987059058163  11.673616748318732 
  1.244700278519413   5.030328598072166  11.673616748318732 
  6.223686160162255   5.030238113087797  11.673616748318732 
  4.978771382066591  11.497959015679964  11.673616748318732 
 11.202204101148496   5.030356608855675  11.673616748318732 
 -1.270394104072209   5.025347838044042   5.002978606422314 
 -2.489385691033291  11.489333874143535   5.002978606422314 
  2.480881130464426  11.522747137436356   5.002978606422314 
  3.444728186877609   4.863309743648644   5.002978606422314 
  7.476661633668773  11.522747137436356   5.002978606422314 
  8.805074757037882   5.027500465978112   5.002978606422314 
  0.000080664748783   7.186170548298420  11.673616748318732 
  1.244700253823023   0.718655855113149  11.673616748318732 
  4.978771382066538   7.186493759842928  11.673616748318732 
  6.223481872038034   0.718727080077081  11.673616748318732 
  9.957462099384289   7.186170548298420  11.673616748318732 
 -2.489385691033286   7.189246537605005   5.002978606422314 
 11.202177672905623   0.718590299622586  11.673616748318732 
  3.725587679110714   0.688934643775498   5.002978606422314 
  2.437173234596323   7.216382369953299   5.002978606422314 
  7.520369529536659   7.216382369953299   5.002978606422314 
  8.730046616603218   0.698875010538031   5.002978606422314 
  2.489496501531743   7.186173517703254  11.673616748318732 
 13.687082951245085   0.721243966687098   5.002978606422314 
 -1.244614099717784   9.342063278518518  11.673616748318732 
  0.000018164882019   2.874505485169234  11.673616748318732 
  4.978771382066536   2.874622950612016  11.673616748318732 
  3.734114857045702   9.342121129182413  11.673616748318732 
  8.712751609412791   9.342072357643023  11.673616748318732 
  9.957524599251155   2.874505485169234  11.673616748318732 
 -3.726590779986129   9.346431800694411   5.002978606422314 
  1.223226754534644   9.364306593489909   5.002978606422314 