 B Ga N 
 1.0
 17.527899999999772   0.000000000000000   0.000000000000000
 -8.763949999999658  15.179606674993195   0.000000000000000
  0.000000000000001   0.000000000000002  15.000000000000000
 B Ga N 
  47   1  49
Cartesian
  7.580170719241956  14.500399875926917   1.660156486875120 
 15.079428514241147   1.463611598261559   1.661893198502580 
 13.828549251327576   3.617233221104248   1.661320067599140 
 12.586598274871411   5.779275752621062   1.660316834502390 
 11.354052542742618   7.952219284456581   1.661112428058090 
 10.112532198107630  10.130851361416708   1.661636436458265 
  8.814033066392563  12.296495534861741   1.660883550331875 
 -7.463205320682482  14.478184886105668   1.660562193642210 
  0.058363458767114   1.472715054637908   1.661705073476070 
 -1.203800158844878   3.624447487733997   1.662600671459730 
 -2.464926021144958   5.788404806060683   1.660902427878870 
 -3.719357977321089   7.962787163444443   1.660432167942660 
 -4.962114843511197  10.139326343780219   1.661390299941345 
 -6.217159964400875  12.310247318963979   1.661232128602770 
 -4.971519399407321  14.480575841183036   1.660878927243240 
  2.554664471116938   1.475855648850340   1.660647236334210 
  1.297458199850390   3.635618102900790   1.661751557785365 
  0.016270509807179   5.790294520291490   1.660852772366775 
 -1.265495719197281   7.968489553399682   1.660348275804030 
 -2.508642296568573  10.146557146515311   1.661008237585035 
 -3.732302393095597  12.314396828772825   1.661061914251230 
 -2.477708473106205  14.476958407825151   1.660828624454295 
  5.047930711160660   1.463179813968954   1.661337026520480 
  3.813083668809477   3.652241869059084   1.661209798937925 
  2.514228267537891   5.805145231349542   1.660412423128290 
  1.168496836370158   7.980128933885046   1.660025888875890 
 -0.069103025825763  10.156827712333065   1.660867180703850 
 -1.245861147712378  12.318326552323478   1.661663580229005 
  0.026969269446713  14.465301170920680   1.661245337595990 
  7.556092116721743   1.442030832095507   1.661139637310400 
  6.323721104232428   3.595221690527995   1.661888540793195 
  5.118115899301866   5.732991824613880   1.662256661263095 
  2.366717303323740  10.103515207423237   1.661537831918430 
  1.261770515813734  12.300763689897702   1.661922853424175 
  2.520162597234162  14.492552960523721   1.661476456076535 
 10.061072396498268   1.444538788103825   1.660480945530180 
  8.841519206414647   3.578443626408877   1.660760904203355 
  7.651354177403098   5.706010020111195   1.662235175605845 
  6.529245246024290   7.833544917685179   1.662428941606635 
  3.749029755742685  12.376417527397809   1.660972779727590 
  5.051580316266383  14.492303179190799   1.660563533469135 
 12.569050377008503   1.455461686837459   1.660935214374240 
 11.334825973534864   3.603648864135807   1.660127862102570 
 10.114270063492146   5.758913035979448   1.660593179022045 
  8.912058745484092   7.929453861035260   1.661831868834795 
  7.660396842432038  10.091480462353788   1.661195281827180 
  6.330976196369452  12.373196855881350   1.660335136203375 
  5.001981677989146  10.059140237630626   1.665546087401370 
  8.815404968323136  13.747678505331265   1.660180446245595 
 16.339103747772160   0.756452222079660   1.661128715000100 
 15.079311778664829   2.902777338648062   1.662062758048275 
 13.826160876592137   5.059868891664398   1.660504996537440 
 12.581025198547714   7.223790011502801   1.660322167460805 
 11.338393205994553   9.398236115587899   1.661248025781405 
 10.066688154138411  11.574815796688789   1.661211549301650 
 -6.217778760003380  13.755542447914150   1.660481388879390 
  1.307014408534537   0.750175377110335   1.660460145087615 
  0.056132950175507   2.915377729947934   1.662271847884530 
 -1.215125623873352   5.065579165476284   1.661333586231315 
 -2.484875887627842   7.231897897339102   1.660040935153575 
 -3.732756828512513   9.408136550969031   1.660686227315130 
 -4.974231813689027  11.584214931159218   1.661005128599970 
 -3.727027808895081  13.758814510598453   1.660575646859130 
  3.798697698925359   0.751145544562415   1.660634782337250 
  2.564225467272206   2.936207153897530   1.660635196938150 
  1.286703601116355   5.080540785381356   1.660967399473530 
 -0.026058558362198   7.230216944535361   1.660051106693850 
 -1.281952815399604   9.412802843197923   1.660401787272555 
 -2.490765461940611  11.590122748978475   1.661235702983595 
 -1.231052720397136  13.757755286244649   1.661010314323380 
  6.294780361835589   0.743383497234062   1.660883077230960 
  5.055894976770482   2.922430342609808   1.661318584402395 
  3.829124838490706   5.150784576521027   1.661161263494625 
  2.414997097928760   7.238247579376499   1.658995908876390 
  1.139212610700611   9.411441467303851   1.660374116630025 
 -0.002854190192395  11.593427383328029   1.661480436080235 
  1.277358267777657  13.745674689700937   1.661544856881915 
  8.804295978162532   0.728459305321480   1.660600488608775 
  7.569182789577448   2.888310475225933   1.661095256057325 
  6.349989524430578   5.059868891664398   1.662125346735375 
  3.591650264796146   7.881003968950774   1.658159398152120 
  3.470927683988850   9.207760084723180   1.660685780945100 
  2.516955338993474  11.560097277188619   1.661689400805510 
  3.768901078704350  13.799782922179372   1.660629775691025 
 11.308085661043528   0.743390116292202   1.660824453156360 
 10.081408191564789   2.879443416546653   1.659917697855870 
  8.870603052638229   5.012478811061179   1.660931022290010 
  7.696099562658965   7.123407176355167   1.662084411903105 
  6.522849147868950   9.192290183991961   1.661279205880785 
  5.038784100883285  11.798965106795208   1.660707654497910 
  6.330214259636131  13.799150874249806   1.659532123453230 
 13.823924647483455   0.747129228243047   1.661060414029365 
 12.579930537147087   2.893639956657378   1.660347995813220 
 11.345864777533441   5.045374030546206   1.659907699601085 
 10.124997289567890   7.203840261673972   1.660957249634565 
  8.890824011405931   9.375341093852411   1.661285550025395 
  7.556886505806233  11.550503575825983   1.660681292198130 
