Species order: X N B                    
   2.51242800000000     
     5.9449720136058266    0.0000000000000000    0.0000000000000000
    -2.9724860068029120    5.1484967885702053   -0.0000000000000001
     0.0000000000000000    0.0000000000000009    5.3101128803662583
   Ga   N    B 
     1   144   143
Direct
  0.4444444444444429  0.3888888888888857  0.3750000000000000
  0.1110906677664673  0.0555368670689027  0.1247445474274424
  0.6111370429791245  0.5555989808806098  0.1242576402486460
  0.4444461993024372  0.0555368670689027  0.1247445474274424
  0.9444475447006242  0.5555622626249931  0.1250268355900671
  0.7777777777777786  0.0555555555555571  0.1250091041400118
  0.1111111111111143  0.7222222222222214  0.6250228374432913
  0.4444461993024372  0.7222426655668782  0.6252554525725851
  0.2777343524527118  0.2221962903542100  0.6257423597513475
  0.7777964662644329  0.7222426655668782  0.6252554525725851
  0.6111210243581917  0.2222123089751520  0.6254130345668740
  0.9444324507428103  0.2222207611857386  0.6250004980971320
  0.2777710707083333  0.7222186154089529  0.1250268355900671
  0.1110912846169801  0.2222123089751520  0.1245869654331360
  0.4444619379014939  0.2221962903542100  0.1242576402486460
  0.6111210243581917  0.7222420487163858  0.1245869654331360
  0.9444475447006242  0.7222186154089529  0.1250268355900671
  0.7777883104429739  0.2222207611857386  0.1249995019028808
  0.1111147179243653  0.8888857886327044  0.6249731644099491
  0.4444530065221285  0.8888931699277283  0.6249563516178537
  0.2777343524527118  0.3888713954318347  0.6257423597513475
  0.6111370429791245  0.3888713954318347  0.6257423597513475
  0.7777883104429739  0.8889008825905182  0.6250004980971320
  0.9444401634056003  0.3888803268112000  0.6249563516178537
  0.1110906677664673  0.3888871340308914  0.1247445474274424
  0.2777710707083333  0.8888857886327044  0.1250268355900671
  0.6111125721476314  0.8889008825905182  0.1249995019028808
  0.4444444444444429  0.3888888888888857  0.1271492346479043
  0.9444401634056003  0.8888931699277283  0.1250436483821542
  0.7777964662644329  0.3888871340308914  0.1247445474274424
  0.2777704866728654  0.5555628466604544  0.6253449021678729
  0.1110906677664673  0.0555368670689027  0.6252554525725851
  0.6111370429791245  0.5555989808806098  0.6257423597513475
  0.4444461993024372  0.0555368670689027  0.6252554525725851
  0.9444475447006242  0.5555622626249931  0.6249731644099491
  0.1111147179243653  0.5555622626249931  0.1250268355900671
  0.7777777777777786  0.0555555555555571  0.6249908958599597
  0.2777704866728654  0.0555409733457393  0.1246550978321431
  0.4444619379014939  0.5555989808806098  0.1242576402486460
  0.7777923599876049  0.5555628466604544  0.1246550978321431
  0.6111125721476314  0.0555450228903798  0.1249995019028808
  0.4444619379014939  0.5555989808806098  0.6257423597513475
  0.9444324507428103  0.0555450228903798  0.1249995019028808
  0.2777710707083333  0.7222186154089529  0.6249731644099491
  0.1110912846169801  0.2222123089751520  0.6254130345668737
  0.4444619379014939  0.2221962903542100  0.6257423597513475
  0.6111210243581917  0.7222420487163858  0.6254130345668740
  0.9444475447006242  0.7222186154089529  0.6249731644099491
  0.7777883104429739  0.2222207611857386  0.6250004980971320
  0.1111111111111143  0.7222222222222214  0.1249771625566955
  0.4444461993024372  0.7222426655668782  0.1247445474274424
  0.2777343524527118  0.2221962903542100  0.1242576402486460
  0.7777964662644329  0.7222426655668782  0.1247445474274424
  0.6111210243581917  0.2222123089751520  0.1245869654331360
  0.9444324507428103  0.2222207611857386  0.1249995019028808
  0.1110906677664673  0.3888871340308914  0.6252554525725851
  0.2777710707083333  0.8888857886327044  0.6249731644099491
  0.6111125721476314  0.8889008825905182  0.6250004980971320
  0.4444444444444429  0.3888888888888857  0.6228507653520805
  0.9444401634056003  0.8888931699277283  0.6249563516178537
  0.1111147179243653  0.8888857886327044  0.1250268355900671
  0.7777964662644329  0.3888871340308914  0.6252554525725851
  0.4444530065221285  0.8888931699277283  0.1250436483821542
  0.2777343524527118  0.3888713954318347  0.1242576402486460
  0.2777704866728654  0.5555628466604544  0.1246550978321431
  0.6111370429791245  0.3888713954318347  0.1242576402486460
  0.7777883104429739  0.8889008825905182  0.1249995019028808
  0.9444401634056003  0.3888803268112000  0.1250436483821542
  0.1111147179243653  0.5555622626249931  0.6249731644099491
  0.2777704866728654  0.0555409733457393  0.6253449021678729
  0.7777923599876049  0.5555628466604544  0.6253449021678729
  0.6111125721476314  0.0555450228903798  0.6250004980971320
  0.9444324507428103  0.0555450228903798  0.6250004980971320
  0.0544459769959277  0.1103694902913800  0.3750000000000000
  0.5561148195037022  0.6122296390074045  0.3750000000000000
  0.3877257247529193  0.1046326111565217  0.3750000000000000
  0.8911389363121877  0.6122361348227577  0.3750000000000000
  0.7224195779007919  0.1109137554325416  0.3750000000000000
  0.0555578937606918  0.7777754395726284  0.8750000000000000
  0.3888935160500982  0.7777793107721305  0.8750000000000000
  0.2222240639948903  0.2777786986641270  0.8750000000000000
  0.7222252957457959  0.7777728689760736  0.8750000000000000
  0.5555546346692143  0.2777786986641270  0.8750000000000000
  0.8888878365784564  0.2777756731569460  0.8750000000000000
  0.2217871936266389  0.7775602634799962  0.3750000000000000
  0.0544459769959277  0.2774098200378750  0.3750000000000000
  0.3778593844640523  0.2557187689281367  0.3750000000000000
  0.5559235132954228  0.7788873563373896  0.3750000000000000
  0.8907030794202538  0.7792434411664866  0.3750000000000000
  0.7229638430419546  0.2774098200378750  0.3750000000000000
  0.0555540225611992  0.9444475386112788  0.8750000000000000
  0.3888935160500982  0.9444475386112788  0.8750000000000000
  0.2222136999365057  0.4444461584118966  0.8750000000000000
  0.5555415297982015  0.4444374315657650  0.8750000000000000
  0.7222240602210139  0.9444481204420386  0.8750000000000000
  0.8888857947220498  0.4444398172832304  0.8750000000000000
  0.0540898921668317  0.4447929715870763  0.3750000000000000
  0.2210971985105754  0.9421943970211409  0.3750000000000000
  0.5558477751773565  0.9445905542553377  0.3750000000000000
  0.3778593844640523  0.4554739488692763  0.3750000000000000
  0.8887427790779909  0.9445905542553377  0.3750000000000000
  0.7287007221767946  0.4456076085804094  0.3750000000000000
  0.2222170567842962  0.6111162765490509  0.8750000000000000
  0.0555604643572630  0.1111080375875445  0.8750000000000000
  0.5555546346692143  0.6111092693384175  0.8750000000000000
  0.3888871749214320  0.1111008748579615  0.8750000000000000
  0.8888992197647650  0.6111162765490509  0.8750000000000000
  0.0557730698533477  0.6115461397066919  0.3750000000000000
  0.7222240602210139  0.1111092731123165  0.8750000000000000
  0.2169068864035852  0.1046326111565218  0.3750000000000000
  0.3877257247529192  0.6164264469297440  0.3750000000000000
  0.7287007221767946  0.6164264469297440  0.3750000000000000
  0.5559235132954228  0.1103694902913800  0.3750000000000000
  0.3888871749214320  0.6111196333968413  0.8750000000000000
  0.8884941775317293  0.1109137554325416  0.3750000000000000
  0.2222175458119527  0.7777754395726284  0.8750000000000000
  0.0555604643572630  0.2777857601030493  0.8750000000000000
  0.3888959017675636  0.2777918035351492  0.8750000000000000
  0.5555475732302606  0.7777728689760736  0.8750000000000000
  0.8888857947220498  0.7777793107721305  0.8750000000000000
  0.7222252957457959  0.2777857601030493  0.8750000000000000
  0.0557730698533477  0.7775602634799962  0.3750000000000000
  0.3885403617462523  0.7792434411664866  0.3750000000000000
  0.2211036943259394  0.2772185138296335  0.3750000000000000
  0.7229638430419546  0.7788873563373896  0.3750000000000000
  0.5561148195037022  0.2772185138296335  0.3750000000000000
  0.8887427790779909  0.2774855581559736  0.3750000000000000
  0.0555540225611992  0.4444398172832304  0.8750000000000000
  0.2222170567842962  0.9444341135685635  0.8750000000000000
  0.5555576601764031  0.9444454967548722  0.8750000000000000
  0.3888959017675636  0.4444374315657650  0.8750000000000000
  0.8888878365784564  0.9444454967548722  0.8750000000000000
  0.0540898921668317  0.9426302539130748  0.3750000000000000
  0.7222324584753855  0.4444461584118966  0.8750000000000000
  0.3885403617462523  0.9426302539130748  0.3750000000000000
  0.2169068864035851  0.4456076085804094  0.3750000000000000
  0.2210971985105754  0.6122361348227577  0.3750000000000000
  0.5776145644052241  0.4554739488692763  0.3750000000000000
  0.7224195779007919  0.9448391558015993  0.3750000000000000
  0.8907030794202538  0.4447929715870763  0.3750000000000000
  0.0555578937606918  0.6111157875213886  0.8750000000000000
  0.2222136999365057  0.1111008748579615  0.8750000000000000
  0.7222324584753855  0.6111196333968413  0.8750000000000000
  0.5555475732302606  0.1111080375875445  0.8750000000000000
  0.8888852128912900  0.1111092731123165  0.8750000000000000
  0.1076660127357314  0.0523701306700211  0.3750000000000000
  0.6192210161542631  0.5624347815568193  0.3750000000000000
  0.4447041179342788  0.0523701306700211  0.3750000000000000
  0.9453988218259803  0.5558777135997753  0.3750000000000000
  0.7777777777777786  0.0555555555555571  0.3750000000000000
  0.1111111111111143  0.7222222222222214  0.8750000000000000
  0.4444393348924408  0.7222273533425453  0.8750000000000000
  0.2777258244224304  0.2222392454410425  0.8750000000000000
  0.7777880184501129  0.7222273533425453  0.8750000000000000
  0.6110825136283938  0.2222508197049458  0.8750000000000000
  0.9444097361853321  0.2222539311429056  0.8750000000000000
  0.2774556197335626  0.7228544415595662  0.3750000000000000
  0.1101025403387205  0.2217179368360216  0.3750000000000000
  0.4432137654026060  0.2141123171790795  0.3750000000000000
  0.6116153964973255  0.7232307929946138  0.3750000000000000
  0.9453988218259803  0.7228544415595662  0.3750000000000000
  0.7779778760183357  0.2217776994735202  0.3750000000000000
  0.1111741428747495  0.8889129023693567  0.8750000000000000
  0.4445070472663391  0.8889201902998329  0.8750000000000000
  0.2777258244224304  0.3888199123147356  0.8750000000000000
  0.6110940878922975  0.3888199123147356  0.8750000000000000
  0.7778441949575501  0.8889235971479965  0.8750000000000000
  0.9444131430334957  0.3888262860669895  0.8750000000000000
  0.1076660127357314  0.3886292153990498  0.3750000000000000
  0.2774556197335626  0.8879345115073483  0.3750000000000000
  0.6115556338597948  0.8895335098781374  0.3750000000000000
  0.9442349101183447  0.8890984232149839  0.3750000000000000
  0.7809632026632950  0.3886292153990498  0.3750000000000000
  0.2777364854845318  0.5555968478487684  0.8750000000000000
  0.1111059799907961  0.0555453148832368  0.8750000000000000
  0.6110940878922975  0.5556075089109027  0.8750000000000000
  0.4444393348924408  0.0555453148832368  0.8750000000000000
  0.9444204309639719  0.5555945738387328  0.8750000000000000
  0.1104788917737790  0.5558777135997753  0.3750000000000000
  0.7777777777777786  0.0555555555555571  0.8750000000000000
  0.2760964525930004  0.0521929051859964  0.3750000000000000
  0.4432137654026060  0.5624347815568193  0.3750000000000000
  0.7811404281473349  0.5572368807403185  0.3750000000000000
  0.6115556338597948  0.0553554573150185  0.3750000000000000
  0.4445134210185930  0.5556075089109027  0.8750000000000000
  0.9437998234551912  0.0553554573150185  0.3750000000000000
  0.2777387594945728  0.7221591904585791  0.8750000000000000
  0.1111683060765684  0.2222508197049458  0.8750000000000000
  0.4445134210185930  0.2222392454410425  0.8750000000000000
  0.6110825136283938  0.7221650272567870  0.8750000000000000
  0.9444204309639719  0.7221591904585791  0.8750000000000000
  0.7778441949575501  0.2222539311429056  0.8750000000000000
  0.1111111111111143  0.7222222222222214  0.3750000000000000
  0.4447041179342788  0.7256673205976286  0.3750000000000000
  0.2708985517764749  0.2141123171790796  0.3750000000000000
  0.7809632026632950  0.7256673205976290  0.3750000000000000
  0.6116153964973255  0.2217179368360216  0.3750000000000000
  0.9437998234551912  0.2217776994735202  0.3750000000000000
  0.1111059799907961  0.3888939984408878  0.8750000000000000
  0.2777387594945728  0.8889129023693567  0.8750000000000000
  0.6110794021904337  0.8889235971479965  0.8750000000000000
  0.4444444444444429  0.3888888888888857  0.8750000000000000
  0.9444131430334957  0.8889201902998329  0.8750000000000000
  0.1104788917737790  0.8879345115073483  0.3750000000000000
  0.7777880184501129  0.3888939984408878  0.8750000000000000
  0.4448635130966269  0.8890984232149839  0.3750000000000000
  0.2708985517764749  0.3901195679307226  0.3750000000000000
  0.2760964525930004  0.5572368807403185  0.3750000000000000
  0.6192210161542631  0.3901195679307226  0.3750000000000000
  0.7779778760183357  0.8895335098781374  0.3750000000000000
  0.9442349101183447  0.3884698202367017  0.3750000000000000
  0.1111741428747495  0.5555945738387328  0.8750000000000000
  0.2777364854845318  0.0554729709691051  0.8750000000000000
  0.7778603623642720  0.5555968478487684  0.8750000000000000
  0.6110794021904337  0.0554891383757808  0.8750000000000000
  0.9444097361853321  0.0554891383757808  0.8750000000000000
  0.0555609084369870  0.1110579892448141  0.1248099752932388
  0.5555926560521136  0.6111853121042292  0.1243452396295369
  0.3889081622284937  0.1110245933733470  0.1245005695421034
  0.8889019331936278  0.6111176332634667  0.1249267292918856
  0.7222563056674917  0.1110770276658644  0.1250120044152524
  0.0555898324288753  0.7777435009044847  0.6249983248594364
  0.3889158295184789  0.7777545666514625  0.6250331448574639
  0.2221480212291269  0.2777406772812211  0.6256547603704686
  0.7222753440884943  0.7777724248963594  0.6251900247067752
  0.5555926560521136  0.2777406772812211  0.6256547603704686
  0.8888891148075031  0.2777782296150205  0.6249887186302562
  0.2221536684755838  0.7777435009044847  0.1250016751405639
  0.0555609084369870  0.2778362525255056  0.1248099752932388
  0.3888024663019766  0.2776049326039816  0.1249987054312333
  0.5554970808078274  0.7777724248963594  0.1248099752932388
  0.8888387371329429  0.7777545666514625  0.1249668551425583
  0.7222753440884943  0.2778362525255056  0.1248099752932388
  0.0555787666819079  0.9444945962003857  0.6250331448574639
  0.3889158295184789  0.9444945962003857  0.6250331448574639
  0.2221164311448386  0.4444251711048349  0.6254994304578965
  0.5557284007293753  0.4445308670313520  0.6250012945687646
  0.7222563056674917  0.9445126113349489  0.6249879955847863
  0.8888387371329429  0.4444175038148497  0.6250331448574639
  0.0555787666819079  0.4444175038148497  0.1249668551425583
  0.2222157000698603  0.9444314001397008  0.1249267292918856
  0.5555551037183012  0.9444442185258255  0.1250112813697599
  0.3888024663019766  0.4445308670313520  0.1249987054312333
  0.8888891148075031  0.9444442185258255  0.1250112813697599
  0.7223087399600182  0.4444251711048349  0.1245005695421034
  0.2222157000698603  0.6111176332634667  0.6250732707081222
  0.0555609084369870  0.1110579892448160  0.6251900247067752
  0.5555926560521136  0.6111853121042292  0.6256547603704686
  0.3889081622284937  0.1110245933733470  0.6254994304578965
  0.8889019331936278  0.6111176332634667  0.6250732707081222
  0.0555898324288753  0.6111796648577508  0.1250016751405639
  0.7222563056674917  0.1110770276658644  0.6249879955847863
  0.2221164311448386  0.1110245933733470  0.1245005695421034
  0.3889081622284937  0.6112169021885042  0.1245005695421034
  0.7223087399600182  0.6112169021885042  0.1245005695421034
  0.5554970808078274  0.1110579892448141  0.1248099752932388
  0.3889081622284937  0.6112169021885042  0.6254994304578965
  0.8888207219983797  0.1110770276658644  0.1250120044152524
  0.2221536684755838  0.7777435009044847  0.6249983248594364
  0.0555609084369870  0.2778362525255056  0.6251900247067752
  0.3888024663019766  0.2776049326039816  0.6250012945687646
  0.5554970808078274  0.7777724248963594  0.6251900247067752
  0.8888387371329429  0.7777545666514625  0.6250331448574639
  0.7222753440884943  0.2778362525255056  0.6251900247067752
  0.0555898324288753  0.7777435009044847  0.1250016751405639
  0.3889158295184789  0.7777545666514625  0.1249668551425583
  0.2221480212291269  0.2777406772812211  0.1243452396295369
  0.7222753440884943  0.7777724248963594  0.1248099752932388
  0.5555926560521136  0.2777406772812211  0.1243452396295369
  0.8888891148075031  0.2777782296150205  0.1250112813697599
  0.0555787666819079  0.4444175038148497  0.6250331448574639
  0.2222157000698603  0.9444314001397008  0.6250732707081222
  0.5555551037183012  0.9444442185258255  0.6249887186302562
  0.3888024663019766  0.4445308670313520  0.6250012945687646
  0.8888891148075031  0.9444442185258255  0.6249887186302562
  0.0555787666819079  0.9444945962003857  0.1249668551425583
  0.7223087399600182  0.4444251711048349  0.6254994304578965
  0.3889158295184789  0.9444945962003857  0.1249668551425583
  0.2221164311448386  0.4444251711048349  0.1245005695421034
  0.2222157000698603  0.6111176332634667  0.1249267292918856
  0.5557284007293753  0.4445308670313520  0.1249987054312333
  0.7222563056674917  0.9445126113349489  0.1250120044152524
  0.8888387371329429  0.4444175038148497  0.1249668551425583
  0.0555898324288753  0.6111796648577508  0.6249983248594364
  0.2221164311448386  0.1110245933733470  0.6254994304578965
  0.7223087399600182  0.6112169021885042  0.6254994304578965
  0.5554970808078274  0.1110579892448160  0.6251900247067752
  0.8888207219983797  0.1110770276658644  0.6249879955847863
 
  0.00000000E+00  0.00000000E+00  0.00000000E+00
  0.00000000E+00  0.00000000E+00  0.00000000E+00
  0.00000000E+00  0.00000000E+00  0.00000000E+00
  0.00000000E+00  0.00000000E+00  0.00000000E+00
  0.00000000E+00  0.00000000E+00  0.00000000E+00
  0.00000000E+00  0.00000000E+00  0.00000000E+00
  0.00000000E+00  0.00000000E+00  0.00000000E+00
  0.00000000E+00  0.00000000E+00  0.00000000E+00
  0.00000000E+00  0.00000000E+00  0.00000000E+00
  0.00000000E+00  0.00000000E+00  0.00000000E+00
  0.00000000E+00  0.00000000E+00  0.00000000E+00
  0.00000000E+00  0.00000000E+00  0.00000000E+00
  0.00000000E+00  0.00000000E+00  0.00000000E+00
  0.00000000E+00  0.00000000E+00  0.00000000E+00
  0.00000000E+00  0.00000000E+00  0.00000000E+00
  0.00000000E+00  0.00000000E+00  0.00000000E+00
  0.00000000E+00  0.00000000E+00  0.00000000E+00
  0.00000000E+00  0.00000000E+00  0.00000000E+00
  0.00000000E+00  0.00000000E+00  0.00000000E+00
  0.00000000E+00  0.00000000E+00  0.00000000E+00
  0.00000000E+00  0.00000000E+00  0.00000000E+00
  0.00000000E+00  0.00000000E+00  0.00000000E+00
  0.00000000E+00  0.00000000E+00  0.00000000E+00
  0.00000000E+00  0.00000000E+00  0.00000000E+00
  0.00000000E+00  0.00000000E+00  0.00000000E+00
  0.00000000E+00  0.00000000E+00  0.00000000E+00
  0.00000000E+00  0.00000000E+00  0.00000000E+00
  0.00000000E+00  0.00000000E+00  0.00000000E+00
  0.00000000E+00  0.00000000E+00  0.00000000E+00
  0.00000000E+00  0.00000000E+00  0.00000000E+00
  0.00000000E+00  0.00000000E+00  0.00000000E+00
  0.00000000E+00  0.00000000E+00  0.00000000E+00
  0.00000000E+00  0.00000000E+00  0.00000000E+00
  0.00000000E+00  0.00000000E+00  0.00000000E+00
  0.00000000E+00  0.00000000E+00  0.00000000E+00
  0.00000000E+00  0.00000000E+00  0.00000000E+00
  0.00000000E+00  0.00000000E+00  0.00000000E+00
  0.00000000E+00  0.00000000E+00  0.00000000E+00
  0.00000000E+00  0.00000000E+00  0.00000000E+00
  0.00000000E+00  0.00000000E+00  0.00000000E+00
  0.00000000E+00  0.00000000E+00  0.00000000E+00
  0.00000000E+00  0.00000000E+00  0.00000000E+00
  0.00000000E+00  0.00000000E+00  0.00000000E+00
  0.00000000E+00  0.00000000E+00  0.00000000E+00
  0.00000000E+00  0.00000000E+00  0.00000000E+00
  0.00000000E+00  0.00000000E+00  0.00000000E+00
  0.00000000E+00  0.00000000E+00  0.00000000E+00
  0.00000000E+00  0.00000000E+00  0.00000000E+00
  0.00000000E+00  0.00000000E+00  0.00000000E+00
  0.00000000E+00  0.00000000E+00  0.00000000E+00
  0.00000000E+00  0.00000000E+00  0.00000000E+00
  0.00000000E+00  0.00000000E+00  0.00000000E+00
  0.00000000E+00  0.00000000E+00  0.00000000E+00
  0.00000000E+00  0.00000000E+00  0.00000000E+00
  0.00000000E+00  0.00000000E+00  0.00000000E+00
  0.00000000E+00  0.00000000E+00  0.00000000E+00
  0.00000000E+00  0.00000000E+00  0.00000000E+00
  0.00000000E+00  0.00000000E+00  0.00000000E+00
  0.00000000E+00  0.00000000E+00  0.00000000E+00
  0.00000000E+00  0.00000000E+00  0.00000000E+00
  0.00000000E+00  0.00000000E+00  0.00000000E+00
  0.00000000E+00  0.00000000E+00  0.00000000E+00
  0.00000000E+00  0.00000000E+00  0.00000000E+00
  0.00000000E+00  0.00000000E+00  0.00000000E+00
  0.00000000E+00  0.00000000E+00  0.00000000E+00
  0.00000000E+00  0.00000000E+00  0.00000000E+00
  0.00000000E+00  0.00000000E+00  0.00000000E+00
  0.00000000E+00  0.00000000E+00  0.00000000E+00
  0.00000000E+00  0.00000000E+00  0.00000000E+00
  0.00000000E+00  0.00000000E+00  0.00000000E+00
  0.00000000E+00  0.00000000E+00  0.00000000E+00
  0.00000000E+00  0.00000000E+00  0.00000000E+00
  0.00000000E+00  0.00000000E+00  0.00000000E+00
  0.00000000E+00  0.00000000E+00  0.00000000E+00
  0.00000000E+00  0.00000000E+00  0.00000000E+00
  0.00000000E+00  0.00000000E+00  0.00000000E+00
  0.00000000E+00  0.00000000E+00  0.00000000E+00
  0.00000000E+00  0.00000000E+00  0.00000000E+00
  0.00000000E+00  0.00000000E+00  0.00000000E+00
  0.00000000E+00  0.00000000E+00  0.00000000E+00
  0.00000000E+00  0.00000000E+00  0.00000000E+00
  0.00000000E+00  0.00000000E+00  0.00000000E+00
  0.00000000E+00  0.00000000E+00  0.00000000E+00
  0.00000000E+00  0.00000000E+00  0.00000000E+00
  0.00000000E+00  0.00000000E+00  0.00000000E+00
  0.00000000E+00  0.00000000E+00  0.00000000E+00
  0.00000000E+00  0.00000000E+00  0.00000000E+00
  0.00000000E+00  0.00000000E+00  0.00000000E+00
  0.00000000E+00  0.00000000E+00  0.00000000E+00
  0.00000000E+00  0.00000000E+00  0.00000000E+00
  0.00000000E+00  0.00000000E+00  0.00000000E+00
  0.00000000E+00  0.00000000E+00  0.00000000E+00
  0.00000000E+00  0.00000000E+00  0.00000000E+00
  0.00000000E+00  0.00000000E+00  0.00000000E+00
  0.00000000E+00  0.00000000E+00  0.00000000E+00
  0.00000000E+00  0.00000000E+00  0.00000000E+00
  0.00000000E+00  0.00000000E+00  0.00000000E+00
  0.00000000E+00  0.00000000E+00  0.00000000E+00
  0.00000000E+00  0.00000000E+00  0.00000000E+00
  0.00000000E+00  0.00000000E+00  0.00000000E+00
  0.00000000E+00  0.00000000E+00  0.00000000E+00
  0.00000000E+00  0.00000000E+00  0.00000000E+00
  0.00000000E+00  0.00000000E+00  0.00000000E+00
  0.00000000E+00  0.00000000E+00  0.00000000E+00
  0.00000000E+00  0.00000000E+00  0.00000000E+00
  0.00000000E+00  0.00000000E+00  0.00000000E+00
  0.00000000E+00  0.00000000E+00  0.00000000E+00
  0.00000000E+00  0.00000000E+00  0.00000000E+00
  0.00000000E+00  0.00000000E+00  0.00000000E+00
  0.00000000E+00  0.00000000E+00  0.00000000E+00
  0.00000000E+00  0.00000000E+00  0.00000000E+00
  0.00000000E+00  0.00000000E+00  0.00000000E+00
  0.00000000E+00  0.00000000E+00  0.00000000E+00
  0.00000000E+00  0.00000000E+00  0.00000000E+00
  0.00000000E+00  0.00000000E+00  0.00000000E+00
  0.00000000E+00  0.00000000E+00  0.00000000E+00
  0.00000000E+00  0.00000000E+00  0.00000000E+00
  0.00000000E+00  0.00000000E+00  0.00000000E+00
  0.00000000E+00  0.00000000E+00  0.00000000E+00
  0.00000000E+00  0.00000000E+00  0.00000000E+00
  0.00000000E+00  0.00000000E+00  0.00000000E+00
  0.00000000E+00  0.00000000E+00  0.00000000E+00
  0.00000000E+00  0.00000000E+00  0.00000000E+00
  0.00000000E+00  0.00000000E+00  0.00000000E+00
  0.00000000E+00  0.00000000E+00  0.00000000E+00
  0.00000000E+00  0.00000000E+00  0.00000000E+00
  0.00000000E+00  0.00000000E+00  0.00000000E+00
  0.00000000E+00  0.00000000E+00  0.00000000E+00
  0.00000000E+00  0.00000000E+00  0.00000000E+00
  0.00000000E+00  0.00000000E+00  0.00000000E+00
  0.00000000E+00  0.00000000E+00  0.00000000E+00
  0.00000000E+00  0.00000000E+00  0.00000000E+00
  0.00000000E+00  0.00000000E+00  0.00000000E+00
  0.00000000E+00  0.00000000E+00  0.00000000E+00
  0.00000000E+00  0.00000000E+00  0.00000000E+00
  0.00000000E+00  0.00000000E+00  0.00000000E+00
  0.00000000E+00  0.00000000E+00  0.00000000E+00
  0.00000000E+00  0.00000000E+00  0.00000000E+00
  0.00000000E+00  0.00000000E+00  0.00000000E+00
  0.00000000E+00  0.00000000E+00  0.00000000E+00
  0.00000000E+00  0.00000000E+00  0.00000000E+00
  0.00000000E+00  0.00000000E+00  0.00000000E+00
  0.00000000E+00  0.00000000E+00  0.00000000E+00
  0.00000000E+00  0.00000000E+00  0.00000000E+00
  0.00000000E+00  0.00000000E+00  0.00000000E+00
  0.00000000E+00  0.00000000E+00  0.00000000E+00
  0.00000000E+00  0.00000000E+00  0.00000000E+00
  0.00000000E+00  0.00000000E+00  0.00000000E+00
  0.00000000E+00  0.00000000E+00  0.00000000E+00
  0.00000000E+00  0.00000000E+00  0.00000000E+00
  0.00000000E+00  0.00000000E+00  0.00000000E+00
  0.00000000E+00  0.00000000E+00  0.00000000E+00
  0.00000000E+00  0.00000000E+00  0.00000000E+00
  0.00000000E+00  0.00000000E+00  0.00000000E+00
  0.00000000E+00  0.00000000E+00  0.00000000E+00
  0.00000000E+00  0.00000000E+00  0.00000000E+00
  0.00000000E+00  0.00000000E+00  0.00000000E+00
  0.00000000E+00  0.00000000E+00  0.00000000E+00
  0.00000000E+00  0.00000000E+00  0.00000000E+00
  0.00000000E+00  0.00000000E+00  0.00000000E+00
  0.00000000E+00  0.00000000E+00  0.00000000E+00
  0.00000000E+00  0.00000000E+00  0.00000000E+00
  0.00000000E+00  0.00000000E+00  0.00000000E+00
  0.00000000E+00  0.00000000E+00  0.00000000E+00
  0.00000000E+00  0.00000000E+00  0.00000000E+00
  0.00000000E+00  0.00000000E+00  0.00000000E+00
  0.00000000E+00  0.00000000E+00  0.00000000E+00
  0.00000000E+00  0.00000000E+00  0.00000000E+00
  0.00000000E+00  0.00000000E+00  0.00000000E+00
  0.00000000E+00  0.00000000E+00  0.00000000E+00
  0.00000000E+00  0.00000000E+00  0.00000000E+00
  0.00000000E+00  0.00000000E+00  0.00000000E+00
  0.00000000E+00  0.00000000E+00  0.00000000E+00
  0.00000000E+00  0.00000000E+00  0.00000000E+00
  0.00000000E+00  0.00000000E+00  0.00000000E+00
  0.00000000E+00  0.00000000E+00  0.00000000E+00
  0.00000000E+00  0.00000000E+00  0.00000000E+00
  0.00000000E+00  0.00000000E+00  0.00000000E+00
  0.00000000E+00  0.00000000E+00  0.00000000E+00
  0.00000000E+00  0.00000000E+00  0.00000000E+00
  0.00000000E+00  0.00000000E+00  0.00000000E+00
  0.00000000E+00  0.00000000E+00  0.00000000E+00
  0.00000000E+00  0.00000000E+00  0.00000000E+00
  0.00000000E+00  0.00000000E+00  0.00000000E+00
  0.00000000E+00  0.00000000E+00  0.00000000E+00
  0.00000000E+00  0.00000000E+00  0.00000000E+00
  0.00000000E+00  0.00000000E+00  0.00000000E+00
  0.00000000E+00  0.00000000E+00  0.00000000E+00
  0.00000000E+00  0.00000000E+00  0.00000000E+00
  0.00000000E+00  0.00000000E+00  0.00000000E+00
  0.00000000E+00  0.00000000E+00  0.00000000E+00
  0.00000000E+00  0.00000000E+00  0.00000000E+00
  0.00000000E+00  0.00000000E+00  0.00000000E+00
  0.00000000E+00  0.00000000E+00  0.00000000E+00
  0.00000000E+00  0.00000000E+00  0.00000000E+00
  0.00000000E+00  0.00000000E+00  0.00000000E+00
  0.00000000E+00  0.00000000E+00  0.00000000E+00
  0.00000000E+00  0.00000000E+00  0.00000000E+00
  0.00000000E+00  0.00000000E+00  0.00000000E+00
  0.00000000E+00  0.00000000E+00  0.00000000E+00
  0.00000000E+00  0.00000000E+00  0.00000000E+00
  0.00000000E+00  0.00000000E+00  0.00000000E+00
  0.00000000E+00  0.00000000E+00  0.00000000E+00
  0.00000000E+00  0.00000000E+00  0.00000000E+00
  0.00000000E+00  0.00000000E+00  0.00000000E+00
  0.00000000E+00  0.00000000E+00  0.00000000E+00
  0.00000000E+00  0.00000000E+00  0.00000000E+00
  0.00000000E+00  0.00000000E+00  0.00000000E+00
  0.00000000E+00  0.00000000E+00  0.00000000E+00
  0.00000000E+00  0.00000000E+00  0.00000000E+00
  0.00000000E+00  0.00000000E+00  0.00000000E+00
  0.00000000E+00  0.00000000E+00  0.00000000E+00
  0.00000000E+00  0.00000000E+00  0.00000000E+00
  0.00000000E+00  0.00000000E+00  0.00000000E+00
  0.00000000E+00  0.00000000E+00  0.00000000E+00
  0.00000000E+00  0.00000000E+00  0.00000000E+00
  0.00000000E+00  0.00000000E+00  0.00000000E+00
  0.00000000E+00  0.00000000E+00  0.00000000E+00
  0.00000000E+00  0.00000000E+00  0.00000000E+00
  0.00000000E+00  0.00000000E+00  0.00000000E+00
  0.00000000E+00  0.00000000E+00  0.00000000E+00
  0.00000000E+00  0.00000000E+00  0.00000000E+00
  0.00000000E+00  0.00000000E+00  0.00000000E+00
  0.00000000E+00  0.00000000E+00  0.00000000E+00
  0.00000000E+00  0.00000000E+00  0.00000000E+00
  0.00000000E+00  0.00000000E+00  0.00000000E+00
  0.00000000E+00  0.00000000E+00  0.00000000E+00
  0.00000000E+00  0.00000000E+00  0.00000000E+00
  0.00000000E+00  0.00000000E+00  0.00000000E+00
  0.00000000E+00  0.00000000E+00  0.00000000E+00
  0.00000000E+00  0.00000000E+00  0.00000000E+00
  0.00000000E+00  0.00000000E+00  0.00000000E+00
  0.00000000E+00  0.00000000E+00  0.00000000E+00
  0.00000000E+00  0.00000000E+00  0.00000000E+00
  0.00000000E+00  0.00000000E+00  0.00000000E+00
  0.00000000E+00  0.00000000E+00  0.00000000E+00
  0.00000000E+00  0.00000000E+00  0.00000000E+00
  0.00000000E+00  0.00000000E+00  0.00000000E+00
  0.00000000E+00  0.00000000E+00  0.00000000E+00
  0.00000000E+00  0.00000000E+00  0.00000000E+00
  0.00000000E+00  0.00000000E+00  0.00000000E+00
  0.00000000E+00  0.00000000E+00  0.00000000E+00
  0.00000000E+00  0.00000000E+00  0.00000000E+00
  0.00000000E+00  0.00000000E+00  0.00000000E+00
  0.00000000E+00  0.00000000E+00  0.00000000E+00
  0.00000000E+00  0.00000000E+00  0.00000000E+00
  0.00000000E+00  0.00000000E+00  0.00000000E+00