B C N                                   
   1.0000000000000000     
     8.7639499999999995  -15.1796066749929999    0.0000000000000000
     8.7639499999999995   15.1796066749929999    0.0000000000000000
     0.0000000000000000    0.0000000000000000   15.0000000000000000
   B    C    N 
    47     3    47
Selective dynamics
Direct
  0.9051812544549395  0.9527462554496871  0.1110388311918250   T   T   T
  0.9047303765546525  0.0953514095162309  0.1110693271649179   T   T   T
  0.9046995091597113  0.2381111329133307  0.1110810991204948   T   T   T
  0.9047792938425159  0.3809671909509157  0.1110301665658901   T   T   T
  0.9053075394541709  0.5239205076441190  0.1110418284799253   T   T   T
  0.9062490219002479  0.6671851816359626  0.1111091756522644   T   T   T
  0.9061975195626027  0.8104653758141508  0.1110875193508664   T   T   T
  0.0478306764765018  0.9524004054652118  0.1110391379575385   T   T   T
  0.0473143581141955  0.0949676876113489  0.1110334737074178   T   T   T
  0.0475254634201932  0.2381654240780984  0.1110294134750028   T   T   T
  0.0474309007869108  0.3810146076323369  0.1110487281639792   T   T   T
  0.0478114864090108  0.5238573500016412  0.1110383992132541   T   T   T
  0.0480194191054625  0.6668630493910921  0.1110695679857178   T   T   T
  0.0482005147231147  0.8097934426537403  0.1110515828106701   T   T   T
  0.1904509310484442  0.9520911796415474  0.1110367540410509   T   T   T
  0.1896468153841093  0.0939597456181671  0.1110796722695592   T   T   T
  0.1901900655998903  0.2368148274733796  0.1109856793425604   T   T   T
  0.1907688595932072  0.3819271866647496  0.1110000785835184   T   T   T
  0.1906335822774291  0.5241341009988078  0.1111144332334996   T   T   T
  0.1900205102332941  0.6669763653020935  0.1110955409256440   T   T   T
  0.1905135508171389  0.8096880632371308  0.1110333416664100   T   T   T
  0.3332543845514223  0.9523124505144686  0.1110495662675748   T   T   T
  0.3329982967579665  0.0942375771907925  0.1111081293224728   T   T   T
  0.3305960187479032  0.2347476430954323  0.1110420573323117   T   T   T
  0.3339372016101560  0.5246653708367999  0.1110161208362022   T   T   T
  0.3318685090741068  0.6676720995960782  0.1111282089297493   T   T   T
  0.3330432830414419  0.8100890515035316  0.1110891135570673   T   T   T
  0.4761530646001695  0.9528157001030459  0.1110369892546950   T   T   T
  0.4762119433356578  0.0949871226857134  0.1110327505924872   T   T   T
  0.4760251664975965  0.2370428806360602  0.1110766181418778   T   T   T
  0.4735177401733441  0.3770409980299873  0.1109003032579510   T   T   T
  0.4732085144406967  0.6687628537775600  0.1108957370723841   T   T   T
  0.4758510295952954  0.8107344051936241  0.1110766830646826   T   T   T
  0.6190259483513177  0.9525783580701251  0.1110458621533600   T   T   T
  0.6191038830987006  0.0953353628286258  0.1110288719539990   T   T   T
  0.6190607329209306  0.2380414819980416  0.1110423143675433   T   T   T
  0.6190451779627359  0.3809431304108420  0.1110203539532440   T   T   T
  0.6229048133442118  0.5272041019322519  0.1108918478232971   T   T   T
  0.6232626593946231  0.6678002367071719  0.1108988295811982   T   T   T
  0.6189884808285165  0.8096095261109427  0.1110039191695660   T   T   T
  0.7620618497270658  0.9525461801407753  0.1110338843161669   T   T   T
  0.7619093928304687  0.0953214080024458  0.1110820603959155   T   T   T
  0.7619201604417144  0.2381268954525099  0.1110848698392454   T   T   T
  0.7620977626500348  0.3810436597026678  0.1110450453653654   T   T   T
  0.7631250796334135  0.5243600784595146  0.1110671281665822   T   T   T
  0.7656510138798435  0.6685958337650235  0.1110645494822525   T   T   T
  0.7632547054079651  0.8104515417678343  0.1110483766562870   T   T   T
  0.4701669049801192  0.5211598540998027  0.1105323025787836   T   T   T
  0.5208224099501427  0.4775092488445703  0.1106317934100310   T   T   T
  0.5216172944954851  0.6166139041948960  0.1105555459128710   T   T   T
  0.9528548738491619  0.9051738146305650  0.1110355123510075   T   T   T
  0.9521496384087839  0.0475833083544304  0.1110298228962675   T   T   T
  0.9520771626364994  0.1904259500328907  0.1110469124462447   T   T   T
  0.9521577588472453  0.3333383382990603  0.1110337957756550   T   T   T
  0.9525898683062308  0.4762050834299249  0.1109981653074140   T   T   T
  0.9530544614686410  0.6191590134563068  0.1110557871636252   T   T   T
  0.9532004921985548  0.7622942282516563  0.1110716472388319   T   T   T
  0.0953814263512748  0.9047076569622350  0.1110166950680012   T   T   T
  0.0947079347617979  0.0470200935506031  0.1110330723971816   T   T   T
  0.0941815385840944  0.1896928798158913  0.1110070359519449   T   T   T
  0.0945613455896160  0.3334532303140750  0.1110168195425413   T   T   T
  0.0953846743270552  0.4763889500591567  0.1110466376133021   T   T   T
  0.0951595681866921  0.6191202935168246  0.1110486568258014   T   T   T
  0.0954805164858764  0.7619993486704711  0.1110346297463107   T   T   T
  0.2381263052930502  0.9046601411392310  0.1110159791028645   T   T   T
  0.2378291119455389  0.0468664695096419  0.1110650095552126   T   T   T
  0.2365392353457448  0.1882297880301226  0.1110375133174093   T   T   T
  0.2292798097903091  0.3288509949801840  0.1108659296185164   T   T   T
  0.2391018852756656  0.4773854767967249  0.1110603513280267   T   T   T
  0.2373412999887059  0.6194693562795275  0.1110958571875647   T   T   T
  0.2379680317440597  0.7621405088079535  0.1110520013267878   T   T   T
  0.3809725111530877  0.9050225926112077  0.1110408267408407   T   T   T
  0.3810105094942462  0.0472039516061936  0.1110479881124597   T   T   T
  0.3807216737428109  0.1890051370228781  0.1110704918157057   T   T   T
  0.3831947519333640  0.3269726799820590  0.1109419991165734   T   T   T
  0.3838799447295303  0.4789355643126158  0.1108377940246793   T   T   T
  0.3793354384458190  0.6203715124232430  0.1110466211440271   T   T   T
  0.3806390189456385  0.7626994635087589  0.1110826795735387   T   T   T
  0.5238419838077533  0.9054699195865575  0.1110363581517367   T   T   T
  0.5239561911281709  0.0477071057373150  0.1109985785973667   T   T   T
  0.5239785261548771  0.1899297545268108  0.1110372085166351   T   T   T
  0.5241762592611988  0.3319945011270400  0.1110097014508622   T   T   T
  0.5233384513511533  0.7631978590302865  0.1110006074174576   T   T   T
  0.6665717212658644  0.9045786343239312  0.1110152960708118   T   T   T
  0.6666802745347526  0.0476381600287331  0.1110387351553491   T   T   T
  0.6667492527884852  0.1905345502926359  0.1110459417208503   T   T   T
  0.6668213419815116  0.3335765880207848  0.1110215457648753   T   T   T
  0.6675752001557999  0.4772201711300124  0.1110037192046008   T   T   T
  0.6713662660097071  0.6215837148828308  0.1109936206733702   T   T   T
  0.6677451104510670  0.7623397585054965  0.1110049527358899   T   T   T
  0.8099626594545206  0.9051991772145735  0.1110218791696925   T   T   T
  0.8093745499328477  0.0475721486646876  0.1110491425437427   T   T   T
  0.8094113190199156  0.1904649563403574  0.1110748803645419   T   T   T
  0.8095161605016670  0.3333880840668975  0.1110461422580582   T   T   T
  0.8100566950742584  0.4763717448972574  0.1110393853806246   T   T   T
  0.8113635287744603  0.6196312208870538  0.1110688708273041   T   T   T
  0.8113189406531272  0.7632497777724553  0.1110540033657293   T   T   T

  0.00000000E+00  0.00000000E+00  0.00000000E+00
  0.00000000E+00  0.00000000E+00  0.00000000E+00
  0.00000000E+00  0.00000000E+00  0.00000000E+00
  0.00000000E+00  0.00000000E+00  0.00000000E+00
  0.00000000E+00  0.00000000E+00  0.00000000E+00
  0.00000000E+00  0.00000000E+00  0.00000000E+00
  0.00000000E+00  0.00000000E+00  0.00000000E+00
  0.00000000E+00  0.00000000E+00  0.00000000E+00
  0.00000000E+00  0.00000000E+00  0.00000000E+00
  0.00000000E+00  0.00000000E+00  0.00000000E+00
  0.00000000E+00  0.00000000E+00  0.00000000E+00
  0.00000000E+00  0.00000000E+00  0.00000000E+00
  0.00000000E+00  0.00000000E+00  0.00000000E+00
  0.00000000E+00  0.00000000E+00  0.00000000E+00
  0.00000000E+00  0.00000000E+00  0.00000000E+00
  0.00000000E+00  0.00000000E+00  0.00000000E+00
  0.00000000E+00  0.00000000E+00  0.00000000E+00
  0.00000000E+00  0.00000000E+00  0.00000000E+00
  0.00000000E+00  0.00000000E+00  0.00000000E+00
  0.00000000E+00  0.00000000E+00  0.00000000E+00
  0.00000000E+00  0.00000000E+00  0.00000000E+00
  0.00000000E+00  0.00000000E+00  0.00000000E+00
  0.00000000E+00  0.00000000E+00  0.00000000E+00
  0.00000000E+00  0.00000000E+00  0.00000000E+00
  0.00000000E+00  0.00000000E+00  0.00000000E+00
  0.00000000E+00  0.00000000E+00  0.00000000E+00
  0.00000000E+00  0.00000000E+00  0.00000000E+00
  0.00000000E+00  0.00000000E+00  0.00000000E+00
  0.00000000E+00  0.00000000E+00  0.00000000E+00
  0.00000000E+00  0.00000000E+00  0.00000000E+00
  0.00000000E+00  0.00000000E+00  0.00000000E+00
  0.00000000E+00  0.00000000E+00  0.00000000E+00
  0.00000000E+00  0.00000000E+00  0.00000000E+00
  0.00000000E+00  0.00000000E+00  0.00000000E+00
  0.00000000E+00  0.00000000E+00  0.00000000E+00
  0.00000000E+00  0.00000000E+00  0.00000000E+00
  0.00000000E+00  0.00000000E+00  0.00000000E+00
  0.00000000E+00  0.00000000E+00  0.00000000E+00
  0.00000000E+00  0.00000000E+00  0.00000000E+00
  0.00000000E+00  0.00000000E+00  0.00000000E+00
  0.00000000E+00  0.00000000E+00  0.00000000E+00
  0.00000000E+00  0.00000000E+00  0.00000000E+00
  0.00000000E+00  0.00000000E+00  0.00000000E+00
  0.00000000E+00  0.00000000E+00  0.00000000E+00
  0.00000000E+00  0.00000000E+00  0.00000000E+00
  0.00000000E+00  0.00000000E+00  0.00000000E+00
  0.00000000E+00  0.00000000E+00  0.00000000E+00
  0.00000000E+00  0.00000000E+00  0.00000000E+00
  0.00000000E+00  0.00000000E+00  0.00000000E+00
  0.00000000E+00  0.00000000E+00  0.00000000E+00
  0.00000000E+00  0.00000000E+00  0.00000000E+00
  0.00000000E+00  0.00000000E+00  0.00000000E+00
  0.00000000E+00  0.00000000E+00  0.00000000E+00
  0.00000000E+00  0.00000000E+00  0.00000000E+00
  0.00000000E+00  0.00000000E+00  0.00000000E+00
  0.00000000E+00  0.00000000E+00  0.00000000E+00
  0.00000000E+00  0.00000000E+00  0.00000000E+00
  0.00000000E+00  0.00000000E+00  0.00000000E+00
  0.00000000E+00  0.00000000E+00  0.00000000E+00
  0.00000000E+00  0.00000000E+00  0.00000000E+00
  0.00000000E+00  0.00000000E+00  0.00000000E+00
  0.00000000E+00  0.00000000E+00  0.00000000E+00
  0.00000000E+00  0.00000000E+00  0.00000000E+00
  0.00000000E+00  0.00000000E+00  0.00000000E+00
  0.00000000E+00  0.00000000E+00  0.00000000E+00
  0.00000000E+00  0.00000000E+00  0.00000000E+00
  0.00000000E+00  0.00000000E+00  0.00000000E+00
  0.00000000E+00  0.00000000E+00  0.00000000E+00
  0.00000000E+00  0.00000000E+00  0.00000000E+00
  0.00000000E+00  0.00000000E+00  0.00000000E+00
  0.00000000E+00  0.00000000E+00  0.00000000E+00
  0.00000000E+00  0.00000000E+00  0.00000000E+00
  0.00000000E+00  0.00000000E+00  0.00000000E+00
  0.00000000E+00  0.00000000E+00  0.00000000E+00
  0.00000000E+00  0.00000000E+00  0.00000000E+00
  0.00000000E+00  0.00000000E+00  0.00000000E+00
  0.00000000E+00  0.00000000E+00  0.00000000E+00
  0.00000000E+00  0.00000000E+00  0.00000000E+00
  0.00000000E+00  0.00000000E+00  0.00000000E+00
  0.00000000E+00  0.00000000E+00  0.00000000E+00
  0.00000000E+00  0.00000000E+00  0.00000000E+00
  0.00000000E+00  0.00000000E+00  0.00000000E+00
  0.00000000E+00  0.00000000E+00  0.00000000E+00
  0.00000000E+00  0.00000000E+00  0.00000000E+00
  0.00000000E+00  0.00000000E+00  0.00000000E+00
  0.00000000E+00  0.00000000E+00  0.00000000E+00
  0.00000000E+00  0.00000000E+00  0.00000000E+00
  0.00000000E+00  0.00000000E+00  0.00000000E+00
  0.00000000E+00  0.00000000E+00  0.00000000E+00
  0.00000000E+00  0.00000000E+00  0.00000000E+00
  0.00000000E+00  0.00000000E+00  0.00000000E+00
  0.00000000E+00  0.00000000E+00  0.00000000E+00
  0.00000000E+00  0.00000000E+00  0.00000000E+00
  0.00000000E+00  0.00000000E+00  0.00000000E+00
  0.00000000E+00  0.00000000E+00  0.00000000E+00
  0.00000000E+00  0.00000000E+00  0.00000000E+00
  0.00000000E+00  0.00000000E+00  0.00000000E+00
