B N S                                   
   1.0000000000000000     
     8.7639499999999995  -15.1796066749929999    0.0000000000000000
     8.7639499999999995   15.1796066749929999    0.0000000000000000
     0.0000000000000000    0.0000000000000000   15.0000000000000000
   B    N    S 
    48    48     1
Selective dynamics
Direct
  0.9045462488953762  0.9524725547604183  0.1184624437313569   T   T   T
  0.9045921786866771  0.0952902133901221  0.1185460340242565   T   T   T
  0.9046488484710620  0.2381528247537600  0.1178331911990726   T   T   T
  0.9047105394861042  0.3810700198387856  0.1166232085456398   T   T   T
  0.9045493102287451  0.5239594858426414  0.1153975771106638   T   T   T
  0.9042470414927056  0.6667061279687418  0.1159520036381308   T   T   T
  0.9041688721569272  0.8093856366257014  0.1178784404957450   T   T   T
  0.0474819110666520  0.9528090335039893  0.1192108040326961   T   T   T
  0.0475222097410402  0.0955149122708732  0.1183767177582028   T   T   T
  0.0474118682661604  0.2382502406845455  0.1158909956320507   T   T   T
  0.0472702273745664  0.3811632216266642  0.1141863228156529   T   T   T
  0.0471075181124241  0.5241866447479731  0.1146512095963678   T   T   T
  0.0471879239511497  0.6670949849598592  0.1160403996060292   T   T   T
  0.0472736059162608  0.8099394043763333  0.1182343215366524   T   T   T
  0.1904319366680269  0.9531451567153475  0.1181718120714140   T   T   T
  0.1908577305755051  0.0962320691873221  0.1176662124990034   T   T   T
  0.1903089471603206  0.2383431027188230  0.1136422719822650   T   T   T
  0.1898085877225599  0.3811288107209130  0.1082130031240293   T   T   T
  0.1893769023361722  0.5243847663181764  0.1086584747685327   T   T   T
  0.1898835647792165  0.6673200944480338  0.1126455043438368   T   T   T
  0.1901235769809970  0.8101963948296331  0.1161174769950205   T   T   T
  0.3332033185844988  0.9531516558734475  0.1158765570190718   T   T   T
  0.3336290537744264  0.0963010706054056  0.1154242595623914   T   T   T
  0.3344983182257505  0.2399105760862823  0.1129360291123494   T   T   T
  0.3331539092797514  0.3800959581514591  0.1032429917200698   T   T   T
  0.3316761893057106  0.5254085977194668  0.0986594592559989   T   T   T
  0.3324519596335061  0.6675630019898863  0.1071349511774069   T   T   T
  0.3328784639838326  0.8102617042187142  0.1125801881262738   T   T   T
  0.4759492325426476  0.9528617396143750  0.1145752111497090   T   T   T
  0.4762416513957210  0.0957744685010677  0.1147429751009756   T   T   T
  0.4767975703888724  0.2388725066214699  0.1079723343443194   T   T   T
  0.4785443002926287  0.3832081136316119  0.0967701523599527   T   T   T
  0.4743434044237281  0.6672513196448903  0.0970244359219243   T   T   T
  0.4756609908431763  0.8101861743289926  0.1084861635537187   T   T   T
  0.6188140629507165  0.9524958895283057  0.1141981303378483   T   T   T
  0.6189458632885756  0.0952633705746790  0.1164609743256523   T   T   T
  0.6192908452651855  0.2379436074299656  0.1123008465696602   T   T   T
  0.6201264982599040  0.3802683535444152  0.1016802970756311   T   T   T
  0.6190445544906245  0.5222776380431908  0.0928918251937174   T   T   T
  0.6203067826430316  0.6666232904567581  0.1006311744265644   T   T   T
  0.6188345344127122  0.8097907700195541  0.1076719987995635   T   T   T
  0.7616784672044544  0.9523695032778217  0.1159176190809375   T   T   T
  0.7617515601476863  0.0952002666030273  0.1178536394936878   T   T   T
  0.7619322697334042  0.2380400720482558  0.1169469356638501   T   T   T
  0.7622191331925161  0.3808256908770530  0.1127255921757954   T   T   T
  0.7618947687465671  0.5235285133759695  0.1090225833857588   T   T   T
  0.7608044241963949  0.6657809621641575  0.1130239360835778   T   T   T
  0.7617895444605464  0.8095570583588739  0.1135456799450294   T   T   T
  0.9520483889969460  0.9048044606843156  0.1189777875840858   T   T   T
  0.9522269789642543  0.0477270573178906  0.1190513286689731   T   T   T
  0.9522270060120160  0.1905400657407963  0.1179970856269437   T   T   T
  0.9522191652891054  0.3334131928950340  0.1168715433033591   T   T   T
  0.9520888305057991  0.4763471262421677  0.1161857160492005   T   T   T
  0.9520039073496548  0.6192451099456427  0.1160209690403989   T   T   T
  0.9519491689322260  0.7620147198764570  0.1179449535881138   T   T   T
  0.0950991177696458  0.9052583032398651  0.1190530128545354   T   T   T
  0.0953817278858289  0.0481994051792565  0.1188942898557526   T   T   T
  0.0950876457834110  0.1907339678817870  0.1163519628722497   T   T   T
  0.0948182268947392  0.3334959801821951  0.1129916124790429   T   T   T
  0.0945121916519138  0.4764682563107355  0.1126902837219211   T   T   T
  0.0947610465362446  0.6194811536265596  0.1145203696377471   T   T   T
  0.0948964926047115  0.7623770587355423  0.1170232282599333   T   T   T
  0.2379382442948713  0.9054469852946478  0.1169952802868272   T   T   T
  0.2383010736806898  0.0484879142517578  0.1177317948584370   T   T   T
  0.2387948251767330  0.1916839279343089  0.1156618446221762   T   T   T
  0.2373383393480917  0.3333691658637721  0.1083884432813519   T   T   T
  0.2363812219676107  0.4764721098129783  0.1043761942193047   T   T   T
  0.2373647321871696  0.6196671695150087  0.1093328911834551   T   T   T
  0.2376745120960675  0.7625461484469195  0.1137908876235012   T   T   T
  0.3807036098178704  0.9053946331209740  0.1144553189751044   T   T   T
  0.3809917316247814  0.0483684063961128  0.1155500170188651   T   T   T
  0.3815395796999382  0.1916099647415889  0.1123426348123722   T   T   T
  0.3825861765349429  0.3354468541388993  0.1080565440110831   T   T   T
  0.3700855712081871  0.4718761317989650  0.0873127820157801   T   T   T
  0.3799220678476913  0.6199624461872847  0.1019193281857417   T   T   T
  0.3804349734732062  0.7626299864105867  0.1091587790634109   T   T   T
  0.5235482579037484  0.9051680155582319  0.1126985182503975   T   T   T
  0.5237178430817536  0.0479662779602616  0.1159221127882125   T   T   T
  0.5240958732803175  0.1909053540922513  0.1118936055083287   T   T   T
  0.5252046325363358  0.3338486637902438  0.0997239359874381   T   T   T
  0.5286078033795552  0.6293511778913191  0.0830604462934504   T   T   T
  0.5235077887524299  0.7628065734007188  0.1037581721672753   T   T   T
  0.6663982628446408  0.9048136864000894  0.1129494839911837   T   T   T
  0.6665023572890282  0.0475942657972357  0.1168799545876871   T   T   T
  0.6667469498448411  0.1903567544619985  0.1160269036502584   T   T   T
  0.6673019538082376  0.3329041677878358  0.1089671615789190   T   T   T
  0.6672153263279221  0.4752568195366126  0.0998380410815412   T   T   T
  0.6653026721975330  0.6175802623454747  0.1066413875127021   T   T   T
  0.6666741673267772  0.7623054369467132  0.1075544195545912   T   T   T
  0.8092567963907381  0.9047503111032582  0.1164575528131747   T   T   T
  0.8093211968228816  0.0475630870826253  0.1180288824912580   T   T   T
  0.8094558560852404  0.1904092544712224  0.1183456852606102   T   T   T
  0.8096511932107945  0.3332486880413174  0.1162202768541269   T   T   T
  0.8095037112511545  0.4760627197971392  0.1129762457978219   T   T   T
  0.8090113871238204  0.6187737408726777  0.1130783076971053   T   T   T
  0.8086867475165289  0.7613449707441986  0.1158771198121861   T   T   T
  0.5267935195864052  0.4750664172611999  0.0060050545479904   T   T   T

  0.00000000E+00  0.00000000E+00  0.00000000E+00
  0.00000000E+00  0.00000000E+00  0.00000000E+00
  0.00000000E+00  0.00000000E+00  0.00000000E+00
  0.00000000E+00  0.00000000E+00  0.00000000E+00
  0.00000000E+00  0.00000000E+00  0.00000000E+00
  0.00000000E+00  0.00000000E+00  0.00000000E+00
  0.00000000E+00  0.00000000E+00  0.00000000E+00
  0.00000000E+00  0.00000000E+00  0.00000000E+00
  0.00000000E+00  0.00000000E+00  0.00000000E+00
  0.00000000E+00  0.00000000E+00  0.00000000E+00
  0.00000000E+00  0.00000000E+00  0.00000000E+00
  0.00000000E+00  0.00000000E+00  0.00000000E+00
  0.00000000E+00  0.00000000E+00  0.00000000E+00
  0.00000000E+00  0.00000000E+00  0.00000000E+00
  0.00000000E+00  0.00000000E+00  0.00000000E+00
  0.00000000E+00  0.00000000E+00  0.00000000E+00
  0.00000000E+00  0.00000000E+00  0.00000000E+00
  0.00000000E+00  0.00000000E+00  0.00000000E+00
  0.00000000E+00  0.00000000E+00  0.00000000E+00
  0.00000000E+00  0.00000000E+00  0.00000000E+00
  0.00000000E+00  0.00000000E+00  0.00000000E+00
  0.00000000E+00  0.00000000E+00  0.00000000E+00
  0.00000000E+00  0.00000000E+00  0.00000000E+00
  0.00000000E+00  0.00000000E+00  0.00000000E+00
  0.00000000E+00  0.00000000E+00  0.00000000E+00
  0.00000000E+00  0.00000000E+00  0.00000000E+00
  0.00000000E+00  0.00000000E+00  0.00000000E+00
  0.00000000E+00  0.00000000E+00  0.00000000E+00
  0.00000000E+00  0.00000000E+00  0.00000000E+00
  0.00000000E+00  0.00000000E+00  0.00000000E+00
  0.00000000E+00  0.00000000E+00  0.00000000E+00
  0.00000000E+00  0.00000000E+00  0.00000000E+00
  0.00000000E+00  0.00000000E+00  0.00000000E+00
  0.00000000E+00  0.00000000E+00  0.00000000E+00
  0.00000000E+00  0.00000000E+00  0.00000000E+00
  0.00000000E+00  0.00000000E+00  0.00000000E+00
  0.00000000E+00  0.00000000E+00  0.00000000E+00
  0.00000000E+00  0.00000000E+00  0.00000000E+00
  0.00000000E+00  0.00000000E+00  0.00000000E+00
  0.00000000E+00  0.00000000E+00  0.00000000E+00
  0.00000000E+00  0.00000000E+00  0.00000000E+00
  0.00000000E+00  0.00000000E+00  0.00000000E+00
  0.00000000E+00  0.00000000E+00  0.00000000E+00
  0.00000000E+00  0.00000000E+00  0.00000000E+00
  0.00000000E+00  0.00000000E+00  0.00000000E+00
  0.00000000E+00  0.00000000E+00  0.00000000E+00
  0.00000000E+00  0.00000000E+00  0.00000000E+00
  0.00000000E+00  0.00000000E+00  0.00000000E+00
  0.00000000E+00  0.00000000E+00  0.00000000E+00
  0.00000000E+00  0.00000000E+00  0.00000000E+00
  0.00000000E+00  0.00000000E+00  0.00000000E+00
  0.00000000E+00  0.00000000E+00  0.00000000E+00
  0.00000000E+00  0.00000000E+00  0.00000000E+00
  0.00000000E+00  0.00000000E+00  0.00000000E+00
  0.00000000E+00  0.00000000E+00  0.00000000E+00
  0.00000000E+00  0.00000000E+00  0.00000000E+00
  0.00000000E+00  0.00000000E+00  0.00000000E+00
  0.00000000E+00  0.00000000E+00  0.00000000E+00
  0.00000000E+00  0.00000000E+00  0.00000000E+00
  0.00000000E+00  0.00000000E+00  0.00000000E+00
  0.00000000E+00  0.00000000E+00  0.00000000E+00
  0.00000000E+00  0.00000000E+00  0.00000000E+00
  0.00000000E+00  0.00000000E+00  0.00000000E+00
  0.00000000E+00  0.00000000E+00  0.00000000E+00
  0.00000000E+00  0.00000000E+00  0.00000000E+00
  0.00000000E+00  0.00000000E+00  0.00000000E+00
  0.00000000E+00  0.00000000E+00  0.00000000E+00
  0.00000000E+00  0.00000000E+00  0.00000000E+00
  0.00000000E+00  0.00000000E+00  0.00000000E+00
  0.00000000E+00  0.00000000E+00  0.00000000E+00
  0.00000000E+00  0.00000000E+00  0.00000000E+00
  0.00000000E+00  0.00000000E+00  0.00000000E+00
  0.00000000E+00  0.00000000E+00  0.00000000E+00
  0.00000000E+00  0.00000000E+00  0.00000000E+00
  0.00000000E+00  0.00000000E+00  0.00000000E+00
  0.00000000E+00  0.00000000E+00  0.00000000E+00
  0.00000000E+00  0.00000000E+00  0.00000000E+00
  0.00000000E+00  0.00000000E+00  0.00000000E+00
  0.00000000E+00  0.00000000E+00  0.00000000E+00
  0.00000000E+00  0.00000000E+00  0.00000000E+00
  0.00000000E+00  0.00000000E+00  0.00000000E+00
  0.00000000E+00  0.00000000E+00  0.00000000E+00
  0.00000000E+00  0.00000000E+00  0.00000000E+00
  0.00000000E+00  0.00000000E+00  0.00000000E+00
  0.00000000E+00  0.00000000E+00  0.00000000E+00
  0.00000000E+00  0.00000000E+00  0.00000000E+00
  0.00000000E+00  0.00000000E+00  0.00000000E+00
  0.00000000E+00  0.00000000E+00  0.00000000E+00
  0.00000000E+00  0.00000000E+00  0.00000000E+00
  0.00000000E+00  0.00000000E+00  0.00000000E+00
  0.00000000E+00  0.00000000E+00  0.00000000E+00
  0.00000000E+00  0.00000000E+00  0.00000000E+00
  0.00000000E+00  0.00000000E+00  0.00000000E+00
  0.00000000E+00  0.00000000E+00  0.00000000E+00
  0.00000000E+00  0.00000000E+00  0.00000000E+00
  0.00000000E+00  0.00000000E+00  0.00000000E+00
  0.00000000E+00  0.00000000E+00  0.00000000E+00
