 N B 
 1.0
 17.527899999999772   0.000000000000000   0.000000000000000
 -8.763949999999658  15.179606674993195   0.000000000000000
  0.000000000000001   0.000000000000002  15.000000000000000
 N B 
  48  49
Cartesian
  8.761237838023057  13.726535894344204   1.664854593900645 
 16.278056664082325   0.721612282005874   1.665174791582610 
 15.025592525849559   2.892170016264880   1.665085053626445 
 13.773298037415280   5.059868891664398   1.665042726469380 
 12.511985962582115   7.229862244779598   1.664634029395470 
 11.257089076320121   9.393649028423205   1.665065290919820 
 10.007704102276428  11.557947220233626   1.664801946654255 
 -6.260898941644752  13.734482131108994   1.664669627661810 
  1.257056806717496   0.728906607906489   1.664667559664130 
  0.004447040469855   2.893862353808039   1.664700160235730 
 -1.246069191114653   5.059868891664398   1.664762109988740 
 -2.496191692471190   7.229750299961627   1.664596749204555 
 -3.756163136454599   9.395950990760781   1.665092559194055 
 -5.010787449942136  11.563898710173087   1.664497116090090 
 -3.756056085108140  13.737147681560440   1.664545834386465 
  3.758341171090349   0.733731022186590   1.664699729774025 
  2.517460297267419   2.916010102995939   1.665159708438495 
  1.257536276743336   5.063041522439613   1.665054580729125 
  0.028211235740699   7.227706405757118   1.665187814256555 
 -1.241339947891388   9.393546964862551   1.665099378267180 
 -2.501334076856803  11.563898775182166   1.664940045967350 
 -1.251238618170975  13.734589360638839   1.665176050174290 
  6.257377715669414   0.733883106774189   1.664828194231050 
  5.007936326648409   2.917041131149772   1.665516850055220 
  3.778047281303620   5.121127964085960   1.665608474892075 
  2.568218413655470   7.216874621472698   1.665806572019310 
  1.274295441980944   9.384045488900536   1.665901944388920 
  0.008249458871893  11.557896910964892   1.664958008325795 
  1.254726654050333  13.726527346947917   1.664791361538510 
  8.758725224391455   0.728994525125030   1.664657452562535 
  7.498427190586096   2.916031622866420   1.664946474567060 
  6.238028249914507   5.121042327905380   1.665290395713345 
  3.798082206833365   9.347045401373819   1.665507847905285 
  2.518700507488587  11.541357463319645   1.665211113016185 
  3.758925309557157  13.728825948648328   1.664853372410895 
 11.268613881391508   0.721663793211421   1.665086059241415 
 10.014401023668562   2.894024186293796   1.665145654438170 
  8.758483039397111   5.063044626362049   1.665218927073285 
  7.448014118132318   7.216827100390994   1.665514398330615 
  6.217959428449422   9.347184307528483   1.665568210474305 
  5.008014662184964  11.559056614813896   1.664954664219210 
  6.260027545558633  13.728850489487456   1.664753157494790 
 13.772064172961274   0.721001518822136   1.665130555211235 
 12.518419451740957   2.892240554412412   1.665264904098375 
 11.264874464478714   5.059868891664398   1.665092166321570 
  9.987809660988098   7.227793857334211   1.664933919812565 
  8.741697351065941   9.384113961902912   1.665648715689735 
  7.497354108315422  11.541439488470649   1.665162645239685 
  7.511658130779992  14.453849758469190   1.665353165005065 
 15.025128242996445   1.444995824871581   1.665786029506860 
 13.772040775255711   3.615310635673279   1.665733080506070 
 12.517071149419206   5.783997066698773   1.665202290737655 
 11.250927632573195   7.948289964855131   1.665276979018380 
 10.001136536463806  10.111376012264190   1.665852657577005 
  8.752860054118779  12.275212483103907   1.665344945987595 
 -7.513177847159416  14.457476565738355   1.665152415880005 
  0.002382058429067   1.447412137153957   1.665298498327215 
 -1.248864632501359   3.615748464268968   1.665156615211590 
 -2.501082010815672   5.783812041496401   1.665305602646370 
 -3.756112772953681   7.950022268124818   1.665210165717150 
 -5.014556885507298  10.119737783328796   1.665412392545085 
 -6.264865926106660  12.285874208495962   1.665055224467820 
 -5.008359483651498  14.462206567324250   1.664986758974610 
  2.509739889541836   1.461816245067466   1.665230945481585 
  1.256008720250208   3.620385782151284   1.665320472383355 
  0.007455816640655   5.783097850634168   1.665269757163830 
 -1.235097472110607   7.948104764284252   1.665279291114375 
 -2.499529658681984  10.116688640200532   1.665666578203245 
 -3.756129918445889  12.288342815953435   1.665042721954695 
 -2.507286431678549  14.462485272124532   1.665376412141925 
  5.007820995290615   1.462706700523744   1.665673850780550 
  3.770259080686734   3.655861544940153   1.665884778248820 
  2.507340874956083   5.784769404147037   1.665879660849075 
  1.295383129201240   7.942782430844387   1.666192790436825 
  0.014770218617404  10.111222816877103   1.666081493191995 
 -1.247114419770043  12.285926437992558   1.665683376573810 
  0.000996973313294  14.457502063749564   1.665298401965580 
  7.506016803878643   1.461903448144441   1.665212002272240 
  6.245701989351133   3.655707047439361   1.665610252510200 
  5.008095702078069   5.903651330946549   1.666026704520900 
  3.861197622503703   7.890490407063452   1.666468577387370 
  2.533013076584496  10.086404962160344   1.666090587990315 
  1.263167848095006  12.275196956652737   1.665343307514075 
  2.504518901702998  14.453725418236877   1.665417248826990 
 10.013431322748174   1.447547221479801   1.665260474262255 
  8.759768766476975   3.620406205515318   1.665452341940070 
  7.508751052000664   5.784592877892853   1.665618640272300 
  6.155270572328985   7.890662792712372   1.666592449518135 
  5.007892157034683  10.115827581191979   1.665666440138625 
  3.759401450876132  12.281615282276301   1.665276718132725 
  5.008214446318600  14.453301662314420   1.665221519595495 
 12.519051382462616   1.445056847416509   1.665792906490950 
 11.264950320547667   3.615945488561333   1.665849047189790 
 10.008499109431391   5.783274299800342   1.665467162193510 
  8.720877766141065   7.942857678892302   1.665712409642100 
  7.483030711190539  10.086555269489537   1.665879993512325 
  6.256634717185274  12.281693488204580   1.665336672763875 
