 As B N P 
 1.0
 17.527899999999772   0.000000000000000   0.000000000000000
 -8.763949999999658  15.179606674993195   0.000000000000000
  0.000000000000001   0.000000000000002  15.000000000000000
 As B N P 
   1  48  48   1
Cartesian
  3.554992362529089   8.067282439838596   1.643618144853780 
  7.525743375699273  14.479226746420329   1.664676339629445 
 15.018106457407688   1.449050431399943   1.663174978505490 
 13.762202290468965   3.610178947330062   1.664519083992360 
 12.522708283224599   5.780263810454873   1.662962563517715 
 11.311005576672876   7.960085130595722   1.663405080540630 
 10.054478898274006  10.141766918358234   1.666506589583715 
  8.801374765586703  12.326305522701267   1.667760787060785 
 -7.502721388786446  14.451456450773076   1.665556056865260 
 -0.012538788044179   1.422539037026035   1.664676339629445 
 -1.280984204174675   3.591217212852121   1.666385120743605 
 -2.536513158720060   5.773173525252369   1.667031996100515 
 -3.771180705181060   7.956088529472967   1.664354403297780 
 -4.994679627394386  10.128266282131751   1.664835123497325 
 -6.242216999909066  12.293531137515060   1.666193170160610 
 -5.003651053596217  14.438790285051802   1.666193170160610 
  2.489761378986695   1.394270459377920   1.667760787060785 
  1.204893467459123   3.541910650770773   1.671416717448435 
 -0.071665744603749   5.744123845075979   1.675288714566990 
 -1.333418396107778   7.952559066108488   1.673802494452335 
 -2.513020242932348  10.126907875939255   1.666664656479495 
 -3.753142725405640  12.286636200122876   1.664477223444045 
 -2.504707996637721  14.441023655976082   1.664835123497325 
  5.008179372256524   1.401319749054944   1.666506589583715 
  3.713554759818852   3.503219224439127   1.666206185773515 
  2.398059663261030   5.655792395359104   1.659322918069110 
  1.068222309558221   7.927601173534077   1.664060778819555 
 -0.023277820347710  10.133197693156340   1.671379110298620 
 -1.262701890135498  12.292522788588345   1.666664656479495 
 -0.011797420193284  14.467531384164722   1.664354403297780 
  7.525834562631269   1.403976618909223   1.663405080540630 
  6.308434774108040   3.500387582271646   1.665440245056360 
  5.021890577890110   5.424219898649372   1.662650648439090 
  2.432574861096479  10.290729112234990   1.664060778819555 
  1.210140339277894  12.358132027802680   1.673802494452335 
  2.495996200975865  14.489735425813178   1.667031996100515 
 10.019466554843474   1.444521953271883   1.662962563517715 
  8.789748239844151   3.586536060955952   1.662924865072275 
  7.577904436820567   5.744653070811046   1.665998736341370 
  6.577400774653521   8.118442591165010   1.662650648439090 
  5.064937652370597  10.274960570114757   1.659322918069110 
  3.753577669038417  12.369639788822941   1.675288714566990 
  5.013390274735960  14.493393612188752   1.666385120743605 
 12.518562178299513   1.456131086721950   1.664519083992360 
 11.276696039256018   3.609154743468070   1.664010678450045 
 10.052810493205063   5.774224056901601   1.662924865072275 
  8.886760531367425   7.966178792338103   1.665440245056360 
  7.586868250171888  10.211994983400496   1.666206185773515 
  6.299029845888260  12.365213678894772   1.671416717448435 
  8.777048451521196  13.756101953681384   1.665471350838960 
 16.267585757576306   0.727656954169193   1.662237467155230 
 15.004551737257554   2.883637100381733   1.663575780725925 
 13.757267596166251   5.049981691767838   1.663933683440325 
 12.532245218217851   7.224353682882941   1.662326294626170 
 11.294472639342247   9.405410436805775   1.664818812362895 
 10.040837743245966  11.583971861601430   1.666999474918290 
 -6.252751289893838  13.729779610767618   1.665857678771055 
  1.239352763163355   0.700430049452085   1.665471350838960 
 -0.039874111489056   2.852573748536123   1.667043807331440 
 -1.303097315425030   5.031251135091645   1.669361062783710 
 -2.551521895621589   7.218688857880805   1.667415670230735 
 -3.755488238492509   9.399972542173931   1.664354730710430 
 -4.997609590015694  11.568385419714851   1.664753836321710 
 -3.753358162911076  13.723492108850948   1.664753836321710 
  3.752367249091480   0.692021463827856   1.666999474918290 
  2.461245419123382   2.818029747601345   1.669106814340290 
  1.159711333444085   4.970739858677963   1.674727110743610 
 -0.135821196669200   7.198765146796021   1.679456384412705 
 -1.272959538827037   9.400898504708669   1.670565503165055 
 -2.507331839993895  11.567360683139578   1.664610935858520 
 -1.254396849304739  13.731989902617517   1.664354730710430 
  6.265874234716481   0.695622509135813   1.664818812362895 
  5.008923950910296   2.830714337280139   1.666024802319540 
  3.676578135206329   4.920738071888766   1.660971330652290 
  2.162023539426833   7.059071505265442   1.638781871958030 
  1.230306749672121   9.409434037262615   1.667616662908920 
 -0.013934406553306  11.581594001817383   1.670565503165055 
  1.236633405570354  13.779966306537547   1.667415670230735 
  8.773611080129150   0.714208388683358   1.662326294626170 
  7.556152528643622   2.827064790805966   1.663009635237780 
  6.356427824897205   4.911218957945113   1.666625784588405 
  3.731638805343834   9.777724894201098   1.638781871958135 
  2.461738194983699  11.697869988847131   1.679456384412705 
  3.755222332799729  13.792517766773281   1.669361062783710 
 11.269183650687257   0.740493884732284   1.663933683440325 
 10.034139135136423   2.880573463113078   1.662857823591210 
  8.813143603773462   5.031481138315905   1.663252057716345 
  7.688935817650776   7.219190502886335   1.666625784588405 
  6.340767178299641   9.535248855525882   1.660971330652290 
  5.039030959825904  11.689918550398783   1.674727110743610 
  6.273623898193733  13.787873074791932   1.667043807331440 
 13.768935170742411   0.743486428503520   1.663575780725925 
 12.519594316676649   2.891560821492979   1.664718457830960 
 11.286382057392768   5.049521827849130   1.662857823591330 
 10.093728623687337   7.222275515463171   1.663009635237780 
  8.816953734852859   9.426415399803865   1.666024802319540 
  7.554099645857931  11.639112023847307   1.669106814340185 
  5.245005896464717   7.091546404135944   1.655711715797700 
