B N As P                                
   1.0000000000000000     
     8.7639499999999995  -15.1796066749929999    0.0000000000000000
     8.7639499999999995   15.1796066749929999    0.0000000000000000
     0.0000000000000000    0.0000000000000000   15.0000000000000000
   B    N    As   P 
    48    48     1     1
Selective dynamics
Direct
  0.9062881939880185  0.9538604692750923  0.1109784226419634   T   T   T
  0.9045416800669770  0.0954603411290691  0.1108783319003663   T   T   T
  0.9040752216485046  0.2378308624608465  0.1109679389328235   T   T   T
  0.9048400065140640  0.3807914087772275  0.1108641709011806   T   T   T
  0.9075110463657765  0.5243933720436331  0.1108936720360418   T   T   T
  0.9076860752655236  0.6681178989351366  0.1111004393055808   T   T   T
  0.9081504673823915  0.8120306267887401  0.1111840524707191   T   T   T
  0.0479709995635105  0.9520310216324859  0.1110370704576837   T   T   T
  0.0461415519209680  0.0937138272080205  0.1109784226419634   T   T   T
  0.0452082691243021  0.2365817039757871  0.1110923413829070   T   T   T
  0.0454492626134737  0.3803243159628806  0.1111354664067008   T   T   T
  0.0469120173555595  0.5241300845152850  0.1109569602198519   T   T   T
  0.0486582897562400  0.6672285059149132  0.1109890082331546   T   T   T
  0.0488054194527621  0.8098715204371771  0.1110795446773736   T   T   T
  0.1901305007588334  0.9511966017431916  0.1110795446773736   T   T   T
  0.1879713944072989  0.0918515538136333  0.1111840524707191   T   T   T
  0.1854082083493864  0.2333334931929230  0.1114277811632292   T   T   T
  0.1851166257001324  0.3784105852056641  0.1116859143044664   T   T   T
  0.1858747323670400  0.5238975710226725  0.1115868329634893   T   T   T
  0.1901969286280476  0.6671390170222438  0.1111109770986332   T   T   T
  0.1905847244775529  0.8094172967184861  0.1109651482296030   T   T   T
  0.3327735152821276  0.9513437314397706  0.1109890082331546   T   T   T
  0.3318841222618900  0.0923159459305012  0.1111004393055808   T   T   T
  0.3272576476405646  0.2307845848344883  0.1110804123849007   T   T   T
  0.3231096095483323  0.3725914983473473  0.1106215278712739   T   T   T
  0.3220708117416251  0.5222533984753355  0.1109373852546369   T   T   T
  0.3324486444780987  0.6675533767188924  0.1114252740199078   T   T   T
  0.3328630041747971  0.8098050925679772  0.1111109770986332   T   T   T
  0.4758719366817132  0.9530900038403800  0.1109569602198519   T   T   T
  0.4756086491533225  0.0924909748302056  0.1108936720360418   T   T   T
  0.4752072117595745  0.2305980423088414  0.1110293496704244   T   T   T
  0.4651763985713657  0.3573359978809734  0.1108433765626060   T   T   T
  0.4777486227216485  0.6779312094553731  0.1109373852546369   T   T   T
  0.4761044501743257  0.8141272888289919  0.1115868329634893   T   T   T
  0.6196777052331086  0.9545527585825724  0.1111354664067008   T   T   T
  0.6192106124187973  0.0951620146819465  0.1108641709011806   T   T   T
  0.6196084984564862  0.2362733197075784  0.1108616576714851   T   T   T
  0.6215565717316025  0.3784454494644294  0.1110665824227581   T   T   T
  0.6426660233150088  0.5348256226256041  0.1108433765626060   T   T   T
  0.6274105228486633  0.6768924116486943  0.1106215278712739   T   T   T
  0.6215914359902754  0.8148853954958284  0.1116859143044664   T   T   T
  0.7634203172202163  0.9547937520716587  0.1110923413829070   T   T   T
  0.7621711587351570  0.0959267995474988  0.1109679389328235   T   T   T
  0.7622386310935383  0.2377633901024439  0.1109340452300032   T   T   T
  0.7637287014883967  0.3803935227395598  0.1108616576714851   T   T   T
  0.7694039788871763  0.5247948094374237  0.1110293496704244   T   T   T
  0.7692174363615294  0.6727443735563767  0.1110804123849007   T   T   T
  0.7666685280030876  0.8145938128466241  0.1114277811632292   T   T   T
  0.9538585693368304  0.9062225555780117  0.1110314233892638   T   T   T
  0.9520649191257249  0.0479364827922666  0.1108158311436824   T   T   T
  0.9510221072352252  0.1899678405457124  0.1109050520483947   T   T   T
  0.9512192496141125  0.3326819857649639  0.1109289122293546   T   T   T
  0.9529508818370402  0.4759249588979344  0.1108217529750775   T   T   T
  0.9541752798036853  0.6196083098977923  0.1109879208241935   T   T   T
  0.9544125089615179  0.7631272739553125  0.1111332983278857   T   T   T
  0.0955129059554665  0.9044884959625463  0.1110571785847370   T   T   T
  0.0937788463400082  0.0461428325811610  0.1110314233892638   T   T   T
  0.0916858328785253  0.1879214534086344  0.1111362538220959   T   T   T
  0.0913798505115082  0.3314480567787115  0.1112907375189138   T   T   T
  0.0922067138488885  0.4755517723507836  0.1111610446820492   T   T   T
  0.0953672966588428  0.6192500730377546  0.1109569820473624   T   T   T
  0.0959271131251214  0.7621004725222917  0.1109835890881143   T   T   T
  0.2379009293957353  0.9040742887929341  0.1109835890881143   T   T   T
  0.2368741279627073  0.0455888929564878  0.1111332983278857   T   T   T
  0.2332416120861822  0.1856457685589277  0.1112737876226859   T   T   T
  0.2298945868542930  0.3274617033962244  0.1116484740495736   T   T   T
  0.2293707631071769  0.4742392409057103  0.1119637589608473   T   T   T
  0.2370307762761499  0.6193110734677774  0.1113710335443372   T   T   T
  0.2379684368481136  0.7620329650698778  0.1109740623905680   T   T   T
  0.3807513288802724  0.9046341052590989  0.1109569820473624   T   T   T
  0.3803930920201779  0.0458261221143346  0.1109879208241935   T   T   T
  0.3790093300131758  0.1864814021791119  0.1110683201546365   T   T   T
  0.3718396148781622  0.3241676926975430  0.1107314220434858   T   T   T
  0.3558658124031169  0.4650365227772681  0.1092521247972016   T   T   T
  0.3801280258335353  0.6198733760844846  0.1111744441939280   T   T   T
  0.3806903284501146  0.7629706256418913  0.1113710335443372   T   T   T
  0.5244496295662131  0.9077946880691314  0.1111610446820492   T   T   T
  0.5240764430190197  0.0470505200809939  0.1108217529750775   T   T   T
  0.5242133482409201  0.1862409778682377  0.1108673090158518   T   T   T
  0.5244165822669018  0.3235405938439655  0.1111083856392270   T   T   T
  0.5349648791397073  0.6441355895149030  0.1092521247972087   T   T   T
  0.5257621610112864  0.7706306388108288  0.1119637589608473   T   T   T
  0.6685533451382568  0.9086215514065330  0.1112907375189138   T   T   T
  0.6673194161520115  0.0487821523038647  0.1109289122293546   T   T   T
  0.6673497110027640  0.1897660146793214  0.1108571882394145   T   T   T
  0.6685381930181435  0.3314632088988674  0.1108834705144233   T   T   T
  0.6764608080730383  0.4755848196501162  0.1111083856392270   T   T   T
  0.6758337092194466  0.6281617870398577  0.1107314220434858   T   T   T
  0.6725396985208363  0.7701068150637056  0.1116484740495736   T   T   T
  0.8120799485093571  0.9083155690394804  0.1111362538220959   T   T   T
  0.8100335613723217  0.0489792946828018  0.1109050520483947   T   T   T
  0.8095115635839960  0.1904898383339884  0.1109812305220643   T   T   T
  0.8102353872386558  0.3326516909142114  0.1108571882394216   T   T   T
  0.8137604240497538  0.4757880536760624  0.1108673090158518   T   T   T
  0.8135199997388654  0.6209920719047943  0.1110683201546365   T   T   T
  0.8143556333590638  0.7667597898318093  0.1112737876226788   T   T   T
  0.4685467198465645  0.5314553013503698  0.1095745429902522   T   T   T
  0.5328255023056556  0.4671758996113198  0.1103807810531805   T   T   T

  0.00000000E+00  0.00000000E+00  0.00000000E+00
  0.00000000E+00  0.00000000E+00  0.00000000E+00
  0.00000000E+00  0.00000000E+00  0.00000000E+00
  0.00000000E+00  0.00000000E+00  0.00000000E+00
  0.00000000E+00  0.00000000E+00  0.00000000E+00
  0.00000000E+00  0.00000000E+00  0.00000000E+00
  0.00000000E+00  0.00000000E+00  0.00000000E+00
  0.00000000E+00  0.00000000E+00  0.00000000E+00
  0.00000000E+00  0.00000000E+00  0.00000000E+00
  0.00000000E+00  0.00000000E+00  0.00000000E+00
  0.00000000E+00  0.00000000E+00  0.00000000E+00
  0.00000000E+00  0.00000000E+00  0.00000000E+00
  0.00000000E+00  0.00000000E+00  0.00000000E+00
  0.00000000E+00  0.00000000E+00  0.00000000E+00
  0.00000000E+00  0.00000000E+00  0.00000000E+00
  0.00000000E+00  0.00000000E+00  0.00000000E+00
  0.00000000E+00  0.00000000E+00  0.00000000E+00
  0.00000000E+00  0.00000000E+00  0.00000000E+00
  0.00000000E+00  0.00000000E+00  0.00000000E+00
  0.00000000E+00  0.00000000E+00  0.00000000E+00
  0.00000000E+00  0.00000000E+00  0.00000000E+00
  0.00000000E+00  0.00000000E+00  0.00000000E+00
  0.00000000E+00  0.00000000E+00  0.00000000E+00
  0.00000000E+00  0.00000000E+00  0.00000000E+00
  0.00000000E+00  0.00000000E+00  0.00000000E+00
  0.00000000E+00  0.00000000E+00  0.00000000E+00
  0.00000000E+00  0.00000000E+00  0.00000000E+00
  0.00000000E+00  0.00000000E+00  0.00000000E+00
  0.00000000E+00  0.00000000E+00  0.00000000E+00
  0.00000000E+00  0.00000000E+00  0.00000000E+00
  0.00000000E+00  0.00000000E+00  0.00000000E+00
  0.00000000E+00  0.00000000E+00  0.00000000E+00
  0.00000000E+00  0.00000000E+00  0.00000000E+00
  0.00000000E+00  0.00000000E+00  0.00000000E+00
  0.00000000E+00  0.00000000E+00  0.00000000E+00
  0.00000000E+00  0.00000000E+00  0.00000000E+00
  0.00000000E+00  0.00000000E+00  0.00000000E+00
  0.00000000E+00  0.00000000E+00  0.00000000E+00
  0.00000000E+00  0.00000000E+00  0.00000000E+00
  0.00000000E+00  0.00000000E+00  0.00000000E+00
  0.00000000E+00  0.00000000E+00  0.00000000E+00
  0.00000000E+00  0.00000000E+00  0.00000000E+00
  0.00000000E+00  0.00000000E+00  0.00000000E+00
  0.00000000E+00  0.00000000E+00  0.00000000E+00
  0.00000000E+00  0.00000000E+00  0.00000000E+00
  0.00000000E+00  0.00000000E+00  0.00000000E+00
  0.00000000E+00  0.00000000E+00  0.00000000E+00
  0.00000000E+00  0.00000000E+00  0.00000000E+00
  0.00000000E+00  0.00000000E+00  0.00000000E+00
  0.00000000E+00  0.00000000E+00  0.00000000E+00
  0.00000000E+00  0.00000000E+00  0.00000000E+00
  0.00000000E+00  0.00000000E+00  0.00000000E+00
  0.00000000E+00  0.00000000E+00  0.00000000E+00
  0.00000000E+00  0.00000000E+00  0.00000000E+00
  0.00000000E+00  0.00000000E+00  0.00000000E+00
  0.00000000E+00  0.00000000E+00  0.00000000E+00
  0.00000000E+00  0.00000000E+00  0.00000000E+00
  0.00000000E+00  0.00000000E+00  0.00000000E+00
  0.00000000E+00  0.00000000E+00  0.00000000E+00
  0.00000000E+00  0.00000000E+00  0.00000000E+00
  0.00000000E+00  0.00000000E+00  0.00000000E+00
  0.00000000E+00  0.00000000E+00  0.00000000E+00
  0.00000000E+00  0.00000000E+00  0.00000000E+00
  0.00000000E+00  0.00000000E+00  0.00000000E+00
  0.00000000E+00  0.00000000E+00  0.00000000E+00
  0.00000000E+00  0.00000000E+00  0.00000000E+00
  0.00000000E+00  0.00000000E+00  0.00000000E+00
  0.00000000E+00  0.00000000E+00  0.00000000E+00
  0.00000000E+00  0.00000000E+00  0.00000000E+00
  0.00000000E+00  0.00000000E+00  0.00000000E+00
  0.00000000E+00  0.00000000E+00  0.00000000E+00
  0.00000000E+00  0.00000000E+00  0.00000000E+00
  0.00000000E+00  0.00000000E+00  0.00000000E+00
  0.00000000E+00  0.00000000E+00  0.00000000E+00
  0.00000000E+00  0.00000000E+00  0.00000000E+00
  0.00000000E+00  0.00000000E+00  0.00000000E+00
  0.00000000E+00  0.00000000E+00  0.00000000E+00
  0.00000000E+00  0.00000000E+00  0.00000000E+00
  0.00000000E+00  0.00000000E+00  0.00000000E+00
  0.00000000E+00  0.00000000E+00  0.00000000E+00
  0.00000000E+00  0.00000000E+00  0.00000000E+00
  0.00000000E+00  0.00000000E+00  0.00000000E+00
  0.00000000E+00  0.00000000E+00  0.00000000E+00
  0.00000000E+00  0.00000000E+00  0.00000000E+00
  0.00000000E+00  0.00000000E+00  0.00000000E+00
  0.00000000E+00  0.00000000E+00  0.00000000E+00
  0.00000000E+00  0.00000000E+00  0.00000000E+00
  0.00000000E+00  0.00000000E+00  0.00000000E+00
  0.00000000E+00  0.00000000E+00  0.00000000E+00
  0.00000000E+00  0.00000000E+00  0.00000000E+00
  0.00000000E+00  0.00000000E+00  0.00000000E+00
  0.00000000E+00  0.00000000E+00  0.00000000E+00
  0.00000000E+00  0.00000000E+00  0.00000000E+00
  0.00000000E+00  0.00000000E+00  0.00000000E+00
  0.00000000E+00  0.00000000E+00  0.00000000E+00
  0.00000000E+00  0.00000000E+00  0.00000000E+00
  0.00000000E+00  0.00000000E+00  0.00000000E+00
  0.00000000E+00  0.00000000E+00  0.00000000E+00
