B N Ge O                                
   1.0000000000000000     
     8.7639499999999995  -15.1796066749929999    0.0000000000000000
     8.7639499999999995   15.1796066749929999    0.0000000000000000
     0.0000000000000000    0.0000000000000000   15.0000000000000000
   B    N    Ge   O 
    48    48     1     1
Selective dynamics
Direct
  0.9049607497337873  0.9523279099342542  0.1074815268107234   T   T   T
  0.9048974205199691  0.0951046006760091  0.1085336997448762   T   T   T
  0.9048830485016747  0.2379357303440177  0.1097299507904400   T   T   T
  0.9049675706330671  0.3808349514311691  0.1102474039447806   T   T   T
  0.9050682062843894  0.5237385011265135  0.1102069190331113   T   T   T
  0.9046874138021779  0.6665313450132950  0.1093081186974107   T   T   T
  0.9044695605744799  0.8090864699910190  0.1084916222321525   T   T   T
  0.0476760046131904  0.9523260165828229  0.1091633573591303   T   T   T
  0.0476741112617488  0.0950412714621778  0.1074815268107234   T   T   T
  0.0475527507328039  0.2378405784528187  0.1067091877418566   T   T   T
  0.0475058239993560  0.3808513049486971  0.1074501467885992   T   T   T
  0.0475088036271534  0.5238286611153279  0.1088234440362012   T   T   T
  0.0476359391691312  0.6666780497454941  0.1102329361014870   T   T   T
  0.0475980511597466  0.8094895192577692  0.1103628303767258   T   T   T
  0.1905125019382284  0.9524039700362851  0.1103628303767258   T   T   T
  0.1909155512049913  0.0955324606215238  0.1084916222321525   T   T   T
  0.1902185841088379  0.2376466327749619  0.1052779587081000   T   T   T
  0.1899455031735526  0.3806259622285349  0.1072096059602350   T   T   T
  0.1897970340907092  0.5239051820651928  0.1079252380484112   T   T   T
  0.1904918362985803  0.6667485850636021  0.1097091995753259   T   T   T
  0.1904397804638636  0.8095622407321270  0.1106996270873448   T   T   T
  0.3333239714514998  0.9523660820268752  0.1102329361014871   T   T   T
  0.3334706761836867  0.0953146073937961  0.1093081186974107   T   T   T
  0.3344157826232821  0.2391288442825852  0.1080803803392339   T   T   T
  0.3316092086647829  0.3796096983232049  0.1194610835482607   T   T   T
  0.3301540501961815  0.5227859611853549  0.1263530476816843   T   T   T
  0.3334302471937646  0.6665717740032472  0.1138136804853521   T   T   T
  0.3332534361334077  0.8095101848974178  0.1097091995753259   T   T   T
  0.4761733600816482  0.9524932175688459  0.1088234440362012   T   T   T
  0.4762635200704777  0.0949338149115957  0.1102069190331113   T   T   T
  0.4764550358488887  0.2373173391114116  0.1082926244149521   T   T   T
  0.4783406795409711  0.3807107751330421  0.1023582116281859   T   T   T
  0.4772160600116377  0.6698479710008285  0.1263530476816843   T   T   T
  0.4760968391317890  0.8102049871052925  0.1079252380484112   T   T   T
  0.6191507162473405  0.9524961971966122  0.1074501467885992   T   T   T
  0.6191670697648376  0.0950344505629382  0.1102474039447806   T   T   T
  0.6193511124735976  0.2375921735682923  0.1102021096075542   T   T   T
  0.6198598411950222  0.3801421800009608  0.1062576374784007   T   T   T
  0.6192912460629988  0.5216613416560479  0.1023582116281859   T   T   T
  0.6203923228727739  0.6683928125322051  0.1194610835482607   T   T   T
  0.6193760589674812  0.8100565180224480  0.1072096059602350   T   T   T
  0.7621614427432170  0.9524492704631798  0.1067091877418566   T   T   T
  0.7620662908519497  0.0951189726943326  0.1097299507904400   T   T   T
  0.7621497080143370  0.2378523131816994  0.1110855295867824   T   T   T
  0.7624098476277390  0.3806509087223898  0.1102021096075542   T   T   T
  0.7626846820845706  0.5235469853481249  0.1082926244149521   T   T   T
  0.7608731769134135  0.6655862385737183  0.1080803803392339   T   T   T
  0.7623553884210355  0.8097834370871647  0.1052779587080929   T   T   T
  0.9523363146710068  0.9044756377903314  0.1084305642007665   T   T   T
  0.9525171738594120  0.0474842280585777  0.1081333611286358   T   T   T
  0.9524056589267429  0.1902772825147979  0.1086315263195311   T   T   T
  0.9523711817033222  0.3331408410149808  0.1093726257409772   T   T   T
  0.9524077386306131  0.4760603088932547  0.1099870380925287   T   T   T
  0.9523475168751663  0.6189492318322903  0.1100596625066232   T   T   T
  0.9522840934219149  0.7617039347285374  0.1096082923642898   T   T   T
  0.0952736586142683  0.9047277433037352  0.1102806171446999   T   T   T
  0.0955257641276592  0.0476650872469930  0.1084305642007664   T   T   T
  0.0950918924461642  0.1901076733462410  0.1057432939451297   T   T   T
  0.0948764941203324  0.3330254700269456  0.1062021963675915   T   T   T
  0.0947620972707847  0.4760943265026063  0.1071084555310303   T   T   T
  0.0951967080429629  0.6190655719985160  0.1095269754896446   T   T   T
  0.0951966334133434  0.7619018027000516  0.1107385516520036   T   T   T
  0.2380995992179676  0.9048047685046599  0.1107385516520036   T   T   T
  0.2382974671894651  0.0477173084960800  0.1096082923642899   T   T   T
  0.2388455917798820  0.1909341705407167  0.1073964121147094   T   T   T
  0.2372251739065826  0.3324377879601378  0.1061029183352105   T   T   T
  0.2367115692532849  0.4760144171015955  0.1091610572489069   T   T   T
  0.2380628965866418  0.6191338607606990  0.1099015287478383   T   T   T
  0.2380264334967867  0.7619749684212258  0.1103460351898376   T   T   T
  0.3809358299194784  0.9048046938750625  0.1095269754896446   T   T   T
  0.3810521700857467  0.0476538850428357  0.1100596625066232   T   T   T
  0.3813516260305777  0.1906864734748063  0.1081006656581115   T   T   T
  0.3828529348412263  0.3351511717334507  0.1098649630637198   T   T   T
  0.3704658821540641  0.4701529244997869  0.1438674307668847   T   T   T
  0.3809419644694091  0.6190594374485959  0.1238822237028013   T   T   T
  0.3808675411572897  0.7619385053313589  0.1099015287478384   T   T   T
  0.5239070754143832  0.9052393046472108  0.1071084555310303   T   T   T
  0.5239410930237549  0.0475936632874234  0.1099870380925287   T   T   T
  0.5241167262452140  0.1900401303304631  0.1100292048362739   T   T   T
  0.5245616002390902  0.3323240172584049  0.1055096957030851   T   T   T
  0.5298484774172277  0.6295355197639273  0.1438674307668847   T   T   T
  0.5239869848153622  0.7632898326647082  0.1091610572489069   T   T   T
  0.6669759318900302  0.9051249077976953  0.1062021963675915   T   T   T
  0.6668605609020317  0.0476302202147189  0.1093726257409772   T   T   T
  0.6669364966111305  0.1901951731328794  0.1110166791792440   T   T   T
  0.6672241174462137  0.3327772844707450  0.1092090282991601   T   T   T
  0.6676773846585933  0.4754398016778739  0.1055096957030851   T   T   T
  0.6648502301835334  0.6171484670767948  0.1098649630637198   T   T   T
  0.6675636139569122  0.7627762280114105  0.1061029183352105   T   T   T
  0.8098937285716816  0.9049095094718329  0.1057432939451297   T   T   T
  0.8097241194032211  0.0475957429912288  0.1086315263195309   T   T   T
  0.8096980375450776  0.1903033643729078  0.1107608221535003   T   T   T
  0.8098062287851233  0.3330649053058845  0.1110166791792440   T   T   T
  0.8099612715875285  0.4758846756717924  0.1100292048362739   T   T   T
  0.8093149284431741  0.6186497758874431  0.1081006656581115   T   T   T
  0.8090672313772472  0.7611558101381143  0.1073964121147094   T   T   T
  0.4684473002417616  0.5315547209552254  0.2148994353318383   T   T   T
  0.5284931040587343  0.4715082978582477  0.0923483774486341   T   T   T

  0.00000000E+00  0.00000000E+00  0.00000000E+00
  0.00000000E+00  0.00000000E+00  0.00000000E+00
  0.00000000E+00  0.00000000E+00  0.00000000E+00
  0.00000000E+00  0.00000000E+00  0.00000000E+00
  0.00000000E+00  0.00000000E+00  0.00000000E+00
  0.00000000E+00  0.00000000E+00  0.00000000E+00
  0.00000000E+00  0.00000000E+00  0.00000000E+00
  0.00000000E+00  0.00000000E+00  0.00000000E+00
  0.00000000E+00  0.00000000E+00  0.00000000E+00
  0.00000000E+00  0.00000000E+00  0.00000000E+00
  0.00000000E+00  0.00000000E+00  0.00000000E+00
  0.00000000E+00  0.00000000E+00  0.00000000E+00
  0.00000000E+00  0.00000000E+00  0.00000000E+00
  0.00000000E+00  0.00000000E+00  0.00000000E+00
  0.00000000E+00  0.00000000E+00  0.00000000E+00
  0.00000000E+00  0.00000000E+00  0.00000000E+00
  0.00000000E+00  0.00000000E+00  0.00000000E+00
  0.00000000E+00  0.00000000E+00  0.00000000E+00
  0.00000000E+00  0.00000000E+00  0.00000000E+00
  0.00000000E+00  0.00000000E+00  0.00000000E+00
  0.00000000E+00  0.00000000E+00  0.00000000E+00
  0.00000000E+00  0.00000000E+00  0.00000000E+00
  0.00000000E+00  0.00000000E+00  0.00000000E+00
  0.00000000E+00  0.00000000E+00  0.00000000E+00
  0.00000000E+00  0.00000000E+00  0.00000000E+00
  0.00000000E+00  0.00000000E+00  0.00000000E+00
  0.00000000E+00  0.00000000E+00  0.00000000E+00
  0.00000000E+00  0.00000000E+00  0.00000000E+00
  0.00000000E+00  0.00000000E+00  0.00000000E+00
  0.00000000E+00  0.00000000E+00  0.00000000E+00
  0.00000000E+00  0.00000000E+00  0.00000000E+00
  0.00000000E+00  0.00000000E+00  0.00000000E+00
  0.00000000E+00  0.00000000E+00  0.00000000E+00
  0.00000000E+00  0.00000000E+00  0.00000000E+00
  0.00000000E+00  0.00000000E+00  0.00000000E+00
  0.00000000E+00  0.00000000E+00  0.00000000E+00
  0.00000000E+00  0.00000000E+00  0.00000000E+00
  0.00000000E+00  0.00000000E+00  0.00000000E+00
  0.00000000E+00  0.00000000E+00  0.00000000E+00
  0.00000000E+00  0.00000000E+00  0.00000000E+00
  0.00000000E+00  0.00000000E+00  0.00000000E+00
  0.00000000E+00  0.00000000E+00  0.00000000E+00
  0.00000000E+00  0.00000000E+00  0.00000000E+00
  0.00000000E+00  0.00000000E+00  0.00000000E+00
  0.00000000E+00  0.00000000E+00  0.00000000E+00
  0.00000000E+00  0.00000000E+00  0.00000000E+00
  0.00000000E+00  0.00000000E+00  0.00000000E+00
  0.00000000E+00  0.00000000E+00  0.00000000E+00
  0.00000000E+00  0.00000000E+00  0.00000000E+00
  0.00000000E+00  0.00000000E+00  0.00000000E+00
  0.00000000E+00  0.00000000E+00  0.00000000E+00
  0.00000000E+00  0.00000000E+00  0.00000000E+00
  0.00000000E+00  0.00000000E+00  0.00000000E+00
  0.00000000E+00  0.00000000E+00  0.00000000E+00
  0.00000000E+00  0.00000000E+00  0.00000000E+00
  0.00000000E+00  0.00000000E+00  0.00000000E+00
  0.00000000E+00  0.00000000E+00  0.00000000E+00
  0.00000000E+00  0.00000000E+00  0.00000000E+00
  0.00000000E+00  0.00000000E+00  0.00000000E+00
  0.00000000E+00  0.00000000E+00  0.00000000E+00
  0.00000000E+00  0.00000000E+00  0.00000000E+00
  0.00000000E+00  0.00000000E+00  0.00000000E+00
  0.00000000E+00  0.00000000E+00  0.00000000E+00
  0.00000000E+00  0.00000000E+00  0.00000000E+00
  0.00000000E+00  0.00000000E+00  0.00000000E+00
  0.00000000E+00  0.00000000E+00  0.00000000E+00
  0.00000000E+00  0.00000000E+00  0.00000000E+00
  0.00000000E+00  0.00000000E+00  0.00000000E+00
  0.00000000E+00  0.00000000E+00  0.00000000E+00
  0.00000000E+00  0.00000000E+00  0.00000000E+00
  0.00000000E+00  0.00000000E+00  0.00000000E+00
  0.00000000E+00  0.00000000E+00  0.00000000E+00
  0.00000000E+00  0.00000000E+00  0.00000000E+00
  0.00000000E+00  0.00000000E+00  0.00000000E+00
  0.00000000E+00  0.00000000E+00  0.00000000E+00
  0.00000000E+00  0.00000000E+00  0.00000000E+00
  0.00000000E+00  0.00000000E+00  0.00000000E+00
  0.00000000E+00  0.00000000E+00  0.00000000E+00
  0.00000000E+00  0.00000000E+00  0.00000000E+00
  0.00000000E+00  0.00000000E+00  0.00000000E+00
  0.00000000E+00  0.00000000E+00  0.00000000E+00
  0.00000000E+00  0.00000000E+00  0.00000000E+00
  0.00000000E+00  0.00000000E+00  0.00000000E+00
  0.00000000E+00  0.00000000E+00  0.00000000E+00
  0.00000000E+00  0.00000000E+00  0.00000000E+00
  0.00000000E+00  0.00000000E+00  0.00000000E+00
  0.00000000E+00  0.00000000E+00  0.00000000E+00
  0.00000000E+00  0.00000000E+00  0.00000000E+00
  0.00000000E+00  0.00000000E+00  0.00000000E+00
  0.00000000E+00  0.00000000E+00  0.00000000E+00
  0.00000000E+00  0.00000000E+00  0.00000000E+00
  0.00000000E+00  0.00000000E+00  0.00000000E+00
  0.00000000E+00  0.00000000E+00  0.00000000E+00
  0.00000000E+00  0.00000000E+00  0.00000000E+00
  0.00000000E+00  0.00000000E+00  0.00000000E+00
  0.00000000E+00  0.00000000E+00  0.00000000E+00
  0.00000000E+00  0.00000000E+00  0.00000000E+00
  0.00000000E+00  0.00000000E+00  0.00000000E+00
