B N O                                   
   1.0000000000000000     
     8.7639499999999995  -15.1796066749929999    0.0000000000000000
     8.7639499999999995   15.1796066749929999    0.0000000000000000
     0.0000000000000000    0.0000000000000000   15.0000000000000000
   B    N    O 
    48    49     1
Selective dynamics
Direct
  0.9047396865278542  0.9523117792162539  0.1110304369186938   T   T   T
  0.9048055383469777  0.0951964828490188  0.1110368975995783   T   T   T
  0.9048234616386293  0.2381260776648167  0.1110567450674078   T   T   T
  0.9048055383469777  0.3810377491889560  0.1110368975995783   T   T   T
  0.9047396865278542  0.5238583125596016  0.1110304369186938   T   T   T
  0.9051103617142168  0.6667850104066485  0.1110558299965591   T   T   T
  0.9051103617142168  0.8097557565555700  0.1110558299965591   T   T   T
  0.0476337462444141  0.9523682749515896  0.1110350951937904   T   T   T
  0.0476902419797493  0.0952623346681424  0.1110304369186938   T   T   T
  0.0477590414639645  0.2381779592621465  0.1110311749707088   T   T   T
  0.0477590414639645  0.3810114874488180  0.1110311749707088   T   T   T
  0.0476902419797493  0.5238583125596016  0.1110304369186938   T   T   T
  0.0476337462444141  0.6666975880968221  0.1110350951937904   T   T   T
  0.0476765265296822  0.8095543216668432  0.1110261162227838   T   T   T
  0.1904476995291602  0.9523254946663212  0.1110261162227838   T   T   T
  0.1902462646404336  0.0948916594817796  0.1110558299965591   T   T   T
  0.1906536678392341  0.2380536550607739  0.1110405166905152   T   T   T
  0.1905682286581784  0.3809993169525893  0.1110146324188849   T   T   T
  0.1906536678392341  0.5240304180264621  0.1110405166905152   T   T   T
  0.1902462646404336  0.6667850104066485  0.1110558299965591   T   T   T
  0.1904476995291602  0.8095543216668432  0.1110261162227838   T   T   T
  0.3333044331001764  0.9523682749515896  0.1110350951937904   T   T   T
  0.3332170107903497  0.0948916594817796  0.1110558299965591   T   T   T
  0.3326842287576159  0.2367968415652333  0.1110453805052069   T   T   T
  0.3335843759980104  0.3791734493768619  0.1110136403248484   T   T   T
  0.3335843759980104  0.5258413318681484  0.1110136403248484   T   T   T
  0.3326842287576159  0.6673177924393824  0.1110453805052069   T   T   T
  0.3332170107903497  0.8097557565555700  0.1110558299965591   T   T   T
  0.4761437086373968  0.9523117792162539  0.1110304369186938   T   T   T
  0.4761437086373968  0.0952623346681424  0.1110304369186938   T   T   T
  0.4759716031705362  0.2380536550607739  0.1110405166905152   T   T   T
  0.4741606893288500  0.3791734493768619  0.1110136403248484   T   T   T
  0.4741606893288500  0.6664176451989877  0.1110136403248484   T   T   T
  0.4759716031705362  0.8093483533567692  0.1110405166905152   T   T   T
  0.6189905337471856  0.9522429797320388  0.1110311749707088   T   T   T
  0.6189642720070475  0.0951964828490188  0.1110368975995783   T   T   T
  0.6189905337471856  0.2381779592621465  0.1110311749707088   T   T   T
  0.6190027042434143  0.3809993169525893  0.1110146324188849   T   T   T
  0.6208285718191416  0.5258413318681483  0.1110136403248484   T   T   T
  0.6208285718191416  0.6664176451989877  0.1110136403248484   T   T   T
  0.6190027042434143  0.8094337925378248  0.1110146324188849   T   T   T
  0.7618240619338571  0.9522429797320388  0.1110311749707088   T   T   T
  0.7618759435311868  0.0951785595573673  0.1110567450674078   T   T   T
  0.7618759435311868  0.2381260776648167  0.1110567450674078   T   T   T
  0.7618240619338571  0.3810114874488180  0.1110311749707088   T   T   T
  0.7619483661352294  0.5240304180264621  0.1110405166905152   T   T   T
  0.7632051796307701  0.6673177924393824  0.1110453805052069   T   T   T
  0.7619483661352294  0.8093483533567692  0.1110405166905152   T   T   T
  0.9523836154325056  0.9047924132721701  0.1110238744611168   T   T   T
  0.9524238594563786  0.0475775424616271  0.1110105596688385   T   T   T
  0.9525877710190740  0.1905632189691625  0.1110275977013712   T   T   T
  0.9525877710190740  0.3334515341679097  0.1110275977013712   T   T   T
  0.9524238594563786  0.4762732991127498  0.1110105596688385   T   T   T
  0.9523836154325056  0.6190198958353317  0.1110238744611168   T   T   T
  0.9523979834273926  0.7619133385511975  0.1110291639054832   T   T   T
  0.0952302701276902  0.9047711317903081  0.1110108983690736   T   T   T
  0.0952089886458286  0.0476177864854999  0.1110238744611168   T   T   T
  0.0956396607395746  0.1908199710705097  0.1110155873329746   T   T   T
  0.0956912592290277  0.3335599764515143  0.1110082714088849   T   T   T
  0.0956396607395746  0.4762483833430659  0.1110155873329746   T   T   T
  0.0952089886458286  0.6190198958353317  0.1110238744611168   T   T   T
  0.0952302701276902  0.7618895435683875  0.1110108983690736   T   T   T
  0.2381118583496183  0.9047711317903081  0.1110108983690736   T   T   T
  0.2380880633668080  0.0476034184906132  0.1110291639054832   T   T   T
  0.2380110843311117  0.1903665082460154  0.1110248048268468   T   T   T
  0.2390760970999757  0.3342113882474880  0.1109950913017205   T   T   T
  0.2390760970999757  0.4762934025264816  0.1109950913017205   T   T   T
  0.2380110843311117  0.6190732697600922  0.1110248048268468   T   T   T
  0.2380880633668080  0.7619133385511975  0.1110291639054832   T   T   T
  0.3809815060826670  0.9047924132721701  0.1110238744611168   T   T   T
  0.3809815060826670  0.0476177864854999  0.1110238744611168   T   T   T
  0.3809281321579067  0.1903665082460154  0.1110248048268468   T   T   T
  0.3805382783301198  0.3325038484172367  0.1109931524741512   T   T   T
  0.3790198779525718  0.4752242858132828  0.1108172962211476   T   T   T
  0.3805382783301198  0.6194631235878788  0.1109931524741512   T   T   T
  0.3809281321579067  0.7619903175868940  0.1110248048268468   T   T   T
  0.5237530185739309  0.9043617411784239  0.1110155873329746   T   T   T
  0.5237281028042469  0.0475775424616271  0.1110105596688385   T   T   T
  0.5237530185739309  0.1908199710705097  0.1110155873329746   T   T   T
  0.5237079993905152  0.3342113882474880  0.1109950913017205   T   T   T
  0.5247771161037140  0.4752242858132828  0.1108172962211476   T   T   T
  0.5247771161037140  0.6209815239654268  0.1108172962211476   T   T   T
  0.5237079993905152  0.7609253048180299  0.1109950913017205   T   T   T
  0.6664414254654825  0.9043101426889709  0.1110082714088849   T   T   T
  0.6665498677490870  0.0474136308989317  0.1110275977013712   T   T   T
  0.6665498677490870  0.1905632189691625  0.1110275977013712   T   T   T
  0.6664414254654825  0.3335599764515143  0.1110082714088849   T   T   T
  0.6657900136695086  0.4762934025264816  0.1109950913017205   T   T   T
  0.6674975534997600  0.6194631235878788  0.1109931524741512   T   T   T
  0.6657900136695086  0.7609253048180299  0.1109950913017205   T   T   T
  0.8091814308474888  0.9043617411784239  0.1110155873329746   T   T   T
  0.8094381829488362  0.0474136308989317  0.1110275977013712   T   T   T
  0.8095252739059973  0.1904761280120013  0.1110368203962599   T   T   T
  0.8094381829488362  0.3334515341679097  0.1110275977013712   T   T   T
  0.8091814308474888  0.4762483833430659  0.1110155873329746   T   T   T
  0.8096348936719832  0.6190732697600922  0.1110248048268468   T   T   T
  0.8096348936719832  0.7619903175868940  0.1110248048268468   T   T   T
  0.4761912123819982  0.5238108088150000  0.1111192252859050   T   T   T

  0.00000000E+00  0.00000000E+00  0.00000000E+00
  0.00000000E+00  0.00000000E+00  0.00000000E+00
  0.00000000E+00  0.00000000E+00  0.00000000E+00
  0.00000000E+00  0.00000000E+00  0.00000000E+00
  0.00000000E+00  0.00000000E+00  0.00000000E+00
  0.00000000E+00  0.00000000E+00  0.00000000E+00
  0.00000000E+00  0.00000000E+00  0.00000000E+00
  0.00000000E+00  0.00000000E+00  0.00000000E+00
  0.00000000E+00  0.00000000E+00  0.00000000E+00
  0.00000000E+00  0.00000000E+00  0.00000000E+00
  0.00000000E+00  0.00000000E+00  0.00000000E+00
  0.00000000E+00  0.00000000E+00  0.00000000E+00
  0.00000000E+00  0.00000000E+00  0.00000000E+00
  0.00000000E+00  0.00000000E+00  0.00000000E+00
  0.00000000E+00  0.00000000E+00  0.00000000E+00
  0.00000000E+00  0.00000000E+00  0.00000000E+00
  0.00000000E+00  0.00000000E+00  0.00000000E+00
  0.00000000E+00  0.00000000E+00  0.00000000E+00
  0.00000000E+00  0.00000000E+00  0.00000000E+00
  0.00000000E+00  0.00000000E+00  0.00000000E+00
  0.00000000E+00  0.00000000E+00  0.00000000E+00
  0.00000000E+00  0.00000000E+00  0.00000000E+00
  0.00000000E+00  0.00000000E+00  0.00000000E+00
  0.00000000E+00  0.00000000E+00  0.00000000E+00
  0.00000000E+00  0.00000000E+00  0.00000000E+00
  0.00000000E+00  0.00000000E+00  0.00000000E+00
  0.00000000E+00  0.00000000E+00  0.00000000E+00
  0.00000000E+00  0.00000000E+00  0.00000000E+00
  0.00000000E+00  0.00000000E+00  0.00000000E+00
  0.00000000E+00  0.00000000E+00  0.00000000E+00
  0.00000000E+00  0.00000000E+00  0.00000000E+00
  0.00000000E+00  0.00000000E+00  0.00000000E+00
  0.00000000E+00  0.00000000E+00  0.00000000E+00
  0.00000000E+00  0.00000000E+00  0.00000000E+00
  0.00000000E+00  0.00000000E+00  0.00000000E+00
  0.00000000E+00  0.00000000E+00  0.00000000E+00
  0.00000000E+00  0.00000000E+00  0.00000000E+00
  0.00000000E+00  0.00000000E+00  0.00000000E+00
  0.00000000E+00  0.00000000E+00  0.00000000E+00
  0.00000000E+00  0.00000000E+00  0.00000000E+00
  0.00000000E+00  0.00000000E+00  0.00000000E+00
  0.00000000E+00  0.00000000E+00  0.00000000E+00
  0.00000000E+00  0.00000000E+00  0.00000000E+00
  0.00000000E+00  0.00000000E+00  0.00000000E+00
  0.00000000E+00  0.00000000E+00  0.00000000E+00
  0.00000000E+00  0.00000000E+00  0.00000000E+00
  0.00000000E+00  0.00000000E+00  0.00000000E+00
  0.00000000E+00  0.00000000E+00  0.00000000E+00
  0.00000000E+00  0.00000000E+00  0.00000000E+00
  0.00000000E+00  0.00000000E+00  0.00000000E+00
  0.00000000E+00  0.00000000E+00  0.00000000E+00
  0.00000000E+00  0.00000000E+00  0.00000000E+00
  0.00000000E+00  0.00000000E+00  0.00000000E+00
  0.00000000E+00  0.00000000E+00  0.00000000E+00
  0.00000000E+00  0.00000000E+00  0.00000000E+00
  0.00000000E+00  0.00000000E+00  0.00000000E+00
  0.00000000E+00  0.00000000E+00  0.00000000E+00
  0.00000000E+00  0.00000000E+00  0.00000000E+00
  0.00000000E+00  0.00000000E+00  0.00000000E+00
  0.00000000E+00  0.00000000E+00  0.00000000E+00
  0.00000000E+00  0.00000000E+00  0.00000000E+00
  0.00000000E+00  0.00000000E+00  0.00000000E+00
  0.00000000E+00  0.00000000E+00  0.00000000E+00
  0.00000000E+00  0.00000000E+00  0.00000000E+00
  0.00000000E+00  0.00000000E+00  0.00000000E+00
  0.00000000E+00  0.00000000E+00  0.00000000E+00
  0.00000000E+00  0.00000000E+00  0.00000000E+00
  0.00000000E+00  0.00000000E+00  0.00000000E+00
  0.00000000E+00  0.00000000E+00  0.00000000E+00
  0.00000000E+00  0.00000000E+00  0.00000000E+00
  0.00000000E+00  0.00000000E+00  0.00000000E+00
  0.00000000E+00  0.00000000E+00  0.00000000E+00
  0.00000000E+00  0.00000000E+00  0.00000000E+00
  0.00000000E+00  0.00000000E+00  0.00000000E+00
  0.00000000E+00  0.00000000E+00  0.00000000E+00
  0.00000000E+00  0.00000000E+00  0.00000000E+00
  0.00000000E+00  0.00000000E+00  0.00000000E+00
  0.00000000E+00  0.00000000E+00  0.00000000E+00
  0.00000000E+00  0.00000000E+00  0.00000000E+00
  0.00000000E+00  0.00000000E+00  0.00000000E+00
  0.00000000E+00  0.00000000E+00  0.00000000E+00
  0.00000000E+00  0.00000000E+00  0.00000000E+00
  0.00000000E+00  0.00000000E+00  0.00000000E+00
  0.00000000E+00  0.00000000E+00  0.00000000E+00
  0.00000000E+00  0.00000000E+00  0.00000000E+00
  0.00000000E+00  0.00000000E+00  0.00000000E+00
  0.00000000E+00  0.00000000E+00  0.00000000E+00
  0.00000000E+00  0.00000000E+00  0.00000000E+00
  0.00000000E+00  0.00000000E+00  0.00000000E+00
  0.00000000E+00  0.00000000E+00  0.00000000E+00
  0.00000000E+00  0.00000000E+00  0.00000000E+00
  0.00000000E+00  0.00000000E+00  0.00000000E+00
  0.00000000E+00  0.00000000E+00  0.00000000E+00
  0.00000000E+00  0.00000000E+00  0.00000000E+00
  0.00000000E+00  0.00000000E+00  0.00000000E+00
  0.00000000E+00  0.00000000E+00  0.00000000E+00
  0.00000000E+00  0.00000000E+00  0.00000000E+00
  0.00000000E+00  0.00000000E+00  0.00000000E+00
