 O N B 
 1.0
 17.527899999999772   0.000000000000000   0.000000000000000
 -8.763949999999658  15.179606674993195   0.000000000000000
  0.000000000000001   0.000000000000002  15.000000000000000
 O N B 
   2  48  48
Cartesian
  3.505755514253265   8.095709347445188   1.651301020733775 
  5.315158564248653   7.051043742506680   1.649728305345675 
  8.753785411145302  13.723561579781217   1.665108074733570 
 16.285782093772820   0.717151294568253   1.665583578638355 
 15.046624848457501   2.886387585719057   1.665773552798025 
 13.795156863204173   5.051754212564338   1.665451867991550 
 12.533299844933730   7.221486764640890   1.664319955660155 
 11.258839122595973   9.394940375764367   1.666681344534300 
  9.998048610731267  11.560949762759712   1.666295571863550 
 -6.275451641483114  13.742885664868103   1.664582486788410 
  1.255902033421385   0.736846620336316   1.665108074733570 
  0.023220620330351   2.914195334332517   1.663209491041905 
 -1.235374436204905   5.069676791922348   1.663986565674405 
 -2.523766426127262   7.233296736002371   1.666096008679515 
 -3.783714017944454   9.406236929690966   1.664799686914485 
 -5.032674148673739  11.575548068709638   1.665101082647730 
 -3.777093478228011  13.750277582923092   1.665101082647730 
  3.750910405279065   0.740588989011783   1.666295571863550 
  2.524512312025269   2.930361742313873   1.665275042814465 
  1.286149334867545   5.120947043458401   1.665024353704845 
 -0.056680323785723   7.253241806703963   1.668902295743745 
 -1.306204370591906   9.419932524815700   1.668042364119690 
 -2.539501804578475  11.585934020852600   1.665126683216625 
 -1.273934857760080  13.753301950906501   1.664799686914485 
  6.257124815185989   0.731717070383727   1.666681344534300 
  5.025116114817881   2.903446345155125   1.665814347166575 
  3.813406839503276   5.124289972278381   1.663883091827130 
  2.382218832232614   7.350862247645031   1.661048751913725 
  1.156437761621981   9.452082317398373   1.660730954359875 
 -0.047040767381698  11.600867860615661   1.668042364119690 
  1.237860346768757  13.748625425800272   1.666096008679515 
  8.776621217516752   0.714728514276800   1.664319955660155 
  7.556179630764760   2.856953722542721   1.668187309441695 
  6.356968311328975   4.985559633549079   1.667095616239065 
  3.589038256257270   9.441134805647854   1.661048751913725 
  2.454130460031034  11.602093652498864   1.668902295743745 
  3.755806177439286  13.714655204535436   1.663986565674405 
 11.286593236168388   0.706794556548862   1.665451867991550 
 10.054643707977705   2.866199844602166   1.664849015925750 
  8.830812930514981   5.021279747765219   1.668137153621505 
  7.624825147259635   7.181552090102674   1.667095616239065 
  6.232900413722989   9.314975771442693   1.663883091827130 
  4.972166722685620  11.505316436772297   1.665024353704845 
  6.251805405381987  13.702420641293450   1.663209491041905 
 13.787589736167744   0.705674802718499   1.665773552798025 
 12.549717089323249   2.874169430597111   1.665793045051890 
 11.309082262589049   5.038951156129878   1.664849015925750 
 10.067857600572324   7.207307578468558   1.668187309441695 
  8.762062050319329   9.376026570580192   1.665814347166575 
  7.488450731230517  11.528155290019077   1.665275042814465 
  7.505593220483490  14.443403720513434   1.665269281555935 
 15.037810184910374   1.437674479022016   1.666397744823015 
 13.795611458115072   3.604849146884170   1.666361849715165 
 12.546575349629183   5.774322468177330   1.665107826056415 
 11.292679739875673   7.946509707895896   1.666481304479700 
 10.006394472926143  10.114633404674727   1.667135059460505 
  8.742930707778495  12.272319457051465   1.665678210080550 
 -7.523344040493535  14.463362944287365   1.665442952094720 
  0.008409784822556   1.457901096286428   1.665269281555935 
 -1.235162298123322   3.619619433222917   1.664055009638265 
 -2.495449829967172   5.786190152501451   1.665762490728090 
 -3.766880025398070   7.957913809144326   1.664653153667790 
 -5.030883345196338  10.129490618534184   1.665625471148145 
 -6.282194770793500  12.295538301731463   1.665623590210185 
 -5.025378194239609  14.472408468116573   1.665623590210185 
  2.507292654385625   1.471877530964855   1.665678210080550 
  1.273003103782432   3.655097958856595   1.662609369030060 
  0.002366844325486   5.802804920343998   1.665030160814910 
 -1.301820239260144   7.970986978614508   1.669624507293615 
 -2.551672965611646  10.142806415922001   1.666875020514720 
 -3.787871936717920  12.306687119622817   1.664639890632225 
 -2.523870161966911  14.471764827102978   1.665625471148145 
  5.007635471725758   1.456528839774263   1.667135059460505 
  3.785799916378955   3.651139919688034   1.663954725043245 
  2.556687599730744   5.836128718890272   1.677826914342600 
  1.122552912215963   8.035137943438057   1.659605873866620 
 -0.090237884466673  10.171857104200420   1.666454966334540 
 -1.295796790983639  12.318047758361770   1.666875020514720 
 -0.011227818865672  14.462894246385009   1.664653153667790 
  7.528428305157584   1.426634970471972   1.666481304479700 
  6.314125047018653   3.565653447886478   1.668559351830975 
  5.143024794397183   5.719786713035236   1.658274564554175 
  2.366610587847993  10.189909045178705   1.659605873866575 
  1.209980377333316  12.321553265005898   1.669624507293615 
  2.505255135484157  14.447665226323879   1.665762490728090 
 10.036545441390960   1.426823138589926   1.665107826056415 
  8.809221790042464   3.580537398602595   1.667714097313800 
  7.595872217287170   5.734279367921549   1.667411260974975 
  6.381999513132677   7.865753875211161   1.658274564554175 
  4.988075783202797  10.047416585615391   1.677826914342600 
  3.739774661600436  12.276185148468921   1.665030160814910 
  5.011704183395739  14.439509567314047   1.664055009638265 
 12.539882504706018   1.429862799044074   1.666361849715150 
 11.302331074145112   3.594354349174895   1.664523511821780 
 10.067742262291222   5.760358798904837   1.667714097313800 
  8.833083770199902   7.928617938634932   1.668559351830975 
  7.494887748620866  10.075468494894839   1.663954725043245 
  6.235061579861263  12.249635349553266   1.662609369030060 
