Al B N Se                               
   1.0000000000000000     
     8.7639499999999995  -15.1796066749929999    0.0000000000000000
     8.7639499999999995   15.1796066749929999    0.0000000000000000
     0.0000000000000000    0.0000000000000000   15.0000000000000000
   Al   B    N    Se
     1    49    47     1
Selective dynamics
Direct
  0.5320918193555028  0.6311515839540683  0.1110046711785398   T   T   T
  0.9093986669488225  0.9555695082292246  0.1111787438175179   T   T   T
  0.9042759035636598  0.0948181110459290  0.1110715195149169   T   T   T
  0.9027729959019706  0.2366452286281975  0.1110549471243069   T   T   T
  0.9035534323925498  0.3797461851872056  0.1109759102371806   T   T   T
  0.9076002960830853  0.5240655380110452  0.1105727148844327   T   T   T
  0.9133192526950452  0.6693795955413659  0.1107045413340817   T   T   T
  0.9137257427024664  0.8146971780232363  0.1109564896031674   T   T   T
  0.0509365531190643  0.9539180347101834  0.1107896688370213   T   T   T
  0.0471827269902843  0.0943225339402714  0.1110903303293679   T   T   T
  0.0440867338802379  0.2356023039673792  0.1111356508127557   T   T   T
  0.0435129251952471  0.3788822670279540  0.1113426897555220   T   T   T
  0.0454752929595945  0.5232638699999093  0.1115326618041829   T   T   T
  0.0497756572403405  0.6677928957303852  0.1109983932305809   T   T   T
  0.0518713001771106  0.8115339176539829  0.1106812689875972   T   T   T
  0.1919644690801447  0.9526642494716695  0.1109912148468134   T   T   T
  0.1895042446394881  0.0931058343740289  0.1111479843332240   T   T   T
  0.1849394892130350  0.2329487655766239  0.1111542436858262   T   T   T
  0.1829311173977446  0.3768289147235728  0.1106769122197684   T   T   T
  0.1829189887407607  0.5223652228341941  0.1110374716023619   T   T   T
  0.1872288084541149  0.6673012425582124  0.1117063042126970   T   T   T
  0.1914812477793266  0.8105690091556347  0.1114568067517578   T   T   T
  0.3335037496062336  0.9523920961869330  0.1115081538438382   T   T   T
  0.3328529495723631  0.0933450657924734  0.1110261953970858   T   T   T
  0.3280085931045209  0.2315286330049647  0.1108899156120286   T   T   T
  0.3210994238343625  0.3713334886794885  0.1099656453358454   T   T   T
  0.3185100757801606  0.5198686388528421  0.1094639325671502   T   T   T
  0.3237569933067957  0.6671493714669229  0.1099646240064010   T   T   T
  0.3320164959314907  0.8106019553708119  0.1114782102711873   T   T   T
  0.4757235147872876  0.9530952081510489  0.1115577379799087   T   T   T
  0.4759425901108373  0.0933938291393109  0.1111243239755377   T   T   T
  0.4751609892783925  0.2322687000512000  0.1106998190899270   T   T   T
  0.4654574370558952  0.3598799817071124  0.1109538396782506   T   T   T
  0.4440292790661661  0.5170583388857647  0.1132072617729784   T   T   T
  0.4562714137660141  0.6756486970325070  0.1128863562331100   T   T   T
  0.4744573652154921  0.8133451384248116  0.1099709808748393   T   T   T
  0.6191933368077711  0.9528006542804693  0.1111268206410078   T   T   T
  0.6188232180082984  0.0945183028714557  0.1113221622271378   T   T   T
  0.6191989442094206  0.2365879234387215  0.1107055328005278   T   T   T
  0.6210842645799645  0.3795985991128930  0.1112979397145802   T   T   T
  0.6465285835161604  0.5378806944877360  0.1127971236385753   T   T   T
  0.6503837236342309  0.6805176542358751  0.1101409779529562   T   T   T
  0.6224958074192865  0.8118349741996529  0.1100703798562317   T   T   T
  0.7638975614867736  0.9537869664612372  0.1111148390650180   T   T   T
  0.7614245237627217  0.0947426120061921  0.1112354270775862   T   T   T
  0.7612664976243952  0.2369493685588779  0.1109174391431229   T   T   T
  0.7630960656123997  0.3801086124958110  0.1106613761624509   T   T   T
  0.7707519067868894  0.5254536150821705  0.1114069686349150   T   T   T
  0.7822190874049020  0.6757163536398418  0.1120070689468577   T   T   T
  0.7733976598482519  0.8176929282810862  0.1110044343669243   T   T   T
  0.9573352047106298  0.9083040140124521  0.1108733480052282   T   T   T
  0.9534176592536501  0.0488848508825686  0.1110135055925740   T   T   T
  0.9500403191089898  0.1890941788906267  0.1109925664980883   T   T   T
  0.9495404703245850  0.3313916286186684  0.1111414493396292   T   T   T
  0.9517100990492070  0.4748041215826909  0.1109936369133145   T   T   T
  0.9562945708327238  0.6192553651590289  0.1103467334031927   T   T   T
  0.9581503361904494  0.7643476201629862  0.1105995151276479   T   T   T
  0.0978870700911085  0.9060392769847072  0.1106694924504125   T   T   T
  0.0957479879443483  0.0477261729110562  0.1109899274903083   T   T   T
  0.0917245826487168  0.1880386797170580  0.1112236312989261   T   T   T
  0.0897245134455795  0.3302194167816029  0.1111701755066643   T   T   T
  0.0899410412037370  0.4739607358072461  0.1116460531896627   T   T   T
  0.0938028761505719  0.6184884208217880  0.1117270201541032   T   T   T
  0.0973760783725668  0.7627724907309618  0.1109406655998675   T   T   T
  0.2390955549359555  0.9052396573119065  0.1112916368927618   T   T   T
  0.2384354967435291  0.0471071312408578  0.1110477792874721   T   T   T
  0.2345148766377838  0.1870238975746396  0.1112436386561898   T   T   T
  0.2288447801127030  0.3266757862633463  0.1106827288822966   T   T   T
  0.2267524735171008  0.4722438611241159  0.1102074105723117   T   T   T
  0.2309558039787529  0.6178515919237839  0.1110254442151737   T   T   T
  0.2374313021307547  0.7623404024078870  0.1118700907799848   T   T   T
  0.3808859203889681  0.9052374189287258  0.1117785946121007   T   T   T
  0.3811766262714540  0.0469974263318977  0.1111516455213589   T   T   T
  0.3798614476190573  0.1880195485469291  0.1108144773404613   T   T   T
  0.3731602982532750  0.3259134809452205  0.1105203389157815   T   T   T
  0.3570057628211021  0.4641154398105826  0.1090351065208652   T   T   T
  0.3662757371778509  0.6166570286445071  0.1095448662331953   T   T   T
  0.3785326485291111  0.7626746141317644  0.1103682393372101   T   T   T
  0.5238016373836574  0.9066668493793516  0.1110431374075124   T   T   T
  0.5239167901059457  0.0472287917995789  0.1115111717253975   T   T   T
  0.5240405207606892  0.1878228491023141  0.1106265227776040   T   T   T
  0.5238346003084389  0.3269926714537089  0.1109092976771440   T   T   T
  0.5229946850936391  0.7665420056536199  0.1096426183468477   T   T   T
  0.6678255805542529  0.9056231682035066  0.1107305184208564   T   T   T
  0.6664760875590178  0.0472171512788569  0.1114244959933862   T   T   T
  0.6664195358028585  0.1894770270794909  0.1109229706425636   T   T   T
  0.6674827579981290  0.3323170279507210  0.1107177783264203   T   T   T
  0.6751998559151690  0.4766951337151283  0.1121527254106852   T   T   T
  0.6910055626958678  0.6293169389887108  0.1125808253576005   T   T   T
  0.6795955817215866  0.7716821808517770  0.1098026072903303   T   T   T
  0.8155053855203710  0.9101310630715339  0.1114244819566895   T   T   T
  0.8094498988840568  0.0478077211797894  0.1111535779448392   T   T   T
  0.8082225062258253  0.1893323558289282  0.1110434415951723   T   T   T
  0.8088692337665174  0.3319188051200839  0.1107429785367599   T   T   T
  0.8132375224297472  0.4754027619999787  0.1105322805221104   T   T   T
  0.8202763755324914  0.6211292431850138  0.1115061045999447   T   T   T
  0.8206721694460092  0.7689994308733292  0.1114060337092163   T   T   T
  0.5245363245180099  0.4800860390854663  0.1114100874525226   T   T   T

  0.00000000E+00  0.00000000E+00  0.00000000E+00
  0.00000000E+00  0.00000000E+00  0.00000000E+00
  0.00000000E+00  0.00000000E+00  0.00000000E+00
  0.00000000E+00  0.00000000E+00  0.00000000E+00
  0.00000000E+00  0.00000000E+00  0.00000000E+00
  0.00000000E+00  0.00000000E+00  0.00000000E+00
  0.00000000E+00  0.00000000E+00  0.00000000E+00
  0.00000000E+00  0.00000000E+00  0.00000000E+00
  0.00000000E+00  0.00000000E+00  0.00000000E+00
  0.00000000E+00  0.00000000E+00  0.00000000E+00
  0.00000000E+00  0.00000000E+00  0.00000000E+00
  0.00000000E+00  0.00000000E+00  0.00000000E+00
  0.00000000E+00  0.00000000E+00  0.00000000E+00
  0.00000000E+00  0.00000000E+00  0.00000000E+00
  0.00000000E+00  0.00000000E+00  0.00000000E+00
  0.00000000E+00  0.00000000E+00  0.00000000E+00
  0.00000000E+00  0.00000000E+00  0.00000000E+00
  0.00000000E+00  0.00000000E+00  0.00000000E+00
  0.00000000E+00  0.00000000E+00  0.00000000E+00
  0.00000000E+00  0.00000000E+00  0.00000000E+00
  0.00000000E+00  0.00000000E+00  0.00000000E+00
  0.00000000E+00  0.00000000E+00  0.00000000E+00
  0.00000000E+00  0.00000000E+00  0.00000000E+00
  0.00000000E+00  0.00000000E+00  0.00000000E+00
  0.00000000E+00  0.00000000E+00  0.00000000E+00
  0.00000000E+00  0.00000000E+00  0.00000000E+00
  0.00000000E+00  0.00000000E+00  0.00000000E+00
  0.00000000E+00  0.00000000E+00  0.00000000E+00
  0.00000000E+00  0.00000000E+00  0.00000000E+00
  0.00000000E+00  0.00000000E+00  0.00000000E+00
  0.00000000E+00  0.00000000E+00  0.00000000E+00
  0.00000000E+00  0.00000000E+00  0.00000000E+00
  0.00000000E+00  0.00000000E+00  0.00000000E+00
  0.00000000E+00  0.00000000E+00  0.00000000E+00
  0.00000000E+00  0.00000000E+00  0.00000000E+00
  0.00000000E+00  0.00000000E+00  0.00000000E+00
  0.00000000E+00  0.00000000E+00  0.00000000E+00
  0.00000000E+00  0.00000000E+00  0.00000000E+00
  0.00000000E+00  0.00000000E+00  0.00000000E+00
  0.00000000E+00  0.00000000E+00  0.00000000E+00
  0.00000000E+00  0.00000000E+00  0.00000000E+00
  0.00000000E+00  0.00000000E+00  0.00000000E+00
  0.00000000E+00  0.00000000E+00  0.00000000E+00
  0.00000000E+00  0.00000000E+00  0.00000000E+00
  0.00000000E+00  0.00000000E+00  0.00000000E+00
  0.00000000E+00  0.00000000E+00  0.00000000E+00
  0.00000000E+00  0.00000000E+00  0.00000000E+00
  0.00000000E+00  0.00000000E+00  0.00000000E+00
  0.00000000E+00  0.00000000E+00  0.00000000E+00
  0.00000000E+00  0.00000000E+00  0.00000000E+00
  0.00000000E+00  0.00000000E+00  0.00000000E+00
  0.00000000E+00  0.00000000E+00  0.00000000E+00
  0.00000000E+00  0.00000000E+00  0.00000000E+00
  0.00000000E+00  0.00000000E+00  0.00000000E+00
  0.00000000E+00  0.00000000E+00  0.00000000E+00
  0.00000000E+00  0.00000000E+00  0.00000000E+00
  0.00000000E+00  0.00000000E+00  0.00000000E+00
  0.00000000E+00  0.00000000E+00  0.00000000E+00
  0.00000000E+00  0.00000000E+00  0.00000000E+00
  0.00000000E+00  0.00000000E+00  0.00000000E+00
  0.00000000E+00  0.00000000E+00  0.00000000E+00
  0.00000000E+00  0.00000000E+00  0.00000000E+00
  0.00000000E+00  0.00000000E+00  0.00000000E+00
  0.00000000E+00  0.00000000E+00  0.00000000E+00
  0.00000000E+00  0.00000000E+00  0.00000000E+00
  0.00000000E+00  0.00000000E+00  0.00000000E+00
  0.00000000E+00  0.00000000E+00  0.00000000E+00
  0.00000000E+00  0.00000000E+00  0.00000000E+00
  0.00000000E+00  0.00000000E+00  0.00000000E+00
  0.00000000E+00  0.00000000E+00  0.00000000E+00
  0.00000000E+00  0.00000000E+00  0.00000000E+00
  0.00000000E+00  0.00000000E+00  0.00000000E+00
  0.00000000E+00  0.00000000E+00  0.00000000E+00
  0.00000000E+00  0.00000000E+00  0.00000000E+00
  0.00000000E+00  0.00000000E+00  0.00000000E+00
  0.00000000E+00  0.00000000E+00  0.00000000E+00
  0.00000000E+00  0.00000000E+00  0.00000000E+00
  0.00000000E+00  0.00000000E+00  0.00000000E+00
  0.00000000E+00  0.00000000E+00  0.00000000E+00
  0.00000000E+00  0.00000000E+00  0.00000000E+00
  0.00000000E+00  0.00000000E+00  0.00000000E+00
  0.00000000E+00  0.00000000E+00  0.00000000E+00
  0.00000000E+00  0.00000000E+00  0.00000000E+00
  0.00000000E+00  0.00000000E+00  0.00000000E+00
  0.00000000E+00  0.00000000E+00  0.00000000E+00
  0.00000000E+00  0.00000000E+00  0.00000000E+00
  0.00000000E+00  0.00000000E+00  0.00000000E+00
  0.00000000E+00  0.00000000E+00  0.00000000E+00
  0.00000000E+00  0.00000000E+00  0.00000000E+00
  0.00000000E+00  0.00000000E+00  0.00000000E+00
  0.00000000E+00  0.00000000E+00  0.00000000E+00
  0.00000000E+00  0.00000000E+00  0.00000000E+00
  0.00000000E+00  0.00000000E+00  0.00000000E+00
  0.00000000E+00  0.00000000E+00  0.00000000E+00
  0.00000000E+00  0.00000000E+00  0.00000000E+00
  0.00000000E+00  0.00000000E+00  0.00000000E+00
  0.00000000E+00  0.00000000E+00  0.00000000E+00
  0.00000000E+00  0.00000000E+00  0.00000000E+00
