Species order: X N B                    
   2.51242800000000     
     5.9449720136058266    0.0000000000000000    0.0000000000000000
    -2.9724860068029120    5.1484967885702053   -0.0000000000000001
     0.0000000000000000    0.0000000000000009    5.3101128803662583
   Al   N    B 
     1   143   143
Direct
  0.4709534675016001  0.4021434004174649  0.3750000000000000
  0.1111157739585770  0.0555552998407501  0.1249225675525712
  0.6111960915958904  0.5556716967067313  0.1238021320401956
  0.4444598201305243  0.0555487853691086  0.1249475677800734
  0.9444613846056147  0.5555602041097474  0.1250554686898176
  0.7777858690068996  0.0555596011701177  0.1250034623079871
  0.1111214897077824  0.7222274115205559  0.6249902338982471
  0.4444598201305243  0.7222443680947509  0.6250524322199273
  0.2777817142392862  0.2222165601662154  0.6251252192156111
  0.7778132228554031  0.7222583326468720  0.6250620966801117
  0.6111360075376696  0.2222101094634737  0.6251453179498189
  0.9444534664931942  0.2222249811161838  0.6250059986523090
  0.2777891488649351  0.7222301667649841  0.1249970997494563
  0.1111205118723366  0.2222269226028327  0.1249099900445192
  0.4444754218759152  0.2222146592738097  0.1248672855530424
  0.6111360075376696  0.7222592314075245  0.1248546820501814
  0.9444613846056147  0.7222345138292027  0.1250554686898176
  0.7777929042785727  0.2222198672196057  0.1250527822122879
  0.1111203569997259  0.8888935811867089  0.6250069129395734
  0.4444558778185330  0.8888946055759307  0.6250109042370007
  0.2777817142392862  0.3888984874063995  0.6251252192156111
  0.6111960915958904  0.3888577282224883  0.6261978679598038
  0.7777929042785727  0.8889063703922957  0.6249472177877125
  0.9444608039542883  0.3888913469899892  0.6249593154557040
  0.1111157739585770  0.3888938074511557  0.1249225675525712
  0.2777891488649351  0.8888923154332803  0.1249970997494563
  0.6111195766437711  0.8889012178399455  0.1250300953745930
  0.4444957845152940  0.3889145589243114  0.1269775717095378
  0.9444608039542883  0.8889027902976263  0.1250406845442970
  0.7778132228554031  0.3888882235418596  0.1249379033198885
  0.2777895075508317  0.5555678331431850  0.6250385602146197
  0.1111157739585770  0.0555552998407501  0.6250774324474295
  0.6111960915958904  0.5556716967067313  0.6261978679598038
  0.4444598201305243  0.0555487853691086  0.6250524322199273
  0.9444613846056147  0.5555602041097474  0.6249445313101818
  0.1111203569997259  0.5555601091463457  0.1249930870604263
  0.7777858690068996  0.0555596011701177  0.6249965376920116
  0.2777895075508317  0.0555550077409816  0.1249614397853809
  0.4444754218759152  0.5555940959354407  0.1248672855530424
  0.7778062396374805  0.5555697864854071  0.1248126327101460
  0.6111195766437711  0.0555516921371545  0.1250300953745930
  0.4444754218759152  0.5555940959354407  0.6251327144469569
  0.9444534664931942  0.0555618187103453  0.1249940013476911
  0.2777891488649351  0.7222301667649841  0.6250029002505436
  0.1111205118723366  0.2222269226028327  0.6250900099554814
  0.4444754218759152  0.2222146592738097  0.6251327144469569
  0.6111360075376696  0.7222592314075245  0.6251453179498189
  0.9444613846056147  0.7222345138292027  0.6249445313101818
  0.7777929042785727  0.2222198672196057  0.6249472177877125
  0.1111214897077824  0.7222274115205559  0.1250097661017537
  0.4444598201305243  0.7222443680947509  0.1249475677800734
  0.2777817142392862  0.2222165601662154  0.1248747807843881
  0.7778132228554031  0.7222583326468720  0.1249379033198885
  0.6111360075376696  0.2222101094634737  0.1248546820501814
  0.9444534664931942  0.2222249811161838  0.1249940013476911
  0.1111157739585770  0.3888938074511557  0.6250774324474295
  0.2777891488649351  0.8888923154332803  0.6250029002505436
  0.6111195766437711  0.8889012178399455  0.6249699046254068
  0.4444957845152940  0.3889145589243114  0.6230224282904627
  0.9444608039542883  0.8889027902976263  0.6249593154557040
  0.1111203569997259  0.8888935811867089  0.1249930870604263
  0.7778132228554031  0.3888882235418596  0.6250620966801117
  0.4444558778185330  0.8888946055759307  0.1249890957629997
  0.2777817142392862  0.3888984874063995  0.1248747807843881
  0.2777895075508317  0.5555678331431850  0.1249614397853809
  0.6111960915958904  0.3888577282224883  0.1238021320401956
  0.7777929042785727  0.8889063703922957  0.1250527822122879
  0.9444608039542883  0.3888913469899892  0.1250406845442970
  0.1111203569997259  0.5555601091463457  0.6250069129395734
  0.2777895075508317  0.0555550077409816  0.6250385602146197
  0.7778062396374805  0.5555697864854071  0.6251873672898545
  0.6111195766437711  0.0555516921371545  0.6249699046254068
  0.9444534664931942  0.0555618187103453  0.6250059986523090
  0.0548571247255304  0.1106584410371907  0.3750000000000000
  0.5547069097648059  0.6066347126572639  0.3750000000000000
  0.3881012342443384  0.1076814490668257  0.3750000000000000
  0.8904628813288715  0.6118981073311075  0.3750000000000000
  0.7219255274396896  0.1112971865466203  0.3750000000000000
  0.0555599391503653  0.7777810610002418  0.8750000000000000
  0.3888936016302345  0.7777814390026337  0.8750000000000000
  0.2222262289744989  0.2777797811539169  0.8750000000000000
  0.7222270313586697  0.7777797817008183  0.8750000000000000
  0.5555560357079828  0.2777745788620894  0.8750000000000000
  0.8888951754256224  0.2777819520013181  0.8750000000000000
  0.2219796572665541  0.7776564952999455  0.3750000000000000
  0.0548571247255304  0.2775320170216751  0.3750000000000000
  0.3856264514144502  0.2688101909838099  0.3750000000000000
  0.5556112878312999  0.7765114205220538  0.3750000000000000
  0.8883982165114245  0.7770396996309011  0.3750000000000000
  0.7216839244749614  0.2786173592740451  0.3750000000000000
  0.0555586988072358  0.9444462609144214  0.8750000000000000
  0.3888936016302345  0.9444454959609359  0.8750000000000000
  0.2222251574204252  0.4444454942553616  0.8750000000000000
  0.5555501589291668  0.4444417461312477  0.8750000000000000
  0.7222259091666277  0.9444460672676188  0.8750000000000000
  0.8888959948048075  0.4444476302901401  0.8750000000000000
  0.0544751495761570  0.4444144417715003  0.3750000000000000
  0.2215326596568292  0.9434219880025106  0.3750000000000000
  0.5556984187127045  0.9445158760230160  0.3750000000000000
  0.3856264514144500  0.4501495937639757  0.3750000000000000
  0.8881718005507627  0.9437923457443369  0.3750000000000000
  0.7230795654271472  0.4467118964982962  0.3750000000000000
  0.2222247406649873  0.6111117428284490  0.8750000000000000
  0.0555588656179789  0.1111119691711519  0.8750000000000000
  0.5555560357079828  0.6111147901792300  0.8750000000000000
  0.3888930691305938  0.1111119368910930  0.8750000000000000
  0.8888969898015616  0.6111151615674529  0.8750000000000000
  0.0555769124640861  0.6111996101987281  0.3750000000000000
  0.7222259091666277  0.1111131752323451  0.8750000000000000
  0.2203333085042314  0.1088927847490278  0.3750000000000000
  0.3881012342443384  0.6137531185108556  0.3750000000000000
  0.7230795654271472  0.6097010022621857  0.3750000000000000
  0.5556112878312999  0.1124332006425824  0.3750000000000000
  0.3888930691305938  0.6111144655728441  0.8750000000000000
  0.8882881410191357  0.1108107371762391  0.3750000000000000
  0.2222258534907776  0.7777795934120575  0.8750000000000000
  0.0555588656179789  0.2777802297801625  0.8750000000000000
  0.3888980957384910  0.2777862692382788  0.8750000000000000
  0.5555584687010778  0.7777812480148724  0.8750000000000000
  0.8888959948048075  0.7777816978480032  0.8750000000000000
  0.7222270313586697  0.2777805829911875  0.8750000000000000
  0.0555769124640861  0.7777106355986931  0.3750000000000000
  0.3887971491770911  0.7784625502639595  0.3750000000000000
  0.2220297885408690  0.2776815609371027  0.3750000000000000
  0.7216839244749614  0.7763998985342524  0.3750000000000000
  0.5547069097648059  0.2814055304408773  0.3750000000000000
  0.8881718005507627  0.2777127881397615  0.3750000000000000
  0.0555586988072358  0.4444457712261419  0.8750000000000000
  0.2222247406649873  0.9444463311698746  0.8750000000000000
  0.5555586602809336  0.9444459968071306  0.8750000000000000
  0.3888980957384910  0.4444451598335477  0.8750000000000000
  0.8888951754256224  0.9444465567576401  0.8750000000000000
  0.0544751495761570  0.9433940411379843  0.3750000000000000
  0.7222295656199992  0.4444486217472298  0.8750000000000000
  0.3887971491770911  0.9436679322464673  0.3750000000000000
  0.2203333085042314  0.4447738570885392  0.3750000000000000
  0.2215326596568292  0.6114440049876536  0.3750000000000000
  0.7219255274396896  0.9439616742264055  0.3750000000000000
  0.8883982165114245  0.4446918502138578  0.3750000000000000
  0.0555599391503653  0.6111122114834596  0.8750000000000000
  0.2222251574204252  0.1111129964983990  0.8750000000000000
  0.7222295656199992  0.6111142772061049  0.8750000000000000
  0.5555584687010778  0.1111105540195413  0.8750000000000000
  0.8888947280748928  0.1111140307041179  0.8750000000000000
  0.1098299239322009  0.0544009050291292  0.3750000000000000
  0.6137349302357383  0.5516160909352704  0.3750000000000000
  0.4443911834769755  0.0541704946888398  0.3750000000000000
  0.9449991054064727  0.5557414690268163  0.3750000000000000
  0.7773138486994221  0.0553235910163788  0.3750000000000000
  0.1111178705542678  0.7222256019437977  0.8750000000000000
  0.4444435371030556  0.7222225575992700  0.8750000000000000
  0.2777735244287460  0.2222216086940449  0.8750000000000000
  0.7777843006739712  0.7222248166753084  0.8750000000000000
  0.6111107354460505  0.2222199536364348  0.8750000000000000
  0.9444559397851048  0.2222267251263180  0.8750000000000000
  0.2775750210168102  0.7223993243344333  0.3750000000000000
  0.1110136716332216  0.2221735024832750  0.3750000000000000
  0.4421694998444834  0.2176199646668421  0.3750000000000000
  0.6107307535193374  0.7195834112974918  0.3750000000000000
  0.9449991054064727  0.7225909697129929  0.3750000000000000
  0.7771561456810228  0.2224261909030510  0.3750000000000000
  0.1111175158045904  0.8888958038370687  0.8750000000000000
  0.4444451535312723  0.8888892434323001  0.8750000000000000
  0.2777735244287460  0.3888852490680302  0.8750000000000000
  0.6111101857393237  0.3888876941590158  0.8750000000000000
  0.7777861116226975  0.8888943941409864  0.8750000000000000
  0.9444553086463090  0.3888916947285957  0.8750000000000000
  0.1098299239322009  0.3887623522364006  0.3750000000000000
  0.2775750210168102  0.8885090300157050  0.3750000000000000
  0.6109714585091052  0.8881797064657235  0.3750000000000000
  0.9436699619637448  0.8882119903681279  0.3750000000000000
  0.7775718570565494  0.3894643024256301  0.3750000000000000
  0.2777788537320082  0.5555530063478425  0.8750000000000000
  0.1111169852669287  0.0555616519097644  0.8750000000000000
  0.6111101857393237  0.5555558249136372  0.8750000000000000
  0.4444435371030556  0.0555543128371228  0.8750000000000000
  0.9444545598293368  0.5555596728471091  0.8750000000000000
  0.1106883569149583  0.5555168576369056  0.3750000000000000
  0.7777867743129434  0.0555600538231397  0.8750000000000000
  0.2768221827998026  0.0541771906782165  0.3750000000000000
  0.4421694998444834  0.5578828685109773  0.3750000000000000
  0.7806710281419408  0.5570021807376374  0.3750000000000000
  0.6109714585091052  0.0561250853767104  0.3750000000000000
  0.4444453735499557  0.5555599066347807  0.8750000000000000
  0.9438960842807109  0.0552039092972340  0.3750000000000000
  0.2777810441660732  0.7222222392402164  0.8750000000000000
  0.1111159389721822  0.2222246361527554  0.8750000000000000
  0.4444453735499557  0.2222188002485101  0.8750000000000000
  0.6111107354460505  0.7222241151429449  0.8750000000000000
  0.9444545598293368  0.7222282203155621  0.8750000000000000
  0.7777861116226975  0.2222250508150408  0.8750000000000000
  0.1110649949918485  0.7221991641625886  0.3750000000000000
  0.4443911834769755  0.7235540221214712  0.3750000000000000
  0.2765375009177174  0.2201471537935995  0.3750000000000000
  0.7775718570565494  0.7214408879642485  0.3750000000000000
  0.6107307535193374  0.2244806755551748  0.3750000000000000
  0.9438960842807109  0.2220255083168131  0.3750000000000000
  0.1111169852669287  0.3888886666904928  0.8750000000000000
  0.2777810441660732  0.8888921382591850  0.8750000000000000
  0.6111127908385839  0.8888909958173433  0.8750000000000000
  0.4444483193362618  0.3888908263347953  0.8750000000000000
  0.9444553086463090  0.8888969472510423  0.8750000000000000
  0.1106883569149583  0.8885048326113798  0.3750000000000000
  0.7777843006739712  0.3888928173319911  0.8750000000000000
  0.4445744723207606  0.8889539028270449  0.3750000000000000
  0.2765375009177176  0.3897236804574468  0.3750000000000000
  0.2768221827998026  0.5559783254549227  0.3750000000000000
  0.6137349302357383  0.3954521726337962  0.3750000000000000
  0.7771561456810228  0.8880632881112991  0.3750000000000000
  0.9436699619637448  0.3887913049289463  0.3750000000000000
  0.1111175158045904  0.5555550453008494  0.8750000000000000
  0.2777788537320082  0.0555591807175007  0.8750000000000000
  0.7777832360643708  0.5555582846988530  0.8750000000000000
  0.6111127908385839  0.0555551283545685  0.8750000000000000
  0.9444559397851048  0.0555625479921228  0.8750000000000000
  0.0555842940791371  0.1111314998898371  0.1249925171151698
  0.5555872866337571  0.6111509118668288  0.1244896443067335
  0.3888828974778225  0.1110854864797323  0.1249654293203120
  0.8889175158805299  0.6111254246069362  0.1249823464237967
  0.7222261349154666  0.1111030029363790  0.1250096354652973
  0.0555877157755132  0.7777987413396493  0.6249952874576350
  0.3888941778640103  0.7777847692341867  0.6250077464298843
  0.2222290708658199  0.2777812020995781  0.6249822897550247
  0.7222389046430595  0.7778105501820118  0.6250875834804065
  0.5555872866337571  0.2777697081002634  0.6255103556932654
  0.8889164079383128  0.2777758034950533  0.6249859035666078
  0.2222436899917550  0.7777885116625450  0.1250006189947926
  0.0555842940791371  0.2777861275226353  0.1249925171151698
  0.3887992913144329  0.2776124956658270  0.1256458047580247
  0.5555540070644529  0.7777966579964634  0.1249772513639016
  0.8889308180912496  0.7778152840256259  0.1249979672015019
  0.7222389046430595  0.2777616877943831  0.1249124165195932
  0.0555864665068606  0.9444716408709962  0.6249997254225101
  0.3888941778640103  0.9444427419631585  0.6250077464298843
  0.2222283098404286  0.4444527584581476  0.6250318525922067
  0.5558212462349923  0.4445772897841604  0.6246640048127986
  0.7222261349154666  0.9444564653124232  0.6249903645347032
  0.8889308180912496  0.4444488673989592  0.6250020327984988
  0.0555864665068606  0.4444481589691928  0.1250002745774896
  0.2222406788248158  0.9444583850138495  0.1250026390667523
  0.5555524668970844  0.9444429001152072  0.1250083584908422
  0.3887992913144329  0.4445201289819411  0.1256458047580247
  0.8889164079383128  0.9444739377765953  0.1250140964333921
  0.7222594232435627  0.4444444550721654  0.1244302804209929
  0.2222406788248158  0.6111156271443035  0.6249973609332478
  0.0555842940791371  0.1111314998898371  0.6250074828848295
  0.5555872866337571  0.6111509118668288  0.6255103556932654
  0.3888828974778225  0.1110854864797323  0.6250345706796876
  0.8889175158805299  0.6111254246069362  0.6250176535762034
  0.0555877157755132  0.6111223077691991  0.1250047125423645
  0.7222261349154666  0.1111030029363790  0.6249903645347032
  0.2222283098404286  0.1111088847156170  0.1249681474077932
  0.3888828974778225  0.6111307443314331  0.1249654293203120
  0.7222594232435627  0.6111483015047340  0.1244302804209929
  0.5555540070644529  0.1110906824013247  0.1249772513639016
  0.3888828974778225  0.6111307443314331  0.6250345706796876
  0.8889099840632578  0.1111216586983003  0.1249987166579696
  0.2222436899917550  0.7777885116625450  0.6249993810052077
  0.0555842940791371  0.2777861275226353  0.6250074828848295
  0.3887992913144329  0.2776124956658270  0.6243541952419747
  0.5555540070644529  0.7777966579964634  0.6250227486360986
  0.8889308180912496  0.7778152840256259  0.6250020327984988
  0.7222389046430595  0.2777616877943831  0.6250875834804065
  0.0555877157755132  0.7777987413396493  0.1250047125423645
  0.3888941778640103  0.7777847692341867  0.1249922535701161
  0.2222290708658199  0.2777812020995781  0.1250177102449742
  0.7222389046430595  0.7778105501820118  0.1249124165195932
  0.5555872866337571  0.2777697081002634  0.1244896443067335
  0.8889164079383128  0.2777758034950533  0.1250140964333921
  0.0555864665068606  0.4444481589691928  0.6249997254225101
  0.2222406788248158  0.9444583850138495  0.6249973609332478
  0.5555524668970844  0.9444429001152072  0.6249916415091581
  0.3887992913144329  0.4445201289819411  0.6243541952419747
  0.8889164079383128  0.9444739377765953  0.6249859035666078
  0.0555864665068606  0.9444716408709962  0.1250002745774896
  0.7222594232435627  0.4444444550721654  0.6255697195790071
  0.3888941778640103  0.9444427419631585  0.1249922535701161
  0.2222283098404286  0.4444527584581476  0.1249681474077932
  0.2222406788248158  0.6111156271443035  0.1250026390667523
  0.5558212462349923  0.4445772897841604  0.1253359951872011
  0.7222261349154666  0.9444564653124232  0.1250096354652973
  0.8889308180912496  0.4444488673989592  0.1249979672015019
  0.0555877157755132  0.6111223077691991  0.6249952874576350
  0.2222283098404286  0.1111088847156170  0.6250318525922067
  0.7222594232435627  0.6111483015047340  0.6255697195790071
  0.5555540070644529  0.1110906824013247  0.6250227486360986
  0.8889099840632578  0.1111216586983003  0.6250012833420303
 
  0.00000000E+00  0.00000000E+00  0.00000000E+00
  0.00000000E+00  0.00000000E+00  0.00000000E+00
  0.00000000E+00  0.00000000E+00  0.00000000E+00
  0.00000000E+00  0.00000000E+00  0.00000000E+00
  0.00000000E+00  0.00000000E+00  0.00000000E+00
  0.00000000E+00  0.00000000E+00  0.00000000E+00
  0.00000000E+00  0.00000000E+00  0.00000000E+00
  0.00000000E+00  0.00000000E+00  0.00000000E+00
  0.00000000E+00  0.00000000E+00  0.00000000E+00
  0.00000000E+00  0.00000000E+00  0.00000000E+00
  0.00000000E+00  0.00000000E+00  0.00000000E+00
  0.00000000E+00  0.00000000E+00  0.00000000E+00
  0.00000000E+00  0.00000000E+00  0.00000000E+00
  0.00000000E+00  0.00000000E+00  0.00000000E+00
  0.00000000E+00  0.00000000E+00  0.00000000E+00
  0.00000000E+00  0.00000000E+00  0.00000000E+00
  0.00000000E+00  0.00000000E+00  0.00000000E+00
  0.00000000E+00  0.00000000E+00  0.00000000E+00
  0.00000000E+00  0.00000000E+00  0.00000000E+00
  0.00000000E+00  0.00000000E+00  0.00000000E+00
  0.00000000E+00  0.00000000E+00  0.00000000E+00
  0.00000000E+00  0.00000000E+00  0.00000000E+00
  0.00000000E+00  0.00000000E+00  0.00000000E+00
  0.00000000E+00  0.00000000E+00  0.00000000E+00
  0.00000000E+00  0.00000000E+00  0.00000000E+00
  0.00000000E+00  0.00000000E+00  0.00000000E+00
  0.00000000E+00  0.00000000E+00  0.00000000E+00
  0.00000000E+00  0.00000000E+00  0.00000000E+00
  0.00000000E+00  0.00000000E+00  0.00000000E+00
  0.00000000E+00  0.00000000E+00  0.00000000E+00
  0.00000000E+00  0.00000000E+00  0.00000000E+00
  0.00000000E+00  0.00000000E+00  0.00000000E+00
  0.00000000E+00  0.00000000E+00  0.00000000E+00
  0.00000000E+00  0.00000000E+00  0.00000000E+00
  0.00000000E+00  0.00000000E+00  0.00000000E+00
  0.00000000E+00  0.00000000E+00  0.00000000E+00
  0.00000000E+00  0.00000000E+00  0.00000000E+00
  0.00000000E+00  0.00000000E+00  0.00000000E+00
  0.00000000E+00  0.00000000E+00  0.00000000E+00
  0.00000000E+00  0.00000000E+00  0.00000000E+00
  0.00000000E+00  0.00000000E+00  0.00000000E+00
  0.00000000E+00  0.00000000E+00  0.00000000E+00
  0.00000000E+00  0.00000000E+00  0.00000000E+00
  0.00000000E+00  0.00000000E+00  0.00000000E+00
  0.00000000E+00  0.00000000E+00  0.00000000E+00
  0.00000000E+00  0.00000000E+00  0.00000000E+00
  0.00000000E+00  0.00000000E+00  0.00000000E+00
  0.00000000E+00  0.00000000E+00  0.00000000E+00
  0.00000000E+00  0.00000000E+00  0.00000000E+00
  0.00000000E+00  0.00000000E+00  0.00000000E+00
  0.00000000E+00  0.00000000E+00  0.00000000E+00
  0.00000000E+00  0.00000000E+00  0.00000000E+00
  0.00000000E+00  0.00000000E+00  0.00000000E+00
  0.00000000E+00  0.00000000E+00  0.00000000E+00
  0.00000000E+00  0.00000000E+00  0.00000000E+00
  0.00000000E+00  0.00000000E+00  0.00000000E+00
  0.00000000E+00  0.00000000E+00  0.00000000E+00
  0.00000000E+00  0.00000000E+00  0.00000000E+00
  0.00000000E+00  0.00000000E+00  0.00000000E+00
  0.00000000E+00  0.00000000E+00  0.00000000E+00
  0.00000000E+00  0.00000000E+00  0.00000000E+00
  0.00000000E+00  0.00000000E+00  0.00000000E+00
  0.00000000E+00  0.00000000E+00  0.00000000E+00
  0.00000000E+00  0.00000000E+00  0.00000000E+00
  0.00000000E+00  0.00000000E+00  0.00000000E+00
  0.00000000E+00  0.00000000E+00  0.00000000E+00
  0.00000000E+00  0.00000000E+00  0.00000000E+00
  0.00000000E+00  0.00000000E+00  0.00000000E+00
  0.00000000E+00  0.00000000E+00  0.00000000E+00
  0.00000000E+00  0.00000000E+00  0.00000000E+00
  0.00000000E+00  0.00000000E+00  0.00000000E+00
  0.00000000E+00  0.00000000E+00  0.00000000E+00
  0.00000000E+00  0.00000000E+00  0.00000000E+00
  0.00000000E+00  0.00000000E+00  0.00000000E+00
  0.00000000E+00  0.00000000E+00  0.00000000E+00
  0.00000000E+00  0.00000000E+00  0.00000000E+00
  0.00000000E+00  0.00000000E+00  0.00000000E+00
  0.00000000E+00  0.00000000E+00  0.00000000E+00
  0.00000000E+00  0.00000000E+00  0.00000000E+00
  0.00000000E+00  0.00000000E+00  0.00000000E+00
  0.00000000E+00  0.00000000E+00  0.00000000E+00
  0.00000000E+00  0.00000000E+00  0.00000000E+00
  0.00000000E+00  0.00000000E+00  0.00000000E+00
  0.00000000E+00  0.00000000E+00  0.00000000E+00
  0.00000000E+00  0.00000000E+00  0.00000000E+00
  0.00000000E+00  0.00000000E+00  0.00000000E+00
  0.00000000E+00  0.00000000E+00  0.00000000E+00
  0.00000000E+00  0.00000000E+00  0.00000000E+00
  0.00000000E+00  0.00000000E+00  0.00000000E+00
  0.00000000E+00  0.00000000E+00  0.00000000E+00
  0.00000000E+00  0.00000000E+00  0.00000000E+00
  0.00000000E+00  0.00000000E+00  0.00000000E+00
  0.00000000E+00  0.00000000E+00  0.00000000E+00
  0.00000000E+00  0.00000000E+00  0.00000000E+00
  0.00000000E+00  0.00000000E+00  0.00000000E+00
  0.00000000E+00  0.00000000E+00  0.00000000E+00
  0.00000000E+00  0.00000000E+00  0.00000000E+00
  0.00000000E+00  0.00000000E+00  0.00000000E+00
  0.00000000E+00  0.00000000E+00  0.00000000E+00
  0.00000000E+00  0.00000000E+00  0.00000000E+00
  0.00000000E+00  0.00000000E+00  0.00000000E+00
  0.00000000E+00  0.00000000E+00  0.00000000E+00
  0.00000000E+00  0.00000000E+00  0.00000000E+00
  0.00000000E+00  0.00000000E+00  0.00000000E+00
  0.00000000E+00  0.00000000E+00  0.00000000E+00
  0.00000000E+00  0.00000000E+00  0.00000000E+00
  0.00000000E+00  0.00000000E+00  0.00000000E+00
  0.00000000E+00  0.00000000E+00  0.00000000E+00
  0.00000000E+00  0.00000000E+00  0.00000000E+00
  0.00000000E+00  0.00000000E+00  0.00000000E+00
  0.00000000E+00  0.00000000E+00  0.00000000E+00
  0.00000000E+00  0.00000000E+00  0.00000000E+00
  0.00000000E+00  0.00000000E+00  0.00000000E+00
  0.00000000E+00  0.00000000E+00  0.00000000E+00
  0.00000000E+00  0.00000000E+00  0.00000000E+00
  0.00000000E+00  0.00000000E+00  0.00000000E+00
  0.00000000E+00  0.00000000E+00  0.00000000E+00
  0.00000000E+00  0.00000000E+00  0.00000000E+00
  0.00000000E+00  0.00000000E+00  0.00000000E+00
  0.00000000E+00  0.00000000E+00  0.00000000E+00
  0.00000000E+00  0.00000000E+00  0.00000000E+00
  0.00000000E+00  0.00000000E+00  0.00000000E+00
  0.00000000E+00  0.00000000E+00  0.00000000E+00
  0.00000000E+00  0.00000000E+00  0.00000000E+00
  0.00000000E+00  0.00000000E+00  0.00000000E+00
  0.00000000E+00  0.00000000E+00  0.00000000E+00
  0.00000000E+00  0.00000000E+00  0.00000000E+00
  0.00000000E+00  0.00000000E+00  0.00000000E+00
  0.00000000E+00  0.00000000E+00  0.00000000E+00
  0.00000000E+00  0.00000000E+00  0.00000000E+00
  0.00000000E+00  0.00000000E+00  0.00000000E+00
  0.00000000E+00  0.00000000E+00  0.00000000E+00
  0.00000000E+00  0.00000000E+00  0.00000000E+00
  0.00000000E+00  0.00000000E+00  0.00000000E+00
  0.00000000E+00  0.00000000E+00  0.00000000E+00
  0.00000000E+00  0.00000000E+00  0.00000000E+00
  0.00000000E+00  0.00000000E+00  0.00000000E+00
  0.00000000E+00  0.00000000E+00  0.00000000E+00
  0.00000000E+00  0.00000000E+00  0.00000000E+00
  0.00000000E+00  0.00000000E+00  0.00000000E+00
  0.00000000E+00  0.00000000E+00  0.00000000E+00
  0.00000000E+00  0.00000000E+00  0.00000000E+00
  0.00000000E+00  0.00000000E+00  0.00000000E+00
  0.00000000E+00  0.00000000E+00  0.00000000E+00
  0.00000000E+00  0.00000000E+00  0.00000000E+00
  0.00000000E+00  0.00000000E+00  0.00000000E+00
  0.00000000E+00  0.00000000E+00  0.00000000E+00
  0.00000000E+00  0.00000000E+00  0.00000000E+00
  0.00000000E+00  0.00000000E+00  0.00000000E+00
  0.00000000E+00  0.00000000E+00  0.00000000E+00
  0.00000000E+00  0.00000000E+00  0.00000000E+00
  0.00000000E+00  0.00000000E+00  0.00000000E+00
  0.00000000E+00  0.00000000E+00  0.00000000E+00
  0.00000000E+00  0.00000000E+00  0.00000000E+00
  0.00000000E+00  0.00000000E+00  0.00000000E+00
  0.00000000E+00  0.00000000E+00  0.00000000E+00
  0.00000000E+00  0.00000000E+00  0.00000000E+00
  0.00000000E+00  0.00000000E+00  0.00000000E+00
  0.00000000E+00  0.00000000E+00  0.00000000E+00
  0.00000000E+00  0.00000000E+00  0.00000000E+00
  0.00000000E+00  0.00000000E+00  0.00000000E+00
  0.00000000E+00  0.00000000E+00  0.00000000E+00
  0.00000000E+00  0.00000000E+00  0.00000000E+00
  0.00000000E+00  0.00000000E+00  0.00000000E+00
  0.00000000E+00  0.00000000E+00  0.00000000E+00
  0.00000000E+00  0.00000000E+00  0.00000000E+00
  0.00000000E+00  0.00000000E+00  0.00000000E+00
  0.00000000E+00  0.00000000E+00  0.00000000E+00
  0.00000000E+00  0.00000000E+00  0.00000000E+00
  0.00000000E+00  0.00000000E+00  0.00000000E+00
  0.00000000E+00  0.00000000E+00  0.00000000E+00
  0.00000000E+00  0.00000000E+00  0.00000000E+00
  0.00000000E+00  0.00000000E+00  0.00000000E+00
  0.00000000E+00  0.00000000E+00  0.00000000E+00
  0.00000000E+00  0.00000000E+00  0.00000000E+00
  0.00000000E+00  0.00000000E+00  0.00000000E+00
  0.00000000E+00  0.00000000E+00  0.00000000E+00
  0.00000000E+00  0.00000000E+00  0.00000000E+00
  0.00000000E+00  0.00000000E+00  0.00000000E+00
  0.00000000E+00  0.00000000E+00  0.00000000E+00
  0.00000000E+00  0.00000000E+00  0.00000000E+00
  0.00000000E+00  0.00000000E+00  0.00000000E+00
  0.00000000E+00  0.00000000E+00  0.00000000E+00
  0.00000000E+00  0.00000000E+00  0.00000000E+00
  0.00000000E+00  0.00000000E+00  0.00000000E+00
  0.00000000E+00  0.00000000E+00  0.00000000E+00
  0.00000000E+00  0.00000000E+00  0.00000000E+00
  0.00000000E+00  0.00000000E+00  0.00000000E+00
  0.00000000E+00  0.00000000E+00  0.00000000E+00
  0.00000000E+00  0.00000000E+00  0.00000000E+00
  0.00000000E+00  0.00000000E+00  0.00000000E+00
  0.00000000E+00  0.00000000E+00  0.00000000E+00
  0.00000000E+00  0.00000000E+00  0.00000000E+00
  0.00000000E+00  0.00000000E+00  0.00000000E+00
  0.00000000E+00  0.00000000E+00  0.00000000E+00
  0.00000000E+00  0.00000000E+00  0.00000000E+00
  0.00000000E+00  0.00000000E+00  0.00000000E+00
  0.00000000E+00  0.00000000E+00  0.00000000E+00
  0.00000000E+00  0.00000000E+00  0.00000000E+00
  0.00000000E+00  0.00000000E+00  0.00000000E+00
  0.00000000E+00  0.00000000E+00  0.00000000E+00
  0.00000000E+00  0.00000000E+00  0.00000000E+00
  0.00000000E+00  0.00000000E+00  0.00000000E+00
  0.00000000E+00  0.00000000E+00  0.00000000E+00
  0.00000000E+00  0.00000000E+00  0.00000000E+00
  0.00000000E+00  0.00000000E+00  0.00000000E+00
  0.00000000E+00  0.00000000E+00  0.00000000E+00
  0.00000000E+00  0.00000000E+00  0.00000000E+00
  0.00000000E+00  0.00000000E+00  0.00000000E+00
  0.00000000E+00  0.00000000E+00  0.00000000E+00
  0.00000000E+00  0.00000000E+00  0.00000000E+00
  0.00000000E+00  0.00000000E+00  0.00000000E+00
  0.00000000E+00  0.00000000E+00  0.00000000E+00
  0.00000000E+00  0.00000000E+00  0.00000000E+00
  0.00000000E+00  0.00000000E+00  0.00000000E+00
  0.00000000E+00  0.00000000E+00  0.00000000E+00
  0.00000000E+00  0.00000000E+00  0.00000000E+00
  0.00000000E+00  0.00000000E+00  0.00000000E+00
  0.00000000E+00  0.00000000E+00  0.00000000E+00
  0.00000000E+00  0.00000000E+00  0.00000000E+00
  0.00000000E+00  0.00000000E+00  0.00000000E+00
  0.00000000E+00  0.00000000E+00  0.00000000E+00
  0.00000000E+00  0.00000000E+00  0.00000000E+00
  0.00000000E+00  0.00000000E+00  0.00000000E+00
  0.00000000E+00  0.00000000E+00  0.00000000E+00
  0.00000000E+00  0.00000000E+00  0.00000000E+00
  0.00000000E+00  0.00000000E+00  0.00000000E+00
  0.00000000E+00  0.00000000E+00  0.00000000E+00
  0.00000000E+00  0.00000000E+00  0.00000000E+00
  0.00000000E+00  0.00000000E+00  0.00000000E+00
  0.00000000E+00  0.00000000E+00  0.00000000E+00
  0.00000000E+00  0.00000000E+00  0.00000000E+00
  0.00000000E+00  0.00000000E+00  0.00000000E+00
  0.00000000E+00  0.00000000E+00  0.00000000E+00
  0.00000000E+00  0.00000000E+00  0.00000000E+00
  0.00000000E+00  0.00000000E+00  0.00000000E+00
  0.00000000E+00  0.00000000E+00  0.00000000E+00
  0.00000000E+00  0.00000000E+00  0.00000000E+00
  0.00000000E+00  0.00000000E+00  0.00000000E+00
  0.00000000E+00  0.00000000E+00  0.00000000E+00
  0.00000000E+00  0.00000000E+00  0.00000000E+00
  0.00000000E+00  0.00000000E+00  0.00000000E+00
  0.00000000E+00  0.00000000E+00  0.00000000E+00
  0.00000000E+00  0.00000000E+00  0.00000000E+00
  0.00000000E+00  0.00000000E+00  0.00000000E+00
  0.00000000E+00  0.00000000E+00  0.00000000E+00
  0.00000000E+00  0.00000000E+00  0.00000000E+00
  0.00000000E+00  0.00000000E+00  0.00000000E+00