 B N C 
 1.0
 14.936314146199660   0.000000000000000   0.000000000000000
 -7.468157073099825  12.935227489513863   0.000000000000000
  0.000000000000001   0.000000000000001  13.341276283792837
 B N C 
 143 144   1
Cartesian
  1.249460206808418   0.725348850180793   5.002978606422314 
  4.968905909518866   7.173616968752712   5.002978606422314 
  6.218696866291413   0.725348850180793   5.002978606422314 
  9.956101039724246   7.185845148166701   5.002978606422314 
 11.202235609649751   0.718623749417456   5.002978606422314 
 -3.734078536549858   9.342108742426666  11.673616748318732 
  1.244701175691723   9.342090762204233  11.673616748318732 
  2.489416561260783   2.874548625074068  11.673616748318732 
  6.223455897408115   9.342090762204233  11.673616748318732 
  7.468117221423234   2.874518006045983  11.673616748318732 
 12.446936252989159   2.874510187642094  11.673616748318732 
 -1.243632201702475   9.341056345467228   5.002978606422314 
  0.002628429395552   2.876012522088769   5.002978606422314 
  4.972774422716110   2.889349010227236   5.002978606422314 
  3.734078536549963   9.339073693588603   5.002978606422314 
  8.711789274802296   9.341056345467228   5.002978606422314 
  9.956267437685163   2.875632031697787   5.002978606422314 
 -4.978775747645332  11.497987758944594  11.673616748318732 
 -0.000000715055206  11.497979577841635  11.673616748318732 
  1.244754723324905   5.030366166621083  11.673616748318732 
  6.223402349775035   5.030366166621083  11.673616748318732 
  4.978780638057145  11.497965642580132  11.673616748318732 
 11.202235609649748   5.030367071596658  11.673616748318732 
 -1.236485056766631   5.031132351528012   5.002978606422314 
 -2.489766771627910  11.499424733646089   5.002978606422314 
  2.489038653904078  11.496307008562875   5.002978606422314 
  7.468740226414251  11.497643306955895   5.002978606422314 
  8.704642129866585   5.031132351528012   5.002978606422314 
  0.000026362527386   7.186222273762112  11.673616748318732 
  1.244704251758531   0.718639953671921  11.673616748318732 
  4.978740374485858   7.186183946070992  11.673616748318732 
  6.223452821341316   0.718639953671921  11.673616748318732 
  9.957538219407112   7.186229829339383  11.673616748318732 
 -2.487943966624423   7.185845148166701   5.002978606422314 
 11.202235609649751   0.718623749417457  11.673616748318732 
  3.734078536549923   0.722610385250172   5.002978606422314 
  2.499251163580956   7.173616968752712   5.002978606422314 
  7.464704545193056   7.184244176258030   5.002978606422314 
  8.711227555039267   0.719159697505491   5.002978606422314 
  2.489416698613995   7.186183946070992  11.673616748318732 
 13.693243664260223   0.719159697505491   5.002978606422314 
 -1.244683935211801   9.342108638996043  11.673616748318732 
  0.000039851676705   2.874518006045983  11.673616748318732 
  4.978740511839050   2.874548625074068  11.673616748318732 
  3.734078536549972   9.342062725674189  11.673616748318732 
  8.712841008311639   9.342108638996043  11.673616748318732 
  9.957534966310332   2.874510187642094  11.673616748318732 
 -3.734078536549858   9.342108742426664   5.002978606422314 
  1.248133272974809   9.334617536057337   5.002978606422314 
  2.495382650383722   2.889349010227236   5.002978606422314 
  6.220023800125030   9.334617536057337   5.002978606422314 
  7.465528643704385   2.876012522088769   5.002978606422314 
 12.448203781614328   2.875632031697787   5.002978606422314 
 -1.244673109099618   5.030368021889989  11.673616748318732 
 -2.489381325454382  11.497987758944594  11.673616748318732 
  2.489376435042802  11.497965642580132  11.673616748318732 
  3.734078536549918   5.030366245922021  11.673616748318732 
  7.468157788155046  11.497979577841635  11.673616748318732 
 -4.978390301471807  11.499424733646089   5.002978606422314 
  8.712830182199557   5.030368021889989  11.673616748318732 
 -0.000583153314412  11.497643306955895   5.002978606422314 
  1.260555277414812   5.028132758786207   5.002978606422314 
  0.003452527906780   7.184244176258030   5.002978606422314 
  6.207601795685111   5.028132758786207   5.002978606422314 
  4.979118419195868  11.496307008562875   5.002978606422314 
 11.202235609649755   5.031039613368123   5.002978606422314 
 -2.489381146307276   7.186229829339383  11.673616748318732 
  3.734078536549909   0.718654190242034  11.673616748318732 
  7.468130710572438   7.186222273762112  11.673616748318732 
  8.712832864803152   0.718622907543918  11.673616748318732 
 13.691638354496323   0.718622907543918  11.673616748318732 
 -0.000092633784212   1.437269447572499   1.667614720689905 
  3.734078536549918   7.904912686065924   1.667707971643756 
  4.978776945409616   1.437468184619992   1.667819225298775 
  8.712757603182471   7.904807945251210   1.667617661357787 
  9.957572018138906   1.437230609026765   1.667587300504842 
 -4.978780334021343  10.060737660257649   8.338341750075193 
  0.000043335894673  10.060713638515615   8.338312459897812 
  1.244648295027240   3.593093025850161   8.338249241200872 
  4.978706057010108  10.060801740685715   8.338342492154723 
  6.223508778072594   3.593093025850161   8.338249241200872 
 11.202235609649694   3.593086060871227   8.338345650188844 
 -2.489376739078478  10.060737660257649   1.667615462769448 
 -1.244720154244399   3.593027549508029   1.667614720689905 
  3.734078536549856   3.593618877228111   1.668360115045404 
  2.489451016089730  10.060801740685715   1.667614720689905 
  7.468113737205059  10.060713638515615   1.667644752946815 
  8.712877227344231   3.593027549508029   1.667614720689905 
 -6.223469568069071  12.216650696746390   8.338312459897812 
 -1.244687505030746  12.216650696746390   8.338312459897812 
  0.000188337824566   5.748874834450459   8.338137987545853 
  4.978338256659366   5.748739930269015   8.337597097799225 
  3.734078536549914  12.216637519712700   8.338369912339786 
  9.957504768724274   5.748961892018012   8.338312459897812 
 -2.489347695624440   5.748961892018011   1.667644752946815 
 -3.734078536549903  12.216710336777673   1.667617661357787 
  1.244721152610062  12.216620083204393   1.667611562655784 
  2.489818816440470   5.748739930269014   1.668360115045404 
  6.223435920489777  12.216620083204393   1.667611562655784 
  7.467968735275269   5.748874834450458   1.667819225298775 
 -1.244600530082724   7.904807945251211   8.338339551486840 
 -0.000092633784212   1.437269447572499   8.338342492154723 
  3.734078536549918   7.904912686065925   8.338249241200872 
  4.978776945409617   1.437468184619993   8.338137987545853 
  8.712757603182471   7.904807945251211   8.338339551486840 
 -3.734078536549912   7.904850906764809   1.667615462769448 
  9.957572018138906   1.437230609026766   8.338369912339786 
  2.489380127690110   1.437468184619992   1.667819225298775 
  1.244886746684267   7.904755718695792   1.667819225298775 
  6.223270326415465   7.904755718695792   1.667819225298775 
  7.468249706884042   1.437269447572499   1.667614720689905 
  1.244886746684268   7.904755718695793   8.338137987545853 
 12.446899201160479   1.437230609026765   1.667587300504842 
 -2.489376739078478  10.060737660257649   8.338341750075193 
 -1.244720154244399   3.593027549508030   8.338342492154723 
  3.734078536549857   3.593618877228112   8.337597097799225 
  2.489451016089731  10.060801740685715   8.338342492154723 
  7.468113737205060  10.060713638515615   8.338312459897812 
  8.712877227344231   3.593027549508030   8.338342492154723 
 -4.978780334021343  10.060737660257649   1.667615462769448 
  0.000043335894673  10.060713638515615   1.667644752946815 
  1.244648295027240   3.593093025850160   1.667707971643756 
  4.978706057010107  10.060801740685715   1.667614720689905 
  6.223508778072593   3.593093025850160   1.667707971643756 
 11.202235609649694   3.593086060871226   1.667611562655784 
 -2.489347695624439   5.748961892018012   8.338312459897812 
 -3.734078536549902  12.216710336777673   8.338339551486840 
  1.244721152610062  12.216620083204393   8.338345650188844 
  2.489818816440470   5.748739930269015   8.337597097799225 
  6.223435920489778  12.216620083204393   8.338345650188844 
 -6.223469568069072  12.216650696746390   1.667644752946815 
  7.467968735275270   5.748874834450459   8.338137987545853 
 -1.244687505030746  12.216650696746390   1.667644752946815 
  0.000188337824565   5.748874834450458   1.667819225298775 
 -1.244600530082725   7.904807945251210   1.667617661357787 
  4.978338256659365   5.748739930269014   1.668360115045404 
  3.734078536549913  12.216637519712700   1.667587300504842 
  9.957504768724274   5.748961892018011   1.667644752946815 
 -3.734078536549911   7.904850906764810   8.338341750075193 
  2.489380127690111   1.437468184619993   8.338137987545853 
  6.223270326415466   7.904755718695793   8.338137987545853 
  7.468249706884043   1.437269447572499   8.338342492154723 
 12.446899201160479   1.437230609026766   8.338369912339786 
  1.244665267886318   0.718653790549519   1.667852854442337 
  4.978582543488263   7.186306239171967   1.668261362700461 
  6.223491805213513   0.718653790549519   1.667852854442337 
  9.957521062284776   7.186207676421557   1.667689327852479 
 11.202235609649751   0.718623749417456   1.667536217575692 
 -3.734078536549858   9.342108742426664   8.338366095172985 
  1.244732650715325   9.342117604789106   8.338104358402290 
  2.489231736829856   2.874624164176988   8.337695850144154 
  6.223424422384515   9.342117604789106   8.338104358402290 
  7.468375429422240   2.874368929588250   8.338428740086169 
 12.446841649584986   2.874488403965305   8.338286392101063 
 -1.244656171661028   9.342104856951153   1.667689327852479 
 -0.000218356322302   2.874368929588249   1.667528472758446 
  4.978925336269992   2.874624164176987   1.668261362700461 
  3.734078536549971   9.342360878589655   1.667528472758446 
  8.712813244760868   9.342104856951153   1.667689327852479 
  9.957629569714507   2.874488403965304   1.667670820743564 
 -4.978786354073760  11.498013693907293   8.338267884992149 
 -0.000004220316632  11.497977554078014   8.338249074165077 
  1.244727729891557   5.030168334417187   8.337695850144154 
  6.223429343208383   5.030168334417187   8.337695850144154 
  4.978809074541738  11.498058463369837   8.338286392101063 
 11.202235609649746   5.030371119123897   8.338249074165077 
 -1.244680617948223   5.030327342427527   1.667852854442337 
 -2.489370719025940  11.498013693907293   1.667689327852479 
  2.489347998558206  11.498058463369837   1.667670820743564 
  3.734078536549917   5.030366245922020   1.666170367285792 
  7.468161293416455  11.497977554078014   1.667708138679550 
  8.712837691048161   5.030327342427527   1.667852854442337 
  0.000097374073947   7.186181275226589   8.338186325005964 
  1.244665267886318   0.718653790549520   8.338104358402290 
  4.978582543488264   7.186306239171968   8.337695850144154 
  6.223491805213514   0.718653790549520   8.338104358402290 
  9.957521062284776   7.186207676421557   8.338267884992149 
 -2.489363989184940   7.186207676421557   1.667689327852479 
 11.202235609649751   0.718623749417456   8.338420995268935 
  3.734078536549915   0.718736187313068   1.667770887838665 
  2.489574529611573   7.186306239171967   1.668261362700461 
  7.468059699025887   7.186181275226589   1.667770887838665 
  8.712899031722740   0.718551870431012   1.667670820743564 
  2.489574529611574   7.186306239171968   8.337695850144154 
 13.691572187576750   0.718551870431012   1.667670820743564 
 -1.244656171661027   9.342104856951153   8.338267884992149 
 -0.000218356322302   2.874368929588250   8.338428740086169 
  4.978925336269993   2.874624164176988   8.337695850144154 
  3.734078536549971   9.342360878589655   8.338428740086169 
  8.712813244760868   9.342104856951153   8.338267884992149 
  9.957629569714507   2.874488403965305   8.338286392101063 
 -3.734078536549859   9.342108742426664   1.667591117671629 
  1.244732650715324   9.342117604789106   1.667852854442337 
  2.489231736829855   2.874624164176987   1.668261362700461 
  6.223424422384514   9.342117604789106   1.667852854442337 
  7.468375429422239   2.874368929588249   1.667528472758446 
 12.446841649584986   2.874488403965304   1.667670820743564 
 -1.244680617948222   5.030327342427528   8.338104358402290 
 -2.489370719025940  11.498013693907293   8.338267884992149 
  2.489347998558207  11.498058463369837   8.338286392101063 
  3.734078536549917   5.030366245922021   8.339786845558834 
  7.468161293416456  11.497977554078014   8.338249074165077 
 -4.978786354073761  11.498013693907293   1.667689327852479 
  8.712837691048161   5.030327342427528   8.338104358402290 
 -0.000004220316632  11.497977554078014   1.667708138679550 
  1.244727729891556   5.030168334417186   1.668261362700461 
  0.000097374073946   7.186181275226589   1.667770887838665 
  6.223429343208382   5.030168334417186   1.668261362700461 
  4.978809074541737  11.498058463369837   1.667670820743564 
 11.202235609649746   5.030371119123896   1.667708138679550 
 -2.489363989184940   7.186207676421557   8.338267884992149 
  3.734078536549915   0.718736187313068   8.338186325005964 
  7.468059699025888   7.186181275226589   8.338186325005964 
  8.712899031722740   0.718551870431012   8.338286392101063 
 13.691572187576750   0.718551870431012   8.338286392101063 
  0.002215280130359   1.438922687650337   5.002978606422314 
  3.734078536549926   7.902460235069021   5.002978606422314 
  4.971712708545310   1.449691264964898   5.002978606422314 
  8.710303217967340   7.903390905286559   5.002978606422314 
  9.956703252608822   1.437732191039431   5.002978606422314 
 -4.978781520933470  10.060738345521688  11.673616748318732 
 -0.000000514089825  10.060748698216223  11.673616748318732 
  1.244684229734340   3.593113772762969  11.673616748318732 
  4.978789111362515  10.060739162048856  11.673616748318732 
  6.223472843365509   3.593113772762969  11.673616748318732 
 11.202235609649694   3.593146551896951  11.673616748318732 
 -2.488852883065177  10.061040108667928   5.002978606422314 
 -1.242134449381150   3.594199641548877   5.002978606422314 
  3.734078536549864   3.631161910126709   5.002978606422314 
  2.489728807038415  10.057976408567017   5.002978606422314 
  7.465641249285562  10.057379036203306   5.002978606422314 
  8.710291522480983   3.594199641548877   5.002978606422314 
 -6.223478005668205  12.216595191695545  11.673616748318732 
 -1.244679067431613  12.216595191695545  11.673616748318732 
 -0.000003033706369   5.748984032466988  11.673616748318732 
  4.978769663416510   5.748989003076391  11.673616748318732 
  3.734078536549922  12.216590874808674  11.673616748318732 
  9.957557056307916   5.748982337368239  11.673616748318732 
 -2.485223601350713   5.748487955825329   5.002978606422314 
 -3.734078536549910  12.219544416706963   5.002978606422314 
  1.244026637240540  12.216219104568845   5.002978606422314 
  2.522332036665774   5.729968413819723   5.002978606422314 
  6.224130435859299  12.216219104568845   5.002978606422314 
  7.453851118751937   5.748881102860834   5.002978606422314 
 -1.244698822984495   7.904864694684499  11.673616748318732 
  0.000003088081233   1.437228809711852  11.673616748318732 
  3.734078536549926   7.904871192240295  11.673616748318732 
  4.978778062918727   1.437247853004377  11.673616748318732 
  8.712855896084228   7.904864694684499  11.673616748318732 
 -3.734078536549911   7.904246009944226   5.002978606422314 
  9.957531622467066   1.437253931478787  11.673616748318732 
  2.496444364554403   1.449691264964898   5.002978606422314 
  1.251940126343301   7.892526369940501   5.002978606422314 
  6.216216946756432   7.892526369940501   5.002978606422314 
  7.465941792969470   1.438922687650337   5.002978606422314 
  1.244696492662450   7.904866852294868  11.673616748318732 
 12.447767966690565   1.437732191039431   5.002978606422314 
 -2.489375552166350  10.060738345521688  11.673616748318732 
 -1.244707486731353   3.593130766005528  11.673616748318732 
  3.734078536549872   3.593120731613360  11.673616748318732 
  2.489367961737340  10.060739162048856  11.673616748318732 
  7.468157587189577  10.060748698216223  11.673616748318732 
  8.712864559831186   3.593130766005528  11.673616748318732 
 -4.979304190034629  10.061040108667928   5.002978606422314 
  0.002515823814157  10.057379036203306   5.002978606422314 
  1.246772179892099   3.594319251348606   5.002978606422314 
  4.978428266061437  10.057976408567017   5.002978606422314 
  6.221384893207749   3.594319251348606   5.002978606422314 
 11.202235609649694   3.593888018142327   5.002978606422314 
 -2.489399983208078   5.748982337368239  11.673616748318732 
 -3.734078536549917  12.216596837911098  11.673616748318732 
  1.244668765845072  12.216589837691535  11.673616748318732 
  2.489387409683326   5.748989003076391  11.673616748318732 
  6.223488307254756  12.216589837691535  11.673616748318732 
 -6.221817961714838  12.220459235251369   5.002978606422314 
  7.468160106806192   5.748984032466988  11.673616748318732 
 -1.246339111384982  12.220459235251369   5.002978606422314 
  0.014305954347898   5.748881102860834   5.002978606422314 
 -1.242146144867607   7.903390905286559   5.002978606422314 
  4.945825036434060   5.729968413819723   5.002978606422314 
  3.734078536549929  12.215634355687367   5.002978606422314 
  9.953380674450548   5.748487955825329   5.002978606422314 
 -3.734078536549911   7.904849536236736  11.673616748318732 
  2.489379010181001   1.437247853004377  11.673616748318732 
  6.223460580437284   7.904866852294868  11.673616748318732 
  7.468153985018599   1.437228809711852  11.673616748318732 
 12.446939596832323   1.437253931478787  11.673616748318732 
  3.734078536549917   5.030366245922021   5.002978606422314 
Generated by cif2cell 2.0.0.  :  Failed to get author information, No journal information. Species order: B N C 
 1.0
 14.936314146199660   0.000000000000000   0.000000000000000
 -7.468157073099825  12.935227489513863   0.000000000000000
  0.000000000000001   0.000000000000001  13.341276283792837
 B N C 
 143 144   1
Cartesian
  1.249460206808418   0.725348850180793   5.002978606422314 
  4.968905909518866   7.173616968752712   5.002978606422314 
  6.218696866291413   0.725348850180793   5.002978606422314 
  9.956101039724246   7.185845148166701   5.002978606422314 
 11.202235609649751   0.718623749417456   5.002978606422314 
 -3.734078536549858   9.342108742426666  11.673616748318732 
  1.244701175691723   9.342090762204233  11.673616748318732 
  2.489416561260783   2.874548625074068  11.673616748318732 
  6.223455897408115   9.342090762204233  11.673616748318732 
  7.468117221423234   2.874518006045983  11.673616748318732 
 12.446936252989159   2.874510187642094  11.673616748318732 
 -1.243632201702475   9.341056345467228   5.002978606422314 
  0.002628429395552   2.876012522088769   5.002978606422314 
  4.972774422716110   2.889349010227236   5.002978606422314 
  3.734078536549963   9.339073693588603   5.002978606422314 
  8.711789274802296   9.341056345467228   5.002978606422314 
  9.956267437685163   2.875632031697787   5.002978606422314 
 -4.978775747645332  11.497987758944594  11.673616748318732 
 -0.000000715055206  11.497979577841635  11.673616748318732 
  1.244754723324905   5.030366166621083  11.673616748318732 
  6.223402349775035   5.030366166621083  11.673616748318732 
  4.978780638057145  11.497965642580132  11.673616748318732 
 11.202235609649748   5.030367071596658  11.673616748318732 
 -1.236485056766631   5.031132351528012   5.002978606422314 
 -2.489766771627910  11.499424733646089   5.002978606422314 
  2.489038653904078  11.496307008562875   5.002978606422314 
  7.468740226414251  11.497643306955895   5.002978606422314 
  8.704642129866585   5.031132351528012   5.002978606422314 
  0.000026362527386   7.186222273762112  11.673616748318732 
  1.244704251758531   0.718639953671921  11.673616748318732 
  4.978740374485858   7.186183946070992  11.673616748318732 
  6.223452821341316   0.718639953671921  11.673616748318732 
  9.957538219407112   7.186229829339383  11.673616748318732 
 -2.487943966624423   7.185845148166701   5.002978606422314 
 11.202235609649751   0.718623749417457  11.673616748318732 
  3.734078536549923   0.722610385250172   5.002978606422314 
  2.499251163580956   7.173616968752712   5.002978606422314 
  7.464704545193056   7.184244176258030   5.002978606422314 
  8.711227555039267   0.719159697505491   5.002978606422314 
  2.489416698613995   7.186183946070992  11.673616748318732 
 13.693243664260223   0.719159697505491   5.002978606422314 
 -1.244683935211801   9.342108638996043  11.673616748318732 
  0.000039851676705   2.874518006045983  11.673616748318732 
  4.978740511839050   2.874548625074068  11.673616748318732 
  3.734078536549972   9.342062725674189  11.673616748318732 
  8.712841008311639   9.342108638996043  11.673616748318732 
  9.957534966310332   2.874510187642094  11.673616748318732 
 -3.734078536549858   9.342108742426664   5.002978606422314 
  1.248133272974809   9.334617536057337   5.002978606422314 
  2.495382650383722   2.889349010227236   5.002978606422314 
  6.220023800125030   9.334617536057337   5.002978606422314 
  7.465528643704385   2.876012522088769   5.002978606422314 
 12.448203781614328   2.875632031697787   5.002978606422314 
 -1.244673109099618   5.030368021889989  11.673616748318732 
 -2.489381325454382  11.497987758944594  11.673616748318732 
  2.489376435042802  11.497965642580132  11.673616748318732 
  3.734078536549918   5.030366245922021  11.673616748318732 
  7.468157788155046  11.497979577841635  11.673616748318732 
 -4.978390301471807  11.499424733646089   5.002978606422314 
  8.712830182199557   5.030368021889989  11.673616748318732 
 -0.000583153314412  11.497643306955895   5.002978606422314 
  1.260555277414812   5.028132758786207   5.002978606422314 
  0.003452527906780   7.184244176258030   5.002978606422314 
  6.207601795685111   5.028132758786207   5.002978606422314 
  4.979118419195868  11.496307008562875   5.002978606422314 
 11.202235609649755   5.031039613368123   5.002978606422314 
 -2.489381146307276   7.186229829339383  11.673616748318732 
  3.734078536549909   0.718654190242034  11.673616748318732 
  7.468130710572438   7.186222273762112  11.673616748318732 
  8.712832864803152   0.718622907543918  11.673616748318732 
 13.691638354496323   0.718622907543918  11.673616748318732 
 -0.000092633784212   1.437269447572499   1.667614720689905 
  3.734078536549918   7.904912686065924   1.667707971643756 
  4.978776945409616   1.437468184619992   1.667819225298775 
  8.712757603182471   7.904807945251210   1.667617661357787 
  9.957572018138906   1.437230609026765   1.667587300504842 
 -4.978780334021343  10.060737660257649   8.338341750075193 
  0.000043335894673  10.060713638515615   8.338312459897812 
  1.244648295027240   3.593093025850161   8.338249241200872 
  4.978706057010108  10.060801740685715   8.338342492154723 
  6.223508778072594   3.593093025850161   8.338249241200872 
 11.202235609649694   3.593086060871227   8.338345650188844 
 -2.489376739078478  10.060737660257649   1.667615462769448 
 -1.244720154244399   3.593027549508029   1.667614720689905 
  3.734078536549856   3.593618877228111   1.668360115045404 
  2.489451016089730  10.060801740685715   1.667614720689905 
  7.468113737205059  10.060713638515615   1.667644752946815 
  8.712877227344231   3.593027549508029   1.667614720689905 
 -6.223469568069071  12.216650696746390   8.338312459897812 
 -1.244687505030746  12.216650696746390   8.338312459897812 
  0.000188337824566   5.748874834450459   8.338137987545853 
  4.978338256659366   5.748739930269015   8.337597097799225 
  3.734078536549914  12.216637519712700   8.338369912339786 
  9.957504768724274   5.748961892018012   8.338312459897812 
 -2.489347695624440   5.748961892018011   1.667644752946815 
 -3.734078536549903  12.216710336777673   1.667617661357787 
  1.244721152610062  12.216620083204393   1.667611562655784 
  2.489818816440470   5.748739930269014   1.668360115045404 
  6.223435920489777  12.216620083204393   1.667611562655784 
  7.467968735275269   5.748874834450458   1.667819225298775 
 -1.244600530082724   7.904807945251211   8.338339551486840 
 -0.000092633784212   1.437269447572499   8.338342492154723 
  3.734078536549918   7.904912686065925   8.338249241200872 
  4.978776945409617   1.437468184619993   8.338137987545853 
  8.712757603182471   7.904807945251211   8.338339551486840 
 -3.734078536549912   7.904850906764809   1.667615462769448 
  9.957572018138906   1.437230609026766   8.338369912339786 
  2.489380127690110   1.437468184619992   1.667819225298775 
  1.244886746684267   7.904755718695792   1.667819225298775 
  6.223270326415465   7.904755718695792   1.667819225298775 
  7.468249706884042   1.437269447572499   1.667614720689905 
  1.244886746684268   7.904755718695793   8.338137987545853 
 12.446899201160479   1.437230609026765   1.667587300504842 
 -2.489376739078478  10.060737660257649   8.338341750075193 
 -1.244720154244399   3.593027549508030   8.338342492154723 
  3.734078536549857   3.593618877228112   8.337597097799225 
  2.489451016089731  10.060801740685715   8.338342492154723 
  7.468113737205060  10.060713638515615   8.338312459897812 
  8.712877227344231   3.593027549508030   8.338342492154723 
 -4.978780334021343  10.060737660257649   1.667615462769448 
  0.000043335894673  10.060713638515615   1.667644752946815 
  1.244648295027240   3.593093025850160   1.667707971643756 
  4.978706057010107  10.060801740685715   1.667614720689905 
  6.223508778072593   3.593093025850160   1.667707971643756 
 11.202235609649694   3.593086060871226   1.667611562655784 
 -2.489347695624439   5.748961892018012   8.338312459897812 
 -3.734078536549902  12.216710336777673   8.338339551486840 
  1.244721152610062  12.216620083204393   8.338345650188844 
  2.489818816440470   5.748739930269015   8.337597097799225 
  6.223435920489778  12.216620083204393   8.338345650188844 
 -6.223469568069072  12.216650696746390   1.667644752946815 
  7.467968735275270   5.748874834450459   8.338137987545853 
 -1.244687505030746  12.216650696746390   1.667644752946815 
  0.000188337824565   5.748874834450458   1.667819225298775 
 -1.244600530082725   7.904807945251210   1.667617661357787 
  4.978338256659365   5.748739930269014   1.668360115045404 
  3.734078536549913  12.216637519712700   1.667587300504842 
  9.957504768724274   5.748961892018011   1.667644752946815 
 -3.734078536549911   7.904850906764810   8.338341750075193 
  2.489380127690111   1.437468184619993   8.338137987545853 
  6.223270326415466   7.904755718695793   8.338137987545853 
  7.468249706884043   1.437269447572499   8.338342492154723 
 12.446899201160479   1.437230609026766   8.338369912339786 
  1.244665267886318   0.718653790549519   1.667852854442337 
  4.978582543488263   7.186306239171967   1.668261362700461 
  6.223491805213513   0.718653790549519   1.667852854442337 
  9.957521062284776   7.186207676421557   1.667689327852479 
 11.202235609649751   0.718623749417456   1.667536217575692 
 -3.734078536549858   9.342108742426664   8.338366095172985 
  1.244732650715325   9.342117604789106   8.338104358402290 
  2.489231736829856   2.874624164176988   8.337695850144154 
  6.223424422384515   9.342117604789106   8.338104358402290 
  7.468375429422240   2.874368929588250   8.338428740086169 
 12.446841649584986   2.874488403965305   8.338286392101063 
 -1.244656171661028   9.342104856951153   1.667689327852479 
 -0.000218356322302   2.874368929588249   1.667528472758446 
  4.978925336269992   2.874624164176987   1.668261362700461 
  3.734078536549971   9.342360878589655   1.667528472758446 
  8.712813244760868   9.342104856951153   1.667689327852479 
  9.957629569714507   2.874488403965304   1.667670820743564 
 -4.978786354073760  11.498013693907293   8.338267884992149 
 -0.000004220316632  11.497977554078014   8.338249074165077 
  1.244727729891557   5.030168334417187   8.337695850144154 
  6.223429343208383   5.030168334417187   8.337695850144154 
  4.978809074541738  11.498058463369837   8.338286392101063 
 11.202235609649746   5.030371119123897   8.338249074165077 
 -1.244680617948223   5.030327342427527   1.667852854442337 
 -2.489370719025940  11.498013693907293   1.667689327852479 
  2.489347998558206  11.498058463369837   1.667670820743564 
  3.734078536549917   5.030366245922020   1.666170367285792 
  7.468161293416455  11.497977554078014   1.667708138679550 
  8.712837691048161   5.030327342427527   1.667852854442337 
  0.000097374073947   7.186181275226589   8.338186325005964 
  1.244665267886318   0.718653790549520   8.338104358402290 
  4.978582543488264   7.186306239171968   8.337695850144154 
  6.223491805213514   0.718653790549520   8.338104358402290 
  9.957521062284776   7.186207676421557   8.338267884992149 
 -2.489363989184940   7.186207676421557   1.667689327852479 
 11.202235609649751   0.718623749417456   8.338420995268935 
  3.734078536549915   0.718736187313068   1.667770887838665 
  2.489574529611573   7.186306239171967   1.668261362700461 
  7.468059699025887   7.186181275226589   1.667770887838665 
  8.712899031722740   0.718551870431012   1.667670820743564 
  2.489574529611574   7.186306239171968   8.337695850144154 
 13.691572187576750   0.718551870431012   1.667670820743564 
 -1.244656171661027   9.342104856951153   8.338267884992149 
 -0.000218356322302   2.874368929588250   8.338428740086169 
  4.978925336269993   2.874624164176988   8.337695850144154 
  3.734078536549971   9.342360878589655   8.338428740086169 
  8.712813244760868   9.342104856951153   8.338267884992149 
  9.957629569714507   2.874488403965305   8.338286392101063 
 -3.734078536549859   9.342108742426664   1.667591117671629 
  1.244732650715324   9.342117604789106   1.667852854442337 
  2.489231736829855   2.874624164176987   1.668261362700461 