Species order: X N B                    
   2.51242800000000     
     5.9449720136058266    0.0000000000000000    0.0000000000000000
    -2.9724860068029120    5.1484967885702053   -0.0000000000000001
     0.0000000000000000    0.0000000000000009    5.3101128803662583
   C    N    B 
     1   144   143
Direct
  0.4444444444444429  0.3888888888888857  0.3750000000000000
  0.1111104259772470  0.0555578779833678  0.1250144902904429
  0.6111011254724883  0.5555608701120763  0.1250451101688894
  0.4444474520061207  0.0555578779833678  0.1250144902904429
  0.9444418389063204  0.5555532503968074  0.1250022330980738
  0.7777777777777786  0.0555555555555571  0.1249907566640711
  0.1111111111111143  0.7222222222222214  0.6250051282801594
  0.4444474520061207  0.7222229073560890  0.6249855097095571
  0.2777724632212596  0.2222322078608473  0.6249548898311105
  0.7777754553499681  0.7222229073560890  0.6249855097095571
  0.6111208572158192  0.2222124761175167  0.6250098238513965
  0.9444383778568279  0.2222217124743688  0.6249991541087055
  0.2777800829365288  0.7222219218428489  0.1250022330980738
  0.1110916189017048  0.2222124761175167  0.1249901761486033
  0.4444597446395878  0.2222322078608473  0.1250451101688894
  0.6111208572158192  0.7222417144316309  0.1249901761486033
  0.9444418389063204  0.7222219218428489  0.1250022330980738
  0.7777833346175408  0.2222217124743688  0.1250008458912944
  0.1111114114904865  0.8888914944270082  0.6249977669019260
  0.4444440677056582  0.8888887005194935  0.6249963569298458
  0.2777724632212596  0.3888735886937408  0.6249548898311105
  0.6111011254724883  0.3888735886937408  0.6249548898311105
  0.7777833346175408  0.8888949554765007  0.6249991541087055
  0.9444446328138351  0.3888892656276704  0.6249963569298458
  0.1111104259772470  0.3888858813272079  0.1250144902904429
  0.2777800829365288  0.8888914944270082  0.1250022330980738
  0.6111116208589666  0.8888949554765007  0.1250008458912944
  0.4444444444444429  0.3888888888888857  0.1248883788809534
  0.9444446328138351  0.8888887005194935  0.1250036430701541
  0.7777754553499681  0.3888858813272079  0.1250144902904429
  0.2777821239671170  0.5555512093662188  0.6249916535448187
  0.1111104259772470  0.0555578779833678  0.6249855097095571
  0.6111011254724883  0.5555608701120763  0.6249548898311105
  0.4444474520061207  0.0555578779833678  0.6249855097095571
  0.9444418389063204  0.5555532503968074  0.6249977669019260
  0.1111114114904865  0.5555532503968074  0.1250022330980738
  0.7777777777777786  0.0555555555555571  0.6250092433359290
  0.2777821239671170  0.0555642479342339  0.1250083464551812
  0.4444597446395878  0.5555608701120763  0.1250451101688894
  0.7777690853991016  0.5555512093662188  0.1250083464551812
  0.6111116208589666  0.0555499987157948  0.1250008458912944
  0.4444597446395878  0.5555608701120763  0.6249548898311105
  0.9444383778568279  0.0555499987157948  0.1250008458912944
  0.2777800829365288  0.7222219218428489  0.6249977669019260
  0.1110916189017048  0.2222124761175167  0.6250098238513965
  0.4444597446395878  0.2222322078608473  0.6249548898311105
  0.6111208572158192  0.7222417144316309  0.6250098238513965
  0.9444418389063204  0.7222219218428489  0.6249977669019260
  0.7777833346175408  0.2222217124743688  0.6249991541087055
  0.1111111111111143  0.7222222222222214  0.1249948717198404
  0.4444474520061207  0.7222229073560890  0.1250144902904429
  0.2777724632212596  0.2222322078608473  0.1250451101688894
  0.7777754553499681  0.7222229073560890  0.1250144902904429
  0.6111208572158192  0.2222124761175167  0.1249901761486033
  0.9444383778568279  0.2222217124743688  0.1250008458912944
  0.1111104259772470  0.3888858813272079  0.6249855097095571
  0.2777800829365288  0.8888914944270082  0.6249977669019260
  0.6111116208589666  0.8888949554765007  0.6249991541087055
  0.4444444444444429  0.3888888888888857  0.6251116211190465
  0.9444446328138351  0.8888887005194935  0.6249963569298458
  0.1111114114904865  0.8888914944270082  0.1250022330980738
  0.7777754553499681  0.3888858813272079  0.6249855097095571
  0.4444440677056582  0.8888887005194935  0.1250036430701541
  0.2777724632212596  0.3888735886937408  0.1250451101688894
  0.2777821239671170  0.5555512093662188  0.1250083464551812
  0.6111011254724883  0.3888735886937408  0.1250451101688894
  0.7777833346175408  0.8888949554765007  0.1250008458912944
  0.9444446328138351  0.3888892656276704  0.1250036430701541
  0.1111114114904865  0.5555532503968074  0.6249977669019260
  0.2777821239671170  0.0555642479342339  0.6249916535448187
  0.7777690853991016  0.5555512093662188  0.6249916535448187
  0.6111116208589666  0.0555499987157948  0.6249991541087055
  0.9444383778568279  0.0555499987157948  0.6249991541087055
  0.0557686235730572  0.1112406170526817  0.3750000000000000
  0.5554627466534806  0.6109254933069610  0.3750000000000000
  0.3888973071775263  0.1120731170858886  0.3750000000000000
  0.8886615502809684  0.6109974418071553  0.3750000000000000
  0.7221847515086286  0.1111485818247071  0.3750000000000000
  0.0555551030178990  0.7777782303154370  0.8750000000000000
  0.3888894809133586  0.7777790306642944  0.8750000000000000
  0.2222214531094670  0.2777773932214014  0.8750000000000000
  0.7222236670459077  0.7777782934397364  0.8750000000000000
  0.5555559401119345  0.2777773932214014  0.8750000000000000
  0.8888899636596921  0.2777799273193914  0.8750000000000000
  0.2222697848683455  0.7778015591008405  0.3750000000000000
  0.0557686235730572  0.2778613398537113  0.3750000000000000
  0.3903594143616829  0.2807188287233728  0.3750000000000000
  0.5554719934796248  0.7775647097602782  0.3750000000000000
  0.8885908272461281  0.7775185279390309  0.3750000000000000
  0.7220927162806539  0.2778613398537113  0.3750000000000000
  0.0555543026690414  0.9444437835824000  0.8750000000000000
  0.3888894809133586  0.9444437835824000  0.8750000000000000
  0.2222217886231193  0.4444439834651137  0.8750000000000000
  0.5555554021352814  0.4444443677343050  0.8750000000000000
  0.7222217249256816  0.9444434498513635  0.8750000000000000
  0.8888895497509286  0.4444438524199700  0.8750000000000000
  0.0558148053943051  0.4444056326404333  0.3750000000000000
  0.2223358915261802  0.9446717830523602  0.3750000000000000
  0.5554960845446488  0.9444147089389886  0.3750000000000000
  0.3903594143616829  0.4429739189716457  0.3750000000000000
  0.8889186243943400  0.9444147089389886  0.3750000000000000
  0.7212602162474466  0.4444360261558023  0.3750000000000000
  0.2222219554242343  0.6111113779091013  0.8750000000000000
  0.0555550398935992  0.1111096662874282  0.8750000000000000
  0.5555559401119345  0.6111118802238685  0.8750000000000000
  0.3888893498682149  0.1111111384913413  0.8750000000000000
  0.8888894224848600  0.6111113779091013  0.8750000000000000
  0.0555317742324951  0.6110635484649901  0.3750000000000000
  0.7222217249256816  0.1111116084076541  0.8750000000000000
  0.2231758099083553  0.1120731170858886  0.3750000000000000
  0.3888973071775263  0.6101575234249804  0.3750000000000000
  0.7212602162474466  0.6101575234249804  0.3750000000000000
  0.5554719934796248  0.1112406170526817  0.3750000000000000
  0.3888893498682149  0.6111115447102162  0.8750000000000000
  0.8889638303160714  0.1111485818247071  0.3750000000000000
  0.2222231272975377  0.7777782303154370  0.8750000000000000
  0.0555550398935992  0.2777787069395066  0.8750000000000000
  0.3888889655990236  0.2777779311980543  0.8750000000000000
  0.5555546263938289  0.7777782934397364  0.8750000000000000
  0.8888895497509286  0.7777790306642944  0.8750000000000000
  0.7222236670459077  0.2777787069395066  0.8750000000000000
  0.0555317742324951  0.7778015591008405  0.3750000000000000
  0.3889277006928953  0.7775185279390309  0.3750000000000000
  0.2224078400263748  0.2778705866798552  0.3750000000000000
  0.7220927162806539  0.7775647097602782  0.3750000000000000
  0.5554627466534806  0.2778705866798552  0.3750000000000000
  0.8889186243943400  0.2778372487886866  0.3750000000000000
  0.0555543026690414  0.4444438524199700  0.8750000000000000
  0.2222219554242343  0.9444439108484686  0.8750000000000000
  0.5555534060139443  0.9444433696736365  0.8750000000000000
  0.3888889655990236  0.4444443677343050  0.8750000000000000
  0.8888899636596921  0.9444433696736365  0.8750000000000000
  0.0558148053943051  0.9447425060872005  0.3750000000000000
  0.7222221948419941  0.4444439834651137  0.8750000000000000
  0.3889277006928953  0.9447425060872005  0.3750000000000000
  0.2231758099083553  0.4444360261558023  0.3750000000000000
  0.2223358915261802  0.6109974418071553  0.3750000000000000
  0.5526145046099629  0.4429739189716457  0.3750000000000000
  0.7221847515086286  0.9443695030172572  0.3750000000000000
  0.8885908272461281  0.4444056326404333  0.3750000000000000
  0.0555551030178990  0.6111102060357978  0.8750000000000000
  0.2222217886231193  0.1111111384913413  0.8750000000000000
  0.7222221948419941  0.6111115447102162  0.8750000000000000
  0.5555546263938289  0.1111096662874282  0.8750000000000000
  0.8888898834819651  0.1111116084076541  0.8750000000000000
  0.1116902432814146  0.0560754614303307  0.3750000000000000
  0.6099627731657984  0.5545798846265445  0.3750000000000000
  0.4443852181489162  0.0560754614303307  0.3750000000000000
  0.9443327538716785  0.5555252239662587  0.3750000000000000
  0.7777777777777786  0.0555555555555571  0.3750000000000000
  0.1111111111111143  0.7222222222222214  0.8750000000000000
  0.4444443071474397  0.7222208322024128  0.8750000000000000
  0.2777819174887680  0.2222263680638289  0.8750000000000000
  0.7777765250549734  0.7222208322024128  0.8750000000000000
  0.6111093323734568  0.2222240009598789  0.8750000000000000
  0.9444455536710744  0.2222233965326361  0.8750000000000000
  0.2778081093670771  0.7221408632387557  0.3750000000000000
  0.1113457454722441  0.2223395394027863  0.3750000000000000
  0.4446171114607458  0.2233705601675371  0.3750000000000000
  0.6109937939305494  0.7219875878610916  0.3750000000000000
  0.9443327538716785  0.7221408632387557  0.3750000000000000
  0.7777363445607386  0.2223101243506505  0.3750000000000000
  0.1111111191071571  0.8888894894400280  0.8750000000000000
  0.4444443806129686  0.8888888569731490  0.8750000000000000
  0.2777819174887680  0.3888888827582678  0.8750000000000000
  0.6111069652695067  0.3888888827582678  0.8750000000000000
  0.7777778428615616  0.8888877796622542  0.8750000000000000
  0.9444444763601796  0.3888889527203599  0.8750000000000000
  0.1116902432814146  0.3889481151844124  0.3750000000000000
  0.2778081093670771  0.8890005794616501  0.3750000000000000
  0.6110232089826851  0.8887595535434166  0.3750000000000000
  0.9444704728790668  0.8888628604542618  0.3750000000000000
  0.7772578719030051  0.3889481151844124  0.3750000000000000
  0.2777789544414514  0.5555543788918845  0.8750000000000000
  0.1111125011309228  0.0555568082783624  0.8750000000000000
  0.6111069652695067  0.5555514158445672  0.8750000000000000
  0.4444443071474397  0.0555568082783624  0.8750000000000000
  0.9444438438933006  0.5555549630004577  0.8750000000000000
  0.1111924700945799  0.5555252239662587  0.3750000000000000
  0.7777777777777786  0.0555555555555571  0.8750000000000000
  0.2779318777283188  0.0558637554566374  0.3750000000000000
  0.4446171114607458  0.5545798846265445  0.3750000000000000
  0.7774695778766981  0.5554014556050169  0.3750000000000000
  0.6110232089826851  0.0555969887725970  0.3750000000000000
  0.4444444505750608  0.5555514158445672  0.8750000000000000
  0.9445737797899120  0.0555969887725970  0.3750000000000000
  0.2777783703328782  0.7222222142261786  0.8750000000000000
  0.1111146685864290  0.2222240009598789  0.8750000000000000
  0.4444444505750608  0.2222263680638289  0.8750000000000000
  0.6111093323734568  0.7222186647469071  0.8750000000000000
  0.9444438438933006  0.7222222142261786  0.8750000000000000
  0.7777778428615616  0.2222233965326361  0.8750000000000000
  0.1111111111111143  0.7222222222222214  0.3750000000000000
  0.4443852181489162  0.7216430900519211  0.3750000000000000
  0.2787534487067914  0.2233705601675371  0.3750000000000000
  0.7772578719030051  0.7216430900519211  0.3750000000000000
  0.6109937939305494  0.2223395394027863  0.3750000000000000
  0.9445737797899120  0.2223101243506505  0.3750000000000000
  0.1111125011309228  0.3888890261858889  0.8750000000000000
  0.2777783703328782  0.8888894894400280  0.8750000000000000
  0.6111099368006995  0.8888877796622542  0.8750000000000000
  0.4444444444444429  0.3888888888888857  0.8750000000000000
  0.9444444763601796  0.8888888569731490  0.8750000000000000
  0.1111924700945799  0.8890005794616501  0.3750000000000000
  0.7777765250549734  0.3888890261858889  0.8750000000000000
  0.4443923875751952  0.8888628604542618  0.3750000000000000
  0.2787534487067914  0.3887162218725828  0.3750000000000000
  0.2779318777283188  0.5554014556050169  0.3750000000000000
  0.6099627731657984  0.3887162218725828  0.3750000000000000
  0.7777363445607386  0.8887595535434166  0.3750000000000000
  0.9444704728790668  0.3889409457581334  0.3750000000000000
  0.1111111191071571  0.5555549630004577  0.8750000000000000
  0.2777789544414514  0.0555579088829029  0.8750000000000000
  0.7777754244504329  0.5555543788918845  0.8750000000000000
  0.6111099368006995  0.0555554904717742  0.8750000000000000
  0.9444455536710744  0.0555554904717742  0.8750000000000000
  0.0555502020477319  0.1111128079299445  0.1249966408922774
  0.5555575440197770  0.6111150880395537  0.1250036305499281
  0.3888977917774597  0.1111281719463609  0.1250119696063008
  0.8888806480843577  0.6111069907088502  0.1249968613110603
  0.7222235279439925  0.1111098053893432  0.1249945856027768
  0.0555551559944728  0.7777781773388631  0.6250033034848935
  0.3888910615079205  0.7777763202596537  0.6250011080294700
  0.2222182452937817  0.2777757893135588  0.6249963694500719
  0.7222205254033912  0.7777831312856038  0.6250033591077226
  0.5555575440197770  0.2777757893135588  0.6249963694500719
  0.8888876254315558  0.2777752508631186  0.6250035958192678
  0.2222230213443900  0.7777781773388631  0.1249966965151066
  0.0555502020477319  0.2777707274511230  0.1249966408922774
  0.3889082209857243  0.2778164419714558  0.1250525121852207
  0.5555626058822126  0.7777831312856038  0.1249966408922774
  0.8888852587517260  0.7777763202596537  0.1249988919705301
  0.7222205254033912  0.2777707274511230  0.1249966408922774
  0.0555570130736820  0.9444480745816026  0.6250011080294700
  0.3888910615079205  0.9444480745816026  0.6250011080294700
  0.2222303801688939  0.4444355415558689  0.6249880303936990
  0.5555168913618800  0.4444251123476043  0.6249474878147793
  0.7222235279439925  0.9444470558879847  0.6250054143972230
  0.8888852587517260  0.4444422718254081  0.6250011080294700
  0.0555570130736820  0.4444422718254081  0.1249988919705301
  0.2222263426244855  0.9444526852489709  0.1249968613110603
  0.5555580824702171  0.9444457079017728  0.1249964041807323
  0.3889082209857243  0.4444251123476043  0.1250525121852207
  0.8888876254315558  0.9444457079017728  0.1249964041807323
  0.7222051613869748  0.4444355415558689  0.1250119696063008
  0.2222263426244855  0.6111069907088502  0.6250031386889398
  0.0555502020477319  0.1111128079299445  0.6250033591077226
  0.5555575440197770  0.6111150880395537  0.6249963694500719
  0.3888977917774597  0.1111281719463609  0.6249880303936990
  0.8888806480843577  0.6111069907088502  0.6250031386889398
  0.0555551559944728  0.6111103119889457  0.1249966965151066
  0.7222235279439925  0.1111098053893432  0.6250054143972230
  0.2222303801688939  0.1111281719463609  0.1250119696063008
  0.3888977917774597  0.6111029531644422  0.1250119696063008
  0.7222051613869748  0.6111029531644422  0.1250119696063008
  0.5555626058822126  0.1111128079299445  0.1249966408922774
  0.3888977917774597  0.6111029531644422  0.6249880303936990
  0.8888862774453439  0.1111098053893432  0.1249945856027768
  0.2222230213443900  0.7777781773388631  0.6250033034848935
  0.0555502020477319  0.2777707274511230  0.6250033591077226
  0.3889082209857243  0.2778164419714558  0.6249474878147793
  0.5555626058822126  0.7777831312856038  0.6250033591077226
  0.8888852587517260  0.7777763202596537  0.6250011080294700
  0.7222205254033912  0.2777707274511230  0.6250033591077226
  0.0555551559944728  0.7777781773388631  0.1249966965151066
  0.3888910615079205  0.7777763202596537  0.1249988919705301
  0.2222182452937817  0.2777757893135588  0.1250036305499281
  0.7222205254033912  0.7777831312856038  0.1249966408922774
  0.5555575440197770  0.2777757893135588  0.1250036305499281
  0.8888876254315558  0.2777752508631186  0.1249964041807323
  0.0555570130736820  0.4444422718254081  0.6250011080294700
  0.2222263426244855  0.9444526852489709  0.6250031386889398
  0.5555580824702171  0.9444457079017728  0.6250035958192678
  0.3889082209857243  0.4444251123476043  0.6249474878147793
  0.8888876254315558  0.9444457079017728  0.6250035958192678
  0.0555570130736820  0.9444480745816026  0.1249988919705301
  0.7222051613869748  0.4444355415558689  0.6249880303936990
  0.3888910615079205  0.9444480745816026  0.1249988919705301
  0.2222303801688939  0.4444355415558689  0.1250119696063008
  0.2222263426244855  0.6111069907088502  0.1249968613110603
  0.5555168913618800  0.4444251123476043  0.1250525121852207
  0.7222235279439925  0.9444470558879847  0.1249945856027768
  0.8888852587517260  0.4444422718254081  0.1249988919705301
  0.0555551559944728  0.6111103119889457  0.6250033034848935
  0.2222303801688939  0.1111281719463609  0.6249880303936990
  0.7222051613869748  0.6111029531644422  0.6249880303936990
  0.5555626058822126  0.1111128079299445  0.6250033591077226
  0.8888862774453439  0.1111098053893432  0.6250054143972230
 
  0.00000000E+00  0.00000000E+00  0.00000000E+00
  0.00000000E+00  0.00000000E+00  0.00000000E+00
  0.00000000E+00  0.00000000E+00  0.00000000E+00
  0.00000000E+00  0.00000000E+00  0.00000000E+00
  0.00000000E+00  0.00000000E+00  0.00000000E+00
  0.00000000E+00  0.00000000E+00  0.00000000E+00
  0.00000000E+00  0.00000000E+00  0.00000000E+00
  0.00000000E+00  0.00000000E+00  0.00000000E+00
  0.00000000E+00  0.00000000E+00  0.00000000E+00
  0.00000000E+00  0.00000000E+00  0.00000000E+00
  0.00000000E+00  0.00000000E+00  0.00000000E+00
  0.00000000E+00  0.00000000E+00  0.00000000E+00
  0.00000000E+00  0.00000000E+00  0.00000000E+00
  0.00000000E+00  0.00000000E+00  0.00000000E+00
  0.00000000E+00  0.00000000E+00  0.00000000E+00
  0.00000000E+00  0.00000000E+00  0.00000000E+00
  0.00000000E+00  0.00000000E+00  0.00000000E+00
  0.00000000E+00  0.00000000E+00  0.00000000E+00
  0.00000000E+00  0.00000000E+00  0.00000000E+00
  0.00000000E+00  0.00000000E+00  0.00000000E+00
  0.00000000E+00  0.00000000E+00  0.00000000E+00
  0.00000000E+00  0.00000000E+00  0.00000000E+00
  0.00000000E+00  0.00000000E+00  0.00000000E+00
  0.00000000E+00  0.00000000E+00  0.00000000E+00
  0.00000000E+00  0.00000000E+00  0.00000000E+00
  0.00000000E+00  0.00000000E+00  0.00000000E+00
  0.00000000E+00  0.00000000E+00  0.00000000E+00
  0.00000000E+00  0.00000000E+00  0.00000000E+00
  0.00000000E+00  0.00000000E+00  0.00000000E+00
  0.00000000E+00  0.00000000E+00  0.00000000E+00
  0.00000000E+00  0.00000000E+00  0.00000000E+00
  0.00000000E+00  0.00000000E+00  0.00000000E+00
  0.00000000E+00  0.00000000E+00  0.00000000E+00
  0.00000000E+00  0.00000000E+00  0.00000000E+00
  0.00000000E+00  0.00000000E+00  0.00000000E+00
  0.00000000E+00  0.00000000E+00  0.00000000E+00
  0.00000000E+00  0.00000000E+00  0.00000000E+00
  0.00000000E+00  0.00000000E+00  0.00000000E+00
  0.00000000E+00  0.00000000E+00  0.00000000E+00
  0.00000000E+00  0.00000000E+00  0.00000000E+00
  0.00000000E+00  0.00000000E+00  0.00000000E+00
  0.00000000E+00  0.00000000E+00  0.00000000E+00
  0.00000000E+00  0.00000000E+00  0.00000000E+00
  0.00000000E+00  0.00000000E+00  0.00000000E+00
  0.00000000E+00  0.00000000E+00  0.00000000E+00
  0.00000000E+00  0.00000000E+00  0.00000000E+00
  0.00000000E+00  0.00000000E+00  0.00000000E+00
  0.00000000E+00  0.00000000E+00  0.00000000E+00
  0.00000000E+00  0.00000000E+00  0.00000000E+00
  0.00000000E+00  0.00000000E+00  0.00000000E+00
  0.00000000E+00  0.00000000E+00  0.00000000E+00
  0.00000000E+00  0.00000000E+00  0.00000000E+00
  0.00000000E+00  0.00000000E+00  0.00000000E+00
  0.00000000E+00  0.00000000E+00  0.00000000E+00
  0.00000000E+00  0.00000000E+00  0.00000000E+00
  0.00000000E+00  0.00000000E+00  0.00000000E+00
  0.00000000E+00  0.00000000E+00  0.00000000E+00
  0.00000000E+00  0.00000000E+00  0.00000000E+00
  0.00000000E+00  0.00000000E+00  0.00000000E+00
  0.00000000E+00  0.00000000E+00  0.00000000E+00
  0.00000000E+00  0.00000000E+00  0.00000000E+00
  0.00000000E+00  0.00000000E+00  0.00000000E+00
  0.00000000E+00  0.00000000E+00  0.00000000E+00
  0.00000000E+00  0.00000000E+00  0.00000000E+00
  0.00000000E+00  0.00000000E+00  0.00000000E+00
  0.00000000E+00  0.00000000E+00  0.00000000E+00
  0.00000000E+00  0.00000000E+00  0.00000000E+00
  0.00000000E+00  0.00000000E+00  0.00000000E+00
  0.00000000E+00  0.00000000E+00  0.00000000E+00
  0.00000000E+00  0.00000000E+00  0.00000000E+00
  0.00000000E+00  0.00000000E+00  0.00000000E+00
  0.00000000E+00  0.00000000E+00  0.00000000E+00
  0.00000000E+00  0.00000000E+00  0.00000000E+00
  0.00000000E+00  0.00000000E+00  0.00000000E+00
  0.00000000E+00  0.00000000E+00  0.00000000E+00
  0.00000000E+00  0.00000000E+00  0.00000000E+00
  0.00000000E+00  0.00000000E+00  0.00000000E+00
  0.00000000E+00  0.00000000E+00  0.00000000E+00
  0.00000000E+00  0.00000000E+00  0.00000000E+00
  0.00000000E+00  0.00000000E+00  0.00000000E+00
  0.00000000E+00  0.00000000E+00  0.00000000E+00
  0.00000000E+00  0.00000000E+00  0.00000000E+00
  0.00000000E+00  0.00000000E+00  0.00000000E+00
  0.00000000E+00  0.00000000E+00  0.00000000E+00
  0.00000000E+00  0.00000000E+00  0.00000000E+00
  0.00000000E+00  0.00000000E+00  0.00000000E+00
  0.00000000E+00  0.00000000E+00  0.00000000E+00
  0.00000000E+00  0.00000000E+00  0.00000000E+00
  0.00000000E+00  0.00000000E+00  0.00000000E+00
  0.00000000E+00  0.00000000E+00  0.00000000E+00
  0.00000000E+00  0.00000000E+00  0.00000000E+00
  0.00000000E+00  0.00000000E+00  0.00000000E+00
  0.00000000E+00  0.00000000E+00  0.00000000E+00
  0.00000000E+00  0.00000000E+00  0.00000000E+00
  0.00000000E+00  0.00000000E+00  0.00000000E+00
  0.00000000E+00  0.00000000E+00  0.00000000E+00
  0.00000000E+00  0.00000000E+00  0.00000000E+00
  0.00000000E+00  0.00000000E+00  0.00000000E+00
  0.00000000E+00  0.00000000E+00  0.00000000E+00
  0.00000000E+00  0.00000000E+00  0.00000000E+00
  0.00000000E+00  0.00000000E+00  0.00000000E+00
  0.00000000E+00  0.00000000E+00  0.00000000E+00
  0.00000000E+00  0.00000000E+00  0.00000000E+00
  0.00000000E+00  0.00000000E+00  0.00000000E+00
  0.00000000E+00  0.00000000E+00  0.00000000E+00
  0.00000000E+00  0.00000000E+00  0.00000000E+00
  0.00000000E+00  0.00000000E+00  0.00000000E+00
  0.00000000E+00  0.00000000E+00  0.00000000E+00
  0.00000000E+00  0.00000000E+00  0.00000000E+00
  0.00000000E+00  0.00000000E+00  0.00000000E+00
  0.00000000E+00  0.00000000E+00  0.00000000E+00
  0.00000000E+00  0.00000000E+00  0.00000000E+00
  0.00000000E+00  0.00000000E+00  0.00000000E+00
  0.00000000E+00  0.00000000E+00  0.00000000E+00
  0.00000000E+00  0.00000000E+00  0.00000000E+00
  0.00000000E+00  0.00000000E+00  0.00000000E+00
  0.00000000E+00  0.00000000E+00  0.00000000E+00
  0.00000000E+00  0.00000000E+00  0.00000000E+00
  0.00000000E+00  0.00000000E+00  0.00000000E+00
  0.00000000E+00  0.00000000E+00  0.00000000E+00
  0.00000000E+00  0.00000000E+00  0.00000000E+00
  0.00000000E+00  0.00000000E+00  0.00000000E+00
  0.00000000E+00  0.00000000E+00  0.00000000E+00
  0.00000000E+00  0.00000000E+00  0.00000000E+00
  0.00000000E+00  0.00000000E+00  0.00000000E+00
  0.00000000E+00  0.00000000E+00  0.00000000E+00
  0.00000000E+00  0.00000000E+00  0.00000000E+00
  0.00000000E+00  0.00000000E+00  0.00000000E+00
  0.00000000E+00  0.00000000E+00  0.00000000E+00
  0.00000000E+00  0.00000000E+00  0.00000000E+00
  0.00000000E+00  0.00000000E+00  0.00000000E+00
  0.00000000E+00  0.00000000E+00  0.00000000E+00
  0.00000000E+00  0.00000000E+00  0.00000000E+00
  0.00000000E+00  0.00000000E+00  0.00000000E+00
  0.00000000E+00  0.00000000E+00  0.00000000E+00
  0.00000000E+00  0.00000000E+00  0.00000000E+00
  0.00000000E+00  0.00000000E+00  0.00000000E+00
  0.00000000E+00  0.00000000E+00  0.00000000E+00
  0.00000000E+00  0.00000000E+00  0.00000000E+00
  0.00000000E+00  0.00000000E+00  0.00000000E+00
  0.00000000E+00  0.00000000E+00  0.00000000E+00
  0.00000000E+00  0.00000000E+00  0.00000000E+00
  0.00000000E+00  0.00000000E+00  0.00000000E+00
  0.00000000E+00  0.00000000E+00  0.00000000E+00
  0.00000000E+00  0.00000000E+00  0.00000000E+00
  0.00000000E+00  0.00000000E+00  0.00000000E+00
  0.00000000E+00  0.00000000E+00  0.00000000E+00
  0.00000000E+00  0.00000000E+00  0.00000000E+00
  0.00000000E+00  0.00000000E+00  0.00000000E+00
  0.00000000E+00  0.00000000E+00  0.00000000E+00
  0.00000000E+00  0.00000000E+00  0.00000000E+00
  0.00000000E+00  0.00000000E+00  0.00000000E+00
  0.00000000E+00  0.00000000E+00  0.00000000E+00
  0.00000000E+00  0.00000000E+00  0.00000000E+00
  0.00000000E+00  0.00000000E+00  0.00000000E+00
  0.00000000E+00  0.00000000E+00  0.00000000E+00
  0.00000000E+00  0.00000000E+00  0.00000000E+00
  0.00000000E+00  0.00000000E+00  0.00000000E+00
  0.00000000E+00  0.00000000E+00  0.00000000E+00
  0.00000000E+00  0.00000000E+00  0.00000000E+00
  0.00000000E+00  0.00000000E+00  0.00000000E+00
  0.00000000E+00  0.00000000E+00  0.00000000E+00
  0.00000000E+00  0.00000000E+00  0.00000000E+00
  0.00000000E+00  0.00000000E+00  0.00000000E+00
  0.00000000E+00  0.00000000E+00  0.00000000E+00
  0.00000000E+00  0.00000000E+00  0.00000000E+00
  0.00000000E+00  0.00000000E+00  0.00000000E+00
  0.00000000E+00  0.00000000E+00  0.00000000E+00
  0.00000000E+00  0.00000000E+00  0.00000000E+00
  0.00000000E+00  0.00000000E+00  0.00000000E+00
  0.00000000E+00  0.00000000E+00  0.00000000E+00
  0.00000000E+00  0.00000000E+00  0.00000000E+00
  0.00000000E+00  0.00000000E+00  0.00000000E+00
  0.00000000E+00  0.00000000E+00  0.00000000E+00
  0.00000000E+00  0.00000000E+00  0.00000000E+00
  0.00000000E+00  0.00000000E+00  0.00000000E+00
  0.00000000E+00  0.00000000E+00  0.00000000E+00
  0.00000000E+00  0.00000000E+00  0.00000000E+00
  0.00000000E+00  0.00000000E+00  0.00000000E+00
  0.00000000E+00  0.00000000E+00  0.00000000E+00
  0.00000000E+00  0.00000000E+00  0.00000000E+00
  0.00000000E+00  0.00000000E+00  0.00000000E+00
  0.00000000E+00  0.00000000E+00  0.00000000E+00
  0.00000000E+00  0.00000000E+00  0.00000000E+00
  0.00000000E+00  0.00000000E+00  0.00000000E+00
  0.00000000E+00  0.00000000E+00  0.00000000E+00
  0.00000000E+00  0.00000000E+00  0.00000000E+00
  0.00000000E+00  0.00000000E+00  0.00000000E+00
  0.00000000E+00  0.00000000E+00  0.00000000E+00
  0.00000000E+00  0.00000000E+00  0.00000000E+00
  0.00000000E+00  0.00000000E+00  0.00000000E+00
  0.00000000E+00  0.00000000E+00  0.00000000E+00
  0.00000000E+00  0.00000000E+00  0.00000000E+00
  0.00000000E+00  0.00000000E+00  0.00000000E+00
  0.00000000E+00  0.00000000E+00  0.00000000E+00
  0.00000000E+00  0.00000000E+00  0.00000000E+00
  0.00000000E+00  0.00000000E+00  0.00000000E+00
  0.00000000E+00  0.00000000E+00  0.00000000E+00
  0.00000000E+00  0.00000000E+00  0.00000000E+00
  0.00000000E+00  0.00000000E+00  0.00000000E+00
  0.00000000E+00  0.00000000E+00  0.00000000E+00
  0.00000000E+00  0.00000000E+00  0.00000000E+00
  0.00000000E+00  0.00000000E+00  0.00000000E+00
  0.00000000E+00  0.00000000E+00  0.00000000E+00
  0.00000000E+00  0.00000000E+00  0.00000000E+00
  0.00000000E+00  0.00000000E+00  0.00000000E+00
  0.00000000E+00  0.00000000E+00  0.00000000E+00
  0.00000000E+00  0.00000000E+00  0.00000000E+00
  0.00000000E+00  0.00000000E+00  0.00000000E+00
  0.00000000E+00  0.00000000E+00  0.00000000E+00
  0.00000000E+00  0.00000000E+00  0.00000000E+00
  0.00000000E+00  0.00000000E+00  0.00000000E+00
  0.00000000E+00  0.00000000E+00  0.00000000E+00
  0.00000000E+00  0.00000000E+00  0.00000000E+00
  0.00000000E+00  0.00000000E+00  0.00000000E+00
  0.00000000E+00  0.00000000E+00  0.00000000E+00
  0.00000000E+00  0.00000000E+00  0.00000000E+00
  0.00000000E+00  0.00000000E+00  0.00000000E+00
  0.00000000E+00  0.00000000E+00  0.00000000E+00
  0.00000000E+00  0.00000000E+00  0.00000000E+00
  0.00000000E+00  0.00000000E+00  0.00000000E+00
  0.00000000E+00  0.00000000E+00  0.00000000E+00
  0.00000000E+00  0.00000000E+00  0.00000000E+00
  0.00000000E+00  0.00000000E+00  0.00000000E+00
  0.00000000E+00  0.00000000E+00  0.00000000E+00
  0.00000000E+00  0.00000000E+00  0.00000000E+00
  0.00000000E+00  0.00000000E+00  0.00000000E+00
  0.00000000E+00  0.00000000E+00  0.00000000E+00
  0.00000000E+00  0.00000000E+00  0.00000000E+00
  0.00000000E+00  0.00000000E+00  0.00000000E+00
  0.00000000E+00  0.00000000E+00  0.00000000E+00
  0.00000000E+00  0.00000000E+00  0.00000000E+00
  0.00000000E+00  0.00000000E+00  0.00000000E+00
  0.00000000E+00  0.00000000E+00  0.00000000E+00
  0.00000000E+00  0.00000000E+00  0.00000000E+00
  0.00000000E+00  0.00000000E+00  0.00000000E+00
  0.00000000E+00  0.00000000E+00  0.00000000E+00
  0.00000000E+00  0.00000000E+00  0.00000000E+00
  0.00000000E+00  0.00000000E+00  0.00000000E+00
  0.00000000E+00  0.00000000E+00  0.00000000E+00
  0.00000000E+00  0.00000000E+00  0.00000000E+00
  0.00000000E+00  0.00000000E+00  0.00000000E+00
  0.00000000E+00  0.00000000E+00  0.00000000E+00
  0.00000000E+00  0.00000000E+00  0.00000000E+00
  0.00000000E+00  0.00000000E+00  0.00000000E+00
  0.00000000E+00  0.00000000E+00  0.00000000E+00
  0.00000000E+00  0.00000000E+00  0.00000000E+00