 N C B 
 1.0
 17.527899999999772   0.000000000000000   0.000000000000000
 -8.763949999999658  15.179606674993195   0.000000000000000
  0.000000000000001   0.000000000000002  15.000000000000000
 N C B 
  47   4  46
Cartesian
  8.770579053358681  13.750678051067297   1.665115711004685 
 16.279073634045243   0.733490383499439   1.665131891680920 
 15.026979074579227   2.895426733587580   1.665279981154500 
 13.773675919704107   5.059868891664398   1.665109586390190 
 12.523432859634148   7.222835430848751   1.664507910743295 
 11.279597253003807   9.393433099160761   1.665110062177965 
 10.025625057555406  11.573258185229278   1.665591830186055 
 -6.258353199268363  13.738615560915674   1.664693108000715 
  1.255382625608113   0.732533160602053   1.664997805154925 
  0.005363291479470   2.898739035168669   1.664919096805755 
 -1.244042090884024   5.059868891664398   1.664779145188935 
 -2.501306430123570   7.224076496373105   1.665191194834380 
 -3.757082356494617   9.392910085944957   1.665227037312705 
 -5.006355060645395  11.565492435654029   1.664777850937320 
 -3.757317745583825  13.733809637280078   1.664630633897355 
  3.754664631439381   0.722187805987049   1.665415854863745 
  2.507851827366844   2.896658222648716   1.665513273149535 
  1.268974566684467   5.063386888012221   1.664941512580650 
  0.005543699812789   7.223433584380615   1.665331996153770 
 -1.264893509658547   9.392564462551677   1.666040521362420 
 -2.507933814591062  11.564490313991215   1.665238810806750 
 -1.255284838599507  13.734757567710343   1.665130927716075 
  6.258181370013288   0.720761328831498   1.665259081681275 
  5.005202213402283   2.880019376401810   1.665795405617595 
  3.783012263658593   5.046956361037246   1.666013580006915 
  2.517098431747301   7.224500004277362   1.666027165669800 
  1.219065720149778   9.392970883674158   1.665336449471745 
 -0.008869267764398  11.566091831435857   1.665899115038340 
  1.247177203326212  13.737496679774074   1.665307433681760 
  8.758173338467607   0.727710372851235   1.664624790059295 
  7.498671287734810   2.901132253076195   1.664579591992890 
  6.205571079156162   5.067811967361328   1.665904255464195 
  2.493155563431050  11.563149391132724   1.664376448765275 
  3.756633942475871  13.732794712851906   1.664835101956650 
 11.266895971428063   0.724639300550937   1.665151702136955 
 10.010362707308612   2.893114460848629   1.665261958058715 
  8.743628811745820   5.059868891664398   1.664770266440460 
  7.526736829858715   7.231319136702171   1.664338909217910 
  6.321347781376090   9.498890096855646   1.664283859506975 
  5.018093509995347  11.568783489472445   1.664014919377065 
  6.263211489248651  13.746171745252848   1.664813333673540 
 13.772256378557985   0.727805345490968   1.665438885368550 
 12.520244580572079   2.892208613053234   1.665650176851360 
 11.264797712677177   5.055864891210216   1.665253353368445 
 10.020535125114019   7.222758686353361   1.664856989246610 
  8.800192918283933   9.402012083492661   1.665581953017450 
  7.532044832770757  11.591834619275101   1.665452793896955 
  4.997639114600931   5.780188774061663   1.668678795558255 
  3.752375543923664   7.923858187114860   1.667049913352565 
  4.919404072562183   7.124323732000125   1.671803043967905 
  3.754455128520970   9.305876194179461   1.660907234668530 
  7.512830205203638  14.463240001503683   1.665249825787770 
 15.024206431690043   1.449093584040537   1.665651267845970 
 13.771593484219601   3.614936583750349   1.665734545910130 
 12.514814154321561   5.779467190029423   1.665051791419665 
 11.260509785136950   7.943449723182208   1.664995716055380 
 10.023383142335820  10.116492259595960   1.665979294803180 
  8.770766148342030  12.298766100668040   1.665770470118715 
 -7.510002873729399  14.464029646665368   1.665145131550395 
  0.002093635218109   1.452525581387028   1.665202515023475 
 -1.248914551700033   3.617137339267294   1.665055872679860 
 -2.501587784080297   5.780573528237708   1.665277016403210 
 -3.757980550950021   7.946117881530732   1.665174931805940 
 -5.010648137532270  10.115217037464037   1.665339902970540 
 -6.261177021726409  12.288185739719763   1.665110142331980 
 -5.009893222900777  14.455481706030366   1.664961756847740 
  2.506166391194695   1.449735294015350   1.665635731604655 
  1.258002645857578   3.620176673165022   1.665281560812165 
  0.010358502604609   5.783100950277563   1.665043698319935 
 -1.250333161503593   7.947278051017950   1.665886869507855 
 -2.514014594249770  10.119737783328796   1.665876160946655 
 -3.759572696067810  12.286232340294854   1.664927692602840 
 -2.503278705827528  14.455543687327753   1.665260913111120 
  5.011124799046866   1.440215028311207   1.665999359928360 
  3.766468325967537   3.604822520025102   1.666101362022300 
  2.528320456418639   5.784147155983815   1.665875026006815 
  1.255250588920914   7.959085534883108   1.665727916120355 
 -0.017992847759686  10.119737783328796   1.666393824632235 
 -1.251712523586940  12.287767470651970   1.665801184871775 
 -0.001784704015984  14.460014458122986   1.665194167308360 
  7.506311180549361   1.455916666618749   1.664926008705645 
  6.243086105451130   3.627654903070702   1.665588432641175 
  2.483099682441878  10.101396626829178   1.663235929947780 
  1.253994315892985  12.285766563470576   1.665776184144900 
  2.505424848060239  14.454160019294500   1.665322721901045 
 10.013227888726346   1.449805851055481   1.665079739293770 
  8.754383046711386   3.629365607603076   1.665103212117015 
  7.480155530122289   5.846689556582718   1.665101238474345 
  5.058042834445446  10.080257759470655   1.663148570785110 
  3.762368945267285  12.270941503478765   1.664511125992185 
  5.007760437958616  14.455796739049127   1.665118067881950 
 12.519158946463881   1.447138687129744   1.665747310423290 
 11.263317096329471   3.615912349173284   1.665883358191560 
  9.998158253053138   5.784395954288869   1.665126731559000 
  8.730104530963393   7.943615104919713   1.665189486508065 
  7.555319091573314  10.119737783328796   1.665628361826060 
  6.264941855731764  12.287625743887475   1.664953617651555 
