B In N                                  
   1.0000000000000000     
     8.7639499999999995  -15.1796066749929999    0.0000000000000000
     8.7639499999999995   15.1796066749929999    0.0000000000000000
     0.0000000000000000    0.0000000000000000   15.0000000000000000
   B    In   N 
    47     1    49
Selective dynamics
Direct
  0.9079163868211911  0.9569772421567242  0.1110574571601822   T   T   T
  0.9069641155873136  0.0983733769384463  0.1110707509274099   T   T   T
  0.9058463050368012  0.2397166646123439  0.1110834372307740   T   T   T
  0.9040364169379121  0.3812343527895649  0.1109949508035181   T   T   T
  0.8989935018567408  0.5226012020565769  0.1110301231348848   T   T   T
  0.9002277224587553  0.6653157134216826  0.1110852195926103   T   T   T
  0.9057166451790012  0.8124538007838299  0.1110882641837733   T   T   T
  0.0483088073881304  0.9536335422554943  0.1110202729558250   T   T   T
  0.0494181855969522  0.0970543446611311  0.1110292142058805   T   T   T
  0.0491298738309790  0.2397169486680758  0.1110511002588259   T   T   T
  0.0475290248257047  0.3818568480055127  0.1110292470644518   T   T   T
  0.0442292525929329  0.5234691768256715  0.1110746834132965   T   T   T
  0.0435951841262824  0.6651741977568512  0.1110455247546449   T   T   T
  0.0446888174800136  0.8080973471308547  0.1109956301267372   T   T   T
  0.1878464942317707  0.9498277376586652  0.1110050229679386   T   T   T
  0.1914745586288879  0.0953330662375822  0.1110062865005838   T   T   T
  0.1910374080046824  0.2373026334781848  0.1109735003608400   T   T   T
  0.1909034122527199  0.3814259748898959  0.1109857367466438   T   T   T
  0.1882353278157942  0.5240439254027273  0.1110965363051140   T   T   T
  0.1874722307288252  0.6656502178287407  0.1111435364472480   T   T   T
  0.1870042761916030  0.8072840977047636  0.1110335093385343   T   T   T
  0.3299908428475889  0.9487036280281149  0.1110434417744196   T   T   T
  0.3301542860142583  0.0899571612627002  0.1110401513741404   T   T   T
  0.3362646311927297  0.2372361707719478  0.1110233919446769   T   T   T
  0.3319699242738825  0.3782296016395392  0.1109992139955448   T   T   T
  0.3313939159268320  0.5245406168472970  0.1110890166469235   T   T   T
  0.3315977022254634  0.6670365342890788  0.1111382133692041   T   T   T
  0.3303306359575472  0.8080180343486398  0.1110611159345155   T   T   T
  0.4738549894397478  0.9506782753491034  0.1110136798799789   T   T   T
  0.4732457049438344  0.0881857955615630  0.1110246605033761   T   T   T
  0.4718961215596125  0.2238469286457926  0.1109783161890716   T   T   T
  0.4859404945137639  0.3695354142006388  0.1108923505863699   T   T   T
  0.4765135050974915  0.6763156595421179  0.1110100061397019   T   T   T
  0.4746543678992842  0.8131317559254778  0.1110358470437771   T   T   T
  0.6190378386137679  0.9552100671517894  0.1109898714443245   T   T   T
  0.6181476822955707  0.0930086301951693  0.1110384547361512   T   T   T
  0.6171500098418786  0.2303790475602937  0.1109952836415077   T   T   T
  0.6147248374714815  0.3643120698707663  0.1110023675909905   T   T   T
  0.6250350891120509  0.6856690928699752  0.1107576019668395   T   T   T
  0.6205762921785417  0.8181910454634853  0.1109954633227544   T   T   T
  0.7643362823019442  0.9575942281777085  0.1110141178274090   T   T   T
  0.7630092778142817  0.0972592872204720  0.1110734881911247   T   T   T
  0.7619985599826472  0.2374865258655406  0.1110343445649428   T   T   T
  0.7604771170169501  0.3784917328023355  0.1110155685719929   T   T   T
  0.7525880398258014  0.5219913439960405  0.1110816762265904   T   T   T
  0.7630006955096263  0.6718792543967338  0.1109532373512355   T   T   T
  0.7671014423802832  0.8186787369744737  0.1110541285439739   T   T   T
  0.4996476565424560  0.5220948954523817  0.1116022027635686   T   T   T
  0.9536087802953231  0.9073694409702100  0.1110419285269440   T   T   T
  0.9549724281597695  0.0512104246604812  0.1110376747548380   T   T   T
  0.9541585253878433  0.1930184360424794  0.1110643377500073   T   T   T
  0.9523632534665520  0.3346146433896572  0.1110129969478552   T   T   T
  0.9481529392164322  0.4760845763522528  0.1109986854720043   T   T   T
  0.9470941649797945  0.6174063641692454  0.1110246502305983   T   T   T
  0.9491077494437173  0.7607180846485319  0.1110289783639899   T   T   T
  0.0930760056109598  0.9033830654583515  0.1109756425714847   T   T   T
  0.0966015630325555  0.0489675581377359  0.1109976076607133   T   T   T
  0.0966775566413480  0.1916441532893477  0.1110023387977321   T   T   T
  0.0959332043608278  0.3346020559813274  0.1109997171507562   T   T   T
  0.0929619221534142  0.4766700886836435  0.1110548361956790   T   T   T
  0.0916675885370462  0.6181934287997473  0.1110844256478690   T   T   T
  0.0915043737581336  0.7600132046418269  0.1109912085384031   T   T   T
  0.2349755427074887  0.9021292206978554  0.1110017312261088   T   T   T
  0.2360894324763001  0.0449949369441848  0.1109989900624569   T   T   T
  0.2409568463038398  0.1914481244145562  0.1110007797688359   T   T   T
  0.2378158526033785  0.3314581502477692  0.1109275489465966   T   T   T
  0.2363353726478439  0.4767374453721560  0.1110253977237986   T   T   T
  0.2360233418467921  0.6189861282097688  0.1111419444366742   T   T   T
  0.2349530362369297  0.7603962746400641  0.1110776376040353   T   T   T
  0.3784696625801774  0.9027346319808119  0.1110121457941721   T   T   T
  0.3782710470845865  0.0433274826466610  0.1110321193489465   T   T   T
  0.3787620240831683  0.1848299630328905  0.1110222692440718   T   T   T
  0.3898841693407404  0.3362362784969697  0.1109787980996895   T   T   T
  0.3707612983930875  0.4698430723495458  0.1111156764785379   T   T   T
  0.3808251059190212  0.6208102732363205  0.1111108473145124   T   T   T
  0.3790915148244732  0.7622104348712306  0.1110747056252563   T   T   T
  0.5234464175008082  0.9068883037933712  0.1109872969696746   T   T   T
  0.5227465833980026  0.0445233129668701  0.1110135555961973   T   T   T
  0.5222502547453372  0.1816790996037264  0.1109675217294599   T   T   T
  0.5220182519681065  0.3157647279513521  0.1109239408433463   T   T   T
  0.5717644529543917  0.4619515246942698  0.1108956686261895   T   T   T
  0.5343901767834659  0.6438762166128184  0.1107764633819613   T   T   T
  0.5246803815764305  0.7701767591443188  0.1109949362004532   T   T   T
  0.6689973282010547  0.9113454606147073  0.1109462139859795   T   T   T
  0.6676616113925387  0.0491071075601320  0.1110303907711340   T   T   T
  0.6667612864202231  0.1874138805094436  0.1110005675115105   T   T   T
  0.6660276608150443  0.3255093960112614  0.1109954472526429   T   T   T
  0.6473555796603383  0.4595061698180478  0.1110074336193854   T   T   T
  0.6728468097028188  0.6403061397913656  0.1103506599389944   T   T   T
  0.6738146404663042  0.7771564420124858  0.1110069626511803   T   T   T
  0.8137751588231968  0.9119670217202849  0.1110194730913763   T   T   T
  0.8119260585227961  0.0516786704986788  0.1110436080496835   T   T   T
  0.8106437498484239  0.1920047432442233  0.1110777385064795   T   T   T
  0.8088547657837204  0.3330379550274566  0.1109748262212245   T   T   T
  0.8009170617563282  0.4741986666401405  0.1110187265521067   T   T   T
  0.8025295862984047  0.6165885676230204  0.1111222580608170   T   T   T
  0.8113212574847085  0.7673510036018507  0.1110893198748249   T   T   T

  0.00000000E+00  0.00000000E+00  0.00000000E+00
  0.00000000E+00  0.00000000E+00  0.00000000E+00
  0.00000000E+00  0.00000000E+00  0.00000000E+00
  0.00000000E+00  0.00000000E+00  0.00000000E+00
  0.00000000E+00  0.00000000E+00  0.00000000E+00
  0.00000000E+00  0.00000000E+00  0.00000000E+00
  0.00000000E+00  0.00000000E+00  0.00000000E+00
  0.00000000E+00  0.00000000E+00  0.00000000E+00
  0.00000000E+00  0.00000000E+00  0.00000000E+00
  0.00000000E+00  0.00000000E+00  0.00000000E+00
  0.00000000E+00  0.00000000E+00  0.00000000E+00
  0.00000000E+00  0.00000000E+00  0.00000000E+00
  0.00000000E+00  0.00000000E+00  0.00000000E+00
  0.00000000E+00  0.00000000E+00  0.00000000E+00
  0.00000000E+00  0.00000000E+00  0.00000000E+00
  0.00000000E+00  0.00000000E+00  0.00000000E+00
  0.00000000E+00  0.00000000E+00  0.00000000E+00
  0.00000000E+00  0.00000000E+00  0.00000000E+00
  0.00000000E+00  0.00000000E+00  0.00000000E+00
  0.00000000E+00  0.00000000E+00  0.00000000E+00
  0.00000000E+00  0.00000000E+00  0.00000000E+00
  0.00000000E+00  0.00000000E+00  0.00000000E+00
  0.00000000E+00  0.00000000E+00  0.00000000E+00
  0.00000000E+00  0.00000000E+00  0.00000000E+00
  0.00000000E+00  0.00000000E+00  0.00000000E+00
  0.00000000E+00  0.00000000E+00  0.00000000E+00
  0.00000000E+00  0.00000000E+00  0.00000000E+00
  0.00000000E+00  0.00000000E+00  0.00000000E+00
  0.00000000E+00  0.00000000E+00  0.00000000E+00
  0.00000000E+00  0.00000000E+00  0.00000000E+00
  0.00000000E+00  0.00000000E+00  0.00000000E+00
  0.00000000E+00  0.00000000E+00  0.00000000E+00
  0.00000000E+00  0.00000000E+00  0.00000000E+00
  0.00000000E+00  0.00000000E+00  0.00000000E+00
  0.00000000E+00  0.00000000E+00  0.00000000E+00
  0.00000000E+00  0.00000000E+00  0.00000000E+00
  0.00000000E+00  0.00000000E+00  0.00000000E+00
  0.00000000E+00  0.00000000E+00  0.00000000E+00
  0.00000000E+00  0.00000000E+00  0.00000000E+00
  0.00000000E+00  0.00000000E+00  0.00000000E+00
  0.00000000E+00  0.00000000E+00  0.00000000E+00
  0.00000000E+00  0.00000000E+00  0.00000000E+00
  0.00000000E+00  0.00000000E+00  0.00000000E+00
  0.00000000E+00  0.00000000E+00  0.00000000E+00
  0.00000000E+00  0.00000000E+00  0.00000000E+00
  0.00000000E+00  0.00000000E+00  0.00000000E+00
  0.00000000E+00  0.00000000E+00  0.00000000E+00
  0.00000000E+00  0.00000000E+00  0.00000000E+00
  0.00000000E+00  0.00000000E+00  0.00000000E+00
  0.00000000E+00  0.00000000E+00  0.00000000E+00
  0.00000000E+00  0.00000000E+00  0.00000000E+00
  0.00000000E+00  0.00000000E+00  0.00000000E+00
  0.00000000E+00  0.00000000E+00  0.00000000E+00
  0.00000000E+00  0.00000000E+00  0.00000000E+00
  0.00000000E+00  0.00000000E+00  0.00000000E+00
  0.00000000E+00  0.00000000E+00  0.00000000E+00
  0.00000000E+00  0.00000000E+00  0.00000000E+00
  0.00000000E+00  0.00000000E+00  0.00000000E+00
  0.00000000E+00  0.00000000E+00  0.00000000E+00
  0.00000000E+00  0.00000000E+00  0.00000000E+00
  0.00000000E+00  0.00000000E+00  0.00000000E+00
  0.00000000E+00  0.00000000E+00  0.00000000E+00
  0.00000000E+00  0.00000000E+00  0.00000000E+00
  0.00000000E+00  0.00000000E+00  0.00000000E+00
  0.00000000E+00  0.00000000E+00  0.00000000E+00
  0.00000000E+00  0.00000000E+00  0.00000000E+00
  0.00000000E+00  0.00000000E+00  0.00000000E+00
  0.00000000E+00  0.00000000E+00  0.00000000E+00
  0.00000000E+00  0.00000000E+00  0.00000000E+00
  0.00000000E+00  0.00000000E+00  0.00000000E+00
  0.00000000E+00  0.00000000E+00  0.00000000E+00
  0.00000000E+00  0.00000000E+00  0.00000000E+00
  0.00000000E+00  0.00000000E+00  0.00000000E+00
  0.00000000E+00  0.00000000E+00  0.00000000E+00
  0.00000000E+00  0.00000000E+00  0.00000000E+00
  0.00000000E+00  0.00000000E+00  0.00000000E+00
  0.00000000E+00  0.00000000E+00  0.00000000E+00
  0.00000000E+00  0.00000000E+00  0.00000000E+00
  0.00000000E+00  0.00000000E+00  0.00000000E+00
  0.00000000E+00  0.00000000E+00  0.00000000E+00
  0.00000000E+00  0.00000000E+00  0.00000000E+00
  0.00000000E+00  0.00000000E+00  0.00000000E+00
  0.00000000E+00  0.00000000E+00  0.00000000E+00
  0.00000000E+00  0.00000000E+00  0.00000000E+00
  0.00000000E+00  0.00000000E+00  0.00000000E+00
  0.00000000E+00  0.00000000E+00  0.00000000E+00
  0.00000000E+00  0.00000000E+00  0.00000000E+00
  0.00000000E+00  0.00000000E+00  0.00000000E+00
  0.00000000E+00  0.00000000E+00  0.00000000E+00
  0.00000000E+00  0.00000000E+00  0.00000000E+00
  0.00000000E+00  0.00000000E+00  0.00000000E+00
  0.00000000E+00  0.00000000E+00  0.00000000E+00
  0.00000000E+00  0.00000000E+00  0.00000000E+00
  0.00000000E+00  0.00000000E+00  0.00000000E+00
  0.00000000E+00  0.00000000E+00  0.00000000E+00
  0.00000000E+00  0.00000000E+00  0.00000000E+00
  0.00000000E+00  0.00000000E+00  0.00000000E+00
