Species order:X N B                     
   2.51242800000000     
     5.9449720136058266    0.0000000000000000    0.0000000000000000
    -2.9724860068029120    5.1484967885702053   -0.0000000000000001
     0.0000000000000000    0.0000000000000009    5.3101128803662583
   Si   N    B 
     2   143   143
Direct
  0.4203765870664331  0.3768549601998807  0.3750000000000000
  0.5716728930893750  0.4525031132113518  0.3750000000000000
  0.1110532447867866  0.0554982571095836  0.1251145834570283
  0.6110813462002139  0.5555562921271375  0.1244125640583312
  0.4444237544366429  0.0555276862022118  0.1251475642637731
  0.9444217794959302  0.5555546484244199  0.1252256798333979
  0.7777718451118635  0.0555525892225997  0.1250408537875500
  0.1110912162671324  0.7222122748002299  0.6248729563863233
  0.4444237544366429  0.7222294015677668  0.6248524357362275
  0.2776784219113704  0.2221490935524004  0.6247398639618365
  0.7777627222190311  0.7222151199053363  0.6250203406994730
  0.6110883105743400  0.2222057116662547  0.6249837669930102
  0.9444208120117429  0.2222192711553626  0.6249574373108832
  0.2777591358077480  0.7222245757525958  0.1251206047496968
  0.1110505786556841  0.2221919559945063  0.1250617828768699
  0.4443983859901041  0.2221772306692591  0.1250660667451958
  0.6110883105743400  0.7222159322414133  0.1250162330069898
  0.9444217794959302  0.7222004644048456  0.1252256798333979
  0.7777674564905583  0.2222182717821923  0.1250476645438037
  0.1110827533776080  0.8888534197083229  0.6248617866866757
  0.4444340838863687  0.8888837086098483  0.6248922843230417
  0.2776784219113704  0.3888626616922987  0.6247398639618365
  0.6110813462002139  0.3888583874064053  0.6255874359416690
  0.7777674564905583  0.8888825180416954  0.6249523354561959
  0.9444203730726812  0.3888922033318923  0.6249026624266251
  0.1110532447867866  0.3888883210105318  0.1251145834570283
  0.2777591358077480  0.8888678933884814  0.1251206047496968
  0.6111032353507118  0.8888896783555376  0.1250802739347828
  0.4442077134865124  0.3887705234099207  0.1259220941443754
  0.9444203730726812  0.8888615030741164  0.1250973375733748
  0.7777627222190311  0.3888809356470237  0.1249796593005268
  0.2777385536669348  0.5555613828151154  0.6247752855720922
  0.1110532447867866  0.0554982571095836  0.6248854165429717
  0.6110813462002139  0.5555562921271375  0.6255874359416690
  0.4444237544366429  0.0555276862022118  0.6248524357362275
  0.9444217794959302  0.5555546484244199  0.6247743201666023
  0.1110827533776080  0.5555626670026131  0.1251382133133249
  0.7777718451118635  0.0555525892225997  0.6249591462124499
  0.2777385536669348  0.0555105041851545  0.1252247144279087
  0.4443983859901041  0.5555544886541814  0.1250660667451958
  0.7777357258051339  0.5555345295692358  0.1251873691307729
  0.6111032353507118  0.0555468903285020  0.1250802739347828
  0.4443983859901041  0.5555544886541814  0.6249339332548037
  0.9444208120117429  0.0555348741897169  0.1250425626891165
  0.2777591358077480  0.7222245757525958  0.6248793952503034
  0.1110505786556841  0.2221919559945063  0.6249382171231299
  0.4443983859901041  0.2221772306692591  0.6249339332548037
  0.6110883105743400  0.7222159322414133  0.6249837669930102
  0.9444217794959302  0.7222004644048456  0.6247743201666023
  0.7777674564905583  0.2222182717821923  0.6249523354561959
  0.1110912162671324  0.7222122748002299  0.1251270436136774
  0.4444237544366429  0.7222294015677668  0.1251475642637731
  0.2776784219113704  0.2221490935524004  0.1252601360381640
  0.7777627222190311  0.7222151199053363  0.1249796593005268
  0.6110883105743400  0.2222057116662547  0.1250162330069898
  0.9444208120117429  0.2222192711553626  0.1250425626891165
  0.1110532447867866  0.3888883210105318  0.6248854165429717
  0.2777591358077480  0.8888678933884814  0.6248793952503034
  0.6111032353507118  0.8888896783555376  0.6249197260652172
  0.4442077134865124  0.3887705234099207  0.6240779058556244
  0.9444203730726812  0.8888615030741164  0.6249026624266251
  0.1110827533776080  0.8888534197083229  0.1251382133133249
  0.7777627222190311  0.3888809356470237  0.6250203406994730
  0.4444340838863687  0.8888837086098483  0.1251077156769581
  0.2776784219113704  0.3888626616922987  0.1252601360381640
  0.2777385536669348  0.5555613828151154  0.1252247144279087
  0.6110813462002139  0.3888583874064053  0.1244125640583312
  0.7777674564905583  0.8888825180416954  0.1250476645438037
  0.9444203730726812  0.3888922033318923  0.1250973375733748
  0.1110827533776080  0.5555626670026131  0.6248617866866757
  0.2777385536669348  0.0555105041851545  0.6247752855720922
  0.7777357258051339  0.5555345295692358  0.6248126308692277
  0.6111032353507118  0.0555468903285020  0.6249197260652172
  0.9444208120117429  0.0555348741897169  0.6249574373108832
  0.0549883111118300  0.1107142983735943  0.3750000000000000
  0.5561075199953518  0.6233802445471498  0.3750000000000000
  0.3870582288418523  0.1040160538200524  0.3750000000000000
  0.8908950734804617  0.6121142034069025  0.3750000000000000
  0.7232352876342857  0.1102969095951175  0.3750000000000000
  0.0555524721574984  0.7777791334424736  0.8750000000000000
  0.3888944889528610  0.7777797198013580  0.8750000000000000
  0.2222227746042016  0.2777780539687684  0.8750000000000000
  0.7222204809880419  0.7777783288206610  0.8750000000000000
  0.5555522468556464  0.2777754746399904  0.8750000000000000
  0.8888899756626651  0.2777782166586995  0.8750000000000000
  0.2213194351557338  0.7773263842445338  0.3750000000000000
  0.0549883111118300  0.2776073460715716  0.3750000000000000
  0.3754564028684326  0.2551789426638622  0.3750000000000000
  0.5555266937198960  0.7831849424381765  0.3750000000000000
  0.8932653940867581  0.7819974672066149  0.3750000000000000
  0.7246025370877275  0.2753000825094521  0.3750000000000000
  0.0555541410243459  0.9444474503724050  0.8750000000000000
  0.3888944889528610  0.9444481024848377  0.8750000000000000
  0.2222228303909635  0.4444401883079896  0.8750000000000000
  0.5555446536246429  0.4444389934789857  0.8750000000000000
  0.7222221305890690  0.9444447981145200  0.8750000000000000
  0.8888868149913967  0.4444412849886307  0.8750000000000000
  0.0548506953279460  0.4450269109786228  0.3750000000000000
  0.2208212624562553  0.9416820752712478  0.3750000000000000
  0.5554648306408142  0.9443990819870700  0.3750000000000000
  0.3754564028684326  0.4536107935379065  0.3750000000000000
  0.8900943686659996  0.9461588801251672  0.3750000000000000
  0.7326784939424490  0.4433256186423091  0.3750000000000000
  0.2222239278618826  0.6111073712676258  0.8750000000000000
  0.0555536628364650  0.1111110144039053  0.8750000000000000
  0.5555522468556464  0.6111101055489920  0.8750000000000000
  0.3888930865919344  0.1111159143201632  0.8750000000000000
  0.8888826139024525  0.6111079736178969  0.8750000000000000
  0.0557382800714150  0.6115840080160924  0.3750000000000000
  0.7222221305890690  0.1111106658078851  0.8750000000000000
  0.2160036446271659  0.1032235529603551  0.3750000000000000
  0.3870582288418523  0.6163755083551428  0.3750000000000000
  0.7326784939424490  0.6226862086334765  0.3750000000000000
  0.5555266937198960  0.1056750846150563  0.3750000000000000
  0.3888930865919344  0.6111105056051150  0.8750000000000000
  0.8895113026248826  0.1114223179791123  0.3750000000000000
  0.2222241198464201  0.7777787265898780  0.8750000000000000
  0.0555536628364650  0.2777759817658956  0.8750000000000000
  0.3888915548756033  0.2777821739949461  0.8750000000000000
  0.5555569447151698  0.7777798185116569  0.8750000000000000
  0.8888868149913967  0.7777788633360999  0.8750000000000000
  0.7222204809880419  0.2777754855007156  0.8750000000000000
  0.0557382800714150  0.7774876053886594  0.3750000000000000
  0.3877921962787764  0.7791941474401195  0.3750000000000000
  0.2205606093554998  0.2769469713444176  0.3750000000000000
  0.7246025370877275  0.7826357879116111  0.3750000000000000
  0.5561075199953518  0.2660606087815372  0.3750000000000000
  0.8900943686659996  0.2772688218741669  0.3750000000000000
  0.0555541410243459  0.4444400239852698  0.8750000000000000
  0.2222239278618826  0.9444498899275915  0.8750000000000000
  0.5555566700861198  0.9444450017097246  0.8750000000000000
  0.3888915548756033  0.4444427142139932  0.8750000000000000
  0.8888899756626651  0.9444450923373007  0.8750000000000000
  0.0548506953279460  0.9431571176826514  0.3750000000000000
  0.7222160193703752  0.4444412367525370  0.8750000000000000
  0.3877921962787764  0.9419313821719927  0.3750000000000000
  0.2160036446271658  0.4461134250001461  0.3750000000000000
  0.2208212624562554  0.6124725205183429  0.3750000000000000
  0.7232352876342857  0.9462717113725040  0.3750000000000000
  0.8932653940867581  0.4446012602134778  0.3750000000000000
  0.0555524721574984  0.6111066720483610  0.8750000000000000
  0.2222228303909635  0.1111159754163095  0.8750000000000000
  0.7222160193703752  0.6111081159511740  0.8750000000000000
  0.5555569447151698  0.1111104595368491  0.8750000000000000
  0.8888891618362091  0.1111112475847759  0.8750000000000000
  0.1070385111244181  0.0519132584502287  0.3750000000000000
  0.6256838736579836  0.5862104769441580  0.3750000000000000
  0.4443808396550166  0.0509802767541076  0.3750000000000000
  0.9458506685509964  0.5556630189249372  0.3750000000000000
  0.7790560007920713  0.0561946670627034  0.3750000000000000
  0.1111120406164516  0.7222226869748899  0.8750000000000000
  0.4444589024716931  0.7222591945641876  0.8750000000000000
  0.2777365375993759  0.2221874893501338  0.8750000000000000
  0.7777971711574851  0.7222571970856455  0.8750000000000000
  0.6111333684352286  0.2221943631435234  0.8750000000000000
  0.9444184254659406  0.2222048769804580  0.8750000000000000
  0.2769903373097284  0.7230446898780893  0.3750000000000000
  0.1090909007807785  0.2212121170570537  0.3750000000000000
  0.4435192173423370  0.2121768723500193  0.3750000000000000
  0.6132603591447100  0.7323679265499072  0.3750000000000000
  0.9458506685509964  0.7235209829593947  0.3750000000000000
  0.7797089935006649  0.2205428559115093  0.3750000000000000
  0.1111015615125722  0.8888821410415998  0.8750000000000000
  0.4444588449766420  0.8888960891549851  0.8750000000000000
  0.2777365375993759  0.3888823815825714  0.8750000000000000
  0.6111373723437888  0.3888767171262893  0.8750000000000000
  0.7777861915247783  0.8889146928336815  0.8750000000000000
  0.9444385026464596  0.3888747695798391  0.8750000000000000
  0.1070385111244181  0.3884585860075176  0.3750000000000000
  0.2769903373097284  0.8872789807649673  0.3750000000000000
  0.6124454102889793  0.8922822026248844  0.3750000000000000
  0.9458171583546863  0.8911024180504553  0.3750000000000000
  0.7850386379743163  0.3867610639886474  0.3750000000000000
  0.2777654331837953  0.5555717439910781  0.8750000000000000
  0.1110744494121006  0.0555334102708116  0.8750000000000000
  0.6111373723437888  0.5555939885508289  0.8750000000000000
  0.4444589024716931  0.0555330412408410  0.8750000000000000
  0.9444536001407569  0.5555524623236612  0.8750000000000000
  0.1103027284008023  0.5559539307895719  0.3750000000000000
  0.7777770668003782  0.0555552000668567  0.8750000000000000
  0.2753924683052447  0.0509163134738843  0.3750000000000000
  0.4435192173423370  0.5646756783256529  0.3750000000000000
  0.7816096367953119  0.5574714850643242  0.3750000000000000
  0.6124454102889793  0.0534965409974236  0.3750000000000000
  0.4444548191275469  0.5556008583616455  0.8750000000000000
  0.9445880834393831  0.0562540209203622  0.3750000000000000
  0.2777818319685366  0.7222335803100070  0.8750000000000000
  0.1110562353494976  0.2221947843414130  0.8750000000000000
  0.4444548191275469  0.2221872940992370  0.8750000000000000
  0.6111333684352286  0.7222723386250337  0.8750000000000000
  0.9444536001407569  0.7222344711504326  0.8750000000000000
  0.7777861915247783  0.2222048320244242  0.8750000000000000
  0.1109257315969808  0.7221295324651548  0.3750000000000000
  0.4443808396550166  0.7267338962342442  0.3750000000000000
  0.2668632013186454  0.2105384246922232  0.3750000000000000
  0.7850386379743163  0.7316109073189976  0.3750000000000000
  0.6132603591447100  0.2142257659281306  0.3750000000000000
  0.9445880834393831  0.2216673958523571  0.3750000000000000
  0.1110744494121006  0.3888743724746174  0.8750000000000000
  0.2777818319685366  0.8888815849918575  0.8750000000000000
  0.6111281108704442  0.8889139995887827  0.8750000000000000
  0.4444451719171519  0.3888892526252405  0.8750000000000000
  0.9444385026464596  0.8888970663999494  0.8750000000000000
  0.1103027284008023  0.8876821309445582  0.3750000000000000
  0.7777971711574851  0.3888733074051675  0.8750000000000000
  0.4445036026300794  0.8889184679817040  0.3750000000000000
  0.2668632013186452  0.3896581099597513  0.3750000000000000
  0.2753924683052447  0.5578094881646958  0.3750000000000000
  0.6256838736579836  0.3728067300471553  0.3750000000000000
  0.7797089935006649  0.8924994709224838  0.3750000000000000
  0.9458171583546863  0.3880480736375601  0.3750000000000000
  0.1111015615125722  0.5555527538043012  0.8750000000000000
  0.2777654331837953  0.0555270225260536  0.8750000000000000
  0.7778012390703667  0.5555672862018519  0.8750000000000000
  0.6111281108704442  0.0555474446149910  0.8750000000000000
  0.9444184254659406  0.0555468818188180  0.8750000000000000
  0.0554247513493064  0.1110046360535734  0.1248293275119180
  0.5555818544298590  0.6112546627499570  0.1244107205852110
  0.3888044749008476  0.1108976325573151  0.1247968311624240
  0.8889711012553253  0.6111522172943336  0.1249636224004313
  0.7222282404401930  0.1110882728900788  0.1248918055317890
  0.0555537153347075  0.7777495512265965  0.6250545927363012
  0.3888516450209280  0.7778197556699064  0.6250902385363121
  0.2219749570479105  0.2776541451906231  0.6253587939401349
  0.7222667968563251  0.7778654830643226  0.6252480262930863
  0.5555818544298590  0.2776605250132380  0.6255892794147894
  0.8888675055840457  0.2777679154133284  0.6251202003881935
  0.2221869555439729  0.7777601444386542  0.1249025234014677
  0.0554247513493064  0.2777534486290681  0.1248293275119180
  0.3886862489808831  0.2774382756584104  0.1244608535900484
  0.5555560954375283  0.7778665674155607  0.1248535932440551
  0.8889292146341372  0.7778041810899284  0.1248761553899222
  0.7222667968563251  0.2777346471253395  0.1247519737069138
  0.0554823672080188  0.9443402087974337  0.6251052478380456
  0.3888516450209280  0.9443652226843587  0.6250902385363121
  0.2220321280704697  0.4445082276020180  0.6251686328870358
  0.5556830297812345  0.4445081815572816  0.6254338427301378
  0.7222282404401930  0.9444733008834502  0.6251081944682109
  0.8889292146341372  0.4444583668775456  0.6251238446100775
  0.0554823672080188  0.4444754917439140  0.1248947521619540
  0.2221476541282176  0.9443083263421257  0.1249194140999007
  0.5555527650741824  0.9444430492037552  0.1249063084822346
  0.3886862489808831  0.4445813066558084  0.1244608535900484
  0.8888675055840457  0.9444329235040543  0.1248797996118066
  0.7223467286040050  0.4444565960307602  0.1243906961700855
  0.2221476541282176  0.6111726611194273  0.6250805859000984
  0.0554247513493064  0.1110046360535734  0.6251706724880819
  0.5555818544298590  0.6112546627499570  0.6255892794147894
  0.3888044749008476  0.1108976325573151  0.6252031688375755
  0.8889711012553253  0.6111522172943336  0.6250363775995689
  0.0555537153347075  0.6111374974414467  0.1249454072636992
  0.7222282404401930  0.1110882728900788  0.6251081944682109
  0.2220321280704697  0.1108572338017874  0.1248313671129638
  0.3888044749008476  0.6112401756768753  0.1247968311624240
  0.7223467286040050  0.6112234659065806  0.1243906961700855
  0.5555560954375283  0.1110228613553022  0.1248535932440551
  0.3888044749008476  0.6112401756768753  0.6252031688375755
  0.8888451562129684  0.1110892447731550  0.1248740244984160
  0.2221869555439729  0.7777601444386542  0.6250974765985325
  0.0554247513493064  0.2777534486290681  0.6251706724880819
  0.3886862489808831  0.2774382756584104  0.6255391464099508
  0.5555560954375283  0.7778665674155607  0.6251464067559448
  0.8889292146341372  0.7778041810899284  0.6251238446100775
  0.7222667968563251  0.2777346471253395  0.6252480262930863
  0.0555537153347075  0.7777495512265965  0.1249454072636992
  0.3888516450209280  0.7778197556699064  0.1249097614636884
  0.2219749570479105  0.2776541451906231  0.1246412060598652
  0.7222667968563251  0.7778654830643226  0.1247519737069138
  0.5555818544298590  0.2776605250132380  0.1244107205852110
  0.8888675055840457  0.2777679154133284  0.1248797996118066
  0.0554823672080188  0.4444754917439140  0.6251052478380456
  0.2221476541282176  0.9443083263421257  0.6250805859000984
  0.5555527650741824  0.9444430492037552  0.6250936915177667
  0.3886862489808831  0.4445813066558084  0.6255391464099508
  0.8888675055840457  0.9444329235040543  0.6251202003881935
  0.0554823672080188  0.9443402087974337  0.1248947521619540
  0.7223467286040050  0.4444565960307602  0.6256093038299149
  0.3888516450209280  0.9443652226843587  0.1249097614636884
  0.2220321280704697  0.4445082276020180  0.1248313671129638
  0.2221476541282176  0.6111726611194273  0.1249194140999007
  0.5556830297812345  0.4445081815572816  0.1245661572698631
  0.7222282404401930  0.9444733008834502  0.1248918055317890
  0.8889292146341372  0.4444583668775456  0.1248761553899222
  0.0555537153347075  0.6111374974414467  0.6250545927363012
  0.2220321280704697  0.1108572338017874  0.6251686328870358
  0.7223467286040050  0.6112234659065806  0.6256093038299149
  0.5555560954375283  0.1110228613553022  0.6251464067559448
  0.8888451562129684  0.1110892447731550  0.6251259755015849
 
  0.00000000E+00  0.00000000E+00  0.00000000E+00
  0.00000000E+00  0.00000000E+00  0.00000000E+00
  0.00000000E+00  0.00000000E+00  0.00000000E+00
  0.00000000E+00  0.00000000E+00  0.00000000E+00
  0.00000000E+00  0.00000000E+00  0.00000000E+00
  0.00000000E+00  0.00000000E+00  0.00000000E+00
  0.00000000E+00  0.00000000E+00  0.00000000E+00
  0.00000000E+00  0.00000000E+00  0.00000000E+00
  0.00000000E+00  0.00000000E+00  0.00000000E+00
  0.00000000E+00  0.00000000E+00  0.00000000E+00
  0.00000000E+00  0.00000000E+00  0.00000000E+00
  0.00000000E+00  0.00000000E+00  0.00000000E+00
  0.00000000E+00  0.00000000E+00  0.00000000E+00
  0.00000000E+00  0.00000000E+00  0.00000000E+00
  0.00000000E+00  0.00000000E+00  0.00000000E+00
  0.00000000E+00  0.00000000E+00  0.00000000E+00
  0.00000000E+00  0.00000000E+00  0.00000000E+00
  0.00000000E+00  0.00000000E+00  0.00000000E+00
  0.00000000E+00  0.00000000E+00  0.00000000E+00
  0.00000000E+00  0.00000000E+00  0.00000000E+00
  0.00000000E+00  0.00000000E+00  0.00000000E+00
  0.00000000E+00  0.00000000E+00  0.00000000E+00
  0.00000000E+00  0.00000000E+00  0.00000000E+00
  0.00000000E+00  0.00000000E+00  0.00000000E+00
  0.00000000E+00  0.00000000E+00  0.00000000E+00
  0.00000000E+00  0.00000000E+00  0.00000000E+00
  0.00000000E+00  0.00000000E+00  0.00000000E+00
  0.00000000E+00  0.00000000E+00  0.00000000E+00
  0.00000000E+00  0.00000000E+00  0.00000000E+00
  0.00000000E+00  0.00000000E+00  0.00000000E+00
  0.00000000E+00  0.00000000E+00  0.00000000E+00
  0.00000000E+00  0.00000000E+00  0.00000000E+00
  0.00000000E+00  0.00000000E+00  0.00000000E+00
  0.00000000E+00  0.00000000E+00  0.00000000E+00
  0.00000000E+00  0.00000000E+00  0.00000000E+00
  0.00000000E+00  0.00000000E+00  0.00000000E+00
  0.00000000E+00  0.00000000E+00  0.00000000E+00
  0.00000000E+00  0.00000000E+00  0.00000000E+00
  0.00000000E+00  0.00000000E+00  0.00000000E+00
  0.00000000E+00  0.00000000E+00  0.00000000E+00
  0.00000000E+00  0.00000000E+00  0.00000000E+00
  0.00000000E+00  0.00000000E+00  0.00000000E+00
  0.00000000E+00  0.00000000E+00  0.00000000E+00
  0.00000000E+00  0.00000000E+00  0.00000000E+00
  0.00000000E+00  0.00000000E+00  0.00000000E+00
  0.00000000E+00  0.00000000E+00  0.00000000E+00
  0.00000000E+00  0.00000000E+00  0.00000000E+00
  0.00000000E+00  0.00000000E+00  0.00000000E+00
  0.00000000E+00  0.00000000E+00  0.00000000E+00
  0.00000000E+00  0.00000000E+00  0.00000000E+00
  0.00000000E+00  0.00000000E+00  0.00000000E+00
  0.00000000E+00  0.00000000E+00  0.00000000E+00
  0.00000000E+00  0.00000000E+00  0.00000000E+00
  0.00000000E+00  0.00000000E+00  0.00000000E+00
  0.00000000E+00  0.00000000E+00  0.00000000E+00
  0.00000000E+00  0.00000000E+00  0.00000000E+00
  0.00000000E+00  0.00000000E+00  0.00000000E+00
  0.00000000E+00  0.00000000E+00  0.00000000E+00
  0.00000000E+00  0.00000000E+00  0.00000000E+00
  0.00000000E+00  0.00000000E+00  0.00000000E+00
  0.00000000E+00  0.00000000E+00  0.00000000E+00
  0.00000000E+00  0.00000000E+00  0.00000000E+00
  0.00000000E+00  0.00000000E+00  0.00000000E+00
  0.00000000E+00  0.00000000E+00  0.00000000E+00
  0.00000000E+00  0.00000000E+00  0.00000000E+00
  0.00000000E+00  0.00000000E+00  0.00000000E+00
  0.00000000E+00  0.00000000E+00  0.00000000E+00
  0.00000000E+00  0.00000000E+00  0.00000000E+00
  0.00000000E+00  0.00000000E+00  0.00000000E+00
  0.00000000E+00  0.00000000E+00  0.00000000E+00
  0.00000000E+00  0.00000000E+00  0.00000000E+00
  0.00000000E+00  0.00000000E+00  0.00000000E+00
  0.00000000E+00  0.00000000E+00  0.00000000E+00
  0.00000000E+00  0.00000000E+00  0.00000000E+00
  0.00000000E+00  0.00000000E+00  0.00000000E+00
  0.00000000E+00  0.00000000E+00  0.00000000E+00
  0.00000000E+00  0.00000000E+00  0.00000000E+00
  0.00000000E+00  0.00000000E+00  0.00000000E+00
  0.00000000E+00  0.00000000E+00  0.00000000E+00
  0.00000000E+00  0.00000000E+00  0.00000000E+00
  0.00000000E+00  0.00000000E+00  0.00000000E+00
  0.00000000E+00  0.00000000E+00  0.00000000E+00
  0.00000000E+00  0.00000000E+00  0.00000000E+00
  0.00000000E+00  0.00000000E+00  0.00000000E+00
  0.00000000E+00  0.00000000E+00  0.00000000E+00
  0.00000000E+00  0.00000000E+00  0.00000000E+00
  0.00000000E+00  0.00000000E+00  0.00000000E+00
  0.00000000E+00  0.00000000E+00  0.00000000E+00
  0.00000000E+00  0.00000000E+00  0.00000000E+00
  0.00000000E+00  0.00000000E+00  0.00000000E+00
  0.00000000E+00  0.00000000E+00  0.00000000E+00
  0.00000000E+00  0.00000000E+00  0.00000000E+00
  0.00000000E+00  0.00000000E+00  0.00000000E+00
  0.00000000E+00  0.00000000E+00  0.00000000E+00
  0.00000000E+00  0.00000000E+00  0.00000000E+00
  0.00000000E+00  0.00000000E+00  0.00000000E+00
  0.00000000E+00  0.00000000E+00  0.00000000E+00
  0.00000000E+00  0.00000000E+00  0.00000000E+00
  0.00000000E+00  0.00000000E+00  0.00000000E+00
  0.00000000E+00  0.00000000E+00  0.00000000E+00
  0.00000000E+00  0.00000000E+00  0.00000000E+00
  0.00000000E+00  0.00000000E+00  0.00000000E+00
  0.00000000E+00  0.00000000E+00  0.00000000E+00
  0.00000000E+00  0.00000000E+00  0.00000000E+00
  0.00000000E+00  0.00000000E+00  0.00000000E+00
  0.00000000E+00  0.00000000E+00  0.00000000E+00
  0.00000000E+00  0.00000000E+00  0.00000000E+00
  0.00000000E+00  0.00000000E+00  0.00000000E+00
  0.00000000E+00  0.00000000E+00  0.00000000E+00
  0.00000000E+00  0.00000000E+00  0.00000000E+00
  0.00000000E+00  0.00000000E+00  0.00000000E+00
  0.00000000E+00  0.00000000E+00  0.00000000E+00
  0.00000000E+00  0.00000000E+00  0.00000000E+00
  0.00000000E+00  0.00000000E+00  0.00000000E+00
  0.00000000E+00  0.00000000E+00  0.00000000E+00
  0.00000000E+00  0.00000000E+00  0.00000000E+00
  0.00000000E+00  0.00000000E+00  0.00000000E+00
  0.00000000E+00  0.00000000E+00  0.00000000E+00
  0.00000000E+00  0.00000000E+00  0.00000000E+00
  0.00000000E+00  0.00000000E+00  0.00000000E+00
  0.00000000E+00  0.00000000E+00  0.00000000E+00
  0.00000000E+00  0.00000000E+00  0.00000000E+00
  0.00000000E+00  0.00000000E+00  0.00000000E+00
  0.00000000E+00  0.00000000E+00  0.00000000E+00
  0.00000000E+00  0.00000000E+00  0.00000000E+00
  0.00000000E+00  0.00000000E+00  0.00000000E+00
  0.00000000E+00  0.00000000E+00  0.00000000E+00
  0.00000000E+00  0.00000000E+00  0.00000000E+00
  0.00000000E+00  0.00000000E+00  0.00000000E+00
  0.00000000E+00  0.00000000E+00  0.00000000E+00
  0.00000000E+00  0.00000000E+00  0.00000000E+00
  0.00000000E+00  0.00000000E+00  0.00000000E+00
  0.00000000E+00  0.00000000E+00  0.00000000E+00
  0.00000000E+00  0.00000000E+00  0.00000000E+00
  0.00000000E+00  0.00000000E+00  0.00000000E+00
  0.00000000E+00  0.00000000E+00  0.00000000E+00
  0.00000000E+00  0.00000000E+00  0.00000000E+00
  0.00000000E+00  0.00000000E+00  0.00000000E+00
  0.00000000E+00  0.00000000E+00  0.00000000E+00
  0.00000000E+00  0.00000000E+00  0.00000000E+00
  0.00000000E+00  0.00000000E+00  0.00000000E+00
  0.00000000E+00  0.00000000E+00  0.00000000E+00
  0.00000000E+00  0.00000000E+00  0.00000000E+00
  0.00000000E+00  0.00000000E+00  0.00000000E+00
  0.00000000E+00  0.00000000E+00  0.00000000E+00
  0.00000000E+00  0.00000000E+00  0.00000000E+00
  0.00000000E+00  0.00000000E+00  0.00000000E+00
  0.00000000E+00  0.00000000E+00  0.00000000E+00
  0.00000000E+00  0.00000000E+00  0.00000000E+00
  0.00000000E+00  0.00000000E+00  0.00000000E+00
  0.00000000E+00  0.00000000E+00  0.00000000E+00
  0.00000000E+00  0.00000000E+00  0.00000000E+00
  0.00000000E+00  0.00000000E+00  0.00000000E+00
  0.00000000E+00  0.00000000E+00  0.00000000E+00
  0.00000000E+00  0.00000000E+00  0.00000000E+00
  0.00000000E+00  0.00000000E+00  0.00000000E+00
  0.00000000E+00  0.00000000E+00  0.00000000E+00
  0.00000000E+00  0.00000000E+00  0.00000000E+00
  0.00000000E+00  0.00000000E+00  0.00000000E+00
  0.00000000E+00  0.00000000E+00  0.00000000E+00
  0.00000000E+00  0.00000000E+00  0.00000000E+00
  0.00000000E+00  0.00000000E+00  0.00000000E+00
  0.00000000E+00  0.00000000E+00  0.00000000E+00
  0.00000000E+00  0.00000000E+00  0.00000000E+00
  0.00000000E+00  0.00000000E+00  0.00000000E+00
  0.00000000E+00  0.00000000E+00  0.00000000E+00
  0.00000000E+00  0.00000000E+00  0.00000000E+00
  0.00000000E+00  0.00000000E+00  0.00000000E+00
  0.00000000E+00  0.00000000E+00  0.00000000E+00
  0.00000000E+00  0.00000000E+00  0.00000000E+00
  0.00000000E+00  0.00000000E+00  0.00000000E+00
  0.00000000E+00  0.00000000E+00  0.00000000E+00
  0.00000000E+00  0.00000000E+00  0.00000000E+00
  0.00000000E+00  0.00000000E+00  0.00000000E+00
  0.00000000E+00  0.00000000E+00  0.00000000E+00
  0.00000000E+00  0.00000000E+00  0.00000000E+00
  0.00000000E+00  0.00000000E+00  0.00000000E+00
  0.00000000E+00  0.00000000E+00  0.00000000E+00
  0.00000000E+00  0.00000000E+00  0.00000000E+00
  0.00000000E+00  0.00000000E+00  0.00000000E+00
  0.00000000E+00  0.00000000E+00  0.00000000E+00
  0.00000000E+00  0.00000000E+00  0.00000000E+00
  0.00000000E+00  0.00000000E+00  0.00000000E+00
  0.00000000E+00  0.00000000E+00  0.00000000E+00
  0.00000000E+00  0.00000000E+00  0.00000000E+00
  0.00000000E+00  0.00000000E+00  0.00000000E+00
  0.00000000E+00  0.00000000E+00  0.00000000E+00
  0.00000000E+00  0.00000000E+00  0.00000000E+00
  0.00000000E+00  0.00000000E+00  0.00000000E+00
  0.00000000E+00  0.00000000E+00  0.00000000E+00
  0.00000000E+00  0.00000000E+00  0.00000000E+00
  0.00000000E+00  0.00000000E+00  0.00000000E+00
  0.00000000E+00  0.00000000E+00  0.00000000E+00
  0.00000000E+00  0.00000000E+00  0.00000000E+00
  0.00000000E+00  0.00000000E+00  0.00000000E+00
  0.00000000E+00  0.00000000E+00  0.00000000E+00
  0.00000000E+00  0.00000000E+00  0.00000000E+00
  0.00000000E+00  0.00000000E+00  0.00000000E+00
  0.00000000E+00  0.00000000E+00  0.00000000E+00
  0.00000000E+00  0.00000000E+00  0.00000000E+00
  0.00000000E+00  0.00000000E+00  0.00000000E+00
  0.00000000E+00  0.00000000E+00  0.00000000E+00
  0.00000000E+00  0.00000000E+00  0.00000000E+00
  0.00000000E+00  0.00000000E+00  0.00000000E+00
  0.00000000E+00  0.00000000E+00  0.00000000E+00
  0.00000000E+00  0.00000000E+00  0.00000000E+00
  0.00000000E+00  0.00000000E+00  0.00000000E+00
  0.00000000E+00  0.00000000E+00  0.00000000E+00
  0.00000000E+00  0.00000000E+00  0.00000000E+00
  0.00000000E+00  0.00000000E+00  0.00000000E+00
  0.00000000E+00  0.00000000E+00  0.00000000E+00
  0.00000000E+00  0.00000000E+00  0.00000000E+00
  0.00000000E+00  0.00000000E+00  0.00000000E+00
  0.00000000E+00  0.00000000E+00  0.00000000E+00
  0.00000000E+00  0.00000000E+00  0.00000000E+00
  0.00000000E+00  0.00000000E+00  0.00000000E+00
  0.00000000E+00  0.00000000E+00  0.00000000E+00
  0.00000000E+00  0.00000000E+00  0.00000000E+00
  0.00000000E+00  0.00000000E+00  0.00000000E+00
  0.00000000E+00  0.00000000E+00  0.00000000E+00
  0.00000000E+00  0.00000000E+00  0.00000000E+00
  0.00000000E+00  0.00000000E+00  0.00000000E+00
  0.00000000E+00  0.00000000E+00  0.00000000E+00
  0.00000000E+00  0.00000000E+00  0.00000000E+00
  0.00000000E+00  0.00000000E+00  0.00000000E+00
  0.00000000E+00  0.00000000E+00  0.00000000E+00
  0.00000000E+00  0.00000000E+00  0.00000000E+00
  0.00000000E+00  0.00000000E+00  0.00000000E+00
  0.00000000E+00  0.00000000E+00  0.00000000E+00
  0.00000000E+00  0.00000000E+00  0.00000000E+00
  0.00000000E+00  0.00000000E+00  0.00000000E+00
  0.00000000E+00  0.00000000E+00  0.00000000E+00
  0.00000000E+00  0.00000000E+00  0.00000000E+00
  0.00000000E+00  0.00000000E+00  0.00000000E+00
  0.00000000E+00  0.00000000E+00  0.00000000E+00
  0.00000000E+00  0.00000000E+00  0.00000000E+00
  0.00000000E+00  0.00000000E+00  0.00000000E+00
  0.00000000E+00  0.00000000E+00  0.00000000E+00
  0.00000000E+00  0.00000000E+00  0.00000000E+00
  0.00000000E+00  0.00000000E+00  0.00000000E+00
  0.00000000E+00  0.00000000E+00  0.00000000E+00
  0.00000000E+00  0.00000000E+00  0.00000000E+00
  0.00000000E+00  0.00000000E+00  0.00000000E+00
  0.00000000E+00  0.00000000E+00  0.00000000E+00
  0.00000000E+00  0.00000000E+00  0.00000000E+00
  0.00000000E+00  0.00000000E+00  0.00000000E+00
  0.00000000E+00  0.00000000E+00  0.00000000E+00