 B Si N 
 1.0
 14.936314146199660   0.000000000000000   0.000000000000000
 -7.468157073099825  12.935227489513863   0.000000000000000
  0.000000000000001   0.000000000000001  13.341276283792837
 B Si N 
 143   2 143
Cartesian
  1.211064459613058   0.671509807775641   5.002978606422314 
  4.967498973451012   7.582765876009105   5.002978606422314 
  6.256683107209535   0.659441477292763   5.002978606422314 
  9.977744015826378   7.187627557304108   5.002978606422314 
 11.216554565017530   0.726890802153556   5.002978606422314 
 -3.734068124012061   9.342114754108165  11.673616748318732 
  1.244632679896401   9.342586988080829  11.673616748318732 
  2.489029105317579   2.874045720067923  11.673616748318732 
  6.223492695421202   9.342561150241481  11.673616748318732 
  7.468697571460549   2.874134634149126  11.673616748318732 
 12.446669364519661   2.874270633021668  11.673616748318732 
 -1.262596621360414   9.352747548658083   5.002978606422314 
 -0.022630872101411   2.861429057569964   5.002978606422314 
  5.039972150112757   2.744556111861040   5.002978606422314 
  3.690410666821476   9.473345735946626   5.002978606422314 
  8.724154374446304   9.358908508016459   5.002978606422314 
  9.998929780245909   2.852772012402446   5.002978606422314 
 -4.978863623886840  11.497892705739245  11.673616748318732 
  0.000161318154607  11.498073127758929  11.673616748318732 
  1.244125466842292   5.030282072434493  11.673616748318732 
  6.223947374239288   5.030208801403881  11.673616748318732 
  4.978704344522082  11.498313770575017  11.673616748318732 
 11.202252306306207   5.030183609447504  11.673616748318732 
 -1.302308908802607   5.024800180262133   5.002978606422314 
 -2.489124102492786  11.477155462858844   5.002978606422314 
  2.483973402740214  11.541873275797379   5.002978606422314 
  7.472129375831598  11.526612493938520   5.002978606422314 
  8.837191338062659   5.002842346779578   5.002978606422314 
 -0.000305280512980   7.186446895270552  11.673616748318732 
  1.244310639327984   0.718337295121460  11.673616748318732 
  4.978876604442207   7.186734633711334  11.673616748318732 
  6.223848317658793   0.718332521634835  11.673616748318732 
  9.957702617231114   7.186197482516135  11.673616748318732 
 -2.504435077966474   7.191390568452561   5.002978606422314 
 11.202227645113389   0.718619151090252  11.673616748318732 
  3.733097393498318   0.658614097712090   5.002978606422314 
  2.407455699006583   7.304208356937876   5.002978606422314 
  7.511082460637203   7.211020478224162   5.002978606422314 
  8.748156474438044   0.691989927703785   5.002978606422314 
  2.489202322087531   7.186823496277063  11.673616748318732 
 13.688550488780574   0.727658557804755   5.002978606422314 
 -1.244717114833472   9.342255661876022  11.673616748318732 
 -0.000614731210827   2.874140082439651  11.673616748318732 
  4.979187190301264   2.874043194453153  11.673616748318732 
  3.734036701766861   9.342757009498008  11.673616748318732 
  8.712895194052969   9.342267185099590  11.673616748318732 
  9.957798307230140   2.874270051505141  11.673616748318732 
 -3.736155201544382   9.340909779333067   5.002978606422314 
  1.210048934216150   9.400468272130709   5.002978606422314 
  2.413618583431286   2.723362418677788   5.002978606422314 
  6.261798541437734   9.463553519980882   5.002978606422314 
  7.559977708540218   2.771059016395723   5.002978606422314 
 12.453217422796882   2.867318192358360   5.002978606422314 
 -1.245132025308263   5.030178472801119  11.673616748318732 
 -2.489270589716210  11.497885513109336  11.673616748318732 
  2.489452074128064  11.498304803294543  11.673616748318732 
  3.734086685870607   5.030370950934507  11.673616748318732 
  7.468007253601482  11.498085768644852  11.673616748318732 
 -4.981833382300607  11.482370302144291   5.002978606422314 
  8.713255949195993   5.030164695885505  11.673616748318732 
  0.000662703933738  11.498362602973486   5.002978606422314 
  1.075924638969182   5.040316295463388   5.002978606422314 
 -0.052460454374895   7.215392625219635   5.002978606422314 
  6.561231675265869   4.822339862781734   5.002978606422314 
  4.980652233035481  11.544683690653095   5.002978606422314 
 11.229018236212355   5.019490109369467   5.002978606422314 
 -2.489507402918575   7.186201252884523  11.673616748318732 
  3.734107242962271   0.718254668189870  11.673616748318732 
  7.468419892027112   7.186389232752814  11.673616748318732 
  8.713164406140422   0.718518832556082  11.673616748318732 
 13.691297449874698   0.718511552659554  11.673616748318732 
 -0.001158560262125   1.435870219743659   1.665382546656560 
  3.733399278611204   7.906718116696769   1.659797795993053 
  4.979104839594330   1.434486105177389   1.664949003879746 
  8.713770880915279   7.905392961423019   1.667174211867714 
  9.957803213549257   1.436952081250368   1.666216083181324 
 -4.978588067865375  10.060367374983347   8.339026014148603 
 -0.000869783603889  10.061275485428325   8.339501574614905 
  1.241922922775939   3.591519531447221   8.343084446454816 
  4.978782165948409  10.061866979677612   8.341606664672227 
  6.224732697894319   3.591602055904089   8.346159416851576 
 11.201989875577953   3.592991175159443   8.339901303958825 
 -2.489780756672197  10.060504400591151   1.666359073241885 
 -1.246464884328805   3.592804044013997   1.665382546656560 
  3.733587298379472   3.588727209939990   1.660466634261520 
  2.488730659918596  10.061881006007553   1.665706282493228 
  7.468562207016651  10.061074024693255   1.666007290314795 
  8.713837805841452   3.592560842286131   1.664350548172399 
 -6.223778943549343  12.215255428289829   8.339701817856167 
 -1.244657491080590  12.215578988607602   8.339501574614905 
 -0.003315648607301   5.749815044992710   8.340547455307004 
  4.980199378376792   5.749814449393575   8.344085693097009 
  3.733952922125067  12.216977004699501   8.339741129663304 
  9.958041107215072   5.749170085178871   8.339949922529831 
 -2.490710721293055   5.749391599221068   1.666255394988461 
 -3.734175757658635  12.214843021477497   1.666584416716306 
  1.244661585886853  12.216585692340706   1.666409571050154 
  2.485336889216911   5.750760339178200   1.660466634261520 
  6.223230880017046  12.216454714111583   1.666055908885802 
  7.469925989576055   5.749147178872845   1.659530644738435 
 -1.246266283123919   7.905657406951354   8.339372796128307 
 -0.001158560262125   1.435870219743660   8.340574666188067 
  3.733399278611204   7.906718116696770   8.346159416851576 
  4.979104839594330   1.434486105177389   8.341008208964881 
  8.713770880915279   7.905392961423020   8.338783000976914 
 -3.734303079926120   7.905202556777313   1.666931198696025 
  9.957803213549257   1.436952081250368   8.339741129663304 
  2.488442380688679   1.433963538084341   1.665409757537624 
  1.242468137223233   7.906530723110797   1.664949003879746 
  6.224484810754223   7.906314578430747   1.659530644738435 
  7.468824199984620   1.436105968167589   1.665706282493228 
  1.242468137223234   7.906530723110798   8.341008208964881 
 12.446438551426846   1.436964652779049   1.665978861502483 
 -2.489780756672196  10.060504400591151   8.339598139602757 
 -1.246464884328804   3.592804044013998   8.340574666188067 
  3.733587298379473   3.588727209939991   8.345490578583094 
  2.488730659918596  10.061881006007553   8.340250930351399 
  7.468562207016652  10.061074024693255   8.339949922529831 
  8.713837805841452   3.592560842286132   8.341606664672227 
 -4.978588067865376  10.060367374983347   1.666931198696025 
 -0.000869783603890  10.061275485428325   1.666455638229721 
  1.241922922775939   3.591519531447220   1.662872766389813 
  4.978782165948408  10.061866979677612   1.664350548172399 
  6.224732697894318   3.591602055904088   1.659797795993053 
 11.201989875577953   3.592991175159442   1.666055908885802 
 -2.490710721293055   5.749391599221069   8.339701817856167 
 -3.734175757658634  12.214843021477497   8.339372796128307 
  1.244661585886854  12.216585692340706   8.339547641794500 
  2.485336889216911   5.750760339178201   8.345490578583094 
  6.223230880017047  12.216454714111583   8.339901303958825 
 -6.223778943549344  12.215255428289829   1.666255394988461 
  7.469925989576056   5.749147178872846   8.346426568106192 
 -1.244657491080591  12.215578988607602   1.666455638229721 
 -0.003315648607302   5.749815044992709   1.665409757537624 
 -1.246266283123920   7.905657406951353   1.666584416716306 
  4.980199378376791   5.749814449393574   1.661871519747632 
  3.733952922125066  12.216977004699501   1.666216083181324 
  9.958041107215072   5.749170085178871   1.666007290314795 
 -3.734303079926119   7.905202556777314   8.339026014148603 
  2.488442380688679   1.433963538084342   8.340547455307004 
  6.224484810754224   7.906314578430748   8.346426568106192 
  7.468824199984621   1.436105968167590   8.340250930351399 
 12.446438551426846   1.436964652779050   8.339978351342157 
  3.464464727582002   4.874704640737154   5.002978606422314 
  5.159321594520668   5.853230709102085   5.002978606422314 
  1.244256449712608   0.717882580983999   1.669188225031867 
  4.978321303174591   7.186247021895349   1.659822390277268 
  6.223363327835278   0.718263252991952   1.669628231086715 
  9.957211007939796   7.186225760226768   1.670670392483148 
 11.202169150528361   0.718585379225847   1.668204577141049 
 -3.734301403279562   9.341980070260275   8.336602753420367 
  1.244330196580222   9.342201608894527   8.336328981757926 
  2.488447816993123   2.873549061689592   8.334827130614006 
  6.223292394246196   9.342016872342054   8.338569048261999 
  7.467939820545245   2.874281429872334   8.338081108339352 
 12.446597512758355   2.874456824948588   8.337729836775633 
 -1.244988864371811   9.342139185877468   1.669268556760950 
 -0.000678098827704   2.874103497128988   1.668483797904035 
  4.978419442507930   2.873913021697062   1.668540950174935 
  3.733784955134674   9.342027380094008   1.667876104505275 
  8.712673878623086   9.341827300109243   1.670670392483148 
  9.957418104651454   2.874443897829273   1.668295441321935 
 -4.978930052670904  11.497521188759503   8.336453735371370 
 -0.000116061412580  11.497912982591137   8.336860612764131 
  1.243404703907427   5.030026991167756   8.334827130614006 
  6.223247439385655   5.029971702307362   8.346134822567359 
  4.978664798565783  11.497897582321237   8.337661771522693 
 11.201851319298202   5.030409118996305   8.336999069911332 
 -1.245552914110459   5.030358900286325   1.669188225031867 
 -2.489507335659066  11.497708409104957   1.669268556760950 
  2.489262160340879  11.497990202609692   1.668730492216432 
  3.731426620583072   5.028835161524704   1.679961448213879 
  7.468002057095545  11.497625748934917   1.668958142933294 
  8.712684440120869   5.030263368929257   1.667388164582630 
 -0.000629382531345   7.186312871102412   8.335299700102849 
  1.244256449712609   0.717882580984000   8.336768987812761 
  4.978321303174592   7.186247021895350   8.346134822567359 
  6.223363327835279   0.718263252991953   8.336328981757926 
  9.957211007939796   7.186225760226769   8.335286820361480 
 -2.489862360452992   7.186329482359836   1.669503477473272 
 11.202169150528361   0.718585379225848   8.337752635703579 
  3.733829123618780   0.718040999692579   1.670657512741793 
  2.488705715277209   7.186223693562380   1.668540950174935 
  7.467685996994408   7.185965518258134   1.670159278814801 
  8.712796997061716   0.718511662734251   1.668730492216432 
  2.488705715277210   7.186223693562381   8.337416262669691 
 13.691422770932723   0.718356231245522   1.668227376068996 
 -1.244988864371810   9.342139185877468   8.336688656083679 
 -0.000678098827703   2.874103497128989   8.337473414940593 
  4.978419442507930   2.873913021697063   8.337416262669691 
  3.733784955134674   9.342027380094008   8.338081108339352 
  8.712673878623086   9.341827300109243   8.335286820361480 
  9.957418104651454   2.874443897829274   8.337661771522693 
 -3.734301403279562   9.341980070260275   1.669354459424261 
  1.244330196580222   9.342201608894527   1.669628231086715 
  2.488447816993123   2.873549061689591   1.671130082230622 
  6.223292394246196   9.342016872342054   1.667388164582630 
  7.467939820545244   2.874281429872333   1.667876104505275 
 12.446597512758355   2.874456824948587   1.668227376068996 
 -1.245552914110459   5.030358900286326   8.336768987812761 
 -2.489507335659065  11.497708409104957   8.336688656083679 
  2.489262160340880  11.497990202609692   8.337226720628195 
  3.731426620583072   5.028835161524705   8.325995764630735 
  7.468002057095545  11.497625748934917   8.336999069911332 
 -4.978930052670905  11.497521188759503   1.669503477473272 
  8.712684440120869   5.030263368929258   8.338569048261999 
 -0.000116061412580  11.497912982591137   1.669096600080497 
  1.243404703907427   5.030026991167755   1.671130082230622 
 -0.000629382531345   7.186312871102411   1.670657512741793 
  6.223247439385654   5.029971702307361   1.659822390277268 
  4.978664798565783  11.497897582321237   1.668295441321935 
 11.201851319298202   5.030409118996304   1.668958142933294 
 -2.489862360452992   7.186329482359837   8.336453735371370 
  3.733829123618780   0.718040999692579   8.335299700102849 
  7.467685996994409   7.185965518258135   8.335797934029840 
  8.712796997061716   0.718511662734252   8.337226720628195 
 13.691422770932723   0.718356231245522   8.337729836775633 
 -0.005509081356786   1.432114635804354   5.002978606422314 
  3.650695035169091   8.063565275686170   5.002978606422314 
  5.004415070801386   1.345471318723890   5.002978606422314 
  8.735323671087690   7.917836470630840   5.002978606422314 
  9.978754812188942   1.426715617003183   5.002978606422314 
 -4.978827560985463  10.060750027675363  11.673616748318732 
  0.000069140977595  10.060757612360918  11.673616748318732 
  1.244699033429722   3.593122319680474  11.673616748318732 
  4.978741259171034  10.060739619709169  11.673616748318732 
  6.223432007996689   3.593088955475961  11.673616748318732 
 11.202248564412610   3.593124424111755  11.673616748318732 
 -2.499498924457421  10.054893613804312   5.002978606422314 
 -1.251892575973627   3.590914174195987   5.002978606422314 
  3.702218355883760   3.300797673890670   5.002978606422314 
  2.448573046585066  10.130675396799628   5.002978606422314 
  7.502012626143427  10.115315134541222   5.002978606422314 
  8.766906866657651   3.561069195141699   5.002978606422314 
 -6.223507804207861  12.216642622458414  11.673616748318732 
 -1.244636520022145  12.216651057681085  11.673616748318732 
  0.000040869294936   5.748934941246231  11.673616748318732 
  4.978649256067890   5.748919485861253  11.673616748318732 
  3.734074526624682  12.216608314899311  11.673616748318732 
  9.957535383060943   5.748949127059806  11.673616748318732 
 -2.504263656389081   5.756524332464124   5.002978606422314 
 -3.734373904841263  12.180871866431112   5.002978606422314 
  1.243676523646071  12.216016966390805   5.002978606422314 
  2.220298125250471   5.867558806111734   5.002978606422314 
  6.228665977275655  12.238780355642712   5.002978606422314 
  7.632690799138947   5.734517729067736   5.002978606422314 
 -1.244639439808266   7.904812867865552  11.673616748318732 
 -0.000027548022320   1.437246247905164  11.673616748318732 
  3.734036626464506   7.904848236417041  11.673616748318732 
  4.978798209158275   1.437309629436641  11.673616748318732 
  8.712779624739927   7.904820659403335  11.673616748318732 
 -3.734880974144603   7.910978272636822   5.002978606422314 
  9.957544721065982   1.437241738736344  11.673616748318732 
  2.455408585724055   1.335220139818075   5.002978606422314 
  1.178034186445579   7.972957419538528   5.002978606422314 
  6.293197740361056   8.054587763256905   5.002978606422314 
  7.508323083381656   1.366931259469376   5.002978606422314 
  1.244760065741904   7.904853411234001  11.673616748318732 
 12.453900880483642   1.441273030468765   5.002978606422314 
 -2.489364433399919  10.060744764944479  11.673616748318732 
 -1.244707702864725   3.593095515264921  11.673616748318732 
  3.734085524924649   3.593175613156350  11.673616748318732 
  2.489391199436527  10.060758889201091  11.673616748318732 
  7.468117989595327  10.060746533787968  11.673616748318732 
  8.712841030080904   3.593089095961923  11.673616748318732 
 -4.973875098315245  10.056979045979690   5.002978606422314 
 -0.026958216458403  10.079053555635760   5.002978606422314 
  1.226079066691583   3.582372076871924   5.002978606422314 
  4.978044129922428  10.123571958071613   5.002978606422314 
  6.319214200369506   3.441554500587731   5.002978606422314 
 11.224041996929015   3.586535286691849   5.002978606422314 
 -2.489373806232339   5.748932815694467  11.673616748318732 
 -3.734093728303593  12.216674178659719  11.673616748318732 
  1.244705330750633  12.216610948449604  11.673616748318732 
  2.489438432681136   5.748967614414997  11.673616748318732 
  6.223475621412105  12.216612120737917  11.673616748318732 
 -6.224378282910447  12.199951875579290   5.002978606422314 
  7.468088380903048   5.748948503114956  11.673616748318732 
 -1.242305447077947  12.184096707906953   5.002978606422314 
 -0.105346837444204   5.770578638503070   5.002978606422314 
 -1.275785239981311   7.922471383980715   5.002978606422314 
  3.735563683361926  12.240239853494941   5.002978606422314 
 10.021740495836276   5.751018442985888   5.002978606422314 
 -3.734091439534061   7.904803823305294  11.673616748318732 
  2.489358447437367   1.437310419729201  11.673616748318732 
  6.223393948164274   7.904822500516652  11.673616748318732 
  7.468182688083166   1.437239070573568  11.673616748318732 
 12.446931512786538   1.437249264152777  11.673616748318732 
Generated by cif2cell 2.0.0.  :  Failed to get author information, No journal information. Species order: B Si N 
 1.0
 14.936314146199660   0.000000000000000   0.000000000000000
 -7.468157073099825  12.935227489513863   0.000000000000000
  0.000000000000001   0.000000000000001  13.341276283792837
 B Si N 
 143   2 143
Cartesian
  1.211064459613058   0.671509807775641   5.002978606422314 
  4.967498973451012   7.582765876009105   5.002978606422314 
  6.256683107209535   0.659441477292763   5.002978606422314 
  9.977744015826378   7.187627557304108   5.002978606422314 
 11.216554565017530   0.726890802153556   5.002978606422314 
 -3.734068124012061   9.342114754108165  11.673616748318732 
  1.244632679896401   9.342586988080829  11.673616748318732 
  2.489029105317579   2.874045720067923  11.673616748318732 
  6.223492695421202   9.342561150241481  11.673616748318732 
  7.468697571460549   2.874134634149126  11.673616748318732 
 12.446669364519661   2.874270633021668  11.673616748318732 
 -1.262596621360414   9.352747548658083   5.002978606422314 
 -0.022630872101411   2.861429057569964   5.002978606422314 
  5.039972150112757   2.744556111861040   5.002978606422314 
  3.690410666821476   9.473345735946626   5.002978606422314 
  8.724154374446304   9.358908508016459   5.002978606422314 
  9.998929780245909   2.852772012402446   5.002978606422314 
 -4.978863623886840  11.497892705739245  11.673616748318732 
  0.000161318154607  11.498073127758929  11.673616748318732 
  1.244125466842292   5.030282072434493  11.673616748318732 
  6.223947374239288   5.030208801403881  11.673616748318732 
  4.978704344522082  11.498313770575017  11.673616748318732 
 11.202252306306207   5.030183609447504  11.673616748318732 
 -1.302308908802607   5.024800180262133   5.002978606422314 
 -2.489124102492786  11.477155462858844   5.002978606422314 
  2.483973402740214  11.541873275797379   5.002978606422314 
  7.472129375831598  11.526612493938520   5.002978606422314 
  8.837191338062659   5.002842346779578   5.002978606422314 
 -0.000305280512980   7.186446895270552  11.673616748318732 
  1.244310639327984   0.718337295121460  11.673616748318732 
  4.978876604442207   7.186734633711334  11.673616748318732 
  6.223848317658793   0.718332521634835  11.673616748318732 
  9.957702617231114   7.186197482516135  11.673616748318732 
 -2.504435077966474   7.191390568452561   5.002978606422314 
 11.202227645113389   0.718619151090252  11.673616748318732 
  3.733097393498318   0.658614097712090   5.002978606422314 
  2.407455699006583   7.304208356937876   5.002978606422314 
  7.511082460637203   7.211020478224162   5.002978606422314 
  8.748156474438044   0.691989927703785   5.002978606422314 
  2.489202322087531   7.186823496277063  11.673616748318732 
 13.688550488780574   0.727658557804755   5.002978606422314 
 -1.244717114833472   9.342255661876022  11.673616748318732 
 -0.000614731210827   2.874140082439651  11.673616748318732 
  4.979187190301264   2.874043194453153  11.673616748318732 
  3.734036701766861   9.342757009498008  11.673616748318732 
  8.712895194052969   9.342267185099590  11.673616748318732 
  9.957798307230140   2.874270051505141  11.673616748318732 
 -3.736155201544382   9.340909779333067   5.002978606422314 
  1.210048934216150   9.400468272130709   5.002978606422314 
  2.413618583431286   2.723362418677788   5.002978606422314 
  6.261798541437734   9.463553519980882   5.002978606422314 
  7.559977708540218   2.771059016395723   5.002978606422314 
 12.453217422796882   2.867318192358360   5.002978606422314 
 -1.245132025308263   5.030178472801119  11.673616748318732 
 -2.489270589716210  11.497885513109336  11.673616748318732 
  2.489452074128064  11.498304803294543  11.673616748318732 
  3.734086685870607   5.030370950934507  11.673616748318732 
  7.468007253601482  11.498085768644852  11.673616748318732 
 -4.981833382300607  11.482370302144291   5.002978606422314 
  8.713255949195993   5.030164695885505  11.673616748318732 
  0.000662703933738  11.498362602973486   5.002978606422314 
  1.075924638969182   5.040316295463388   5.002978606422314 
 -0.052460454374895   7.215392625219635   5.002978606422314 
  6.561231675265869   4.822339862781734   5.002978606422314 
  4.980652233035481  11.544683690653095   5.002978606422314 
 11.229018236212355   5.019490109369467   5.002978606422314 
 -2.489507402918575   7.186201252884523  11.673616748318732 
  3.734107242962271   0.718254668189870  11.673616748318732 
  7.468419892027112   7.186389232752814  11.673616748318732 
  8.713164406140422   0.718518832556082  11.673616748318732 
 13.691297449874698   0.718511552659554  11.673616748318732 
 -0.001158560262125   1.435870219743659   1.665382546656560 
  3.733399278611204   7.906718116696769   1.659797795993053 
  4.979104839594330   1.434486105177389   1.664949003879746 
  8.713770880915279   7.905392961423019   1.667174211867714 
  9.957803213549257   1.436952081250368   1.666216083181324 
 -4.978588067865375  10.060367374983347   8.339026014148603 
 -0.000869783603889  10.061275485428325   8.339501574614905 
  1.241922922775939   3.591519531447221   8.343084446454816 
  4.978782165948409  10.061866979677612   8.341606664672227 
  6.224732697894319   3.591602055904089   8.346159416851576 
 11.201989875577953   3.592991175159443   8.339901303958825 
 -2.489780756672197  10.060504400591151   1.666359073241885 
 -1.246464884328805   3.592804044013997   1.665382546656560 
  3.733587298379472   3.588727209939990   1.660466634261520 
  2.488730659918596  10.061881006007553   1.665706282493228 
  7.468562207016651  10.061074024693255   1.666007290314795 
  8.713837805841452   3.592560842286131   1.664350548172399 
 -6.223778943549343  12.215255428289829   8.339701817856167 
 -1.244657491080590  12.215578988607602   8.339501574614905 
 -0.003315648607301   5.749815044992710   8.340547455307004 
  4.980199378376792   5.749814449393575   8.344085693097009 
  3.733952922125067  12.216977004699501   8.339741129663304 
  9.958041107215072   5.749170085178871   8.339949922529831 
 -2.490710721293055   5.749391599221068   1.666255394988461 
 -3.734175757658635  12.214843021477497   1.666584416716306 
  1.244661585886853  12.216585692340706   1.666409571050154 
  2.485336889216911   5.750760339178200   1.660466634261520 
  6.223230880017046  12.216454714111583   1.666055908885802 
  7.469925989576055   5.749147178872845   1.659530644738435 
 -1.246266283123919   7.905657406951354   8.339372796128307 
 -0.001158560262125   1.435870219743660   8.340574666188067 
  3.733399278611204   7.906718116696770   8.346159416851576 
  4.979104839594330   1.434486105177389   8.341008208964881 
  8.713770880915279   7.905392961423020   8.338783000976914 
 -3.734303079926120   7.905202556777313   1.666931198696025 
  9.957803213549257   1.436952081250368   8.339741129663304 
  2.488442380688679   1.433963538084341   1.665409757537624 
  1.242468137223233   7.906530723110797   1.664949003879746 
  6.224484810754223   7.906314578430747   1.659530644738435 
  7.468824199984620   1.436105968167589   1.665706282493228 
  1.242468137223234   7.906530723110798   8.341008208964881 
 12.446438551426846   1.436964652779049   1.665978861502483 
 -2.489780756672196  10.060504400591151   8.339598139602757 
 -1.246464884328804   3.592804044013998   8.340574666188067 
  3.733587298379473   3.588727209939991   8.345490578583094 
  2.488730659918596  10.061881006007553   8.340250930351399 
  7.468562207016652  10.061074024693255   8.339949922529831 
  8.713837805841452   3.592560842286132   8.341606664672227 
 -4.978588067865376  10.060367374983347   1.666931198696025 
 -0.000869783603890  10.061275485428325   1.666455638229721 
  1.241922922775939   3.591519531447220   1.662872766389813 
  4.978782165948408  10.061866979677612   1.664350548172399 
  6.224732697894318   3.591602055904088   1.659797795993053 
 11.201989875577953   3.592991175159442   1.666055908885802 
 -2.490710721293055   5.749391599221069   8.339701817856167 
 -3.734175757658634  12.214843021477497   8.339372796128307 
  1.244661585886854  12.216585692340706   8.339547641794500 
  2.485336889216911   5.750760339178201   8.345490578583094 
  6.223230880017047  12.216454714111583   8.339901303958825 
 -6.223778943549344  12.215255428289829   1.666255394988461 
  7.469925989576056   5.749147178872846   8.346426568106192 
 -1.244657491080591  12.215578988607602   1.666455638229721 
 -0.003315648607302   5.749815044992709   1.665409757537624 
 -1.246266283123920   7.905657406951353   1.666584416716306 
  4.980199378376791   5.749814449393574   1.661871519747632 
  3.733952922125066  12.216977004699501   1.666216083181324 
  9.958041107215072   5.749170085178871   1.666007290314795 
 -3.734303079926119   7.905202556777314   8.339026014148603 
  2.488442380688679   1.433963538084342   8.340547455307004 
  6.224484810754224   7.906314578430748   8.346426568106192 
  7.468824199984621   1.436105968167590   8.340250930351399 
 12.446438551426846   1.436964652779050   8.339978351342157 
  3.464464727582002   4.874704640737154   5.002978606422314 
  5.159321594520668   5.853230709102085   5.002978606422314 
  1.244256449712608   0.717882580983999   1.669188225031867 
  4.978321303174591   7.186247021895349   1.659822390277268 
  6.223363327835278   0.718263252991952   1.669628231086715 
  9.957211007939796   7.186225760226768   1.670670392483148 
 11.202169150528361   0.718585379225847   1.668204577141049 
 -3.734301403279562   9.341980070260275   8.336602753420367 
  1.244330196580222   9.342201608894527   8.336328981757926 
  2.488447816993123   2.873549061689592   8.334827130614006 
  6.223292394246196   9.342016872342054   8.338569048261999 
  7.467939820545245   2.874281429872334   8.338081108339352 
 12.446597512758355   2.874456824948588   8.337729836775633 
 -1.244988864371811   9.342139185877468   1.669268556760950 
 -0.000678098827704   2.874103497128988   1.668483797904035 
  4.978419442507930   2.873913021697062   1.668540950174935 
  3.733784955134674   9.342027380094008   1.667876104505275 
  8.712673878623086   9.341827300109243   1.670670392483148 
  9.957418104651454   2.874443897829273   1.668295441321935 
 -4.978930052670904  11.497521188759503   8.336453735371370 
 -0.000116061412580  11.497912982591137   8.336860612764131 
  1.243404703907427   5.030026991167756   8.334827130614006 
  6.223247439385655   5.029971702307362   8.346134822567359 
  4.978664798565783  11.497897582321237   8.337661771522693 
 11.201851319298202   5.030409118996305   8.336999069911332 
 -1.245552914110459   5.030358900286325   1.669188225031867 
 -2.489507335659066  11.497708409104957   1.669268556760950 
  2.489262160340879  11.497990202609692   1.668730492216432 
  3.731426620583072   5.028835161524704   1.679961448213879 
  7.468002057095545  11.497625748934917   1.668958142933294 
  8.712684440120869   5.030263368929257   1.667388164582630 
 -0.000629382531345   7.186312871102412   8.335299700102849 
  1.244256449712609   0.717882580984000   8.336768987812761 
  4.978321303174592   7.186247021895350   8.346134822567359 
  6.223363327835279   0.718263252991953   8.336328981757926 
  9.957211007939796   7.186225760226769   8.335286820361480 
 -2.489862360452992   7.186329482359836   1.669503477473272 
 11.202169150528361   0.718585379225848   8.337752635703579 
  3.733829123618780   0.718040999692579   1.670657512741793 
  2.488705715277209   7.186223693562380   1.668540950174935 
  7.467685996994408   7.185965518258134   1.670159278814801 
  8.712796997061716   0.718511662734251   1.668730492216432 
  2.488705715277210   7.186223693562381   8.337416262669691 
 13.691422770932723   0.718356231245522   1.668227376068996 
 -1.244988864371810   9.342139185877468   8.336688656083679 
 -0.000678098827703   2.874103497128989   8.337473414940593 
  4.978419442507930   2.873913021697063   8.337416262669691 
  3.733784955134674   9.342027380094008   8.338081108339352 
  8.712673878623086   9.341827300109243   8.335286820361480 
  9.957418104651454   2.874443897829274   8.337661771522693 
 -3.734301403279562   9.341980070260275   1.669354459424261 