Species order: X N B                    
   2.51242800000000     
     5.9449720136058266    0.0000000000000000    0.0000000000000000
    -2.9724860068029120    5.1484967885702053   -0.0000000000000001
     0.0000000000000000    0.0000000000000009    5.3101128803662583
   In   N    B 
     1   143   143
Direct
  0.4882241174311186  0.4107787253822236  0.3750000000000000
  0.1111606601391197  0.0555672665303104  0.1249843523401385
  0.6111685388204510  0.5556161253493416  0.1259033664451850
  0.4444700187665842  0.0555305011159485  0.1250123017923859
  0.9444842153105405  0.5555778386049228  0.1252150503264592
  0.7778102446826245  0.0555717890079796  0.1250691887682061
  0.1111390137656782  0.7222361735495031  0.6248832377197884
  0.4444700187665842  0.7222728509839721  0.6249876982076136
  0.2778445236545585  0.2222369473889819  0.6249475712774110
  0.7778239566556240  0.7222506295280724  0.6246814612405175
  0.6111345696588502  0.2221992699198599  0.6248646519077874
  0.9444949579143550  0.2222505242753197  0.6249142136116597
  0.2777993985748324  0.7222455714129348  0.1251163776664218
  0.1111862161357332  0.2222597747345306  0.1250179998904891
  0.4445061086860834  0.2222049010874448  0.1251833165821207
  0.6111345696588502  0.7222686330723206  0.1251353480922137
  0.9444842153105405  0.7222397100389527  0.1252150503264592
  0.7778084628884528  0.2222351621649166  0.1251211728130340
  0.1111441779657676  0.8888946514932861  0.6248903233261225
  0.4444643623139121  0.8888988478236204  0.6248852589707972
  0.2778445236545585  0.3889409095989044  0.6249475712774110
  0.6111685388204510  0.3888857468044388  0.6240966335548152
  0.7778084628884528  0.8889066340568648  0.6248788271869659
  0.9444903861071979  0.3889140158526865  0.6248753158210983
  0.1111606601391197  0.3889267269421383  0.1249843523401385
  0.2777993985748324  0.8888871604952260  0.1251163776664218
  0.6111327717271470  0.8889168371494934  0.1250725051310367
  0.4446233538161725  0.3889783435747500  0.1287871816147534
  0.9444903861071979  0.8889097035878403  0.1251246841789008
  0.7778239566556240  0.3889066604608793  0.1253185387594825
  0.2778150983075565  0.5556033154783205  0.6249903941524020
  0.1111606601391197  0.0555672665303104  0.6250156476598622
  0.6111685388204510  0.5556161253493416  0.6240966335548152
  0.4444700187665842  0.0555305011159486  0.6249876982076136
  0.9444842153105405  0.5555778386049228  0.6247849496735411
  0.1111441779657676  0.5555828598058109  0.1251096766738779
  0.7778102446826247  0.0555717890079796  0.6249308112317942
  0.2778150983075565  0.0555451161625714  0.1250096058475973
  0.4445061086860834  0.5556345409319746  0.1251833165821207
  0.7778166627967119  0.5555749980650238  0.1255447995256045
  0.6111327717271470  0.0555492679109822  0.1250725051310367
  0.4445061086860834  0.5556345409319746  0.6248166834178791
  0.9444949579143550  0.0555777669723704  0.1250857863883397
  0.2777993985748324  0.7222455714129348  0.6248836223335795
  0.1111862161357332  0.2222597747345306  0.6249820001095111
  0.4445061086860834  0.2222049010874448  0.6248166834178791
  0.6111345696588502  0.7222686330723206  0.6248646519077874
  0.9444842153105405  0.7222397100389527  0.6247849496735411
  0.7778084628884528  0.2222351621649166  0.6248788271869659
  0.1111390137656782  0.7222361735495031  0.1251167622802123
  0.4444700187665842  0.7222728509839721  0.1250123017923859
  0.2778445236545585  0.2222369473889819  0.1250524287225887
  0.7778239566556240  0.7222506295280724  0.1253185387594824
  0.6111345696588502  0.2221992699198599  0.1251353480922137
  0.9444949579143550  0.2222505242753197  0.1250857863883397
  0.1111606601391197  0.3889267269421383  0.6250156476598622
  0.2777993985748324  0.8888871604952260  0.6248836223335795
  0.6111327717271470  0.8889168371494934  0.6249274948689630
  0.4446233538161725  0.3889783435747498  0.6212128183852471
  0.9444903861071979  0.8889097035878403  0.6248753158210983
  0.1111441779657676  0.8888946514932861  0.1251096766738779
  0.7778239566556240  0.3889066604608793  0.6246814612405175
  0.4444643623139121  0.8888988478236204  0.1251147410292031
  0.2778445236545585  0.3889409095989044  0.1250524287225887
  0.2778150983075565  0.5556033154783205  0.1250096058475973
  0.6111685388204510  0.3888857468044388  0.1259033664451850
  0.7778084628884528  0.8889066340568648  0.1251211728130340
  0.9444903861071979  0.3889140158526865  0.1251246841789008
  0.1111441779657676  0.5555828598058109  0.6248903233261225
  0.2778150983075565  0.0555451161625714  0.6249903941524020
  0.7778166627967117  0.5555749980650238  0.6244552004743961
  0.6111327717271470  0.0555492679109822  0.6249274948689630
  0.9444949579143550  0.0555777669723704  0.6249142136116597
  0.0574415998779819  0.1120936270563811  0.3750000000000000
  0.5561667831699745  0.6166460688258794  0.3750000000000000
  0.3881274146866863  0.1042595737596913  0.3750000000000000
  0.8887969254385646  0.6110651293859538  0.3750000000000000
  0.7241756193295387  0.1114572748421164  0.3750000000000000
  0.0555280781967136  0.7777658009770365  0.8750000000000000
  0.3888774508364944  0.7777694625476180  0.8750000000000000
  0.2221981466170012  0.2777657399751683  0.8750000000000000
  0.7222085011615774  0.7777715634593091  0.8750000000000000
  0.5555423813101756  0.2777753235383812  0.8750000000000000
  0.8888733150574307  0.2777701080960976  0.8750000000000000
  0.2215022027768666  0.7774177680551010  0.3750000000000000
  0.0574415998779818  0.2786813061549366  0.3750000000000000
  0.3854852688688983  0.2630203666153162  0.3750000000000000
  0.5566967712043078  0.7810067063488453  0.3750000000000000
  0.8900578706226322  0.7788726997064527  0.3750000000000000
  0.7240884803951272  0.2771583882577190  0.3750000000000000
  0.0555329129453372  0.9444343992053023  0.8750000000000000
  0.3888774508364944  0.9444413216222124  0.8750000000000000
  0.2222000888492304  0.4444287102215516  0.8750000000000000
  0.5555288793359507  0.4444311063346397  0.8750000000000000
  0.7222093009769399  0.9444378963676521  0.8750000000000000
  0.8888684307411735  0.4444314751016837  0.8750000000000000
  0.0557613555884423  0.4450842690225396  0.3750000000000000
  0.2213424154855267  0.9423876086246998  0.3750000000000000
  0.5567466208016949  0.9450399770675108  0.3750000000000000
  0.3854852688688983  0.4557982355869177  0.3750000000000000
  0.8907107965677130  0.9459055763276218  0.3750000000000000
  0.7245033143237379  0.4444786051828377  0.3750000000000000
  0.2222025459363484  0.6110969422594725  0.8750000000000000
  0.0555337292646672  0.1110999349362413  0.8750000000000000
  0.5555423813101756  0.6111003911051307  0.8750000000000000
  0.3888768597956571  0.1111140316677044  0.8750000000000000
  0.8888606765264674  0.6110970049299059  0.8750000000000000
  0.0550434091284654  0.6111656798583940  0.3750000000000000
  0.7222093009769399  0.1111047379426237  0.8750000000000000
  0.2212772855634575  0.1083108908705217  0.3750000000000000
  0.3881274146866863  0.6172011742603383  0.3750000000000000
  0.7245033143237379  0.6133580424742348  0.3750000000000000
  0.5566967712043078  0.1090233981887986  0.3750000000000000
  0.3888768597956568  0.6110961614612959  0.8750000000000000
  0.8909864816837331  0.1121599075085379  0.3750000000000000
  0.2222018562489550  0.7777675947911455  0.8750000000000000
  0.0555337292646672  0.2777671276617616  0.8750000000000000
  0.3888752042038510  0.2777833654911168  0.8750000000000000
  0.5555445515843417  0.7777710687343941  0.8750000000000000
  0.8888684307411735  0.7777702889728262  0.8750000000000000
  0.7222085011615774  0.2777702710356040  0.8750000000000000
  0.0550434091284654  0.7772110626034078  0.3750000000000000
  0.3887812957197414  0.7795895943719331  0.3750000000000000
  0.2250284745768658  0.2791809039551006  0.3750000000000000
  0.7240884803951266  0.7802634254707436  0.3750000000000000
  0.5561667831699736  0.2728540476774317  0.3750000000000000
  0.8907107965677130  0.2781385535734284  0.3750000000000000
  0.0555329129453372  0.4444318470733638  0.8750000000000000
  0.2222025459363484  0.9444389370102123  0.8750000000000000
  0.5555443212552884  0.9444388272943081  0.8750000000000000
  0.3888752042038510  0.4444251720460698  0.8750000000000000
  0.8888733150574307  0.9444365402946696  0.8750000000000000
  0.0557613555884423  0.9440104198992310  0.3750000000000000
  0.7222000780526918  0.4444325124143805  0.8750000000000000
  0.3887812957197414  0.9425250346811461  0.3750000000000000
  0.2212772855634575  0.4462997280262713  0.3750000000000000
  0.2213424154855267  0.6122881401941637  0.3750000000000000
  0.7241756193295387  0.9460516778207579  0.3750000000000000
  0.8900578706226322  0.4445185042495140  0.3750000000000000
  0.0555280781967136  0.6110956105530121  0.8750000000000000
  0.2222000888492304  0.1111047119610147  0.8750000000000000
  0.7222000780526918  0.6111008989716484  0.8750000000000000
  0.5555445515843417  0.1111068161832842  0.8750000000000000
  0.8888732346488759  0.1111032839911095  0.8750000000000000
  0.1112076408414203  0.0548310207628054  0.3750000000000000
  0.6192592640153874  0.5727833382005360  0.3750000000000000
  0.4450996876292312  0.0518279450158414  0.3750000000000000
  0.9449323967103012  0.5555457701015027  0.3750000000000000
  0.7802851351699289  0.0568092342516325  0.3750000000000000
  0.1111072112669461  0.7222202723001374  0.8750000000000000
  0.4444154087771292  0.7222302106365196  0.8750000000000000
  0.2776763830501074  0.2221684254929350  0.8750000000000000
  0.7778073636741052  0.7222872475352524  0.8750000000000000
  0.6111098551735121  0.2221653799236777  0.8750000000000000
  0.9444384627942315  0.2222048453504510  0.8750000000000000
  0.2774899289986922  0.7229756688644362  0.3750000000000000
  0.1137425030672998  0.2235379182003142  0.3750000000000000
  0.4418677222387689  0.2123977105614430  0.3750000000000000
  0.6135992023803329  0.7284520590298944  0.3750000000000000
  0.9449323967103012  0.7227199599421341  0.3750000000000000
  0.7802698710358895  0.2219534208670567  0.3750000000000000
  0.1110978231378151  0.8888954614837283  0.8750000000000000
  0.4444271450380055  0.8888802391856675  0.8750000000000000
  0.2776763830501074  0.3888412908905008  0.8750000000000000
  0.6111094681788484  0.3888400515584575  0.8750000000000000
  0.7777969235505642  0.8889393405017346  0.8750000000000000
  0.9444556316251964  0.3888612136771469  0.8750000000000000
  0.1112076408414203  0.3897099534119436  0.3750000000000000
  0.2774899289986922  0.8878475934675842  0.3750000000000000
  0.6132492856908118  0.8914240807887575  0.3750000000000000
  0.9456823882876001  0.8901262764578195  0.3750000000000000
  0.7807241619194176  0.3877475704330275  0.3750000000000000
  0.2777240934365628  0.5555318935776913  0.8750000000000000
  0.1110702984216928  0.0555463563970327  0.8750000000000000
  0.6111094681788484  0.5556027499537183  0.8750000000000000
  0.4444154087771292  0.0555185314739458  0.8750000000000000
  0.9444651373026145  0.5555465774757156  0.8750000000000000
  0.1107506834190914  0.5559619389974164  0.3750000000000000
  0.7777907838399614  0.0555620585866490  0.8750000000000000
  0.2767388466563422  0.0525997258485574  0.3750000000000000
  0.4418677222387685  0.5628033450106619  0.3750000000000000
  0.7796445279868713  0.5564889306601019  0.3750000000000000
  0.6132492856908118  0.0551585382353841  0.3750000000000000
  0.4443825524990607  0.5555571214143336  0.8750000000000000
  0.9467688383800639  0.0571156536419702  0.3750000000000000
  0.2777533454431431  0.7222106487396012  0.8750000000000000
  0.1110521594422041  0.2221927463877662  0.8750000000000000
  0.4443825524990607  0.2221587644180634  0.8750000000000000
  0.6111098551735121  0.7222778085831640  0.8750000000000000
  0.9444651373026145  0.7222518931602347  0.8750000000000000
  0.7777969235505642  0.2221909163821581  0.8750000000000000
  0.1107828206258459  0.7220580769795872  0.3750000000000000
  0.4450996876292314  0.7266050759467262  0.3750000000000000
  0.2774133423756448  0.2193771427651198  0.3750000000000000
  0.7807241619194176  0.7263099248197198  0.3750000000000000
  0.6135992023803329  0.2184804766837674  0.3750000000000000
  0.9467688383800639  0.2229865180714293  0.3750000000000000
  0.1110702984216928  0.3888572753579891  0.8750000000000000
  0.2777533454431431  0.8888760300368699  0.8750000000000000
  0.6111118645072889  0.8889112367173186  0.8750000000000000
  0.4443399829303539  0.3888366581318411  0.8750000000000000
  0.9444556316251964  0.8889277512813786  0.8750000000000000
  0.1107506834190914  0.8881220777550048  0.3750000000000000
  0.7778073636741052  0.3888534494721804  0.8750000000000000
  0.4453876514920833  0.8893604924127062  0.3750000000000000
  0.2774133423756448  0.3913695329438540  0.3750000000000000
  0.2767388466563422  0.5574724541411208  0.3750000000000000
  0.6192592640153868  0.3798092591481805  0.3750000000000000
  0.7802698710358895  0.8916497835021618  0.3750000000000000
  0.9456823882876001  0.3888894451631094  0.3750000000000000
  0.1110978231378151  0.5555356949874147  0.8750000000000000
  0.2777240934365628  0.0555255331922078  0.8750000000000000
  0.7778090301786051  0.5555711817559703  0.8750000000000000
  0.6111118645072889  0.0555339611232995  0.8750000000000000
  0.9444384627942315  0.0555669507771159  0.8750000000000000
  0.0556190493072891  0.1111459687757847  0.1249373580015193
  0.5554721680293699  0.6113467928933410  0.1247127930248473
  0.3887794345303768  0.1108708081483835  0.1247795636431192
  0.8891666853522926  0.6112500093428173  0.1249045320645353
  0.7222538742835318  0.1110683046359218  0.1248827950572533
  0.0557126790742930  0.7778635206868043  0.6250725798984333
  0.3888502395742109  0.7778252162469929  0.6250896108286718
  0.2221877898988678  0.2777605616161015  0.6249888756812813
  0.7223102514227454  0.7779648048331707  0.6251940698840900
  0.5554721680293699  0.2774587084693648  0.6252872069751521
  0.8889950285212640  0.2777772620957590  0.6250791853966533
  0.2222694277363152  0.7778013805348251  0.1249597855618912
  0.0556190493072891  0.2778064138648400  0.1249373580015193
  0.3886203631029702  0.2773604675100559  0.1260317107609862
  0.5555082722464028  0.7779144240481085  0.1247873379379482
  0.8890999459154397  0.7779491414252437  0.1248926846222938
  0.7223102514227454  0.2776787799229117  0.1248059301159100
  0.0556571818748190  0.9445075516312016  0.6250803607818746
  0.3888502395742109  0.9443583566605547  0.6250896108286718
  0.2221946850311722  0.4444985106323557  0.6251391874355843
  0.5557684319652455  0.4445508826492870  0.6248586427189710
  0.7222538742835318  0.9445189029809463  0.6251172049427465
  0.8890999459154397  0.4444841378235316  0.6251073153777064
  0.0556571818748190  0.4444829635769465  0.1249196392181254
  0.2222427664698394  0.9444071436370570  0.1249369945384829
  0.5555286375420362  0.9444309854376826  0.1248981119603563
  0.3886203631029702  0.4445932289262499  0.1260317107609862
  0.8889950285212640  0.9445510997588406  0.1249208146033465
  0.7225178253571286  0.4445011540835310  0.1248376455824083
  0.2222427664698394  0.6111689561661174  0.6250630054615183
  0.0556190493072891  0.1111459687757847  0.6250626419984809
  0.5554721680293699  0.6113467928933410  0.6252872069751521
  0.3887794345303768  0.1108708081483835  0.6252204363568806
  0.8891666853522926  0.6112500093428173  0.6250954679354642
  0.0557126790742930  0.6111824917208240  0.1249274201015679
  0.7222538742835318  0.1110683046359218  0.6251172049427465
  0.2221946850311722  0.1110295077321521  0.1248608125644166
  0.3887794345303768  0.6112419597153352  0.1247795636431192
  0.7225178253571286  0.6113500046069330  0.1248376455824083
  0.5555082722464028  0.1109271815316281  0.1247873379379482
  0.3887794345303768  0.6112419597153352  0.6252204363568806
  0.8889623061507674  0.1111478197420552  0.1249398370107483
  0.2222694277363152  0.7778013805348251  0.6250402144381082
  0.0556190493072891  0.2778064138648400  0.6250626419984809
  0.3886203631029702  0.2773604675100557  0.6239682892390135
  0.5555082722464028  0.7779144240481085  0.6252126620620523
  0.8890999459154397  0.7779491414252437  0.6251073153777064
  0.7223102514227454  0.2776787799229113  0.6251940698840900
  0.0557126790742930  0.7778635206868043  0.1249274201015679
  0.3888502395742109  0.7778252162469929  0.1249103891713291
  0.2221877898988678  0.2777605616161015  0.1250111243187194
  0.7223102514227454  0.7779648048331707  0.1248059301159100
  0.5554721680293699  0.2774587084693648  0.1247127930248473
  0.8889950285212640  0.2777772620957590  0.1249208146033465
  0.0556571818748190  0.4444829635769465  0.6250803607818746
  0.2222427664698394  0.9444071436370570  0.6250630054615183
  0.5555286375420362  0.9444309854376826  0.6251018880396438
  0.3886203631029702  0.4445932289262499  0.6239682892390135
  0.8889950285212640  0.9445510997588406  0.6250791853966533
  0.0556571818748190  0.9445075516312016  0.1249196392181254
  0.7225178253571286  0.4445011540835310  0.6251623544175913
  0.3888502395742109  0.9443583566605547  0.1249103891713291
  0.2221946850311722  0.4444985106323557  0.1248608125644166
  0.2222427664698394  0.6111689561661174  0.1249369945384829
  0.5557684319652455  0.4445508826492870  0.1251413572810290
  0.7222538742835318  0.9445189029809463  0.1248827950572533
  0.8890999459154397  0.4444841378235316  0.1248926846222938
  0.0557126790742929  0.6111824917208240  0.6250725798984333
  0.2221946850311722  0.1110295077321521  0.6251391874355843
  0.7225178253571286  0.6113500046069330  0.6251623544175913
  0.5555082722464028  0.1109271815316281  0.6252126620620523
  0.8889623061507674  0.1111478197420552  0.6250601629892516
 
  0.00000000E+00  0.00000000E+00  0.00000000E+00
  0.00000000E+00  0.00000000E+00  0.00000000E+00
  0.00000000E+00  0.00000000E+00  0.00000000E+00
  0.00000000E+00  0.00000000E+00  0.00000000E+00
  0.00000000E+00  0.00000000E+00  0.00000000E+00
  0.00000000E+00  0.00000000E+00  0.00000000E+00
  0.00000000E+00  0.00000000E+00  0.00000000E+00
  0.00000000E+00  0.00000000E+00  0.00000000E+00
  0.00000000E+00  0.00000000E+00  0.00000000E+00
  0.00000000E+00  0.00000000E+00  0.00000000E+00
  0.00000000E+00  0.00000000E+00  0.00000000E+00
  0.00000000E+00  0.00000000E+00  0.00000000E+00
  0.00000000E+00  0.00000000E+00  0.00000000E+00
  0.00000000E+00  0.00000000E+00  0.00000000E+00
  0.00000000E+00  0.00000000E+00  0.00000000E+00
  0.00000000E+00  0.00000000E+00  0.00000000E+00
  0.00000000E+00  0.00000000E+00  0.00000000E+00
  0.00000000E+00  0.00000000E+00  0.00000000E+00
  0.00000000E+00  0.00000000E+00  0.00000000E+00
  0.00000000E+00  0.00000000E+00  0.00000000E+00
  0.00000000E+00  0.00000000E+00  0.00000000E+00
  0.00000000E+00  0.00000000E+00  0.00000000E+00
  0.00000000E+00  0.00000000E+00  0.00000000E+00
  0.00000000E+00  0.00000000E+00  0.00000000E+00
  0.00000000E+00  0.00000000E+00  0.00000000E+00
  0.00000000E+00  0.00000000E+00  0.00000000E+00
  0.00000000E+00  0.00000000E+00  0.00000000E+00
  0.00000000E+00  0.00000000E+00  0.00000000E+00
  0.00000000E+00  0.00000000E+00  0.00000000E+00
  0.00000000E+00  0.00000000E+00  0.00000000E+00
  0.00000000E+00  0.00000000E+00  0.00000000E+00
  0.00000000E+00  0.00000000E+00  0.00000000E+00
  0.00000000E+00  0.00000000E+00  0.00000000E+00
  0.00000000E+00  0.00000000E+00  0.00000000E+00
  0.00000000E+00  0.00000000E+00  0.00000000E+00
  0.00000000E+00  0.00000000E+00  0.00000000E+00
  0.00000000E+00  0.00000000E+00  0.00000000E+00
  0.00000000E+00  0.00000000E+00  0.00000000E+00
  0.00000000E+00  0.00000000E+00  0.00000000E+00
  0.00000000E+00  0.00000000E+00  0.00000000E+00
  0.00000000E+00  0.00000000E+00  0.00000000E+00
  0.00000000E+00  0.00000000E+00  0.00000000E+00
  0.00000000E+00  0.00000000E+00  0.00000000E+00
  0.00000000E+00  0.00000000E+00  0.00000000E+00
  0.00000000E+00  0.00000000E+00  0.00000000E+00
  0.00000000E+00  0.00000000E+00  0.00000000E+00
  0.00000000E+00  0.00000000E+00  0.00000000E+00
  0.00000000E+00  0.00000000E+00  0.00000000E+00
  0.00000000E+00  0.00000000E+00  0.00000000E+00
  0.00000000E+00  0.00000000E+00  0.00000000E+00
  0.00000000E+00  0.00000000E+00  0.00000000E+00
  0.00000000E+00  0.00000000E+00  0.00000000E+00
  0.00000000E+00  0.00000000E+00  0.00000000E+00
  0.00000000E+00  0.00000000E+00  0.00000000E+00
  0.00000000E+00  0.00000000E+00  0.00000000E+00
  0.00000000E+00  0.00000000E+00  0.00000000E+00
  0.00000000E+00  0.00000000E+00  0.00000000E+00
  0.00000000E+00  0.00000000E+00  0.00000000E+00
  0.00000000E+00  0.00000000E+00  0.00000000E+00
  0.00000000E+00  0.00000000E+00  0.00000000E+00
  0.00000000E+00  0.00000000E+00  0.00000000E+00
  0.00000000E+00  0.00000000E+00  0.00000000E+00
  0.00000000E+00  0.00000000E+00  0.00000000E+00
  0.00000000E+00  0.00000000E+00  0.00000000E+00
  0.00000000E+00  0.00000000E+00  0.00000000E+00
  0.00000000E+00  0.00000000E+00  0.00000000E+00
  0.00000000E+00  0.00000000E+00  0.00000000E+00
  0.00000000E+00  0.00000000E+00  0.00000000E+00
  0.00000000E+00  0.00000000E+00  0.00000000E+00
  0.00000000E+00  0.00000000E+00  0.00000000E+00
  0.00000000E+00  0.00000000E+00  0.00000000E+00
  0.00000000E+00  0.00000000E+00  0.00000000E+00
  0.00000000E+00  0.00000000E+00  0.00000000E+00
  0.00000000E+00  0.00000000E+00  0.00000000E+00
  0.00000000E+00  0.00000000E+00  0.00000000E+00
  0.00000000E+00  0.00000000E+00  0.00000000E+00
  0.00000000E+00  0.00000000E+00  0.00000000E+00
  0.00000000E+00  0.00000000E+00  0.00000000E+00
  0.00000000E+00  0.00000000E+00  0.00000000E+00
  0.00000000E+00  0.00000000E+00  0.00000000E+00
  0.00000000E+00  0.00000000E+00  0.00000000E+00
  0.00000000E+00  0.00000000E+00  0.00000000E+00
  0.00000000E+00  0.00000000E+00  0.00000000E+00
  0.00000000E+00  0.00000000E+00  0.00000000E+00
  0.00000000E+00  0.00000000E+00  0.00000000E+00
  0.00000000E+00  0.00000000E+00  0.00000000E+00
  0.00000000E+00  0.00000000E+00  0.00000000E+00
  0.00000000E+00  0.00000000E+00  0.00000000E+00
  0.00000000E+00  0.00000000E+00  0.00000000E+00
  0.00000000E+00  0.00000000E+00  0.00000000E+00
  0.00000000E+00  0.00000000E+00  0.00000000E+00
  0.00000000E+00  0.00000000E+00  0.00000000E+00
  0.00000000E+00  0.00000000E+00  0.00000000E+00
  0.00000000E+00  0.00000000E+00  0.00000000E+00
  0.00000000E+00  0.00000000E+00  0.00000000E+00
  0.00000000E+00  0.00000000E+00  0.00000000E+00
  0.00000000E+00  0.00000000E+00  0.00000000E+00
  0.00000000E+00  0.00000000E+00  0.00000000E+00
  0.00000000E+00  0.00000000E+00  0.00000000E+00
  0.00000000E+00  0.00000000E+00  0.00000000E+00
  0.00000000E+00  0.00000000E+00  0.00000000E+00
  0.00000000E+00  0.00000000E+00  0.00000000E+00
  0.00000000E+00  0.00000000E+00  0.00000000E+00
  0.00000000E+00  0.00000000E+00  0.00000000E+00
  0.00000000E+00  0.00000000E+00  0.00000000E+00
  0.00000000E+00  0.00000000E+00  0.00000000E+00
  0.00000000E+00  0.00000000E+00  0.00000000E+00
  0.00000000E+00  0.00000000E+00  0.00000000E+00
  0.00000000E+00  0.00000000E+00  0.00000000E+00
  0.00000000E+00  0.00000000E+00  0.00000000E+00
  0.00000000E+00  0.00000000E+00  0.00000000E+00
  0.00000000E+00  0.00000000E+00  0.00000000E+00
  0.00000000E+00  0.00000000E+00  0.00000000E+00
  0.00000000E+00  0.00000000E+00  0.00000000E+00
  0.00000000E+00  0.00000000E+00  0.00000000E+00
  0.00000000E+00  0.00000000E+00  0.00000000E+00
  0.00000000E+00  0.00000000E+00  0.00000000E+00
  0.00000000E+00  0.00000000E+00  0.00000000E+00
  0.00000000E+00  0.00000000E+00  0.00000000E+00
  0.00000000E+00  0.00000000E+00  0.00000000E+00
  0.00000000E+00  0.00000000E+00  0.00000000E+00
  0.00000000E+00  0.00000000E+00  0.00000000E+00
  0.00000000E+00  0.00000000E+00  0.00000000E+00
  0.00000000E+00  0.00000000E+00  0.00000000E+00
  0.00000000E+00  0.00000000E+00  0.00000000E+00
  0.00000000E+00  0.00000000E+00  0.00000000E+00
  0.00000000E+00  0.00000000E+00  0.00000000E+00
  0.00000000E+00  0.00000000E+00  0.00000000E+00
  0.00000000E+00  0.00000000E+00  0.00000000E+00
  0.00000000E+00  0.00000000E+00  0.00000000E+00
  0.00000000E+00  0.00000000E+00  0.00000000E+00
  0.00000000E+00  0.00000000E+00  0.00000000E+00
  0.00000000E+00  0.00000000E+00  0.00000000E+00
  0.00000000E+00  0.00000000E+00  0.00000000E+00
  0.00000000E+00  0.00000000E+00  0.00000000E+00
  0.00000000E+00  0.00000000E+00  0.00000000E+00
  0.00000000E+00  0.00000000E+00  0.00000000E+00
  0.00000000E+00  0.00000000E+00  0.00000000E+00
  0.00000000E+00  0.00000000E+00  0.00000000E+00
  0.00000000E+00  0.00000000E+00  0.00000000E+00
  0.00000000E+00  0.00000000E+00  0.00000000E+00
  0.00000000E+00  0.00000000E+00  0.00000000E+00
  0.00000000E+00  0.00000000E+00  0.00000000E+00
  0.00000000E+00  0.00000000E+00  0.00000000E+00
  0.00000000E+00  0.00000000E+00  0.00000000E+00
  0.00000000E+00  0.00000000E+00  0.00000000E+00
  0.00000000E+00  0.00000000E+00  0.00000000E+00
  0.00000000E+00  0.00000000E+00  0.00000000E+00
  0.00000000E+00  0.00000000E+00  0.00000000E+00
  0.00000000E+00  0.00000000E+00  0.00000000E+00
  0.00000000E+00  0.00000000E+00  0.00000000E+00
  0.00000000E+00  0.00000000E+00  0.00000000E+00
  0.00000000E+00  0.00000000E+00  0.00000000E+00
  0.00000000E+00  0.00000000E+00  0.00000000E+00
  0.00000000E+00  0.00000000E+00  0.00000000E+00
  0.00000000E+00  0.00000000E+00  0.00000000E+00
  0.00000000E+00  0.00000000E+00  0.00000000E+00
  0.00000000E+00  0.00000000E+00  0.00000000E+00
  0.00000000E+00  0.00000000E+00  0.00000000E+00
  0.00000000E+00  0.00000000E+00  0.00000000E+00
  0.00000000E+00  0.00000000E+00  0.00000000E+00
  0.00000000E+00  0.00000000E+00  0.00000000E+00
  0.00000000E+00  0.00000000E+00  0.00000000E+00
  0.00000000E+00  0.00000000E+00  0.00000000E+00
  0.00000000E+00  0.00000000E+00  0.00000000E+00
  0.00000000E+00  0.00000000E+00  0.00000000E+00
  0.00000000E+00  0.00000000E+00  0.00000000E+00
  0.00000000E+00  0.00000000E+00  0.00000000E+00
  0.00000000E+00  0.00000000E+00  0.00000000E+00
  0.00000000E+00  0.00000000E+00  0.00000000E+00
  0.00000000E+00  0.00000000E+00  0.00000000E+00
  0.00000000E+00  0.00000000E+00  0.00000000E+00
  0.00000000E+00  0.00000000E+00  0.00000000E+00
  0.00000000E+00  0.00000000E+00  0.00000000E+00
  0.00000000E+00  0.00000000E+00  0.00000000E+00
  0.00000000E+00  0.00000000E+00  0.00000000E+00
  0.00000000E+00  0.00000000E+00  0.00000000E+00
  0.00000000E+00  0.00000000E+00  0.00000000E+00
  0.00000000E+00  0.00000000E+00  0.00000000E+00
  0.00000000E+00  0.00000000E+00  0.00000000E+00
  0.00000000E+00  0.00000000E+00  0.00000000E+00
  0.00000000E+00  0.00000000E+00  0.00000000E+00
  0.00000000E+00  0.00000000E+00  0.00000000E+00
  0.00000000E+00  0.00000000E+00  0.00000000E+00
  0.00000000E+00  0.00000000E+00  0.00000000E+00
  0.00000000E+00  0.00000000E+00  0.00000000E+00
  0.00000000E+00  0.00000000E+00  0.00000000E+00
  0.00000000E+00  0.00000000E+00  0.00000000E+00
  0.00000000E+00  0.00000000E+00  0.00000000E+00
  0.00000000E+00  0.00000000E+00  0.00000000E+00
  0.00000000E+00  0.00000000E+00  0.00000000E+00
  0.00000000E+00  0.00000000E+00  0.00000000E+00
  0.00000000E+00  0.00000000E+00  0.00000000E+00
  0.00000000E+00  0.00000000E+00  0.00000000E+00
  0.00000000E+00  0.00000000E+00  0.00000000E+00
  0.00000000E+00  0.00000000E+00  0.00000000E+00
  0.00000000E+00  0.00000000E+00  0.00000000E+00
  0.00000000E+00  0.00000000E+00  0.00000000E+00
  0.00000000E+00  0.00000000E+00  0.00000000E+00
  0.00000000E+00  0.00000000E+00  0.00000000E+00
  0.00000000E+00  0.00000000E+00  0.00000000E+00
  0.00000000E+00  0.00000000E+00  0.00000000E+00
  0.00000000E+00  0.00000000E+00  0.00000000E+00
  0.00000000E+00  0.00000000E+00  0.00000000E+00
  0.00000000E+00  0.00000000E+00  0.00000000E+00
  0.00000000E+00  0.00000000E+00  0.00000000E+00
  0.00000000E+00  0.00000000E+00  0.00000000E+00
  0.00000000E+00  0.00000000E+00  0.00000000E+00
  0.00000000E+00  0.00000000E+00  0.00000000E+00
  0.00000000E+00  0.00000000E+00  0.00000000E+00
  0.00000000E+00  0.00000000E+00  0.00000000E+00
  0.00000000E+00  0.00000000E+00  0.00000000E+00
  0.00000000E+00  0.00000000E+00  0.00000000E+00
  0.00000000E+00  0.00000000E+00  0.00000000E+00
  0.00000000E+00  0.00000000E+00  0.00000000E+00
  0.00000000E+00  0.00000000E+00  0.00000000E+00
  0.00000000E+00  0.00000000E+00  0.00000000E+00
  0.00000000E+00  0.00000000E+00  0.00000000E+00
  0.00000000E+00  0.00000000E+00  0.00000000E+00
  0.00000000E+00  0.00000000E+00  0.00000000E+00
  0.00000000E+00  0.00000000E+00  0.00000000E+00
  0.00000000E+00  0.00000000E+00  0.00000000E+00
  0.00000000E+00  0.00000000E+00  0.00000000E+00
  0.00000000E+00  0.00000000E+00  0.00000000E+00
  0.00000000E+00  0.00000000E+00  0.00000000E+00
  0.00000000E+00  0.00000000E+00  0.00000000E+00
  0.00000000E+00  0.00000000E+00  0.00000000E+00
  0.00000000E+00  0.00000000E+00  0.00000000E+00
  0.00000000E+00  0.00000000E+00  0.00000000E+00
  0.00000000E+00  0.00000000E+00  0.00000000E+00
  0.00000000E+00  0.00000000E+00  0.00000000E+00
  0.00000000E+00  0.00000000E+00  0.00000000E+00
  0.00000000E+00  0.00000000E+00  0.00000000E+00
  0.00000000E+00  0.00000000E+00  0.00000000E+00
  0.00000000E+00  0.00000000E+00  0.00000000E+00
  0.00000000E+00  0.00000000E+00  0.00000000E+00
  0.00000000E+00  0.00000000E+00  0.00000000E+00
  0.00000000E+00  0.00000000E+00  0.00000000E+00
  0.00000000E+00  0.00000000E+00  0.00000000E+00
  0.00000000E+00  0.00000000E+00  0.00000000E+00
  0.00000000E+00  0.00000000E+00  0.00000000E+00
  0.00000000E+00  0.00000000E+00  0.00000000E+00
  0.00000000E+00  0.00000000E+00  0.00000000E+00
  0.00000000E+00  0.00000000E+00  0.00000000E+00
  0.00000000E+00  0.00000000E+00  0.00000000E+00
  0.00000000E+00  0.00000000E+00  0.00000000E+00
  0.00000000E+00  0.00000000E+00  0.00000000E+00
  0.00000000E+00  0.00000000E+00  0.00000000E+00