Al B N Se                               
   1.0000000000000000     
     8.7639499999999995  -15.1796066749929999    0.0000000000000000
     8.7639499999999995   15.1796066749929999    0.0000000000000000
     0.0000000000000000    0.0000000000000000   15.0000000000000000
   Al   B    N    Se
     1    49    47     1
Selective dynamics
Direct
  0.5268275010039133  0.6259485982597535  0.1120118989758037   T   T   T
  0.9079281968853513  0.9548841782928275  0.1110650910863693   T   T   T
  0.9043819067441998  0.0951897069939582  0.1110056327713062   T   T   T
  0.9037113371398859  0.2373557190441655  0.1110750278589211   T   T   T
  0.9045307792339611  0.3802134107094921  0.1109208850108192   T   T   T
  0.9078395219455430  0.5240123593057504  0.1111146587744563   T   T   T
  0.9122936514671610  0.6688170432920709  0.1114925715783211   T   T   T
  0.9117869268959059  0.8138287400601829  0.1113739905098292   T   T   T
  0.0496562290488155  0.9533199238564002  0.1109381155482743   T   T   T
  0.0465880196183849  0.0940578188515079  0.1108918971409978   T   T   T
  0.0449533407480565  0.2363594736141230  0.1109598849689967   T   T   T
  0.0449402356638098  0.3797602345664074  0.1108397662243200   T   T   T
  0.0464865941401239  0.5236519806375174  0.1106403330588385   T   T   T
  0.0495834975590843  0.6676624894366316  0.1108087047154802   T   T   T
  0.0506531939575530  0.8110464867394231  0.1110420580412228   T   T   T
  0.1909662169386591  0.9522551929488852  0.1110091692362428   T   T   T
  0.1887678126196445  0.0926063195439445  0.1109569310909457   T   T   T
  0.1849561813601026  0.2327828461973953  0.1109653260723361   T   T   T
  0.1849072556405160  0.3781992971363989  0.1112743247169312   T   T   T
  0.1850772026679336  0.5234524152570128  0.1110206427686814   T   T   T
  0.1879437055493378  0.6676377814543615  0.1106937848988085   T   T   T
  0.1907822739035031  0.8104972691315389  0.1107286044990156   T   T   T
  0.3328826811355157  0.9525283848380133  0.1107623886103186   T   T   T
  0.3322257995466793  0.0927960028168934  0.1111260981106301   T   T   T
  0.3277776384852667  0.2307267234592819  0.1110183007124180   T   T   T
  0.3216363901789887  0.3710515816001373  0.1117322441473918   T   T   T
  0.3227875375518872  0.5223406476226761  0.1121019615848341   T   T   T
  0.3260071990135538  0.6683595051936146  0.1119373614366097   T   T   T
  0.3317181656761448  0.8113205410466295  0.1107902086374105   T   T   T
  0.4755962336522297  0.9548093800118332  0.1103586314253135   T   T   T
  0.4757973440002749  0.0933896219741978  0.1108832956556031   T   T   T
  0.4750928173434620  0.2304999640483130  0.1113196406795429   T   T   T
  0.4659719291809564  0.3564612406305591  0.1109714986365915   T   T   T
  0.4459457858954246  0.5108365100829432  0.1086479454341516   T   T   T
  0.4632904999437903  0.6808750052296516  0.1099069448875956   T   T   T
  0.4743989870877950  0.8169597245332697  0.1121418174606569   T   T   T
  0.6192918771276156  0.9540422124904931  0.1107879246059229   T   T   T
  0.6192733234467265  0.0952903818892624  0.1106135109223791   T   T   T
  0.6197182425722996  0.2365372011665970  0.1111521496945518   T   T   T
  0.6213406375198435  0.3786557376300186  0.1111895855961819   T   T   T
  0.6451866045691550  0.5364934906161126  0.1093937543365229   T   T   T
  0.6463377491595675  0.6780261799349595  0.1113213836430469   T   T   T
  0.6199668774048099  0.8122250654191618  0.1118964278858973   T   T   T
  0.7632598627415719  0.9540130189246976  0.1110932649260450   T   T   T
  0.7619565136439274  0.0954933770221984  0.1108784734015336   T   T   T
  0.7621104005291680  0.2374837876064697  0.1110049637332624   T   T   T
  0.7637171841914698  0.3801112835602369  0.1111412921195691   T   T   T
  0.7702538943279945  0.5247571015828433  0.1112999815498147   T   T   T
  0.7802566357635279  0.6746342842551956  0.1106162667109357   T   T   T
  0.7702871430175531  0.8163138877062095  0.1112243444964745   T   T   T
  0.9560566102996156  0.9076885873567693  0.1110491038902915   T   T   T
  0.9528115952113191  0.0485598848179335  0.1109510065066540   T   T   T
  0.9507509486750984  0.1896636331586639  0.1110267085018015   T   T   T
  0.9507316359108834  0.3320890409512719  0.1109373535967380   T   T   T
  0.9525530300756759  0.4751881253479239  0.1108094501543730   T   T   T
  0.9560762818800209  0.6191926716777744  0.1110989844058022   T   T   T
  0.9569622280230580  0.7638891788581441  0.1112669724340068   T   T   T
  0.0967816940825089  0.9055762744968815  0.1109244942382620   T   T   T
  0.0948651823243564  0.0471622958800441  0.1108398711281461   T   T   T
  0.0915486345230033  0.1877985238611665  0.1108333743864767   T   T   T
  0.0910567461215407  0.3310932934096698  0.1109357995294813   T   T   T
  0.0914095348118767  0.4747714963659105  0.1106024254026409   T   T   T
  0.0941817788674114  0.6188272839255637  0.1105181301546604   T   T   T
  0.0965912721246367  0.7626523592741475  0.1108554299066323   T   T   T
  0.2382634767375850  0.9051602407713140  0.1109062184166744   T   T   T
  0.2375932937013349  0.0465265743575113  0.1110458242193614   T   T   T
  0.2339857574491310  0.1862388890758792  0.1108685959551627   T   T   T
  0.2289149506468918  0.3261255184961306  0.1113113490650744   T   T   T
  0.2293340825573101  0.4738508018517369  0.1114907060945644   T   T   T
  0.2322257190647407  0.6189014313192011  0.1111035958156208   T   T   T
  0.2369283696295658  0.7627733992115462  0.1104999266255236   T   T   T
  0.3804843272331948  0.9061813757561482  0.1103851371253186   T   T   T
  0.3807752086133083  0.0469006767526523  0.1109795477552957   T   T   T
  0.3795108917906310  0.1869008086025311  0.1110842283109291   T   T   T
  0.3732486413405839  0.3242912652394679  0.1110902068837961   T   T   T
  0.3572446503707971  0.4628884616821711  0.1123958433909607   T   T   T
  0.3699255295924594  0.6200420876396046  0.1121337698416665   T   T   T
  0.3783175817145970  0.7645681169986513  0.1116801401460032   T   T   T
  0.5240763470152049  0.9101470811208788  0.1105816403707347   T   T   T
  0.5242778542326780  0.0484588747686878  0.1104036195046713   T   T   T
  0.5244607160568793  0.1870453414678453  0.1111675015664441   T   T   T
  0.5243381077199037  0.3239373671705560  0.1114158498037746   T   T   T
  0.5228323588080063  0.7732487034497433  0.1130656923480225   T   T   T
  0.6679126316788064  0.9070338118757482  0.1112370693091595   T   T   T
  0.6672095956443318  0.0485702782000317  0.1105588743284215   T   T   T
  0.6673237111029388  0.1900165791826512  0.1108944120896333   T   T   T
  0.6683401368624862  0.3319439766320714  0.1112453789836916   T   T   T
  0.6752446328163845  0.4757090928607326  0.1106799676938855   T   T   T
  0.6894027265568099  0.6281449056202324  0.1087031940314309   T   T   T
  0.6769472017538013  0.7706435231141509  0.1113880736387377   T   T   T
  0.8142174992240726  0.9095846309898865  0.1111379604505039   T   T   T
  0.8097620372184205  0.0484505752060786  0.1109387863819379   T   T   T
  0.8092006692124752  0.1901088717454839  0.1110223132468767   T   T   T
  0.8099031005141822  0.3323082666568237  0.1109610546610711   T   T   T
  0.8136522134378590  0.4752897044583931  0.1112562610242327   T   T   T
  0.8194510719345816  0.6205746999499221  0.1116454718199788   T   T   T
  0.8189159823939186  0.7682175380792788  0.1114478303277587   T   T   T
  0.5238380832976527  0.4745766183850045  0.1104438939489310   T   T   T

  0.00000000E+00  0.00000000E+00  0.00000000E+00
  0.00000000E+00  0.00000000E+00  0.00000000E+00
  0.00000000E+00  0.00000000E+00  0.00000000E+00
  0.00000000E+00  0.00000000E+00  0.00000000E+00
  0.00000000E+00  0.00000000E+00  0.00000000E+00
  0.00000000E+00  0.00000000E+00  0.00000000E+00
  0.00000000E+00  0.00000000E+00  0.00000000E+00
  0.00000000E+00  0.00000000E+00  0.00000000E+00
  0.00000000E+00  0.00000000E+00  0.00000000E+00
  0.00000000E+00  0.00000000E+00  0.00000000E+00
  0.00000000E+00  0.00000000E+00  0.00000000E+00
  0.00000000E+00  0.00000000E+00  0.00000000E+00
  0.00000000E+00  0.00000000E+00  0.00000000E+00
  0.00000000E+00  0.00000000E+00  0.00000000E+00
  0.00000000E+00  0.00000000E+00  0.00000000E+00
  0.00000000E+00  0.00000000E+00  0.00000000E+00
  0.00000000E+00  0.00000000E+00  0.00000000E+00
  0.00000000E+00  0.00000000E+00  0.00000000E+00
  0.00000000E+00  0.00000000E+00  0.00000000E+00
  0.00000000E+00  0.00000000E+00  0.00000000E+00
  0.00000000E+00  0.00000000E+00  0.00000000E+00
  0.00000000E+00  0.00000000E+00  0.00000000E+00
  0.00000000E+00  0.00000000E+00  0.00000000E+00
  0.00000000E+00  0.00000000E+00  0.00000000E+00
  0.00000000E+00  0.00000000E+00  0.00000000E+00
  0.00000000E+00  0.00000000E+00  0.00000000E+00
  0.00000000E+00  0.00000000E+00  0.00000000E+00
  0.00000000E+00  0.00000000E+00  0.00000000E+00
  0.00000000E+00  0.00000000E+00  0.00000000E+00
  0.00000000E+00  0.00000000E+00  0.00000000E+00
  0.00000000E+00  0.00000000E+00  0.00000000E+00
  0.00000000E+00  0.00000000E+00  0.00000000E+00
  0.00000000E+00  0.00000000E+00  0.00000000E+00
  0.00000000E+00  0.00000000E+00  0.00000000E+00
  0.00000000E+00  0.00000000E+00  0.00000000E+00
  0.00000000E+00  0.00000000E+00  0.00000000E+00
  0.00000000E+00  0.00000000E+00  0.00000000E+00
  0.00000000E+00  0.00000000E+00  0.00000000E+00
  0.00000000E+00  0.00000000E+00  0.00000000E+00
  0.00000000E+00  0.00000000E+00  0.00000000E+00
  0.00000000E+00  0.00000000E+00  0.00000000E+00
  0.00000000E+00  0.00000000E+00  0.00000000E+00
  0.00000000E+00  0.00000000E+00  0.00000000E+00
  0.00000000E+00  0.00000000E+00  0.00000000E+00
  0.00000000E+00  0.00000000E+00  0.00000000E+00
  0.00000000E+00  0.00000000E+00  0.00000000E+00
  0.00000000E+00  0.00000000E+00  0.00000000E+00
  0.00000000E+00  0.00000000E+00  0.00000000E+00
  0.00000000E+00  0.00000000E+00  0.00000000E+00
  0.00000000E+00  0.00000000E+00  0.00000000E+00
  0.00000000E+00  0.00000000E+00  0.00000000E+00
  0.00000000E+00  0.00000000E+00  0.00000000E+00
  0.00000000E+00  0.00000000E+00  0.00000000E+00
  0.00000000E+00  0.00000000E+00  0.00000000E+00
  0.00000000E+00  0.00000000E+00  0.00000000E+00
  0.00000000E+00  0.00000000E+00  0.00000000E+00
  0.00000000E+00  0.00000000E+00  0.00000000E+00
  0.00000000E+00  0.00000000E+00  0.00000000E+00
  0.00000000E+00  0.00000000E+00  0.00000000E+00
  0.00000000E+00  0.00000000E+00  0.00000000E+00
  0.00000000E+00  0.00000000E+00  0.00000000E+00
  0.00000000E+00  0.00000000E+00  0.00000000E+00
  0.00000000E+00  0.00000000E+00  0.00000000E+00
  0.00000000E+00  0.00000000E+00  0.00000000E+00
  0.00000000E+00  0.00000000E+00  0.00000000E+00
  0.00000000E+00  0.00000000E+00  0.00000000E+00
  0.00000000E+00  0.00000000E+00  0.00000000E+00
  0.00000000E+00  0.00000000E+00  0.00000000E+00
  0.00000000E+00  0.00000000E+00  0.00000000E+00
  0.00000000E+00  0.00000000E+00  0.00000000E+00
  0.00000000E+00  0.00000000E+00  0.00000000E+00
  0.00000000E+00  0.00000000E+00  0.00000000E+00
  0.00000000E+00  0.00000000E+00  0.00000000E+00
  0.00000000E+00  0.00000000E+00  0.00000000E+00
  0.00000000E+00  0.00000000E+00  0.00000000E+00
  0.00000000E+00  0.00000000E+00  0.00000000E+00
  0.00000000E+00  0.00000000E+00  0.00000000E+00
  0.00000000E+00  0.00000000E+00  0.00000000E+00
  0.00000000E+00  0.00000000E+00  0.00000000E+00
  0.00000000E+00  0.00000000E+00  0.00000000E+00
  0.00000000E+00  0.00000000E+00  0.00000000E+00
  0.00000000E+00  0.00000000E+00  0.00000000E+00
  0.00000000E+00  0.00000000E+00  0.00000000E+00
  0.00000000E+00  0.00000000E+00  0.00000000E+00
  0.00000000E+00  0.00000000E+00  0.00000000E+00
  0.00000000E+00  0.00000000E+00  0.00000000E+00
  0.00000000E+00  0.00000000E+00  0.00000000E+00
  0.00000000E+00  0.00000000E+00  0.00000000E+00
  0.00000000E+00  0.00000000E+00  0.00000000E+00
  0.00000000E+00  0.00000000E+00  0.00000000E+00
  0.00000000E+00  0.00000000E+00  0.00000000E+00
  0.00000000E+00  0.00000000E+00  0.00000000E+00
  0.00000000E+00  0.00000000E+00  0.00000000E+00
  0.00000000E+00  0.00000000E+00  0.00000000E+00
  0.00000000E+00  0.00000000E+00  0.00000000E+00
  0.00000000E+00  0.00000000E+00  0.00000000E+00
  0.00000000E+00  0.00000000E+00  0.00000000E+00
  0.00000000E+00  0.00000000E+00  0.00000000E+00
