 Al B P N 
 1.0
 17.527899999999772   0.000000000000000   0.000000000000000
 -8.763949999999658  15.179606674993195   0.000000000000000
  0.000000000000001   0.000000000000002  15.000000000000000
 Al B P N 
   1  48   1  48
Cartesian
  4.776285235917733   7.362162403677510   1.150033001676630 
  7.524160431075183  14.467171710734858   1.670171202128970 
 15.022023676622153   1.446788823831481   1.644575401522890 
 13.766546761510776   3.612568252132474   1.643158189921080 
 12.519316063266292   5.780746232738182   1.673851057411170 
 11.293332732099525   7.953347419965188   1.719920755501545 
 10.054286796945107  10.134126797207147   1.737905561326815 
  8.806851435205266  12.323761127725863   1.709109255528240 
 -7.496489160081646  14.447858271852486   1.635353106220845 
 -0.002890293210132   1.429937425124773   1.670171202128970 
 -1.261679259248358   3.600009135292507   1.688881292456175 
 -2.508647541569688   5.773510036649509   1.719267466589355 
 -3.743172743299465   7.945617610764533   1.707360004836855 
 -4.982272399860030  10.115916624894581   1.666272213482145 
 -6.232247595061862  12.285421961621775   1.636309717205670 
 -4.991643598846686  14.434211115140656   1.636309717205670 
  2.494703224481516   1.390799721847206   1.709109255528240 
  1.235250142702533   3.571949209487023   1.721847552834555 
 -0.013819580978084   5.755208871293661   1.732800736299900 
 -1.251546054715226   7.939797246780534   1.809440020430220 
 -2.485371497895822  10.110644362622773   1.726566584722560 
 -3.733566533166137  12.275333880263226   1.639186279475460 
 -2.487809265976289  14.436453510359941   1.666272213482145 
  5.014699860597108   1.405306174261248   1.737905561326815 
  3.713432914236222   3.497998923122434   1.762542471917040 
  2.475696416251371   5.695343368978822   1.447200135865470 
  1.219774632688444   7.923182939710425   1.635400143898830 
  0.013346765902894  10.112052478426254   1.790916311443350 
 -1.234792901931004  12.276710029661224   1.726566584722560 
  0.011274642349260  14.448511237023467   1.707360004836855 
  7.522833168915421   1.422650606581207   1.719920755501545 
  6.269212269693002   3.562225177451817   1.812224948269005 
  4.947588372268751   5.522954381748971   1.502760943592970 
  2.512177325394641  10.161690067313129   1.635400143898995 
  1.262128569711692  12.293609409953319   1.809440020430220 
  2.509637582133042  14.465434837769768   1.719267466589355 
 10.017352654911639   1.447218490789135   1.673851057411170 
  8.761067459970059   3.614290162148412   1.749703749800835 
  7.493394478507485   5.793444917992199   1.784281433351340 
  6.454743101249379   8.133422947240401   1.502760943592970 
  5.069503880965497  10.187949682947849   1.447200135865515 
  3.772900836545819  12.314001028503958   1.732800736299900 
  5.015428719017159  14.472279078243755   1.688881292456175 
 12.518665215164329   1.451174012032971   1.643158189921080 
 11.263842448275259   3.616575767680733   1.659376844509785 
 10.014434346576065   5.785185290276456   1.749703749800835 
  8.813596350823396   7.969227679972249   1.812224948269005 
  7.591328240935415  10.214710655429771   1.762542471917040 
  6.288194028568305  12.323904747602542   1.721847552834555 
  3.081899600664862   8.340422673252981   0.024196102477605 
  8.781141747135127  13.752557562433827   1.656686210998020 
 16.272920458854227   0.724576962950248   1.649558959084290 
 15.016579879382112   2.888246125260992   1.646738992241565 
 13.770509906278448   5.056262192787054   1.665771565067520 
 12.538191712318007   7.225361598974403   1.683273168190920 
 11.298933330646825   9.399737874580790   1.700244537982725 
 10.047222413829150  11.579095200539305   1.689102022257375 
 -6.243368325912109  13.724362353986404   1.615898464291950 
  1.244468943832003   0.698657347089153   1.656686210998020 
 -0.016542808578879   2.870981122445646   1.704257104019550 
 -1.261432652048384   5.045231336536188   1.727785277971230 
 -2.495728682319997   7.219140854693300   1.755304152896790 
 -3.732257946806062   9.389539490202218   1.690718536177665 
 -4.981995963757965  11.558225683130376   1.629397389761280 
 -3.736752759803787  13.715050180157490   1.629397389761280 
  3.759782896748623   0.688930507438967   1.689102022257375 
  2.463981073713833   2.815179848075594   1.766972014157010 
  1.226116558806627   5.023998024761498   1.658848325860575 
 -0.004001373825229   7.206652667998314   1.817839449988395 
 -1.232619373042927   9.385460452880377   1.797531816529935 
 -2.480893578558992  11.552096545783806   1.687409599178055 
 -1.233746415415895  13.717088405866663   1.690718536177665 
  6.273017163361232   0.694595718260300   1.700244537982725 
  5.002355324357513   2.835158875736605   1.809777654617610 
  3.668196991001861   4.902440023704449   1.603563287492970 
  2.405675094938120   7.185645608965829   1.178153235746235 
  1.276215658472796   9.382928516408708   1.714592444206140 
  0.019605421409216  11.554377419368338   1.797531816529935 
  1.264138571498618  13.731421968053128   1.755304152896790 
  8.775711446241104   0.708554615682554   1.683273168190920 
  7.525052722283394   2.858622656912458   1.780091095313610 
  6.262984724575824   4.992656592320176   1.779026904827790 
  3.743848193832983   9.503429405606218   1.178153235746220 
  2.520817312671996  11.579766912940194   1.817839449988395 
  3.763947454888306  13.749445009126356   1.727785277971230 
 11.270365732314046   0.725885457260935   1.665771565067520 
 10.015845363590474   2.891522516165642   1.680873846045180 
  8.758224327460127   5.063188797278320   1.785933930905475 
  7.571687207296499   7.259395784386062   1.779026904827790 
  6.352423180766652   9.551656163409996   1.603563287492940 
  5.026110647718100  11.605780855248156   1.658848325860575 
  6.269348296226565  13.758463886813024   1.704257104019550 
 13.770957709172681   0.730765239422876   1.646738992241565 
 12.516510378596431   2.893341333973555   1.628786937328905 
 11.267765299860038   5.059868891664398   1.680873846045195 
 10.050848806769904   7.233429804770007   1.780091095313610 
  8.809820338364766   9.429881728039605   1.809777654617610 
  7.557935558540875  11.638167827239313   1.766972014157010 
