B N Ge O                                
   1.0000000000000000     
     8.7639499999999995  -15.1796066749929999    0.0000000000000000
     8.7639499999999995   15.1796066749929999    0.0000000000000000
     0.0000000000000000    0.0000000000000000   15.0000000000000000
   B    N    Ge   O 
    48    48     1     1
Selective dynamics
Direct
  0.9054289097797782  0.9531042715046114  0.1109896195127631   T   T   T
  0.9047308779270916  0.0952711432688993  0.1110377088917894   T   T   T
  0.9046176185244839  0.2378422450392960  0.1108045769816070   T   T   T
  0.9051665917138906  0.3808186455841743  0.1107518237842115   T   T   T
  0.9064361137550488  0.5241490283524773  0.1108371755296925   T   T   T
  0.9054659135515738  0.6672192950921630  0.1111190556773004   T   T   T
  0.9048327322863498  0.8096447004085870  0.1111010517181231   T   T   T
  0.0474977096383686  0.9525043115576129  0.1109033642265518   T   T   T
  0.0468977496913597  0.0945731114162326  0.1109896195127631   T   T   T
  0.0464877350818434  0.2373966251676158  0.1108760246177960   T   T   T
  0.0463831637378747  0.3808039138602812  0.1108018032062090   T   T   T
  0.0467999458591570  0.5243485644495538  0.1108745165958768   T   T   T
  0.0475610931806512  0.6673499357322691  0.1110060723186225   T   T   T
  0.0475307102798175  0.8099728457087844  0.1107704413364841   T   T   T
  0.1900291754872563  0.9524713109162135  0.1107704413364841   T   T   T
  0.1903573207873605  0.0951692889096497  0.1111010517181231   T   T   T
  0.1878367743309781  0.2356673104384091  0.1110018268499530   T   T   T
  0.1873561483592246  0.3800397202027470  0.1108500693095696   T   T   T
  0.1867735424122783  0.5244975159532314  0.1109309440424164   T   T   T
  0.1896019456349302  0.6676202694233285  0.1109430083441333   T   T   T
  0.1898922620667188  0.8101097591292642  0.1109078500384045   T   T   T
  0.3326520854647398  0.9524409280153197  0.1110060723186225   T   T   T
  0.3327827261048307  0.0945361076444121  0.1111190556773004   T   T   T
  0.3337114936019250  0.2379911384391152  0.1112335123583789   T   T   T
  0.3267448205717148  0.3770591079728261  0.1118851817881448   T   T   T
  0.3252192500689800  0.5239210956194597  0.1118849058846335   T   T   T
  0.3320050382582463  0.6679969829387403  0.1109356909694138   T   T   T
  0.3323817517736638  0.8104000755610188  0.1109430083441333   T   T   T
  0.4756534567474713  0.9532020753368019  0.1108745165958768   T   T   T
  0.4758529928444818  0.0935659074409618  0.1108371755296926   T   T   T
  0.4761477795391793  0.2331749656099735  0.1110865843964549   T   T   T
  0.4780843429354004  0.3718550386630756  0.1108987690946721   T   T   T
  0.4760809255775185  0.6747827711279908  0.1118849058846336   T   T   T
  0.4755045052437936  0.8132284787837708  0.1109309440424162   T   T   T
  0.6191981073357450  0.9536188574581297  0.1108018032062090   T   T   T
  0.6191833756117989  0.0948354294820928  0.1107518237842115   T   T   T
  0.6198245029676637  0.2362041979938031  0.1111343151721406   T   T   T
  0.6219045323828529  0.3780974888131651  0.1108385512780251   T   T   T
  0.6281469825329259  0.5219176782615400  0.1108987690946721   T   T   T
  0.6229429132231987  0.6732572006251764  0.1118851817881448   T   T   T
  0.6199623009932279  0.8126458728367462  0.1108500693095696   T   T   T
  0.7626053960284054  0.9535142861141547  0.1108760246177960   T   T   T
  0.7621597761567124  0.0953844026715434  0.1108045769816070   T   T   T
  0.7624816933047218  0.2375203278912225  0.1107624875368053   T   T   T
  0.7637978232021477  0.3801775182283048  0.1111343151721406   T   T   T
  0.7668270555860862  0.5238542416577928  0.1110865843964549   T   T   T
  0.7620108827569052  0.6662905275950863  0.1112335123583789   T   T   T
  0.7643347107575892  0.8121652468650779  0.1110018268499531   T   T   T
  0.9523923945576181  0.9049058445394625  0.1111545949163349   T   T   T
  0.9522832854083204  0.0477181165097440  0.1106783892616083   T   T   T
  0.9517846297115453  0.1901099637635568  0.1111550934841360   T   T   T
  0.9517828846976714  0.3328592004560845  0.1108900412389346   T   T   T
  0.9524630259697381  0.4760151477279656  0.1104381801335908   T   T   T
  0.9526490650252173  0.6193526564986699  0.1109438770761049   T   T   T
  0.9524877665238781  0.7622333413454631  0.1110995603418672   T   T   T
  0.0949960984499643  0.9050053034680280  0.1103818557833941   T   T   T
  0.0950955573785592  0.0476090073603306  0.1111545949163347   T   T   T
  0.0934235609618096  0.1890451620556546  0.1110403772283655   T   T   T
  0.0929261150441342  0.3323699981012493  0.1104319252833739   T   T   T
  0.0926458922726164  0.4760556052502837  0.1110499873762673   T   T   T
  0.0945372735820309  0.6195820453570197  0.1111146469904128   T   T   T
  0.0948754268475524  0.7624323425304852  0.1109031347556887   T   T   T
  0.2375690593875151  0.9051259750704599  0.1109031347556887   T   T   T
  0.2377680605725374  0.0475136353940846  0.1110995603418672   T   T   T
  0.2381521519758109  0.1903780188803247  0.1109810183474252   T   T   T
  0.2328333064173942  0.3294095849505964  0.1110905258450946   T   T   T
  0.2314487034155346  0.4756702324533386  0.1110609269170093   T   T   T
  0.2365047439762028  0.6199397416584734  0.1107585156646364   T   T   T
  0.2372650470784070  0.7627363548395726  0.1108957855450671   T   T   T
  0.3804193565609860  0.9054641283358794  0.1111146469904128   T   T   T
  0.3806487454193277  0.0473523368928065  0.1109438770761049   T   T   T
  0.3810151648884844  0.1896082355358689  0.1111719112084064   T   T   T
  0.3827575743327510  0.3343578230534692  0.1115388719189412   T   T   T
  0.3606112039331754  0.4681656869065353  0.1128144370923913   T   T   T
  0.3793927110773636  0.6206086908405766  0.1115530009767698   T   T   T
  0.3800616602594108  0.7634966579417547  0.1107585156646364   T   T   T
  0.5239457966667010  0.9073555096453759  0.1110499873762668   T   T   T
  0.5239862541889948  0.0475383759483118  0.1104381801335908   T   T   T
  0.5245116191114294  0.1878015541379097  0.1111249356982907   T   T   T
  0.5258203640874041  0.3269166525874759  0.1107466715671020   T   T   T
  0.5318357150104313  0.6393901979848100  0.1128144370923913   T   T   T
  0.5243311694636386  0.7685526985024580  0.1110609269170093   T   T   T
  0.6676314038157105  0.9070752868738692  0.1104319252833811   T   T   T
  0.6671422014609499  0.0482185172203120  0.1108900412389346   T   T   T
  0.6674382858660618  0.1896212506275993  0.1109766937106642   T   T   T
  0.6686833245552768  0.3313180773617159  0.1112030977968866   T   T   T
  0.6730847493294748  0.4741810378295658  0.1107466715670980   T   T   T
  0.6656435788634840  0.6172438275852830  0.1115388719189389   T   T   T
  0.6705918169664222  0.7671680955006123  0.1110905258450944   T   T   T
  0.8109562398623202  0.9065778409561633  0.1110403772283660   T   T   T
  0.8098914381544440  0.0482167722064227  0.1111550934841360   T   T   T
  0.8097664344323493  0.1902349674856421  0.1103211795977264   T   T   T
  0.8103801512904010  0.3325631160509301  0.1109766937106642   T   T   T
  0.8121998477801207  0.4754897828055503  0.1111249356982836   T   T   T
  0.8103931663820986  0.6189862370295310  0.1111719112084064   T   T   T
  0.8096233830376626  0.7618492499422027  0.1109810183474264   T   T   T
  0.4765967363773218  0.5234052848196967  0.1111702526495109   T   T   T
  0.5389544682064755  0.4610469337105223  0.1098363748195913   T   T   T

  0.00000000E+00  0.00000000E+00  0.00000000E+00
  0.00000000E+00  0.00000000E+00  0.00000000E+00
  0.00000000E+00  0.00000000E+00  0.00000000E+00
  0.00000000E+00  0.00000000E+00  0.00000000E+00
  0.00000000E+00  0.00000000E+00  0.00000000E+00
  0.00000000E+00  0.00000000E+00  0.00000000E+00
  0.00000000E+00  0.00000000E+00  0.00000000E+00
  0.00000000E+00  0.00000000E+00  0.00000000E+00
  0.00000000E+00  0.00000000E+00  0.00000000E+00
  0.00000000E+00  0.00000000E+00  0.00000000E+00
  0.00000000E+00  0.00000000E+00  0.00000000E+00
  0.00000000E+00  0.00000000E+00  0.00000000E+00
  0.00000000E+00  0.00000000E+00  0.00000000E+00
  0.00000000E+00  0.00000000E+00  0.00000000E+00
  0.00000000E+00  0.00000000E+00  0.00000000E+00
  0.00000000E+00  0.00000000E+00  0.00000000E+00
  0.00000000E+00  0.00000000E+00  0.00000000E+00
  0.00000000E+00  0.00000000E+00  0.00000000E+00
  0.00000000E+00  0.00000000E+00  0.00000000E+00
  0.00000000E+00  0.00000000E+00  0.00000000E+00
  0.00000000E+00  0.00000000E+00  0.00000000E+00
  0.00000000E+00  0.00000000E+00  0.00000000E+00
  0.00000000E+00  0.00000000E+00  0.00000000E+00
  0.00000000E+00  0.00000000E+00  0.00000000E+00
  0.00000000E+00  0.00000000E+00  0.00000000E+00
  0.00000000E+00  0.00000000E+00  0.00000000E+00
  0.00000000E+00  0.00000000E+00  0.00000000E+00
  0.00000000E+00  0.00000000E+00  0.00000000E+00
  0.00000000E+00  0.00000000E+00  0.00000000E+00
  0.00000000E+00  0.00000000E+00  0.00000000E+00
  0.00000000E+00  0.00000000E+00  0.00000000E+00
  0.00000000E+00  0.00000000E+00  0.00000000E+00
  0.00000000E+00  0.00000000E+00  0.00000000E+00
  0.00000000E+00  0.00000000E+00  0.00000000E+00
  0.00000000E+00  0.00000000E+00  0.00000000E+00
  0.00000000E+00  0.00000000E+00  0.00000000E+00
  0.00000000E+00  0.00000000E+00  0.00000000E+00
  0.00000000E+00  0.00000000E+00  0.00000000E+00
  0.00000000E+00  0.00000000E+00  0.00000000E+00
  0.00000000E+00  0.00000000E+00  0.00000000E+00
  0.00000000E+00  0.00000000E+00  0.00000000E+00
  0.00000000E+00  0.00000000E+00  0.00000000E+00
  0.00000000E+00  0.00000000E+00  0.00000000E+00
  0.00000000E+00  0.00000000E+00  0.00000000E+00
  0.00000000E+00  0.00000000E+00  0.00000000E+00
  0.00000000E+00  0.00000000E+00  0.00000000E+00
  0.00000000E+00  0.00000000E+00  0.00000000E+00
  0.00000000E+00  0.00000000E+00  0.00000000E+00
  0.00000000E+00  0.00000000E+00  0.00000000E+00
  0.00000000E+00  0.00000000E+00  0.00000000E+00
  0.00000000E+00  0.00000000E+00  0.00000000E+00
  0.00000000E+00  0.00000000E+00  0.00000000E+00
  0.00000000E+00  0.00000000E+00  0.00000000E+00
  0.00000000E+00  0.00000000E+00  0.00000000E+00
  0.00000000E+00  0.00000000E+00  0.00000000E+00
  0.00000000E+00  0.00000000E+00  0.00000000E+00
  0.00000000E+00  0.00000000E+00  0.00000000E+00
  0.00000000E+00  0.00000000E+00  0.00000000E+00
  0.00000000E+00  0.00000000E+00  0.00000000E+00
  0.00000000E+00  0.00000000E+00  0.00000000E+00
  0.00000000E+00  0.00000000E+00  0.00000000E+00
  0.00000000E+00  0.00000000E+00  0.00000000E+00
  0.00000000E+00  0.00000000E+00  0.00000000E+00
  0.00000000E+00  0.00000000E+00  0.00000000E+00
  0.00000000E+00  0.00000000E+00  0.00000000E+00
  0.00000000E+00  0.00000000E+00  0.00000000E+00
  0.00000000E+00  0.00000000E+00  0.00000000E+00
  0.00000000E+00  0.00000000E+00  0.00000000E+00
  0.00000000E+00  0.00000000E+00  0.00000000E+00
  0.00000000E+00  0.00000000E+00  0.00000000E+00
  0.00000000E+00  0.00000000E+00  0.00000000E+00
  0.00000000E+00  0.00000000E+00  0.00000000E+00
  0.00000000E+00  0.00000000E+00  0.00000000E+00
  0.00000000E+00  0.00000000E+00  0.00000000E+00
  0.00000000E+00  0.00000000E+00  0.00000000E+00
  0.00000000E+00  0.00000000E+00  0.00000000E+00
  0.00000000E+00  0.00000000E+00  0.00000000E+00
  0.00000000E+00  0.00000000E+00  0.00000000E+00
  0.00000000E+00  0.00000000E+00  0.00000000E+00
  0.00000000E+00  0.00000000E+00  0.00000000E+00
  0.00000000E+00  0.00000000E+00  0.00000000E+00
  0.00000000E+00  0.00000000E+00  0.00000000E+00
  0.00000000E+00  0.00000000E+00  0.00000000E+00
  0.00000000E+00  0.00000000E+00  0.00000000E+00
  0.00000000E+00  0.00000000E+00  0.00000000E+00
  0.00000000E+00  0.00000000E+00  0.00000000E+00
  0.00000000E+00  0.00000000E+00  0.00000000E+00
  0.00000000E+00  0.00000000E+00  0.00000000E+00
  0.00000000E+00  0.00000000E+00  0.00000000E+00
  0.00000000E+00  0.00000000E+00  0.00000000E+00
  0.00000000E+00  0.00000000E+00  0.00000000E+00
  0.00000000E+00  0.00000000E+00  0.00000000E+00
  0.00000000E+00  0.00000000E+00  0.00000000E+00
  0.00000000E+00  0.00000000E+00  0.00000000E+00
  0.00000000E+00  0.00000000E+00  0.00000000E+00
  0.00000000E+00  0.00000000E+00  0.00000000E+00
  0.00000000E+00  0.00000000E+00  0.00000000E+00
  0.00000000E+00  0.00000000E+00  0.00000000E+00
