Al B N                                  
   1.0000000000000000     
     8.7639499999999995  -15.1796066749929999    0.0000000000000000
     8.7639499999999995   15.1796066749929999    0.0000000000000000
     0.0000000000000000    0.0000000000000000   15.0000000000000000
   Al   B    N 
     1    48    48
Selective dynamics
Direct
  0.4935342593208661  0.5064671425961306  0.1110878996476583   T   T   T
  0.9058831138016433  0.9529951487138437  0.1110074847836395   T   T   T
  0.9046994409319328  0.0953025802640633  0.1110363635209309   T   T   T
  0.9042969266916762  0.2380425796598246  0.1110470371743111   T   T   T
  0.9043319151021603  0.3808494124362277  0.1109975144067701   T   T   T
  0.9049371903919681  0.5236422358597173  0.1110130181903193   T   T   T
  0.9060502648151971  0.6667371437517304  0.1110680474098790   T   T   T
  0.9068578464244831  0.8105047572397439  0.1110309577465851   T   T   T
  0.0482211655505917  0.9517808556454126  0.1109982489242530   T   T   T
  0.0470068724821601  0.0941189073943533  0.1110074847836395   T   T   T
  0.0466622487723582  0.2371973631785204  0.1109955159977399   T   T   T
  0.0469996335596461  0.3802952378105254  0.1110116936926706   T   T   T
  0.0479067609203901  0.5231824944621468  0.1110037098389184   T   T   T
  0.0486392981486625  0.6660400369540106  0.1110552253167115   T   T   T
  0.0487268000993742  0.8090133854058105  0.1110453879562797   T   T   T
  0.1909886357901934  0.9512752210966297  0.1110453879562797   T   T   T
  0.1894972639562580  0.0931441747715141  0.1110309577465851   T   T   T
  0.1879786672569295  0.2351184179931582  0.1109892410183615   T   T   T
  0.1890288636738012  0.3792080365460639  0.1109921190337901   T   T   T
  0.1908042869008955  0.5224820951492775  0.1110447583177550   T   T   T
  0.1917399644037307  0.6655184934982222  0.1110312851405345   T   T   T
  0.1915022576718708  0.8084997635241327  0.1110081888021873   T   T   T
  0.3339619842429871  0.9513627230473407  0.1110552253167115   T   T   T
  0.3332648774452679  0.0939517563807997  0.1110680474098790   T   T   T
  0.3304673680535892  0.2343450904048081  0.1109987876142512   T   T   T
  0.3283684903692109  0.3761717567618856  0.1110121065419938   T   T   T
  0.3338550644074080  0.5204611309809286  0.1111056843678131   T   T   T
  0.3352486395080904  0.6647533816889075  0.1110748947805670   T   T   T
  0.3344835276987759  0.8082620567922726  0.1110312851405345   T   T   T
  0.4768195267348522  0.9520952602756138  0.1110037098389184   T   T   T
  0.4763597853372804  0.0950648308040289  0.1110130181903193   T   T   T
  0.4756957833900339  0.2379540935134576  0.1110408470121647   T   T   T
  0.4709785438840053  0.3769703614124502  0.1111034593408661   T   T   T
  0.4795408902160700  0.6661469567895899  0.1111056843678131   T   T   T
  0.4775199260477222  0.8091977342951080  0.1110447583177550   T   T   T
  0.6197067833854788  0.9530023876363575  0.1110116936926706   T   T   T
  0.6191526087597760  0.0956701060938368  0.1109975144067701   T   T   T
  0.6187861496733009  0.2387268527597370  0.1110056428095169   T   T   T
  0.6179789899553263  0.3820230312406769  0.1110260591269558   T   T   T
  0.6230316597835527  0.5290234773129933  0.1111034593408661   T   T   T
  0.6238302644341177  0.6716335308277881  0.1110121065419938   T   T   T
  0.6207939846499398  0.8109731575222023  0.1109921190337901   T   T   T
  0.7628046580174838  0.9533397724236465  0.1109955159977399   T   T   T
  0.7619594415361787  0.0957050945043200  0.1110470371743111   T   T   T
  0.7615756411651328  0.2384263800308718  0.1110418293149259   T   T   T
  0.7612751684362662  0.3812158715227032  0.1110056428095169   T   T   T
  0.7620479276825459  0.5243062378069649  0.1110408470121647   T   T   T
  0.7656569307911950  0.6695346531434089  0.1109987876142512   T   T   T
  0.7648836032028449  0.8120233539390738  0.1109892410183615   T   T   T
  0.9536832269937729  0.9053668292531845  0.1109849233207520   T   T   T
  0.9523459129091491  0.0476554890088561  0.1110051099235177   T   T   T
  0.9516328240386541  0.1902007782698808  0.1110131722827053   T   T   T
  0.9517314627964744  0.3330685281881550  0.1110006923670607   T   T   T
  0.9525343616326848  0.4759632866033596  0.1109713206238819   T   T   T
  0.9535350965539849  0.6188833083463086  0.1110506445029167   T   T   T
  0.9539692958855288  0.7621262242623692  0.1110417623569698   T   T   T
  0.0959460965445742  0.9040553053734244  0.1110040853523517   T   T   T
  0.0946345726648131  0.0463181749242329  0.1109849233207520   T   T   T
  0.0932017662177772  0.1885362329780257  0.1109795242436622   T   T   T
  0.0936695044692920  0.3320959569164118  0.1109705298447644   T   T   T
  0.0950919142656051  0.4754140140387103  0.1109962693346160   T   T   T
  0.0961923109445052  0.6183975392712305  0.1110195402082365   T   T   T
  0.0963354391429997  0.7612640179091739  0.1110170497107992   T   T   T
  0.2387373840088312  0.9036659627749981  0.1110170497107992   T   T   T
  0.2378751776556362  0.0460321060324771  0.1110417623569698   T   T   T
  0.2353685213879025  0.1871074419920721  0.1109808571370633   T   T   T
  0.2335570750889499  0.3290317741837439  0.1109705099551835   T   T   T
  0.2372016932246536  0.4744091190864259  0.1110362637096836   T   T   T
  0.2391727071708106  0.6179253250797325  0.1110300178339860   T   T   T
  0.2391105195087024  0.7608908824093032  0.1110030879984798   T   T   T
  0.3816038626467684  0.9038090909734945  0.1110195402082365   T   T   T
  0.3811180935716900  0.0464663053640210  0.1110506445029167   T   T   T
  0.3800556394714159  0.1884040499898251  0.1110203024598217   T   T   T
  0.3754315206470455  0.3272958871718866  0.1109890067432375   T   T   T
  0.3753636418810976  0.4689519551158322  0.1110466987853578   T   T   T
  0.3826900062576636  0.6173113956603345  0.1111089487795789   T   T   T
  0.3820760768382664  0.7608286947471946  0.1110300178339860   T   T   T
  0.5245873878782854  0.9049094876523941  0.1109962693346160   T   T   T
  0.5240381153136370  0.0474670402853216  0.1109713206238819   T   T   T
  0.5235855460539276  0.1901744629649238  0.1110001748300623   T   T   T
  0.5226116398730535  0.3328990515637527  0.1110350268024557   T   T   T
  0.5310494468011646  0.6246377600369005  0.1110466987853578   T   T   T
  0.5255922828305702  0.7627997086933528  0.1110362637096836   T   T   T
  0.6679054450005851  0.9063318974487066  0.1109705298447644   T   T   T
  0.6669328737288406  0.0482699391215323  0.1110006923670607   T   T   T
  0.6665004307658072  0.1908621424462428  0.1110043480379864   T   T   T
  0.6661541632486269  0.3338472386683702  0.1109777666535158   T   T   T
  0.6671023503532436  0.4773897620439441  0.1110350268024557   T   T   T
  0.6727055147451102  0.6245698812709533  0.1109890067432375   T   T   T
  0.6709696277332532  0.7664443268290558  0.1109705099551835   T   T   T
  0.8114651689399737  0.9067996357002213  0.1109795242436622   T   T   T
  0.8098006236481177  0.0483685778793519  0.1110131722827053   T   T   T
  0.8092269268234350  0.1907744750945630  0.1110470458929185   T   T   T
  0.8091392594717558  0.3335009711511900  0.1110043480379864   T   T   T
  0.8098269389530750  0.4764158558630700  0.1110001748300623   T   T   T
  0.8115973519281723  0.6199457624465828  0.1110203024598217   T   T   T
  0.8128939599259254  0.7646328805301041  0.1109808571370633   T   T   T

  0.00000000E+00  0.00000000E+00  0.00000000E+00
  0.00000000E+00  0.00000000E+00  0.00000000E+00
  0.00000000E+00  0.00000000E+00  0.00000000E+00
  0.00000000E+00  0.00000000E+00  0.00000000E+00
  0.00000000E+00  0.00000000E+00  0.00000000E+00
  0.00000000E+00  0.00000000E+00  0.00000000E+00
  0.00000000E+00  0.00000000E+00  0.00000000E+00
  0.00000000E+00  0.00000000E+00  0.00000000E+00
  0.00000000E+00  0.00000000E+00  0.00000000E+00
  0.00000000E+00  0.00000000E+00  0.00000000E+00
  0.00000000E+00  0.00000000E+00  0.00000000E+00
  0.00000000E+00  0.00000000E+00  0.00000000E+00
  0.00000000E+00  0.00000000E+00  0.00000000E+00
  0.00000000E+00  0.00000000E+00  0.00000000E+00
  0.00000000E+00  0.00000000E+00  0.00000000E+00
  0.00000000E+00  0.00000000E+00  0.00000000E+00
  0.00000000E+00  0.00000000E+00  0.00000000E+00
  0.00000000E+00  0.00000000E+00  0.00000000E+00
  0.00000000E+00  0.00000000E+00  0.00000000E+00
  0.00000000E+00  0.00000000E+00  0.00000000E+00
  0.00000000E+00  0.00000000E+00  0.00000000E+00
  0.00000000E+00  0.00000000E+00  0.00000000E+00
  0.00000000E+00  0.00000000E+00  0.00000000E+00
  0.00000000E+00  0.00000000E+00  0.00000000E+00
  0.00000000E+00  0.00000000E+00  0.00000000E+00
  0.00000000E+00  0.00000000E+00  0.00000000E+00
  0.00000000E+00  0.00000000E+00  0.00000000E+00
  0.00000000E+00  0.00000000E+00  0.00000000E+00
  0.00000000E+00  0.00000000E+00  0.00000000E+00
  0.00000000E+00  0.00000000E+00  0.00000000E+00
  0.00000000E+00  0.00000000E+00  0.00000000E+00
  0.00000000E+00  0.00000000E+00  0.00000000E+00
  0.00000000E+00  0.00000000E+00  0.00000000E+00
  0.00000000E+00  0.00000000E+00  0.00000000E+00
  0.00000000E+00  0.00000000E+00  0.00000000E+00
  0.00000000E+00  0.00000000E+00  0.00000000E+00
  0.00000000E+00  0.00000000E+00  0.00000000E+00
  0.00000000E+00  0.00000000E+00  0.00000000E+00
  0.00000000E+00  0.00000000E+00  0.00000000E+00
  0.00000000E+00  0.00000000E+00  0.00000000E+00
  0.00000000E+00  0.00000000E+00  0.00000000E+00
  0.00000000E+00  0.00000000E+00  0.00000000E+00
  0.00000000E+00  0.00000000E+00  0.00000000E+00
  0.00000000E+00  0.00000000E+00  0.00000000E+00
  0.00000000E+00  0.00000000E+00  0.00000000E+00
  0.00000000E+00  0.00000000E+00  0.00000000E+00
  0.00000000E+00  0.00000000E+00  0.00000000E+00
  0.00000000E+00  0.00000000E+00  0.00000000E+00
  0.00000000E+00  0.00000000E+00  0.00000000E+00
  0.00000000E+00  0.00000000E+00  0.00000000E+00
  0.00000000E+00  0.00000000E+00  0.00000000E+00
  0.00000000E+00  0.00000000E+00  0.00000000E+00
  0.00000000E+00  0.00000000E+00  0.00000000E+00
  0.00000000E+00  0.00000000E+00  0.00000000E+00
  0.00000000E+00  0.00000000E+00  0.00000000E+00
  0.00000000E+00  0.00000000E+00  0.00000000E+00
  0.00000000E+00  0.00000000E+00  0.00000000E+00
  0.00000000E+00  0.00000000E+00  0.00000000E+00
  0.00000000E+00  0.00000000E+00  0.00000000E+00
  0.00000000E+00  0.00000000E+00  0.00000000E+00
  0.00000000E+00  0.00000000E+00  0.00000000E+00
  0.00000000E+00  0.00000000E+00  0.00000000E+00
  0.00000000E+00  0.00000000E+00  0.00000000E+00
  0.00000000E+00  0.00000000E+00  0.00000000E+00
  0.00000000E+00  0.00000000E+00  0.00000000E+00
  0.00000000E+00  0.00000000E+00  0.00000000E+00
  0.00000000E+00  0.00000000E+00  0.00000000E+00
  0.00000000E+00  0.00000000E+00  0.00000000E+00
  0.00000000E+00  0.00000000E+00  0.00000000E+00
  0.00000000E+00  0.00000000E+00  0.00000000E+00
  0.00000000E+00  0.00000000E+00  0.00000000E+00
  0.00000000E+00  0.00000000E+00  0.00000000E+00
  0.00000000E+00  0.00000000E+00  0.00000000E+00
  0.00000000E+00  0.00000000E+00  0.00000000E+00
  0.00000000E+00  0.00000000E+00  0.00000000E+00
  0.00000000E+00  0.00000000E+00  0.00000000E+00
  0.00000000E+00  0.00000000E+00  0.00000000E+00
  0.00000000E+00  0.00000000E+00  0.00000000E+00
  0.00000000E+00  0.00000000E+00  0.00000000E+00
  0.00000000E+00  0.00000000E+00  0.00000000E+00
  0.00000000E+00  0.00000000E+00  0.00000000E+00
  0.00000000E+00  0.00000000E+00  0.00000000E+00
  0.00000000E+00  0.00000000E+00  0.00000000E+00
  0.00000000E+00  0.00000000E+00  0.00000000E+00
  0.00000000E+00  0.00000000E+00  0.00000000E+00
  0.00000000E+00  0.00000000E+00  0.00000000E+00
  0.00000000E+00  0.00000000E+00  0.00000000E+00
  0.00000000E+00  0.00000000E+00  0.00000000E+00
  0.00000000E+00  0.00000000E+00  0.00000000E+00
  0.00000000E+00  0.00000000E+00  0.00000000E+00
  0.00000000E+00  0.00000000E+00  0.00000000E+00
  0.00000000E+00  0.00000000E+00  0.00000000E+00
  0.00000000E+00  0.00000000E+00  0.00000000E+00
  0.00000000E+00  0.00000000E+00  0.00000000E+00
  0.00000000E+00  0.00000000E+00  0.00000000E+00
  0.00000000E+00  0.00000000E+00  0.00000000E+00
  0.00000000E+00  0.00000000E+00  0.00000000E+00
