 B O N 
 1.0
 14.936314146199660   0.000000000000000   0.000000000000000
 -7.468157073099825  12.935227489513863   0.000000000000000
  0.000000000000001   0.000000000000001  13.341276283792837
 B O N 
 143   1 143
Cartesian
  1.221840022600137   0.709638768574161   5.002978606422314 
  5.179783902926189   7.005920059068595   5.002978606422314 
  6.201849695715588   0.772754202896757   5.002978606422314 
 10.004171362235134   7.206251057264204   5.002978606422314 
 11.172380197913689   0.701386719414882   5.002978606422314 
 -3.734061699692790   9.342118463190635  11.673616748318732 
  1.244718665723518   9.342052387613586  11.673616748318732 
  2.489514964668838   2.874600007794409  11.673616748318732 
  6.223467023658446   9.341985920768053  11.673616748318732 
  7.468023065825933   2.874572115871710  11.673616748318732 
 12.446950625635905   2.874541809699125  11.673616748318732 
 -1.213653470465922   9.344509188845166   5.002978606422314 
 -0.059323411572026   2.840244610029336   5.002978606422314 
  4.930943838756800   2.978057376316948   5.002978606422314 
  3.789094706906856   9.225589742214229   5.002978606422314 
  8.753496471723496   9.372483511381018   5.002978606422314 
  9.920654866255477   2.884624436730887   5.002978606422314 
 -4.978739603103310  11.497994262276707  11.673616748318732 
 -0.000008428361450  11.497975124562181  11.673616748318732 
  1.244848423770063   5.030425695112107  11.673616748318732 
  6.223346059003846   5.030407822066896  11.673616748318732 
  4.978785236885023  11.497899828183915  11.673616748318732 
 11.202223922953667   5.030420689897827  11.673616748318732 
 -1.263900478637648   5.015067611149763   5.002978606422314 
 -2.471787155929043  11.523660654781187   5.002978606422314 
  2.494225121278247  11.456570552063692   5.002978606422314 
  7.470443815406601  11.494667493387739   5.002978606422314 
  8.722160563173802   5.061516814975380   5.002978606422314 
  0.000082858900225   7.186249327654935  11.673616748318732 
  1.244763505704435   0.718650219148732  11.673616748318732 
  4.978748303774535   7.186114369110251  11.673616748318732 
  6.223428332986853   0.718674287779091  11.673616748318732 
  9.957523203805962   7.186246657014288  11.673616748318732 
 -2.459106367388703   7.190447414692029   5.002978606422314 
 11.202219889156574   0.718614673186497  11.673616748318732 
  3.730189523239809   0.753322994728211   5.002978606422314 
  2.555159570163200   7.093036437343956   5.002978606422314 
  7.551196620736407   7.234180399355763   5.002978606422314 
  8.679408007941674   0.743519538257026   5.002978606422314 
  2.489474238659060   7.186146536576025  11.673616748318732 
 13.658813732156331   0.691790568938086   5.002978606422314 
 -1.244655194362855   9.342115183144747  11.673616748318732 
  0.000095503431247   2.874550136601449  11.673616748318732 
  4.978736884288591   2.874617160962325  11.673616748318732 
  3.734078319234981   9.341954129622181  11.673616748318732 
  8.712848073705029   9.342087221266528  11.673616748318732 
  9.957480268785213   2.874547077541972  11.673616748318732 
 -3.698227693860408   9.362807236104091   5.002978606422314 
  1.280763927414275   9.296324781998813   5.002978606422314 
  2.410379299520665   2.856032561478170   5.002978606422314 
  6.255096734004403   9.334596712612234   5.002978606422314 
  7.394756744070801   2.980399898923931   5.002978606422314 
 12.407286454943575   2.859499400128930   5.002978606422314 
 -1.244634591962966   5.030414204574010  11.673616748318732 
 -2.489361287630893  11.498009377175569  11.673616748318732 
  2.489352085282054  11.497914421564545  11.673616748318732 
  3.734127453762515   5.030394488287882  11.673616748318732 
  7.468198379617919  11.497942647715373  11.673616748318732 
 -4.959985822128010  11.522097693905685   5.002978606422314 
  8.712744949977623   5.030430078223514  11.673616748318732 
  0.007816467772904  11.502492830451740   5.002978606422314 
  1.189200711002710   4.971175921906529   5.002978606422314 
  0.028105921276209   7.165519887196809   5.002978606422314 
  6.167811008466192   5.294606913018082   5.002978606422314 
  4.969099784680815  11.460969414494116   5.002978606422314 
 11.200510273998981   5.034002871497183   5.002978606422314 
 -2.489357441985432   7.186257879764900  11.673616748318732 
  3.734130214094785   0.718689590589723  11.673616748318732 
  7.468074268429920   7.186189686875919  11.673616748318732 
  8.712776331222072   0.718627430540328  11.673616748318732 
 13.691672926324411   0.718619543592591  11.673616748318732 
 -0.000598223365429   1.436968209315113   1.667361545568411 
  3.734571874510049   7.903837591530576   1.668064622170078 
  4.978521489018782   1.438062835371248   1.668157925860874 
  8.712998857189637   7.904947233317198   1.667655535847781 
  9.956897010308353   1.437109731281592   1.667896891133539 
 -4.978636861393618  10.060907759978395   8.338303364155218 
  0.000116590156094  10.060511014980301   8.338262478546532 
  1.244286389007505   3.592884079312236   8.338116966298157 
  4.978732897331688  10.060080046652878   8.338165473156709 
  6.222824387873579   3.594057816323958   8.337892590674562 
 11.201758437416387   3.593011534969619   8.338308469490457 
 -2.489222460529785  10.060826733019258   1.667632476524363 
 -1.245233829018496   3.592740315215500   1.667361545568411 
  3.733843283765973   3.594216379892649   1.670528810173808 
  2.489456741195576  10.060062495630687   1.668143539021924 
  7.468081200542276  10.060604584139780   1.667640795139602 
  8.712265642138819   3.593411640924794   1.667791739687919 
 -6.223636402837123  12.216639011193351   8.338333989730730 
 -1.244826355029023  12.216815448565374   8.338262478546532 
  0.000149494947058   5.748562179010134   8.337973436775100 
  4.977862084068466   5.748465011895487   8.337646784889005 
  3.733636349436564  12.216113384656275   8.338060321711088 
  9.957394056533031   5.748988241629376   8.338316417705039 
 -2.489441232994248   5.748823251647151   1.667623223113898 
 -3.734109235122447  12.216965741089171   1.667606593406712 
  1.244367601317271  12.216415960270337   1.667893379685394 
  2.490218642534847   5.748237444049590   1.670528810173808 
  6.223132793049099  12.216244102879163   1.667648743354170 
  7.467713686798497   5.749137701915044   1.667131155613497 
 -1.244394692747004   7.904653657351779   8.338350619437916 
 -0.000598223365429   1.436968209315114   8.338595667276216 
  3.734571874510050   7.903837591530577   8.337892590674562 
  4.978521489018783   1.438062835371249   8.337799286983767 
  8.712998857189637   7.904947233317199   8.338301676996860 
 -3.733859489556699   7.904890107844778   1.667653848689396 
  9.956897010308353   1.437109731281592   8.338060321711088 
  2.489089938697411   1.437590873421464   1.667983776069530 
  1.245274001145816   7.904237161596145   1.668157925860874 
  6.223370452079240   7.904403406503419   1.667131155613497 
  7.467612364439704   1.437644028187087   1.668143539021924 
  1.245274001145817   7.904237161596146   8.337799286983767 
 12.446322719877278   1.436897777402735   1.667567841187935 
 -2.489222460529785  10.060826733019258   8.338324736320278 
 -1.245233829018495   3.592740315215501   8.338595667276216 
  3.733843283765974   3.594216379892650   8.335428402670820 
  2.489456741195576  10.060062495630687   8.337813673822703 
  7.468081200542277  10.060604584139780   8.338316417705039 
  8.712265642138819   3.593411640924795   8.338165473156709 
 -4.978636861393619  10.060907759978395   1.667653848689396 
  0.000116590156093  10.060511014980301   1.667694734298096 
  1.244286389007504   3.592884079312235   1.667840246546470 
  4.978732897331687  10.060080046652878   1.667791739687919 
  6.222824387873578   3.594057816323957   1.668064622170078 
 11.201758437416387   3.593011534969619   1.667648743354170 
 -2.489441232994247   5.748823251647152   8.338333989730730 
 -3.734109235122446  12.216965741089171   8.338350619437916 
  1.244367601317272  12.216415960270337   8.338063833159234 
  2.490218642534848   5.748237444049591   8.335428402670820 
  6.223132793049100  12.216244102879163   8.338308469490457 
 -6.223636402837124  12.216639011193351   1.667623223113898 
  7.467713686798498   5.749137701915045   8.338826057231131 
 -1.244826355029024  12.216815448565374   1.667694734298096 
  0.000149494947058   5.748562179010133   1.667983776069530 
 -1.244394692747004   7.904653657351778   1.667606593406712 
  4.977862084068465   5.748465011895486   1.668310427955623 
  3.733636349436564  12.216113384656275   1.667896891133539 
  9.957394056533031   5.748988241629375   1.667640795139602 
 -3.733859489556699   7.904890107844779   8.338303364155218 
  2.489089938697411   1.437590873421465   8.337973436775100 
  6.223370452079241   7.904403406503420   8.338826057231131 
  7.467612364439705   1.437644028187088   8.337813673822703 
 12.446322719877278   1.436897777402736   8.338389371656707 
  3.649334678206396   4.981439356495213   5.002978606422314 
  1.244233749471921   0.718607538231767   1.668025757430950 
  4.979277270695167   7.185860801497975   1.665054941195113 
  6.223114976231725   0.718845885882557   1.667833384128376 
  9.957811825927180   7.186309448023836   1.668103631708882 
 11.201582485639104   0.718246668094101   1.668252871451655 
 -3.733973595419456   9.342169330216567   8.338111134674991 
  1.244710595662789   9.341695213651478   8.338123828716252 
  2.488701549291272   2.874522355087799   8.336434221154843 
  6.223639036292354   9.342006229128089   8.338333557802843 
  7.467626230327141   2.874876891785884   8.337312751650462 
 12.446279806467810   2.874128466241148   8.338182225137984 
 -1.244641862948794   9.341958055973384   1.667626805210118 
 -0.000841688692066   2.874009048476771   1.667358181194682 
  4.978634019425495   2.874984304720078   1.668746847909038 
  3.734143845169735   9.341458072041988   1.668644461194154 
  8.713046763375026   9.342305779850834   1.668103631708882 
  9.957013647886805   2.874443898022577   1.668348461809496 
 -4.978850206680567  11.498184598524562   8.338128247537870 
 -0.000222697040093  11.497851416482904   8.338240304057100 
  1.244374466864691   5.029760083084597   8.336434221154843 
  6.223390946470356   5.030992704664062   8.340902271649513 
  4.978462570350858  11.497547312391680   8.337608751035132 
 11.202162865641965   5.030232828852744   8.338089302299442 
 -1.244936432837579   5.029976762677334   1.668025757430950 
 -2.489490698045865  11.498099486104456   1.667626805210118 
  2.489030740056030  11.497532119112815   1.668206430141516 
  3.733794912178912   5.030202495315063   1.666866364067918 
  7.468005158524658  11.497983701054867   1.667867910545185 
  8.712848543850285   5.030568891354218   1.667623655041786 
  0.000138629081673   7.185842352749692   8.338004427990246 
  1.244233749471921   0.718607538231767   8.337931455413676 
  4.979277270695168   7.185860801497975   8.340902271649513 
  6.223114976231725   0.718845885882557   8.338123828716252 
  9.957811825927180   7.186309448023837   8.337853581135759 
 -2.489247907748164   7.186066926133328   1.667828965306757 
 11.201582485639104   0.718246668094102   8.337704341392973 
  3.733805648578879   0.718941376436226   1.667952784854381 
  2.489740762048559   7.185873881112562   1.668746847909038 
  7.468581182264328   7.186482353714680   1.668148824747401 
  8.712284574973935   0.718540288637071   1.668206430141516 
  2.489740762048559   7.185873881112563   8.337210364935588 
 13.690979550805269   0.718245268880661   1.667774987706642 
 -1.244641862948793   9.341958055973384   8.338330407634523 
 -0.000841688692066   2.874009048476772   8.338599031649945 
  4.978634019425495   2.874984304720079   8.337210364935588 
  3.734143845169735   9.341458072041988   8.337312751650462 
  8.713046763375026   9.342305779850834   8.337853581135759 
  9.957013647886805   2.874443898022577   8.337608751035132 
 -3.733973595419457   9.342169330216567   1.667846078169650 
  1.244710595662789   9.341695213651478   1.667833384128376 
  2.488701549291271   2.874522355087798   1.669522991689798 
  6.223639036292353   9.342006229128089   1.667623655041786 
  7.467626230327140   2.874876891785883   1.668644461194154 
 12.446279806467810   2.874128466241147   1.667774987706642 
 -1.244936432837578   5.029976762677335   8.337931455413676 
 -2.489490698045864  11.498099486104456   8.338330407634523 
  2.489030740056031  11.497532119112815   8.337750782703111 
  3.733794912178912   5.030202495315064   8.339090848776722 
  7.468005158524659  11.497983701054867   8.338089302299442 
 -4.978850206680568  11.498184598524562   1.667828965306757 
  8.712848543850285   5.030568891354219   8.338333557802843 
 -0.000222697040093  11.497851416482904   1.667716908787527 
  1.244374466864691   5.029760083084597   1.669522991689798 
  0.000138629081673   7.185842352749691   1.667952784854381 
  6.223390946470355   5.030992704664061   1.665054941195113 
  4.978462570350858  11.497547312391680   1.668348461809496 
 11.202162865641965   5.030232828852743   1.667867910545185 
 -2.489247907748163   7.186066926133329   8.338128247537870 
  3.733805648578880   0.718941376436227   8.338004427990246 
  7.468581182264329   7.186482353714680   8.337808388097239 
  8.712284574973935   0.718540288637071   8.337750782703111 
 13.690979550805269   0.718245268880662   8.338182225137984 
 -0.036209627480239   1.409166440063091   5.002978606422314 
  3.853544396332180   7.730900916857550   5.002978606422314 
  4.955922669423722   1.513411983018865   5.002978606422314 
  8.777643659425785   7.942269927289967   5.002978606422314 
  9.930275229360877   1.442793258237345   5.002978606422314 
 -4.978764366612237  10.060746389385647  11.673616748318732 
  0.000018084597901  10.060754722473469  11.673616748318732 
  1.244684014197569   3.593113648322757  11.673616748318732 
  4.978783351529956  10.060730799819869  11.673616748318732 
  6.223463453289274   3.593118425688411  11.673616748318732 
 11.202256989741409   3.593153950665879  11.673616748318732 
 -2.455756875220063  10.080148097706424   5.002978606422314 
 -1.287116569518304   3.575800819213652   5.002978606422314 
  3.623589668332279   3.580011729847752   5.002978606422314 
  2.534413995382092   9.991881425677914   5.002978606422314 
  7.493063168513777  10.064643988150191   5.002978606422314 
  8.679795782705199   3.629009888795552   5.002978606422314 
 -6.223454189984511  12.216599602978169  11.673616748318732 
 -1.244664550927945  12.216608286502982  11.673616748318732 
 -0.000014956520683   5.748996447785374  11.673616748318732 
  4.978760019186857   5.748983434977797  11.673616748318732 
  3.734075063429217  12.216597836911031  11.673616748318732 
  9.957587078154100   5.749014473003926  11.673616748318732 
 -2.489887616623314   5.750068427931107   5.002978606422314 
 -3.718446692210071  12.247158388596782   5.002978606422314 
  1.247374718394103  12.218152120124133   5.002978606422314 
  2.422790247027259   5.659857337247368   5.002978606422314 
  6.208950796470188  12.190503104560310   5.002978606422314 
  7.504386964376291   5.807725033118436   5.002978606422314 
 -1.244696631675405   7.904864604081031  11.673616748318732 
  0.000014437640326   1.437230457123488  11.673616748318732 
  3.734077871063436   7.904860733733024  11.673616748318732 
  4.978787359622694   1.437251532643320  11.673616748318732 
  8.712883822755376   7.904880818155622  11.673616748318732 
 -3.692677027704770   7.923000265739399   5.002978606422314 
  9.957535915264218   1.437247442616849  11.673616748318732 
  2.463564542377460   1.431418905242385   5.002978606422314 
  1.299228867364620   7.846991435907487   5.002978606422314 
  6.292445208030190   7.906869730924158   5.002978606422314 
  7.431044452896642   1.510668687373417   5.002978606422314 
  1.244704327675227   7.904873063657216  11.673616748318732 
 12.414972488340293   1.418797712785707   5.002978606422314 
 -2.489376823613953  10.060737611451046  11.673616748318732 
 -1.244700385251479   3.593139771306206  11.673616748318732 
  3.734080815802419   3.593111282005222  11.673616748318732 
  2.489375651601145  10.060740151981944  11.673616748318732 
  7.468200428389532  10.060758630079858  11.673616748318732 
  8.712854438012172   3.593129958958705  11.673616748318732 
 -4.942361773664375  10.087517739185254   5.002978606422314 
  0.035442962429104  10.050536408601140   5.002978606422314 
  1.172162453974510   3.551243306005913   5.002978606422314 
  4.993326954601176  10.014161199590662   5.002978606422314 
  6.132543095271806   3.783559379910723   5.002978606422314 
 11.172375080664027   3.593600064815336   5.002978606422314 
 -2.489384255083414   5.749000756714014  11.673616748318732 
 -3.734077519360277  12.216598780942173  11.673616748318732 
  1.244683126043790  12.216598128556122  11.673616748318732 
  2.489380365708890   5.748995701771080  11.673616748318732 
  6.223505404822461  12.216604654009632  11.673616748318732 
 -6.222781240357570  12.215629843488781   5.002978606422314 
  7.468171843165267   5.749006141304042  11.673616748318732 
 -1.235801431409621  12.252396287566928   5.002978606422314 
 -0.017958284447357   5.729542521444942   5.002978606422314 
 -1.210415821541709   7.903121493647941   5.002978606422314 
  3.725247537689594  12.190216482583912   5.002978606422314 
  9.973383267007939   5.768603558524033   5.002978606422314 
 -3.734062993198746   7.904860370382703  11.673616748318732 
  2.489383800754962   1.437231319885104  11.673616748318732 
  6.223485595431366   7.904865961861437  11.673616748318732 
  7.468158687257706   1.437234974362713  11.673616748318732 
 12.446948334659256   1.437258976265511  11.673616748318732 
Generated by cif2cell 2.0.0.  :  Failed to get author information, No journal information. Species order: B O N 
 1.0
 14.936314146199660   0.000000000000000   0.000000000000000
 -7.468157073099825  12.935227489513863   0.000000000000000
  0.000000000000001   0.000000000000001  13.341276283792837
 B O N 
 143   1 143
Cartesian
  1.221840022600137   0.709638768574161   5.002978606422314 
  5.179783902926189   7.005920059068595   5.002978606422314 
  6.201849695715588   0.772754202896757   5.002978606422314 
 10.004171362235134   7.206251057264204   5.002978606422314 
 11.172380197913689   0.701386719414882   5.002978606422314 
 -3.734061699692790   9.342118463190635  11.673616748318732 
  1.244718665723518   9.342052387613586  11.673616748318732 
  2.489514964668838   2.874600007794409  11.673616748318732 
  6.223467023658446   9.341985920768053  11.673616748318732 
  7.468023065825933   2.874572115871710  11.673616748318732 
 12.446950625635905   2.874541809699125  11.673616748318732 
 -1.213653470465922   9.344509188845166   5.002978606422314 
 -0.059323411572026   2.840244610029336   5.002978606422314 
  4.930943838756800   2.978057376316948   5.002978606422314 
  3.789094706906856   9.225589742214229   5.002978606422314 
  8.753496471723496   9.372483511381018   5.002978606422314 
  9.920654866255477   2.884624436730887   5.002978606422314 
 -4.978739603103310  11.497994262276707  11.673616748318732 
 -0.000008428361450  11.497975124562181  11.673616748318732 
  1.244848423770063   5.030425695112107  11.673616748318732 
  6.223346059003846   5.030407822066896  11.673616748318732 
  4.978785236885023  11.497899828183915  11.673616748318732 
 11.202223922953667   5.030420689897827  11.673616748318732 
 -1.263900478637648   5.015067611149763   5.002978606422314 
 -2.471787155929043  11.523660654781187   5.002978606422314 
  2.494225121278247  11.456570552063692   5.002978606422314 
  7.470443815406601  11.494667493387739   5.002978606422314 
  8.722160563173802   5.061516814975380   5.002978606422314 
  0.000082858900225   7.186249327654935  11.673616748318732 
  1.244763505704435   0.718650219148732  11.673616748318732 
  4.978748303774535   7.186114369110251  11.673616748318732 
  6.223428332986853   0.718674287779091  11.673616748318732 
  9.957523203805962   7.186246657014288  11.673616748318732 
 -2.459106367388703   7.190447414692029   5.002978606422314 
 11.202219889156574   0.718614673186497  11.673616748318732 
  3.730189523239809   0.753322994728211   5.002978606422314 
  2.555159570163200   7.093036437343956   5.002978606422314 
  7.551196620736407   7.234180399355763   5.002978606422314 
  8.679408007941674   0.743519538257026   5.002978606422314 
  2.489474238659060   7.186146536576025  11.673616748318732 
 13.658813732156331   0.691790568938086   5.002978606422314 
 -1.244655194362855   9.342115183144747  11.673616748318732 
  0.000095503431247   2.874550136601449  11.673616748318732 
  4.978736884288591   2.874617160962325  11.673616748318732 
  3.734078319234981   9.341954129622181  11.673616748318732 
  8.712848073705029   9.342087221266528  11.673616748318732 
  9.957480268785213   2.874547077541972  11.673616748318732 
 -3.698227693860408   9.362807236104091   5.002978606422314 
  1.280763927414275   9.296324781998813   5.002978606422314 
  2.410379299520665   2.856032561478170   5.002978606422314 
  6.255096734004403   9.334596712612234   5.002978606422314 
  7.394756744070801   2.980399898923931   5.002978606422314 
 12.407286454943575   2.859499400128930   5.002978606422314 
 -1.244634591962966   5.030414204574010  11.673616748318732 
 -2.489361287630893  11.498009377175569  11.673616748318732 
  2.489352085282054  11.497914421564545  11.673616748318732 
  3.734127453762515   5.030394488287882  11.673616748318732 
  7.468198379617919  11.497942647715373  11.673616748318732 
 -4.959985822128010  11.522097693905685   5.002978606422314 
  8.712744949977623   5.030430078223514  11.673616748318732 
  0.007816467772904  11.502492830451740   5.002978606422314 
  1.189200711002710   4.971175921906529   5.002978606422314 
  0.028105921276209   7.165519887196809   5.002978606422314 
  6.167811008466192   5.294606913018082   5.002978606422314 
  4.969099784680815  11.460969414494116   5.002978606422314 
 11.200510273998981   5.034002871497183   5.002978606422314 
 -2.489357441985432   7.186257879764900  11.673616748318732 
  3.734130214094785   0.718689590589723  11.673616748318732 
  7.468074268429920   7.186189686875919  11.673616748318732 
  8.712776331222072   0.718627430540328  11.673616748318732 
 13.691672926324411   0.718619543592591  11.673616748318732 
 -0.000598223365429   1.436968209315113   1.667361545568411 
  3.734571874510049   7.903837591530576   1.668064622170078 
  4.978521489018782   1.438062835371248   1.668157925860874 
  8.712998857189637   7.904947233317198   1.667655535847781 
  9.956897010308353   1.437109731281592   1.667896891133539 
 -4.978636861393618  10.060907759978395   8.338303364155218 
  0.000116590156094  10.060511014980301   8.338262478546532 
  1.244286389007505   3.592884079312236   8.338116966298157 
  4.978732897331688  10.060080046652878   8.338165473156709 
  6.222824387873579   3.594057816323958   8.337892590674562 
 11.201758437416387   3.593011534969619   8.338308469490457 
 -2.489222460529785  10.060826733019258   1.667632476524363 
 -1.245233829018496   3.592740315215500   1.667361545568411 
  3.733843283765973   3.594216379892649   1.670528810173808 
  2.489456741195576  10.060062495630687   1.668143539021924 
  7.468081200542276  10.060604584139780   1.667640795139602 
  8.712265642138819   3.593411640924794   1.667791739687919 
 -6.223636402837123  12.216639011193351   8.338333989730730 
 -1.244826355029023  12.216815448565374   8.338262478546532 
  0.000149494947058   5.748562179010134   8.337973436775100 
  4.977862084068466   5.748465011895487   8.337646784889005 
  3.733636349436564  12.216113384656275   8.338060321711088 
  9.957394056533031   5.748988241629376   8.338316417705039 
 -2.489441232994248   5.748823251647151   1.667623223113898 
 -3.734109235122447  12.216965741089171   1.667606593406712 
  1.244367601317271  12.216415960270337   1.667893379685394 
  2.490218642534847   5.748237444049590   1.670528810173808 
  6.223132793049099  12.216244102879163   1.667648743354170 
  7.467713686798497   5.749137701915044   1.667131155613497 
 -1.244394692747004   7.904653657351779   8.338350619437916 
 -0.000598223365429   1.436968209315114   8.338595667276216 
  3.734571874510050   7.903837591530577   8.337892590674562 
  4.978521489018783   1.438062835371249   8.337799286983767 
  8.712998857189637   7.904947233317199   8.338301676996860 
 -3.733859489556699   7.904890107844778   1.667653848689396 
  9.956897010308353   1.437109731281592   8.338060321711088 
  2.489089938697411   1.437590873421464   1.667983776069530 
  1.245274001145816   7.904237161596145   1.668157925860874 
  6.223370452079240   7.904403406503419   1.667131155613497 
  7.467612364439704   1.437644028187087   1.668143539021924 
  1.245274001145817   7.904237161596146   8.337799286983767 
 12.446322719877278   1.436897777402735   1.667567841187935 
 -2.489222460529785  10.060826733019258   8.338324736320278 
 -1.245233829018495   3.592740315215501   8.338595667276216 
  3.733843283765974   3.594216379892650   8.335428402670820 
  2.489456741195576  10.060062495630687   8.337813673822703 
  7.468081200542277  10.060604584139780   8.338316417705039 
  8.712265642138819   3.593411640924795   8.338165473156709 
 -4.978636861393619  10.060907759978395   1.667653848689396 
  0.000116590156093  10.060511014980301   1.667694734298096 
  1.244286389007504   3.592884079312235   1.667840246546470 
  4.978732897331687  10.060080046652878   1.667791739687919 
  6.222824387873578   3.594057816323957   1.668064622170078 
 11.201758437416387   3.593011534969619   1.667648743354170 
 -2.489441232994247   5.748823251647152   8.338333989730730 
 -3.734109235122446  12.216965741089171   8.338350619437916 
  1.244367601317272  12.216415960270337   8.338063833159234 
  2.490218642534848   5.748237444049591   8.335428402670820 
  6.223132793049100  12.216244102879163   8.338308469490457 
 -6.223636402837124  12.216639011193351   1.667623223113898 
  7.467713686798498   5.749137701915045   8.338826057231131 
 -1.244826355029024  12.216815448565374   1.667694734298096 
  0.000149494947058   5.748562179010133   1.667983776069530 
 -1.244394692747004   7.904653657351778   1.667606593406712 
  4.977862084068465   5.748465011895486   1.668310427955623 
  3.733636349436564  12.216113384656275   1.667896891133539 
  9.957394056533031   5.748988241629375   1.667640795139602 
 -3.733859489556699   7.904890107844779   8.338303364155218 
  2.489089938697411   1.437590873421465   8.337973436775100 
  6.223370452079241   7.904403406503420   8.338826057231131 
  7.467612364439705   1.437644028187088   8.337813673822703 
 12.446322719877278   1.436897777402736   8.338389371656707 
  3.649334678206396   4.981439356495213   5.002978606422314 
  1.244233749471921   0.718607538231767   1.668025757430950 
  4.979277270695167   7.185860801497975   1.665054941195113 
  6.223114976231725   0.718845885882557   1.667833384128376 
  9.957811825927180   7.186309448023836   1.668103631708882 
 11.201582485639104   0.718246668094101   1.668252871451655 
 -3.733973595419456   9.342169330216567   8.338111134674991 
  1.244710595662789   9.341695213651478   8.338123828716252 
  2.488701549291272   2.874522355087799   8.336434221154843 
  6.223639036292354   9.342006229128089   8.338333557802843 
  7.467626230327141   2.874876891785884   8.337312751650462 
 12.446279806467810   2.874128466241148   8.338182225137984 
 -1.244641862948794   9.341958055973384   1.667626805210118 
 -0.000841688692066   2.874009048476771   1.667358181194682 
  4.978634019425495   2.874984304720078   1.668746847909038 
  3.734143845169735   9.341458072041988   1.668644461194154 
  8.713046763375026   9.342305779850834   1.668103631708882 
  9.957013647886805   2.874443898022577   1.668348461809496 
 -4.978850206680567  11.498184598524562   8.338128247537870 
 -0.000222697040093  11.497851416482904   8.338240304057100 
  1.244374466864691   5.029760083084597   8.336434221154843 
  6.223390946470356   5.030992704664062   8.340902271649513 
  4.978462570350858  11.497547312391680   8.337608751035132 
 11.202162865641965   5.030232828852744   8.338089302299442 
 -1.244936432837579   5.029976762677334   1.668025757430950 
 -2.489490698045865  11.498099486104456   1.667626805210118 
  2.489030740056030  11.497532119112815   1.668206430141516 
  3.733794912178912   5.030202495315063   1.666866364067918 
  7.468005158524658  11.497983701054867   1.667867910545185 
  8.712848543850285   5.030568891354218   1.667623655041786 
  0.000138629081673   7.185842352749692   8.338004427990246 
  1.244233749471921   0.718607538231767   8.337931455413676 
  4.979277270695168   7.185860801497975   8.340902271649513 
  6.223114976231725   0.718845885882557   8.338123828716252 
  9.957811825927180   7.186309448023837   8.337853581135759 
 -2.489247907748164   7.186066926133328   1.667828965306757 
 11.201582485639104   0.718246668094102   8.337704341392973 
  3.733805648578879   0.718941376436226   1.667952784854381 
  2.489740762048559   7.185873881112562   1.668746847909038 
  7.468581182264328   7.186482353714680   1.668148824747401 
  8.712284574973935   0.718540288637071   1.668206430141516 
  2.489740762048559   7.185873881112563   8.337210364935588 
 13.690979550805269   0.718245268880661   1.667774987706642 
 -1.244641862948793   9.341958055973384   8.338330407634523 
 -0.000841688692066   2.874009048476772   8.338599031649945 
  4.978634019425495   2.874984304720079   8.337210364935588 
  3.734143845169735   9.341458072041988   8.337312751650462 
  8.713046763375026   9.342305779850834   8.337853581135759 
  9.957013647886805   2.874443898022577   8.337608751035132 
 -3.733973595419457   9.342169330216567   1.667846078169650 
  1.244710595662789   9.341695213651478   1.667833384128376 
  2.488701549291271   2.874522355087798   1.669522991689798 