 Si B N 
 1.0
 14.936314146199660   0.000000000000000   0.000000000000000
 -7.468157073099825  12.935227489513863   0.000000000000000
  0.000000000000001   0.000000000000001  13.341276283792837
 Si B N 
   1 144 143
Cartesian
  4.978771382066589   5.748989995339477   5.002978606422314 
  1.226804002527865   0.697292966265043   5.002978606422314 
  4.978771382066387   7.480690290268686   5.002978606422314 
  6.227639397258388   0.697142490482989   5.002978606422314 
  9.978233664913144   7.193362320637078   5.002978606422314 
 11.206699541836139   0.721201001866816   5.002978606422314 
 -3.735305490201912   9.341400360405791  11.673616748318732 
  1.243925019662698   9.341187927418940  11.673616748318732 
  2.490169826718636   2.876333660840788  11.673616748318732 
  6.222263966410028   9.340510329418313  11.673616748318732 
  7.467372937414689   2.876333660840788  11.673616748318732 
 12.446928455166701   2.875944984581483  11.673616748318732 
 -1.250304277215508   9.345348504028003   5.002978606422314 
 -0.022465868271632   2.861524322575150   5.002978606422314 
  4.978771382066385   2.841910943121712   5.002978606422314 
  3.696327645662946   9.426837655742354   5.002978606422314 
  8.729365649720769   9.356465174897961   5.002978606422314 
  9.980008632404694   2.861524322575163   5.002978606422314 
 -4.978762170416259  11.497974672330640  11.673616748318732 
 -0.000009211650726  11.497974672330640  11.673616748318732 
  1.246677242374475   5.030125995760016  11.673616748318732 
  6.223412696315466   5.030395997514423  11.673616748318732 
  4.978771382066867  11.497391031325542  11.673616748318732 
 11.203023148938172   5.029949029815352  11.673616748318732 
 -1.272110267103663   5.025539445025521   5.002978606422314 
 -2.489385691033239  11.491500467474605   5.002978606422314 
  2.479857112433374  11.524137574727815   5.002978606422314 
  3.479074934917640   4.883139847874880   5.002978606422314 
  7.477685651698001  11.524137574727815   5.002978606422314 
  8.805102755427148   5.020695019787370   5.002978606422314 
  0.000413536262452   7.187362858373245  11.673616748318732 
  1.243937756124865   0.718150328440318  11.673616748318732 
  4.978771382068443   7.186177990989584  11.673616748318732 
  6.222282865466974   0.718419200226726  11.673616748318732 
  9.957129227870221   7.187362858373245  11.673616748318732 
 -2.489385691032912   7.190628203571672   5.002978606422314 
 11.200979884148163   0.717898755961569  11.673616748318732 
  3.729903366874740   0.697142490482989   5.002978606422314 
  2.461167072036205   7.202529521448404   5.002978606422314 
  7.496375692097017   7.202529521448404   5.002978606422314 
  8.730738761603561   0.697292966265043   5.002978606422314 
  2.490040092542754   7.185859675287442  11.673616748318732 
 13.687157368497170   0.721201001866816   5.002978606422314 
 -1.243465891864806   9.341400360405791  11.673616748318732 
  0.000510053761787   2.874789477346621  11.673616748318732 
  4.978771382067133   2.875250635444778  11.673616748318732 
  3.735278797722182   9.340510329418313  11.673616748318732 
  8.713617744469333   9.341187927418940  11.673616748318732 
  9.957032710371477   2.874789477346569  11.673616748318732 
 -3.728467104849986   9.345348504028003   5.002978606422314 
  1.228177114411604   9.356465174897961   5.002978606422314 
  2.434883745110472   2.799437310488512   5.002978606422314 
  6.261215118470668   9.426837655742354   5.002978606422314 
  7.522659019022644   2.799437310488512   5.002978606422314 
 12.446928455166887   2.869340492770818   5.002978606422314 
 -1.245480384805472   5.029949029815352  11.673616748318732 
 -2.489385691033231  11.499396754721531  11.673616748318732 
  2.489353241137230  11.498870627762413  11.673616748318732 
  3.734130067818967   5.030395997514423  11.673616748318732 
  7.468189522996879  11.498870627762413  11.673616748318732 
 -4.974968916187338  11.495784635980078   5.002978606422314 
  8.710865521758373   5.030125995760016  11.673616748318732 
 -0.003802465878483  11.495784635980078   5.002978606422314 
  1.152440008707253   5.020695019787370   5.002978606422314 
 -0.020690900779683   7.193362320637078   5.002978606422314 
  6.478467829216073   4.883139847874880   5.002978606422314 
  4.978771382066321  11.523921340867354   5.002978606422314 
 11.229653031236793   5.025539445025521   5.002978606422314 
 -2.489385691033345   7.186248130872464  11.673616748318732 
  3.735259898665991   0.718419200226726  11.673616748318732 
  7.467502671589065   7.185859675287442  11.673616748318732 
  8.713605008008859   0.718150328440318  11.673616748318732 
 13.692877026184055   0.717898755961569  11.673616748318732 
  0.000019903663695   1.436852971825760   1.663786565858880 
  3.737882381548508   7.902795331643622   1.653255490901063 
  4.978771382066610   1.439775446486455   1.669789330730664 
  8.710660651730993   7.903597269765180   1.669789330730664 
  9.957522860468105   1.436852971825760   1.663786565858880 
 -4.979894368234618  10.059428594161224   8.334317954081007 
  0.001122986168588  10.059428594161224   8.334317954081007 
  1.246396329869043   3.594102254237078   8.345349068035947 
  4.978771382066038  10.058765477544354   8.345349068035947 
  6.223577017852718   3.597445929463261   8.352701721943339 
 11.202567328231051   3.593333247670514   8.342170646985521 
 -2.489385691033300  10.060732491844131   1.672543444995169 
 -1.245024564097383   3.593333247670513   1.663786565858880 
  3.733965746279471   3.597445929463260   1.653255490901063 
  2.490832944460819  10.059693503830653   1.666881488283478 
  7.466709819673883  10.059693503830653   1.666881488283478 
  8.711146434262876   3.594102254236843   1.660608144808642 
 -6.224674985081356  12.217302771263643   8.337922822648190 
 -1.245260560949017  12.218228223486848   8.334317954081007 
  0.001623416727487   5.748256131112562   8.339075724561550 
  4.978771382066590   5.748989995339477   8.327618754291978 
  3.733726914304064  12.216783766523166   8.342170646985521 
  9.955919347406869   5.748256131112562   8.339075724561550 
 -2.489385691033294   5.747591933004268   1.668034390194796 
 -3.733510821116894  12.218228223486848   1.671639258763236 
  1.245903603016075  12.217302771263643   1.668034390194796 
  2.493076745762153   5.746728724912633   1.653255490901063 
  6.223815849828088  12.216783766523166   1.663786565858880 
  7.464466018371337   5.746728724912633   1.653255490901063 
 -1.243002143915912   7.904540657883563   8.334317954081007 
  0.000019903663695   1.436852971825761   8.342170646985521 
  3.737882381548509   7.902795331643623   8.352701721943339 
  4.978771382066625   1.439775446486429   8.336167882113177 
  8.710660651730993   7.903597269765180   8.336167882113164 
 -3.735769238151242   7.904540657883562   1.671639258763236 
  9.957522860468105   1.436852971825761   8.342170646985521 
  2.489561854333397   1.439020351075563   1.666881488283478 
  1.246882112402885   7.903597269765180   1.669789330730664 
  6.219660382584446   7.902795331643622   1.653255490901063 
  7.467980909799716   1.439020351075563   1.666881488283478 
  1.246882112402886   7.903597269765180   8.336167882113164 
 12.446928455166319   1.437247498834911   1.663289650534367 
 -2.489385691033300  10.060732491844131   8.333413767849619 
 -1.245024564097383   3.593333247670514   8.342170646985521 
  3.733965746279472   3.597445929463261   8.352701721943339 
  2.490832944460819  10.059693503830653   8.339075724561550 
  7.466709819673884  10.059693503830653   8.339075724561550 
  8.711146434262742   3.594102254237078   8.345349068035947 
 -4.979894368234619  10.059428594161224   1.671639258763236 
  0.001122986168587  10.059428594161224   1.671639258763236 
  1.246396329869043   3.594102254237077   1.660608144808642 
  4.978771382066038  10.058765477544354   1.660608144808642 
  6.223577017852717   3.597445929463260   1.653255490901063 
 11.202567328231051   3.593333247670513   1.663786565858880 
 -2.489385691033294   5.747591933004268   8.337922822648190 
 -3.733510821116894  12.218228223486848   8.334317954081007 
  1.245903603016075  12.217302771263643   8.337922822648190 
  2.493076745762153   5.746728724912634   8.352701721943339 
  6.223815849828089  12.216783766523166   8.342170646985521 
 -6.224674985081357  12.217302771263643   1.668034390194796 
  7.464466018371338   5.746728724912634   8.352701721943339 
 -1.245260560949018  12.218228223486848   1.671639258763236 
  0.001623416727486   5.748256131112561   1.666881488283478 
 -1.243002143915913   7.904540657883562   1.671639258763236 
  4.978771382066589   5.748989995339476   1.678338458553504 
  3.733726914304063  12.216783766523166   1.663786565858880 
  9.955919347406869   5.748256131112561   1.666881488283478 
 -3.735769238151242   7.904540657883563   8.334317954081007 
  2.489561854333397   1.439020351075564   8.339075724561550 
  6.219660382584447   7.902795331643623   8.352701721943339 
  7.467980909799717   1.439020351075564   8.339075724561550 
 12.446928455166319   1.437247498834912   8.342667562310995 
  1.244313888433279   0.718599172010037   1.665809753270568 
  4.978771382068008   7.188906150165320   1.625434466096345 
  6.223545228017041   0.718891073822593   1.670094158929449 
  9.957351754623858   7.186033683539459   1.670094158929449 
 11.202303873069297   0.718663161320847   1.662556100110457 
 -3.734297523768704   9.341982310096846   8.333956165979956 
  1.244964855459964   9.342045228656701   8.335863053915178 
  2.488645563886684   2.874321002852512   8.348089726803630 
  6.223244847941469   9.342836708746329   8.348089726803630 
  7.468897200247028   2.874321002852512   8.348089726803630 
 12.446928455166701   2.874416173862846   8.343401112733691 
 -1.244473858297344   9.341982310096846   1.672001046865512 
 -0.000585722323571   2.874156830728543   1.660695221442802 
  4.978771382066505   2.874771061812338   1.658741859522654 
  3.734297916192054   9.342836708746329   1.657867486040343 
  8.712577908674486   9.342045228656701   1.670094158929449 
  9.958128486457268   2.874156830728543   1.660695221442802 
 -4.978930708792774  11.498071978007067   8.336364498574133 
  0.000159326727193  11.498071978007067   8.336364498574133 
  1.244172098011322   5.029812274419990   8.348089726803630 
  6.225775351466788   5.029031917926556   8.380522746749163 
  4.978771382067242  11.498656324561175   8.345261991401946 
 11.202446372850051   5.030050348164505   8.340147459573727 
 -1.244903608717413   5.030050348164504   1.665809753270568 
 -2.489385691033239  11.498232855339118   1.672001046865499 
  2.489553884914932  11.498320465844468   1.665809753270568 
  3.731767412666584   5.029031917926555   1.625434466096345 
  7.467988879216336  11.498320465844468   1.665809753270568 
  8.713370666121197   5.029812274419989   1.657867486040343 
  0.000191009508411   7.186033683539460   8.335863053915178 
  1.244313888433280   0.718599172010038   8.340147459573727 
  4.978771382068008   7.188906150165320   8.380522746749163 
  6.223545228017050   0.718891073822580   8.335863053915178 
  9.957351754623858   7.186033683539460   8.335863053915178 
 -2.489385691033115   7.186053519517342   1.669592714270468 
 11.202303873069297   0.718663161320848   8.343401112733691 
  3.733997536116116   0.718891073822593   1.670094158929449 
  2.489624769593695   7.186099462103233   1.658741859522654 
  7.467917994539226   7.186099462103233   1.658741859522654 
  8.713228875699340   0.718599172010037   1.665809753270568 
  2.489624769593695   7.186099462103234   8.347215353321319 
 13.691553037264162   0.718663161320847   1.662556100110457 
 -1.244473858297343   9.341982310096846   8.333956165979956 
 -0.000585722323571   2.874156830728543   8.345261991401946 
  4.978771382066506   2.874771061812339   8.347215353321319 
  3.734297916191936   9.342836708746329   8.348089726803630 
  8.712577908674486   9.342045228656701   8.335863053915178 
  9.958128486457268   2.874156830728543   8.345261991401946 
 -3.734297523768704   9.341982310096846   1.672001046865499 
  1.244964855459964   9.342045228656701   1.670094158929449 
  2.488645563886684   2.874321002852511   1.657867486040343 
  6.223244847941468   9.342836708746329   1.657867486040343 
  7.468897200247027   2.874321002852511   1.657867486040343 
 12.446928455166701   2.874416173862846   1.662556100110457 
 -1.244903608717413   5.030050348164505   8.340147459573727 
 -2.489385691033239  11.498232855339118   8.333956165979956 
  2.489553884914933  11.498320465844468   8.340147459573727 
  3.731767412666584   5.029031917926556   8.380522746749163 
  7.467988879216337  11.498320465844468   8.340147459573727 
 -4.978930708792775  11.498071978007067   1.669592714270468 
  8.713370666121197   5.029812274419990   8.348089726803630 
  0.000159326727193  11.498071978007067   1.669592714270468 
  1.244172098011321   5.029812274419989   1.657867486040343 
  0.000191009508410   7.186033683539459   1.670094158929449 
  6.225775351466787   5.029031917926555   1.625434466096345 
  4.978771382067241  11.498656324561175   1.660695221442749 
 11.202446372850051   5.030050348164504   1.665809753270568 
 -2.489385691033114   7.186053519517343   8.336364498574133 
  3.733997536116116   0.718891073822593   8.335863053915178 
  7.467917994539227   7.186099462103234   8.347215353321319 
  8.713228875699340   0.718599172010038   8.340147459573727 
 13.691553037264162   0.718663161320848   8.343401112733691 
 -0.011014104855050   1.427550425495641   5.002978606422314 
  3.661827999225203   8.030720418739621   5.002978606422314 
  4.978771382066766   1.402989533159763   5.002978606422314 
  8.742518187172093   7.921990226430135   5.002978606422314 
  9.968556868988253   1.427550425495641   5.002978606422314 
 -4.978724076002347  10.060511113478114  11.673616748318732 
 -0.000047306064641  10.060511113478114  11.673616748318732 
  1.244941946198576   3.593262565432936  11.673616748318732 
  4.978771382066105  10.060444855152651  11.673616748318732 
  6.223486148413765   3.593017686034651  11.673616748318732 
 11.202391046104006   3.593293711630797  11.673616748318732 
 -2.489385691033300  10.060732491844131   5.002978606422314 
 -1.258597809798133   3.588428789152145   5.002978606422314 
  3.661206562235205   3.467618358751142   5.002978606422314 
  2.453658961096429  10.110629836457298   5.002978606422314 
  7.503883803037557  10.110629836457298   5.002978606422314 
  8.753082992165988   3.569890171243140   5.002978606422314 
 -6.223523737197905  12.216638097988540  11.673616748318732 
 -1.244908217837767  12.216673461025703  11.673616748318732 
 -0.000075098443039   5.749091737754514  11.673616748318732 
  4.978771382066590   5.748989995339477  11.673616748318732 
  3.733849294583012  12.216650869744129  11.673616748318732 
  9.957617862575514   5.749091737754514  11.673616748318732 
 -2.489385691033495   5.754699701056350   5.002978606422314 
 -3.731937137017868  12.202369608460989   5.002978606422314 
  1.239748095318477  12.213748887238282   5.002978606422314 
  2.344263179392236   5.748631208526811   5.002978606422314 
  6.226355087009152  12.230990771370619   5.002978606422314 
  7.613279584739356   5.748631208526811   5.002978606422314 
 -1.244524779259925   7.905012901028492  11.673616748318732 
  0.000073805511487   1.437025404644321  11.673616748318732 
  3.734001975526327   7.904930758114307  11.673616748318732 
  4.978771382066677   1.436981363882643  11.673616748318732 
  8.713080398245051   7.904994311068813  11.673616748318732 
 -3.722822116719120   7.913832815804787   5.002978606422314 
  9.957468958621687   1.437025404644321  11.673616748318732 
  2.464036687985022   1.381358570808612   5.002978606422314 
  1.215024576959786   7.921990226430135   5.002978606422314 
  6.295714764908258   8.030720418739621   5.002978606422314 
  7.493506076147929   1.381358570808612   5.002978606422314 
  1.244462365886782   7.904994311068813  11.673616748318732 
 12.446928455166319   1.437247498834912   5.002978606422314 
 -2.489385691033299  10.060732491844133  11.673616748318732 
 -1.244848281972160   3.593293711630694  11.673616748318732 
  3.734056615719530   3.593017686034651  11.673616748318732 
  2.489260030297989  10.060746657794477  11.673616748318732 
  7.468282733837687  10.060746657794477  11.673616748318732 
  8.712600817934137   3.593262565432936  11.673616748318732 
 -4.965373562703062  10.065995051267162   5.002978606422314 
 -0.013397819362896  10.065995051267162   5.002978606422314 
  1.204459771966337   3.569890171243140   5.002978606422314 
  4.978771382066711  10.107189643532227   5.002978606422314 
  6.296336201899269   3.467618358751142   5.002978606422314 
 11.216140573930979   3.588428789152145   5.002978606422314 
 -2.489385691033129   5.748921279555126  11.673616748318732 
 -3.733863164228589  12.216673461025703  11.673616748318732 
  1.244752355131129  12.216638097988540  11.673616748318732 
  2.489287209179492   5.749021541869370  11.673616748318732 
  6.223693469549023  12.216650869744129  11.673616748318732 
 -6.218519477384643  12.213748887238282   5.002978606422314 
  7.468255554954358   5.749021541869370  11.673616748318732 
 -1.246834245048611  12.202369608460989   5.002978606422314 
 -0.061075732985221   5.754981578752353   5.002978606422314 
 -1.255949265348211   7.913832815804787   5.002978606422314 
  3.731187677123315  12.230990771370619   5.002978606422314 
 10.018618497118815   5.754981578752353   5.002978606422314 
 -3.734246602806810   7.905012901028492  11.673616748318732 
  2.489436253327562   1.437131590468329  11.673616748318732 
  6.223540788607024   7.904930758114191  11.673616748318732 
  7.468106510806418   1.437131590468329  11.673616748318732 
 12.446928455166319   1.437247498834912  11.673616748318732 
Generated by cif2cell 2.0.0.  :  Failed to get author information, No journal information. Species order: Si B N 
 1.0
 14.936314146199660   0.000000000000000   0.000000000000000
 -7.468157073099825  12.935227489513863   0.000000000000000
  0.000000000000001   0.000000000000001  13.341276283792837
 Si B N 
   1 144 143
Cartesian
  4.978771382066589   5.748989995339477   5.002978606422314 
  1.226804002527865   0.697292966265043   5.002978606422314 
  4.978771382066387   7.480690290268686   5.002978606422314 
  6.227639397258388   0.697142490482989   5.002978606422314 
  9.978233664913144   7.193362320637078   5.002978606422314 
 11.206699541836139   0.721201001866816   5.002978606422314 
 -3.735305490201912   9.341400360405791  11.673616748318732 
  1.243925019662698   9.341187927418940  11.673616748318732 
  2.490169826718636   2.876333660840788  11.673616748318732 
  6.222263966410028   9.340510329418313  11.673616748318732 
  7.467372937414689   2.876333660840788  11.673616748318732 
 12.446928455166701   2.875944984581483  11.673616748318732 
 -1.250304277215508   9.345348504028003   5.002978606422314 
 -0.022465868271632   2.861524322575150   5.002978606422314 
  4.978771382066385   2.841910943121712   5.002978606422314 
  3.696327645662946   9.426837655742354   5.002978606422314 
  8.729365649720769   9.356465174897961   5.002978606422314 
  9.980008632404694   2.861524322575163   5.002978606422314 
 -4.978762170416259  11.497974672330640  11.673616748318732 
 -0.000009211650726  11.497974672330640  11.673616748318732 
  1.246677242374475   5.030125995760016  11.673616748318732 
  6.223412696315466   5.030395997514423  11.673616748318732 
  4.978771382066867  11.497391031325542  11.673616748318732 
 11.203023148938172   5.029949029815352  11.673616748318732 
 -1.272110267103663   5.025539445025521   5.002978606422314 
 -2.489385691033239  11.491500467474605   5.002978606422314 
  2.479857112433374  11.524137574727815   5.002978606422314 
  3.479074934917640   4.883139847874880   5.002978606422314 
  7.477685651698001  11.524137574727815   5.002978606422314 
  8.805102755427148   5.020695019787370   5.002978606422314 
  0.000413536262452   7.187362858373245  11.673616748318732 
  1.243937756124865   0.718150328440318  11.673616748318732 
  4.978771382068443   7.186177990989584  11.673616748318732 
  6.222282865466974   0.718419200226726  11.673616748318732 
  9.957129227870221   7.187362858373245  11.673616748318732 
 -2.489385691032912   7.190628203571672   5.002978606422314 
 11.200979884148163   0.717898755961569  11.673616748318732 
  3.729903366874740   0.697142490482989   5.002978606422314 
  2.461167072036205   7.202529521448404   5.002978606422314 
  7.496375692097017   7.202529521448404   5.002978606422314 
  8.730738761603561   0.697292966265043   5.002978606422314 
  2.490040092542754   7.185859675287442  11.673616748318732 
 13.687157368497170   0.721201001866816   5.002978606422314 
 -1.243465891864806   9.341400360405791  11.673616748318732 
  0.000510053761787   2.874789477346621  11.673616748318732 
  4.978771382067133   2.875250635444778  11.673616748318732 
  3.735278797722182   9.340510329418313  11.673616748318732 
  8.713617744469333   9.341187927418940  11.673616748318732 
  9.957032710371477   2.874789477346569  11.673616748318732 
 -3.728467104849986   9.345348504028003   5.002978606422314 
  1.228177114411604   9.356465174897961   5.002978606422314 
  2.434883745110472   2.799437310488512   5.002978606422314 
  6.261215118470668   9.426837655742354   5.002978606422314 
  7.522659019022644   2.799437310488512   5.002978606422314 
 12.446928455166887   2.869340492770818   5.002978606422314 
 -1.245480384805472   5.029949029815352  11.673616748318732 
 -2.489385691033231  11.499396754721531  11.673616748318732 
  2.489353241137230  11.498870627762413  11.673616748318732 
  3.734130067818967   5.030395997514423  11.673616748318732 
  7.468189522996879  11.498870627762413  11.673616748318732 
 -4.974968916187338  11.495784635980078   5.002978606422314 
  8.710865521758373   5.030125995760016  11.673616748318732 
 -0.003802465878483  11.495784635980078   5.002978606422314 
  1.152440008707253   5.020695019787370   5.002978606422314 
 -0.020690900779683   7.193362320637078   5.002978606422314 
  6.478467829216073   4.883139847874880   5.002978606422314 
  4.978771382066321  11.523921340867354   5.002978606422314 
 11.229653031236793   5.025539445025521   5.002978606422314 
 -2.489385691033345   7.186248130872464  11.673616748318732 
  3.735259898665991   0.718419200226726  11.673616748318732 
  7.467502671589065   7.185859675287442  11.673616748318732 
  8.713605008008859   0.718150328440318  11.673616748318732 
 13.692877026184055   0.717898755961569  11.673616748318732 
  0.000019903663695   1.436852971825760   1.663786565858880 
  3.737882381548508   7.902795331643622   1.653255490901063 
  4.978771382066610   1.439775446486455   1.669789330730664 
  8.710660651730993   7.903597269765180   1.669789330730664 
  9.957522860468105   1.436852971825760   1.663786565858880 
 -4.979894368234618  10.059428594161224   8.334317954081007 
  0.001122986168588  10.059428594161224   8.334317954081007 
  1.246396329869043   3.594102254237078   8.345349068035947 
  4.978771382066038  10.058765477544354   8.345349068035947 
  6.223577017852718   3.597445929463261   8.352701721943339 
 11.202567328231051   3.593333247670514   8.342170646985521 
 -2.489385691033300  10.060732491844131   1.672543444995169 
 -1.245024564097383   3.593333247670513   1.663786565858880 
  3.733965746279471   3.597445929463260   1.653255490901063 
  2.490832944460819  10.059693503830653   1.666881488283478 
  7.466709819673883  10.059693503830653   1.666881488283478 
  8.711146434262876   3.594102254236843   1.660608144808642 
 -6.224674985081356  12.217302771263643   8.337922822648190 
 -1.245260560949017  12.218228223486848   8.334317954081007 
  0.001623416727487   5.748256131112562   8.339075724561550 
  4.978771382066590   5.748989995339477   8.327618754291978 
  3.733726914304064  12.216783766523166   8.342170646985521 
  9.955919347406869   5.748256131112562   8.339075724561550 
 -2.489385691033294   5.747591933004268   1.668034390194796 
 -3.733510821116894  12.218228223486848   1.671639258763236 
  1.245903603016075  12.217302771263643   1.668034390194796 
  2.493076745762153   5.746728724912633   1.653255490901063 
  6.223815849828088  12.216783766523166   1.663786565858880 
  7.464466018371337   5.746728724912633   1.653255490901063 
 -1.243002143915912   7.904540657883563   8.334317954081007 
  0.000019903663695   1.436852971825761   8.342170646985521 
  3.737882381548509   7.902795331643623   8.352701721943339 
  4.978771382066625   1.439775446486429   8.336167882113177 
  8.710660651730993   7.903597269765180   8.336167882113164 
 -3.735769238151242   7.904540657883562   1.671639258763236 
  9.957522860468105   1.436852971825761   8.342170646985521 
  2.489561854333397   1.439020351075563   1.666881488283478 
  1.246882112402885   7.903597269765180   1.669789330730664 
  6.219660382584446   7.902795331643622   1.653255490901063 
  7.467980909799716   1.439020351075563   1.666881488283478 
  1.246882112402886   7.903597269765180   8.336167882113164 
 12.446928455166319   1.437247498834911   1.663289650534367 
 -2.489385691033300  10.060732491844131   8.333413767849619 
 -1.245024564097383   3.593333247670514   8.342170646985521 
  3.733965746279472   3.597445929463261   8.352701721943339 
  2.490832944460819  10.059693503830653   8.339075724561550 
  7.466709819673884  10.059693503830653   8.339075724561550 
  8.711146434262742   3.594102254237078   8.345349068035947 
 -4.979894368234619  10.059428594161224   1.671639258763236 
  0.001122986168587  10.059428594161224   1.671639258763236 
  1.246396329869043   3.594102254237077   1.660608144808642 
  4.978771382066038  10.058765477544354   1.660608144808642 
  6.223577017852717   3.597445929463260   1.653255490901063 
 11.202567328231051   3.593333247670513   1.663786565858880 
 -2.489385691033294   5.747591933004268   8.337922822648190 
 -3.733510821116894  12.218228223486848   8.334317954081007 
  1.245903603016075  12.217302771263643   8.337922822648190 
  2.493076745762153   5.746728724912634   8.352701721943339 
  6.223815849828089  12.216783766523166   8.342170646985521 
 -6.224674985081357  12.217302771263643   1.668034390194796 
  7.464466018371338   5.746728724912634   8.352701721943339 
 -1.245260560949018  12.218228223486848   1.671639258763236 
  0.001623416727486   5.748256131112561   1.666881488283478 
 -1.243002143915913   7.904540657883562   1.671639258763236 
  4.978771382066589   5.748989995339476   1.678338458553504 
  3.733726914304063  12.216783766523166   1.663786565858880 
  9.955919347406869   5.748256131112561   1.666881488283478 
 -3.735769238151242   7.904540657883563   8.334317954081007 
  2.489561854333397   1.439020351075564   8.339075724561550 
  6.219660382584447   7.902795331643623   8.352701721943339 
  7.467980909799717   1.439020351075564   8.339075724561550 
 12.446928455166319   1.437247498834912   8.342667562310995 
  1.244313888433279   0.718599172010037   1.665809753270568 
  4.978771382068008   7.188906150165320   1.625434466096345 
  6.223545228017041   0.718891073822593   1.670094158929449 
  9.957351754623858   7.186033683539459   1.670094158929449 
 11.202303873069297   0.718663161320847   1.662556100110457 
 -3.734297523768704   9.341982310096846   8.333956165979956 
  1.244964855459964   9.342045228656701   8.335863053915178 
  2.488645563886684   2.874321002852512   8.348089726803630 
  6.223244847941469   9.342836708746329   8.348089726803630 
  7.468897200247028   2.874321002852512   8.348089726803630 
 12.446928455166701   2.874416173862846   8.343401112733691 
 -1.244473858297344   9.341982310096846   1.672001046865512 
 -0.000585722323571   2.874156830728543   1.660695221442802 
  4.978771382066505   2.874771061812338   1.658741859522654 
  3.734297916192054   9.342836708746329   1.657867486040343 
  8.712577908674486   9.342045228656701   1.670094158929449 
  9.958128486457268   2.874156830728543   1.660695221442802 
 -4.978930708792774  11.498071978007067   8.336364498574133 
  0.000159326727193  11.498071978007067   8.336364498574133 
  1.244172098011322   5.029812274419990   8.348089726803630 
  6.225775351466788   5.029031917926556   8.380522746749163 
  4.978771382067242  11.498656324561175   8.345261991401946 
 11.202446372850051   5.030050348164505   8.340147459573727 
 -1.244903608717413   5.030050348164504   1.665809753270568 
 -2.489385691033239  11.498232855339118   1.672001046865499 
  2.489553884914932  11.498320465844468   1.665809753270568 
  3.731767412666584   5.029031917926555   1.625434466096345 
  7.467988879216336  11.498320465844468   1.665809753270568 
  8.713370666121197   5.029812274419989   1.657867486040343 
  0.000191009508411   7.186033683539460   8.335863053915178 
  1.244313888433280   0.718599172010038   8.340147459573727 
  4.978771382068008   7.188906150165320   8.380522746749163 
  6.223545228017050   0.718891073822580   8.335863053915178 
  9.957351754623858   7.186033683539460   8.335863053915178 
 -2.489385691033115   7.186053519517342   1.669592714270468 
 11.202303873069297   0.718663161320848   8.343401112733691 
  3.733997536116116   0.718891073822593   1.670094158929449 
  2.489624769593695   7.186099462103233   1.658741859522654 
  7.467917994539226   7.186099462103233   1.658741859522654 
  8.713228875699340   0.718599172010037   1.665809753270568 
  2.489624769593695   7.186099462103234   8.347215353321319 
 13.691553037264162   0.718663161320847   1.662556100110457 
 -1.244473858297343   9.341982310096846   8.333956165979956 
 -0.000585722323571   2.874156830728543   8.345261991401946 
  4.978771382066506   2.874771061812339   8.347215353321319 
  3.734297916191936   9.342836708746329   8.348089726803630 
  8.712577908674486   9.342045228656701   8.335863053915178 
  9.958128486457268   2.874156830728543   8.345261991401946 
 -3.734297523768704   9.341982310096846   1.672001046865499 