B N P                                   
   1.0000000000000000     
     8.7639499999999995  -15.1796066749929999    0.0000000000000000
     8.7639499999999995   15.1796066749929999    0.0000000000000000
     0.0000000000000000    0.0000000000000000   15.0000000000000000
   B    N    P 
    48    49     1
Selective dynamics
Direct
  0.9048498453879615  0.9524148792708179  0.1061054563475808   T   T   T
  0.9047858098869060  0.0952173626948288  0.1048004461814191   T   T   T
  0.9047496496951667  0.2380807154813463  0.1045323949129217   T   T   T
  0.9047629227809184  0.3809660069624265  0.1051029264260666   T   T   T
  0.9048465708174309  0.5238479380084869  0.1064459493090008   T   T   T
  0.9048070972685086  0.6667106977459250  0.1087019996202145   T   T   T
  0.9048069918151609  0.8095284479112599  0.1085367764615755   T   T   T
  0.0476363264156448  0.9523657859245824  0.1066432097634416   T   T   T
  0.0475885581962619  0.0951546115251907  0.1061060997090601   T   T   T
  0.0475277814547183  0.2380018707247454  0.1058071772308909   T   T   T
  0.0475069221096952  0.3809345258416602  0.1059562876210255   T   T   T
  0.0475556669650920  0.5238469472712065  0.1063920293757299   T   T   T
  0.0476287354263995  0.6667101431744601  0.1068552638341721   T   T   T
  0.0476348957488733  0.8095515998574203  0.1072225405127863   T   T   T
  0.1904500406735708  0.9523662458366667  0.1072244518778466   T   T   T
  0.1904729015228083  0.0951966105425920  0.1085384902516535   T   T   T
  0.1901872662449514  0.2377506632132667  0.1096705811170661   T   T   T
  0.1901235963628541  0.3807620624513415  0.1103683017258028   T   T   T
  0.1901527094640842  0.5238415908294961  0.1097712216356065   T   T   T
  0.1904647106444984  0.6667179254070491  0.1085995796794753   T   T   T
  0.1904593648228229  0.8095409592333920  0.1072331324835661   T   T   T
  0.3332916017473938  0.9523748457457369  0.1068589150866853   T   T   T
  0.3332911207904317  0.0951954932563106  0.1087039241323002   T   T   T
  0.3332684552932187  0.2379753579644951  0.1155955668209593   T   T   T
  0.3318872214864759  0.3797894026992326  0.1236525583322482   T   T   T
  0.3318736669830648  0.5235013961667375  0.1236367357558919   T   T   T
  0.3332775240648869  0.6667233744810044  0.1155046747616476   T   T   T
  0.3332819020485212  0.8095364036777245  0.1085997743763682   T   T   T
  0.4761547698058144  0.9524463269016068  0.1063936875455456   T   T   T
  0.4761515519755575  0.0951537823409634  0.1064494095311171   T   T   T
  0.4761486739862513  0.2377537888236383  0.1098603167627105   T   T   T
  0.4764960738074885  0.3797925098417938  0.1237367826853276   T   T   T
  0.4764996681296994  0.6681285109135725  0.1236386731530972   T   T   T
  0.4761617389188764  0.8098485092191601  0.1097748793454608   T   T   T
  0.6190687884715981  0.9524976280402189  0.1059599280040466   T   T   T
  0.6190368259297866  0.0952407161284835  0.1051034253765747   T   T   T
  0.6190739570433321  0.2380045938624122  0.1061467088459843   T   T   T
  0.6192212085611950  0.3807802982902748  0.1105314472650156   T   T   T
  0.6202066081159083  0.5235061463344323  0.1237371628123552   T   T   T
  0.6202141121376114  0.6681128345648120  0.1236545926753236   T   T   T
  0.6192379305508718  0.8098753277940052  0.1103690287227064   T   T   T
  0.7620033697924614  0.9524769986361953  0.1058091273122846   T   T   T
  0.7619215798982885  0.0952518841944791  0.1045324192903764   T   T   T
  0.7619198472563221  0.2380805471524525  0.1046922278347826   T   T   T
  0.7619983298350576  0.3809296719189502  0.1061455528781038   T   T   T
  0.7622493782726355  0.5238537909749795  0.1098578521248918   T   T   T
  0.7620246876166530  0.6667331634084048  0.1155908259127936   T   T   T
  0.7622487430561683  0.8098132901259610  0.1096719893720916   T   T   T
  0.9524051532167990  0.9047531107882482  0.1067348959963649   T   T   T
  0.9523979933735965  0.0476043041629254  0.1053105255250670   T   T   T
  0.9523436855556036  0.1904344153052878  0.1047213074886600   T   T   T
  0.9523292267423270  0.3333126325856481  0.1049052137260341   T   T   T
  0.9523773662058681  0.4761968671745681  0.1056644011179608   T   T   T
  0.9523988296679446  0.6190787358646330  0.1070396059964533   T   T   T
  0.9524252897005259  0.7619279557172278  0.1082183902128020   T   T   T
  0.0952401955027134  0.9047549601366054  0.1069076479101228   T   T   T
  0.0952506576326932  0.0475987687283612  0.1067353251072200   T   T   T
  0.0951075420904498  0.1903378374331284  0.1065027396965600   T   T   T
  0.0950491239579889  0.3332383515888446  0.1066666111000826   T   T   T
  0.0950707668637782  0.4761797996838385  0.1067276385640245   T   T   T
  0.0952329683853719  0.6190828786172808  0.1069675460745008   T   T   T
  0.0952386448433356  0.7619334280632263  0.1069839078220333   T   T   T
  0.2380676947950824  0.9047616372796182  0.1069856903842471   T   T   T
  0.2380724909140193  0.0475780933348779  0.1082227554927570   T   T   T
  0.2380639269684036  0.1904025595164324  0.1112205238484260   T   T   T
  0.2375291096070612  0.3328462574905491  0.1122674958626492   T   T   T
  0.2375138123413736  0.4760911587085328  0.1123051605499274   T   T   T
  0.2380594268540525  0.6190882725092895  0.1112053152497363   T   T   T
  0.2380631863028572  0.7619355221336283  0.1081934509841358   T   T   T
  0.3809179450184098  0.9047704573576164  0.1069695487065769   T   T   T
  0.3809223673583049  0.0476036327038028  0.1070426654991284   T   T   T
  0.3809117911232345  0.1904055638118110  0.1113287362982915   T   T   T
  0.3807897715512942  0.3329850007862211  0.1244141325720348   T   T   T
  0.3765314223779921  0.4739775064543441  0.1350318681046301   T   T   T
  0.3807815482651593  0.6192185601681609  0.1243474780741567   T   T   T
  0.3809140886359397  0.7619428456745831  0.1112074407244872   T   T   T
  0.5238210809565440  0.9049303351851046  0.1067293540589635   T   T   T
  0.5238042648768534  0.0476248338428759  0.1056671028479239   T   T   T
  0.5238229767246341  0.1903363252153367  0.1068204476497365   T   T   T
  0.5239079163973471  0.3328577595824944  0.1124014907074650   T   T   T
  0.5260129890641563  0.4739859057825137  0.1351370231969415   T   T   T
  0.5260248120489595  0.6234706637282555  0.1350339319670407   T   T   T
  0.5239096928499061  0.7624877852741885  0.1123077028690279   T   T   T
  0.6667662865401593  0.9049537570819043  0.1066692821462894   T   T   T
  0.6666909493335768  0.0476752129198575  0.1049070333036947   T   T   T
  0.6666959384426907  0.1904489029157674  0.1050404047166930   T   T   T
  0.6667628143394687  0.3332411425751336  0.1069481331100907   T   T   T
  0.6671432040207993  0.4760941526763641  0.1124004383155295   T   T   T
  0.6670159918790772  0.6192102981843005  0.1244145136713258   T   T   T
  0.6671530300885309  0.7624711026387480  0.1122698623929869   T   T   T
  0.8096656596641474  0.9048960551657396  0.1065027878551344   T   T   T
  0.8095686814766154  0.0476601536373805  0.1047222738042302   T   T   T
  0.8095269942022202  0.1904732490950988  0.1043046972256549   T   T   T
  0.8095530609393592  0.3333053555069778  0.1050398186274399   T   T   T
  0.8096648863402600  0.4761785240341053  0.1068181659257308   T   T   T
  0.8095963291387936  0.6190903239675898  0.1113243323464171   T   T   T
  0.8095995106244046  0.7619372230775643  0.1112186930901966   T   T   T
  0.4761630712133951  0.5238295070542032  0.1876319886878045   T   T   T

  0.00000000E+00  0.00000000E+00  0.00000000E+00
  0.00000000E+00  0.00000000E+00  0.00000000E+00
  0.00000000E+00  0.00000000E+00  0.00000000E+00
  0.00000000E+00  0.00000000E+00  0.00000000E+00
  0.00000000E+00  0.00000000E+00  0.00000000E+00
  0.00000000E+00  0.00000000E+00  0.00000000E+00
  0.00000000E+00  0.00000000E+00  0.00000000E+00
  0.00000000E+00  0.00000000E+00  0.00000000E+00
  0.00000000E+00  0.00000000E+00  0.00000000E+00
  0.00000000E+00  0.00000000E+00  0.00000000E+00
  0.00000000E+00  0.00000000E+00  0.00000000E+00
  0.00000000E+00  0.00000000E+00  0.00000000E+00
  0.00000000E+00  0.00000000E+00  0.00000000E+00
  0.00000000E+00  0.00000000E+00  0.00000000E+00
  0.00000000E+00  0.00000000E+00  0.00000000E+00
  0.00000000E+00  0.00000000E+00  0.00000000E+00
  0.00000000E+00  0.00000000E+00  0.00000000E+00
  0.00000000E+00  0.00000000E+00  0.00000000E+00
  0.00000000E+00  0.00000000E+00  0.00000000E+00
  0.00000000E+00  0.00000000E+00  0.00000000E+00
  0.00000000E+00  0.00000000E+00  0.00000000E+00
  0.00000000E+00  0.00000000E+00  0.00000000E+00
  0.00000000E+00  0.00000000E+00  0.00000000E+00
  0.00000000E+00  0.00000000E+00  0.00000000E+00
  0.00000000E+00  0.00000000E+00  0.00000000E+00
  0.00000000E+00  0.00000000E+00  0.00000000E+00
  0.00000000E+00  0.00000000E+00  0.00000000E+00
  0.00000000E+00  0.00000000E+00  0.00000000E+00
  0.00000000E+00  0.00000000E+00  0.00000000E+00
  0.00000000E+00  0.00000000E+00  0.00000000E+00
  0.00000000E+00  0.00000000E+00  0.00000000E+00
  0.00000000E+00  0.00000000E+00  0.00000000E+00
  0.00000000E+00  0.00000000E+00  0.00000000E+00
  0.00000000E+00  0.00000000E+00  0.00000000E+00
  0.00000000E+00  0.00000000E+00  0.00000000E+00
  0.00000000E+00  0.00000000E+00  0.00000000E+00
  0.00000000E+00  0.00000000E+00  0.00000000E+00
  0.00000000E+00  0.00000000E+00  0.00000000E+00
  0.00000000E+00  0.00000000E+00  0.00000000E+00
  0.00000000E+00  0.00000000E+00  0.00000000E+00
  0.00000000E+00  0.00000000E+00  0.00000000E+00
  0.00000000E+00  0.00000000E+00  0.00000000E+00
  0.00000000E+00  0.00000000E+00  0.00000000E+00
  0.00000000E+00  0.00000000E+00  0.00000000E+00
  0.00000000E+00  0.00000000E+00  0.00000000E+00
  0.00000000E+00  0.00000000E+00  0.00000000E+00
  0.00000000E+00  0.00000000E+00  0.00000000E+00
  0.00000000E+00  0.00000000E+00  0.00000000E+00
  0.00000000E+00  0.00000000E+00  0.00000000E+00
  0.00000000E+00  0.00000000E+00  0.00000000E+00
  0.00000000E+00  0.00000000E+00  0.00000000E+00
  0.00000000E+00  0.00000000E+00  0.00000000E+00
  0.00000000E+00  0.00000000E+00  0.00000000E+00
  0.00000000E+00  0.00000000E+00  0.00000000E+00
  0.00000000E+00  0.00000000E+00  0.00000000E+00
  0.00000000E+00  0.00000000E+00  0.00000000E+00
  0.00000000E+00  0.00000000E+00  0.00000000E+00
  0.00000000E+00  0.00000000E+00  0.00000000E+00
  0.00000000E+00  0.00000000E+00  0.00000000E+00
  0.00000000E+00  0.00000000E+00  0.00000000E+00
  0.00000000E+00  0.00000000E+00  0.00000000E+00
  0.00000000E+00  0.00000000E+00  0.00000000E+00
  0.00000000E+00  0.00000000E+00  0.00000000E+00
  0.00000000E+00  0.00000000E+00  0.00000000E+00
  0.00000000E+00  0.00000000E+00  0.00000000E+00
  0.00000000E+00  0.00000000E+00  0.00000000E+00
  0.00000000E+00  0.00000000E+00  0.00000000E+00
  0.00000000E+00  0.00000000E+00  0.00000000E+00
  0.00000000E+00  0.00000000E+00  0.00000000E+00
  0.00000000E+00  0.00000000E+00  0.00000000E+00
  0.00000000E+00  0.00000000E+00  0.00000000E+00
  0.00000000E+00  0.00000000E+00  0.00000000E+00
  0.00000000E+00  0.00000000E+00  0.00000000E+00
  0.00000000E+00  0.00000000E+00  0.00000000E+00
  0.00000000E+00  0.00000000E+00  0.00000000E+00
  0.00000000E+00  0.00000000E+00  0.00000000E+00
  0.00000000E+00  0.00000000E+00  0.00000000E+00
  0.00000000E+00  0.00000000E+00  0.00000000E+00
  0.00000000E+00  0.00000000E+00  0.00000000E+00
  0.00000000E+00  0.00000000E+00  0.00000000E+00
  0.00000000E+00  0.00000000E+00  0.00000000E+00
  0.00000000E+00  0.00000000E+00  0.00000000E+00
  0.00000000E+00  0.00000000E+00  0.00000000E+00
  0.00000000E+00  0.00000000E+00  0.00000000E+00
  0.00000000E+00  0.00000000E+00  0.00000000E+00
  0.00000000E+00  0.00000000E+00  0.00000000E+00
  0.00000000E+00  0.00000000E+00  0.00000000E+00
  0.00000000E+00  0.00000000E+00  0.00000000E+00
  0.00000000E+00  0.00000000E+00  0.00000000E+00
  0.00000000E+00  0.00000000E+00  0.00000000E+00
  0.00000000E+00  0.00000000E+00  0.00000000E+00
  0.00000000E+00  0.00000000E+00  0.00000000E+00
  0.00000000E+00  0.00000000E+00  0.00000000E+00
  0.00000000E+00  0.00000000E+00  0.00000000E+00
  0.00000000E+00  0.00000000E+00  0.00000000E+00
  0.00000000E+00  0.00000000E+00  0.00000000E+00
  0.00000000E+00  0.00000000E+00  0.00000000E+00
  0.00000000E+00  0.00000000E+00  0.00000000E+00
