B C N                                   
   1.0000000000000000     
     8.7639499999999995  -15.1796066749929999    0.0000000000000000
     8.7639499999999995   15.1796066749929999    0.0000000000000000
     0.0000000000000000    0.0000000000000000   15.0000000000000000
   B    C    N 
    46     4    47
Selective dynamics
Direct
  0.9057881773128688  0.9532921714038108  0.1110153487145187   T   T   T
  0.9051686086467887  0.0957517489620983  0.1110465350933384   T   T   T
  0.9049361187718499  0.2385345562220293  0.1110951601874419   T   T   T
  0.9046728040794940  0.3812042036230968  0.1109897124565188   T   T   T
  0.9054608161334026  0.5241078370657672  0.1109907768410526   T   T   T
  0.9071392616265039  0.6675688566991254  0.1111077805906320   T   T   T
  0.9071145877482073  0.8112600388142908  0.1110616984568990   T   T   T
  0.0484596549278826  0.9528218811065112  0.1110173246605779   T   T   T
  0.0478324138108359  0.0953456673250437  0.1110035114188408   T   T   T
  0.0476317604784766  0.2382577213442728  0.1109922549110786   T   T   T
  0.0475485341595947  0.3810969454796941  0.1110095758458705   T   T   T
  0.0478004027393031  0.5240358685423987  0.1110028683638812   T   T   T
  0.0484620716044357  0.6669600761956699  0.1110436645428547   T   T   T
  0.0487844248980010  0.8101251192928107  0.1110386088260489   T   T   T
  0.1906163202141105  0.9519513702519045  0.1110349959953684   T   T   T
  0.1900463920528405  0.0942692228123906  0.1110596367772585   T   T   T
  0.1896890938708113  0.2372741066502100  0.1110015587668686   T   T   T
  0.1899558893693530  0.3806005461485601  0.1110133493573253   T   T   T
  0.1901121773758156  0.5240263900416292  0.1110905547654923   T   T   T
  0.1903035902093819  0.6669662394447593  0.1110838401722288   T   T   T
  0.1909311837654127  0.8097280964969005  0.1110151810390399   T   T   T
  0.3335219034269457  0.9521431334832919  0.1110577144908570   T   T   T
  0.3324410475236836  0.0933273959414429  0.1111250775666509   T   T   T
  0.3310564913408812  0.2341848605021863  0.1110706006117278   T   T   T
  0.3316653270896870  0.3795566785370434  0.1110739932502783   T   T   T
  0.3321228664940118  0.5241157033337713  0.1110808664919311   T   T   T
  0.3319045249529060  0.6672342610616387  0.1110979333077591   T   T   T
  0.3334255330214354  0.8100184262707073  0.1110823256964619   T   T   T
  0.4765507985581622  0.9529407280553873  0.1110052541667601   T   T   T
  0.4761937442683563  0.0954528986585983  0.1110106576299057   T   T   T
  0.4739165011670092  0.2365495740818245  0.1110746024758701   T   T   T
  0.4729151417101357  0.6669194176675589  0.1110320579043492   T   T   T
  0.4762985928560371  0.8102866163623875  0.1110241711545999   T   T   T
  0.6193737305959511  0.9529050117016122  0.1109931058517590   T   T   T
  0.6192860336654951  0.0958359995838786  0.1109948608044618   T   T   T
  0.6187881298453225  0.2385822623331799  0.1110181799268521   T   T   T
  0.6175592382744214  0.3822952196120650  0.1109920173331819   T   T   T
  0.6225487604879893  0.6672886449450680  0.1109122979649363   T   T   T
  0.6195985901163867  0.8097196655970501  0.1109108984078588   T   T   T
  0.7626191007894327  0.9530933834519052  0.1109774856553770   T   T   T
  0.7623977138243290  0.0958817585118179  0.1110667535595308   T   T   T
  0.7619910232946422  0.2386355028390523  0.1110734066892633   T   T   T
  0.7612650810422636  0.3813285082739664  0.1110089945319882   T   T   T
  0.7633422851007154  0.5252699131057892  0.1109531059735592   T   T   T
  0.7675939305410125  0.6689051984152373  0.1109435281512824   T   T   T
  0.7632675155045083  0.8107675005532189  0.1109291466934238   T   T   T
  0.4704088655311555  0.3763151429919220  0.1110433852590281   T   T   T
  0.4708290303373802  0.5160015413515227  0.1111824951029639   T   T   T
  0.5121469799197512  0.4677655098951978  0.1111485336009041   T   T   T
  0.5202837120897520  0.6115964870964026  0.1110715712670838   T   T   T
  0.9537576264394567  0.9060490595583022  0.1110211229032230   T   T   T
  0.9530280278463457  0.0483432755728379  0.1110061925027302   T   T   T
  0.9527497513021185  0.1909785935963456  0.1110413578962268   T   T   T
  0.9525478906006623  0.3336825370354018  0.1110149947949134   T   T   T
  0.9527291922371691  0.4763222652759587  0.1109382966960725   T   T   T
  0.9536763965855275  0.6193237467231270  0.1110373223299342   T   T   T
  0.9538945355003873  0.7628901282791800  0.1110749359581278   T   T   T
  0.0959657528425270  0.9051878554458681  0.1109971345890499   T   T   T
  0.0956611217095331  0.0479468898858262  0.1109986587686276   T   T   T
  0.0954698926773459  0.1906873124262094  0.1109622701316915   T   T   T
  0.0954887481976266  0.3334882185980227  0.1109686871973161   T   T   T
  0.0954643048492581  0.4762817095275164  0.1110120628345818   T   T   T
  0.0956239171311579  0.6191669862444894  0.1110234331684485   T   T   T
  0.0960182774764742  0.7622558265794173  0.1109987100454719   T   T   T
  0.2385586785449399  0.9049118275323249  0.1110051499102860   T   T   T
  0.2380088496662067  0.0472483366141860  0.1110800654417281   T   T   T
  0.2376018584510875  0.1898585290371934  0.1110216173795371   T   T   T
  0.2380169349611861  0.3327219910720934  0.1109978262756277   T   T   T
  0.2380682549415842  0.4759172547070702  0.1110568737786107   T   T   T
  0.2375543122438977  0.6190687619801469  0.1111036444955299   T   T   T
  0.2384613527718983  0.7621323841279029  0.1110502639496647   T   T   T
  0.3813754702947718  0.9050621079930372  0.1110362891584696   T   T   T
  0.3810640942861934  0.0474770406420516  0.1110639392000952   T   T   T
  0.3796643717968808  0.1890320169087025  0.1110919477399660   T   T   T
  0.3804475820914880  0.3309576984997485  0.1110550020314770   T   T   T
  0.3792896459061202  0.4744375321625143  0.1111132008024042   T   T   T
  0.3789868646355056  0.6188860461538066  0.1110480282342041   T   T   T
  0.3810135294088508  0.7621723075800255  0.1110671851936260   T   T   T
  0.5240764883819180  0.9052513182781368  0.1109903129862128   T   T   T
  0.5240011979880022  0.0482919866905376  0.1109589835540905   T   T   T
  0.5230901384110421  0.1913235400798790  0.1110033861368370   T   T   T
  0.5181209025617868  0.3337112369575088  0.1110667063412799   T   T   T
  0.5232558780014461  0.7614895754847721  0.1109435864809079   T   T   T
  0.6668603398490281  0.9048533651213236  0.1109359117032020   T   T   T
  0.6669303596446535  0.0481262365769705  0.1109987503376579   T   T   T
  0.6664485523118550  0.1911284922288486  0.1110049957030001   T   T   T
  0.6649025394469692  0.3334210387223295  0.1110088290202188   T   T   T
  0.6702635900674717  0.4728424927022682  0.1107972342271439   T   T   T
  0.6753161740165861  0.6299693003275358  0.1107443498612581   T   T   T
  0.6678140599520357  0.7630245110061695  0.1108615739549118   T   T   T
  0.8105389710054224  0.9058586176653644  0.1109550934693219   T   T   T
  0.8099856387212755  0.0482477260462706  0.1110221365682882   T   T   T
  0.8097065764705124  0.1910347467513094  0.1110970949546370   T   T   T
  0.8091697753679161  0.3336939340213315  0.1110114957977778   T   T   T
  0.8100493395489742  0.4762996618202512  0.1109689359799612   T   T   T
  0.8126006585737072  0.6201420985081909  0.1110310592758668   T   T   T
  0.8120874482280884  0.7642381622390296  0.1109835907100962   T   T   T

  0.00000000E+00  0.00000000E+00  0.00000000E+00
  0.00000000E+00  0.00000000E+00  0.00000000E+00
  0.00000000E+00  0.00000000E+00  0.00000000E+00
  0.00000000E+00  0.00000000E+00  0.00000000E+00
  0.00000000E+00  0.00000000E+00  0.00000000E+00
  0.00000000E+00  0.00000000E+00  0.00000000E+00
  0.00000000E+00  0.00000000E+00  0.00000000E+00
  0.00000000E+00  0.00000000E+00  0.00000000E+00
  0.00000000E+00  0.00000000E+00  0.00000000E+00
  0.00000000E+00  0.00000000E+00  0.00000000E+00
  0.00000000E+00  0.00000000E+00  0.00000000E+00
  0.00000000E+00  0.00000000E+00  0.00000000E+00
  0.00000000E+00  0.00000000E+00  0.00000000E+00
  0.00000000E+00  0.00000000E+00  0.00000000E+00
  0.00000000E+00  0.00000000E+00  0.00000000E+00
  0.00000000E+00  0.00000000E+00  0.00000000E+00
  0.00000000E+00  0.00000000E+00  0.00000000E+00
  0.00000000E+00  0.00000000E+00  0.00000000E+00
  0.00000000E+00  0.00000000E+00  0.00000000E+00
  0.00000000E+00  0.00000000E+00  0.00000000E+00
  0.00000000E+00  0.00000000E+00  0.00000000E+00
  0.00000000E+00  0.00000000E+00  0.00000000E+00
  0.00000000E+00  0.00000000E+00  0.00000000E+00
  0.00000000E+00  0.00000000E+00  0.00000000E+00
  0.00000000E+00  0.00000000E+00  0.00000000E+00
  0.00000000E+00  0.00000000E+00  0.00000000E+00
  0.00000000E+00  0.00000000E+00  0.00000000E+00
  0.00000000E+00  0.00000000E+00  0.00000000E+00
  0.00000000E+00  0.00000000E+00  0.00000000E+00
  0.00000000E+00  0.00000000E+00  0.00000000E+00
  0.00000000E+00  0.00000000E+00  0.00000000E+00
  0.00000000E+00  0.00000000E+00  0.00000000E+00
  0.00000000E+00  0.00000000E+00  0.00000000E+00
  0.00000000E+00  0.00000000E+00  0.00000000E+00
  0.00000000E+00  0.00000000E+00  0.00000000E+00
  0.00000000E+00  0.00000000E+00  0.00000000E+00
  0.00000000E+00  0.00000000E+00  0.00000000E+00
  0.00000000E+00  0.00000000E+00  0.00000000E+00
  0.00000000E+00  0.00000000E+00  0.00000000E+00
  0.00000000E+00  0.00000000E+00  0.00000000E+00
  0.00000000E+00  0.00000000E+00  0.00000000E+00
  0.00000000E+00  0.00000000E+00  0.00000000E+00
  0.00000000E+00  0.00000000E+00  0.00000000E+00
  0.00000000E+00  0.00000000E+00  0.00000000E+00
  0.00000000E+00  0.00000000E+00  0.00000000E+00
  0.00000000E+00  0.00000000E+00  0.00000000E+00
  0.00000000E+00  0.00000000E+00  0.00000000E+00
  0.00000000E+00  0.00000000E+00  0.00000000E+00
  0.00000000E+00  0.00000000E+00  0.00000000E+00
  0.00000000E+00  0.00000000E+00  0.00000000E+00
  0.00000000E+00  0.00000000E+00  0.00000000E+00
  0.00000000E+00  0.00000000E+00  0.00000000E+00
  0.00000000E+00  0.00000000E+00  0.00000000E+00
  0.00000000E+00  0.00000000E+00  0.00000000E+00
  0.00000000E+00  0.00000000E+00  0.00000000E+00
  0.00000000E+00  0.00000000E+00  0.00000000E+00
  0.00000000E+00  0.00000000E+00  0.00000000E+00
  0.00000000E+00  0.00000000E+00  0.00000000E+00
  0.00000000E+00  0.00000000E+00  0.00000000E+00
  0.00000000E+00  0.00000000E+00  0.00000000E+00
  0.00000000E+00  0.00000000E+00  0.00000000E+00
  0.00000000E+00  0.00000000E+00  0.00000000E+00
  0.00000000E+00  0.00000000E+00  0.00000000E+00
  0.00000000E+00  0.00000000E+00  0.00000000E+00
  0.00000000E+00  0.00000000E+00  0.00000000E+00
  0.00000000E+00  0.00000000E+00  0.00000000E+00
  0.00000000E+00  0.00000000E+00  0.00000000E+00
  0.00000000E+00  0.00000000E+00  0.00000000E+00
  0.00000000E+00  0.00000000E+00  0.00000000E+00
  0.00000000E+00  0.00000000E+00  0.00000000E+00
  0.00000000E+00  0.00000000E+00  0.00000000E+00
  0.00000000E+00  0.00000000E+00  0.00000000E+00
  0.00000000E+00  0.00000000E+00  0.00000000E+00
  0.00000000E+00  0.00000000E+00  0.00000000E+00
  0.00000000E+00  0.00000000E+00  0.00000000E+00
  0.00000000E+00  0.00000000E+00  0.00000000E+00
  0.00000000E+00  0.00000000E+00  0.00000000E+00
  0.00000000E+00  0.00000000E+00  0.00000000E+00
  0.00000000E+00  0.00000000E+00  0.00000000E+00
  0.00000000E+00  0.00000000E+00  0.00000000E+00
  0.00000000E+00  0.00000000E+00  0.00000000E+00
  0.00000000E+00  0.00000000E+00  0.00000000E+00
  0.00000000E+00  0.00000000E+00  0.00000000E+00
  0.00000000E+00  0.00000000E+00  0.00000000E+00
  0.00000000E+00  0.00000000E+00  0.00000000E+00
  0.00000000E+00  0.00000000E+00  0.00000000E+00
  0.00000000E+00  0.00000000E+00  0.00000000E+00
  0.00000000E+00  0.00000000E+00  0.00000000E+00
  0.00000000E+00  0.00000000E+00  0.00000000E+00
  0.00000000E+00  0.00000000E+00  0.00000000E+00
  0.00000000E+00  0.00000000E+00  0.00000000E+00
  0.00000000E+00  0.00000000E+00  0.00000000E+00
  0.00000000E+00  0.00000000E+00  0.00000000E+00
  0.00000000E+00  0.00000000E+00  0.00000000E+00
  0.00000000E+00  0.00000000E+00  0.00000000E+00
  0.00000000E+00  0.00000000E+00  0.00000000E+00
  0.00000000E+00  0.00000000E+00  0.00000000E+00
