 B C N 
 1.0
 14.936314146199660   0.000000000000000   0.000000000000000
 -7.468157073099825  12.935227489513863   0.000000000000000
  0.000000000000001   0.000000000000001  13.341276283792837
 B C N 
 142   3 142
Cartesian
  1.238554167332345   0.710325747584762   5.002978606422314 
  5.001623941645315   7.267419736125253   5.002978606422314 
  6.226633390309163   0.707636031738441   5.002978606422314 
  9.962045286636751   7.188863150507729   5.002978606422314 
 11.198771920238023   0.732954491999772   5.002978606422314 
 -3.733939962111433   9.342380705287459  11.673616748318732 
  1.244624476033983   9.342487227115679  11.673616748318732 
  2.489331786574154   2.874428683103674  11.673616748318732 
  6.223471139501004   9.342597002021638  11.673616748318732 
  7.468189163407389   2.874387200721218  11.673616748318732 
 12.446959008676888   2.874495214958880  11.673616748318732 
 -1.232694349889476   9.336229547692126   5.002978606422314 
 -0.022644637374541   2.854018443262008   5.002978606422314 
  4.971871931500722   2.840792179682092   5.002978606422314 
  3.748204247829712   9.403394417494871   5.002978606422314 
  8.718823869734239   9.357190627854186   5.002978606422314 
  9.959787285624868   2.878189089200933   5.002978606422314 
 -4.978709007038271  11.498294483930271  11.673616748318732 
  0.000029170607560  11.498264127063884  11.673616748318732 
  1.244495051765408   5.030393047662881  11.673616748318732 
  6.223396098955942   5.030153242192718  11.673616748318732 
  4.978753663198455  11.498438425864487  11.673616748318732 
 11.202458412052225   5.030327776220821  11.673616748318732 
 -1.245792223694500   5.026279275302048   5.002978606422314 
 -2.482608097643987  11.487903904722847   5.002978606422314 
  2.489544615567355  11.520933367294781   5.002978606422314 
  7.471465829425841  11.514395135609789   5.002978606422314 
  8.708041857437387   5.019125881907840   5.002978606422314 
 -0.000088939256150   7.186439545117913  11.673616748318732 
  1.244646763468916   0.718768876603280  11.673616748318732 
  4.978690241773641   7.186374941155207  11.673616748318732 
  6.223579496943476   0.718659405005745  11.673616748318732 
  9.957799367998687   7.186365422371659  11.673616748318732 
 -2.478708859442022   7.182459679113380   5.002978606422314 
 11.202253804558922   0.718814166724887  11.673616748318732 
  3.731088826929696   0.697924087212671   5.002978606422314 
  2.534748496789769   7.243675696565992   5.002978606422314 
  7.465958400464122   7.225463066326077   5.002978606422314 
  8.711475483161434   0.726722552650250   5.002978606422314 
  2.489229903383944   7.186500679222248  11.673616748318732 
 13.685200073785582   0.724701250908252   5.002978606422314 
 -1.244652059438721   9.342392507918277  11.673616748318732 
 -0.000138796859216   2.874489004440258  11.673616748318732 
  4.978904442720981   2.874369372897990  11.673616748318732 
  3.734000092139613   9.342561011926854  11.673616748318732 
  8.712992181773815   9.342530569997892  11.673616748318732 
  9.957688636760361   2.874426475343092  11.673616748318732 
 -3.726562714145059   9.338797897167149   5.002978606422314 
  1.255609658237183   9.354991066198330   5.002978606422314 
  2.458266245659906   2.841065596911812   5.002978606422314 
  6.231765663404687   9.389668931642158   5.002978606422314 
  7.472239896171411   2.883262748909126   5.002978606422314 
 12.441235937516080   2.877838275087133   5.002978606422314 
 -1.244751901804337   5.030396711372879  11.673616748318732 
 -2.489281110223051  11.498196369751781  11.673616748318732 
  2.489353857381277  11.498365628049447  11.673616748318732 
  3.734032306776803   5.030334626453834  11.673616748318732 
  7.468167373402830  11.498429222361391  11.673616748318732 
 -4.975337992715691  11.493822569668344   5.002978606422314 
  8.713135022355070   5.030216796257079  11.673616748318732 
  0.004704060790748  11.498402356750905   5.002978606422314 
  1.224339759222622   4.977255609749394   5.002978606422314 
  0.021332070559042   7.180169498316308   5.002978606422314 
  4.981875754926031  11.530734217774745   5.002978606422314 
 11.200512257637211   5.031358809945173   5.002978606422314 
 -2.489270173589149   7.186367477259142  11.673616748318732 
  3.734177462731834   0.718676610126113  11.673616748318732 
  7.468285299679207   7.186465640851353  11.673616748318732 
  8.712889564433768   0.718738074361565  11.673616748318732 
 13.691571942473090   0.718840093598142  11.673616748318732 
 -0.000604547980046   1.436414501165026   1.666006624367232 
  3.733427437157181   7.905608184717050   1.666867042163180 
  4.978774144680575   1.436083433491490   1.666306298927847 
  8.713466374892439   7.905517525818817   1.670868876275571 
  9.957132472448212   1.436551181749953   1.666690768069190 
 -4.978303598533651  10.060946313561352   8.339280961033319 
 -0.000360460181146  10.061016513165065   8.338472354387866 
  1.243827705901199   3.591957759963122   8.342685974488603 
  4.978167864580137  10.061598330732719   8.339074229108460 
  6.223158802978166   3.592114141707011   8.335429210095761 
 11.201945591488990   3.592692001329000   8.339131064992863 
 -2.489153092142840  10.060862695464788   1.666893899982429 
 -1.245389922576396   3.592837133973501   1.666199589408148 
  3.734119609493860   3.591699249069286   1.656699112475239 
  2.488630965519740  10.061343294716952   1.667290896415237 
  7.468257832815955  10.061296097156571   1.667112927070832 
  8.712294945865519   3.591599900451600   1.669827372965167 
 -6.223519070748941  12.216068910918681   8.339814616106159 
 -1.244749818501195  12.216180722171762   8.338939342405874 
 -0.000790745648793   5.748967452706660   8.338990339228053 
  4.978598427347526   5.747245911254649   8.344344982427113 
  3.733492390016438  12.216734157291485   8.339956399818913 
  9.957888541967160   5.748745019259421   8.335507037845630 
 -2.489529605187673   5.749102859089863   1.667400220331527 
 -3.733959796600522  12.215839337502228   1.666423074391125 
  1.244186027467361  12.216435430612595   1.666847931173575 
  2.489310813983094   5.748122349391524   1.659098852117299 
  6.223021174347283  12.216634395526176   1.665807234580077 
  7.466568967436869   5.747340342928902   1.670650621461848 
 -1.244922381848240   7.905306066863147   8.338113702643113 
 -0.000604547980046   1.436414501165026   8.339950588477382 
  3.733427437157181   7.905608184717051   8.339090170681434 
  4.978774144680576   1.436083433491490   8.339650913916781 
  8.713466374892439   7.905517525818818   8.335088336569044 
 -3.733438463350772   7.905374164593894   1.667898381243234 
  9.957132472448212   1.436551181749953   8.339266444775451 
  2.489027626060999   1.435630649568363   1.665379736792581 
  1.243938374535472   7.905375564147078   1.667933264739516 
  6.222958117662150   7.905508161110800   1.669980408218114 
  7.467866625329440   1.436447688300918   1.667830387876400 
  1.243938374535472   7.905375564147079   8.338023948105098 
 12.446363763444541   1.436849232302755   1.665913249729264 
 -2.489153092142840  10.060862695464788   8.339063312862198 
 -1.245389922576396   3.592837133973502   8.339757623436492 
  3.734119609493860   3.591699249069287   8.349258100369402 
  2.488630965519741  10.061343294716952   8.338666316429389 
  7.468257832815956  10.061296097156571   8.338844285773796 
  8.712294945865519   3.591599900451601   8.336129839879447 
 -4.978303598533652  10.060946313561352   1.666676251811308 
 -0.000360460181146  10.061016513165065   1.667484858456761 
  1.243827705901199   3.591957759963122   1.663271238356024 
  4.978167864580136  10.061598330732719   1.666882983736154 
  6.223158802978165   3.592114141707010   1.670528002748880 
 11.201945591488990   3.592692001328999   1.666826147851793 
 -2.489529605187672   5.749102859089864   8.338556992513114 
 -3.733959796600522  12.215839337502228   8.339534138453489 
  1.244186027467361  12.216435430612595   8.339109281671051 
  2.489310813983094   5.748122349391525   8.346858360727330 
  6.223021174347283  12.216634395526176   8.340149978264524 
 -6.223519070748942  12.216068910918681   1.666142596738469 
  7.466568967436870   5.747340342928903   8.335306591382778 
 -1.244749818501195  12.216180722171762   1.667017870438753 
 -0.000790745648794   5.748967452706659   1.666966873616575 
 -1.244922381848240   7.905306066863147   1.667843510201515 
  4.978598427347525   5.747245911254648   1.661612230417502 
  3.733492390016438  12.216734157291485   1.666000813025714 
  9.957888541967160   5.748745019259420   1.670450174998997 
 -3.733438463350771   7.905374164593895   8.338058831601407 
  2.489027626060999   1.435630649568364   8.340577476052060 
  6.222958117662150   7.905508161110801   8.335976804626528 
  7.467866625329441   1.436447688300918   8.338126824968226 
 12.446363763444541   1.436849232302756   8.340043963115351 
  2.586831171032375   5.710001282352407   5.002978606422314 
  3.772370311604372   4.894218206168453   5.002978606422314 
  4.796537752177153   5.758297568843469   5.002978606422314 
  1.244234946031563   0.718051946698936   1.669861609183001 
  4.978541229798104   7.185663958167166   1.675634941413064 
  6.223247043366966   0.718275488540712   1.670336282957025 
  9.957122274265799   7.186096134342306   1.675553214438445 
 11.201878990597091   0.718482396697395   1.668689336041659 
 -3.734217701287535   9.341819959004589   8.335662521764071 
  1.244657398293880   9.341755274488309   8.334378905457767 
  2.488881504338577   2.873849136726053   8.337332581002995 
  6.223135609149877   9.341727475227643   8.332379437725651 
  7.467917104157372   2.874356673744222   8.333015002436898 
 12.446467118077075   2.874521317213587   8.336455288516474 
 -1.244711765943001   9.341822435290663   1.670381790627425 
 -0.000401110371182   2.874151659894921   1.669840455096711 
  4.978140176803575   2.873865146631375   1.668690858664672 
  3.733944507403639   9.341797338412787   1.672010420382565 
  8.712594091624890   9.341761264465726   1.672109442747388 
  9.957069389707614   2.874450937655222   1.671385767333222 
 -4.979022093790148  11.497542068908842   8.336727700924246 
 -0.000152757861074  11.497717075990476   8.336378535502238 
  1.244649516477310   5.029908360732700   8.336838114614951 
  6.222583557764348   5.030007976449872   8.337110119765763 
  4.978449669389705  11.497781489387194   8.336949647904067 
 11.201784500784829   5.030480186749077   8.334432756866164 
 -1.244937083150955   5.030345868267943   1.670648877205176 
 -2.489489861291267  11.497615854789524   1.669453747028212 
  2.489098979286298  11.497770504002263   1.669556178907880 
  3.733675903843824   5.029349496807911   1.657264785730048 
  7.467830102049872  11.497548448132672   1.669513230092296 
  8.712151036259034   5.030377681712867   1.680525005145633 
  0.000153022308188   7.185959343537212   8.333271311120225 
  1.244234946031564   0.718051946698937   8.336095603661628 
  4.978541229798105   7.185663958167167   8.330322271431577 
  6.223247043366967   0.718275488540712   8.335620929887602 
  9.957122274265799   7.186096134342307   8.330403998406195 
 -2.489554419288516   7.186183023348620   1.671175592803978 
 11.201878990597091   0.718482396697396   8.337267876802954 
  3.733719136523676   0.718062866904032   1.669940128715709 
  2.489597816430957   7.185718034653934   1.672136030929837 
  7.467651701504015   7.185787774047023   1.683039544641320 
  8.712512272777298   0.718472294774065   1.669985692536340 
  2.489597816430958   7.185718034653935   8.333821181914789 
 13.691195021397185   0.718328126415925   1.668944959458000 
 -1.244711765943001   9.341822435290663   8.335575422217202 
 -0.000401110371182   2.874151659894922   8.336116757747904 
  4.978140176803576   2.873865146631376   8.337266354179956 
  3.733944507403640   9.341797338412787   8.333946792462063 
  8.712594091624890   9.341761264465726   8.333847770097227 
  9.957069389707614   2.874450937655223   8.334571445511406 
 -3.734217701287536   9.341819959004589   1.670294691080557 
  1.244657398293880   9.341755274488309   1.671578307386874 
  2.488881504338576   2.873849136726052   1.668624631841632 
  6.223135609149876   9.341727475227643   1.673577775119004 
  7.467917104157371   2.874356673744221   1.672942210407741 
 12.446467118077075   2.874521317213586   1.669501924328155 
 -1.244937083150955   5.030345868267944   8.335308335639452 
 -2.489489861291267  11.497615854789524   8.336503465816415 
  2.489098979286298  11.497770504002263   8.336401033936747 
  3.733675903843824   5.029349496807912   8.348692427114592 
  7.467830102049873  11.497548448132672   8.336443982752332 
 -4.979022093790149  11.497542068908842   1.669229511920382 
  8.712151036259034   5.030377681712868   8.325432207698995 
 -0.000152757861074  11.497717075990476   1.669578677342403 
  1.244649516477309   5.029908360732699   1.669119098229691 
  0.000153022308187   7.185959343537212   1.672685901724402 
  6.222583557764347   5.030007976449872   1.668847093078852 
  4.978449669389704  11.497781489387194   1.669007564940561 
 11.201784500784829   5.030480186749076   1.671524455978450 
 -2.489554419288516   7.186183023348621   8.334781620040664 
  3.733719136523676   0.718062866904033   8.336017084128919 
  7.467651701504016   7.185787774047024   8.322917668203306 
  8.712512272777298   0.718472294774066   8.335971520308261 
 13.691195021397185   0.718328126415925   8.337012253386627 
 -0.005628107029604   1.428911925071243   5.002978606422314 
  3.761245456301368   7.969843587765784   5.002978606422314 
  4.974318135077064   1.412148372465492   5.002978606422314 
  8.710601672710634   7.911656258535336   5.002978606422314 
  9.953632139137667   1.448227562698971   5.002978606422314 
 -4.978789690282831  10.060872861915346  11.673616748318732 
  0.000058797071482  10.060897541445183  11.673616748318732 
  1.244695945329924   3.593262967078204  11.673616748318732 
  4.978827228228688  10.060884059399953  11.673616748318732 
  6.223484255877687   3.593278718405186  11.673616748318732 
 11.202287010108758   3.593292260365549  11.673616748318732 
 -2.480796399301906  10.050227486481974   5.002978606422314 
 -1.250277655831782   3.591748483218371   5.002978606422314 
  3.719621709655053   3.549238253444351   5.002978606422314 
  2.494113364411997  10.084529198721784   5.002978606422314 
  7.477861298844243  10.077248890774817   5.002978606422314 
  8.712019216336159   3.604602813848433   5.002978606422314 
 -6.223486313982807  12.216804392420157  11.673616748318732 
 -1.244640455907365  12.216782878795346  11.673616748318732 
  0.000023048450840   5.749127596142205  11.673616748318732 
  4.978764895605118   5.749206703608696  11.673616748318732 
  3.734133571651774  12.216778450399790  11.673616748318732 
  9.957594783533485   5.749134051793632  11.673616748318732 
 -2.489549660795943   5.747501180617768   5.002978606422314 
 -3.730291310449364  12.203660172159484   5.002978606422314 
  1.242994451646294  12.227468471216474   5.002978606422314 
  6.227475028848835  12.230200282170108   5.002978606422314 
  7.416841795633147   5.756996725052401   5.002978606422314 
 -1.244664969929818   7.904951035519013  11.673616748318732 
  0.000014403447847   1.437389902808595  11.673616748318732 
  3.734138434064228   7.904961483891767  11.673616748318732 
  4.978817153288368   1.437388964800911  11.673616748318732 
  8.712864837441391   7.904965006939186  11.673616748318732 
 -3.731223980648567   7.898381166962144   5.002978606422314 
  9.957572428449398   1.437412849438330  11.673616748318732 
  2.486669683155986   1.421445462533364   5.002978606422314 
  1.272223991748397   7.910337822810088   5.002978606422314 
  6.238011480908554   7.943095457994723   5.002978606422314 
  7.463824503234476   1.439959321934780   5.002978606422314 
  1.244771099740623   7.904979224909309  11.673616748318732 
 12.443239751846249   1.446313018858336   5.002978606422314 
 -2.489377096145056  10.060846155264255  11.673616748318732 
 -1.244664271059382   3.593263922621801  11.673616748318732 
  3.734075978957132   3.593267334977693  11.673616748318732 
  2.489464117554220  10.060874819466045  11.673616748318732 
  7.468163348069915  10.060919380834630  11.673616748318732 
  8.712900645833656   3.593297722312272  11.673616748318732 
 -4.972278122077647  10.057815291742449   5.002978606422314 
  0.008859190263645  10.060269456164228   5.002978606422314 
  1.226480617996292   3.561110786164090   5.002978606422314 
  4.991825785051049  10.098918055556355   5.002978606422314 
  6.204180179737262   3.492149263417559   5.002978606422314 
 11.196912371926441   3.600012361359766   5.002978606422314 
 -2.489372068521335   5.749125122978334  11.673616748318732 
 -3.734075383230106  12.216766093215060  11.673616748318732 
  1.244725086452861  12.216804167927499  11.673616748318732 
  2.489389361609664   5.749185100510955  11.673616748318732 
  6.223522960572522  12.216796740144868  11.673616748318732 
 -6.218854572100382  12.215570054601358   5.002978606422314 
  7.468214544351431   5.749165136042710  11.673616748318732 
 -1.241039911443566  12.209334417520557   5.002978606422314 
  0.012265575538166   5.736740029664876   5.002978606422314 
 -1.226553508963627   7.895140917621275   5.002978606422314 
  3.733810494069834  12.235653959029600   5.002978606422314 
  9.941648119332726   5.749368590250846   5.002978606422314 
 -3.734084212803716   7.904925553277879  11.673616748318732 
  2.489375068056292   1.437397624156523  11.673616748318732 
  6.223476279654921   7.904984989500542  11.673616748318732 
  7.468191445974693   1.437419584879608  11.673616748318732 
 12.446994333756860   1.437405000729673  11.673616748318732 
Generated by cif2cell 2.0.0.  :  Failed to get author information, No journal information. Species order: B C N 
 1.0
 14.936314146199660   0.000000000000000   0.000000000000000
 -7.468157073099825  12.935227489513863   0.000000000000000
  0.000000000000001   0.000000000000001  13.341276283792837
 B C N 
 142   3 142
Cartesian
  1.238554167332345   0.710325747584762   5.002978606422314 
  5.001623941645315   7.267419736125253   5.002978606422314 
  6.226633390309163   0.707636031738441   5.002978606422314 
  9.962045286636751   7.188863150507729   5.002978606422314 
 11.198771920238023   0.732954491999772   5.002978606422314 
 -3.733939962111433   9.342380705287459  11.673616748318732 
  1.244624476033983   9.342487227115679  11.673616748318732 
  2.489331786574154   2.874428683103674  11.673616748318732 
  6.223471139501004   9.342597002021638  11.673616748318732 
  7.468189163407389   2.874387200721218  11.673616748318732 
 12.446959008676888   2.874495214958880  11.673616748318732 
 -1.232694349889476   9.336229547692126   5.002978606422314 
 -0.022644637374541   2.854018443262008   5.002978606422314 
  4.971871931500722   2.840792179682092   5.002978606422314 
  3.748204247829712   9.403394417494871   5.002978606422314 
  8.718823869734239   9.357190627854186   5.002978606422314 
  9.959787285624868   2.878189089200933   5.002978606422314 
 -4.978709007038271  11.498294483930271  11.673616748318732 
  0.000029170607560  11.498264127063884  11.673616748318732 
  1.244495051765408   5.030393047662881  11.673616748318732 
  6.223396098955942   5.030153242192718  11.673616748318732 
  4.978753663198455  11.498438425864487  11.673616748318732 
 11.202458412052225   5.030327776220821  11.673616748318732 
 -1.245792223694500   5.026279275302048   5.002978606422314 
 -2.482608097643987  11.487903904722847   5.002978606422314 
  2.489544615567355  11.520933367294781   5.002978606422314 
  7.471465829425841  11.514395135609789   5.002978606422314 
  8.708041857437387   5.019125881907840   5.002978606422314 
 -0.000088939256150   7.186439545117913  11.673616748318732 
  1.244646763468916   0.718768876603280  11.673616748318732 
  4.978690241773641   7.186374941155207  11.673616748318732 
  6.223579496943476   0.718659405005745  11.673616748318732 
  9.957799367998687   7.186365422371659  11.673616748318732 
 -2.478708859442022   7.182459679113380   5.002978606422314 
 11.202253804558922   0.718814166724887  11.673616748318732 
  3.731088826929696   0.697924087212671   5.002978606422314 
  2.534748496789769   7.243675696565992   5.002978606422314 
  7.465958400464122   7.225463066326077   5.002978606422314 
  8.711475483161434   0.726722552650250   5.002978606422314 
  2.489229903383944   7.186500679222248  11.673616748318732 
 13.685200073785582   0.724701250908252   5.002978606422314 
 -1.244652059438721   9.342392507918277  11.673616748318732 
 -0.000138796859216   2.874489004440258  11.673616748318732 
  4.978904442720981   2.874369372897990  11.673616748318732 
  3.734000092139613   9.342561011926854  11.673616748318732 
  8.712992181773815   9.342530569997892  11.673616748318732 
  9.957688636760361   2.874426475343092  11.673616748318732 
 -3.726562714145059   9.338797897167149   5.002978606422314 
  1.255609658237183   9.354991066198330   5.002978606422314 
  2.458266245659906   2.841065596911812   5.002978606422314 
  6.231765663404687   9.389668931642158   5.002978606422314 
  7.472239896171411   2.883262748909126   5.002978606422314 
 12.441235937516080   2.877838275087133   5.002978606422314 
 -1.244751901804337   5.030396711372879  11.673616748318732 
 -2.489281110223051  11.498196369751781  11.673616748318732 
  2.489353857381277  11.498365628049447  11.673616748318732 
  3.734032306776803   5.030334626453834  11.673616748318732 
  7.468167373402830  11.498429222361391  11.673616748318732 
 -4.975337992715691  11.493822569668344   5.002978606422314 
  8.713135022355070   5.030216796257079  11.673616748318732 
  0.004704060790748  11.498402356750905   5.002978606422314 
  1.224339759222622   4.977255609749394   5.002978606422314 
  0.021332070559042   7.180169498316308   5.002978606422314 
  4.981875754926031  11.530734217774745   5.002978606422314 
 11.200512257637211   5.031358809945173   5.002978606422314 
 -2.489270173589149   7.186367477259142  11.673616748318732 
  3.734177462731834   0.718676610126113  11.673616748318732 
  7.468285299679207   7.186465640851353  11.673616748318732 
  8.712889564433768   0.718738074361565  11.673616748318732 
 13.691571942473090   0.718840093598142  11.673616748318732 
 -0.000604547980046   1.436414501165026   1.666006624367232 
  3.733427437157181   7.905608184717050   1.666867042163180 
  4.978774144680575   1.436083433491490   1.666306298927847 
  8.713466374892439   7.905517525818817   1.670868876275571 
  9.957132472448212   1.436551181749953   1.666690768069190 
 -4.978303598533651  10.060946313561352   8.339280961033319 
 -0.000360460181146  10.061016513165065   8.338472354387866 
  1.243827705901199   3.591957759963122   8.342685974488603 
  4.978167864580137  10.061598330732719   8.339074229108460 
  6.223158802978166   3.592114141707011   8.335429210095761 
 11.201945591488990   3.592692001329000   8.339131064992863 
 -2.489153092142840  10.060862695464788   1.666893899982429 
 -1.245389922576396   3.592837133973501   1.666199589408148 
  3.734119609493860   3.591699249069286   1.656699112475239 
  2.488630965519740  10.061343294716952   1.667290896415237 
  7.468257832815955  10.061296097156571   1.667112927070832 
  8.712294945865519   3.591599900451600   1.669827372965167 
 -6.223519070748941  12.216068910918681   8.339814616106159 
 -1.244749818501195  12.216180722171762   8.338939342405874 
 -0.000790745648793   5.748967452706660   8.338990339228053 
  4.978598427347526   5.747245911254649   8.344344982427113 
  3.733492390016438  12.216734157291485   8.339956399818913 
  9.957888541967160   5.748745019259421   8.335507037845630 
 -2.489529605187673   5.749102859089863   1.667400220331527 
 -3.733959796600522  12.215839337502228   1.666423074391125 
  1.244186027467361  12.216435430612595   1.666847931173575 
  2.489310813983094   5.748122349391524   1.659098852117299 
  6.223021174347283  12.216634395526176   1.665807234580077 
  7.466568967436869   5.747340342928902   1.670650621461848 
 -1.244922381848240   7.905306066863147   8.338113702643113 
 -0.000604547980046   1.436414501165026   8.339950588477382 
  3.733427437157181   7.905608184717051   8.339090170681434 
  4.978774144680576   1.436083433491490   8.339650913916781 
  8.713466374892439   7.905517525818818   8.335088336569044 
 -3.733438463350772   7.905374164593894   1.667898381243234 
  9.957132472448212   1.436551181749953   8.339266444775451 
  2.489027626060999   1.435630649568363   1.665379736792581 
  1.243938374535472   7.905375564147078   1.667933264739516 
  6.222958117662150   7.905508161110800   1.669980408218114 
  7.467866625329440   1.436447688300918   1.667830387876400 
  1.243938374535472   7.905375564147079   8.338023948105098 
 12.446363763444541   1.436849232302755   1.665913249729264 
 -2.489153092142840  10.060862695464788   8.339063312862198 
 -1.245389922576396   3.592837133973502   8.339757623436492 
  3.734119609493860   3.591699249069287   8.349258100369402 
  2.488630965519741  10.061343294716952   8.338666316429389 
  7.468257832815956  10.061296097156571   8.338844285773796 
  8.712294945865519   3.591599900451601   8.336129839879447 
 -4.978303598533652  10.060946313561352   1.666676251811308 
 -0.000360460181146  10.061016513165065   1.667484858456761 
  1.243827705901199   3.591957759963122   1.663271238356024 
  4.978167864580136  10.061598330732719   1.666882983736154 
  6.223158802978165   3.592114141707010   1.670528002748880 
 11.201945591488990   3.592692001328999   1.666826147851793 
 -2.489529605187672   5.749102859089864   8.338556992513114 
 -3.733959796600522  12.215839337502228   8.339534138453489 
  1.244186027467361  12.216435430612595   8.339109281671051 
  2.489310813983094   5.748122349391525   8.346858360727330 
  6.223021174347283  12.216634395526176   8.340149978264524 
 -6.223519070748942  12.216068910918681   1.666142596738469 
  7.466568967436870   5.747340342928903   8.335306591382778 
 -1.244749818501195  12.216180722171762   1.667017870438753 
 -0.000790745648794   5.748967452706659   1.666966873616575 
 -1.244922381848240   7.905306066863147   1.667843510201515 
  4.978598427347525   5.747245911254648   1.661612230417502 
  3.733492390016438  12.216734157291485   1.666000813025714 
  9.957888541967160   5.748745019259420   1.670450174998997 
 -3.733438463350771   7.905374164593895   8.338058831601407 
  2.489027626060999   1.435630649568364   8.340577476052060 
  6.222958117662150   7.905508161110801   8.335976804626528 
  7.467866625329441   1.436447688300918   8.338126824968226 
 12.446363763444541   1.436849232302756   8.340043963115351 
  2.586831171032375   5.710001282352407   5.002978606422314 
  3.772370311604372   4.894218206168453   5.002978606422314 
  4.796537752177153   5.758297568843469   5.002978606422314 
  1.244234946031563   0.718051946698936   1.669861609183001 
  4.978541229798104   7.185663958167166   1.675634941413064 
  6.223247043366966   0.718275488540712   1.670336282957025 
  9.957122274265799   7.186096134342306   1.675553214438445 
 11.201878990597091   0.718482396697395   1.668689336041659 
 -3.734217701287535   9.341819959004589   8.335662521764071 
  1.244657398293880   9.341755274488309   8.334378905457767 
  2.488881504338577   2.873849136726053   8.337332581002995 
  6.223135609149877   9.341727475227643   8.332379437725651 
  7.467917104157372   2.874356673744222   8.333015002436898 
 12.446467118077075   2.874521317213587   8.336455288516474 
 -1.244711765943001   9.341822435290663   1.670381790627425 
 -0.000401110371182   2.874151659894921   1.669840455096711 
  4.978140176803575   2.873865146631375   1.668690858664672 
  3.733944507403639   9.341797338412787   1.672010420382565 
  8.712594091624890   9.341761264465726   1.672109442747388 
  9.957069389707614   2.874450937655222   1.671385767333222 
 -4.979022093790148  11.497542068908842   8.336727700924246 
 -0.000152757861074  11.497717075990476   8.336378535502238 
  1.244649516477310   5.029908360732700   8.336838114614951 
  6.222583557764348   5.030007976449872   8.337110119765763 
  4.978449669389705  11.497781489387194   8.336949647904067 
 11.201784500784829   5.030480186749077   8.334432756866164 
 -1.244937083150955   5.030345868267943   1.670648877205176 
 -2.489489861291267  11.497615854789524   1.669453747028212 
  2.489098979286298  11.497770504002263   1.669556178907880 
  3.733675903843824   5.029349496807911   1.657264785730048 
  7.467830102049872  11.497548448132672   1.669513230092296 
  8.712151036259034   5.030377681712867   1.680525005145633 
  0.000153022308188   7.185959343537212   8.333271311120225 
  1.244234946031564   0.718051946698937   8.336095603661628 
  4.978541229798105   7.185663958167167   8.330322271431577 
  6.223247043366967   0.718275488540712   8.335620929887602 
  9.957122274265799   7.186096134342307   8.330403998406195 
 -2.489554419288516   7.186183023348620   1.671175592803978 
 11.201878990597091   0.718482396697396   8.337267876802954 
  3.733719136523676   0.718062866904032   1.669940128715709 
  2.489597816430957   7.185718034653934   1.672136030929837 
  7.467651701504015   7.185787774047023   1.683039544641320 
  8.712512272777298   0.718472294774065   1.669985692536340 
  2.489597816430958   7.185718034653935   8.333821181914789 
 13.691195021397185   0.718328126415925   1.668944959458000 
 -1.244711765943001   9.341822435290663   8.335575422217202 
 -0.000401110371182   2.874151659894922   8.336116757747904 
  4.978140176803576   2.873865146631376   8.337266354179956 
  3.733944507403640   9.341797338412787   8.333946792462063 
  8.712594091624890   9.341761264465726   8.333847770097227 
  9.957069389707614   2.874450937655223   8.334571445511406 
 -3.734217701287536   9.341819959004589   1.670294691080557 
  1.244657398293880   9.341755274488309   1.671578307386874 