 Si N B 
 1.0
 17.527899999999772   0.000000000000000   0.000000000000000
 -8.763949999999658  15.179606674993195   0.000000000000000
  0.000000000000001   0.000000000000002  15.000000000000000
 Si N B 
   2  48  48
Cartesian
  3.522304930386419   8.086154537586550   1.668381862326420 
  5.192894020574538   7.121633209709481   1.678441144357125 
  8.776627821499186  13.760843379718871   1.663686017223240 
 16.265236728762748   0.729013166587157   1.659785818969125 
 15.004936770687717   2.886018901645253   1.661482164870405 
 13.759419700291655   5.051701113030354   1.665458698765290 
 12.537354766469422   7.225092550772350   1.663815393912315 
 11.299685207945648   9.407589429821041   1.662373387244295 
 10.044136220357329  11.588802693098490   1.664088784652610 
 -6.253019410633595  13.729934410349065   1.662204591273780 
  1.235036252753255   0.698423612717708   1.663686017223240 
 -0.038615886280287   2.857452925451854   1.663310879957460 
 -1.295220613301828   5.036202416501057   1.663162613385690 
 -2.543672078401316   7.220050167809772   1.663062122455410 
 -3.752873004367623   9.399758413146502   1.663324139876970 
 -4.995363629295543  11.568705438228438   1.662778079295600 
 -3.752512326713473  13.721387040553491   1.662778079295600 
  3.749832864848497   0.686749483107422   1.664088784652610 
  2.452515830211069   2.806961891425584   1.662699122743905 
  1.173213176489033   4.984061334731728   1.663180937778240 
 -0.119957542674908   7.205866747694170   1.667012464501785 
 -1.273713574566388   9.401374679404467   1.661956986235650 
 -2.506206806840340  11.566711144945879   1.659814229505630 
 -1.252903791066381  13.729832107943086   1.663324139876970 
  6.266593455712815   0.690018795798608   1.662373387244295 
  5.004944071238074   2.818039792591320   1.662863812304370 
  3.661727525088771   4.892252769838730   1.670338268366745 
  2.222278090562100   7.111504811783878   1.672077748123890 
  1.220075286687270   9.415341175170850   1.672082906914845 
 -0.014723803804499  11.582008928574515   1.661956986235650 
  1.239379385199505  13.772487510444984   1.663062122455410 
  8.775525975893578   0.709413956150777   1.663815393912300 
  7.554877779104092   2.820146958716049   1.655480377670400 
  6.339632216604263   4.897303959009966   1.693260875435250 
  3.716357505463794   9.699326268964763   1.672077748123890 
  2.463519855195623  11.680580861041683   1.667012464501785 
  3.754872748380604  13.783220701931581   1.663162613385690 
 11.268770640257470   0.737770397256882   1.665458698765290 
 10.029971084105693   2.882789308999782   1.659704369963970 
  8.799490081717677   5.039364002950421   1.665884827290030 
  7.692588756076042   7.240693425807307   1.693260875435250 
  6.358010868450492   9.562352512174314   1.670338268366745 
  5.034245144669186  11.671564873297230   1.663180937778240 
  6.270027519639045  13.784343831340140   1.663310879957460 
 13.767064987056818   0.741962079139417   1.661482164870405 
 12.517748562584805   2.892626468115198   1.665001803869025 
 11.282379053048214   5.052023542982769   1.659704369963970 
 10.099082267246949   7.226838396993083   1.655480377670400 
  8.825940272698997   9.436199349048788   1.662863812304370 
  7.559319896015837  11.652205997697694   1.662699122743905 
  7.522770198744537  14.479251848802170   1.662525187860675 
 15.016273795480190   1.450108519256248   1.660665912448905 
 13.761650041627959   3.611391144417106   1.664527749778875 
 12.522268523831332   5.781198011026713   1.663171069231725 
 11.316051548249373   7.962053483272290   1.659673896744945 
 10.061277712693911  10.147041447824979   1.662621555796890 
  8.805869160292623  12.334049252028835   1.664057983838895 
 -7.503434512738139  14.451868173078369   1.663240118667660 
 -0.014047115822627   1.425101332607119   1.662525187860675 
 -1.279129480651936   3.594562751580157   1.662622475581290 
 -2.531901348851819   5.774287755486713   1.664296076000685 
 -3.766030750294286   7.956104640066429   1.664024655003675 
 -4.991581936705587  10.129101718062282   1.663527427835445 
 -6.239785548236825  12.295049364214714   1.663393253879850 
 -5.003750150651360  14.435925472786060   1.663393253879850 
  2.485302310020978   1.386506334724644   1.664057983838895 
  1.207986908987745   3.548112715870022   1.663181787408480 
 -0.060205908869436   5.749252266151139   1.664471632206315 
 -1.325542357599756   7.954147070730810   1.663923505121235 
 -2.513459911444914  10.127148048677800   1.661567841116160 
 -3.752027637675270  12.285992403921334   1.661694276145170 
 -2.503882660033246  14.437923259180961   1.663527427835445 
  5.007010902954242   1.392794538318392   1.662621555796890 
  3.704789366488992   3.482167815227084   1.664798420060250 
  2.418052340854409   5.668513831159907   1.668622328293590 
  1.082572664150913   7.937164657090584   1.671582950359710 
 -0.029840069266659  10.136986409336043   1.665365778696690 
 -1.263129720085182  12.292783466319928   1.661567841116160 
 -0.009236394934218  14.463063337108778   1.664024655003675 
  7.526652904999123   1.398622502998645   1.659673896744945 
  6.304019506234845   3.489475444457953   1.669821735409380 
  4.996070727389371   5.398209572262628   1.686833651643555 
  2.431467818684670  10.273519598825969   1.671582950359710 
  1.212703106188016  12.350517176062084   1.663923505121235 
  2.497337154222025  14.485184366191774   1.664296076000685 
 10.018437633719273   1.444435695792143   1.663171069231725 
  8.782445524726391   3.590046772686481   1.659766570087905 
  7.557559799548555   5.756399052616427   1.686405148461045 
  6.587016452815261   8.153808400814500   1.686833651643540 
  5.063916904590914  10.251285685528728   1.668622328293590 
  3.754866243974485  12.357151069416872   1.664471632206315 
  5.011420314969328  14.490114605137592   1.662622475581290 
 12.517236260406778   1.456003249703891   1.664527749778875 
 11.273365939514548   3.611077377450266   1.662173585027610 
 10.046118770102865   5.778793037844491   1.659766570087905 
  8.894003085986004   7.975458595388333   1.669821735409380 
  7.600716608668630  10.230111741305704   1.664798420060250 
  6.295205420720520  12.359433647396058   1.663181787408480 
