 B As N 
 1.0
 17.527899999999772   0.000000000000000   0.000000000000000
 -8.763949999999658  15.179606674993195   0.000000000000000
  0.000000000000001   0.000000000000002  15.000000000000000
 B As N 
  47   1  49
Cartesian
  7.583605746826558  14.491910082875288   1.661612178911250 
 15.092048325062692   1.460221440822775   1.660324417656405 
 13.843700778024386   3.613281097050937   1.660478338623930 
 12.597367284432423   5.775461516286596   1.661250222289050 
 11.342303723744134   7.944339798349674   1.659072146192325 
 10.088725676819728  10.115073763504514   1.661687429672955 
  8.794920448339482  12.269663987034328   1.663843223063535 
 -7.466460363203694  14.483514246984017   1.661099770136235 
  0.071387685918853   1.481307852896551   1.660871294073135 
 -1.184028288075514   3.627803381487172   1.660988242359690 
 -2.453012625737533   5.788737155907282   1.660313521897875 
 -3.729557992871315   7.964315549829115   1.659721520157810 
 -4.981721443583552  10.140990890818841   1.659435044649390 
 -6.233773526846013  12.311688913655214   1.661756110275360 
 -4.978690463631759  14.497255534907790   1.661134121244000 
  2.570335634646379   1.511183301813554   1.661144717688225 
  1.328502482036959   3.657970716232178   1.661642920882470 
  0.040211193430484   5.797767676387637   1.660637009263935 
 -1.279186290919541   7.973685992863222   1.661826079304775 
 -2.529702470855651  10.155022269425597   1.661057271506640 
 -3.749703704724883  12.325483928526570   1.660505722153620 
 -2.487880945365159  14.493151633542132   1.660356241813395 
  5.051411676362008   1.489424689237908   1.661983822436325 
  3.863981647890733   3.734090454455806   1.662405332995125 
  2.581075616626950   5.822756479947150   1.658807204295330 
  1.141402914150997   7.996560862232855   1.661308129634820 
 -0.099724645737034  10.172795470180107   1.661443491276615 
 -1.266418324661832  12.332463794622187   1.660980413980755 
  0.017875705403384  14.474706827166720   1.661562269636475 
  7.561219540211386   1.447946382944961   1.662359999776260 
  6.345555918975163   3.606556956227270   1.660897342174050 
  5.282540189936208   5.942415515729157   1.663898759763885 
  2.314345098567133  10.148526056621343   1.659111666651135 
  1.235537430043268  12.319586834872888   1.660268394154710 
  2.518217339701307  14.490926173994403   1.662899074636320 
 10.069423545241904   1.439418196026887   1.662757093529190 
  8.859872468474039   3.566817146076323   1.661775354915015 
  7.683853149407831   5.676912368124628   1.658499525039525 
  6.367276289568743   7.566541097776220   1.666980281032200 
  3.725348891854744  12.374989023910704   1.663837843788375 
  5.056548827384944  14.484686472682252   1.663413142610850 
 12.579750006563842   1.449233798701947   1.659789867508425 
 11.350074986590645   3.596275506282322   1.660675022160885 
 10.130627318419677   5.747068449194792   1.658373929275890 
  8.886354937212339   7.892479819530468   1.658591988575400 
  7.622442062993468  10.004666497940093   1.667147153574870 
  6.338587110776237  12.350973827863827   1.668333604425915 
  5.019887526020248  10.009127656282917   1.659043171588815 
  8.807097392695502  13.730408311376328   1.661292330301785 
 16.348601509475927   0.749671047077504   1.659917923707405 
 15.096384844645780   2.899738454531779   1.660555507612575 
 13.841402036456115   5.055838749264805   1.661955849578475 
 12.577276720341011   7.221900302926215   1.660695181539090 
 11.320561902021055   9.394253099803725   1.659033785926305 
 10.047449233105890  11.562404935349351   1.662761678144385 
 -6.226056721039921  13.759427386338146   1.661488822008450 
  1.317043896777151   0.762067558684069   1.660445217053835 
  0.078223624161824   2.926602056660959   1.661493451775505 
 -1.195216718123172   5.071542937987624   1.659334716363900 
 -2.491037629212485   7.234753706513184   1.659155896780635 
 -3.748774021274709   9.412252580474714   1.659166189182150 
 -4.990776089719444  11.587993270470513   1.660107236399955 
 -3.737024511869487  13.769494177860965   1.660201158740070 
  3.801624946598902   0.768175068250805   1.661271604896030 
  2.599210884950154   2.979215205223189   1.661508129858450 
  1.326306069867674   5.107644109928910   1.660373697492435 
 -0.037023993200504   7.241918040826838   1.663382763398205 
 -1.300328411481000   9.421246629610124   1.662097338264270 
 -2.507239857084620  11.599002005996859   1.660708050898545 
 -1.240658316193716  13.767602424292367   1.660162763209095 
  6.294778474460563   0.754601959371487   1.661085935586360 
  5.072934916483259   2.942759400224405   1.662105912993510 
  3.919261866541954   5.240611884674014   1.662212942476110 
  2.398768952207435   7.277290419921835   1.653591539854425 
  1.116882373700077   9.430576534683267   1.660243761598545 
 -0.020675506413139  11.605798434173245   1.660401339384720 
  1.271085663971598  13.752302535228742   1.661783586516660 
  8.809861812286007   0.728194584443523   1.662551041495140 
  7.588915652459485   2.881255543489328   1.661895022916955 
  6.394184872435295   5.039401547351065   1.659191393938830 
  3.535321795928906   7.929022027479550   1.637711758163535 
  3.419491250006525   9.225608235751466   1.654306930144665 
  2.497598480997556  11.577365544357299   1.658757137743065 
  3.770997770697239  13.787818457125464   1.663793318039790 
 11.318651889310944   0.734377034043628   1.661521937184420 
 10.101908111459426   2.867348060681930   1.662923934408870 
  8.906134394195435   4.993159643735103   1.658785315833525 
  7.687472607748555   7.098789957040801   1.657923866006175 
  6.484834496648041   9.050072705426063   1.672234370526240 
  5.022913873317171  11.781819578099325   1.670676277941630 
  6.328285296070805  13.774988364190623   1.664671687489200 
 13.834803889186480   0.735227897861367   1.660032646332285 
 12.596961379869605   2.884720656950723   1.658519618030970 
 11.365702570263108   5.036529974738819   1.660047780895635 
 10.121204447851685   7.192414048810059   1.656623600005830 
  8.867711015855143   9.346045897918771   1.662084528972900 
  7.524085764851007  11.494670282386531   1.666534052255925 
