B N Sn                                  
   1.0000000000000000     
     8.7639499999999995  -15.1796066749929999    0.0000000000000000
     8.7639499999999995   15.1796066749929999    0.0000000000000000
     0.0000000000000000    0.0000000000000000   15.0000000000000000
   B    N    Sn
    48    48     1
Selective dynamics
Direct
  0.9047536678061875  0.9525323685873850  0.1251579485895523   T   T   T
  0.9046476092548132  0.0953524966846935  0.1248844560744528   T   T   T
  0.9046968135042696  0.2382388860799438  0.1201976557610627   T   T   T
  0.9048149947453306  0.3810828845746054  0.1139200457147074   T   T   T
  0.9045513220173133  0.5238586725519037  0.1109654294227920   T   T   T
  0.9040901095086562  0.6664650467388913  0.1140287969793578   T   T   T
  0.9040269991794361  0.8090736156943562  0.1203250517207752   T   T   T
  0.0475103278557000  0.9524799233409520  0.1223704137507315   T   T   T
  0.0474494630043599  0.0952235935101842  0.1249704282400814   T   T   T
  0.0474395012294803  0.2382526374146111  0.1225686822393699   T   T   T
  0.0474055244515154  0.3811840659645933  0.1161046918448495   T   T   T
  0.0474511665322497  0.5240051451243608  0.1116620115221859   T   T   T
  0.0474170419737371  0.6667567160773964  0.1122769551736385   T   T   T
  0.0473106756693292  0.8095381434984613  0.1170794653080121   T   T   T
  0.1904535334307757  0.9526795486748986  0.1170750696961149   T   T   T
  0.1909128091378130  0.0959619032289552  0.1202262289663850   T   T   T
  0.1898018787302747  0.2378041620540294  0.1208132377911024   T   T   T
  0.1897865023642166  0.3810647222223713  0.1127571091525181   T   T   T
  0.1901378097244222  0.5239084315162342  0.1071429257737312   T   T   T
  0.1905595434378323  0.6667705257921425  0.1079487902368459   T   T   T
  0.1903278413677627  0.8096652291130307  0.1123419841988429   T   T   T
  0.3332345303619578  0.9525782833489639  0.1124419840981753   T   T   T
  0.3335365988819530  0.0959183034019728  0.1142034692814097   T   T   T
  0.3344455964215120  0.2398746876700261  0.1132042063451717   T   T   T
  0.3297988548485268  0.3794300299203324  0.0999773750685387   T   T   T
  0.3317037303926020  0.5224397269184601  0.0877855419002424   T   T   T
  0.3336718098823442  0.6663438035788357  0.0983187977953372   T   T   T
  0.3332277795323248  0.8094421600455497  0.1080877930630256   T   T   T
  0.4759903769728092  0.9525508607182744  0.1120233326718243   T   T   T
  0.4761400518320021  0.0954576743700514  0.1112947096656603   T   T   T
  0.4765025456679246  0.2384919895281478  0.1080514803637668   T   T   T
  0.4787674100049750  0.3819503237328055  0.1041545463142429   T   T   T
  0.4775925045605092  0.6683362823031592  0.0878236656196049   T   T   T
  0.4760899567656632  0.8098619865992821  0.1074810016183310   T   T   T
  0.6188067803271843  0.9525952293076358  0.1165959018236958   T   T   T
  0.6189173222353453  0.0951900985858652  0.1142353221658032   T   T   T
  0.6192629394508160  0.2377439921912309  0.1090740051597861   T   T   T
  0.6200296498731906  0.3799765415117020  0.1041219104534500   T   T   T
  0.6181012366300010  0.5212388593201910  0.1041848222692262   T   T   T
  0.6205803758303122  0.6702227957557260  0.0999021778796681   T   T   T
  0.6189231045257324  0.8102053084147486  0.1131414687483948   T   T   T
  0.7617336756508984  0.9525573295985895  0.1229830623880193   T   T   T
  0.7617662033678751  0.0953109922593201  0.1204225434473856   T   T   T
  0.7619606780964490  0.2380411523267673  0.1145222894667544   T   T   T
  0.7622633136568152  0.3807383393861852  0.1088986775754535   T   T   T
  0.7615478293669943  0.5235188151996897  0.1077373352126426   T   T   T
  0.7601398624750715  0.6655649471480481  0.1130196505889966   T   T   T
  0.7621679853743617  0.8101712367078683  0.1210745570094762   T   T   T
  0.9520673262094919  0.9045376319007965  0.1235650760717270   T   T   T
  0.9522935671714386  0.0476902134616116  0.1259529095849833   T   T   T
  0.9522086572078539  0.1905963152269337  0.1235493306080302   T   T   T
  0.9521987331278372  0.3334584222322882  0.1173388919651200   T   T   T
  0.9521234063750853  0.4763069233926631  0.1121221068141567   T   T   T
  0.9519324696364336  0.6190472865227592  0.1122690822407883   T   T   T
  0.9518505798178828  0.7616641967625375  0.1175459460943203   T   T   T
  0.0951187424064639  0.9048688260760328  0.1193312132904450   T   T   T
  0.0954517633851486  0.0479217264827176  0.1234185814230657   T   T   T
  0.0948048095445855  0.1902946240656097  0.1243351127271545   T   T   T
  0.0947368740022316  0.3334191515605694  0.1183890163506734   T   T   T
  0.0948910653424720  0.4763616520909207  0.1122257900772411   T   T   T
  0.0951156210762458  0.6192372039665917  0.1105098026355852   T   T   T
  0.0949820970054461  0.7620171640273206  0.1138389564949738   T   T   T
  0.2379737737353594  0.9050071073205436  0.1138789518474938   T   T   T
  0.2383322373498691  0.0481473049670816  0.1175356235091934   T   T   T
  0.2388912332867619  0.1915042266850471  0.1188272977239246   T   T   T
  0.2363139460948621  0.3322582201908157  0.1156228378982954   T   T   T
  0.2371841337254123  0.4761046867020224  0.1045950315209347   T   T   T
  0.2381731538891568  0.6191802234192881  0.1038866153402448   T   T   T
  0.2379327317895321  0.7620651396052266  0.1089532687377674   T   T   T
  0.3807588191521286  0.9048815904615896  0.1107420734535182   T   T   T
  0.3809492475886316  0.0480699210348922  0.1125062270726865   T   T   T
  0.3815268324526983  0.1915556687184979  0.1120901933261192   T   T   T
  0.3826617594762388  0.3361151582367405  0.1072508761853120   T   T   T
  0.3715791712135556  0.4692037443756226  0.0749270889318538   T   T   T
  0.3812007948968779  0.6188306038674362  0.0868255436335286   T   T   T
  0.3808237648670751  0.7618335778680653  0.1040556122868388   T   T   T
  0.5236311162652345  0.9051066379697290  0.1126875592124630   T   T   T
  0.5236904972340990  0.0478822903653619  0.1124780933227961   T   T   T
  0.5240116181627287  0.1908967019361594  0.1090497395338048   T   T   T
  0.5253573870677858  0.3344391514085605  0.1038380380793933   T   T   T
  0.5308464407951183  0.6285069417685594  0.0747404283978898   T   T   T
  0.5238924552901977  0.7628176754119065  0.1048832955477287   T   T   T
  0.6665648087539329  0.9052566493970297  0.1189233633491026   T   T   T
  0.6665408505460773  0.0478062758591900  0.1177391438314437   T   T   T
  0.6667238023723170  0.1903648512041649  0.1124680145098428   T   T   T
  0.6672102329892056  0.3327921882912080  0.1066086521291131   T   T   T
  0.6655927342526274  0.4746574390218827  0.1036710864963745   T   T   T
  0.6638986808489710  0.6173447359968195  0.1070182396898353   T   T   T
  0.6677177571049746  0.7636617606880014  0.1158617898647255   T   T   T
  0.8096853816179362  0.9051809569610965  0.1247023880633485   T   T   T
  0.8094025212364273  0.0477928108417626  0.1237992902030479   T   T   T
  0.8094559378408553  0.1905511743625596  0.1189755368999405   T   T   T
  0.8096411708905535  0.3332772336140945  0.1123017121072724   T   T   T
  0.8091222910647896  0.4759908928845379  0.1087120131078985   T   T   T
  0.8084607323941108  0.6184851637076660  0.1117835956468792   T   T   T
  0.8084920034017009  0.7611048985046087  0.1189085910888986   T   T   T
  0.4898097972509441  0.5101475538445908  0.0141255186014072   T   T   T

  0.00000000E+00  0.00000000E+00  0.00000000E+00
  0.00000000E+00  0.00000000E+00  0.00000000E+00
  0.00000000E+00  0.00000000E+00  0.00000000E+00
  0.00000000E+00  0.00000000E+00  0.00000000E+00
  0.00000000E+00  0.00000000E+00  0.00000000E+00
  0.00000000E+00  0.00000000E+00  0.00000000E+00
  0.00000000E+00  0.00000000E+00  0.00000000E+00
  0.00000000E+00  0.00000000E+00  0.00000000E+00
  0.00000000E+00  0.00000000E+00  0.00000000E+00
  0.00000000E+00  0.00000000E+00  0.00000000E+00
  0.00000000E+00  0.00000000E+00  0.00000000E+00
  0.00000000E+00  0.00000000E+00  0.00000000E+00
  0.00000000E+00  0.00000000E+00  0.00000000E+00
  0.00000000E+00  0.00000000E+00  0.00000000E+00
  0.00000000E+00  0.00000000E+00  0.00000000E+00
  0.00000000E+00  0.00000000E+00  0.00000000E+00
  0.00000000E+00  0.00000000E+00  0.00000000E+00
  0.00000000E+00  0.00000000E+00  0.00000000E+00
  0.00000000E+00  0.00000000E+00  0.00000000E+00
  0.00000000E+00  0.00000000E+00  0.00000000E+00
  0.00000000E+00  0.00000000E+00  0.00000000E+00
  0.00000000E+00  0.00000000E+00  0.00000000E+00
  0.00000000E+00  0.00000000E+00  0.00000000E+00
  0.00000000E+00  0.00000000E+00  0.00000000E+00
  0.00000000E+00  0.00000000E+00  0.00000000E+00
  0.00000000E+00  0.00000000E+00  0.00000000E+00
  0.00000000E+00  0.00000000E+00  0.00000000E+00
  0.00000000E+00  0.00000000E+00  0.00000000E+00
  0.00000000E+00  0.00000000E+00  0.00000000E+00
  0.00000000E+00  0.00000000E+00  0.00000000E+00
  0.00000000E+00  0.00000000E+00  0.00000000E+00
  0.00000000E+00  0.00000000E+00  0.00000000E+00
  0.00000000E+00  0.00000000E+00  0.00000000E+00
  0.00000000E+00  0.00000000E+00  0.00000000E+00
  0.00000000E+00  0.00000000E+00  0.00000000E+00
  0.00000000E+00  0.00000000E+00  0.00000000E+00
  0.00000000E+00  0.00000000E+00  0.00000000E+00
  0.00000000E+00  0.00000000E+00  0.00000000E+00
  0.00000000E+00  0.00000000E+00  0.00000000E+00
  0.00000000E+00  0.00000000E+00  0.00000000E+00
  0.00000000E+00  0.00000000E+00  0.00000000E+00
  0.00000000E+00  0.00000000E+00  0.00000000E+00
  0.00000000E+00  0.00000000E+00  0.00000000E+00
  0.00000000E+00  0.00000000E+00  0.00000000E+00
  0.00000000E+00  0.00000000E+00  0.00000000E+00
  0.00000000E+00  0.00000000E+00  0.00000000E+00
  0.00000000E+00  0.00000000E+00  0.00000000E+00
  0.00000000E+00  0.00000000E+00  0.00000000E+00
  0.00000000E+00  0.00000000E+00  0.00000000E+00
  0.00000000E+00  0.00000000E+00  0.00000000E+00
  0.00000000E+00  0.00000000E+00  0.00000000E+00
  0.00000000E+00  0.00000000E+00  0.00000000E+00
  0.00000000E+00  0.00000000E+00  0.00000000E+00
  0.00000000E+00  0.00000000E+00  0.00000000E+00
  0.00000000E+00  0.00000000E+00  0.00000000E+00
  0.00000000E+00  0.00000000E+00  0.00000000E+00
  0.00000000E+00  0.00000000E+00  0.00000000E+00
  0.00000000E+00  0.00000000E+00  0.00000000E+00
  0.00000000E+00  0.00000000E+00  0.00000000E+00
  0.00000000E+00  0.00000000E+00  0.00000000E+00
  0.00000000E+00  0.00000000E+00  0.00000000E+00
  0.00000000E+00  0.00000000E+00  0.00000000E+00
  0.00000000E+00  0.00000000E+00  0.00000000E+00
  0.00000000E+00  0.00000000E+00  0.00000000E+00
  0.00000000E+00  0.00000000E+00  0.00000000E+00
  0.00000000E+00  0.00000000E+00  0.00000000E+00
  0.00000000E+00  0.00000000E+00  0.00000000E+00
  0.00000000E+00  0.00000000E+00  0.00000000E+00
  0.00000000E+00  0.00000000E+00  0.00000000E+00
  0.00000000E+00  0.00000000E+00  0.00000000E+00
  0.00000000E+00  0.00000000E+00  0.00000000E+00
  0.00000000E+00  0.00000000E+00  0.00000000E+00
  0.00000000E+00  0.00000000E+00  0.00000000E+00
  0.00000000E+00  0.00000000E+00  0.00000000E+00
  0.00000000E+00  0.00000000E+00  0.00000000E+00
  0.00000000E+00  0.00000000E+00  0.00000000E+00
  0.00000000E+00  0.00000000E+00  0.00000000E+00
  0.00000000E+00  0.00000000E+00  0.00000000E+00
  0.00000000E+00  0.00000000E+00  0.00000000E+00
  0.00000000E+00  0.00000000E+00  0.00000000E+00
  0.00000000E+00  0.00000000E+00  0.00000000E+00
  0.00000000E+00  0.00000000E+00  0.00000000E+00
  0.00000000E+00  0.00000000E+00  0.00000000E+00
  0.00000000E+00  0.00000000E+00  0.00000000E+00
  0.00000000E+00  0.00000000E+00  0.00000000E+00
  0.00000000E+00  0.00000000E+00  0.00000000E+00
  0.00000000E+00  0.00000000E+00  0.00000000E+00
  0.00000000E+00  0.00000000E+00  0.00000000E+00
  0.00000000E+00  0.00000000E+00  0.00000000E+00
  0.00000000E+00  0.00000000E+00  0.00000000E+00
  0.00000000E+00  0.00000000E+00  0.00000000E+00
  0.00000000E+00  0.00000000E+00  0.00000000E+00
  0.00000000E+00  0.00000000E+00  0.00000000E+00
  0.00000000E+00  0.00000000E+00  0.00000000E+00
  0.00000000E+00  0.00000000E+00  0.00000000E+00
  0.00000000E+00  0.00000000E+00  0.00000000E+00
  0.00000000E+00  0.00000000E+00  0.00000000E+00
