 B As N 
 1.0
 17.527899999999772   0.000000000000000   0.000000000000000
 -8.763949999999658  15.179606674993195   0.000000000000000
  0.000000000000001   0.000000000000002  15.000000000000000
 B As N 
  47   1  49
Cartesian
  7.514879172778425  14.487475217284761   1.665468193567980 
 15.033607645154435   1.462821150139693   1.662230247028185 
 13.781625801594673   3.617165046990832   1.663627652212290 
 12.519109987172767   5.775652794125929   1.664631511261020 
 11.213344330205263   7.933160202975145   1.656494339433465 
  9.960095123149344  10.098306937874177   1.652989998263670 
  8.744524769329278  12.306236622469727   1.660540588745850 
 -7.518545221282446  14.473153958585018   1.660313452006365 
  0.010588991821526   1.463653213129153   1.659989526872745 
 -1.241433087906871   3.625038457555527   1.659428878436100 
 -2.514429384345285   5.787941989162695   1.663250896351770 
 -3.808865887907595   7.948998761287351   1.663536232043145 
 -5.063347958679239  10.108843915132171   1.657016343079665 
 -6.300631234986557  12.277499072550023   1.655207554306140 
 -5.034825632624717  14.445578699771362   1.660590364049280 
  2.516484934720151   1.468394487595566   1.659146892102180 
  1.269142598704771   3.619177894879934   1.653656492275650 
 -0.009750338049760   5.793332155017989   1.656123455146305 
 -1.320709753791551   7.962998474101243   1.667020576333500 
 -2.562841893004193  10.119737783328796   1.667321618319510 
 -3.803923221417013  12.278008263057131   1.660662210325455 
 -2.536173947897733  14.434755750633272   1.665365456381400 
  4.997576824169426   1.415617325210442   1.672959697288755 
  3.810446197750055   3.655375823110186   1.661700488047935 
  2.509857242225843   5.772537520049042   1.651379175319650 
  1.136537468827036   7.990675320703947   1.660715195943015 
 -0.072138800068791  10.144576570309308   1.669736114429340 
 -1.304589128692739  12.288146821502677   1.663682758692570 
 -0.027743366500378  14.440432494017678   1.661805533027715 
  7.515580204681513   1.381121016850949   1.685770178142360 
  6.299189325500040   3.492388896425393   1.683049833596235 
  5.270310643522246   5.780989745308664   1.661505304687020 
  2.398316249698252  10.213759601696843   1.676209086147465 
  1.193367707612800  12.322305465775139   1.664563061839020 
  2.484511262642467  14.468308481130585   1.657886637386040 
 10.023924461384970   1.406109259990753   1.673828525597070 
  8.806409248937948   3.513399351701817   1.696951949468205 
  7.613960821531817   5.575753529573314   1.669660441368915 
  4.973646503405429  10.263420957001243   1.678944596650485 
  3.714278399655560  12.353110468578647   1.673485972908060 
  5.003823219596626  14.487244437349872   1.664106978565110 
 12.526114551195834   1.447250742780490   1.661293731425775 
 11.285605898073978   3.590143088901784   1.676179803458325 
 10.040421671960091   5.741695030227143   1.675591906975665 
  8.693993471107110   7.917252130257316   1.659174493538310 
  7.474088173298494  10.141863281764703   1.661352425262000 
  6.254107266578037  12.348246644060042   1.672095671000835 
  3.962317229495361   7.881607099899012   1.671487113201255 
  8.756890608023083  13.753017487161982   1.662960888834255 
 16.286291747277662   0.748410599174027   1.663201225229175 
 15.036589235445597   2.905740504203345   1.661657221058685 
 13.772126506565545   5.059868891664398   1.663364110810440 
 12.472254398624042   7.219153503852423   1.659486003768225 
 11.208638404779775   9.376054362291326   1.652068684084050 
  9.974051298502523  11.548327099538561   1.653931315760895 
 -6.285602623242994  13.727113334977414   1.657767721880955 
  1.261904724024827   0.746643425581569   1.659241639651935 
  0.017353241644429   2.909333795616280   1.656791075240295 
 -1.250392755658988   5.071590924315606   1.659503534479755 
 -2.552569463419016   7.231474865566964   1.666247619573150 
 -3.810929178669831   9.391082931231475   1.663397478643815 
 -5.055165381976250  11.551836029825044   1.656411409279995 
 -3.790219002792132  13.720394618925868   1.660753948154025 
  3.744701037572581   0.715827673128673   1.663140845878935 
  2.543162728189920   2.934669715731728   1.655616881995815 
  1.268235086272552   5.066224211085142   1.650816696556125 
 -0.067882140397206   7.242596558719669   1.660678996496685 
 -1.308383883464352   9.405260087603395   1.670342423467515 
 -2.553095145203691  11.560921569892772   1.664644494781605 
 -1.284680494856137  13.723928343262120   1.660718512353780 
  6.245778432998073   0.694925200683326   1.675803159966570 
  5.017899447251470   2.864884424383115   1.674954320694255 
  3.874992110121845   5.162981029019241   1.656671428276365 
  2.350544259821661   7.220282837368694   1.651440489027465 
  1.189976451219473   9.429376824308598   1.669956065113920 
 -0.049611705654421  11.579168111268769   1.666325434957635 
  1.225379155215093  13.747067886472298   1.656323397776625 
  8.765455660093364   0.689793257253801   1.673207015543220 
  7.546684587267872   2.809285496286154   1.701012199642365 
  6.362246660014298   4.909687671706656   1.665755828638005 
  6.169986139965371   7.250047007860247   1.674442119194760 
  3.688415359906638   9.584780199135382   1.682455544827485 
  2.447681165776746  11.628520803223633   1.673211564978870 
  3.738856638015882  13.773966353844015   1.662852146255205 
 11.274484969018156   0.717586945656195   1.658807219036310 
 10.046459781576417   2.838496788769838   1.687921351439895 
  8.842218483929923   4.948306232417086   1.689768785500335 
  7.467309983375492   7.017129525089956   1.659541169925360 
  6.187347005879503   9.582687420721003   1.662874097893575 
  4.978202823149748  11.673571709362751   1.680723323335215 
  6.259026034170919  13.779011864275439   1.668318914877195 
 13.779073253691219   0.743014189248701   1.660458852328980 
 12.534552804876267   2.888123272708702   1.665223401776640 
 11.281685336422690   5.038854523891223   1.673008075516710 
  9.950538183333553   7.193528634772990   1.660711702141035 
  8.693491587880473   9.354576161524376   1.655066704548975 
  7.489057058271383  11.597296073865078   1.664731501129305 
