 B Sb N 
 1.0
 17.527899999999772   0.000000000000000   0.000000000000000
 -8.763949999999658  15.179606674993195   0.000000000000000
  0.000000000000001   0.000000000000002  15.000000000000000
 B Sb N 
  48   1  49
Cartesian
  7.515480680265986  14.458916507343602   1.553667945135780 
 15.024142728445309   1.445583834579627   1.506926549710110 
 13.770712497363711   3.614519787443181   1.505030710174680 
 12.519654840098037   5.783396223387891   1.539790466891730 
 11.272261073647648   7.952139660006564   1.586600535681795 
 10.020713027702627  10.119737783328796   1.621857428829630 
  8.768516162432839  12.290089484537827   1.621568222875680 
 -7.508957827941583  14.455049324609481   1.581594229611345 
 -0.000088217173560   1.441563968172752   1.553655552966930 
 -1.254022598070462   3.611502605905365   1.543724259109485 
 -2.505682486439581   5.782114071324552   1.554676698114975 
 -3.753076670346875   7.950865670599494   1.571054800217205 
 -5.002841278032931  10.119737783328796   1.586401749405615 
 -6.255198260473143  12.287283188688573   1.595860554899160 
 -5.004754576129186  14.453133721975338   1.596202140023070 
  2.504674333377670   1.440870746413821   1.621906756311495 
  1.245110320491959   3.602520621399674   1.643202786083325 
 -0.008854796781917   5.775519472821764   1.688182678441365 
 -1.252262211042688   7.948887171394056   1.662828940783875 
 -2.494776814151777  10.116645168370077   1.623991238997915 
 -3.750285211784585  12.284948961978440   1.592839388513745 
 -2.501407078291056  14.452301933341738   1.587190092221055 
  5.010353358416336   1.441551202678308   1.622643998927985 
  3.751024309644660   3.609117915924609   1.727660776109775 
  2.466552240910414   5.751735034188571   1.979212077300285 
  1.224271218194940   7.927445355040658   2.041870069662210 
  0.013458178922704  10.111997920608266   1.797091229137185 
 -1.244718546774473  12.281835898252414   1.624470661617540 
  0.001864916020223  14.454466223441392   1.572178652109645 
  7.513396172188211   1.441457088938183   1.587758922851820 
  6.260572549395762   3.603709219548164   1.643760657994965 
  4.990650086531270   5.754403753171960   1.653564957355245 
  2.510777375111409  10.155709350133826   2.042111462966970 
  1.253946759655110  12.289768306696688   1.663618214870205 
  2.503691502516107  14.458603231082897   1.555678276025370 
 10.015256059508754   1.445576514695790   1.540852036441605 
  8.763562659423069   3.613553741272393   1.583240992020795 
  7.511430765064151   5.782987656453929   1.620006708983430 
  6.275776776995773   7.980400924601134   1.653392724566340 
  5.016096186644066  10.167648898024037   1.979274694097970 
  3.757735963507983  12.299606177828768   1.688794034214315 
  5.009287979403993  14.459931931144432   1.544225656739730 
 12.519047729641692   1.446569298174788   1.505559319262670 
 11.266863992269428   3.614801799877617   1.528892318731995 
 10.016287051840326   5.783336842520810   1.582695022708140 
  8.773382503524402   7.956040331630403   1.643105041067205 
  7.513898770208880  10.126578371997374   1.727237889477735 
  6.266637489621036  12.300080767461765   1.643248025683845 
  3.641718570355167   8.017168460548945   3.691193078679645 
  8.766886342328002  13.734487759116814   1.580508525521385 
 16.276443533304253   0.722543435945831   1.527547448955705 
 15.022345733728940   2.890702344225810   1.503855628818540 
 13.770517026829403   5.059868891664398   1.520985100916715 
 12.522225887940399   7.228755520732715   1.559606938465020 
 11.271568251865897   9.397572644800668   1.594471502345595 
 10.020218858866254  11.566449469861602   1.614813900637485 
 -6.256695491630120  13.732072675826474   1.591340005031235 
  1.253013929750445   0.720027061474984   1.580640311860830 
 -0.003856894294066   2.884772437034678   1.562963461583295 
 -1.256550125772156   5.056608067974746   1.577963723386275 
 -2.502927509204406   7.227492253898028   1.578245786571150 
 -3.749588372829908   9.395996747829336   1.585505562823785 
 -5.003116228397358  11.563971150599434   1.589343458049705 
 -3.752278716010421  13.730500911483750   1.589727537320880 
  3.757260181323256   0.718605345077616   1.615389251721075 
  2.501356533625592   2.884617649196585   1.675646313483645 
  1.235176269873331   5.040073905628066   1.728115012680075 
 -0.008034782862483   7.223381244512900   1.745640223568010 
 -1.242362922267444   9.394197404729272   1.692121771899810 
 -2.497914010007562  11.561950954532405   1.611920518383615 
 -1.248060831933878  13.728875306568135   1.586373361117095 
  6.261177733228208   0.719355825079541   1.595429448686370 
  5.005071332321887   2.887593743668790   1.660742743330455 
  3.740647642486675   5.055215290660439   1.838103032763435 
  2.382401647415413   7.128172938313744   2.368448440109565 
  1.259741237950446   9.392401980605433   2.020380430810275 
  0.007144034837067  11.558440221244391   1.692614407600110 
  1.253272452911264  13.733527201322108   1.579303059973845 
  8.764781410215010   0.720637560949639   1.561003867344345 
  7.513494980677588   2.886734559932556   1.607242053731775 
  6.262802452287271   5.047043047950745   1.644042579612435 
  5.147989728132746   7.147564041926882   1.411013439666225 
  3.782038544504217   9.552258701290652   2.368513563554100 
  2.504337120823660  11.574903957249372   1.746292202926380 
  3.756620114933814  13.739578993916474   1.578732785405370 
 11.267192251868389   0.724126127775005   1.522026330725445 
 10.015747976620155   2.891691195346230   1.546877465591925 
  8.763949999999962   5.059868891664398   1.596359298165870 
  7.524464150694069   7.232314866076917   1.643721303780315 
  6.256376759290943   9.412519683092993   1.837904423673855 
  5.016809875171313  11.589923149979379   1.728389738658150 
  6.263754388530241  13.740598453003452   1.563127567206525 
 13.771738086323658   0.724591362484525   1.504251769476765 
 12.518484758703796   2.892250023902179   1.502062188048705 
 11.267585093472775   5.059868891664398   1.546292905538025 
 10.020643846975723   7.229315236291539   1.606334947615950 
  8.765754521535639   9.401263393071337   1.660041725246340 
  7.516460161776144  11.571069591378206   1.675331711071500 
