 B N P 
 1.0
 17.527899999999772   0.000000000000000   0.000000000000000
 -8.763949999999658  15.179606674993195   0.000000000000000
  0.000000000000001   0.000000000000002  15.000000000000000
 B N P 
  49  47   1
Cartesian
  7.494762880097531  14.421318414671202   1.555072618375065 
 15.020336515387148   1.414261395603837   1.595999100176700 
 13.777788348913722   3.588008915331427   1.600343641390785 
 12.528996301423616   5.761305577904860   1.588064892027990 
 11.286038604692312   7.937147781184707   1.561511915438190 
 10.030219501418541  10.111444646473426   1.526255472825525 
  8.757756055875785  12.275939125353720   1.491447747519435 
 -7.517717288878608  14.461802783515148   1.548993318104550 
 -0.000019286646151   1.451228472019136   1.568546378550075 
 -1.246575705730890   3.608593824934298   1.565230932521925 
 -2.498319517079279   5.769779128698564   1.547190967317165 
 -3.753562619553856   7.940848556021618   1.544759438877465 
 -5.008664082289317  10.119737783328796   1.549609105523160 
 -6.262989363961517  12.292093916061630   1.540933580805120 
 -5.011731069998241  14.473076452619594   1.597622645370315 
  2.504068315331423   1.473850362373945   1.597515751695975 
  1.270752461770817   3.669114379131912   1.587404455618410 
  0.010044265378605   5.796906385457961   1.534747958100255 
 -1.260351216781798   7.948762182685028   1.522331258679150 
 -2.519466551447183  10.119737783328796   1.559158212683085 
 -3.762198237799950  12.295325749147128   1.594187977361430 
 -2.509453739473127  14.466239159340379   1.673547497871075 
  5.006962476452365   1.472401790587269   1.695643654866885 
  3.756720211099281   3.666921343625373   1.718608827055290 
  2.550510298063375   5.935515136817954   1.639207324348365 
  1.236183496040341   7.970409743387044   1.567025050129470 
 -0.037024589326457  10.119737783328796   1.639346255598015 
 -1.260827049437139  12.288710448161282   1.674733214412585 
  0.006858232146243  14.432977974317405   1.741742995048500 
  7.516262296747132   1.445759039202229   1.743099635728755 
  6.263071327703301   3.638806971426320   1.855331224525485 
  4.979667307650793   5.787689328728879   2.186307540930720 
  3.607903642050642   8.677965264777978   1.973755100499840 
  2.456660774216984   9.977984756244973   2.054875882970790 
  1.260481244339040  12.229386146349190   1.826874012208650 
  2.510868238410076  14.400403369805579   1.749693879477435 
 10.025586157033423   1.416484272342888   1.733007886333785 
  8.774575870549555   3.601936234323993   1.768823313039960 
  7.530584412826006   5.784946104406084   1.915463000590365 
  6.397482303543271   8.022973066587232   2.054779349029575 
  4.974356929895022   9.915875943262805   1.457351859800910 
  3.741329890308212  12.175118758129518   1.743333781790145 
  4.995691442676526  14.392602602107960   1.635585814838340 
 12.524166218487968   1.404881429878205   1.669592538607020 
 11.277885000199333   3.586566016876510   1.670615679654270 
 10.029995728293066   5.762860238354094   1.672008930699945 
  8.804720743807295   7.935751265806796   1.646955042746865 
  7.538851977458366  10.099671037567452   1.489416175523625 
  6.221541831142429  12.199129301982651   1.512888126518010 
  8.760990009580894  13.724163843456413   1.527841834514760 
 16.274929099491374   0.700458049822897   1.572829105209045 
 15.028792285794358   2.866465342510375   1.584931974239610 
 13.778195506828482   5.036316877306972   1.575671658998625 
 12.530466633511477   7.209386192497250   1.561325755407225 
 11.280146740809631   9.387018847560213   1.542862791196800 
 10.019186082352505  11.561995475923840   1.508624481863715 
 -6.262477447872910  13.742173974967354   1.555782210471720 
  1.253612757732327   0.732183367046022   1.565352933173175 
  0.014081263192808   2.905808472479670   1.571497925101680 
 -1.246376495383231   5.052256102554983   1.543586459573235 
 -2.510066672263314   7.215910156342935   1.531793294131890 
 -3.764871608928527   9.390583069295438   1.547697449381505 
 -5.011840625584689  11.568370559614534   1.559569608348975 
 -3.762040117757913  13.744963112548296   1.621104558457110 
  3.755083771139241   0.742643047595270   1.621970399797320 
  2.511405200628245   2.922766451616507   1.613680878893790 
  1.285954297871452   5.124550376777999   1.572571725881415 
 -0.018418014450013   7.230706611417852   1.512535078251135 
 -1.284684064395491   9.395956818832236   1.536882191268660 
 -2.517062129412595  11.569629541029917   1.602969073471230 
 -1.259961442226785  13.735572800961362   1.701728272429170 
  6.257105394427517   0.734025697552682   1.704939988714065 
  5.007759634061816   2.918245481240455   1.770080319955140 
  3.761045560233870   5.110845164163898   1.806564875719950 
  2.538395584661800   7.390681710553804   1.552257028543410 
  1.175971381419659   9.401097612056562   1.699392231041910 
 -0.022693530212606  11.562549532896437   1.728099465486645 
  1.253713335177094  13.692178415251599   1.780466442349320 
  8.767460257486080   0.706101112612403   1.741932240981210 
  7.515733911740810   2.893024418829867   1.787491512639780 
  6.264569888392761   5.078394938436734   2.023022690877825 
  2.495725188120914  11.471917376520727   1.954969643781900 
  3.752413901869045  13.654643973274110   1.712202001994160 
 11.274223488131748   0.680085675144772   1.722473786987430 
 10.025508300424283   2.866611483803347   1.722919942545540 
  8.778210671723208   5.046006568281787   1.780045229519430 
  7.583972107195970   7.222917392466163   1.862534402035470 
  6.319585882427973   9.364142481442503   1.543810410604410 
  4.971948495366806  11.426244964751740   1.533713126973945 
  6.244622474473822  13.669872937450958   1.569270441399075 
 13.771255715123914   0.674984092439772   1.633325375404695 
 12.527378942177574   2.857514779552000   1.644795480788490 
 11.280049467276916   5.033534159788332   1.636038759820830 
 10.048137222209876   7.206699954121095   1.601026063710300 
  8.797629742523672   9.382116221481029   1.543127377326495 
  7.514161093458569  11.542296657403345   1.448400150705930 
  4.896113404972428   7.519222613627504   3.011912691395010 
