B N P                                   
   1.0000000000000000     
     8.7639499999999995  -15.1796066749929999    0.0000000000000000
     8.7639499999999995   15.1796066749929999    0.0000000000000000
     0.0000000000000000    0.0000000000000000   15.0000000000000000
   B    N    P 
    49    47     1
Selective dynamics
Direct
  0.9026132593680464  0.9500455923162233  0.1036715078916708   T   T   T
  0.9035229955010983  0.0931685139071282  0.1063999400117798   T   T   T
  0.9042341787684341  0.2363703482015970  0.1066895760927191   T   T   T
  0.9045742860074953  0.3795424809916851  0.1058709928018655   T   T   T
  0.9053311014301308  0.5228823085554861  0.1041007943625462   T   T   T
  0.9053032473916426  0.6661203325598002  0.1017503648550348   T   T   T
  0.9040029218819244  0.8087125963268229  0.0994298498346286   T   T   T
  0.0474562520981326  0.9527126158900707  0.1032662212069700   T   T   T
  0.0478008125519727  0.0956038257835677  0.1045697585700049   T   T   T
  0.0477437063476455  0.2377264379899303  0.1043487288347952   T   T   T
  0.0475164746512367  0.3801007003826827  0.1031460644878109   T   T   T
  0.0474151741999405  0.5231261076812567  0.1029839625918313   T   T   T
  0.0475795304083087  0.6665231386183823  0.1033072737015438   T   T   T
  0.0475729760770305  0.8097768393638000  0.1027289053870077   T   T   T
  0.1907988701398039  0.9534553010825019  0.1065081763580215   T   T   T
  0.1914089091558751  0.0970941075042452  0.1065010501130646   T   T   T
  0.1933555438044564  0.2417134025729661  0.1058269637078935   T   T   T
  0.1915169374248913  0.3818877859996036  0.1023165305400166   T   T   T
  0.1899182885066437  0.5236474404689141  0.1014887505786097   T   T   T
  0.1895929793007698  0.6666631071441768  0.1039438808455385   T   T   T
  0.1903543147350266  0.8099897456106279  0.1062791984907623   T   T   T
  0.3334502338766700  0.9530048748346022  0.1115698331914053   T   T   T
  0.3341560624263746  0.0969986786952062  0.1130429103244586   T   T   T
  0.3351124912818178  0.2415689300873814  0.1145739218036860   T   T   T
  0.3410209757064041  0.3910190338855148  0.1092804882898906   T   T   T
  0.3330633850567603  0.5250735354373477  0.1044683366752980   T   T   T
  0.3312210101613272  0.6667655266640469  0.1092897503732013   T   T   T
  0.3328443929850111  0.8095539437399022  0.1116488809608387   T   T   T
  0.4757981247511769  0.9508136991516527  0.1161161996699003   T   T   T
  0.4764388014088367  0.0952435112553978  0.1162066423819175   T   T   T
  0.4771785275010359  0.2397168154179425  0.1236887483016987   T   T   T
  0.4747397748491453  0.3812805860288522  0.1457538360620476   T   T   T
  0.4916806476353909  0.5716857788597393  0.1315836733666558   T   T   T
  0.4688213054162173  0.6573282806255220  0.1369917255313859   T   T   T
  0.4747357428988924  0.8056457857037771  0.1217916008139101   T   T   T
  0.6175836808976758  0.9486677539233430  0.1166462586318288   T   T   T
  0.6186362161453210  0.0933149522692437  0.1155338590889188   T   T   T
  0.6192501511898428  0.2372878501692536  0.1179215542026641   T   T   T
  0.6201840838578698  0.3810998682815792  0.1276975333726908   T   T   T
  0.6292566686961083  0.5285362946725254  0.1369852899353053   T   T   T
  0.6104148571699216  0.6532366849529877  0.0971567906533942   T   T   T
  0.6144853623497308  0.8020707663121959  0.1162222521193427   T   T   T
  0.7590906172070097  0.9481538560428088  0.1090390543225563   T   T   T
  0.7608027710226439  0.0925505818403451  0.1113061692404680   T   T   T
  0.7615624150930491  0.2362752931395118  0.1113743786436178   T   T   T
  0.7620527637771243  0.3796448986947604  0.1114672620466627   T   T   T
  0.7637212029588701  0.5227903091112445  0.1097970028497910   T   T   T
  0.7627781861902782  0.6653447124032266  0.0992944117015754   T   T   T
  0.7567770478791583  0.8036525295533141  0.1008592084345337   T   T   T
  0.9518903975378068  0.9041185412310802  0.1018561223009840   T   T   T
  0.9515879679318614  0.0461446771856626  0.1048552736806028   T   T   T
  0.9518394572604598  0.1888366018885436  0.1056621316159744   T   T   T
  0.9519631223173360  0.3317817770340366  0.1050447772665747   T   T   T
  0.9523563970836099  0.4749389326650967  0.1040883836938151   T   T   T
  0.9527521608028714  0.6183967113604032  0.1028575194131203   T   T   T
  0.9524533619398986  0.7616795167012469  0.1005749654575810   T   T   T
  0.0953662672553420  0.9053050101493166  0.1037188140314480   T   T   T
  0.0956383264277254  0.0482346731850581  0.1043568622115448   T   T   T
  0.0965175843650644  0.1914284430878365  0.1047665283401123   T   T   T
  0.0953077622214723  0.3328318190798738  0.1029057639715493   T   T   T
  0.0944802856559720  0.4753687174405111  0.1021195529421255   T   T   T
  0.0945226783571659  0.6186315146600893  0.1031798299587672   T   T   T
  0.0951147160295241  0.7620994935706874  0.1039713072232646   T   T   T
  0.2381128392604417  0.9054887525637725  0.1080736372304740   T   T   T
  0.2386965315057829  0.0489237345535897  0.1081313599864881   T   T   T
  0.2395532378806039  0.1925455984595084  0.1075787252595858   T   T   T
  0.2421633417226239  0.3375944111397928  0.1048381150587609   T   T   T
  0.2371209553958660  0.4763434762331279  0.1008356718834090   T   T   T
  0.2361990959699262  0.6189855257785489  0.1024588127512436   T   T   T
  0.2374880390990992  0.7621824325718313  0.1068646048980817   T   T   T
  0.3805518751180562  0.9048701389337892  0.1134485514952780   T   T   T
  0.3811577729506519  0.0483560419758379  0.1136626659142714   T   T   T
  0.3818260857385898  0.1922477666070200  0.1180053546636760   T   T   T
  0.3829205661574054  0.3366915410649918  0.1204376583813304   T   T   T
  0.3882614380356362  0.4868822933817635  0.1034838019028940   T   T   T
  0.3767534969059818  0.6193241902337224  0.1132928154027942   T   T   T
  0.3795632993754753  0.7617160167887960  0.1152066310324432   T   T   T
  0.5225324328079711  0.9020114096769071  0.1186977628232876   T   T   T
  0.5234584819018850  0.0465164300848205  0.1161288160654136   T   T   T
  0.5240800289095934  0.1905862569941166  0.1191661008426520   T   T   T
  0.5246825103492414  0.3345537896448171  0.1348681793918546   T   T   T
  0.5202585462934057  0.7557453642998211  0.1303313095854596   T   T   T
  0.6638517035998175  0.8995387209715185  0.1141468001329443   T   T   T
  0.6656171666742015  0.0448025887432995  0.1148315857991620   T   T   T
  0.6663974128252851  0.1888462293641496  0.1148613295030360   T   T   T
  0.6670236549873838  0.3324201131373549  0.1186696819679621   T   T   T
  0.6705951887031963  0.4758303391592589  0.1241689601356977   T   T   T
  0.6689892151837233  0.6168896653211009  0.1029206940402944   T   T   T
  0.6600273907081136  0.7527365635616423  0.1022475417982629   T   T   T
  0.8065385639294509  0.9005419725381052  0.1046180294266050   T   T   T
  0.8079095591937937  0.0444665073932209  0.1088883583603126   T   T   T
  0.8088342510720268  0.1882469579570496  0.1096530320525660   T   T   T
  0.8093474842625739  0.3315984575595463  0.1090692506547219   T   T   T
  0.8106463056436080  0.4747619690300263  0.1067350709140202   T   T   T
  0.8109583617298194  0.6180737368470208  0.1028751584884327   T   T   T
  0.8088880684894864  0.7603818006969882  0.0965600100470616   T   T   T
  0.5270077194100239  0.4953502929700171  0.2007941794263342   T   T   T

  0.00000000E+00  0.00000000E+00  0.00000000E+00
  0.00000000E+00  0.00000000E+00  0.00000000E+00
  0.00000000E+00  0.00000000E+00  0.00000000E+00
  0.00000000E+00  0.00000000E+00  0.00000000E+00
  0.00000000E+00  0.00000000E+00  0.00000000E+00
  0.00000000E+00  0.00000000E+00  0.00000000E+00
  0.00000000E+00  0.00000000E+00  0.00000000E+00
  0.00000000E+00  0.00000000E+00  0.00000000E+00
  0.00000000E+00  0.00000000E+00  0.00000000E+00
  0.00000000E+00  0.00000000E+00  0.00000000E+00
  0.00000000E+00  0.00000000E+00  0.00000000E+00
  0.00000000E+00  0.00000000E+00  0.00000000E+00
  0.00000000E+00  0.00000000E+00  0.00000000E+00
  0.00000000E+00  0.00000000E+00  0.00000000E+00
  0.00000000E+00  0.00000000E+00  0.00000000E+00
  0.00000000E+00  0.00000000E+00  0.00000000E+00
  0.00000000E+00  0.00000000E+00  0.00000000E+00
  0.00000000E+00  0.00000000E+00  0.00000000E+00
  0.00000000E+00  0.00000000E+00  0.00000000E+00
  0.00000000E+00  0.00000000E+00  0.00000000E+00
  0.00000000E+00  0.00000000E+00  0.00000000E+00
  0.00000000E+00  0.00000000E+00  0.00000000E+00
  0.00000000E+00  0.00000000E+00  0.00000000E+00
  0.00000000E+00  0.00000000E+00  0.00000000E+00
  0.00000000E+00  0.00000000E+00  0.00000000E+00
  0.00000000E+00  0.00000000E+00  0.00000000E+00
  0.00000000E+00  0.00000000E+00  0.00000000E+00
  0.00000000E+00  0.00000000E+00  0.00000000E+00
  0.00000000E+00  0.00000000E+00  0.00000000E+00
  0.00000000E+00  0.00000000E+00  0.00000000E+00
  0.00000000E+00  0.00000000E+00  0.00000000E+00
  0.00000000E+00  0.00000000E+00  0.00000000E+00
  0.00000000E+00  0.00000000E+00  0.00000000E+00
  0.00000000E+00  0.00000000E+00  0.00000000E+00
  0.00000000E+00  0.00000000E+00  0.00000000E+00
  0.00000000E+00  0.00000000E+00  0.00000000E+00
  0.00000000E+00  0.00000000E+00  0.00000000E+00
  0.00000000E+00  0.00000000E+00  0.00000000E+00
  0.00000000E+00  0.00000000E+00  0.00000000E+00
  0.00000000E+00  0.00000000E+00  0.00000000E+00
  0.00000000E+00  0.00000000E+00  0.00000000E+00
  0.00000000E+00  0.00000000E+00  0.00000000E+00
  0.00000000E+00  0.00000000E+00  0.00000000E+00
  0.00000000E+00  0.00000000E+00  0.00000000E+00
  0.00000000E+00  0.00000000E+00  0.00000000E+00
  0.00000000E+00  0.00000000E+00  0.00000000E+00
  0.00000000E+00  0.00000000E+00  0.00000000E+00
  0.00000000E+00  0.00000000E+00  0.00000000E+00
  0.00000000E+00  0.00000000E+00  0.00000000E+00
  0.00000000E+00  0.00000000E+00  0.00000000E+00
  0.00000000E+00  0.00000000E+00  0.00000000E+00
  0.00000000E+00  0.00000000E+00  0.00000000E+00
  0.00000000E+00  0.00000000E+00  0.00000000E+00
  0.00000000E+00  0.00000000E+00  0.00000000E+00
  0.00000000E+00  0.00000000E+00  0.00000000E+00
  0.00000000E+00  0.00000000E+00  0.00000000E+00
  0.00000000E+00  0.00000000E+00  0.00000000E+00
  0.00000000E+00  0.00000000E+00  0.00000000E+00
  0.00000000E+00  0.00000000E+00  0.00000000E+00
  0.00000000E+00  0.00000000E+00  0.00000000E+00
  0.00000000E+00  0.00000000E+00  0.00000000E+00
  0.00000000E+00  0.00000000E+00  0.00000000E+00
  0.00000000E+00  0.00000000E+00  0.00000000E+00
  0.00000000E+00  0.00000000E+00  0.00000000E+00
  0.00000000E+00  0.00000000E+00  0.00000000E+00
  0.00000000E+00  0.00000000E+00  0.00000000E+00
  0.00000000E+00  0.00000000E+00  0.00000000E+00
  0.00000000E+00  0.00000000E+00  0.00000000E+00
  0.00000000E+00  0.00000000E+00  0.00000000E+00
  0.00000000E+00  0.00000000E+00  0.00000000E+00
  0.00000000E+00  0.00000000E+00  0.00000000E+00
  0.00000000E+00  0.00000000E+00  0.00000000E+00
  0.00000000E+00  0.00000000E+00  0.00000000E+00
  0.00000000E+00  0.00000000E+00  0.00000000E+00
  0.00000000E+00  0.00000000E+00  0.00000000E+00
  0.00000000E+00  0.00000000E+00  0.00000000E+00
  0.00000000E+00  0.00000000E+00  0.00000000E+00
  0.00000000E+00  0.00000000E+00  0.00000000E+00
  0.00000000E+00  0.00000000E+00  0.00000000E+00
  0.00000000E+00  0.00000000E+00  0.00000000E+00
  0.00000000E+00  0.00000000E+00  0.00000000E+00
  0.00000000E+00  0.00000000E+00  0.00000000E+00
  0.00000000E+00  0.00000000E+00  0.00000000E+00
  0.00000000E+00  0.00000000E+00  0.00000000E+00
  0.00000000E+00  0.00000000E+00  0.00000000E+00
  0.00000000E+00  0.00000000E+00  0.00000000E+00
  0.00000000E+00  0.00000000E+00  0.00000000E+00
  0.00000000E+00  0.00000000E+00  0.00000000E+00
  0.00000000E+00  0.00000000E+00  0.00000000E+00
  0.00000000E+00  0.00000000E+00  0.00000000E+00
  0.00000000E+00  0.00000000E+00  0.00000000E+00
  0.00000000E+00  0.00000000E+00  0.00000000E+00
  0.00000000E+00  0.00000000E+00  0.00000000E+00
  0.00000000E+00  0.00000000E+00  0.00000000E+00
  0.00000000E+00  0.00000000E+00  0.00000000E+00
  0.00000000E+00  0.00000000E+00  0.00000000E+00
  0.00000000E+00  0.00000000E+00  0.00000000E+00
