B N O                                   
   1.0000000000000000     
     8.7639499999999995  -15.1796066749929999    0.0000000000000000
     8.7639499999999995   15.1796066749929999    0.0000000000000000
     0.0000000000000000    0.0000000000000000   15.0000000000000000
   B    N    O 
    47    49     1
Selective dynamics
Direct
  0.9056291616220350  0.9533672568539996  0.1109905587996062   T   T   T
  0.9056648537734199  0.0962798855947196  0.1110377606317933   T   T   T
  0.9055251605953719  0.2389400565475164  0.1110995387311863   T   T   T
  0.9051533912297719  0.3813779352547642  0.1109936106884786   T   T   T
  0.9041354034749485  0.5236807823214755  0.1109854360314326   T   T   T
  0.9038462328459507  0.6662454637634609  0.1110545637981583   T   T   T
  0.9041744533414741  0.8091425444759254  0.1110168180421918   T   T   T
  0.0470535052039443  0.9515912379341229  0.1109841830669062   T   T   T
  0.0477680215434990  0.0950610666611078  0.1109849920411854   T   T   T
  0.0483724170468320  0.2384679690910079  0.1110123641168529   T   T   T
  0.0485073173850579  0.3813576384095499  0.1110137752064335   T   T   T
  0.0480977943714569  0.5237432479058209  0.1109837384591573   T   T   T
  0.0471177968715241  0.6661617416287211  0.1109960596989614   T   T   T
  0.0468843663020304  0.8087393622819863  0.1109704131767420   T   T   T
  0.1896303982090183  0.9510930991349030  0.1110247522652185   T   T   T
  0.1896173486990910  0.0935810189232690  0.1110505281214155   T   T   T
  0.1900372219207133  0.2366064672848187  0.1110070250063120   T   T   T
  0.1914281509714763  0.3808412441575481  0.1110167902616970   T   T   T
  0.1922977332646927  0.5238849661110154  0.1110167030115257   T   T   T
  0.1904881823050508  0.6663842234640669  0.1110677583438429   T   T   T
  0.1899032728871853  0.8087891193609170  0.1109840841337087   T   T   T
  0.3327875036358200  0.9515314328615484  0.1110271947659751   T   T   T
  0.3323006690832181  0.0930263357556614  0.1111180888181550   T   T   T
  0.3326865246296483  0.2344327466817647  0.1110608870553382   T   T   T
  0.3320555348244364  0.3761752444419741  0.1111027889866583   T   T   T
  0.3373542574626186  0.5251448740730406  0.1110777208607696   T   T   T
  0.3337911494002554  0.6671458806094916  0.1110886431193957   T   T   T
  0.3331127329492115  0.8095372370374539  0.1110696084826346   T   T   T
  0.4761927253866725  0.9534925438491290  0.1109817813982251   T   T   T
  0.4758521437845516  0.0947714999605232  0.1109798603182463   T   T   T
  0.4742494403072214  0.2356305456209712  0.1110005705753341   T   T   T
  0.4770464123688085  0.6729893089833849  0.1110148229120405   T   T   T
  0.4765963418697021  0.8127213772615611  0.1110531518626993   T   T   T
  0.6198466741781148  0.9545009914674405  0.1109971656214996   T   T   T
  0.6193814366673659  0.0962217132269993  0.1109881642616837   T   T   T
  0.6189477428610504  0.2382348540290393  0.1109794055435726   T   T   T
  0.6187565172190760  0.3811511170432387  0.1110124207165195   T   T   T
  0.6151381640122698  0.5227281428813845  0.1111614221700807   T   T   T
  0.6228452338639164  0.6721286708377200  0.1110318896122559   T   T   T
  0.6207278753678876  0.8131782132543656  0.1109982856679536   T   T   T
  0.7631656653708571  0.9544213353881505  0.1109873655627534   T   T   T
  0.7627185884816647  0.0966091661223481  0.1110708281862192   T   T   T
  0.7622746819458374  0.2388322137866843  0.1110725789123192   T   T   T
  0.7618482992532133  0.3812003775892072  0.1109967173896112   T   T   T
  0.7601690005222133  0.5237116768268820  0.1110928603713999   T   T   T
  0.7604518151334756  0.6661899099074022  0.1111003239789741   T   T   T
  0.7639265920667920  0.8122475012116274  0.1110214281929461   T   T   T
  0.9519700844468396  0.9044221931653590  0.1109739716161421   T   T   T
  0.9529121326823030  0.0482745294257537  0.1109824609114569   T   T   T
  0.9532298910008120  0.1913896376409657  0.1110485144995145   T   T   T
  0.9532213625391081  0.3341034833025744  0.1110213014520349   T   T   T
  0.9525683889726843  0.4764925452654294  0.1109403476082226   T   T   T
  0.9516885258405855  0.6187777086969820  0.1109933672382812   T   T   T
  0.9515628669647999  0.7613057517896721  0.1109972099397214   T   T   T
  0.0944235195238130  0.9037417152546734  0.1109622706440238   T   T   T
  0.0945764651244545  0.0466736561011784  0.1109796241501396   T   T   T
  0.0951544842858828  0.1900960634664073  0.1109676017273462   T   T   T
  0.0962490096988123  0.3338552646423968  0.1109873653796761   T   T   T
  0.0966738379508159  0.4765469251913088  0.1109689036464250   T   T   T
  0.0952246550963277  0.6188215022185320  0.1110068034371218   T   T   T
  0.0945998673576548  0.7611975346672678  0.1109506078683503   T   T   T
  0.2374549892899249  0.9037523812056801  0.1109823347419239   T   T   T
  0.2370985277593918  0.0459054915669809  0.1110708628091044   T   T   T
  0.2368365701882091  0.1883698277144123  0.1110238700469157   T   T   T
  0.2370304613612531  0.3317549987863653  0.1110329508039526   T   T   T
  0.2412950890549553  0.4765096392438527  0.1110185746191896   T   T   T
  0.2387295576199326  0.6190434248324911  0.1110594371522621   T   T   T
  0.2378245380031524  0.7614652943896532  0.1110383309893130   T   T   T
  0.3808063743182052  0.9046078521451558  0.1110017008332866   T   T   T
  0.3804879338416752  0.0463260620854394  0.1110300698212571   T   T   T
  0.3796990624821043  0.1873133557826068  0.1110855270890840   T   T   T
  0.3731271770427356  0.3264889013142452  0.1109540679455273   T   T   T
  0.3798839945424297  0.4704485260486980  0.1111580530151298   T   T   T
  0.3822760631594628  0.6199501618819622  0.1110169961435322   T   T   T
  0.3811462299418179  0.7625119738645783  0.1110794302185343   T   T   T
  0.5244699404923122  0.9071731273375072  0.1109969586877626   T   T   T
  0.5240807972258625  0.0482150595372254  0.1109294065883607   T   T   T
  0.5237810865167346  0.1894963015257954  0.1109545129106084   T   T   T
  0.5272746356516094  0.3276567886229405  0.1108804134387970   T   T   T
  0.5144675479292055  0.4642911379584869  0.1112588166158157   T   T   T
  0.5332215458394349  0.6394302443609943  0.1110159793277399   T   T   T
  0.5253562376372711  0.7675485588535883  0.1110022561889318   T   T   T
  0.6681295984205965  0.9077199156797718  0.1109710937134545   T   T   T
  0.6675118001941547  0.0492763137440573  0.1109984944866237   T   T   T
  0.6671127314874329  0.1911938845784286  0.1110082496631147   T   T   T
  0.6670300478095209  0.3335360431553508  0.1109721152396870   T   T   T
  0.6640353617071448  0.4766542070042337  0.1111176391050798   T   T   T
  0.6640010809490217  0.6180995339579798  0.1110663252375788   T   T   T
  0.6699511622392468  0.7669417220460457  0.1109870703531132   T   T   T
  0.8109547249442806  0.9068639445658755  0.1109712555986325   T   T   T
  0.8105953042211285  0.0492694856852073  0.1110213784424377   T   T   T
  0.8103219074008462  0.1916275825230087  0.1110979683569641   T   T   T
  0.8099280563127587  0.3339974822382745  0.1110027594743873   T   T   T
  0.8085521219416152  0.4764743562430799  0.1109926114477189   T   T   T
  0.8081536328498425  0.6187930127097194  0.1110892893845861   T   T   T
  0.8088766376749972  0.7617776634519647  0.1110367993374327   T   T   T
  0.4727791278653965  0.5096564395041903  0.1108544673996528   T   T   T

  0.00000000E+00  0.00000000E+00  0.00000000E+00
  0.00000000E+00  0.00000000E+00  0.00000000E+00
  0.00000000E+00  0.00000000E+00  0.00000000E+00
  0.00000000E+00  0.00000000E+00  0.00000000E+00
  0.00000000E+00  0.00000000E+00  0.00000000E+00
  0.00000000E+00  0.00000000E+00  0.00000000E+00
  0.00000000E+00  0.00000000E+00  0.00000000E+00
  0.00000000E+00  0.00000000E+00  0.00000000E+00
  0.00000000E+00  0.00000000E+00  0.00000000E+00
  0.00000000E+00  0.00000000E+00  0.00000000E+00
  0.00000000E+00  0.00000000E+00  0.00000000E+00
  0.00000000E+00  0.00000000E+00  0.00000000E+00
  0.00000000E+00  0.00000000E+00  0.00000000E+00
  0.00000000E+00  0.00000000E+00  0.00000000E+00
  0.00000000E+00  0.00000000E+00  0.00000000E+00
  0.00000000E+00  0.00000000E+00  0.00000000E+00
  0.00000000E+00  0.00000000E+00  0.00000000E+00
  0.00000000E+00  0.00000000E+00  0.00000000E+00
  0.00000000E+00  0.00000000E+00  0.00000000E+00
  0.00000000E+00  0.00000000E+00  0.00000000E+00
  0.00000000E+00  0.00000000E+00  0.00000000E+00
  0.00000000E+00  0.00000000E+00  0.00000000E+00
  0.00000000E+00  0.00000000E+00  0.00000000E+00
  0.00000000E+00  0.00000000E+00  0.00000000E+00
  0.00000000E+00  0.00000000E+00  0.00000000E+00
  0.00000000E+00  0.00000000E+00  0.00000000E+00
  0.00000000E+00  0.00000000E+00  0.00000000E+00
  0.00000000E+00  0.00000000E+00  0.00000000E+00
  0.00000000E+00  0.00000000E+00  0.00000000E+00
  0.00000000E+00  0.00000000E+00  0.00000000E+00
  0.00000000E+00  0.00000000E+00  0.00000000E+00
  0.00000000E+00  0.00000000E+00  0.00000000E+00
  0.00000000E+00  0.00000000E+00  0.00000000E+00
  0.00000000E+00  0.00000000E+00  0.00000000E+00
  0.00000000E+00  0.00000000E+00  0.00000000E+00
  0.00000000E+00  0.00000000E+00  0.00000000E+00
  0.00000000E+00  0.00000000E+00  0.00000000E+00
  0.00000000E+00  0.00000000E+00  0.00000000E+00
  0.00000000E+00  0.00000000E+00  0.00000000E+00
  0.00000000E+00  0.00000000E+00  0.00000000E+00
  0.00000000E+00  0.00000000E+00  0.00000000E+00
  0.00000000E+00  0.00000000E+00  0.00000000E+00
  0.00000000E+00  0.00000000E+00  0.00000000E+00
  0.00000000E+00  0.00000000E+00  0.00000000E+00
  0.00000000E+00  0.00000000E+00  0.00000000E+00
  0.00000000E+00  0.00000000E+00  0.00000000E+00
  0.00000000E+00  0.00000000E+00  0.00000000E+00
  0.00000000E+00  0.00000000E+00  0.00000000E+00
  0.00000000E+00  0.00000000E+00  0.00000000E+00
  0.00000000E+00  0.00000000E+00  0.00000000E+00
  0.00000000E+00  0.00000000E+00  0.00000000E+00
  0.00000000E+00  0.00000000E+00  0.00000000E+00
  0.00000000E+00  0.00000000E+00  0.00000000E+00
  0.00000000E+00  0.00000000E+00  0.00000000E+00
  0.00000000E+00  0.00000000E+00  0.00000000E+00
  0.00000000E+00  0.00000000E+00  0.00000000E+00
  0.00000000E+00  0.00000000E+00  0.00000000E+00
  0.00000000E+00  0.00000000E+00  0.00000000E+00
  0.00000000E+00  0.00000000E+00  0.00000000E+00
  0.00000000E+00  0.00000000E+00  0.00000000E+00
  0.00000000E+00  0.00000000E+00  0.00000000E+00
  0.00000000E+00  0.00000000E+00  0.00000000E+00
  0.00000000E+00  0.00000000E+00  0.00000000E+00
  0.00000000E+00  0.00000000E+00  0.00000000E+00
  0.00000000E+00  0.00000000E+00  0.00000000E+00
  0.00000000E+00  0.00000000E+00  0.00000000E+00
  0.00000000E+00  0.00000000E+00  0.00000000E+00
  0.00000000E+00  0.00000000E+00  0.00000000E+00
  0.00000000E+00  0.00000000E+00  0.00000000E+00
  0.00000000E+00  0.00000000E+00  0.00000000E+00
  0.00000000E+00  0.00000000E+00  0.00000000E+00
  0.00000000E+00  0.00000000E+00  0.00000000E+00
  0.00000000E+00  0.00000000E+00  0.00000000E+00
  0.00000000E+00  0.00000000E+00  0.00000000E+00
  0.00000000E+00  0.00000000E+00  0.00000000E+00
  0.00000000E+00  0.00000000E+00  0.00000000E+00
  0.00000000E+00  0.00000000E+00  0.00000000E+00
  0.00000000E+00  0.00000000E+00  0.00000000E+00
  0.00000000E+00  0.00000000E+00  0.00000000E+00
  0.00000000E+00  0.00000000E+00  0.00000000E+00
  0.00000000E+00  0.00000000E+00  0.00000000E+00
  0.00000000E+00  0.00000000E+00  0.00000000E+00
  0.00000000E+00  0.00000000E+00  0.00000000E+00
  0.00000000E+00  0.00000000E+00  0.00000000E+00
  0.00000000E+00  0.00000000E+00  0.00000000E+00
  0.00000000E+00  0.00000000E+00  0.00000000E+00
  0.00000000E+00  0.00000000E+00  0.00000000E+00
  0.00000000E+00  0.00000000E+00  0.00000000E+00
  0.00000000E+00  0.00000000E+00  0.00000000E+00
  0.00000000E+00  0.00000000E+00  0.00000000E+00
  0.00000000E+00  0.00000000E+00  0.00000000E+00
  0.00000000E+00  0.00000000E+00  0.00000000E+00
  0.00000000E+00  0.00000000E+00  0.00000000E+00
  0.00000000E+00  0.00000000E+00  0.00000000E+00
  0.00000000E+00  0.00000000E+00  0.00000000E+00
  0.00000000E+00  0.00000000E+00  0.00000000E+00
  0.00000000E+00  0.00000000E+00  0.00000000E+00
