Species order:X N B                     
   2.51242800000000     
     5.9449720136058266    0.0000000000000000    0.0000000000000000
    -2.9724860068029120    5.1484967885702053   -0.0000000000000001
     0.0000000000000000    0.0000000000000009    5.3101128803662583
   S    N    B 
     2   143   143
Direct
  0.4076919765315801  0.3705126549324545  0.3750000000000000
  0.5538794346817539  0.4436063840075413  0.3750000000000000
  0.1112237698924974  0.0556031793974626  0.1252965775676196
  0.6112038367259293  0.5556452437445676  0.1244797478176750
  0.4445396065753478  0.0555775492035574  0.1252068107428221
  0.9445166980777824  0.5555956522540983  0.1252527970240725
  0.7778954988038626  0.0556144160686027  0.1249821482104610
  0.1111831538776444  0.7222582436054866  0.6248683551776457
  0.4445396065753478  0.7222953907051261  0.6247931892571791
  0.2779195615972885  0.2222820917759871  0.6247909423139677
  0.7778629010548743  0.7222766820711644  0.6247721286050688
  0.6112091111925543  0.2222287434439870  0.6249446734046252
  0.9445657570220587  0.2222836307648454  0.6249145645323356
  0.2778554083326676  0.7222685437887875  0.1251651102809777
  0.1112509168989989  0.2222921251161602  0.1253681900222557
  0.4445718362351589  0.2222637791334963  0.1248624421459673
  0.6112091111925543  0.7223137010819034  0.1250553265953747
  0.9445166980777824  0.7222543791570198  0.1252527970240725
  0.7778859239459373  0.2222629948456097  0.1250330706368236
  0.1111925225224338  0.8889213410834570  0.6248193567035758
  0.4445320398395368  0.8889326865864366  0.6248931861500667
  0.2779195615972885  0.3889708031546301  0.6247909423139677
  0.6112038367259293  0.3888919263146971  0.6255202521823253
  0.7778859239459373  0.8889562624336560  0.6249669293631767
  0.9445409006733694  0.3889394388381216  0.6248567965687091
  0.1112237698924974  0.3889539238283635  0.1252965775676196
  0.2778554083326676  0.8889201978772084  0.1251651102809777
  0.6112135392985462  0.8889608148818294  0.1250296308667734
  0.4446414077090870  0.3889873705212043  0.1227332827326524
  0.9445409006733694  0.8889347951685830  0.1251432034312909
  0.7778629010548743  0.3889195523170387  0.1252278713949309
  0.2778786282468292  0.5556220563641109  0.6246542969798015
  0.1112237698924974  0.0556031793974626  0.6247034224323802
  0.6112038367259293  0.5556452437445676  0.6255202521823253
  0.4445396065753478  0.0555775492035574  0.6247931892571791
  0.9445166980777824  0.5555956522540983  0.6247472029759273
  0.1111925225224338  0.5556045147722979  0.1251806432964248
  0.7778954988038626  0.0556144160686027  0.6250178517895391
  0.2778786282468292  0.0555899052160538  0.1253457030201984
  0.4445718362351589  0.5556413904349984  0.1248624421459673
  0.7778315009076223  0.5555824171204762  0.1253160801213158
  0.6112135392985462  0.0555860577500444  0.1250296308667734
  0.4445718362351589  0.5556413904349984  0.6251375578540327
  0.9445657570220587  0.0556154595905496  0.1250854354676643
  0.2778554083326676  0.7222685437887875  0.6248348897190227
  0.1112509168989989  0.2222921251161602  0.6246318099777439
  0.4445718362351589  0.2222637791334963  0.6251375578540327
  0.6112091111925543  0.7223137010819034  0.6249446734046252
  0.9445166980777824  0.7222543791570198  0.6247472029759273
  0.7778859239459373  0.2222629948456097  0.6249669293631767
  0.1111831538776444  0.7222582436054866  0.1251316448223544
  0.4445396065753478  0.7222953907051261  0.1252068107428221
  0.2779195615972885  0.2222820917759871  0.1252090576860321
  0.7778629010548743  0.7222766820711644  0.1252278713949309
  0.6112091111925543  0.2222287434439870  0.1250553265953747
  0.9445657570220587  0.2222836307648454  0.1250854354676643
  0.1112237698924974  0.3889539238283635  0.6247034224323802
  0.2778554083326676  0.8889201978772084  0.6248348897190227
  0.6112135392985462  0.8889608148818294  0.6249703691332268
  0.4446414077090870  0.3889873705212043  0.6272667172673475
  0.9445409006733694  0.8889347951685830  0.6248567965687091
  0.1111925225224338  0.8889213410834570  0.1251806432964248
  0.7778629010548743  0.3889195523170387  0.6247721286050688
  0.4445320398395368  0.8889326865864366  0.1251068138499325
  0.2779195615972885  0.3889708031546301  0.1252090576860321
  0.2778786282468292  0.5556220563641109  0.1253457030201984
  0.6112038367259293  0.3888919263146971  0.1244797478176750
  0.7778859239459373  0.8889562624336560  0.1250330706368236
  0.9445409006733694  0.3889394388381216  0.1251432034312909
  0.1111925225224338  0.5556045147722979  0.6248193567035758
  0.2778786282468292  0.0555899052160538  0.6246542969798015
  0.7778315009076223  0.5555824171204762  0.6246839198786842
  0.6112135392985462  0.0555860577500444  0.6249703691332268
  0.9445657570220587  0.0556154595905496  0.6249145645323356
  0.0576533431257909  0.1120292430280676  0.3750000000000000
  0.5569802522000903  0.6226374264422804  0.3750000000000000
  0.3873641475891301  0.0996054649981657  0.3750000000000000
  0.8874542224815587  0.6103937779074543  0.3750000000000000
  0.7246252795606566  0.1110965504807588  0.3750000000000000
  0.0555133400760824  0.7777587016986665  0.8750000000000000
  0.3888536182025182  0.7777588319865100  0.8750000000000000
  0.2221790825174646  0.2777562079254001  0.8750000000000000
  0.7221849287835257  0.7777570480641710  0.8750000000000000
  0.5555154216666471  0.2777603135373372  0.8750000000000000
  0.8888535625923439  0.2777604217779853  0.8750000000000000
  0.2200470890584420  0.7766902111958922  0.3750000000000000
  0.0576533431257909  0.2789574334310592  0.3750000000000000
  0.3831364730072369  0.2501291775262849  0.3750000000000000
  0.5567061427975166  0.7834874699765702  0.3750000000000000
  0.8898012351279794  0.7790716332824549  0.3750000000000000
  0.7247288286003998  0.2759011036732857  0.3750000000000000
  0.0555149394494189  0.9444258126705827  0.8750000000000000
  0.3888536182025182  0.9444281195493440  0.8750000000000000
  0.2221791047609583  0.4444216599743335  0.8750000000000000
  0.5555214675963117  0.4444274004648166  0.8750000000000000
  0.7221851619235923  0.9444248159634542  0.8750000000000000
  0.8888515080927513  0.4444248786854502  0.8750000000000000
  0.0543867632447247  0.4452436376445493  0.3750000000000000
  0.2199465744297768  0.9401037916885414  0.3750000000000000
  0.5566147474801982  0.9449740404067635  0.3750000000000000
  0.3831364730072369  0.4663406288142873  0.3750000000000000
  0.8910302411981360  0.9464458469681637  0.3750000000000000
  0.7253511259157375  0.4427106948007862  0.3750000000000000
  0.2221813392958369  0.6110879945418239  0.8750000000000000
  0.0555159986603518  0.1110911428849209  0.8750000000000000
  0.5555154216666471  0.6110884414626454  0.8750000000000000
  0.3888488489605457  0.1110942636845346  0.8750000000000000
  0.8888495245600254  0.6110914289466841  0.8750000000000000
  0.0536555178528742  0.6108135539641107  0.3750000000000000
  0.7221851619235923  0.1110936792934742  0.8750000000000000
  0.2183268845955126  0.1032188625394473  0.3750000000000000
  0.3873641475891301  0.6210920159243073  0.3750000000000000
  0.7253511259157375  0.6159737644482876  0.3750000000000000
  0.5567061427975166  0.1065520061542830  0.3750000000000000
  0.3888488489605457  0.6110879186093535  0.8750000000000000
  0.8914779500267243  0.1124056416800335  0.3750000000000000
  0.2221821174474229  0.7777577253903790  0.8750000000000000
  0.0555159986603518  0.2777581891087669  0.8750000000000000
  0.3888443119488772  0.2777523362324755  0.8750000000000000
  0.5555172736590235  0.7777561814552006  0.8750000000000000
  0.8888515080927513  0.7777599627406365  0.8750000000000000
  0.7221849287835257  0.2777612140526893  0.8750000000000000
  0.0536555178528742  0.7761752972220991  0.3750000000000000
  0.3877643353153726  0.7804722228607290  0.3750000000000000
  0.2259023818820808  0.2796178576077047  0.3750000000000000
  0.7247288286003998  0.7821610582604501  0.3750000000000000
  0.5569802522000903  0.2676761590911527  0.3750000000000000
  0.8910302411981360  0.2779177275633082  0.3750000000000000
  0.0555149394494189  0.4444224601121715  0.8750000000000000
  0.2221813392958369  0.9444266780873488  0.8750000000000000
  0.5555194840719367  0.9444264087026326  0.8750000000000000
  0.3888443119488772  0.4444253090497373  0.8750000000000000
  0.8888535625923439  0.9444264741476940  0.8750000000000000
  0.0543867632447247  0.9424764589335042  0.3750000000000000
  0.7221846505572024  0.4444270457640869  0.8750000000000000
  0.3877643353153726  0.9406254457879789  0.3750000000000000
  0.2183268845955126  0.4484413553894009  0.3750000000000000
  0.2199465744297768  0.6131761160745710  0.3750000000000000
  0.7246252795606566  0.9468620624132266  0.3750000000000000
  0.8898012351279794  0.4440629351788605  0.3750000000000000
  0.0555133400760824  0.6110879717107445  0.8750000000000000
  0.2221791047609583  0.1110907781199603  0.8750000000000000
  0.7221846505572024  0.6110909381264509  0.8750000000000000
  0.5555172736590235  0.1110944255371586  0.8750000000000000
  0.8888527424770680  0.1110930379052056  0.8750000000000000
  0.1087367598216498  0.0521753607213649  0.3750000000000000
  0.6187104867101543  0.5773661214402153  0.3750000000000000
  0.4452303422060647  0.0489029529306624  0.3750000000000000
  0.9435148481050758  0.5549980087217103  0.3750000000000000
  0.7807862810575481  0.0570598071954421  0.3750000000000000
  0.1110821093885441  0.7222077213609327  0.8750000000000000
  0.4444018771816805  0.7222156850885829  0.8750000000000000
  0.2777081134135412  0.2221835638610746  0.8750000000000000
  0.7777621084557154  0.7222394640040902  0.8750000000000000
  0.6110774847322993  0.2221782162971384  0.8750000000000000
  0.9444034364684296  0.2221936487581321  0.8750000000000000
  0.2765877449295059  0.7235258552446834  0.3750000000000000
  0.1132659759604652  0.2232996546468967  0.3750000000000000
  0.4454422942548923  0.2068937275072100  0.3750000000000000
  0.6143681997340551  0.7321921695026863  0.3750000000000000
  0.9435148481050758  0.7218501727167008  0.3750000000000000
  0.7807157041036777  0.2213540607068724  0.3750000000000000
  0.1110744596849810  0.8888747292226971  0.8750000000000000
  0.4444117227544421  0.8888725280438818  0.8750000000000000
  0.2777081134135412  0.3888578828857948  0.8750000000000000
  0.6110734321284961  0.3888566305828346  0.8750000000000000
  0.7777525119584695  0.8888983549453803  0.8750000000000000
  0.9444157740292554  0.3888572375219312  0.8750000000000000
  0.1087367598216498  0.3898947324336136  0.3750000000000000
  0.2765877449295059  0.8863952230181515  0.3750000000000000
  0.6137763797783404  0.8928149511572099  0.3750000000000000
  0.9447557897269252  0.8895255993607659  0.3750000000000000
  0.7808691140041257  0.3867919967822225  0.3750000000000000
  0.2777237168245049  0.5555359880526056  0.8750000000000000
  0.1110568761926610  0.0555317021727043  0.8750000000000000
  0.6110734321284961  0.5555501348789902  0.8750000000000000
  0.4444018771816805  0.0555195254264336  0.8750000000000000
  0.9444277189267536  0.5555384608226190  0.8750000000000000
  0.1093244172286067  0.5561166646132709  0.3750000000000000
  0.7777469087601153  0.0555401210467220  0.8750000000000000
  0.2759917236646061  0.0491680134051933  0.3750000000000000
  0.4454422942548923  0.5718819000810180  0.3750000000000000
  0.7778833663237775  0.5556083498285531  0.3750000000000000
  0.6137763797783404  0.0542947619544590  0.3750000000000000
  0.4443821420850531  0.5555399447593389  0.8750000000000000
  0.9468076276972345  0.0572368122653363  0.3750000000000000
  0.2777409024050019  0.7222070937683085  0.8750000000000000
  0.1110503245175534  0.2221918289254445  0.8750000000000000
  0.4443821420850531  0.2221755306590498  0.8750000000000000
  0.6110774847322993  0.7222326017684890  0.8750000000000000
  0.9444277189267536  0.7222225914374706  0.8750000000000000
  0.7777525119584695  0.2221874903464117  0.8750000000000000
  0.1093996638291568  0.7213664985812429  0.3750000000000000
  0.4452303422060647  0.7296607226087376  0.3750000000000000
  0.2729367717468011  0.2111091565440813  0.3750000000000000
  0.7808691140041257  0.7274104505552315  0.3750000000000000
  0.6143681997340551  0.2155093635646979  0.3750000000000000
  0.9468076276972345  0.2229041487652340  0.3750000000000000
  0.1110568761926610  0.3888585073532850  0.8750000000000000
  0.2777409024050019  0.8888671419700226  0.8750000000000000
  0.6110804543007901  0.8888855453007753  0.8750000000000000
  0.4443727055010254  0.3888530194171735  0.8750000000000000
  0.9444157740292554  0.8888918698406596  0.8750000000000000
  0.1093244172286067  0.8865410859486643  0.3750000000000000
  0.7777621084557154  0.3888559777849531  0.8750000000000000
  0.4452961154489007  0.8893147243911111  0.3750000000000000
  0.2729367717468011  0.3951609485360552  0.3750000000000000
  0.2759917236646061  0.5601570435927491  0.3750000000000000
  0.6187104867101543  0.3746776986032672  0.3750000000000000
  0.7807157041036777  0.8926949767301335  0.3750000000000000
  0.9447557897269252  0.3885635236994875  0.3750000000000000
  0.1110744596849810  0.5555330637956057  0.8750000000000000
  0.2777237168245049  0.0555210621052424  0.8750000000000000
  0.7777663355396904  0.5555498344365168  0.8750000000000000
  0.6110804543007901  0.0555282423333512  0.8750000000000000
  0.9444034364684296  0.0555431210436333  0.8750000000000000
  0.0556484929307618  0.1111561565074927  0.1249998238035381
  0.5556142546235190  0.6112945961697851  0.1241359026214506
  0.3889413014121866  0.1110376367172924  0.1248934005650173
  0.8890855442566757  0.6112094387950125  0.1249275950446905
  0.7223269633716302  0.1111181783566924  0.1247896454777166
  0.0556909840272359  0.7778395450983885  0.6250746265930561
  0.3889477806245920  0.7778543331650782  0.6250628464225156
  0.2223105834068722  0.2778219583701007  0.6250188794080923
  0.7223535469121355  0.7779520370641453  0.6252678048809668
  0.5556142546235190  0.2776529917870766  0.6258640973785496
  0.8890155240474915  0.2778065408211415  0.6251491120838857
  0.2223067434061198  0.7778200383697315  0.1249156497258097
  0.0556484929307618  0.2778256697566047  0.1249998238035381
  0.3889560940538587  0.2777804185769752  0.1239014715858458
  0.5556261719341070  0.7779326135459468  0.1248058377778528
  0.8890641830519774  0.7779028476917643  0.1249012642288679
  0.7223535469121355  0.2777348431813254  0.1247321951190331
  0.0556648465273420  0.9444891235859950  0.6250461262071364
  0.3889477806245920  0.9444267807928491  0.6250628464225156
  0.2222968855741329  0.4445267406567226  0.6249974808003049
  0.5556169437547767  0.4444751385440491  0.6271072946588839
  0.7223269633716302  0.9445421183482738  0.6252103545222829
  0.8890641830519774  0.4444946686935488  0.6250987357711317
  0.0556648465273420  0.4445090562746753  0.1249538737928641
  0.2222958997353180  0.9444348106889534  0.1249779421743114
  0.5556298021410347  0.9444815677371815  0.1248425520810035
  0.3889560940538587  0.4445090088102192  0.1239014715858458
  0.8890155240474915  0.9445423165596861  0.1248508879161143
  0.7224014495938598  0.4444657406196872  0.1244133940527173
  0.2222958997353180  0.6111944223796999  0.6250220578256881
  0.0556484929307618  0.1111561565074927  0.6250001761964618
  0.5556142546235190  0.6112945961697851  0.6258640973785496
  0.3889413014121866  0.1110376367172924  0.6251065994349823
  0.8890855442566757  0.6112094387950125  0.6250724049553096
  0.0556909840272359  0.6111847722621901  0.1249253734069444
  0.7223269633716302  0.1111181783566924  0.6252103545222829
  0.2222968855741329  0.1111034782507460  0.1250025191996945
  0.3889413014121866  0.6112369980282374  0.1248934005650173
  0.7224014495938598  0.6112690423075076  0.1244133940527173
  0.5556261719341070  0.1110268917214888  0.1248058377778528
  0.3889413014121866  0.6112369980282374  0.6251065994349823
  0.8889998747340563  0.1111666040337033  0.1248468655154812
  0.2223067434061198  0.7778200383697315  0.6250843502741901
  0.0556484929307618  0.2778256697566047  0.6250001761964618
  0.3889560940538587  0.2777804185769752  0.6260985284141543
  0.5556261719341070  0.7779326135459468  0.6251941622221469
  0.8890641830519774  0.7779028476917643  0.6250987357711317
  0.7223535469121355  0.2777348431813254  0.6252678048809668
  0.0556909840272359  0.7778395450983885  0.1249253734069444
  0.3889477806245920  0.7778543331650782  0.1249371535774776
  0.2223105834068722  0.2778219583701007  0.1249811205919077
  0.7223535469121355  0.7779520370641453  0.1247321951190331
  0.5556142546235190  0.2776529917870766  0.1241359026214506
  0.8890155240474915  0.2778065408211415  0.1248508879161143
  0.0556648465273420  0.4445090562746753  0.6250461262071364
  0.2222958997353180  0.9444348106889534  0.6250220578256881
  0.5556298021410347  0.9444815677371815  0.6251574479189964
  0.3889560940538587  0.4445090088102192  0.6260985284141543
  0.8890155240474915  0.9445423165596861  0.6251491120838857
  0.0556648465273420  0.9444891235859950  0.1249538737928641
  0.7224014495938598  0.4444657406196872  0.6255866059472830
  0.3889477806245920  0.9444267807928491  0.1249371535774776
  0.2222968855741329  0.4445267406567226  0.1250025191996945
  0.2222958997353180  0.6111944223796999  0.1249779421743114
  0.5556169437547767  0.4444751385440491  0.1228927053411160
  0.7223269633716302  0.9445421183482738  0.1247896454777166
  0.8890641830519774  0.4444946686935488  0.1249012642288679
  0.0556909840272359  0.6111847722621901  0.6250746265930561
  0.2222968855741329  0.1111034782507460  0.6249974808003049
  0.7224014495938598  0.6112690423075076  0.6255866059472830
  0.5556261719341070  0.1110268917214888  0.6251941622221469
  0.8889998747340563  0.1111666040337033  0.6251531344845189
 
  0.00000000E+00  0.00000000E+00  0.00000000E+00
  0.00000000E+00  0.00000000E+00  0.00000000E+00
  0.00000000E+00  0.00000000E+00  0.00000000E+00
  0.00000000E+00  0.00000000E+00  0.00000000E+00
  0.00000000E+00  0.00000000E+00  0.00000000E+00
  0.00000000E+00  0.00000000E+00  0.00000000E+00
  0.00000000E+00  0.00000000E+00  0.00000000E+00
  0.00000000E+00  0.00000000E+00  0.00000000E+00
  0.00000000E+00  0.00000000E+00  0.00000000E+00
  0.00000000E+00  0.00000000E+00  0.00000000E+00
  0.00000000E+00  0.00000000E+00  0.00000000E+00
  0.00000000E+00  0.00000000E+00  0.00000000E+00
  0.00000000E+00  0.00000000E+00  0.00000000E+00
  0.00000000E+00  0.00000000E+00  0.00000000E+00
  0.00000000E+00  0.00000000E+00  0.00000000E+00
  0.00000000E+00  0.00000000E+00  0.00000000E+00
  0.00000000E+00  0.00000000E+00  0.00000000E+00
  0.00000000E+00  0.00000000E+00  0.00000000E+00
  0.00000000E+00  0.00000000E+00  0.00000000E+00
  0.00000000E+00  0.00000000E+00  0.00000000E+00
  0.00000000E+00  0.00000000E+00  0.00000000E+00
  0.00000000E+00  0.00000000E+00  0.00000000E+00
  0.00000000E+00  0.00000000E+00  0.00000000E+00
  0.00000000E+00  0.00000000E+00  0.00000000E+00
  0.00000000E+00  0.00000000E+00  0.00000000E+00
  0.00000000E+00  0.00000000E+00  0.00000000E+00
  0.00000000E+00  0.00000000E+00  0.00000000E+00
  0.00000000E+00  0.00000000E+00  0.00000000E+00
  0.00000000E+00  0.00000000E+00  0.00000000E+00
  0.00000000E+00  0.00000000E+00  0.00000000E+00
  0.00000000E+00  0.00000000E+00  0.00000000E+00
  0.00000000E+00  0.00000000E+00  0.00000000E+00
  0.00000000E+00  0.00000000E+00  0.00000000E+00
  0.00000000E+00  0.00000000E+00  0.00000000E+00
  0.00000000E+00  0.00000000E+00  0.00000000E+00
  0.00000000E+00  0.00000000E+00  0.00000000E+00
  0.00000000E+00  0.00000000E+00  0.00000000E+00
  0.00000000E+00  0.00000000E+00  0.00000000E+00
  0.00000000E+00  0.00000000E+00  0.00000000E+00
  0.00000000E+00  0.00000000E+00  0.00000000E+00
  0.00000000E+00  0.00000000E+00  0.00000000E+00
  0.00000000E+00  0.00000000E+00  0.00000000E+00
  0.00000000E+00  0.00000000E+00  0.00000000E+00
  0.00000000E+00  0.00000000E+00  0.00000000E+00
  0.00000000E+00  0.00000000E+00  0.00000000E+00
  0.00000000E+00  0.00000000E+00  0.00000000E+00
  0.00000000E+00  0.00000000E+00  0.00000000E+00
  0.00000000E+00  0.00000000E+00  0.00000000E+00
  0.00000000E+00  0.00000000E+00  0.00000000E+00
  0.00000000E+00  0.00000000E+00  0.00000000E+00
  0.00000000E+00  0.00000000E+00  0.00000000E+00
  0.00000000E+00  0.00000000E+00  0.00000000E+00
  0.00000000E+00  0.00000000E+00  0.00000000E+00
  0.00000000E+00  0.00000000E+00  0.00000000E+00
  0.00000000E+00  0.00000000E+00  0.00000000E+00
  0.00000000E+00  0.00000000E+00  0.00000000E+00
  0.00000000E+00  0.00000000E+00  0.00000000E+00
  0.00000000E+00  0.00000000E+00  0.00000000E+00
  0.00000000E+00  0.00000000E+00  0.00000000E+00
  0.00000000E+00  0.00000000E+00  0.00000000E+00
  0.00000000E+00  0.00000000E+00  0.00000000E+00
  0.00000000E+00  0.00000000E+00  0.00000000E+00
  0.00000000E+00  0.00000000E+00  0.00000000E+00
  0.00000000E+00  0.00000000E+00  0.00000000E+00
  0.00000000E+00  0.00000000E+00  0.00000000E+00
  0.00000000E+00  0.00000000E+00  0.00000000E+00
  0.00000000E+00  0.00000000E+00  0.00000000E+00
  0.00000000E+00  0.00000000E+00  0.00000000E+00
  0.00000000E+00  0.00000000E+00  0.00000000E+00
  0.00000000E+00  0.00000000E+00  0.00000000E+00
  0.00000000E+00  0.00000000E+00  0.00000000E+00
  0.00000000E+00  0.00000000E+00  0.00000000E+00
  0.00000000E+00  0.00000000E+00  0.00000000E+00
  0.00000000E+00  0.00000000E+00  0.00000000E+00
  0.00000000E+00  0.00000000E+00  0.00000000E+00
  0.00000000E+00  0.00000000E+00  0.00000000E+00
  0.00000000E+00  0.00000000E+00  0.00000000E+00
  0.00000000E+00  0.00000000E+00  0.00000000E+00
  0.00000000E+00  0.00000000E+00  0.00000000E+00
  0.00000000E+00  0.00000000E+00  0.00000000E+00
  0.00000000E+00  0.00000000E+00  0.00000000E+00
  0.00000000E+00  0.00000000E+00  0.00000000E+00
  0.00000000E+00  0.00000000E+00  0.00000000E+00
  0.00000000E+00  0.00000000E+00  0.00000000E+00
  0.00000000E+00  0.00000000E+00  0.00000000E+00
  0.00000000E+00  0.00000000E+00  0.00000000E+00
  0.00000000E+00  0.00000000E+00  0.00000000E+00
  0.00000000E+00  0.00000000E+00  0.00000000E+00
  0.00000000E+00  0.00000000E+00  0.00000000E+00
  0.00000000E+00  0.00000000E+00  0.00000000E+00
  0.00000000E+00  0.00000000E+00  0.00000000E+00
  0.00000000E+00  0.00000000E+00  0.00000000E+00
  0.00000000E+00  0.00000000E+00  0.00000000E+00
  0.00000000E+00  0.00000000E+00  0.00000000E+00
  0.00000000E+00  0.00000000E+00  0.00000000E+00
  0.00000000E+00  0.00000000E+00  0.00000000E+00
  0.00000000E+00  0.00000000E+00  0.00000000E+00
  0.00000000E+00  0.00000000E+00  0.00000000E+00
  0.00000000E+00  0.00000000E+00  0.00000000E+00
  0.00000000E+00  0.00000000E+00  0.00000000E+00
  0.00000000E+00  0.00000000E+00  0.00000000E+00
  0.00000000E+00  0.00000000E+00  0.00000000E+00
  0.00000000E+00  0.00000000E+00  0.00000000E+00
  0.00000000E+00  0.00000000E+00  0.00000000E+00
  0.00000000E+00  0.00000000E+00  0.00000000E+00
  0.00000000E+00  0.00000000E+00  0.00000000E+00
  0.00000000E+00  0.00000000E+00  0.00000000E+00
  0.00000000E+00  0.00000000E+00  0.00000000E+00
  0.00000000E+00  0.00000000E+00  0.00000000E+00
  0.00000000E+00  0.00000000E+00  0.00000000E+00
  0.00000000E+00  0.00000000E+00  0.00000000E+00
  0.00000000E+00  0.00000000E+00  0.00000000E+00
  0.00000000E+00  0.00000000E+00  0.00000000E+00
  0.00000000E+00  0.00000000E+00  0.00000000E+00
  0.00000000E+00  0.00000000E+00  0.00000000E+00
  0.00000000E+00  0.00000000E+00  0.00000000E+00
  0.00000000E+00  0.00000000E+00  0.00000000E+00
  0.00000000E+00  0.00000000E+00  0.00000000E+00
  0.00000000E+00  0.00000000E+00  0.00000000E+00
  0.00000000E+00  0.00000000E+00  0.00000000E+00
  0.00000000E+00  0.00000000E+00  0.00000000E+00
  0.00000000E+00  0.00000000E+00  0.00000000E+00
  0.00000000E+00  0.00000000E+00  0.00000000E+00
  0.00000000E+00  0.00000000E+00  0.00000000E+00
  0.00000000E+00  0.00000000E+00  0.00000000E+00
  0.00000000E+00  0.00000000E+00  0.00000000E+00
  0.00000000E+00  0.00000000E+00  0.00000000E+00
  0.00000000E+00  0.00000000E+00  0.00000000E+00
  0.00000000E+00  0.00000000E+00  0.00000000E+00
  0.00000000E+00  0.00000000E+00  0.00000000E+00
  0.00000000E+00  0.00000000E+00  0.00000000E+00
  0.00000000E+00  0.00000000E+00  0.00000000E+00
  0.00000000E+00  0.00000000E+00  0.00000000E+00
  0.00000000E+00  0.00000000E+00  0.00000000E+00
  0.00000000E+00  0.00000000E+00  0.00000000E+00
  0.00000000E+00  0.00000000E+00  0.00000000E+00
  0.00000000E+00  0.00000000E+00  0.00000000E+00
  0.00000000E+00  0.00000000E+00  0.00000000E+00
  0.00000000E+00  0.00000000E+00  0.00000000E+00
  0.00000000E+00  0.00000000E+00  0.00000000E+00
  0.00000000E+00  0.00000000E+00  0.00000000E+00
  0.00000000E+00  0.00000000E+00  0.00000000E+00
  0.00000000E+00  0.00000000E+00  0.00000000E+00
  0.00000000E+00  0.00000000E+00  0.00000000E+00
  0.00000000E+00  0.00000000E+00  0.00000000E+00
  0.00000000E+00  0.00000000E+00  0.00000000E+00
  0.00000000E+00  0.00000000E+00  0.00000000E+00
  0.00000000E+00  0.00000000E+00  0.00000000E+00
  0.00000000E+00  0.00000000E+00  0.00000000E+00
  0.00000000E+00  0.00000000E+00  0.00000000E+00
  0.00000000E+00  0.00000000E+00  0.00000000E+00
  0.00000000E+00  0.00000000E+00  0.00000000E+00
  0.00000000E+00  0.00000000E+00  0.00000000E+00
  0.00000000E+00  0.00000000E+00  0.00000000E+00
  0.00000000E+00  0.00000000E+00  0.00000000E+00
  0.00000000E+00  0.00000000E+00  0.00000000E+00
  0.00000000E+00  0.00000000E+00  0.00000000E+00
  0.00000000E+00  0.00000000E+00  0.00000000E+00
  0.00000000E+00  0.00000000E+00  0.00000000E+00
  0.00000000E+00  0.00000000E+00  0.00000000E+00
  0.00000000E+00  0.00000000E+00  0.00000000E+00
  0.00000000E+00  0.00000000E+00  0.00000000E+00
  0.00000000E+00  0.00000000E+00  0.00000000E+00
  0.00000000E+00  0.00000000E+00  0.00000000E+00
  0.00000000E+00  0.00000000E+00  0.00000000E+00
  0.00000000E+00  0.00000000E+00  0.00000000E+00
  0.00000000E+00  0.00000000E+00  0.00000000E+00
  0.00000000E+00  0.00000000E+00  0.00000000E+00
  0.00000000E+00  0.00000000E+00  0.00000000E+00
  0.00000000E+00  0.00000000E+00  0.00000000E+00
  0.00000000E+00  0.00000000E+00  0.00000000E+00
  0.00000000E+00  0.00000000E+00  0.00000000E+00
  0.00000000E+00  0.00000000E+00  0.00000000E+00
  0.00000000E+00  0.00000000E+00  0.00000000E+00
  0.00000000E+00  0.00000000E+00  0.00000000E+00
  0.00000000E+00  0.00000000E+00  0.00000000E+00
  0.00000000E+00  0.00000000E+00  0.00000000E+00
  0.00000000E+00  0.00000000E+00  0.00000000E+00
  0.00000000E+00  0.00000000E+00  0.00000000E+00
  0.00000000E+00  0.00000000E+00  0.00000000E+00
  0.00000000E+00  0.00000000E+00  0.00000000E+00
  0.00000000E+00  0.00000000E+00  0.00000000E+00
  0.00000000E+00  0.00000000E+00  0.00000000E+00
  0.00000000E+00  0.00000000E+00  0.00000000E+00
  0.00000000E+00  0.00000000E+00  0.00000000E+00
  0.00000000E+00  0.00000000E+00  0.00000000E+00
  0.00000000E+00  0.00000000E+00  0.00000000E+00
  0.00000000E+00  0.00000000E+00  0.00000000E+00
  0.00000000E+00  0.00000000E+00  0.00000000E+00
  0.00000000E+00  0.00000000E+00  0.00000000E+00
  0.00000000E+00  0.00000000E+00  0.00000000E+00
  0.00000000E+00  0.00000000E+00  0.00000000E+00
  0.00000000E+00  0.00000000E+00  0.00000000E+00
  0.00000000E+00  0.00000000E+00  0.00000000E+00
  0.00000000E+00  0.00000000E+00  0.00000000E+00
  0.00000000E+00  0.00000000E+00  0.00000000E+00
  0.00000000E+00  0.00000000E+00  0.00000000E+00
  0.00000000E+00  0.00000000E+00  0.00000000E+00
  0.00000000E+00  0.00000000E+00  0.00000000E+00
  0.00000000E+00  0.00000000E+00  0.00000000E+00
  0.00000000E+00  0.00000000E+00  0.00000000E+00
  0.00000000E+00  0.00000000E+00  0.00000000E+00
  0.00000000E+00  0.00000000E+00  0.00000000E+00
  0.00000000E+00  0.00000000E+00  0.00000000E+00
  0.00000000E+00  0.00000000E+00  0.00000000E+00
  0.00000000E+00  0.00000000E+00  0.00000000E+00
  0.00000000E+00  0.00000000E+00  0.00000000E+00
  0.00000000E+00  0.00000000E+00  0.00000000E+00
  0.00000000E+00  0.00000000E+00  0.00000000E+00
  0.00000000E+00  0.00000000E+00  0.00000000E+00
  0.00000000E+00  0.00000000E+00  0.00000000E+00
  0.00000000E+00  0.00000000E+00  0.00000000E+00
  0.00000000E+00  0.00000000E+00  0.00000000E+00
  0.00000000E+00  0.00000000E+00  0.00000000E+00
  0.00000000E+00  0.00000000E+00  0.00000000E+00
  0.00000000E+00  0.00000000E+00  0.00000000E+00
  0.00000000E+00  0.00000000E+00  0.00000000E+00
  0.00000000E+00  0.00000000E+00  0.00000000E+00
  0.00000000E+00  0.00000000E+00  0.00000000E+00
  0.00000000E+00  0.00000000E+00  0.00000000E+00
  0.00000000E+00  0.00000000E+00  0.00000000E+00
  0.00000000E+00  0.00000000E+00  0.00000000E+00
  0.00000000E+00  0.00000000E+00  0.00000000E+00
  0.00000000E+00  0.00000000E+00  0.00000000E+00
  0.00000000E+00  0.00000000E+00  0.00000000E+00
  0.00000000E+00  0.00000000E+00  0.00000000E+00
  0.00000000E+00  0.00000000E+00  0.00000000E+00
  0.00000000E+00  0.00000000E+00  0.00000000E+00
  0.00000000E+00  0.00000000E+00  0.00000000E+00
  0.00000000E+00  0.00000000E+00  0.00000000E+00
  0.00000000E+00  0.00000000E+00  0.00000000E+00
  0.00000000E+00  0.00000000E+00  0.00000000E+00
  0.00000000E+00  0.00000000E+00  0.00000000E+00
  0.00000000E+00  0.00000000E+00  0.00000000E+00
  0.00000000E+00  0.00000000E+00  0.00000000E+00
  0.00000000E+00  0.00000000E+00  0.00000000E+00
  0.00000000E+00  0.00000000E+00  0.00000000E+00
  0.00000000E+00  0.00000000E+00  0.00000000E+00
  0.00000000E+00  0.00000000E+00  0.00000000E+00
  0.00000000E+00  0.00000000E+00  0.00000000E+00
  0.00000000E+00  0.00000000E+00  0.00000000E+00
  0.00000000E+00  0.00000000E+00  0.00000000E+00
  0.00000000E+00  0.00000000E+00  0.00000000E+00
  0.00000000E+00  0.00000000E+00  0.00000000E+00
  0.00000000E+00  0.00000000E+00  0.00000000E+00
  0.00000000E+00  0.00000000E+00  0.00000000E+00
  0.00000000E+00  0.00000000E+00  0.00000000E+00