 N S B 
 1.0
 14.936314146199660   0.000000000000000   0.000000000000000
 -7.468157073099825  12.935227489513863   0.000000000000000
  0.000000000000001   0.000000000000001  13.341276283792837
 N S B 
 143   2 143
Cartesian
  1.246019890134957   0.719239774646435   1.671616258743298 
  4.979486555495730   7.187397631302368   1.660718707372461 
  6.224721347047304   0.718908242257660   1.670418654732549 
  9.958322518656015   7.186756154091594   1.671032170415970 
 11.203554348320125   0.719385123543855   1.667421369817705 
 -3.733271496505225   9.342574687213695   8.336541367424168 
  1.245567783275514   9.343055193398103   8.335538558112091 
  2.491056303470919   2.875269423967392   8.335508581021919 
  6.224328940884984   9.342813192961787   8.335257582133575 
  7.469572131594169   2.874579351156785   8.337559549975783 
 12.448281809293583   2.875289331138374   8.337157859191983 
 -1.243879267896429   9.342707922427865   1.669862317349927 
  0.001566137375560   2.875399207505008   1.672571660285958 
  4.980363792331449   2.875032545770835   1.665824338138445 
  3.734859118059740   9.343292042287130   1.668397662868844 
  8.713688968542147   9.342524699693653   1.671032170415970 
  9.958853572918699   2.875022400828612   1.668100739976855 
 -4.977797753738344  11.498399767198261   8.335887665244115 
  0.000981264254139  11.498546523860291   8.336872644287631 
  1.246198824582611   5.031425825584057   8.335508581021919 
  6.224826522522483   5.030405535715869   8.345238505472167 
  4.979883530993000  11.498851482807327   8.337856472867786 
 11.203298795225413   5.031020121014972   8.336387160828883 
 -1.243495829709768   5.031207487658936   1.671616258743298 
 -2.488459997120655  11.498384979565364   1.669862317349927 
  2.490378436005320  11.498910369760079   1.668054849054251 
  3.736284965446934   5.031640128239593   1.637418634153171 
  7.469254938329013  11.498573798850030   1.669570052015745 
  8.713892347326508   5.030762884340788   1.670699630711052 
  0.001009695803764   7.187097697261271   8.333685557865907 
  1.246019890134957   0.719239774646435   8.334340954101329 
  4.979486555495731   7.187397631302368   8.345238505472167 
  6.224721347047304   0.718908242257661   8.335538558112091 
  9.958322518656015   7.186756154091595   8.334925042428644 
 -2.488535339739478   7.186870792780640   1.670069547600526 
 11.203554348320125   0.719385123543856   8.338535843026921 
  3.735328342177446   0.719068070090172   1.672271654978708 
  2.490647426477012   7.187347787866492   1.665824338138445 
  7.468758892258048   7.186584954627338   1.671876447700396 
  8.714152023021910   0.719018302242075   1.668054849054251 
  2.490647426477012   7.187347787866493   8.340132874706184 
 13.692985890709506   0.719398621737630   1.668799353652645 
 -1.243879267896429   9.342707922427865   8.336094895494714 
  0.001566137375561   2.875399207505009   8.333385552558671 
  4.980363792331450   2.875032545770836   8.340132874706184 
  3.734859118059740   9.343292042287130   8.337559549975783 
  8.713688968542147   9.342524699693653   8.334925042428644 
  9.958853572918699   2.875022400828613   8.337856472867786 
 -3.733271496505226   9.342574687213695   1.669415845420460 
  1.245567783275513   9.343055193398103   1.670418654732549 
  2.491056303470918   2.875269423967391   1.670448631822708 
  6.224328940884983   9.342813192961787   1.670699630711052 
  7.469572131594168   2.874579351156784   1.668397662868844 
 12.448281809293583   2.875289331138373   1.668799353652645 
 -1.243495829709768   5.031207487658937   8.334340954101329 
 -2.488459997120655  11.498384979565364   8.336094895494714 
  2.490378436005321  11.498910369760079   8.337902363790377 
  3.736284965446935   5.031640128239594   8.368538578691457 
  7.469254938329014  11.498573798850030   8.336387160828883 
 -4.977797753738345  11.498399767198261   1.670069547600526 
  8.713892347326508   5.030762884340789   8.335257582133575 
  0.000981264254138  11.498546523860291   1.669084568556983 
  1.246198824582610   5.031425825584056   1.670448631822708 
  0.001009695803764   7.187097697261270   1.672271654978708 
  6.224826522522482   5.030405535715868   1.660718707372461 
  4.979883530992999  11.498851482807327   1.668100739976855 
 11.203298795225413   5.031020121014971   1.669570052015745 
 -2.488535339739478   7.186870792780641   8.335887665244115 
  3.735328342177446   0.719068070090173   8.333685557865907 
  7.468758892258049   7.186584954627339   8.334080765144231 
  8.714152023021910   0.719018302242075   8.337902363790377 
 13.692985890709506   0.719398621737631   8.337157859191983 
  0.024476460791370   1.449123744046095   5.002978606422314 
  3.669277919828472   8.053956754516348   5.002978606422314 
  5.041923339420645   1.288419348950088   5.002978606422314 
  8.696778447500254   7.895582375416719   5.002978606422314 
  9.993544324525853   1.437059153768879   5.002978606422314 
 -4.979259462574652  10.060485738421200  11.673616748318732 
 -0.000385323906721  10.060487423724100  11.673616748318732 
  1.244209584379813   3.592839736139764  11.673616748318732 
  4.978369168307896  10.060464348282823  11.673616748318732 
  6.222995200901322   3.592892843164152  11.673616748318732 
 11.201837582319545   3.592894243281558  11.673616748318732 
 -2.513752045216333  10.046664570697430   5.002978606422314 
 -1.222169485066481   3.608377861321669   5.002978606422314 
  3.854642735371472   3.235477813067495   5.002978606422314 
  2.463930345352194  10.134588659330596   5.002978606422314 
  7.472121446998165  10.077468807135675   5.002978606422314 
  8.764304675909164   3.568843540621904   5.002978606422314 
 -6.223931737490089  12.216362733862997  11.673616748318732 
 -1.245097742687609  12.216392573864562  11.673616748318732 
 -0.000473857945014   5.748695273035390  11.673616748318732 
  4.978389520715702   5.748769527585688  11.673616748318732 
  3.733671580866371  12.216349841229542  11.673616748318732 
  9.957130552980384   5.748736907795897  11.673616748318732 
 -2.512811640509635   5.759327741190921   5.002978606422314 
 -3.735651650283106  12.160456409245830   5.002978606422314 
  1.256558163012346  12.223454184346545   5.002978606422314 
  2.239941656149802   6.032222121315747   5.002978606422314 
  6.240501349958165  12.242492337038827   5.002978606422314 
  7.527839276263646   5.726563549288910   5.002978606422314 
 -1.245130847577913   7.904562225509301  11.673616748318732 
 -0.000441708363748   1.436989205286544  11.673616748318732 
  3.733648384672811   7.904568006531790  11.673616748318732 
  4.978299152346382   1.437029573539500  11.673616748318732 
  8.712408950129886   7.904606650317455  11.673616748318732 
 -3.760235893054766   7.901012274204229   5.002978606422314 
  9.957119403422597   1.437022014308183  11.673616748318732 
  2.490144256528372   1.335159468156608   5.002978606422314 
  1.147379865595153   8.033966517901678   5.002978606422314 
  6.233883457168666   7.967760770710833   5.002978606422314 
  7.519390717528717   1.378274439069732   5.002978606422314 
  1.244268001814562   7.904561243305527  11.673616748318732 
 12.475931728040161   1.453992546236021   5.002978606422314 
 -2.489834954169651  10.060473109651406  11.673616748318732 
 -1.245137388473019   3.592865363197314  11.673616748318732 
  3.733602722826719   3.592789654911023  11.673616748318732 
  2.488975185329765  10.060453138498650  11.673616748318732 
  7.467731787281315  10.060502050285967  11.673616748318732 
  8.712416592601191   3.592904491535089  11.673616748318732 
 -4.995183365587027  10.040004041308888   5.002978606422314 
 -0.036919224552582  10.095585751950093   5.002978606422314 
  1.285918861107523   3.616920598286160   5.002978606422314 
  4.983475815231840  10.117431222037828   5.002978606422314 
  6.320184419273269   3.462452011363369   5.002978606422314 
 11.233174353457665   3.594929029400127   5.002978606422314 
 -2.489828163507366   5.748705623000347  11.673616748318732 
 -3.734556494836210  12.216373928225739  11.673616748318732 
  1.244288764258376  12.216370443673155  11.673616748318732 
  2.488862781986917   5.748742474655853  11.673616748318732 
  6.223070787919165  12.216371290219907  11.673616748318732 
 -6.226224451796126  12.191147399816344   5.002978606422314 
  7.467725826985871   5.748764939451054  11.673616748318732 
 -1.232968649136457  12.167204123692899   5.002978606422314 
 -0.088031545242165   5.800690947667837   5.002978606422314 
 -1.294104417254552   7.931572552561136   5.002978606422314 
  3.751916205134496  12.247876178505365   5.002978606422314 
  9.974019025290492   5.744055086199803   5.002978606422314 
 -3.734536271536641   7.904561930184087  11.673616748318732 
  2.488893525058332   1.436984486968793  11.673616748318732 
  6.223053700409534   7.904600301446085  11.673616748318732 
  7.467709893154240   1.437031667140011  11.673616748318732 
 12.446523534544685   1.437013717805028  11.673616748318732 
  3.322368731753938   4.792665479295044   5.002978606422314 
  4.959995081127999   5.738149492938188   5.002978606422314 
  1.234472614723229   0.674900160278303   5.002978606422314 
  4.929393311448997   7.468362125567470   5.002978606422314 
  6.284885324785173   0.632570821067102   5.002978606422314 
  9.947821868509914   7.179025499042520   5.002978606422314 
 11.235937572222124   0.738081586580843   5.002978606422314 
 -3.734403420679151   9.341921170487112  11.673616748318732 
  1.244105867848490   9.342024183115928  11.673616748318732 
  2.488633868917479   2.873994942973937  11.673616748318732 
  6.223101421331200   9.342331768797465  11.673616748318732 
  7.467983462102970   2.873925771017898  11.673616748318732 
 12.446529338272081   2.874125393411578  11.673616748318732 
 -1.272203286160136   9.358971532135053   5.002978606422314 
  0.024139303749432   2.888431831187495   5.002978606422314 
  5.108151186532017   2.676217431459254   5.002978606422314 
  3.708270303123194   9.471072278557937   5.002978606422314 
  8.701743699808709   9.337296197435402   5.002978606422314 
 10.007908121236600   2.863265130971052   5.002978606422314 
 -4.979213072669909  11.497796832175624  11.673616748318732 
 -0.000366556080905  11.497768359426907  11.673616748318732 
  1.243883874388920   5.029965176218498  11.673616748318732 
  6.223142352558669   5.029948977394826  11.673616748318732 
  4.978323309855478  11.498102436273133  11.673616748318732 
 11.202043756701796   5.029956828290104  11.673616748318732 
 -1.287668699852432   5.043377060991937   5.002978606422314 
 -2.488537307088864  11.465723855358171   5.002978606422314 
  2.499874531432443  11.548764499257720   5.002978606422314 
  7.468052370232836  11.506215985477676   5.002978606422314 
  8.774683007242666   5.003242469501356   5.002978606422314 
 -0.000661338195566   7.185984384072315  11.673616748318732 
  1.244060916546835   0.718315200483859  11.673616748318732 
  4.978249079409543   7.186167376489847  11.673616748318732 
  6.223097508237858   0.718157691500774  11.673616748318732 
  9.957420612697319   7.186016369914963  11.673616748318732 
 -2.520262762723606   7.193495567482346   5.002978606422314 
 11.201889807640864   0.718424100534487  11.673616748318732 
  3.755104639323423   0.635999438603639   5.002978606422314 
  2.382362183927154   7.397422474683406   5.002978606422314 
  7.469339900869828   7.186920400105735   5.002978606422314 
  8.762075013363969   0.702315097369930   5.002978606422314 
  2.488571707299542   7.186035564974016  11.673616748318732 
 13.714362658942882   0.740371187426719   5.002978606422314 
 -1.245130645998566   9.341913052433737  11.673616748318732 
 -0.000680945742958   2.874101853461779  11.673616748318732 
  4.978189514382394   2.873891031678275  11.673616748318732 
  3.733498766310514   9.342243004218879  11.673616748318732 
  8.712597343672519   9.342113518309917  11.673616748318732 
  9.957424769022760   2.874045732955006  11.673616748318732 
 -3.753250572235839   9.331039762462458   5.002978606422314 
  1.200879372096188   9.438327437107098   5.002978606422314 
  2.500073024218995   2.730744965017082   5.002978606422314 
  6.230890892469444   9.409219656181689   5.002978606422314 
  7.566938654838042   2.787662643829719   5.002978606422314 
 12.477132968079561   2.883315872634743   5.002978606422314 
 -1.245276021216288   5.029973253847541  11.673616748318732 
 -2.489774063779362  11.497698689336266  11.673616748318732 
  2.488952761724829  11.497936740606107  11.673616748318732 
  3.733274900003392   5.029902266145485  11.673616748318732 
  7.467706580555810  11.498018549968286  11.673616748318732 
 -4.987924242044438  11.467610625546632   5.002978606422314 
  8.712861661993326   5.029940533305718  11.673616748318732 
  0.009540619253881  11.503488269773344   5.002978606422314 
  1.125545332037436   5.111496764285953   5.002978606422314 
 -0.061041700748193   7.245758788725743   5.002978606422314 
  6.443102290094199   4.846541266680770   5.002978606422314 
  4.994228710776160  11.547212602750568   5.002978606422314 
 11.209315838937385   5.026157573179977   5.002978606422314 
 -2.489765156251704   7.185946558142782  11.673616748318732 
  3.733528667673725   0.718177568790734  11.673616748318732 
  7.468028894452834   7.186163490198110  11.673616748318732 
  8.712595998300388   0.718270446674750  11.673616748318732 
 13.691101655558935   0.718462906176999  11.673616748318732 
  0.001051735736407   1.437830171284429   1.667657184788425 
  3.733584989030366   7.907234664566679   1.656131373610781 
  4.980102950293622   1.436297090836170   1.666237362960300 
  8.715052898380263   7.906133134551593   1.666693560961012 
  9.959054431544624   1.437338915264187   1.664853137674782 
 -4.977209867921491  10.061531466187628   8.339293291366602 
  0.000307897807931  10.061722753194392   8.339136128856756 
  1.245682688325847   3.593690233099507   8.338549552769953 
  4.979431493168212  10.062986575355437   8.341870536277652 
  6.225272896681461   3.591504611909966   8.349825839233860 
 11.203912265234859   3.593490803596379   8.340287022878899 
 -2.488438864817276  10.061279142214874   1.666534195161522 
 -1.243662368505054   3.593738240728237   1.667657184788425 
  3.735062612102953   3.593152906425555   1.653003764395279 
  2.489284101609971  10.062735327728898   1.665069163624566 
  7.469841280024944  10.062350299633621   1.666342274272339 
  8.715132067750339   3.592563378314897   1.664086676566976 
 -6.222165494142231  12.217181674956420   8.338913059843847 
 -1.243681305126958  12.216375256744744   8.339136128856756 
  0.000500594239533   5.750054515566844   8.338264068031378 
  4.979459067137932   5.749387030500467   8.366411677626056 
  3.734913539205768  12.217867174262251   8.341104075169847 
  9.959785930239796   5.749639657427153   8.339614938572288 
 -2.488235818042271   5.749825764062042   1.667044153000780 
 -3.732906119669587  12.216479125277566   1.667365255927368 
  1.245524573260411  12.217083938333147   1.665558979286471 
  2.489907311664590   5.749825150098505   1.653003764395279 
  6.224624765764345  12.217869738171956   1.665670189965729 
  7.470675026244443   5.749265466210915   1.659833463461686 
 -1.244214556675307   7.905938893803444   8.338591956917247 
  0.001051735736408   1.437830171284430   8.338300028056203 
  3.733584989030366   7.907234664566680   8.349825839233860 
  4.980102950293623   1.436297090836170   8.339719849884315 
  8.715052898380263   7.906133134551594   8.339263651883631 
 -3.732605847398996   7.905814067338151   1.666663921478026 
  9.959054431544624   1.437338915264188   8.341104075169847 
  2.490557889712749   1.437148766049656   1.667693144813236 
  1.244535552159273   7.906489619502783   1.666237362960300 
  6.224961768928139   7.906904119544890   1.659833463461686 
  7.469840785144041   1.436158101871084   1.665069163624566 
  1.244535552159273   7.906489619502784   8.339719849884315 
 12.448171744753218   1.437965312412658   1.665616526007561 
 -2.488438864817275  10.061279142214874   8.339423017683105 
 -1.243662368505053   3.593738240728238   8.338300028056203 
  3.735062612102954   3.593152906425555   8.352953448449348 
  2.489284101609971  10.062735327728898   8.340888049220061 
  7.469841280024945  10.062350299633621   8.339614938572288 
  8.715132067750339   3.592563378314898   8.341870536277652 
 -4.977209867921492  10.061531466187628   1.666663921478026 
  0.000307897807931  10.061722753194392   1.666821083987791 
  1.245682688325846   3.593690233099506   1.667407660074675 
  4.979431493168211  10.062986575355437   1.664086676566976 
  6.225272896681460   3.591504611909965   1.656131373610781 
 11.203912265234859   3.593490803596378   1.665670189965729 
 -2.488235818042270   5.749825764062042   8.338913059843847 
 -3.732906119669586  12.216479125277566   8.338591956917247 
  1.245524573260412  12.217083938333147   8.340398233558156 
  2.489907311664591   5.749825150098506   8.352953448449348 
  6.224624765764346  12.217869738171956   8.340287022878899 
 -6.222165494142232  12.217181674956420   1.667044153000780 
  7.470675026244444   5.749265466210915   8.346123749382942 
 -1.243681305126958  12.216375256744744   1.666821083987791 
  0.000500594239533   5.750054515566843   1.667693144813236 
 -1.244214556675308   7.905938893803443   1.667365255927368 
  4.979459067137931   5.749387030500466   1.639545535218572 
  3.734913539205768  12.217867174262251   1.664853137674782 
  9.959785930239796   5.749639657427152   1.666342274272339 
 -3.732605847398995   7.905814067338151   8.339293291366602 
  2.490557889712749   1.437148766049656   8.338264068031378 
  6.224961768928140   7.906904119544891   8.346123749382942 
  7.469840785144042   1.436158101871085   8.340888049220061 
 12.448171744753218   1.437965312412659   8.340340686837068 
Generated by cif2cell 2.0.0.  :  Failed to get author information, No journal information. Species order: N S B 
 1.0
 14.936314146199660   0.000000000000000   0.000000000000000
 -7.468157073099825  12.935227489513863   0.000000000000000
  0.000000000000001   0.000000000000001  13.341276283792837
 N S B 
 143   2 143
Cartesian
  1.246019890134957   0.719239774646435   1.671616258743298 
  4.979486555495730   7.187397631302368   1.660718707372461 
  6.224721347047304   0.718908242257660   1.670418654732549 
  9.958322518656015   7.186756154091594   1.671032170415970 
 11.203554348320125   0.719385123543855   1.667421369817705 
 -3.733271496505225   9.342574687213695   8.336541367424168 
  1.245567783275514   9.343055193398103   8.335538558112091 
  2.491056303470919   2.875269423967392   8.335508581021919 
  6.224328940884984   9.342813192961787   8.335257582133575 
  7.469572131594169   2.874579351156785   8.337559549975783 
 12.448281809293583   2.875289331138374   8.337157859191983 
 -1.243879267896429   9.342707922427865   1.669862317349927 
  0.001566137375560   2.875399207505008   1.672571660285958 
  4.980363792331449   2.875032545770835   1.665824338138445 
  3.734859118059740   9.343292042287130   1.668397662868844 
  8.713688968542147   9.342524699693653   1.671032170415970 
  9.958853572918699   2.875022400828612   1.668100739976855 
 -4.977797753738344  11.498399767198261   8.335887665244115 
  0.000981264254139  11.498546523860291   8.336872644287631 
  1.246198824582611   5.031425825584057   8.335508581021919 
  6.224826522522483   5.030405535715869   8.345238505472167 
  4.979883530993000  11.498851482807327   8.337856472867786 
 11.203298795225413   5.031020121014972   8.336387160828883 
 -1.243495829709768   5.031207487658936   1.671616258743298 
 -2.488459997120655  11.498384979565364   1.669862317349927 
  2.490378436005320  11.498910369760079   1.668054849054251 
  3.736284965446934   5.031640128239593   1.637418634153171 
  7.469254938329013  11.498573798850030   1.669570052015745 
  8.713892347326508   5.030762884340788   1.670699630711052 
  0.001009695803764   7.187097697261271   8.333685557865907 
  1.246019890134957   0.719239774646435   8.334340954101329 
  4.979486555495731   7.187397631302368   8.345238505472167 
  6.224721347047304   0.718908242257661   8.335538558112091 
  9.958322518656015   7.186756154091595   8.334925042428644 
 -2.488535339739478   7.186870792780640   1.670069547600526 
 11.203554348320125   0.719385123543856   8.338535843026921 
  3.735328342177446   0.719068070090172   1.672271654978708 
  2.490647426477012   7.187347787866492   1.665824338138445 
  7.468758892258048   7.186584954627338   1.671876447700396 
  8.714152023021910   0.719018302242075   1.668054849054251 
  2.490647426477012   7.187347787866493   8.340132874706184 
 13.692985890709506   0.719398621737630   1.668799353652645 
 -1.243879267896429   9.342707922427865   8.336094895494714 
  0.001566137375561   2.875399207505009   8.333385552558671 
  4.980363792331450   2.875032545770836   8.340132874706184 
  3.734859118059740   9.343292042287130   8.337559549975783 
  8.713688968542147   9.342524699693653   8.334925042428644 
  9.958853572918699   2.875022400828613   8.337856472867786 
 -3.733271496505226   9.342574687213695   1.669415845420460 
  1.245567783275513   9.343055193398103   1.670418654732549 
  2.491056303470918   2.875269423967391   1.670448631822708 
  6.224328940884983   9.342813192961787   1.670699630711052 
  7.469572131594168   2.874579351156784   1.668397662868844 
 12.448281809293583   2.875289331138373   1.668799353652645 
 -1.243495829709768   5.031207487658937   8.334340954101329 
 -2.488459997120655  11.498384979565364   8.336094895494714 
  2.490378436005321  11.498910369760079   8.337902363790377 
  3.736284965446935   5.031640128239594   8.368538578691457 
  7.469254938329014  11.498573798850030   8.336387160828883 
 -4.977797753738345  11.498399767198261   1.670069547600526 
  8.713892347326508   5.030762884340789   8.335257582133575 
  0.000981264254138  11.498546523860291   1.669084568556983 
  1.246198824582610   5.031425825584056   1.670448631822708 
  0.001009695803764   7.187097697261270   1.672271654978708 
  6.224826522522482   5.030405535715868   1.660718707372461 
  4.979883530992999  11.498851482807327   1.668100739976855 
 11.203298795225413   5.031020121014971   1.669570052015745 
 -2.488535339739478   7.186870792780641   8.335887665244115 
  3.735328342177446   0.719068070090173   8.333685557865907 
  7.468758892258049   7.186584954627339   8.334080765144231 
  8.714152023021910   0.719018302242075   8.337902363790377 
 13.692985890709506   0.719398621737631   8.337157859191983 
  0.024476460791370   1.449123744046095   5.002978606422314 
  3.669277919828472   8.053956754516348   5.002978606422314 
  5.041923339420645   1.288419348950088   5.002978606422314 
  8.696778447500254   7.895582375416719   5.002978606422314 
  9.993544324525853   1.437059153768879   5.002978606422314 
 -4.979259462574652  10.060485738421200  11.673616748318732 
 -0.000385323906721  10.060487423724100  11.673616748318732 
  1.244209584379813   3.592839736139764  11.673616748318732 
  4.978369168307896  10.060464348282823  11.673616748318732 
  6.222995200901322   3.592892843164152  11.673616748318732 
 11.201837582319545   3.592894243281558  11.673616748318732 
 -2.513752045216333  10.046664570697430   5.002978606422314 
 -1.222169485066481   3.608377861321669   5.002978606422314 
  3.854642735371472   3.235477813067495   5.002978606422314 
  2.463930345352194  10.134588659330596   5.002978606422314 
  7.472121446998165  10.077468807135675   5.002978606422314 
  8.764304675909164   3.568843540621904   5.002978606422314 
 -6.223931737490089  12.216362733862997  11.673616748318732 
 -1.245097742687609  12.216392573864562  11.673616748318732 
 -0.000473857945014   5.748695273035390  11.673616748318732 
  4.978389520715702   5.748769527585688  11.673616748318732 
  3.733671580866371  12.216349841229542  11.673616748318732 
  9.957130552980384   5.748736907795897  11.673616748318732 
 -2.512811640509635   5.759327741190921   5.002978606422314 
 -3.735651650283106  12.160456409245830   5.002978606422314 
  1.256558163012346  12.223454184346545   5.002978606422314 
  2.239941656149802   6.032222121315747   5.002978606422314 
  6.240501349958165  12.242492337038827   5.002978606422314 
  7.527839276263646   5.726563549288910   5.002978606422314 
 -1.245130847577913   7.904562225509301  11.673616748318732 
 -0.000441708363748   1.436989205286544  11.673616748318732 
  3.733648384672811   7.904568006531790  11.673616748318732 
  4.978299152346382   1.437029573539500  11.673616748318732 
  8.712408950129886   7.904606650317455  11.673616748318732 
 -3.760235893054766   7.901012274204229   5.002978606422314 
  9.957119403422597   1.437022014308183  11.673616748318732 
  2.490144256528372   1.335159468156608   5.002978606422314 
  1.147379865595153   8.033966517901678   5.002978606422314 
  6.233883457168666   7.967760770710833   5.002978606422314 
  7.519390717528717   1.378274439069732   5.002978606422314 
  1.244268001814562   7.904561243305527  11.673616748318732 
 12.475931728040161   1.453992546236021   5.002978606422314 
 -2.489834954169651  10.060473109651406  11.673616748318732 
 -1.245137388473019   3.592865363197314  11.673616748318732 
  3.733602722826719   3.592789654911023  11.673616748318732 
  2.488975185329765  10.060453138498650  11.673616748318732 
  7.467731787281315  10.060502050285967  11.673616748318732 
  8.712416592601191   3.592904491535089  11.673616748318732 
 -4.995183365587027  10.040004041308888   5.002978606422314 
 -0.036919224552582  10.095585751950093   5.002978606422314 
  1.285918861107523   3.616920598286160   5.002978606422314 
  4.983475815231840  10.117431222037828   5.002978606422314 
  6.320184419273269   3.462452011363369   5.002978606422314 
 11.233174353457665   3.594929029400127   5.002978606422314 
 -2.489828163507366   5.748705623000347  11.673616748318732 
 -3.734556494836210  12.216373928225739  11.673616748318732 
  1.244288764258376  12.216370443673155  11.673616748318732 
  2.488862781986917   5.748742474655853  11.673616748318732 
  6.223070787919165  12.216371290219907  11.673616748318732 
 -6.226224451796126  12.191147399816344   5.002978606422314 
  7.467725826985871   5.748764939451054  11.673616748318732 
 -1.232968649136457  12.167204123692899   5.002978606422314 
 -0.088031545242165   5.800690947667837   5.002978606422314 
 -1.294104417254552   7.931572552561136   5.002978606422314 
  3.751916205134496  12.247876178505365   5.002978606422314 
  9.974019025290492   5.744055086199803   5.002978606422314 
 -3.734536271536641   7.904561930184087  11.673616748318732 
  2.488893525058332   1.436984486968793  11.673616748318732 
  6.223053700409534   7.904600301446085  11.673616748318732 
  7.467709893154240   1.437031667140011  11.673616748318732 
 12.446523534544685   1.437013717805028  11.673616748318732 
  3.322368731753938   4.792665479295044   5.002978606422314 
  4.959995081127999   5.738149492938188   5.002978606422314 
  1.234472614723229   0.674900160278303   5.002978606422314 
  4.929393311448997   7.468362125567470   5.002978606422314 
  6.284885324785173   0.632570821067102   5.002978606422314 
  9.947821868509914   7.179025499042520   5.002978606422314 
 11.235937572222124   0.738081586580843   5.002978606422314 
 -3.734403420679151   9.341921170487112  11.673616748318732 
  1.244105867848490   9.342024183115928  11.673616748318732 
  2.488633868917479   2.873994942973937  11.673616748318732 
  6.223101421331200   9.342331768797465  11.673616748318732 
  7.467983462102970   2.873925771017898  11.673616748318732 
 12.446529338272081   2.874125393411578  11.673616748318732 
 -1.272203286160136   9.358971532135053   5.002978606422314 
  0.024139303749432   2.888431831187495   5.002978606422314 
  5.108151186532017   2.676217431459254   5.002978606422314 
  3.708270303123194   9.471072278557937   5.002978606422314 
  8.701743699808709   9.337296197435402   5.002978606422314 
 10.007908121236600   2.863265130971052   5.002978606422314 
 -4.979213072669909  11.497796832175624  11.673616748318732 
 -0.000366556080905  11.497768359426907  11.673616748318732 
  1.243883874388920   5.029965176218498  11.673616748318732 
  6.223142352558669   5.029948977394826  11.673616748318732 
  4.978323309855478  11.498102436273133  11.673616748318732 
 11.202043756701796   5.029956828290104  11.673616748318732 
 -1.287668699852432   5.043377060991937   5.002978606422314 
 -2.488537307088864  11.465723855358171   5.002978606422314 
  2.499874531432443  11.548764499257720   5.002978606422314 
  7.468052370232836  11.506215985477676   5.002978606422314 
  8.774683007242666   5.003242469501356   5.002978606422314 
 -0.000661338195566   7.185984384072315  11.673616748318732 
  1.244060916546835   0.718315200483859  11.673616748318732 
  4.978249079409543   7.186167376489847  11.673616748318732 
  6.223097508237858   0.718157691500774  11.673616748318732 
  9.957420612697319   7.186016369914963  11.673616748318732 
 -2.520262762723606   7.193495567482346   5.002978606422314 
 11.201889807640864   0.718424100534487  11.673616748318732 
  3.755104639323423   0.635999438603639   5.002978606422314 
  2.382362183927154   7.397422474683406   5.002978606422314 
  7.469339900869828   7.186920400105735   5.002978606422314 
  8.762075013363969   0.702315097369930   5.002978606422314 
  2.488571707299542   7.186035564974016  11.673616748318732 
 13.714362658942882   0.740371187426719   5.002978606422314 
 -1.245130645998566   9.341913052433737  11.673616748318732 
 -0.000680945742958   2.874101853461779  11.673616748318732 
  4.978189514382394   2.873891031678275  11.673616748318732 
  3.733498766310514   9.342243004218879  11.673616748318732 
  8.712597343672519   9.342113518309917  11.673616748318732 
  9.957424769022760   2.874045732955006  11.673616748318732 
 -3.753250572235839   9.331039762462458   5.002978606422314 
  1.200879372096188   9.438327437107098   5.002978606422314 