 N P B 
 1.0
 14.936314146199660   0.000000000000000   0.000000000000000
 -7.468157073099825  12.935227489513863   0.000000000000000
  0.000000000000001   0.000000000000001  13.341276283792837
 N P B 
 143   1 143
Cartesian
  1.244630672213336   0.718168200952623   1.670661728240840 
  4.978287445850466   7.185894227754302   1.691714262667254 
  6.223201114044225   0.718167063763921   1.672014143643990 
  9.957387638946862   7.186318260625933   1.671783341852510 
 11.201915756928058   0.718439082362493   1.669666013803323 
 -3.734206862883579   9.342034653183346   8.335990197129403 
  1.244165787369658   9.342109222244634   8.333943069200638 
  2.489090093710618   2.874024740246319   8.332357663924389 
  6.223297078047424   9.341672056417767   8.329338757126063 
  7.467628612503087   2.874265012767162   8.329605799313841 
 12.446652388735977   2.874545036225262   8.336055396961793 
 -1.245049187148300   9.342101172922318   1.670108333868588 
 -0.000169975627927   2.874396862195161   1.671022963250437 
  4.978500351474856   2.874033579518953   1.678677002516222 
  3.733615133483445   9.341766074576249   1.676351413530788 
  8.712842301822157   9.341934016848874   1.671783341852510 
  9.957106653701453   2.874494302437253   1.670683884983385 
 -4.978801814630389  11.497629767256390   8.335946030348497 
 -0.000385437223338  11.497757458394274   8.336000938049775 
  1.244137791980334   5.030345379843003   8.332357663924389 
  6.222924982035146   5.030118778075076   8.314242950177373 
  4.978552724761761  11.497602655582513   8.335273327861243 
 11.201889784704161   5.030555409901448   8.335655213604863 
 -1.245118448711439   5.030540176494312   1.670661728240840 
 -2.489570417232136  11.497675174525652   1.670108333868588 
  2.488935809051765  11.497746402267191   1.670115459763148 
  3.732867336121882   5.029666959028843   1.679806913680057 
  7.468147981438706  11.497585915501100   1.670301999239777 
  8.712388162671415   5.030439833182260   1.676618455718550 
 -0.000480666250342   7.186379668618978   8.334111438135880 
  1.244630672213337   0.718168200952624   8.335295484603774 
  4.978287445850467   7.185894227754303   8.314242950177373 
  6.223201114044226   0.718167063763922   8.333943069200638 
  9.957387638946862   7.186318260625934   8.334173870992132 
 -2.489704209696141   7.186386250512236   1.670011182496118 
 11.201915756928058   0.718439082362494   8.336291199041305 
  3.733961330105522   0.718136393011626   1.671845774708735 
  2.488850575897049   7.186233483872198   1.678677002516222 
  7.467943859891559   7.186114395471182   1.680890675717310 
  8.712422684127095   0.718350934398583   1.670115459763148 
  2.488850575897049   7.186233483872199   8.327280210328405 
 13.691526602128041   0.718359649597849   1.669901815882834 
 -1.245049187148300   9.342101172922318   8.335848878976053 
 -0.000169975627927   2.874396862195162   8.334934249594191 
  4.978500351474857   2.874033579518954   8.327280210328405 
  3.733615133483446   9.341766074576249   8.329605799313841 
  8.712842301822157   9.341934016848874   8.334173870992132 
  9.957106653701453   2.874494302437254   8.335273327861243 
 -3.734206862883579   9.342034653183346   1.669967015715211 
  1.244165787369657   9.342109222244634   1.672014143643990 
  2.489090093710617   2.874024740246318   1.673599548920238 
  6.223297078047423   9.341672056417767   1.676618455718550 
  7.467628612503086   2.874265012767161   1.676351413530788 
 12.446652388735977   2.874545036225261   1.669901815882834 
 -1.245118448711438   5.030540176494313   8.335295484603774 
 -2.489570417232135  11.497675174525652   8.335848878976053 
  2.488935809051765  11.497746402267191   8.335841753081493 
  3.732867336121882   5.029666959028844   8.326150299164571 
  7.468147981438707  11.497585915501100   8.335655213604863 
 -4.978801814630390  11.497629767256390   1.670011182496118 
  8.712388162671415   5.030439833182261   8.329338757126063 
 -0.000385437223339  11.497757458394274   1.669956274794866 
  1.244137791980334   5.030345379843002   1.673599548920238 
 -0.000480666250342   7.186379668618977   1.671845774708735 
  6.222924982035145   5.030118778075075   1.691714262667254 
  4.978552724761760  11.497602655582513   1.670683884983385 
 11.201889784704161   5.030555409901447   1.670301999239777 
 -2.489704209696141   7.186386250512236   8.335946030348497 
  3.733961330105523   0.718136393011627   8.334111438135880 
  7.467943859891560   7.186114395471183   8.325066537127331 
  8.712422684127095   0.718350934398584   8.335841753081493 
 13.691526602128041   0.718359649597849   8.336055396961793 
  0.003876171779114   1.441957131912422   5.002978606422314 
  3.692162589416563   7.919811911859931   5.002978606422314 
  4.980849977738457   1.397803636311724   5.002978606422314 
  8.698604432483450   7.896636608338251   5.002978606422314 
  9.959376312553493   1.433541330071271   5.002978606422314 
 -4.978876940945632  10.060735745900820  11.673616748318732 
  0.000113922141191  10.060752255884301  11.673616748318732 
  1.244670508289965   3.593105850683374  11.673616748318732 
  4.978773387499713  10.060773329866084  11.673616748318732 
  6.223473508298528   3.593196177320109  11.673616748318732 
 11.202278595190583   3.593091485355825  11.673616748318732 
 -2.504271864791891  10.052137955417379   5.002978606422314 
 -1.238676097739440   3.594120793778589   5.002978606422314 
  3.776803979986074   3.558151476938765   5.002978606422314 
  2.473200665789588  10.071899709157798   5.002978606422314 
  7.458735180387563  10.057928698471725   5.002978606422314 
  8.713616585967811   3.583210338677175   5.002978606422314 
 -6.223553252503350  12.216642854593671  11.673616748318732 
 -1.244618768285179  12.216692517544693  11.673616748318732 
  0.000010505184306   5.748909068584308  11.673616748318732 
  4.978794182079718   5.749003158933196  11.673616748318732 
  3.734112915589709  12.216646629503902  11.673616748318732 
  9.957538679471883   5.748903285829623  11.673616748318732 
 -2.492022921541433   5.744412692226372   5.002978606422314 
 -3.745290440119370  12.203116903869349   5.002978606422314 
  1.239455087667365  12.213579719192182   5.002978606422314 
  2.480465868501821   5.803474949817395   5.002978606422314 
  6.221446875156095  12.220600384115983   5.002978606422314 
  7.447825501205485   5.751753017666525   5.002978606422314 
 -1.244656200402851   7.904775526616715  11.673616748318732 
 -0.000038059704510   1.437251479428803  11.673616748318732 
  3.734150233456306   7.904830565810609  11.673616748318732 
  4.978788930338625   1.437368935666967  11.673616748318732 
  8.712760428169767   7.904809576258403  11.673616748318732 
 -3.748537267596773   7.896736380766171   5.002978606422314 
  9.957597096969407   1.437255827252987  11.673616748318732 
  2.494295501690867   1.439306369210228   5.002978606422314 
  1.211572756384092   7.926383291509572   5.002978606422314 
  6.215691289162433   7.885872074668950   5.002978606422314 
  7.469735654361194   1.417647247156137   5.002978606422314 
  1.244806787034152   7.904815722425291  11.673616748318732 
 12.449840748589859   1.438928912226951   5.002978606422314 
 -2.489378839428536  10.060736447619979  11.673616748318732 
 -1.244708428073441   3.593083796119276  11.673616748318732 
  3.734091128062306   3.593167354189724  11.673616748318732 
  2.489469936200506  10.060758179953694  11.673616748318732 
  7.468079938130903  10.060772309178700  11.673616748318732 
  8.712886288097490   3.593100064832293  11.673616748318732 
 -4.993037085199257  10.052273294863886   5.002978606422314 
 -0.016674775327359  10.062774954552324   5.002978606422314 
  1.258409724311614   3.601038190751919   5.002978606422314 
  4.970573782348069  10.066350649451669   5.002978606422314 
  6.215453912540237   3.549343137911998   5.002978606422314 
 11.204688128686993   3.589373346627187   5.002978606422314 
 -2.489396329345062   5.748893340248400  11.673616748318732 
 -3.734134447071008  12.216678334183483  11.673616748318732 
  1.244768611754743  12.216647483754345  11.673616748318732 
  2.489434081775065   5.748976596357849  11.673616748318732 
  6.223462111001687  12.216654597532504  11.673616748318732 
 -6.228746903614020  12.216608483037231   5.002978606422314 
  7.468110621224474   5.748946902232007  11.673616748318732 
 -1.251261408588752  12.201141729706475   5.002978606422314 
  0.004237939376933   5.752212580909097   5.002978606422314 
 -1.261978740090700   7.901894868389420   5.002978606422314 
  3.731785674460116  12.220044723989361   5.002978606422314 
  9.950403661489499   5.742232293585168   5.002978606422314 
 -3.734128497893696   7.904768199892595  11.673616748318732 
  2.489320858999572   1.437297059968981  11.673616748318732 
  6.223403681919676   7.904842561641483  11.673616748318732 
  7.468221442238899   1.437307613235072  11.673616748318732 
 12.446958219390950   1.437264683218016  11.673616748318732 
  3.993379836496447   5.180073921247372   5.002978606422314 
  1.240095929180633   0.717649955538806   5.002978606422314 
  4.946960717859962   7.397701179303066   5.002978606422314 
  6.229932746581261   0.685773345112555   5.002978606422314 
  9.955208757570635   7.180073832461992   5.002978606422314 
 11.207403644402037   0.721607515672877   5.002978606422314 
 -3.733944998145023   9.342185840860653  11.673616748318732 
  1.244375749095643   9.342568458775064  11.673616748318732 
  2.488642708578216   2.873854315105129  11.673616748318732 
  6.223659883169739   9.343068070408609  11.673616748318732 
  7.468883922030800   2.873869461625099  11.673616748318732 
 12.446975369801104   2.874282411148910  11.673616748318732 
 -1.261439656944419   9.339387661201661   5.002978606422314 
 -0.000638243878201   2.874126507394831   5.002978606422314 
  4.988245804495743   2.793960858250637   5.002978606422314 
  3.713315018880688   9.397908450347536   5.002978606422314 
  8.706345027711961   9.343169264307200   5.002978606422314 
  9.972718852567493   2.862975941448765   5.002978606422314 
 -4.978861063455616  11.498033472458330  11.673616748318732 
  0.000072370413797  11.498021773756838  11.673616748318732 
  1.243766506912427   5.030043145523649  11.673616748318732 
  6.223972093631081   5.030084187698711  11.673616748318732 
  4.978803151640685  11.498777638335717  11.673616748318732 
 11.202677915210540   5.030079534622496  11.673616748318732 
 -1.247834633921543   5.026872096535253   5.002978606422314 
 -2.500115622213764  11.484837367162605   5.002978606422314 
  2.484428603155358  11.512896928558007   5.002978606422314 
  7.462863294692715  11.506532318613878   5.002978606422314 
  8.739434764529658   5.008704373292919   5.002978606422314 
 -0.000571744549310   7.186247757568590  11.673616748318732 
  1.244237630719522   0.718417484331844  11.673616748318732 
  4.978781045503782   7.186818348185151  11.673616748318732 
  6.223703805408908   0.718119277687245  11.673616748318732 
  9.958122656487754   7.186270714884684  11.673616748318732 
 -2.502566559574254   7.180157005030606   5.002978606422314 
 11.202481345795945   0.718765625247612  11.673616748318732 
  3.723508256630757   0.692434559522985   5.002978606422314 
  2.424378291639001   7.234709654393797   5.002978606422314 
  7.480233883642464   7.193210043992126   5.002978606422314 
  8.723289821827443   0.706872316446799   5.002978606422314 
  2.488739624841871   7.186581312193825  11.673616748318732 
 13.692649251146770   0.724378300166387   5.002978606422314 
 -1.244837641084203   9.342180454352098  11.673616748318732 
 -0.000642873459456   2.874123834504839  11.673616748318732 
  4.978746104109964   2.873763578925756  11.673616748318732 
  3.733900230909780   9.343050980087895  11.673616748318732 
  8.713168634772840   9.342594333582140  11.673616748318732 
  9.958249432054204   2.874123687099578  11.673616748318732 
 -3.746559445033513   9.334902886553895   5.002978606422314 
  1.219477820363047   9.364135846356332   5.002978606422314 
  2.478384784915920   2.863904690140317   5.002978606422314 
  6.217996918549452   9.375962830657695   5.002978606422314 
  7.506099278848454   2.828613409935795   5.002978606422314 
 12.452426017534195   2.872507953510746   5.002978606422314 
 -1.245099083719193   5.030075150886305  11.673616748318732 
 -2.489395984467842  11.497818738076329  11.673616748318732 
  2.489432729120912  11.498491635495743  11.673616748318732 
  3.733545231461605   5.030058342085707  11.673616748318732 
  7.468129926611284  11.498506394180612  11.673616748318732 
 -4.990627674402948  11.489605268250394   5.002978606422314 
  8.713778548812686   5.030056024639376  11.673616748318732 
 -0.006395087177028  11.494287785375793   5.002978606422314 
  1.230020917103624   5.026134335524426   5.002978606422314 
 -0.027965643712726   7.190177958186527   5.002978606422314 
  6.390691818779262   4.897085560043473   5.002978606422314 
  4.976383630968790  11.516882396903682   5.002978606422314 
 11.206995253699329   5.021505535371988   5.002978606422314 
 -2.489384215148213   7.186133086923438  11.673616748318732 
  3.733801552635370   0.718123472416169  11.673616748318732 
  7.468802995714645   7.186610417769920  11.673616748318732 
  8.713316535069344   0.718408663187826  11.673616748318732 
 13.691460652672813   0.718770671943368  11.673616748318732 
 -0.000618267948811   1.436389240709259   1.664574667544511 
  3.731560194892320   7.907044144343422   1.667145383656292 
  4.978491651394130   1.433377911433966   1.664854975708206 
  8.715648398489662   7.906476946699987   1.665061995800830 
  9.957792363100456   1.436409631198264   1.663916097645915 
 -4.977429423037865  10.061159575948084   8.341633160408852 
 -0.001844603652088  10.061214082827680   8.341531422237567 
  1.242368902269225   3.591777017827732   8.342266618487962 
  4.978515337277413  10.062883258528641   8.341204410486142 
  6.224095504259222   3.589846348860511   8.338811829188336 
 11.202875493238210   3.593035534971314   8.341833672849866 
 -2.489622776075086  10.060595610731436   1.664594259155488 
 -1.245745252830842   3.593012440399997   1.664574667544511 
  3.732276628004385   3.589276434924142   1.662612500538255 
  2.487198633804224  10.062351042652596   1.664314932483914 
  7.469810336833961  10.062258936951199   1.664492467182453 
  8.714584514808282   3.591821622453062   1.664752802358471 
 -6.223012185305364  12.216019030842389   8.341625050047600 
 -1.245198077316700  12.214765470982053   8.341531422237567 
 -0.002857483920303   5.749610446992657   8.341532391074729 
  4.978131252887301   5.748620416585490   8.333968905362026 
  3.733477721375263  12.217238832961247   8.342041115198727 
  9.959691336240354   5.749658541178924   8.341464745662174 
 -2.489666042962148   5.749673830062623   1.664332162797027 
 -3.734039923253603  12.214777446762819   1.664554244540963 
  1.243800652354201  12.216088632133866   1.663856845550168 
  2.485157196818029   5.749350652845323   1.662612500538255 
  6.223712105571147  12.217199501597497   1.664123539994763 
  7.470842572031914   5.749424481333612   1.668595438833557 
 -1.246255155290160   7.905807830354157   8.341402968303678 
 -0.000618267948811   1.436389240709259   8.341382545300117 
  3.731560194892320   7.907044144343423   8.338811829188336 
  4.978491651394131   1.433377911433966   8.341102237136422 
  8.715648398489662   7.906476946699988   8.340895217043798 
 -3.733037691351995   7.905809872149522   1.664324052435789 
  9.957792363100456   1.436409631198264   8.342041115198727 
  2.488494275966570   1.434462619342424   1.664424821769900 
  1.241201819189000   7.906553783423861   1.664854975708206 
  6.225183252957703   7.906969710891812   1.668595438833557 
  7.468465250602764   1.434544176310737   1.664314932483914 
  1.241201819189000   7.906553783423862   8.341102237136422 
 12.446784197213651   1.437164211467122   1.664464862613281 
 -2.489622776075085  10.060595610731436   8.341362953689138 
 -1.245745252830842   3.593012440399998   8.341382545300117 
  3.732276628004385   3.589276434924143   8.343344712306374 
  2.487198633804225  10.062351042652596   8.341642280360727 
  7.469810336833961  10.062258936951199   8.341464745662174 
  8.714584514808282   3.591821622453063   8.341204410486142 
 -4.977429423037866  10.061159575948084   1.664324052435789 
 -0.001844603652088  10.061214082827680   1.664425790607059 
  1.242368902269225   3.591777017827731   1.663690594356665 
  4.978515337277412  10.062883258528641   1.664752802358471 
  6.224095504259221   3.589846348860510   1.667145383656292 
 11.202875493238210   3.593035534971313   1.664123539994763 
 -2.489666042962148   5.749673830062624   8.341625050047600 
 -3.734039923253602  12.214777446762819   8.341402968303678 
  1.243800652354202  12.216088632133866   8.342100367294458 
  2.485157196818029   5.749350652845324   8.343344712306374 
  6.223712105571148  12.217199501597497   8.341833672849866 
 -6.223012185305365  12.216019030842389   1.664332162797027 
  7.470842572031915   5.749424481333612   8.337361774011057 
 -1.245198077316700  12.214765470982053   1.664425790607059 
 -0.002857483920303   5.749610446992656   1.664424821769900 
 -1.246255155290161   7.905807830354156   1.664554244540963 
  4.978131252887300   5.748620416585490   1.671988307482616 
  3.733477721375262  12.217238832961247   1.663916097645915 
  9.959691336240354   5.749658541178923   1.664492467182453 
 -3.733037691351995   7.905809872149523   8.341633160408852 
  2.488494275966570   1.434462619342425   8.341532391074729 
  6.225183252957704   7.906969710891813   8.337361774011057 
  7.468465250602764   1.434544176310738   8.341642280360727 
 12.446784197213651   1.437164211467123   8.341492350231361 
Generated by cif2cell 2.0.0.  :  Failed to get author information, No journal information. Species order: N P B 
 1.0
 14.936314146199660   0.000000000000000   0.000000000000000
 -7.468157073099825  12.935227489513863   0.000000000000000
  0.000000000000001   0.000000000000001  13.341276283792837
 N P B 
 143   1 143
Cartesian
  1.244630672213336   0.718168200952623   1.670661728240840 
  4.978287445850466   7.185894227754302   1.691714262667254 
  6.223201114044225   0.718167063763921   1.672014143643990 
  9.957387638946862   7.186318260625933   1.671783341852510 
 11.201915756928058   0.718439082362493   1.669666013803323 
 -3.734206862883579   9.342034653183346   8.335990197129403 
  1.244165787369658   9.342109222244634   8.333943069200638 
  2.489090093710618   2.874024740246319   8.332357663924389 
  6.223297078047424   9.341672056417767   8.329338757126063 
  7.467628612503087   2.874265012767162   8.329605799313841 
 12.446652388735977   2.874545036225262   8.336055396961793 
 -1.245049187148300   9.342101172922318   1.670108333868588 
 -0.000169975627927   2.874396862195161   1.671022963250437 
  4.978500351474856   2.874033579518953   1.678677002516222 
  3.733615133483445   9.341766074576249   1.676351413530788 
  8.712842301822157   9.341934016848874   1.671783341852510 
  9.957106653701453   2.874494302437253   1.670683884983385 
 -4.978801814630389  11.497629767256390   8.335946030348497 
 -0.000385437223338  11.497757458394274   8.336000938049775 
  1.244137791980334   5.030345379843003   8.332357663924389 
  6.222924982035146   5.030118778075076   8.314242950177373 
  4.978552724761761  11.497602655582513   8.335273327861243 
 11.201889784704161   5.030555409901448   8.335655213604863 
 -1.245118448711439   5.030540176494312   1.670661728240840 
 -2.489570417232136  11.497675174525652   1.670108333868588 
  2.488935809051765  11.497746402267191   1.670115459763148 
  3.732867336121882   5.029666959028843   1.679806913680057 
  7.468147981438706  11.497585915501100   1.670301999239777 
  8.712388162671415   5.030439833182260   1.676618455718550 
 -0.000480666250342   7.186379668618978   8.334111438135880 
  1.244630672213337   0.718168200952624   8.335295484603774 
  4.978287445850467   7.185894227754303   8.314242950177373 
  6.223201114044226   0.718167063763922   8.333943069200638 
  9.957387638946862   7.186318260625934   8.334173870992132 
 -2.489704209696141   7.186386250512236   1.670011182496118 
 11.201915756928058   0.718439082362494   8.336291199041305 
  3.733961330105522   0.718136393011626   1.671845774708735 
  2.488850575897049   7.186233483872198   1.678677002516222 
  7.467943859891559   7.186114395471182   1.680890675717310 
  8.712422684127095   0.718350934398583   1.670115459763148 
  2.488850575897049   7.186233483872199   8.327280210328405 
 13.691526602128041   0.718359649597849   1.669901815882834 
 -1.245049187148300   9.342101172922318   8.335848878976053 
 -0.000169975627927   2.874396862195162   8.334934249594191 
  4.978500351474857   2.874033579518954   8.327280210328405 
  3.733615133483446   9.341766074576249   8.329605799313841 
  8.712842301822157   9.341934016848874   8.334173870992132 
  9.957106653701453   2.874494302437254   8.335273327861243 
 -3.734206862883579   9.342034653183346   1.669967015715211 
  1.244165787369657   9.342109222244634   1.672014143643990 
  2.489090093710617   2.874024740246318   1.673599548920238 
  6.223297078047423   9.341672056417767   1.676618455718550 
  7.467628612503086   2.874265012767161   1.676351413530788 
 12.446652388735977   2.874545036225261   1.669901815882834 
 -1.245118448711438   5.030540176494313   8.335295484603774 
 -2.489570417232135  11.497675174525652   8.335848878976053 
  2.488935809051765  11.497746402267191   8.335841753081493 
  3.732867336121882   5.029666959028844   8.326150299164571 
  7.468147981438707  11.497585915501100   8.335655213604863 
 -4.978801814630390  11.497629767256390   1.670011182496118 
  8.712388162671415   5.030439833182261   8.329338757126063 
 -0.000385437223339  11.497757458394274   1.669956274794866 
  1.244137791980334   5.030345379843002   1.673599548920238 
 -0.000480666250342   7.186379668618977   1.671845774708735 
  6.222924982035145   5.030118778075075   1.691714262667254 
  4.978552724761760  11.497602655582513   1.670683884983385 
 11.201889784704161   5.030555409901447   1.670301999239777 
 -2.489704209696141   7.186386250512236   8.335946030348497 
  3.733961330105523   0.718136393011627   8.334111438135880 
  7.467943859891560   7.186114395471183   8.325066537127331 
  8.712422684127095   0.718350934398584   8.335841753081493 
 13.691526602128041   0.718359649597849   8.336055396961793 
  0.003876171779114   1.441957131912422   5.002978606422314 
  3.692162589416563   7.919811911859931   5.002978606422314 
  4.980849977738457   1.397803636311724   5.002978606422314 
  8.698604432483450   7.896636608338251   5.002978606422314 
  9.959376312553493   1.433541330071271   5.002978606422314 
 -4.978876940945632  10.060735745900820  11.673616748318732 
  0.000113922141191  10.060752255884301  11.673616748318732 
  1.244670508289965   3.593105850683374  11.673616748318732 
  4.978773387499713  10.060773329866084  11.673616748318732 
  6.223473508298528   3.593196177320109  11.673616748318732 
 11.202278595190583   3.593091485355825  11.673616748318732 
 -2.504271864791891  10.052137955417379   5.002978606422314 
 -1.238676097739440   3.594120793778589   5.002978606422314 
  3.776803979986074   3.558151476938765   5.002978606422314 
  2.473200665789588  10.071899709157798   5.002978606422314 
  7.458735180387563  10.057928698471725   5.002978606422314 
  8.713616585967811   3.583210338677175   5.002978606422314 
 -6.223553252503350  12.216642854593671  11.673616748318732 
 -1.244618768285179  12.216692517544693  11.673616748318732 
  0.000010505184306   5.748909068584308  11.673616748318732 
  4.978794182079718   5.749003158933196  11.673616748318732 
  3.734112915589709  12.216646629503902  11.673616748318732 
  9.957538679471883   5.748903285829623  11.673616748318732 
 -2.492022921541433   5.744412692226372   5.002978606422314 
 -3.745290440119370  12.203116903869349   5.002978606422314 
  1.239455087667365  12.213579719192182   5.002978606422314 
  2.480465868501821   5.803474949817395   5.002978606422314 
  6.221446875156095  12.220600384115983   5.002978606422314 
  7.447825501205485   5.751753017666525   5.002978606422314 
 -1.244656200402851   7.904775526616715  11.673616748318732 
 -0.000038059704510   1.437251479428803  11.673616748318732 
  3.734150233456306   7.904830565810609  11.673616748318732 
  4.978788930338625   1.437368935666967  11.673616748318732 
  8.712760428169767   7.904809576258403  11.673616748318732 
 -3.748537267596773   7.896736380766171   5.002978606422314 
  9.957597096969407   1.437255827252987  11.673616748318732 
  2.494295501690867   1.439306369210228   5.002978606422314 
  1.211572756384092   7.926383291509572   5.002978606422314 
  6.215691289162433   7.885872074668950   5.002978606422314 
  7.469735654361194   1.417647247156137   5.002978606422314 
  1.244806787034152   7.904815722425291  11.673616748318732 
 12.449840748589859   1.438928912226951   5.002978606422314 
 -2.489378839428536  10.060736447619979  11.673616748318732 
 -1.244708428073441   3.593083796119276  11.673616748318732 
  3.734091128062306   3.593167354189724  11.673616748318732 
  2.489469936200506  10.060758179953694  11.673616748318732 
  7.468079938130903  10.060772309178700  11.673616748318732 
  8.712886288097490   3.593100064832293  11.673616748318732 
 -4.993037085199257  10.052273294863886   5.002978606422314 
 -0.016674775327359  10.062774954552324   5.002978606422314 
  1.258409724311614   3.601038190751919   5.002978606422314 
  4.970573782348069  10.066350649451669   5.002978606422314 
  6.215453912540237   3.549343137911998   5.002978606422314 
 11.204688128686993   3.589373346627187   5.002978606422314 
 -2.489396329345062   5.748893340248400  11.673616748318732 
 -3.734134447071008  12.216678334183483  11.673616748318732 
  1.244768611754743  12.216647483754345  11.673616748318732 
  2.489434081775065   5.748976596357849  11.673616748318732 
  6.223462111001687  12.216654597532504  11.673616748318732 
 -6.228746903614020  12.216608483037231   5.002978606422314 
  7.468110621224474   5.748946902232007  11.673616748318732 
 -1.251261408588752  12.201141729706475   5.002978606422314 
  0.004237939376933   5.752212580909097   5.002978606422314 
 -1.261978740090700   7.901894868389420   5.002978606422314 
  3.731785674460116  12.220044723989361   5.002978606422314 
  9.950403661489499   5.742232293585168   5.002978606422314 
 -3.734128497893696   7.904768199892595  11.673616748318732 
  2.489320858999572   1.437297059968981  11.673616748318732 
  6.223403681919676   7.904842561641483  11.673616748318732 
  7.468221442238899   1.437307613235072  11.673616748318732 
 12.446958219390950   1.437264683218016  11.673616748318732 
  3.993379836496447   5.180073921247372   5.002978606422314 
  1.240095929180633   0.717649955538806   5.002978606422314 
  4.946960717859962   7.397701179303066   5.002978606422314 
  6.229932746581261   0.685773345112555   5.002978606422314 
  9.955208757570635   7.180073832461992   5.002978606422314 
 11.207403644402037   0.721607515672877   5.002978606422314 
 -3.733944998145023   9.342185840860653  11.673616748318732 
  1.244375749095643   9.342568458775064  11.673616748318732 
  2.488642708578216   2.873854315105129  11.673616748318732 
  6.223659883169739   9.343068070408609  11.673616748318732 
  7.468883922030800   2.873869461625099  11.673616748318732 
 12.446975369801104   2.874282411148910  11.673616748318732 
 -1.261439656944419   9.339387661201661   5.002978606422314 
 -0.000638243878201   2.874126507394831   5.002978606422314 
  4.988245804495743   2.793960858250637   5.002978606422314 
  3.713315018880688   9.397908450347536   5.002978606422314 
  8.706345027711961   9.343169264307200   5.002978606422314 
  9.972718852567493   2.862975941448765   5.002978606422314 
 -4.978861063455616  11.498033472458330  11.673616748318732 
  0.000072370413797  11.498021773756838  11.673616748318732 
  1.243766506912427   5.030043145523649  11.673616748318732 
  6.223972093631081   5.030084187698711  11.673616748318732 
  4.978803151640685  11.498777638335717  11.673616748318732 
 11.202677915210540   5.030079534622496  11.673616748318732 
 -1.247834633921543   5.026872096535253   5.002978606422314 
 -2.500115622213764  11.484837367162605   5.002978606422314 
  2.484428603155358  11.512896928558007   5.002978606422314 
  7.462863294692715  11.506532318613878   5.002978606422314 
  8.739434764529658   5.008704373292919   5.002978606422314 
 -0.000571744549310   7.186247757568590  11.673616748318732 
  1.244237630719522   0.718417484331844  11.673616748318732 
  4.978781045503782   7.186818348185151  11.673616748318732 
  6.223703805408908   0.718119277687245  11.673616748318732 
  9.958122656487754   7.186270714884684  11.673616748318732 
 -2.502566559574254   7.180157005030606   5.002978606422314 
 11.202481345795945   0.718765625247612  11.673616748318732 
  3.723508256630757   0.692434559522985   5.002978606422314 
  2.424378291639001   7.234709654393797   5.002978606422314 
  7.480233883642464   7.193210043992126   5.002978606422314 
  8.723289821827443   0.706872316446799   5.002978606422314 
  2.488739624841871   7.186581312193825  11.673616748318732 
 13.692649251146770   0.724378300166387   5.002978606422314 
 -1.244837641084203   9.342180454352098  11.673616748318732 
 -0.000642873459456   2.874123834504839  11.673616748318732 
  4.978746104109964   2.873763578925756  11.673616748318732 
  3.733900230909780   9.343050980087895  11.673616748318732 
  8.713168634772840   9.342594333582140  11.673616748318732 
  9.958249432054204   2.874123687099578  11.673616748318732 
 -3.746559445033513   9.334902886553895   5.002978606422314 
  1.219477820363047   9.364135846356332   5.002978606422314 
  2.478384784915920   2.863904690140317   5.002978606422314 
  6.217996918549452   9.375962830657695   5.002978606422314 