 O N B 
 1.0
 17.527899999999772   0.000000000000000   0.000000000000000
 -8.763949999999658  15.179606674993195   0.000000000000000
  0.000000000000001   0.000000000000002  15.000000000000000
 O N B 
   1  48  48
Cartesian
  2.380964872979043   7.109966860610169   1.635931588206195 
  8.826416430925619  13.783768977916312   1.656681305174970 
 16.304186385454834   0.751767198104741   1.659250575383820 
 15.023212315515254   2.899876075819928   1.663477217553165 
 13.759602499105084   5.066797179492662   1.663669554030285 
 12.512332846750251   7.238401090937808   1.660534270040385 
 11.313187288297049   9.410619764980606   1.658223610816410 
 10.084309204427123  11.595364997570199   1.657211322820305 
 -6.201837660544367  13.745669474910807   1.662523026968205 
  1.290091506924657   0.737458516941953   1.666886549851725 
  0.005988016355925   2.887909587743408   1.668415371302595 
 -1.263903722448299   5.047680785810801   1.665838337512290 
 -2.503213890062686   7.222017193814644   1.663631680241715 
 -3.707410896710972   9.393832089892594   1.659532648251630 
 -4.945101949169411  11.567777351071657   1.658960920323990 
 -3.696798591125393  13.723698809658504   1.665965751648765 
  3.796756972513693   0.717192589250279   1.671318579049035 
  2.518201593191022   2.879237505690032   1.671016922304045 
  1.234109476761078   5.021991308003999   1.652169853855470 
 -0.012725088273889   7.194410708122687   1.661828229960480 
 -1.184472053426891   9.373951329589616   1.665031389158925 
 -2.434282924071227  11.547512744188571   1.660707299478840 
 -1.188941146501993  13.703915705517350   1.666295484221190 
  6.300916056528349   0.707474151194875   1.673965209967890 
  5.022095419468865   2.880100820669250   1.670403137098560 
  3.735284922422109   5.046475230931464   1.598641729774095 
  1.368174048594134   9.314344577620323   1.673616736358175 
  0.088770122713046  11.515321762808489   1.667808449530650 
  1.316692991446003  13.687758604419733   1.665572056697460 
  8.800589756691007   0.701941818459847   1.669273621057680 
  7.527030462867947   2.883374207280990   1.679859146137875 
  6.243767043523386   5.045288929567410   1.636733172258330 
  4.634427419800388   8.061295981909346   1.689677881771815 
  4.057477072101364   9.352517483107063   1.711687798142145 
  2.619512882551466  11.474005183550998   1.677477349119690 
  3.794852570725197  13.745541761369603   1.663879337966640 
 11.285308579125999   0.726956950599369   1.662570830401380 
 10.011191692683909   2.907981704802189   1.668668992881375 
  8.724970220633896   5.102713108788796   1.664693666003220 
  7.394198671135924   7.308109682050968   1.655142570235110 
  6.404857439515475   9.575452926564216   1.667860786283775 
  5.099551462899718  11.665527185145452   1.665495186209865 
  6.315005284776955  13.795685572538913   1.659128784740955 
 13.787783948578198   0.743167889003813   1.658401048232835 
 12.514869269095533   2.905570443328812   1.663544402184225 
 11.245877530383783   5.081266737766742   1.664797055976585 
  9.979470795094162   7.259324900707482   1.659720693365430 
  8.825646306172398   9.441936111154574   1.654837286327355 
  7.606116332831404  11.662031556990460   1.657471465057035 
  7.566673214608480  14.500164469354411   1.657860218298465 
 15.040325956287697   1.460836229659484   1.660277336722530 
 13.767562391136620   3.623117375545501   1.663956408993630 
 12.505580643474127   5.793724537212260   1.663031000991765 
 11.257943566914506   7.965837648348891   1.659619535678175 
 10.079436196000700  10.147803988098513   1.656565302577815 
  8.851570453354316  12.351516692823319   1.656751039121475 
 -7.450680978716079  14.482039026729222   1.662061975002270 
  0.029723410939594   1.454387233888715   1.665603312256470 
 -1.250791889006247   3.608667130210491   1.666223971592295 
 -2.511865349243791   5.778307296902080   1.664754335677965 
 -3.750008592085086   7.949865444017098   1.661200747707915 
 -4.952859804776117  10.119737783328796   1.658957864066385 
 -6.191897663927799  12.302692392224898   1.659600038217570 
 -4.950126442484306  14.454689265766504   1.667154606710970 
  2.541651254409228   1.442388868097829   1.671300293199780 
  1.257660424659587   3.590217717189735   1.662798284317935 
 -0.011756421402492   5.752111385348370   1.660655839512555 
 -1.244043864878548   7.931358681547348   1.664810205129000 
 -2.439844764822618  10.103233049957041   1.661598102636000 
 -3.688622118145871  12.278919018954705   1.661708685915780 
 -2.444897269161144  14.438593339952492   1.669253486422125 
  5.044303147128295   1.435369158286160   1.673177533887300 
  3.763856735712932   3.600546684663692   1.660145630566260 
  2.468776434218200   5.752542216608436   1.622271391359375 
  1.256876729634201   7.866149782912556   1.658666923646865 
  0.099936833164607  10.066280090184286   1.668823795247295 
 -1.172734817045336  12.253960570758402   1.664500079163450 
  0.060303425506062  14.424959195142383   1.666989397069830 
  7.547455063674536   1.432236413739226   1.674982648042365 
  6.271520236886083   3.599397854996417   1.677484078183110 
  4.988984813570580   5.702559167310047   1.427691437082420 
  2.670906394335970   9.980422853226775   1.688181764240970 
  1.350153095609877  12.221754424089339   1.670412077225235 
  2.539765870095625  14.456056925349291   1.663899089031825 
 10.031868171432361   1.453137793400347   1.667417419194135 
  8.754756450872449   3.640872870455666   1.670488075547520 
  7.454016485603722   5.835190666918251   1.647067490351625 
  6.172047708897312   8.183948914513376   1.662288007551585 
  5.170145857215383  10.264517322053202   1.683830706900270 
  3.817072708195150  12.301489405672228   1.669915533120180 
  5.042404033604086  14.482839647422713   1.660361208036780 
 12.529578680026244   1.459557231496556   1.661575616436210 
 11.259269106204298   3.632700791798584   1.666093611559620 
  9.986976010768682   5.811742952885420   1.664036526238005 
  8.714495841892532   7.994488532026366   1.656751310241705 
  7.638855743389322  10.234818421460801   1.658892776698470 
  6.349663172699204  12.370943522873002   1.659505353814170 
