O B N                                   
   1.0000000000000000     
     8.7639499999999995  -15.1796066749929999    0.0000000000000000
     8.7639499999999995   15.1796066749929999    0.0000000000000000
     0.0000000000000000    0.0000000000000000   15.0000000000000000
   O    B    N 
     1    48    48
Selective dynamics
Direct
  0.3769969835509043  0.4764358867912136  0.0949516116448839   T   T   T
  0.9073658403064820  0.9517131318631257  0.1089013466959213   T   T   T
  0.9076793056099921  0.0944320583562591  0.1103390444230468   T   T   T
  0.9076916419757839  0.2371695129937174  0.1113808284920720   T   T   T
  0.9075383886179347  0.3800839473052131  0.1115049358196177   T   T   T
  0.9060291818065842  0.5227790661559326  0.1104012613663550   T   T   T
  0.9047074119662191  0.6651218293774714  0.1087732432756910   T   T   T
  0.9049393398995783  0.8073125331356378  0.1082297865268756   T   T   T
  0.0503461658483412  0.9530514186095231  0.1097901005660849   T   T   T
  0.0513049988374599  0.0959066345398446  0.1099054455534452   T   T   T
  0.0507999274868082  0.2378132340376174  0.1100257363971483   T   T   T
  0.0501157694522498  0.3804926251359685  0.1103840966283731   T   T   T
  0.0490714061221297  0.5236145818877490  0.1107819073963072   T   T   T
  0.0486062780727825  0.6666118321016967  0.1106156832525137   T   T   T
  0.0490529433583049  0.8096768174735540  0.1101498942210681   T   T   T
  0.1933330484940490  0.9542361093861470  0.1108365935058118   T   T   T
  0.1958912811551410  0.0989858223246297  0.1099017366237444   T   T   T
  0.1953106072683127  0.2401361252850000  0.1081498113265520   T   T   T
  0.1929856538693131  0.3807219105673950  0.1062396304549184   T   T   T
  0.1913153737635948  0.5238307617798902  0.1078292903791595   T   T   T
  0.1915181196462246  0.6672015614913799  0.1093170123553884   T   T   T
  0.1921136404587553  0.8105180813339498  0.1106581007353509   T   T   T
  0.3357572126822027  0.9540830464375122  0.1104798118699651   T   T   T
  0.3374946091819453  0.0988471758873324  0.1103406869798133   T   T   T
  0.3430309878982193  0.2473246363465265  0.1082889326143083   T   T   T
  0.3390341822119342  0.3850458325547927  0.1019478475878577   T   T   T
  0.3325868413358960  0.5214742441841502  0.1025660573612400   T   T   T
  0.3336184129206720  0.6668092520772795  0.1071963425224276   T   T   T
  0.3346796590528142  0.8103743326120730  0.1092582683409504   T   T   T
  0.4781940376378930  0.9529282603147164  0.1092924026099858   T   T   T
  0.4792459168752749  0.0963715955160636  0.1100893602099740   T   T   T
  0.4812464194847175  0.2411761165289995  0.1090805388643071   T   T   T
  0.4972345781328995  0.3984924627538607  0.1075633168509946   T   T   T
  0.4732606820104848  0.6693115809892064  0.1178804926429270   T   T   T
  0.4772097810360648  0.8103210858767204  0.1089351819518268   T   T   T
  0.6211684446677731  0.9515222502236134  0.1094360944806028   T   T   T
  0.6216771450267446  0.0942804419634517  0.1100617368900171   T   T   T
  0.6224389423562197  0.2368042964371078  0.1099557420086068   T   T   T
  0.6237960139965925  0.3783323370061517  0.1085578142369722   T   T   T
  0.6034158409259498  0.5033997147536855  0.1082778211319319   T   T   T
  0.6261642030705257  0.6658691001080890  0.1182706341012292   T   T   T
  0.6213141589064859  0.8086577227960788  0.1121328191819849   T   T   T
  0.7644066733933280  0.9511647250850667  0.1094627207094100   T   T   T
  0.7646055821733657  0.0940313557398022  0.1105110034488833   T   T   T
  0.7649469510416220  0.2368207981803530  0.1110358991741631   T   T   T
  0.7652307231280601  0.3794286130158654  0.1102036789537498   T   T   T
  0.7614073321914314  0.5205477775636843  0.1083665294909436   T   T   T
  0.7580107439342963  0.6600023144720509  0.1068793550647761   T   T   T
  0.7640738554812117  0.8080040587794876  0.1086391651219203   T   T   T
  0.9540430204558757  0.9035473495481902  0.1088691318431988   T   T   T
  0.9554362732177651  0.0471123943694883  0.1097919690411245   T   T   T
  0.9554028913775890  0.1896634379606076  0.1109625626275258   T   T   T
  0.9552602324665153  0.3325030323527030  0.1116052897699713   T   T   T
  0.9543634424131087  0.4755536824050617  0.1112905268682017   T   T   T
  0.9534286341080523  0.6184171260411935  0.1101101507420269   T   T   T
  0.9532640993364264  0.7608544936198064  0.1089635453914951   T   T   T
  0.0976054765309320  0.9053424603123146  0.1104341645398310   T   T   T
  0.0993439784062913  0.0490624171067767  0.1099389665168399   T   T   T
  0.0992914458188070  0.1912882191734109  0.1096858329289339   T   T   T
  0.0980262155896295  0.3331403253832831  0.1091467309629318   T   T   T
  0.0968786137048296  0.4760374427750217  0.1101017933136779   T   T   T
  0.0966279766014447  0.6191392871216631  0.1105454623426727   T   T   T
  0.0967778891102690  0.7621747842433785  0.1107341670933427   T   T   T
  0.2403696178101589  0.9059050474959589  0.1109648278109083   T   T   T
  0.2418517113464625  0.0498955314558408  0.1106193322067948   T   T   T
  0.2451986922551641  0.1953706774125597  0.1088040923137030   T   T   T
  0.2426399604938403  0.3353704932192912  0.1053382149188888   T   T   T
  0.2388259643699664  0.4763228835106739  0.1053259908143571   T   T   T
  0.2392523906865911  0.6193315822017791  0.1074165931972300   T   T   T
  0.2396551166068471  0.7625038611359075  0.1098580378656128   T   T   T
  0.3829232217411637  0.9054072372657668  0.1097260828239421   T   T   T
  0.3838579945498270  0.0492912090337944  0.1104841864703045   T   T   T
  0.3858124528264377  0.1944289595426014  0.1095489967246325   T   T   T
  0.3936181633426418  0.3455424340293234  0.1061116923598898   T   T   T
  0.3815504017130859  0.6180521170289098  0.1081153781293654   T   T   T
  0.3822741742839908  0.7619250700196605  0.1083288105138497   T   T   T
  0.5256697016118498  0.9045600273876104  0.1086619024428929   T   T   T
  0.5263267802174090  0.0475632527537390  0.1098228928181695   T   T   T
  0.5273496816689970  0.1909646599272307  0.1097714982527596   T   T   T
  0.5299232696757510  0.3351104624430723  0.1080754456983301   T   T   T
  0.4997878774405587  0.5695094425619237  0.2038628326381386   T   T   T
  0.5272480362807598  0.6249408609138049  0.1470746285357488   T   T   T
  0.5248867450843498  0.7616201696115042  0.1121859839453634   T   T   T
  0.6684670576558855  0.9030277018133568  0.1099083652158341   T   T   T
  0.6691236076536279  0.0461488866345528  0.1099000694466264   T   T   T
  0.6698332540773624  0.1888210102964668  0.1104737872583178   T   T   T
  0.6710848538797681  0.3309336656555469  0.1095353480580744   T   T   T
  0.6677747943743202  0.4721567857943944  0.1081858431885775   T   T   T
  0.6589036278697391  0.6085867939900990  0.1093441884871241   T   T   T
  0.6680360321356416  0.7599229463268570  0.1124004961755364   T   T   T
  0.8115560365015267  0.9032277591116973  0.1084388546869293   T   T   T
  0.8120549343182693  0.0461702426131417  0.1100990660474210   T   T   T
  0.8124802038452492  0.1890389286512414  0.1112493106924973   T   T   T
  0.8129300272324408  0.3318912110135763  0.1112077235752364   T   T   T
  0.8114390684307343  0.4746330779902977  0.1096758077789549   T   T   T
  0.8091017870613874  0.6165549748785034  0.1073123444092376   T   T   T
  0.8081303154106800  0.7575649728397643  0.1073618586830768   T   T   T

  0.00000000E+00  0.00000000E+00  0.00000000E+00
  0.00000000E+00  0.00000000E+00  0.00000000E+00
  0.00000000E+00  0.00000000E+00  0.00000000E+00
  0.00000000E+00  0.00000000E+00  0.00000000E+00
  0.00000000E+00  0.00000000E+00  0.00000000E+00
  0.00000000E+00  0.00000000E+00  0.00000000E+00
  0.00000000E+00  0.00000000E+00  0.00000000E+00
  0.00000000E+00  0.00000000E+00  0.00000000E+00
  0.00000000E+00  0.00000000E+00  0.00000000E+00
  0.00000000E+00  0.00000000E+00  0.00000000E+00
  0.00000000E+00  0.00000000E+00  0.00000000E+00
  0.00000000E+00  0.00000000E+00  0.00000000E+00
  0.00000000E+00  0.00000000E+00  0.00000000E+00
  0.00000000E+00  0.00000000E+00  0.00000000E+00
  0.00000000E+00  0.00000000E+00  0.00000000E+00
  0.00000000E+00  0.00000000E+00  0.00000000E+00
  0.00000000E+00  0.00000000E+00  0.00000000E+00
  0.00000000E+00  0.00000000E+00  0.00000000E+00
  0.00000000E+00  0.00000000E+00  0.00000000E+00
  0.00000000E+00  0.00000000E+00  0.00000000E+00
  0.00000000E+00  0.00000000E+00  0.00000000E+00
  0.00000000E+00  0.00000000E+00  0.00000000E+00
  0.00000000E+00  0.00000000E+00  0.00000000E+00
  0.00000000E+00  0.00000000E+00  0.00000000E+00
  0.00000000E+00  0.00000000E+00  0.00000000E+00
  0.00000000E+00  0.00000000E+00  0.00000000E+00
  0.00000000E+00  0.00000000E+00  0.00000000E+00
  0.00000000E+00  0.00000000E+00  0.00000000E+00
  0.00000000E+00  0.00000000E+00  0.00000000E+00
  0.00000000E+00  0.00000000E+00  0.00000000E+00
  0.00000000E+00  0.00000000E+00  0.00000000E+00
  0.00000000E+00  0.00000000E+00  0.00000000E+00
  0.00000000E+00  0.00000000E+00  0.00000000E+00
  0.00000000E+00  0.00000000E+00  0.00000000E+00
  0.00000000E+00  0.00000000E+00  0.00000000E+00
  0.00000000E+00  0.00000000E+00  0.00000000E+00
  0.00000000E+00  0.00000000E+00  0.00000000E+00
  0.00000000E+00  0.00000000E+00  0.00000000E+00
  0.00000000E+00  0.00000000E+00  0.00000000E+00
  0.00000000E+00  0.00000000E+00  0.00000000E+00
  0.00000000E+00  0.00000000E+00  0.00000000E+00
  0.00000000E+00  0.00000000E+00  0.00000000E+00
  0.00000000E+00  0.00000000E+00  0.00000000E+00
  0.00000000E+00  0.00000000E+00  0.00000000E+00
  0.00000000E+00  0.00000000E+00  0.00000000E+00
  0.00000000E+00  0.00000000E+00  0.00000000E+00
  0.00000000E+00  0.00000000E+00  0.00000000E+00
  0.00000000E+00  0.00000000E+00  0.00000000E+00
  0.00000000E+00  0.00000000E+00  0.00000000E+00
  0.00000000E+00  0.00000000E+00  0.00000000E+00
  0.00000000E+00  0.00000000E+00  0.00000000E+00
  0.00000000E+00  0.00000000E+00  0.00000000E+00
  0.00000000E+00  0.00000000E+00  0.00000000E+00
  0.00000000E+00  0.00000000E+00  0.00000000E+00
  0.00000000E+00  0.00000000E+00  0.00000000E+00
  0.00000000E+00  0.00000000E+00  0.00000000E+00
  0.00000000E+00  0.00000000E+00  0.00000000E+00
  0.00000000E+00  0.00000000E+00  0.00000000E+00
  0.00000000E+00  0.00000000E+00  0.00000000E+00
  0.00000000E+00  0.00000000E+00  0.00000000E+00
  0.00000000E+00  0.00000000E+00  0.00000000E+00
  0.00000000E+00  0.00000000E+00  0.00000000E+00
  0.00000000E+00  0.00000000E+00  0.00000000E+00
  0.00000000E+00  0.00000000E+00  0.00000000E+00
  0.00000000E+00  0.00000000E+00  0.00000000E+00
  0.00000000E+00  0.00000000E+00  0.00000000E+00
  0.00000000E+00  0.00000000E+00  0.00000000E+00
  0.00000000E+00  0.00000000E+00  0.00000000E+00
  0.00000000E+00  0.00000000E+00  0.00000000E+00
  0.00000000E+00  0.00000000E+00  0.00000000E+00
  0.00000000E+00  0.00000000E+00  0.00000000E+00
  0.00000000E+00  0.00000000E+00  0.00000000E+00
  0.00000000E+00  0.00000000E+00  0.00000000E+00
  0.00000000E+00  0.00000000E+00  0.00000000E+00
  0.00000000E+00  0.00000000E+00  0.00000000E+00
  0.00000000E+00  0.00000000E+00  0.00000000E+00
  0.00000000E+00  0.00000000E+00  0.00000000E+00
  0.00000000E+00  0.00000000E+00  0.00000000E+00
  0.00000000E+00  0.00000000E+00  0.00000000E+00
  0.00000000E+00  0.00000000E+00  0.00000000E+00
  0.00000000E+00  0.00000000E+00  0.00000000E+00
  0.00000000E+00  0.00000000E+00  0.00000000E+00
  0.00000000E+00  0.00000000E+00  0.00000000E+00
  0.00000000E+00  0.00000000E+00  0.00000000E+00
  0.00000000E+00  0.00000000E+00  0.00000000E+00
  0.00000000E+00  0.00000000E+00  0.00000000E+00
  0.00000000E+00  0.00000000E+00  0.00000000E+00
  0.00000000E+00  0.00000000E+00  0.00000000E+00
  0.00000000E+00  0.00000000E+00  0.00000000E+00
  0.00000000E+00  0.00000000E+00  0.00000000E+00
  0.00000000E+00  0.00000000E+00  0.00000000E+00
  0.00000000E+00  0.00000000E+00  0.00000000E+00
  0.00000000E+00  0.00000000E+00  0.00000000E+00
  0.00000000E+00  0.00000000E+00  0.00000000E+00
  0.00000000E+00  0.00000000E+00  0.00000000E+00
  0.00000000E+00  0.00000000E+00  0.00000000E+00
  0.00000000E+00  0.00000000E+00  0.00000000E+00
