 B N C 
 1.0
 14.936314146199660   0.000000000000000   0.000000000000000
 -7.468157073099825  12.935227489513863   0.000000000000000
  0.000000000000001   0.000000000000001  13.341276283792837
 B N C 
 142 142   4
Cartesian
  1.243539044141833   0.718004936124474   5.004548077605494 
  4.978468269533322   7.187063592512047   5.009166152126022 
  6.224518719218247   0.717567443412172   5.004929681192503 
  9.958330108654406   7.186523112756420   5.003493062493468 
 11.202571925295203   0.718407734805257   5.004173933313048 
 -3.733818986623719   9.342072537241414  11.672319188204350 
  1.244699533037319   9.342551757494872  11.672353234205016 
  2.488639820458062   2.874436352354908  11.667134797940284 
  6.223350224696710   9.343430905960377  11.672842421127656 
  7.469589203339974   2.873709076871956  11.671672152880895 
 12.446950050719931   2.874131327970406  11.672481919457985 
 -1.244448163138153   9.342092969678919   5.004213859846427 
 -0.001001735882404   2.874192095817240   5.004544539016604 
  4.978465069892542   2.874145225932469   5.010122203692004 
  3.733872465587252   9.343190766280230   5.004283525632457 
  8.713099820726582   9.342704840770597   5.003594557807149 
  9.958610468215111   2.873864280675353   5.004364995772003 
 -4.979091492321285  11.497576403421933  11.672024960399272 
  0.000709975705601  11.497649063219727  11.672219401967464 
  1.243970292986867   5.030984620096381  11.670307307660247 
  6.223532151011846   5.031057636296713  11.666834992220341 
  4.978577224030622  11.498581160234133  11.672467672586047 
 11.202882879662759   5.030114247832183  11.672920880568482 
 -1.245006522038252   5.030334451231069   5.004226866870508 
 -2.488988410379231  11.497352105562779   5.004680296680717 
  2.489749604872579  11.498210404959776   5.004179384872884 
  3.733429061564398   5.031088517548712   5.009602860292937 
  7.467649800996882  11.498283380016732   5.003754992225139 
  8.714177511576544   5.030119385077715   5.003983497979128 
 -0.000340891306518   7.186619467614491  11.672087769384978 
  1.243539044141833   0.718004936124474  11.672047277135551 
  4.978468269533323   7.187063592512047  11.667429202615011 
  6.224518719218248   0.717567443412173  11.671665673548544 
  9.958330108654406   7.186523112756420  11.673102292247577 
 -2.489196162228884   7.186319646633567   5.004043255408254 
 11.202571925295203   0.718407734805258  11.672421421427998 
  3.733758399272438   0.717480551689422   5.005763991924123 
  2.488674468189207   7.186884209776307   5.006222096244193 
  7.468929018384718   7.187298150192536   5.003999606350502 
  8.714000780082863   0.717973235365522   5.004539942535545 
  2.488674468189208   7.186884209776307  11.670373258496840 
 13.691016504725727   0.718451550160261   5.004234838244638 
 -1.244448163138152   9.342092969678921  11.672381494894619 
 -0.001001735882403   2.874192095817241  11.672050815724443 
  4.978465069892543   2.874145225932470  11.666473151049043 
  3.733872465587252   9.343190766280232  11.672311829108605 
  8.713099820726582   9.342704840770599  11.673000796933897 
  9.958610468215111   2.873864280675354  11.672230358969042 
 -3.733818986623719   9.342072537241412   5.004276166536696 
  1.244699533037318   9.342551757494871   5.004242120536031 
  2.488639820458062   2.874436352354907   5.009460556800776 
  6.223350224696709   9.343430905960375   5.003752933613391 
  7.469589203339973   2.873709076871955   5.004923201860151 
 12.446950050719931   2.874131327970405   5.004113435283061 
 -1.245006522038252   5.030334451231069  11.672368487870537 
 -2.488988410379230  11.497352105562781  11.671915058060328 
  2.489749604872579  11.498210404959778  11.672415969868148 
  3.733429061564398   5.031088517548712  11.666992494448122 
  7.467649800996883  11.498283380016733  11.672840362515908 
 -4.979091492321286  11.497576403421931   5.004570394341775 
  8.714177511576544   5.030119385077715  11.672611856761916 
  0.000709975705601  11.497649063219725   5.004375952773571 
  1.243970292986867   5.030984620096381   5.006288047080799 
 -0.000340891306519   7.186619467614491   5.004507585356055 
  6.223532151011845   5.031057636296713   5.009760362520705 
  4.978577224030621  11.498581160234131   5.004127682155000 
 11.202882879662759   5.030114247832183   5.003674474172565 
 -2.489196162228883   7.186319646633567  11.672552099332794 
  3.733758399272438   0.717480551689422  11.670831362816923 
  7.468929018384719   7.187298150192536  11.672595748390544 
  8.714000780082863   0.717973235365522  11.672055412205500 
 13.691016504725727   0.718451550160262  11.672360516496408 
  0.007968725350576   1.443715078582915   1.667659535474105 
  3.702149393030957   7.877034190024742   1.667659535474105 
  4.965436800768000   1.416594950311171   1.667659535474105 
  8.776690716507410   7.942353857692620   1.667659535474105 
  9.957723689904274   1.431692405532188   1.667659535474105 
 -4.978563816094384  10.060651567526852   8.338297677370523 
 -0.000056544070692  10.060689382152109   8.338297677370523 
  1.244382791440495   3.593241879723001   8.338297677370523 
  4.978747897110957  10.060915235650691   8.338297677370523 
  6.223757554335782   3.593045457237463   8.338297677370523 
 11.202404397856608   3.593231514473351   8.338297677370523 
 -2.482854038351676  10.064415536697137   1.667659535474105 
 -1.234741171405443   3.594798006827983   1.667659535474105 
  2.486694629330834  10.054088163568773   1.667659535474105 
  7.467790075173773  10.058358177834281   1.667659535474105 
  8.710360898535455   3.572489670187317   1.667659535474105 
 -6.223443009953749  12.216442947800813   8.338297677370523 
 -1.244578577589530  12.216268782738149   8.338297677370523 
 -0.000256671244688   5.749202496928334   8.338297677370523 
  4.978727891793700   5.749168918822435   8.338297677370523 
  3.734078846232252  12.216652424050105   8.338297677370523 
  9.957916264891136   5.749180567916385   8.338297677370523 
 -2.491970100776831   5.749787998661793   1.667659535474105 
 -3.729366043761436  12.211096657564589   1.667659535474105 
  1.243422248311015  12.216542404277160   1.667659535474105 
  2.462781900345555   5.760830427795335   1.667659535474105 
  6.223725773612912  12.218562634954434   1.667659535474105 
  7.473199047732543   5.698715778681860   1.667659535474105 
 -1.244768914566480   7.904950519728265   8.338297677370523 
 -0.000167696634555   1.437207254264281   8.338297677370523 
  3.733880049703123   7.905123288565101   8.338297677370523 
  4.978912494617567   1.436902024543481   8.338297677370523 
  8.713281540714796   7.905067325849219   8.338297677370523 
 -3.710570654397444   7.911105155512176   1.667659535474105 
  9.957709743999136   1.437190003158221   8.338297677370523 
  2.509384469879955   1.438484467506438   1.667659535474105 
  1.226075153913573   7.914774767473725   1.667659535474105 
  6.172157438265951   7.916020143718471   1.667659535474105 
  7.460999765257756   1.437607750231466   1.667659535474105 
  1.244460496528763   7.905050241368654   8.338297677370523 
 12.450277846899104   1.437849806708245   1.667659535474105 
 -2.489297266300770  10.060558169024906   8.338297677370523 
 -1.244864318007073   3.593260604330715   8.338297677370523 
  3.733976765912053   3.593210569186787   8.338297677370523 
  2.489253171155144  10.060875434877289   8.338297677370523 
  7.468337551679923  10.060841005629154   8.338297677370523 
  8.713259785314694   3.593120637492505   8.338297677370523 
 -4.962437731190624  10.078557286683964   1.667659535474105 
 -0.003043046171347  10.067424373687459   1.667659535474105 
  1.261244406010060   3.617345362474160   1.667659535474105 
  4.961972431239811  10.067762312209048   1.667659535474105 
  6.190899986326519   3.587727127616592   1.667659535474105 
 11.203389185248611   3.589892302141401   1.667659535474105 
 -2.489351632096791   5.749160149598829   8.338297677370523 
 -3.733995773968781  12.216240687768959   8.338297677370523 
  1.244754217849529  12.216483343396371   8.338297677370523 
  2.489143422639891   5.749212708843046   8.338297677370523 
  6.223455812368348  12.216639738170805   8.338297677370523 
 -6.217873656202467  12.224078251939348   1.667659535474105 
  7.468555386329565   5.749110062515189   8.338297677370523 
 -1.245872907081489  12.218876552461545   1.667659535474105 
 -0.014472018222479   5.755553430062378   1.667659535474105 
 -1.243763608978519   7.910004838753274   1.667659535474105 
  3.730744587524630  12.218350341628536   1.667659535474105 
  9.957874314415683   5.750074827465597   1.667659535474105 
 -3.733849742015452   7.904934058561027   8.338297677370523 
  2.489277039013158   1.437041841825353   8.338297677370523 
  6.223569126768244   7.905142688471177   8.338297677370523 
  7.468432871375877   1.436981389764261   8.338297677370523 
 12.446917853408074   1.437283603818938   8.338297677370523 
  1.261322412857226   0.737629898524110   1.667659535474105 
  4.954020482820863   7.106039047379990   1.667659535474105 
  6.212757740114743   0.729341731014743   1.667659535474105 
  9.988219526392996   7.192150990957530   1.667659535474105 
 11.203213701938969   0.718897638186561   1.667659535474105 
 -3.734032365240538   9.342109919514655   8.338297677370523 
  1.244711635924837   9.342110502904372   8.338297677370523 
  2.489453797086384   2.874537542379308   8.338297677370523 
  6.223541236216113   9.342083637088152   8.338297677370523 
  7.468177102991885   2.874521074118740   8.338297677370523 
 12.446970745181767   2.874569506576120   8.338297677370523 
 -1.242405963753561   9.346478045714536   1.667659535474105 
  0.028537800029533   2.881792294058269   1.667659535474105 
  4.925266466099119   2.879984736706443   1.667659535474105 
  3.732604429121539   9.316862746983819   1.667659535474105 
  8.733676460657524   9.367279833827311   1.667659535474105 
  9.954338753103535   2.866014737656080   1.667659535474105 
 -4.978713977330004  11.498016282723171   8.338297677370523 
 -0.000001487805522  11.498029067972208   8.338297677370523 
  1.244768440306743   5.030415425329468   8.338297677370523 
  6.223504122734673   5.030383955099968   8.338297677370523 
  4.978853101691445  11.497983981459102   8.338297677370523 
 11.202258111461306   5.030481044430474   8.338297677370523 
 -1.247391103731018   5.029521418100209   1.667659535474105 
 -2.486528527223082  11.503287858027054   1.667659535474105 
  2.488566300777729  11.493871431806493   1.667659535474105 
  7.470732739852311  11.499082452184684   1.667659535474105 
  8.706623892177275   5.001423828176123   1.667659535474105 
  0.000031545895422   7.186259724939505   8.338297677370523 
  1.244780044721824   0.718645997544804   8.338297677370523 
  4.978787233765512   7.186218664918277   8.338297677370523 
  6.223494875013287   0.718648428706245   8.338297677370523 
  9.957622814176698   7.186268703607403   8.338297677370523 
 -2.478598818496922   7.186308402169068   1.667659535474105 
 11.202270070263749   0.718669402577373   8.338297677370523 
  3.735308732705377   0.717729489393068   1.667659535474105 
  2.465321751337727   7.185984842756283   1.667659535474105 
  8.705137860849495   0.722455829957145   1.667659535474105 
  2.489444440228684   7.186227738716471   8.338297677370523 
 13.700675749331056   0.722894523933652   1.667659535474105 
 -1.244672510453304   9.342129607825962   8.338297677370523 
  0.000071625324933   2.874529943449843   8.338297677370523 
  4.978841986495172   2.874524458662961   8.338297677370523 
  3.734105467004948   9.342054998430823   8.338297677370523 
  8.712928457557801   9.342127359020713   8.338297677370523 
  9.957565184093781   2.874570643975045   8.338297677370523 
 -3.724645455743859   9.349743121412400   1.667659535474105 
  1.239477779139127   9.346114747147672   1.667659535474105 
  2.561390331892107   2.909385516660656   1.667659535474105 
  6.195942560472476   9.342015712064798   1.667659535474105 
  7.435907463447949   2.881746147308711   1.667659535474105 
 12.454407892485465   2.875532034467811   1.667659535474105 
 -1.244672663224951   5.030440028009100   8.338297677370523 
 -2.489338044974508  11.498015091591336   8.338297677370523 
  2.489378302032518  11.498008419340481   8.338297677370523 
  3.734143199863062   5.030410736666025   8.338297677370523 
  7.468254087508665  11.498004477445001   8.338297677370523 
 -4.972054868997690  11.512039193958289   1.667659535474105 
  8.712909844371904   5.030443286134433   8.338297677370523 
 -0.003153841213221  11.504920120655235   1.667659535474105 
  1.236237658156996   5.037339234591837   1.667659535474105 
 -0.005281490358270   7.188499860557174   1.667659535474105 
  6.174217823240182   5.032745520612415   1.667659535474105 
  4.974181776609603  11.500779036083468   1.667659535474105 
 11.196985313803172   5.028929703514521   1.667659535474105 
 -2.489369843156694   7.186264084713432   8.338297677370523 
  3.734149496254205   0.718661365986465   8.338297677370523 
  7.468221679183937   7.186240971208512   8.338297677370523 
  8.712821648240972   0.718651643052572   8.338297677370523 
 13.691729715635168   0.718644054528670   8.338297677370523 
  0.000024327938308   1.437240066789504   5.000679240313344 
  3.734248330770867   7.904793084916358   4.999582770788745 
  4.978792343360857   1.437496877014111   4.998255711405456 
  8.712912965476564   7.904978394363162   5.000534535678650 
  9.957696772606672   1.437182040548289   5.001484234615567 
 -4.978785711157593  10.060912652326712  11.675242203648031 
  0.000238429107536  10.060834563138455  11.675138820280733 
  1.244939873415986   3.593081984241617  11.677157903475560 
  4.978783868508239  10.060857616891058  11.675969220540988 
  6.223281623126129   3.593241540565488  11.679400928672793 
 11.202327107656409   3.593077949744344  11.675575730764393 
 -2.489276301142639  10.060883622829570   5.001520318661737 
 -1.244543532545166   3.593022349421547   5.000984510127545 
  3.734149102574241   3.593078150535008   5.004259023068514 
  2.489609466636719  10.060770386309933   5.001067346872672 
  7.468050847357380  10.060759628363268   4.999444650661393 
  8.712900491259488   3.593022899483960   5.000074710106043 
 -6.223582100191810  12.216726116619487  11.676004020565495 
 -1.244492658246038  12.216809190502342  11.675643360926413 
  0.000199620864964   5.748921347088978  11.675728271983342 
  4.979000872553596   5.749205898851149  11.671308150638566 
  3.734194734585845  12.216664763026293  11.675038795609462 
  9.957414922201142   5.748973286067189  11.677360353002529 
 -2.489331306800441   5.748913940030303   5.001032900015136 
 -3.734043556689776  12.216807041205533   5.000791609858379 
  1.244906590005836  12.216681702437802   5.001509225898970 
  2.489526268075461   5.749061967574333   5.003915760071774 
  6.223489235794757  12.216656960486748   5.001122773828470 
  7.467967273209313   5.748851209354576   4.998374478636419 
 -1.244552681823594   7.904872597817182  11.675047625257795 
  0.000024327938308   1.437240066789504  11.675916114427702 
  3.734248330770868   7.904793084916358  11.677012583952301 
  4.978792343360857   1.437496877014112  11.678339643335590 
  8.712912965476564   7.904978394363162  11.676060819062396 
 -3.734018523937732   7.904871596731248   5.001352380048735 
  9.957696772606672   1.437182040548290  11.675111120125479 
  2.489401640059222   1.437432475310515   4.998618381036419 
  1.244928604128396   7.904852714114103   5.001017618890331 
  6.223231145674220   7.904942208942601   4.999239508551376 
  7.468295605588462   1.437322080055585   5.000238673979031 
  1.244928604128397   7.904852714114103  11.675577735850716 
 12.447057571665717   1.437209599731909   5.001339538387585 
 -2.489276301142639  10.060883622829571  11.675075036079310 
 -1.244543532545166   3.593022349421548  11.675610844613502 
  3.734149102574242   3.593078150535009  11.672336331672533 
  2.489609466636719  10.060770386309935  11.675528007868376 
  7.468050847357381  10.060759628363270  11.677150704079652 
  8.712900491259488   3.593022899483961  11.676520644635003 
 -4.978785711157594  10.060912652326710   5.001353151093014 
  0.000238429107535  10.060834563138453   5.001456534460313 
  1.244939873415986   3.593081984241616   4.999437451265486 
  4.978783868508238  10.060857616891056   5.000626134200044 
  6.223281623126128   3.593241540565487   4.997194426068254 
 11.202327107656409   3.593077949744343   5.001019623976639 
 -2.489331306800440   5.748913940030303  11.675562454725924 
 -3.734043556689776  12.216807041205534  11.675803744882680 
  1.244906590005836  12.216681702437803  11.675086128842075 
  2.489526268075462   5.749061967574333  11.672679594669273 
  6.223489235794758  12.216656960486750  11.675472580912562 
 -6.223582100191811  12.216726116619485   5.000591334175538 
  7.467967273209314   5.748851209354576  11.678220876104627 
 -1.244492658246039  12.216809190502341   5.000951993814645 
  0.000199620864963   5.748921347088978   5.000867082757704 
 -1.244552681823595   7.904872597817182   5.001547729483252 
  4.979000872553595   5.749205898851149   5.005287204102467 
  3.734194734585845  12.216664763026291   5.001556559131583 
  9.957414922201142   5.748973286067189   4.999235001738517 
 -3.734018523937731   7.904871596731248  11.675242974692312 
  2.489401640059222   1.437432475310516  11.677976973704627 
  6.223231145674221   7.904942208942601  11.677355846189670 
  7.468295605588462   1.437322080055586  11.676356680762028 
 12.447057571665717   1.437209599731910  11.675255816353461 
  3.783309686352279   4.997323976620138   1.667659535474105 
  7.472430114045872   7.186983926738784   1.667659535474105 
  3.756956980426880   3.586057263498387   1.667659535474105 
  4.986295190414550   5.721870968664935   1.667659535474105 
Generated by cif2cell 2.0.0.  :  Failed to get author information, No journal information. Species order: B N C 
 1.0
 14.936314146199660   0.000000000000000   0.000000000000000
 -7.468157073099825  12.935227489513863   0.000000000000000
  0.000000000000001   0.000000000000001  13.341276283792837
 B N C 
 142 142   4
Cartesian
  1.243539044141833   0.718004936124474   5.004548077605494 
  4.978468269533322   7.187063592512047   5.009166152126022 
  6.224518719218247   0.717567443412172   5.004929681192503 
  9.958330108654406   7.186523112756420   5.003493062493468 
 11.202571925295203   0.718407734805257   5.004173933313048 
 -3.733818986623719   9.342072537241414  11.672319188204350 
  1.244699533037319   9.342551757494872  11.672353234205016 
  2.488639820458062   2.874436352354908  11.667134797940284 
  6.223350224696710   9.343430905960377  11.672842421127656 
  7.469589203339974   2.873709076871956  11.671672152880895 
 12.446950050719931   2.874131327970406  11.672481919457985 
 -1.244448163138153   9.342092969678919   5.004213859846427 
 -0.001001735882404   2.874192095817240   5.004544539016604 
  4.978465069892542   2.874145225932469   5.010122203692004 
  3.733872465587252   9.343190766280230   5.004283525632457 
  8.713099820726582   9.342704840770597   5.003594557807149 
  9.958610468215111   2.873864280675353   5.004364995772003 
 -4.979091492321285  11.497576403421933  11.672024960399272 
  0.000709975705601  11.497649063219727  11.672219401967464 
  1.243970292986867   5.030984620096381  11.670307307660247 
  6.223532151011846   5.031057636296713  11.666834992220341 
  4.978577224030622  11.498581160234133  11.672467672586047 
 11.202882879662759   5.030114247832183  11.672920880568482 
 -1.245006522038252   5.030334451231069   5.004226866870508 
 -2.488988410379231  11.497352105562779   5.004680296680717 
  2.489749604872579  11.498210404959776   5.004179384872884 
  3.733429061564398   5.031088517548712   5.009602860292937 
  7.467649800996882  11.498283380016732   5.003754992225139 
  8.714177511576544   5.030119385077715   5.003983497979128 
 -0.000340891306518   7.186619467614491  11.672087769384978 
  1.243539044141833   0.718004936124474  11.672047277135551 
  4.978468269533323   7.187063592512047  11.667429202615011 
  6.224518719218248   0.717567443412173  11.671665673548544 
  9.958330108654406   7.186523112756420  11.673102292247577 
 -2.489196162228884   7.186319646633567   5.004043255408254 
 11.202571925295203   0.718407734805258  11.672421421427998 
  3.733758399272438   0.717480551689422   5.005763991924123 
  2.488674468189207   7.186884209776307   5.006222096244193 
  7.468929018384718   7.187298150192536   5.003999606350502 
  8.714000780082863   0.717973235365522   5.004539942535545 
  2.488674468189208   7.186884209776307  11.670373258496840 
 13.691016504725727   0.718451550160261   5.004234838244638 
 -1.244448163138152   9.342092969678921  11.672381494894619 
 -0.001001735882403   2.874192095817241  11.672050815724443 
  4.978465069892543   2.874145225932470  11.666473151049043 
  3.733872465587252   9.343190766280232  11.672311829108605 
  8.713099820726582   9.342704840770599  11.673000796933897 
  9.958610468215111   2.873864280675354  11.672230358969042 
 -3.733818986623719   9.342072537241412   5.004276166536696 
  1.244699533037318   9.342551757494871   5.004242120536031 
  2.488639820458062   2.874436352354907   5.009460556800776 
  6.223350224696709   9.343430905960375   5.003752933613391 
  7.469589203339973   2.873709076871955   5.004923201860151 
 12.446950050719931   2.874131327970405   5.004113435283061 
 -1.245006522038252   5.030334451231069  11.672368487870537 
 -2.488988410379230  11.497352105562781  11.671915058060328 
  2.489749604872579  11.498210404959778  11.672415969868148 
  3.733429061564398   5.031088517548712  11.666992494448122 
  7.467649800996883  11.498283380016733  11.672840362515908 
 -4.979091492321286  11.497576403421931   5.004570394341775 
  8.714177511576544   5.030119385077715  11.672611856761916 
  0.000709975705601  11.497649063219725   5.004375952773571 
  1.243970292986867   5.030984620096381   5.006288047080799 
 -0.000340891306519   7.186619467614491   5.004507585356055 
  6.223532151011845   5.031057636296713   5.009760362520705 
  4.978577224030621  11.498581160234131   5.004127682155000 
 11.202882879662759   5.030114247832183   5.003674474172565 
 -2.489196162228883   7.186319646633567  11.672552099332794 
  3.733758399272438   0.717480551689422  11.670831362816923 
  7.468929018384719   7.187298150192536  11.672595748390544 
  8.714000780082863   0.717973235365522  11.672055412205500 
 13.691016504725727   0.718451550160262  11.672360516496408 
  0.007968725350576   1.443715078582915   1.667659535474105 
  3.702149393030957   7.877034190024742   1.667659535474105 
  4.965436800768000   1.416594950311171   1.667659535474105 
  8.776690716507410   7.942353857692620   1.667659535474105 
  9.957723689904274   1.431692405532188   1.667659535474105 
 -4.978563816094384  10.060651567526852   8.338297677370523 
 -0.000056544070692  10.060689382152109   8.338297677370523 
  1.244382791440495   3.593241879723001   8.338297677370523 
  4.978747897110957  10.060915235650691   8.338297677370523 
  6.223757554335782   3.593045457237463   8.338297677370523 
 11.202404397856608   3.593231514473351   8.338297677370523 
 -2.482854038351676  10.064415536697137   1.667659535474105 
 -1.234741171405443   3.594798006827983   1.667659535474105 
  2.486694629330834  10.054088163568773   1.667659535474105 
  7.467790075173773  10.058358177834281   1.667659535474105 
  8.710360898535455   3.572489670187317   1.667659535474105 
 -6.223443009953749  12.216442947800813   8.338297677370523 
 -1.244578577589530  12.216268782738149   8.338297677370523 
 -0.000256671244688   5.749202496928334   8.338297677370523 
  4.978727891793700   5.749168918822435   8.338297677370523 
  3.734078846232252  12.216652424050105   8.338297677370523 
  9.957916264891136   5.749180567916385   8.338297677370523 
 -2.491970100776831   5.749787998661793   1.667659535474105 
 -3.729366043761436  12.211096657564589   1.667659535474105 
  1.243422248311015  12.216542404277160   1.667659535474105 
  2.462781900345555   5.760830427795335   1.667659535474105 
  6.223725773612912  12.218562634954434   1.667659535474105 
  7.473199047732543   5.698715778681860   1.667659535474105 
 -1.244768914566480   7.904950519728265   8.338297677370523 
 -0.000167696634555   1.437207254264281   8.338297677370523 
  3.733880049703123   7.905123288565101   8.338297677370523 
  4.978912494617567   1.436902024543481   8.338297677370523 
  8.713281540714796   7.905067325849219   8.338297677370523 
 -3.710570654397444   7.911105155512176   1.667659535474105 
  9.957709743999136   1.437190003158221   8.338297677370523 
  2.509384469879955   1.438484467506438   1.667659535474105 
  1.226075153913573   7.914774767473725   1.667659535474105 
  6.172157438265951   7.916020143718471   1.667659535474105 
  7.460999765257756   1.437607750231466   1.667659535474105 
  1.244460496528763   7.905050241368654   8.338297677370523 
 12.450277846899104   1.437849806708245   1.667659535474105 
 -2.489297266300770  10.060558169024906   8.338297677370523 
 -1.244864318007073   3.593260604330715   8.338297677370523 
  3.733976765912053   3.593210569186787   8.338297677370523 
  2.489253171155144  10.060875434877289   8.338297677370523 
  7.468337551679923  10.060841005629154   8.338297677370523 
  8.713259785314694   3.593120637492505   8.338297677370523 
 -4.962437731190624  10.078557286683964   1.667659535474105 
 -0.003043046171347  10.067424373687459   1.667659535474105 
  1.261244406010060   3.617345362474160   1.667659535474105 
  4.961972431239811  10.067762312209048   1.667659535474105 
  6.190899986326519   3.587727127616592   1.667659535474105 
 11.203389185248611   3.589892302141401   1.667659535474105 
 -2.489351632096791   5.749160149598829   8.338297677370523 
 -3.733995773968781  12.216240687768959   8.338297677370523 
  1.244754217849529  12.216483343396371   8.338297677370523 
  2.489143422639891   5.749212708843046   8.338297677370523 
  6.223455812368348  12.216639738170805   8.338297677370523 
 -6.217873656202467  12.224078251939348   1.667659535474105 
  7.468555386329565   5.749110062515189   8.338297677370523 
 -1.245872907081489  12.218876552461545   1.667659535474105 
 -0.014472018222479   5.755553430062378   1.667659535474105 
 -1.243763608978519   7.910004838753274   1.667659535474105 
  3.730744587524630  12.218350341628536   1.667659535474105 
  9.957874314415683   5.750074827465597   1.667659535474105 
 -3.733849742015452   7.904934058561027   8.338297677370523 
  2.489277039013158   1.437041841825353   8.338297677370523 
  6.223569126768244   7.905142688471177   8.338297677370523 
  7.468432871375877   1.436981389764261   8.338297677370523 
 12.446917853408074   1.437283603818938   8.338297677370523 
  1.261322412857226   0.737629898524110   1.667659535474105 
  4.954020482820863   7.106039047379990   1.667659535474105 
  6.212757740114743   0.729341731014743   1.667659535474105 
  9.988219526392996   7.192150990957530   1.667659535474105 
 11.203213701938969   0.718897638186561   1.667659535474105 
 -3.734032365240538   9.342109919514655   8.338297677370523 
  1.244711635924837   9.342110502904372   8.338297677370523 
  2.489453797086384   2.874537542379308   8.338297677370523 
  6.223541236216113   9.342083637088152   8.338297677370523 
  7.468177102991885   2.874521074118740   8.338297677370523 
 12.446970745181767   2.874569506576120   8.338297677370523 
 -1.242405963753561   9.346478045714536   1.667659535474105 
  0.028537800029533   2.881792294058269   1.667659535474105 
  4.925266466099119   2.879984736706443   1.667659535474105 
  3.732604429121539   9.316862746983819   1.667659535474105 
  8.733676460657524   9.367279833827311   1.667659535474105 
  9.954338753103535   2.866014737656080   1.667659535474105 
 -4.978713977330004  11.498016282723171   8.338297677370523 
 -0.000001487805522  11.498029067972208   8.338297677370523 
  1.244768440306743   5.030415425329468   8.338297677370523 
  6.223504122734673   5.030383955099968   8.338297677370523 
  4.978853101691445  11.497983981459102   8.338297677370523 
 11.202258111461306   5.030481044430474   8.338297677370523 
 -1.247391103731018   5.029521418100209   1.667659535474105 
 -2.486528527223082  11.503287858027054   1.667659535474105 
  2.488566300777729  11.493871431806493   1.667659535474105 
  7.470732739852311  11.499082452184684   1.667659535474105 
  8.706623892177275   5.001423828176123   1.667659535474105 
  0.000031545895422   7.186259724939505   8.338297677370523 
  1.244780044721824   0.718645997544804   8.338297677370523 
  4.978787233765512   7.186218664918277   8.338297677370523 
  6.223494875013287   0.718648428706245   8.338297677370523 
  9.957622814176698   7.186268703607403   8.338297677370523 
 -2.478598818496922   7.186308402169068   1.667659535474105 
 11.202270070263749   0.718669402577373   8.338297677370523 
  3.735308732705377   0.717729489393068   1.667659535474105 
  2.465321751337727   7.185984842756283   1.667659535474105 
  8.705137860849495   0.722455829957145   1.667659535474105 
  2.489444440228684   7.186227738716471   8.338297677370523 
 13.700675749331056   0.722894523933652   1.667659535474105 
 -1.244672510453304   9.342129607825962   8.338297677370523 
  0.000071625324933   2.874529943449843   8.338297677370523 
  4.978841986495172   2.874524458662961   8.338297677370523 
  3.734105467004948   9.342054998430823   8.338297677370523 
  8.712928457557801   9.342127359020713   8.338297677370523 
  9.957565184093781   2.874570643975045   8.338297677370523 
 -3.724645455743859   9.349743121412400   1.667659535474105 
  1.239477779139127   9.346114747147672   1.667659535474105 
  2.561390331892107   2.909385516660656   1.667659535474105 
  6.195942560472476   9.342015712064798   1.667659535474105 
  7.435907463447949   2.881746147308711   1.667659535474105 
 12.454407892485465   2.875532034467811   1.667659535474105 