Species order: N B                      
   2.51242800000000     
     5.9449720136058266    0.0000000000000000    0.0000000000000000
    -2.9724860068029120    5.1484967885702053   -0.0000000000000001
     0.0000000000000000    0.0000000000000009    5.3101128803662583
   N    B    C 
   142   142     4
Direct
  0.1129591421831277  0.0570248879752658  0.1250000000000000
  0.6063540141864255  0.5493555527446735  0.1250000000000000
  0.4441419295224996  0.0563841441216242  0.1250000000000000
  0.9467268630442277  0.5560127177344157  0.1250000000000000
  0.7778538488909514  0.0555767294212140  0.1250000000000000
  0.1111142478221483  0.7222223132208516  0.6250000000000000
  0.4444457705293322  0.7222223583216995  0.6250000000000000
  0.2777839820696609  0.2222255112799206  0.6250000000000000
  0.7777819631516494  0.7222202813720475  0.6250000000000000
  0.6111134600933673  0.2222242381472617  0.6250000000000000
  0.9444501558771108  0.2222279823765318  0.6250000000000000
  0.2780997782489394  0.7225600054804914  0.1250000000000000
  0.1133038137915196  0.2227863635482586  0.1250000000000000
  0.4410744421022254  0.2226466244247458  0.1250000000000000
  0.6100365562017693  0.7202704981057867  0.1250000000000000
  0.9468117673388954  0.7241681556370801  0.1250000000000000
  0.7772354691899982  0.2215666280302735  0.1250000000000000
  0.1111163572486290  0.8888916945638725  0.6250000000000000
  0.4444462418746976  0.8888926829692989  0.6250000000000000
  0.2777847399059971  0.3888926908635697  0.6250000000000000
  0.6111144666611897  0.3888902579547146  0.6250000000000000
  0.7777834032421347  0.8888891974091767  0.6250000000000000
  0.9444503883982486  0.3888977637624472  0.6250000000000000
  0.1108978041497306  0.3888235767154047  0.1250000000000000
  0.2781742385374043  0.8892992309066363  0.1250000000000000
  0.6108974393983088  0.8885712633290888  0.1250000000000000
  0.9446595024010541  0.8889741182755836  0.1250000000000000
  0.7762421955122132  0.3866514007759507  0.1250000000000000
  0.2777807491155005  0.5555572741774472  0.6250000000000000
  0.1111178091603436  0.0555572755196913  0.6250000000000000
  0.6111114445684037  0.5555540998984280  0.6250000000000000
  0.4444474502746445  0.0555574634685653  0.6250000000000000
  0.9444510102422169  0.5555579683026880  0.6250000000000000
  0.1118360430575203  0.5555610373296297  0.1250000000000000
  0.7777818496309526  0.0555590849221612  0.6250000000000000
  0.2778255736986908  0.0554864218642385  0.1250000000000000
  0.4428235754788602  0.5555360235126680  0.1250000000000000
  0.6107429074845684  0.0558518070550224  0.1250000000000000
  0.4444480006684658  0.5555548013780270  0.6250000000000000
  0.9452157312125091  0.0558857217253945  0.1250000000000000
  0.2777799457629250  0.7222238352900475  0.6250000000000000
  0.1111172572914586  0.2222249238198646  0.6250000000000000
  0.4444503102651632  0.2222244998005047  0.6250000000000000
  0.6111108367023509  0.7222180673671257  0.6250000000000000
  0.9444504223072582  0.7222236614388148  0.6250000000000000
  0.7777822028571350  0.2222280703068703  0.6250000000000000
  0.1120377648647126  0.7228124228191506  0.1250000000000000
  0.4442501395814730  0.7225319194984575  0.1250000000000000
  0.2839472176066689  0.2249195477249388  0.1250000000000000
  0.7759315807879930  0.7222150302063137  0.1250000000000000
  0.6092322569184903  0.2227827960230963  0.1250000000000000
  0.9449852854253274  0.2223023937382551  0.1250000000000000
  0.1111153143167273  0.3888945928540567  0.6250000000000000
  0.2777823245206553  0.8888916024795366  0.6250000000000000
  0.6111117152959534  0.8888910866593968  0.6250000000000000
  0.4444504934639864  0.3888923283911318  0.6250000000000000
  0.9444518861632442  0.8888907819182952  0.6250000000000000
  0.1121042341615206  0.8899757815075688  0.1250000000000000
  0.7777847677849350  0.3888948447340752  0.6250000000000000
  0.4445015565732077  0.8894254182991267  0.1250000000000000
  0.2774812300196945  0.3894279585477285  0.1250000000000000
  0.2775116269403465  0.5557304551763504  0.1250000000000000
  0.6079059877459037  0.3890728264881527  0.1250000000000000
  0.7775786941343766  0.8891052782339349  0.1250000000000000
  0.9440374039970653  0.3887778322871627  0.1250000000000000
  0.1111131999752817  0.5555576112240070  0.6250000000000000
  0.2777839826312405  0.0555584636272577  0.6250000000000000
  0.7777822376164000  0.5555558243590336  0.6250000000000000
  0.6111102965876871  0.0555577119641039  0.6250000000000000
  0.9444524878018894  0.0555571253084835  0.6250000000000000
  0.0555568970541823  0.1111105365525753  0.3748276502142627
  0.5555642888206741  0.6111058418821392  0.3747454639600190
  0.3888999317640991  0.1111303901055815  0.3746459937627861
  0.8888976382957502  0.6111201678340370  0.3748168038280835
  0.7222300029981923  0.1111060506445182  0.3748879888419251
  0.0555615601569054  0.7777917056721841  0.8751218365690600
  0.3889087974147729  0.7777856687324918  0.8751140874328377
  0.2222373399318762  0.2777749357059549  0.8752654285153461
  0.7222278948011724  0.7777874509781173  0.8751763303729131
  0.5555480764942413  0.2777872707285899  0.8754335552484651
  0.8888934377788713  0.2777746238059692  0.8751468362099695
  0.2222353878134013  0.7777894614521143  0.3748906935341450
  0.0555618260284677  0.2777703254414568  0.3748505318192692
  0.3888920441247479  0.2777746393287471  0.3750959740746665
  0.5555720023161871  0.7777807073331989  0.3748567408762859
  0.8888828259161281  0.7777798756550028  0.3747351111178764
  0.7222219032013140  0.2777703679658284  0.3747823374424978
  0.0555523942341187  0.9444539051611696  0.8751789388208434
  0.3889102331184380  0.9444603274589546  0.8751519054522651
  0.2222329334845508  0.4444391373672733  0.8751582699900440
  0.5555792657181930  0.4444611355704284  0.8748269582586359
  0.7222323605762649  0.9444491620213035  0.8751065900488439
  0.8888796838712727  0.4444431526795858  0.8752806031899921
  0.0555562567780588  0.4444385647404150  0.3748541589001086
  0.2222324225841526  0.9444601613005472  0.3748360729125598
  0.5555728795128206  0.9444504715778238  0.3748898620722571
  0.3889010826757600  0.4444500084930779  0.3750702446774603
  0.8888926203997348  0.9444485588205055  0.3748608954230192
  0.7222041502927200  0.4444337151406862  0.3746548960018555
  0.2222320451984046  0.6111119888865802  0.8751072518782028
  0.0555568970541823  0.1111105365525753  0.8751723497857369
  0.5555642888206741  0.6111058418821392  0.8752545360399807
  0.3888999317640991  0.1111303901055815  0.8753540062372140
  0.8888976382957502  0.6111201678340370  0.8751831961719158
  0.0555599736468847  0.6111119114943627  0.3748781056370479
  0.7222300029981923  0.1111060506445182  0.8751120111580750
  0.2222304401294483  0.1111254113215858  0.3746731777910035
  0.3889043434456994  0.6111104517119845  0.3748530134980886
  0.7222097468189821  0.6111173704019403  0.3747197346197316
  0.5555677133057680  0.1111168768559168  0.3747946274115759
  0.3889043434456994  0.6111104517119845  0.8751469865019113
  0.8888960684005797  0.1111081811971997  0.3748771430858742
  0.2222353878134013  0.7777894614521143  0.8751093064658549
  0.0555618260284677  0.2777703254414568  0.8751494681807306
  0.3888920441247479  0.2777746393287471  0.8749040259253337
  0.5555720023161871  0.7777807073331989  0.8751432591237140
  0.8888828259161281  0.7777798756550028  0.8752648888821239
  0.7222219032013140  0.2777703679658284  0.8752176625575021
  0.0555615601569054  0.7777917056721841  0.3748781634309403
  0.3889087974147729  0.7777856687324918  0.3748859125671623
  0.2222373399318762  0.2777749357059549  0.3747345714846540
  0.7222278948011724  0.7777874509781173  0.3748236696270864
  0.5555480764942413  0.2777872707285899  0.3745664447515351
  0.8888934377788713  0.2777746238059692  0.3748531637900299
  0.0555562567780588  0.4444385647404150  0.8751458410998918
  0.2222324225841526  0.9444601613005472  0.8751639270874407
  0.5555728795128206  0.9444504715778238  0.8751101379277426
  0.3889010826757600  0.4444500084930779  0.8749297553225402
  0.8888926203997348  0.9444485588205055  0.8751391045769804
  0.0555523942341187  0.9444539051611696  0.3748210611791565
  0.7222041502927200  0.4444337151406862  0.8753451039981447
  0.3889102331184380  0.9444603274589546  0.3748480945477356
  0.2222329334845508  0.4444391373672733  0.3748417300099559
  0.2222320451984046  0.6111119888865802  0.3748927481217974
  0.5555792657181930  0.4444611355704284  0.3751730417413633
  0.7222323605762649  0.9444491620213035  0.3748934099511563
  0.8888796838712727  0.4444431526795858  0.3747193968100082
  0.0555599736468847  0.6111119114943627  0.8751218943629524
  0.2222304401294483  0.1111254113215858  0.8753268222089963
  0.7222097468189821  0.6111173704019403  0.8752802653802685
  0.5555677133057680  0.1111168768559168  0.8752053725884246
  0.8888960684005797  0.1111081811971997  0.8751228569141255
  0.1110099433543746  0.0555077161732594  0.3751176402579333
  0.6111227495623848  0.5556194197851062  0.3754637896384193
  0.4444742130389060  0.0554738943705384  0.3751462434874056
  0.9445081982244743  0.5555776362327054  0.3750385612335888
  0.7777919445627618  0.0555388558405827  0.3750895961424759
  0.1111270887378796  0.7222194232621499  0.8749027409307187
  0.4444620165433560  0.7222564709486976  0.8749052928605299
  0.2777255741714602  0.2222176884546573  0.8745141431568788
  0.7778212522641370  0.7223244363916115  0.8749419600363109
  0.6111766144639730  0.2221614640485895  0.8748542421732015
  0.9444318329498396  0.2221941075485812  0.8749149385083852
  0.2777935498066741  0.7222210028584525  0.3750925888496604
  0.1110323355620055  0.2221988054054132  0.3751173750217732
  0.4444104164388927  0.2221951819759213  0.3755354508157793
  0.6111391391638386  0.7223058716094811  0.3750978106728611
  0.9444842172855628  0.7222683055512089  0.3750461688500958
  0.7778248817318475  0.2221734625854163  0.3751039172954822
  0.1110740791190933  0.8888576882581011  0.8748806869833440
  0.4444791862584436  0.8888633054610336  0.8748952614186575
  0.2777533049372768  0.3889366943236847  0.8747519397253992
  0.6111423837425646  0.3889423390794801  0.8744916711149572
  0.7777880164060674  0.8889353642644192  0.8749138706291484
  0.9444780390008443  0.3888694073536718  0.8749478409909629
  0.1110888811826453  0.3888864308964786  0.3750935637956705
  0.2777801057291610  0.8888403481796732  0.3751275507846632
  0.6111443819422856  0.8889067018172636  0.3750900047660385
  0.4444288802788034  0.3889447264555057  0.3754965232508278
  0.9444222093612852  0.8889123433923356  0.3750581942676480
  0.7778571191583584  0.3888698045052131  0.3750753219958455
  0.2777697196426268  0.5555850852596471  0.8748853948526942
  0.1110099433543746  0.0555077161732594  0.8748823597420669
  0.6111227495623848  0.5556194197851062  0.8745362103615804
  0.4444742130389060  0.0554738943705384  0.8748537565125941
  0.9445081982244743  0.5555776362327054  0.8749614387664113
  0.1111269757713283  0.5555619066196760  0.3750798011347109
  0.7777919445627618  0.0555388558405827  0.8749104038575237
  0.2777121549752648  0.0554671769221726  0.3752087795382206
  0.4444218256501489  0.5556055520169604  0.3752431169067252
  0.7778704589646451  0.5556375530325255  0.3750765294044193
  0.6111630172906292  0.0555052654425720  0.3751170304909377
  0.4444218256501489  0.5556055520169604  0.8747568830932742
  0.9443972965846792  0.0555422431296767  0.3750941612927877
  0.2777935498066741  0.7222210028584525  0.8749074111503400
  0.1110323355620055  0.2221988054054132  0.8748826249782268
  0.4444104164388927  0.2221951819759213  0.8744645491842213
  0.6111391391638386  0.7223058716094811  0.8749021893271399
  0.9444842172855628  0.7222683055512089  0.8749538311499038
  0.7778248817318475  0.2221734625854163  0.8748960827045182
  0.1111270887378796  0.7222194232621499  0.3750972590692815
  0.4444620165433560  0.7222564709486976  0.3750947071394696
  0.2777255741714602  0.2222176884546573  0.3754858568431216
  0.7778212522641370  0.7223244363916115  0.3750580399636891
  0.6111766144639730  0.2221614640485895  0.3751457578267982
  0.9444318329498396  0.2221941075485812  0.3750850614916151
  0.1110888811826453  0.3888864308964786  0.8749064362043295
  0.2777801057291610  0.8888403481796732  0.8748724492153367
  0.6111443819422856  0.8889067018172636  0.8749099952339613
  0.4444288802788034  0.3889447264555057  0.8745034767491726
  0.9444222093612852  0.8889123433923356  0.8749418057323518
  0.1110740791190933  0.8888576882581011  0.3751193130166556
  0.7778571191583584  0.3888698045052131  0.8749246780041547
  0.4444791862584436  0.8888633054610336  0.3751047385813424
  0.2777533049372768  0.3889366943236847  0.3752480602746006
  0.2777697196426268  0.5555850852596471  0.3751146051473054
  0.6111423837425646  0.3889423390794801  0.3755083288850435
  0.7777880164060674  0.8889353642644192  0.3750861293708515
  0.9444780390008443  0.3888694073536718  0.3750521590090369
  0.1111269757713283  0.5555619066196760  0.8749201988652893
  0.2777121549752648  0.0554671769221726  0.8747912204617790
  0.7778704589646451  0.5556375530325255  0.8749234705955810
  0.6111630172906292  0.0555052654425720  0.8748829695090622
  0.9443972965846792  0.0555422431296767  0.8749058387072124
  0.0563390677490303  0.1116111084828839  0.1250000000000000
  0.5523422393440138  0.6089598498681512  0.1250000000000000
  0.3871978200280622  0.1095144984082849  0.1250000000000000
  0.8946123336355580  0.6140096000732271  0.1250000000000000
  0.7220196080556422  0.1106816564836455  0.1250000000000000
  0.0555663242294222  0.7777715216591798  0.6250000000000000
  0.3888834368434792  0.7777744450422664  0.6250000000000000
  0.2222062234012697  0.2777872969482692  0.6250000000000000
  0.7222277136861485  0.7777919053844802  0.6250000000000000
  0.5555723610964447  0.2777721118666232  0.6250000000000000
  0.8889045483404332  0.2777864956287981  0.6250000000000000
  0.2228018872944871  0.7780625075868208  0.1250000000000000
  0.0562867396393715  0.2779075984355249  0.1250000000000000
  0.5551185557471082  0.7772641162839438  0.1250000000000000
  0.8887725409906213  0.7775942236801202  0.1250000000000000
  0.7212581809573330  0.2761829796254772  0.1250000000000000
  0.0555507608086705  0.9444320138709775  0.6250000000000000
  0.3888835917457593  0.9444185494720867  0.6250000000000000
  0.2222132519104127  0.4444608725736759  0.6250000000000000
  0.5555595599737542  0.4444582767085534  0.6250000000000000
  0.7222241247917456  0.9444482081164574  0.6250000000000000
  0.8889212615266001  0.4444591772798005  0.6250000000000000
  0.0554133730673042  0.4445061366970894  0.1250000000000000
  0.2223248564592414  0.9440187014463945  0.1250000000000000
  0.5554681170185367  0.9444397026786487  0.1250000000000000
  0.3875654222271318  0.4453598077394030  0.1250000000000000
  0.8889821190184695  0.9445958832080528  0.1250000000000000
  0.7206164808289232  0.4405578319594003  0.1250000000000000
  0.2222205802208432  0.6111180128943643  0.6250000000000000
  0.0555427724923210  0.1111079998731660  0.6250000000000000
  0.5555523957993762  0.6111313693534581  0.6250000000000000
  0.3888849824951464  0.1110844030928974  0.6250000000000000
  0.8889257523171574  0.6111270429729646  0.6250000000000000
  0.0573707829346195  0.6115938171110968  0.1250000000000000
  0.7222311792326547  0.1111066662200799  0.6250000000000000
  0.2236089728515569  0.1112067390134859  0.1250000000000000
  0.3880256159424972  0.6118775084466006  0.1250000000000000
  0.7192185229905296  0.6119737863238747  0.1250000000000000
  0.5550902924033981  0.1111389615216961  0.1250000000000000
  0.3888806384551250  0.6111257222014069  0.6250000000000000
  0.8891364154412472  0.1111576744880491  0.1250000000000000
  0.2222214040421827  0.7777643011830020  0.6250000000000000
  0.0555495586829787  0.2777887445152122  0.6250000000000000
  0.3888856245544984  0.2777848763850245  0.6250000000000000
  0.5555522085665352  0.7777888284557264  0.6250000000000000
  0.8889051666024337  0.7777861667902729  0.6250000000000000
  0.7222497362474509  0.2777779239217339  0.6250000000000000
  0.0573381105228890  0.7791557817482765  0.1250000000000000
  0.3889438230315596  0.7782951155554682  0.1250000000000000
  0.2242668232603179  0.2796506953902909  0.1250000000000000
  0.7213692485888349  0.7783212409963904  0.1250000000000000
  0.5531669412120050  0.2773609610287130  0.1250000000000000
  0.8888414064074569  0.2775283469155529  0.1250000000000000
  0.0555644129980694  0.4444575987750866  0.6250000000000000
  0.2222137297804715  0.9444163774987516  0.6250000000000000
  0.5555550106597923  0.9444351367844011  0.6250000000000000
  0.3888812775939574  0.4444616620390895  0.6250000000000000
  0.8888897169568420  0.9444472273931330  0.6250000000000000
  0.0562187702354510  0.9450222859898660  0.1250000000000000
  0.7222535307526510  0.4444537266295313  0.6250000000000000
  0.3888977362701549  0.9446201516260120  0.1250000000000000
  0.2215070111390956  0.4449518521980541  0.1250000000000000
  0.2224832566749682  0.6115087535310560  0.1250000000000000
  0.7220665246292425  0.9445794711792682  0.1250000000000000
  0.8889530197308907  0.4445283109343835  0.1250000000000000
  0.0555736881600175  0.6111167403100782  0.6250000000000000
  0.2222069983759842  0.1110952121244343  0.6250000000000000
  0.7222401243270717  0.6111328691265455  0.6250000000000000
  0.5555637342890303  0.1110905386804499  0.6250000000000000
  0.8888895746982429  0.1111139023248022  0.6250000000000000
  0.4464632950411248  0.3863344483636874  0.1250000000000000
  0.7780927145112982  0.5556132609623621  0.1250000000000000
  0.3901476662714523  0.2772318667302510  0.1250000000000000
  0.5550110190036918  0.4423479195324130  0.1250000000000000
 
  0.00000000E+00  0.00000000E+00  0.00000000E+00
  0.00000000E+00  0.00000000E+00  0.00000000E+00
  0.00000000E+00  0.00000000E+00  0.00000000E+00
  0.00000000E+00  0.00000000E+00  0.00000000E+00
  0.00000000E+00  0.00000000E+00  0.00000000E+00
  0.00000000E+00  0.00000000E+00  0.00000000E+00
  0.00000000E+00  0.00000000E+00  0.00000000E+00
  0.00000000E+00  0.00000000E+00  0.00000000E+00
  0.00000000E+00  0.00000000E+00  0.00000000E+00
  0.00000000E+00  0.00000000E+00  0.00000000E+00
  0.00000000E+00  0.00000000E+00  0.00000000E+00
  0.00000000E+00  0.00000000E+00  0.00000000E+00
  0.00000000E+00  0.00000000E+00  0.00000000E+00
  0.00000000E+00  0.00000000E+00  0.00000000E+00
  0.00000000E+00  0.00000000E+00  0.00000000E+00
  0.00000000E+00  0.00000000E+00  0.00000000E+00
  0.00000000E+00  0.00000000E+00  0.00000000E+00
  0.00000000E+00  0.00000000E+00  0.00000000E+00
  0.00000000E+00  0.00000000E+00  0.00000000E+00
  0.00000000E+00  0.00000000E+00  0.00000000E+00
  0.00000000E+00  0.00000000E+00  0.00000000E+00
  0.00000000E+00  0.00000000E+00  0.00000000E+00
  0.00000000E+00  0.00000000E+00  0.00000000E+00
  0.00000000E+00  0.00000000E+00  0.00000000E+00
  0.00000000E+00  0.00000000E+00  0.00000000E+00
  0.00000000E+00  0.00000000E+00  0.00000000E+00
  0.00000000E+00  0.00000000E+00  0.00000000E+00
  0.00000000E+00  0.00000000E+00  0.00000000E+00
  0.00000000E+00  0.00000000E+00  0.00000000E+00
  0.00000000E+00  0.00000000E+00  0.00000000E+00
  0.00000000E+00  0.00000000E+00  0.00000000E+00
  0.00000000E+00  0.00000000E+00  0.00000000E+00
  0.00000000E+00  0.00000000E+00  0.00000000E+00
  0.00000000E+00  0.00000000E+00  0.00000000E+00
  0.00000000E+00  0.00000000E+00  0.00000000E+00
  0.00000000E+00  0.00000000E+00  0.00000000E+00
  0.00000000E+00  0.00000000E+00  0.00000000E+00
  0.00000000E+00  0.00000000E+00  0.00000000E+00
  0.00000000E+00  0.00000000E+00  0.00000000E+00
  0.00000000E+00  0.00000000E+00  0.00000000E+00
  0.00000000E+00  0.00000000E+00  0.00000000E+00
  0.00000000E+00  0.00000000E+00  0.00000000E+00
  0.00000000E+00  0.00000000E+00  0.00000000E+00
  0.00000000E+00  0.00000000E+00  0.00000000E+00
  0.00000000E+00  0.00000000E+00  0.00000000E+00
  0.00000000E+00  0.00000000E+00  0.00000000E+00
  0.00000000E+00  0.00000000E+00  0.00000000E+00
  0.00000000E+00  0.00000000E+00  0.00000000E+00
  0.00000000E+00  0.00000000E+00  0.00000000E+00
  0.00000000E+00  0.00000000E+00  0.00000000E+00
  0.00000000E+00  0.00000000E+00  0.00000000E+00
  0.00000000E+00  0.00000000E+00  0.00000000E+00
  0.00000000E+00  0.00000000E+00  0.00000000E+00
  0.00000000E+00  0.00000000E+00  0.00000000E+00
  0.00000000E+00  0.00000000E+00  0.00000000E+00
  0.00000000E+00  0.00000000E+00  0.00000000E+00
  0.00000000E+00  0.00000000E+00  0.00000000E+00
  0.00000000E+00  0.00000000E+00  0.00000000E+00
  0.00000000E+00  0.00000000E+00  0.00000000E+00
  0.00000000E+00  0.00000000E+00  0.00000000E+00
  0.00000000E+00  0.00000000E+00  0.00000000E+00
  0.00000000E+00  0.00000000E+00  0.00000000E+00
  0.00000000E+00  0.00000000E+00  0.00000000E+00
  0.00000000E+00  0.00000000E+00  0.00000000E+00
  0.00000000E+00  0.00000000E+00  0.00000000E+00
  0.00000000E+00  0.00000000E+00  0.00000000E+00
  0.00000000E+00  0.00000000E+00  0.00000000E+00
  0.00000000E+00  0.00000000E+00  0.00000000E+00
  0.00000000E+00  0.00000000E+00  0.00000000E+00
  0.00000000E+00  0.00000000E+00  0.00000000E+00
  0.00000000E+00  0.00000000E+00  0.00000000E+00
  0.00000000E+00  0.00000000E+00  0.00000000E+00
  0.00000000E+00  0.00000000E+00  0.00000000E+00
  0.00000000E+00  0.00000000E+00  0.00000000E+00
  0.00000000E+00  0.00000000E+00  0.00000000E+00
  0.00000000E+00  0.00000000E+00  0.00000000E+00
  0.00000000E+00  0.00000000E+00  0.00000000E+00
  0.00000000E+00  0.00000000E+00  0.00000000E+00
  0.00000000E+00  0.00000000E+00  0.00000000E+00
  0.00000000E+00  0.00000000E+00  0.00000000E+00
  0.00000000E+00  0.00000000E+00  0.00000000E+00
  0.00000000E+00  0.00000000E+00  0.00000000E+00
  0.00000000E+00  0.00000000E+00  0.00000000E+00
  0.00000000E+00  0.00000000E+00  0.00000000E+00
  0.00000000E+00  0.00000000E+00  0.00000000E+00
  0.00000000E+00  0.00000000E+00  0.00000000E+00
  0.00000000E+00  0.00000000E+00  0.00000000E+00
  0.00000000E+00  0.00000000E+00  0.00000000E+00
  0.00000000E+00  0.00000000E+00  0.00000000E+00
  0.00000000E+00  0.00000000E+00  0.00000000E+00
  0.00000000E+00  0.00000000E+00  0.00000000E+00
  0.00000000E+00  0.00000000E+00  0.00000000E+00
  0.00000000E+00  0.00000000E+00  0.00000000E+00
  0.00000000E+00  0.00000000E+00  0.00000000E+00
  0.00000000E+00  0.00000000E+00  0.00000000E+00
  0.00000000E+00  0.00000000E+00  0.00000000E+00
  0.00000000E+00  0.00000000E+00  0.00000000E+00
  0.00000000E+00  0.00000000E+00  0.00000000E+00
  0.00000000E+00  0.00000000E+00  0.00000000E+00
  0.00000000E+00  0.00000000E+00  0.00000000E+00
  0.00000000E+00  0.00000000E+00  0.00000000E+00
  0.00000000E+00  0.00000000E+00  0.00000000E+00
  0.00000000E+00  0.00000000E+00  0.00000000E+00
  0.00000000E+00  0.00000000E+00  0.00000000E+00
  0.00000000E+00  0.00000000E+00  0.00000000E+00
  0.00000000E+00  0.00000000E+00  0.00000000E+00
  0.00000000E+00  0.00000000E+00  0.00000000E+00
  0.00000000E+00  0.00000000E+00  0.00000000E+00
  0.00000000E+00  0.00000000E+00  0.00000000E+00
  0.00000000E+00  0.00000000E+00  0.00000000E+00
  0.00000000E+00  0.00000000E+00  0.00000000E+00
  0.00000000E+00  0.00000000E+00  0.00000000E+00
  0.00000000E+00  0.00000000E+00  0.00000000E+00
  0.00000000E+00  0.00000000E+00  0.00000000E+00
  0.00000000E+00  0.00000000E+00  0.00000000E+00
  0.00000000E+00  0.00000000E+00  0.00000000E+00
  0.00000000E+00  0.00000000E+00  0.00000000E+00
  0.00000000E+00  0.00000000E+00  0.00000000E+00
  0.00000000E+00  0.00000000E+00  0.00000000E+00
  0.00000000E+00  0.00000000E+00  0.00000000E+00
  0.00000000E+00  0.00000000E+00  0.00000000E+00
  0.00000000E+00  0.00000000E+00  0.00000000E+00
  0.00000000E+00  0.00000000E+00  0.00000000E+00
  0.00000000E+00  0.00000000E+00  0.00000000E+00
  0.00000000E+00  0.00000000E+00  0.00000000E+00
  0.00000000E+00  0.00000000E+00  0.00000000E+00
  0.00000000E+00  0.00000000E+00  0.00000000E+00
  0.00000000E+00  0.00000000E+00  0.00000000E+00
  0.00000000E+00  0.00000000E+00  0.00000000E+00
  0.00000000E+00  0.00000000E+00  0.00000000E+00
  0.00000000E+00  0.00000000E+00  0.00000000E+00
  0.00000000E+00  0.00000000E+00  0.00000000E+00
  0.00000000E+00  0.00000000E+00  0.00000000E+00
  0.00000000E+00  0.00000000E+00  0.00000000E+00
  0.00000000E+00  0.00000000E+00  0.00000000E+00
  0.00000000E+00  0.00000000E+00  0.00000000E+00
  0.00000000E+00  0.00000000E+00  0.00000000E+00
  0.00000000E+00  0.00000000E+00  0.00000000E+00
  0.00000000E+00  0.00000000E+00  0.00000000E+00
  0.00000000E+00  0.00000000E+00  0.00000000E+00
  0.00000000E+00  0.00000000E+00  0.00000000E+00
  0.00000000E+00  0.00000000E+00  0.00000000E+00
  0.00000000E+00  0.00000000E+00  0.00000000E+00
  0.00000000E+00  0.00000000E+00  0.00000000E+00
  0.00000000E+00  0.00000000E+00  0.00000000E+00
  0.00000000E+00  0.00000000E+00  0.00000000E+00
  0.00000000E+00  0.00000000E+00  0.00000000E+00
  0.00000000E+00  0.00000000E+00  0.00000000E+00
  0.00000000E+00  0.00000000E+00  0.00000000E+00
  0.00000000E+00  0.00000000E+00  0.00000000E+00
  0.00000000E+00  0.00000000E+00  0.00000000E+00
  0.00000000E+00  0.00000000E+00  0.00000000E+00
  0.00000000E+00  0.00000000E+00  0.00000000E+00
  0.00000000E+00  0.00000000E+00  0.00000000E+00
  0.00000000E+00  0.00000000E+00  0.00000000E+00
  0.00000000E+00  0.00000000E+00  0.00000000E+00
  0.00000000E+00  0.00000000E+00  0.00000000E+00
  0.00000000E+00  0.00000000E+00  0.00000000E+00
  0.00000000E+00  0.00000000E+00  0.00000000E+00
  0.00000000E+00  0.00000000E+00  0.00000000E+00
  0.00000000E+00  0.00000000E+00  0.00000000E+00
  0.00000000E+00  0.00000000E+00  0.00000000E+00
  0.00000000E+00  0.00000000E+00  0.00000000E+00
  0.00000000E+00  0.00000000E+00  0.00000000E+00
  0.00000000E+00  0.00000000E+00  0.00000000E+00
  0.00000000E+00  0.00000000E+00  0.00000000E+00
  0.00000000E+00  0.00000000E+00  0.00000000E+00
  0.00000000E+00  0.00000000E+00  0.00000000E+00
  0.00000000E+00  0.00000000E+00  0.00000000E+00
  0.00000000E+00  0.00000000E+00  0.00000000E+00
  0.00000000E+00  0.00000000E+00  0.00000000E+00
  0.00000000E+00  0.00000000E+00  0.00000000E+00
  0.00000000E+00  0.00000000E+00  0.00000000E+00
  0.00000000E+00  0.00000000E+00  0.00000000E+00
  0.00000000E+00  0.00000000E+00  0.00000000E+00
  0.00000000E+00  0.00000000E+00  0.00000000E+00
  0.00000000E+00  0.00000000E+00  0.00000000E+00
  0.00000000E+00  0.00000000E+00  0.00000000E+00
  0.00000000E+00  0.00000000E+00  0.00000000E+00
  0.00000000E+00  0.00000000E+00  0.00000000E+00
  0.00000000E+00  0.00000000E+00  0.00000000E+00
  0.00000000E+00  0.00000000E+00  0.00000000E+00
  0.00000000E+00  0.00000000E+00  0.00000000E+00
  0.00000000E+00  0.00000000E+00  0.00000000E+00
  0.00000000E+00  0.00000000E+00  0.00000000E+00
  0.00000000E+00  0.00000000E+00  0.00000000E+00
  0.00000000E+00  0.00000000E+00  0.00000000E+00
  0.00000000E+00  0.00000000E+00  0.00000000E+00
  0.00000000E+00  0.00000000E+00  0.00000000E+00
  0.00000000E+00  0.00000000E+00  0.00000000E+00
  0.00000000E+00  0.00000000E+00  0.00000000E+00
  0.00000000E+00  0.00000000E+00  0.00000000E+00
  0.00000000E+00  0.00000000E+00  0.00000000E+00
  0.00000000E+00  0.00000000E+00  0.00000000E+00
  0.00000000E+00  0.00000000E+00  0.00000000E+00
  0.00000000E+00  0.00000000E+00  0.00000000E+00
  0.00000000E+00  0.00000000E+00  0.00000000E+00
  0.00000000E+00  0.00000000E+00  0.00000000E+00
  0.00000000E+00  0.00000000E+00  0.00000000E+00
  0.00000000E+00  0.00000000E+00  0.00000000E+00
  0.00000000E+00  0.00000000E+00  0.00000000E+00
  0.00000000E+00  0.00000000E+00  0.00000000E+00
  0.00000000E+00  0.00000000E+00  0.00000000E+00
  0.00000000E+00  0.00000000E+00  0.00000000E+00
  0.00000000E+00  0.00000000E+00  0.00000000E+00
  0.00000000E+00  0.00000000E+00  0.00000000E+00
  0.00000000E+00  0.00000000E+00  0.00000000E+00
  0.00000000E+00  0.00000000E+00  0.00000000E+00
  0.00000000E+00  0.00000000E+00  0.00000000E+00
  0.00000000E+00  0.00000000E+00  0.00000000E+00
  0.00000000E+00  0.00000000E+00  0.00000000E+00
  0.00000000E+00  0.00000000E+00  0.00000000E+00
  0.00000000E+00  0.00000000E+00  0.00000000E+00
  0.00000000E+00  0.00000000E+00  0.00000000E+00
  0.00000000E+00  0.00000000E+00  0.00000000E+00
  0.00000000E+00  0.00000000E+00  0.00000000E+00
  0.00000000E+00  0.00000000E+00  0.00000000E+00
  0.00000000E+00  0.00000000E+00  0.00000000E+00
  0.00000000E+00  0.00000000E+00  0.00000000E+00
  0.00000000E+00  0.00000000E+00  0.00000000E+00
  0.00000000E+00  0.00000000E+00  0.00000000E+00
  0.00000000E+00  0.00000000E+00  0.00000000E+00
  0.00000000E+00  0.00000000E+00  0.00000000E+00
  0.00000000E+00  0.00000000E+00  0.00000000E+00
  0.00000000E+00  0.00000000E+00  0.00000000E+00
  0.00000000E+00  0.00000000E+00  0.00000000E+00
  0.00000000E+00  0.00000000E+00  0.00000000E+00
  0.00000000E+00  0.00000000E+00  0.00000000E+00
  0.00000000E+00  0.00000000E+00  0.00000000E+00
  0.00000000E+00  0.00000000E+00  0.00000000E+00
  0.00000000E+00  0.00000000E+00  0.00000000E+00
  0.00000000E+00  0.00000000E+00  0.00000000E+00
  0.00000000E+00  0.00000000E+00  0.00000000E+00
  0.00000000E+00  0.00000000E+00  0.00000000E+00
  0.00000000E+00  0.00000000E+00  0.00000000E+00
  0.00000000E+00  0.00000000E+00  0.00000000E+00
  0.00000000E+00  0.00000000E+00  0.00000000E+00
  0.00000000E+00  0.00000000E+00  0.00000000E+00
  0.00000000E+00  0.00000000E+00  0.00000000E+00
  0.00000000E+00  0.00000000E+00  0.00000000E+00
  0.00000000E+00  0.00000000E+00  0.00000000E+00
  0.00000000E+00  0.00000000E+00  0.00000000E+00
  0.00000000E+00  0.00000000E+00  0.00000000E+00
  0.00000000E+00  0.00000000E+00  0.00000000E+00
  0.00000000E+00  0.00000000E+00  0.00000000E+00
  0.00000000E+00  0.00000000E+00  0.00000000E+00
  0.00000000E+00  0.00000000E+00  0.00000000E+00