C N B 
 1.0
 17.527901000000000   0.000000000000000   0.000000000000000
 -8.763950499999996  15.179607541018669   0.000000000000000
  0.000000000000001   0.000000000000002  15.000000000000000
C N B
   3  47  48
Cartesian
  3.737746012695501   7.932240537027175   1.666455000000000 
  4.965715700953502   7.221561671171763   1.669620000000000 
  3.732478878445002   9.361446125836705   1.660485000000000 
  8.765747109852501  13.738106470100913   1.665255000000000 
 16.277854920432500   0.727816642769222   1.665030000000000 
 15.028965682331002   2.896208400396198   1.665345000000000 
 13.779740492793668   5.059869180339556   1.665105000000000 
 12.524587951401500   7.227360281252432   1.664220000000000 
 11.272114257545503   9.396010092207606   1.665585000000000 
 10.019035851105002  11.567103819976882   1.666110000000000 
 -6.260904889546497  13.732672170601228   1.664385000000000 
  1.249257324022500   0.718739237459693   1.665180000000000 
  0.003163786130501   2.894250231023407   1.664415000000000 
 -1.241720326592499   5.065784167411373   1.664655000000000 
 -2.499908116174498   7.229758659243913   1.665495000000000 
 -3.761505082500997   9.396450300826293   1.665465000000000 
 -5.009921067275497  11.565358165109666   1.664580000000000 
 -3.758463991677497  13.732854325891720   1.664490000000000 
  3.754301115190001   0.715475621838374   1.665885000000000 
  2.497068596212500   2.874456022789918   1.665600000000000 
  1.263700314446501   5.065723448981209   1.665225000000000 
  0.012287058601001   7.235572448932122   1.665795000000000 
 -1.271193492123998   9.399273707828923   1.666965000000000 
 -2.511730685398997  11.567832441138851   1.665765000000000 
 -1.256163317016497  13.737833237165175   1.665135000000000 
  6.261185335962500   0.718040975512806   1.665390000000000 
  5.009973650978501   2.874213149069262   1.666275000000000 
  3.745756263452501   5.013414521394859   1.665630000000000 
  2.544332581259002   7.249294814149204   1.665750000000000 
  1.203886352284003   9.411417393861738   1.665555000000000 
 -0.014670853136996  11.575938351565755   1.666440000000000 
  1.246566791219002  13.744163133509780   1.665165000000000 
  8.765563066892001   0.724310153427247   1.664205000000000 
  7.517909545811001   2.882637831254527   1.664880000000000 
  6.265882813430499   5.036366087996879   1.665315000000000 
  2.485351194394003  11.582435223593311   1.663920000000000 
  3.753699323922335  13.737878775987797   1.664370000000000 
 11.270247536089000   0.726222783977415   1.665015000000000 
 10.020175164670000   2.891897391854549   1.665090000000000 
  8.763950500000000   5.059869180339556   1.664730000000000 
  7.525569238548001   7.226828994988496   1.665450000000000 
  6.291605008148002   9.414271160079450   1.664145000000000 
  5.016458974348502  11.580294898930028   1.662660000000000 
  6.263201044577503  13.743358614310106   1.664610000000000 
 13.774274708998499   0.727664846693812   1.665405000000000 
 12.524360088688500   2.894159153378161   1.665840000000000 
 11.272952675476668   5.059869180339556   1.665135000000000 
 10.024162762147501   7.226145912649150   1.665015000000000 
  8.777902709196002   9.398666523527284   1.666455000000000 
  7.520994456387004  11.576150866071329   1.665195000000000 
  7.513396111303503  14.461262973355042   1.665210000000000 
 15.025538977685500   1.448453331171543   1.665690000000000 
 13.774958297137502   3.616404880179829   1.665870000000000 
 12.522905272905502   5.782656313143520   1.664940000000000 
 11.271667296070001   7.949742624521968   1.664985000000000 
 10.024568825187336  10.119738360679111   1.666740000000000 
  8.769506844617004  12.294723127848069   1.666080000000000 
 -7.512475896500997  14.454386611138961   1.665165000000000 
  0.000981562456000   1.445432589270880   1.665060000000000 
 -1.248004079100999   3.615812875485729   1.664805000000000 
 -2.500661815917499   5.785479720146150   1.665315000000000 
 -3.755983793685998   7.951989206438039   1.665270000000000 
 -5.010198592374664  10.119738360679111   1.665465000000000 
 -6.259564005119998  12.288772721691991   1.665060000000000 
 -5.009517925552498  14.452246286475678   1.664895000000000 
  2.500731927521500   1.431361093080356   1.665960000000000 
  1.256040621709501   3.608025736817186   1.665165000000000 
  0.006029597944002   5.785677055044183   1.665285000000000 
 -1.255260630114998   7.957939612594120   1.666605000000000 
 -2.518724317897998  10.124099967912565   1.666515000000000 
 -3.760988009421497  12.289546881676584   1.664880000000000 
 -2.503346506087331  14.455661698172408   1.665210000000000 
  5.009290062839500   1.434245218513149   1.666575000000000 
  3.752373046080002   3.579260380526956   1.665990000000000 
  2.528320843695502   5.749018302832623   1.666140000000000 
  1.236637235302502   7.989164065305995   1.665735000000000 
 -0.033487054860497  10.133951533206686   1.666935000000000 
 -1.261956288296997  12.295633904300532   1.666260000000000 
 -0.003076146625496  14.461688002366191   1.665045000000000 
  7.514561716720000   1.441455532095133   1.664925000000000 
  6.266417414411001   3.598659918964378   1.665765000000000 
  5.002173735033502   5.736206714068003   1.667130000000000 
  2.453888612099002  10.140220711121128   1.663260000000000 
  1.240344386364003  12.302737960629729   1.665645000000000 
  2.504193687969003  14.460094143574384   1.665150000000000 
 10.018063052599500   1.447026448062687   1.664850000000000 
  8.767307093041500   3.613035007305723   1.665000000000000 
  7.512475896501002   5.782610774320898   1.665270000000000 
  6.269195586719501   7.964815974810200   1.666620000000000 
  5.033995639299002  10.125435773376175   1.662180000000000 
  3.757491193172003  12.288195896605433   1.663620000000000 
  5.008387375938005  14.459911988283892   1.664880000000000 
 12.522002586004000   1.448195277843345   1.665705000000000 
 11.271176514842001   3.614993176678514   1.665825000000000 
 10.018580125679001   5.780910658276304   1.665045000000000 
  8.769874930538002   7.946069159497043   1.666050000000000 
  7.540082340576002  10.135150722202427   1.665510000000000 
  6.260028494496503  12.297622432888405   1.664235000000000 
