B In N                                  
   1.0000000000000000     
     8.7639499999999995  -15.1796066749929999    0.0000000000000000
     8.7639499999999995   15.1796066749929999    0.0000000000000000
     0.0000000000000000    0.0000000000000000   15.0000000000000000
   B    In   N 
    49     1    47
Selective dynamics
Direct
  0.9049292463336825  0.9512561995283897  0.1190437088376496   T   T   T
  0.9037408819182789  0.0933399946200200  0.1189701984863885   T   T   T
  0.9036754824816728  0.2361863436012654  0.1187079687632184   T   T   T
  0.9042380397625904  0.3792808885135792  0.1187704991350206   T   T   T
  0.9056434470098047  0.5226184400143643  0.1196929983478903   T   T   T
  0.9070448541686852  0.6661371017574108  0.1196617884286631   T   T   T
  0.9067356519216920  0.8094120306890676  0.1185606950103848   T   T   T
  0.0478336628682187  0.9509976444730314  0.1208725786431684   T   T   T
  0.0464927354223117  0.0930558801154207  0.1205532075350469   T   T   T
  0.0460081944817139  0.2360138608933140  0.1196202249238520   T   T   T
  0.0461683092600087  0.3791341803735764  0.1180536325700944   T   T   T
  0.0471364275866083  0.5223184037316452  0.1187971329248977   T   T   T
  0.0482470209535623  0.6654536012577694  0.1204840226004190   T   T   T
  0.0484574238055307  0.8084316341959232  0.1210598301556870   T   T   T
  0.1903007795994947  0.9505454361852140  0.1199657265464641   T   T   T
  0.1893679238730577  0.0926608025088541  0.1194060426400674   T   T   T
  0.1877095081821954  0.2348354412311747  0.1188787741732397   T   T   T
  0.1879233550601450  0.3789935374501153  0.1145680622004762   T   T   T
  0.1886633896641238  0.5221726487996697  0.1125518994825554   T   T   T
  0.1899435227162460  0.6652133271528772  0.1165523186754665   T   T   T
  0.1904687450328635  0.8079996352267991  0.1193501769362768   T   T   T
  0.3328242920363612  0.9503822246886025  0.1184380805474052   T   T   T
  0.3323973602622164  0.0925253864341320  0.1176432034895708   T   T   T
  0.3305084875063738  0.2335870015584831  0.1153004324349563   T   T   T
  0.3272092329096985  0.3775218005138644  0.1075774280989093   T   T   T
  0.3297268789532400  0.5217549156325536  0.0946680030678074   T   T   T
  0.3314427138593015  0.6651689910013405  0.1033492401528560   T   T   T
  0.3326921526223974  0.8079180243052788  0.1145640098301393   T   T   T
  0.4754758103644131  0.9506146110469896  0.1162591891215859   T   T   T
  0.4754401159834840  0.0927123068829908  0.1171132084554580   T   T   T
  0.4749708362749632  0.2339501050861750  0.1139195337857915   T   T   T
  0.4695504164463925  0.3672467079281533  0.1054013665435375   T   T   T
  0.5369247994014883  0.6430838477765604  0.0140557374236914   T   T   T
  0.4699560901649509  0.6695208955897136  0.0644300285248315   T   T   T
  0.4751258046190882  0.8087349624537403  0.1051025939848634   T   T   T
  0.6182015421077403  0.9505616612864314  0.1126424008383255   T   T   T
  0.6183308139321354  0.0932252928333188  0.1169803207275988   T   T   T
  0.6186084522638475  0.2359036370035169  0.1156077167227345   T   T   T
  0.6199553190295416  0.3789773247814684  0.1080106913770536   T   T   T
  0.6342557655916404  0.5296891781054586  0.0843882784144824   T   T   T
  0.6320618378861128  0.6734067072336996  0.0636371178147741   T   T   T
  0.6184810213563463  0.8085773394114844  0.0960067234250404   T   T   T
  0.7612724376349496  0.9507643251185082  0.1137427164216590   T   T   T
  0.7610095980349000  0.0933616862138105  0.1168900920795557   T   T   T
  0.7612775806568702  0.2362286784596288  0.1175464964038924   T   T   T
  0.7622197914719422  0.3793540860108368  0.1160799469440356   T   T   T
  0.7651868596602017  0.5234398630742672  0.1116504872523097   T   T   T
  0.7682744522882587  0.6686258629313405  0.1055232585494899   T   T   T
  0.7640080596124595  0.8099924928083255  0.1080915415780780   T   T   T
  0.4947985223407992  0.5066049452772725  0.0524322113882907   T   T   T
  0.9528915215067791  0.9038889685924126  0.1203381816731952   T   T   T
  0.9516625781918556  0.0459471424804023  0.1200600952174085   T   T   T
  0.9510571988636566  0.1884486835013869  0.1194728215028185   T   T   T
  0.9511233221793107  0.3313886032827773  0.1187831997964431   T   T   T
  0.9519340366263694  0.4744709997177732  0.1196599982079093   T   T   T
  0.9530257685724625  0.6176619648043614  0.1209618725019860   T   T   T
  0.9533099514058508  0.7609339821589757  0.1207108466528526   T   T   T
  0.0953824788101755  0.9034214075266858  0.1208914876157185   T   T   T
  0.0947003940403998  0.0459091148027724  0.1206408595829389   T   T   T
  0.0934251854971642  0.1879713802833808  0.1203357880168475   T   T   T
  0.0933046161014994  0.3311860121474994  0.1182335379873519   T   T   T
  0.0938523451271559  0.4742950980391853  0.1171190735046582   T   T   T
  0.0949066232043505  0.6174489720533319  0.1190977090618484   T   T   T
  0.0954294652419320  0.7605176650497905  0.1205929341638048   T   T   T
  0.2378952680371140  0.9031991912386177  0.1195302236792213   T   T   T
  0.2376732698619593  0.0458552658356366  0.1190194575918200   T   T   T
  0.2365899933558691  0.1879974941346248  0.1181483613320959   T   T   T
  0.2341632097606101  0.3295025935337103  0.1162326119797241   T   T   T
  0.2354938167817577  0.4741658450487755  0.1085095612697263   T   T   T
  0.2368308094491035  0.6173637786602243  0.1121252372775336   T   T   T
  0.2376872372444714  0.7603666579516918  0.1172204608832605   T   T   T
  0.3804623255506402  0.9031399675243611  0.1171211560076759   T   T   T
  0.3804887605291595  0.0458444095656140  0.1178855302464070   T   T   T
  0.3802383501082651  0.1884515308186738  0.1156044017452879   T   T   T
  0.3783523602626355  0.3304656257978889  0.1101745985242271   T   T   T
  0.3713752234348500  0.4693505968452427  0.0938816791680235   T   T   T
  0.3776909534537571  0.6175789335767341  0.0866646387441585   T   T   T
  0.3799765234626903  0.7604420671772311  0.1076648575552438   T   T   T
  0.5231575443775431  0.9034030445533185  0.1129339196870348   T   T   T
  0.5232346586730678  0.0458880573125577  0.1173766535756352   T   T   T
  0.5233309548410274  0.1884222478501308  0.1155585348163409   T   T   T
  0.5239136978222609  0.3311040254699977  0.1091025505656257   T   T   T
  0.5225887388372017  0.7619841871172507  0.0906565541980466   T   T   T
  0.6658874317034584  0.9027186487189528  0.1087729639809873   T   T   T
  0.6658603506086903  0.0457437502318941  0.1160594951752454   T   T   T
  0.6659586632160286  0.1887835012004478  0.1170833885744419   T   T   T
  0.6663307395687521  0.3319169831985148  0.1136511019672628   T   T   T
  0.6683956276972313  0.4749459935568770  0.1019067316916513   T   T   T
  0.6747816280545096  0.6216728038788739  0.0836093222406658   T   T   T
  0.6697559250897152  0.7629056242207802  0.0928373129162259   T   T   T
  0.8098748892007356  0.9039201670746732  0.1153653546070057   T   T   T
  0.8085528188194405  0.0457044383636235  0.1169663896415297   T   T   T
  0.8084919645784515  0.1885980789205933  0.1179192321287600   T   T   T
  0.8088114397236793  0.3316120483559987  0.1178098572960072   T   T   T
  0.8100182210557526  0.4746702190048112  0.1170839653250403   T   T   T
  0.8116810312854413  0.6181845415246595  0.1144634129163962   T   T   T
  0.8118078079275874  0.7621513697158916  0.1119326884652423   T   T   T

  0.00000000E+00  0.00000000E+00  0.00000000E+00
  0.00000000E+00  0.00000000E+00  0.00000000E+00
  0.00000000E+00  0.00000000E+00  0.00000000E+00
  0.00000000E+00  0.00000000E+00  0.00000000E+00
  0.00000000E+00  0.00000000E+00  0.00000000E+00
  0.00000000E+00  0.00000000E+00  0.00000000E+00
  0.00000000E+00  0.00000000E+00  0.00000000E+00
  0.00000000E+00  0.00000000E+00  0.00000000E+00
  0.00000000E+00  0.00000000E+00  0.00000000E+00
  0.00000000E+00  0.00000000E+00  0.00000000E+00
  0.00000000E+00  0.00000000E+00  0.00000000E+00
  0.00000000E+00  0.00000000E+00  0.00000000E+00
  0.00000000E+00  0.00000000E+00  0.00000000E+00
  0.00000000E+00  0.00000000E+00  0.00000000E+00
  0.00000000E+00  0.00000000E+00  0.00000000E+00
  0.00000000E+00  0.00000000E+00  0.00000000E+00
  0.00000000E+00  0.00000000E+00  0.00000000E+00
  0.00000000E+00  0.00000000E+00  0.00000000E+00
  0.00000000E+00  0.00000000E+00  0.00000000E+00
  0.00000000E+00  0.00000000E+00  0.00000000E+00
  0.00000000E+00  0.00000000E+00  0.00000000E+00
  0.00000000E+00  0.00000000E+00  0.00000000E+00
  0.00000000E+00  0.00000000E+00  0.00000000E+00
  0.00000000E+00  0.00000000E+00  0.00000000E+00
  0.00000000E+00  0.00000000E+00  0.00000000E+00
  0.00000000E+00  0.00000000E+00  0.00000000E+00
  0.00000000E+00  0.00000000E+00  0.00000000E+00
  0.00000000E+00  0.00000000E+00  0.00000000E+00
  0.00000000E+00  0.00000000E+00  0.00000000E+00
  0.00000000E+00  0.00000000E+00  0.00000000E+00
  0.00000000E+00  0.00000000E+00  0.00000000E+00
  0.00000000E+00  0.00000000E+00  0.00000000E+00
  0.00000000E+00  0.00000000E+00  0.00000000E+00
  0.00000000E+00  0.00000000E+00  0.00000000E+00
  0.00000000E+00  0.00000000E+00  0.00000000E+00
  0.00000000E+00  0.00000000E+00  0.00000000E+00
  0.00000000E+00  0.00000000E+00  0.00000000E+00
  0.00000000E+00  0.00000000E+00  0.00000000E+00
  0.00000000E+00  0.00000000E+00  0.00000000E+00
  0.00000000E+00  0.00000000E+00  0.00000000E+00
  0.00000000E+00  0.00000000E+00  0.00000000E+00
  0.00000000E+00  0.00000000E+00  0.00000000E+00
  0.00000000E+00  0.00000000E+00  0.00000000E+00
  0.00000000E+00  0.00000000E+00  0.00000000E+00
  0.00000000E+00  0.00000000E+00  0.00000000E+00
  0.00000000E+00  0.00000000E+00  0.00000000E+00
  0.00000000E+00  0.00000000E+00  0.00000000E+00
  0.00000000E+00  0.00000000E+00  0.00000000E+00
  0.00000000E+00  0.00000000E+00  0.00000000E+00
  0.00000000E+00  0.00000000E+00  0.00000000E+00
  0.00000000E+00  0.00000000E+00  0.00000000E+00
  0.00000000E+00  0.00000000E+00  0.00000000E+00
  0.00000000E+00  0.00000000E+00  0.00000000E+00
  0.00000000E+00  0.00000000E+00  0.00000000E+00
  0.00000000E+00  0.00000000E+00  0.00000000E+00
  0.00000000E+00  0.00000000E+00  0.00000000E+00
  0.00000000E+00  0.00000000E+00  0.00000000E+00
  0.00000000E+00  0.00000000E+00  0.00000000E+00
  0.00000000E+00  0.00000000E+00  0.00000000E+00
  0.00000000E+00  0.00000000E+00  0.00000000E+00
  0.00000000E+00  0.00000000E+00  0.00000000E+00
  0.00000000E+00  0.00000000E+00  0.00000000E+00
  0.00000000E+00  0.00000000E+00  0.00000000E+00
  0.00000000E+00  0.00000000E+00  0.00000000E+00
  0.00000000E+00  0.00000000E+00  0.00000000E+00
  0.00000000E+00  0.00000000E+00  0.00000000E+00
  0.00000000E+00  0.00000000E+00  0.00000000E+00
  0.00000000E+00  0.00000000E+00  0.00000000E+00
  0.00000000E+00  0.00000000E+00  0.00000000E+00
  0.00000000E+00  0.00000000E+00  0.00000000E+00
  0.00000000E+00  0.00000000E+00  0.00000000E+00
  0.00000000E+00  0.00000000E+00  0.00000000E+00
  0.00000000E+00  0.00000000E+00  0.00000000E+00
  0.00000000E+00  0.00000000E+00  0.00000000E+00
  0.00000000E+00  0.00000000E+00  0.00000000E+00
  0.00000000E+00  0.00000000E+00  0.00000000E+00
  0.00000000E+00  0.00000000E+00  0.00000000E+00
  0.00000000E+00  0.00000000E+00  0.00000000E+00
  0.00000000E+00  0.00000000E+00  0.00000000E+00
  0.00000000E+00  0.00000000E+00  0.00000000E+00
  0.00000000E+00  0.00000000E+00  0.00000000E+00
  0.00000000E+00  0.00000000E+00  0.00000000E+00
  0.00000000E+00  0.00000000E+00  0.00000000E+00
  0.00000000E+00  0.00000000E+00  0.00000000E+00
  0.00000000E+00  0.00000000E+00  0.00000000E+00
  0.00000000E+00  0.00000000E+00  0.00000000E+00
  0.00000000E+00  0.00000000E+00  0.00000000E+00
  0.00000000E+00  0.00000000E+00  0.00000000E+00
  0.00000000E+00  0.00000000E+00  0.00000000E+00
  0.00000000E+00  0.00000000E+00  0.00000000E+00
  0.00000000E+00  0.00000000E+00  0.00000000E+00
  0.00000000E+00  0.00000000E+00  0.00000000E+00
  0.00000000E+00  0.00000000E+00  0.00000000E+00
  0.00000000E+00  0.00000000E+00  0.00000000E+00
  0.00000000E+00  0.00000000E+00  0.00000000E+00
  0.00000000E+00  0.00000000E+00  0.00000000E+00
  0.00000000E+00  0.00000000E+00  0.00000000E+00
