Al B Ga N                               
   1.0000000000000000     
     8.7639499999999995  -15.1796066749929999    0.0000000000000000
     8.7639499999999995   15.1796066749929999    0.0000000000000000
     0.0000000000000000    0.0000000000000000   15.0000000000000000
   Al   B    Ga   N 
     1    48     1    48
Selective dynamics
Direct
  0.5452647511027209  0.4547583567869111  0.2759706719857817   T   T   T
  0.9053287907238712  0.9537111390904514  0.1030005601789625   T   T   T
  0.9040230794793231  0.0959784561009158  0.1034123732682986   T   T   T
  0.9035713239019501  0.2387648433177603  0.1042394768369945   T   T   T
  0.9037014491574027  0.3816139017027851  0.1058920752819361   T   T   T
  0.9045188890364813  0.5245089584982097  0.1080739312377474   T   T   T
  0.9055991849007299  0.6675621842542512  0.1083779440350412   T   T   T
  0.9060998380037120  0.8109765362241887  0.1044914745923151   T   T   T
  0.0475892971634906  0.9524011075599219  0.1027229895361472   T   T   T
  0.0462966156023086  0.0946772451578397  0.1029955867329448   T   T   T
  0.0458448425190312  0.2378358512468139  0.1039435925955914   T   T   T
  0.0462193469546293  0.3810575248050725  0.1042767315955118   T   T   T
  0.0471776841529845  0.5239938703042881  0.1044682157004857   T   T   T
  0.0480336928259106  0.6668361047191596  0.1046760146075982   T   T   T
  0.0481012127905416  0.8096983113547864  0.1037112621428165   T   T   T
  0.1903058786153835  0.9519056055441126  0.1037637798097677   T   T   T
  0.1890198585589573  0.0939021372551494  0.1045375376475945   T   T   T
  0.1869178684916335  0.2354582913797714  0.1072203434763850   T   T   T
  0.1879540661317733  0.3798575354309648  0.1076414841684041   T   T   T
  0.1898529265966999  0.5233542555660122  0.1056127197232257   T   T   T
  0.1909601116376720  0.6663600853250387  0.1042788976296194   T   T   T
  0.1907830204257905  0.8092160857844704  0.1038682568067628   T   T   T
  0.3331696044754580  0.9519719791979142  0.1048006522556619   T   T   T
  0.3324390423590415  0.0944010262515818  0.1085746845233544   T   T   T
  0.3297904740608217  0.2349515206451684  0.1160157991047654   T   T   T
  0.3260243069200683  0.3759254077037824  0.1202636247666291   T   T   T
  0.3323253569829419  0.5216131794774412  0.1131593976748562   T   T   T
  0.3343004134347680  0.6657042743307144  0.1068143780830937   T   T   T
  0.3336537881998183  0.8090530048760201  0.1043589337782933   T   T   T
  0.4760160659895050  0.9528309976623461  0.1046249269929973   T   T   T
  0.4754943385518828  0.0954815338991111  0.1083157675548634   T   T   T
  0.4745840013702249  0.2374423411199160  0.1197759925915420   T   T   T
  0.4685387434820854  0.3740955257787206  0.1407455440127592   T   T   T
  0.4783744642136867  0.6676596984232432  0.1133231650994091   T   T   T
  0.4766574201718683  0.8101476538957826  0.1057315493971274   T   T   T
  0.6189486551255712  0.9537946526984982  0.1044037395994977   T   T   T
  0.6183835625687166  0.0963052271742555  0.1060256789791936   T   T   T
  0.6180542945612402  0.2390394169983168  0.1127148455273925   T   T   T
  0.6181884471074639  0.3818215278562320  0.1268818048261480   T   T   T
  0.6259407146144653  0.5314549358977274  0.1408058595039066   T   T   T
  0.6240634187164673  0.6739709227348243  0.1205328231853144   T   T   T
  0.6201357064741018  0.8120407374087293  0.1078378448857649   T   T   T
  0.7621589809343874  0.9541518944942808  0.1040166576010506   T   T   T
  0.7612356260880091  0.0964430809323886  0.1042997202682585   T   T   T
  0.7608651496138918  0.2391409879773860  0.1069169708185242   T   T   T
  0.7609653107425487  0.3819494621967152  0.1125958785458891   T   T   T
  0.7625608466894178  0.5254156504403582  0.1195622107229681   T   T   T
  0.7650416319663762  0.6702047577853634  0.1159616626461428   T   T   T
  0.7645259932828026  0.8130683483442596  0.1073414826556416   T   T   T
  0.4922914034722012  0.5077042108070629  0.1120536711642188   T   T   T
  0.9528476728802104  0.9057612240506288  0.1027498284664503   T   T   T
  0.9516923046615773  0.0482786255633485  0.1030505135905315   T   T   T
  0.9509151339130355  0.1909143009848719  0.1036080335277489   T   T   T
  0.9509763288858935  0.3338316886668480  0.1043928263328979   T   T   T
  0.9517023207202513  0.4767129085242274  0.1056335316341759   T   T   T
  0.9526450896960341  0.6195600153909879  0.1066878462827603   T   T   T
  0.9530370691981318  0.7625760606165670  0.1046406941336215   T   T   T
  0.0952670402310574  0.9047359521662059  0.1031755953119529   T   T   T
  0.0942453233773008  0.0471474153311320  0.1027720867718500   T   T   T
  0.0925749190931526  0.1891817768458353  0.1037420933493820   T   T   T
  0.0929894420885518  0.3328526364792737  0.1046465226171094   T   T   T
  0.0943515338002072  0.4761886541263962  0.1042298878729468   T   T   T
  0.0954142736599977  0.6191317164722037  0.1041242874860018   T   T   T
  0.0955626565291396  0.7619412520965625  0.1039990763008589   T   T   T
  0.2380644202113515  0.9044537496708784  0.1040471314708853   T   T   T
  0.2374367024230253  0.0469686241225205  0.1047545130284959   T   T   T
  0.2354441753573511  0.1884232355915572  0.1074005056715066   T   T   T
  0.2325452399870613  0.3294200659155564  0.1109216006085987   T   T   T
  0.2364125612455439  0.4751535551717225  0.1081022645343808   T   T   T
  0.2385028267011791  0.6186788642677428  0.1053605303082179   T   T   T
  0.2383786039672771  0.7616398872684726  0.1039483031263941   T   T   T
  0.3808746027886016  0.9045890420870393  0.1042608432393024   T   T   T
  0.3804346294879295  0.0473539798449281  0.1068755213288881   T   T   T
  0.3795592603009368  0.1894367347119612  0.1153080266231399   T   T   T
  0.3750373170364227  0.3287584503463847  0.1268711095586852   T   T   T
  0.3724486229584159  0.4684295231452467  0.1205398249652916   T   T   T
  0.3820375739900612  0.6179617020632264  0.1105057400243865   T   T   T
  0.3813307624883251  0.7615040193426594  0.1054563406831548   T   T   T
  0.5238350208176925  0.9056527385224413  0.1043592240855347   T   T   T
  0.5232891040416874  0.0483044887229553  0.1058314812655539   T   T   T
  0.5228379527452205  0.1909990492236489  0.1130794583790049   T   T   T
  0.5223263079287861  0.3333554670858661  0.1311126405405858   T   T   T
  0.5315697726821540  0.6275446176960671  0.1208746739588165   T   T   T
  0.5248389231756789  0.7635828763787700  0.1082473717828591   T   T   T
  0.6671701946892625  0.9070155161604703  0.1047633340469432   T   T   T
  0.6661684456258428  0.0490187910728821  0.1045131463734208   T   T   T
  0.6656829459329998  0.1916726309141268  0.1080318024193616   T   T   T
  0.6654832506522652  0.3345161834399377  0.1169725499352765   T   T   T
  0.6666727838421380  0.4776799918431891  0.1310632361407826   T   T   T
  0.6712556655847592  0.6249638886931450  0.1269584805903179   T   T   T
  0.6705668302125645  0.7674572374492215  0.1112090642062711   T   T   T
  0.8108018292649106  0.9074223800476986  0.1037882663064735   T   T   T
  0.8090729960972141  0.0490725364363556  0.1036534474910695   T   T   T
  0.8084388260840356  0.1915510096144359  0.1048184382440596   T   T   T
  0.8083352165320150  0.3343245662441987  0.1079785870756069   T   T   T
  0.8090044306571968  0.4771641068748593  0.1127924049637485   T   T   T
  0.8105497215000810  0.6204315808756462  0.1150585344893642   T   T   T
  0.8115637496046162  0.7645562037190956  0.1074175925001484   T   T   T

  0.00000000E+00  0.00000000E+00  0.00000000E+00
  0.00000000E+00  0.00000000E+00  0.00000000E+00
  0.00000000E+00  0.00000000E+00  0.00000000E+00
  0.00000000E+00  0.00000000E+00  0.00000000E+00
  0.00000000E+00  0.00000000E+00  0.00000000E+00
  0.00000000E+00  0.00000000E+00  0.00000000E+00
  0.00000000E+00  0.00000000E+00  0.00000000E+00
  0.00000000E+00  0.00000000E+00  0.00000000E+00
  0.00000000E+00  0.00000000E+00  0.00000000E+00
  0.00000000E+00  0.00000000E+00  0.00000000E+00
  0.00000000E+00  0.00000000E+00  0.00000000E+00
  0.00000000E+00  0.00000000E+00  0.00000000E+00
  0.00000000E+00  0.00000000E+00  0.00000000E+00
  0.00000000E+00  0.00000000E+00  0.00000000E+00
  0.00000000E+00  0.00000000E+00  0.00000000E+00
  0.00000000E+00  0.00000000E+00  0.00000000E+00
  0.00000000E+00  0.00000000E+00  0.00000000E+00
  0.00000000E+00  0.00000000E+00  0.00000000E+00
  0.00000000E+00  0.00000000E+00  0.00000000E+00
  0.00000000E+00  0.00000000E+00  0.00000000E+00
  0.00000000E+00  0.00000000E+00  0.00000000E+00
  0.00000000E+00  0.00000000E+00  0.00000000E+00
  0.00000000E+00  0.00000000E+00  0.00000000E+00
  0.00000000E+00  0.00000000E+00  0.00000000E+00
  0.00000000E+00  0.00000000E+00  0.00000000E+00
  0.00000000E+00  0.00000000E+00  0.00000000E+00
  0.00000000E+00  0.00000000E+00  0.00000000E+00
  0.00000000E+00  0.00000000E+00  0.00000000E+00
  0.00000000E+00  0.00000000E+00  0.00000000E+00
  0.00000000E+00  0.00000000E+00  0.00000000E+00
  0.00000000E+00  0.00000000E+00  0.00000000E+00
  0.00000000E+00  0.00000000E+00  0.00000000E+00
  0.00000000E+00  0.00000000E+00  0.00000000E+00
  0.00000000E+00  0.00000000E+00  0.00000000E+00
  0.00000000E+00  0.00000000E+00  0.00000000E+00
  0.00000000E+00  0.00000000E+00  0.00000000E+00
  0.00000000E+00  0.00000000E+00  0.00000000E+00
  0.00000000E+00  0.00000000E+00  0.00000000E+00
  0.00000000E+00  0.00000000E+00  0.00000000E+00
  0.00000000E+00  0.00000000E+00  0.00000000E+00
  0.00000000E+00  0.00000000E+00  0.00000000E+00
  0.00000000E+00  0.00000000E+00  0.00000000E+00
  0.00000000E+00  0.00000000E+00  0.00000000E+00
  0.00000000E+00  0.00000000E+00  0.00000000E+00
  0.00000000E+00  0.00000000E+00  0.00000000E+00
  0.00000000E+00  0.00000000E+00  0.00000000E+00
  0.00000000E+00  0.00000000E+00  0.00000000E+00
  0.00000000E+00  0.00000000E+00  0.00000000E+00
  0.00000000E+00  0.00000000E+00  0.00000000E+00
  0.00000000E+00  0.00000000E+00  0.00000000E+00
  0.00000000E+00  0.00000000E+00  0.00000000E+00
  0.00000000E+00  0.00000000E+00  0.00000000E+00
  0.00000000E+00  0.00000000E+00  0.00000000E+00
  0.00000000E+00  0.00000000E+00  0.00000000E+00
  0.00000000E+00  0.00000000E+00  0.00000000E+00
  0.00000000E+00  0.00000000E+00  0.00000000E+00
  0.00000000E+00  0.00000000E+00  0.00000000E+00
  0.00000000E+00  0.00000000E+00  0.00000000E+00
  0.00000000E+00  0.00000000E+00  0.00000000E+00
  0.00000000E+00  0.00000000E+00  0.00000000E+00
  0.00000000E+00  0.00000000E+00  0.00000000E+00
  0.00000000E+00  0.00000000E+00  0.00000000E+00
  0.00000000E+00  0.00000000E+00  0.00000000E+00
  0.00000000E+00  0.00000000E+00  0.00000000E+00
  0.00000000E+00  0.00000000E+00  0.00000000E+00
  0.00000000E+00  0.00000000E+00  0.00000000E+00
  0.00000000E+00  0.00000000E+00  0.00000000E+00
  0.00000000E+00  0.00000000E+00  0.00000000E+00
  0.00000000E+00  0.00000000E+00  0.00000000E+00
  0.00000000E+00  0.00000000E+00  0.00000000E+00
  0.00000000E+00  0.00000000E+00  0.00000000E+00
  0.00000000E+00  0.00000000E+00  0.00000000E+00
  0.00000000E+00  0.00000000E+00  0.00000000E+00
  0.00000000E+00  0.00000000E+00  0.00000000E+00
  0.00000000E+00  0.00000000E+00  0.00000000E+00
  0.00000000E+00  0.00000000E+00  0.00000000E+00
  0.00000000E+00  0.00000000E+00  0.00000000E+00
  0.00000000E+00  0.00000000E+00  0.00000000E+00
  0.00000000E+00  0.00000000E+00  0.00000000E+00
  0.00000000E+00  0.00000000E+00  0.00000000E+00
  0.00000000E+00  0.00000000E+00  0.00000000E+00
  0.00000000E+00  0.00000000E+00  0.00000000E+00
  0.00000000E+00  0.00000000E+00  0.00000000E+00
  0.00000000E+00  0.00000000E+00  0.00000000E+00
  0.00000000E+00  0.00000000E+00  0.00000000E+00
  0.00000000E+00  0.00000000E+00  0.00000000E+00
  0.00000000E+00  0.00000000E+00  0.00000000E+00
  0.00000000E+00  0.00000000E+00  0.00000000E+00
  0.00000000E+00  0.00000000E+00  0.00000000E+00
  0.00000000E+00  0.00000000E+00  0.00000000E+00
  0.00000000E+00  0.00000000E+00  0.00000000E+00
  0.00000000E+00  0.00000000E+00  0.00000000E+00
  0.00000000E+00  0.00000000E+00  0.00000000E+00
  0.00000000E+00  0.00000000E+00  0.00000000E+00
  0.00000000E+00  0.00000000E+00  0.00000000E+00
  0.00000000E+00  0.00000000E+00  0.00000000E+00
  0.00000000E+00  0.00000000E+00  0.00000000E+00
  0.00000000E+00  0.00000000E+00  0.00000000E+00
