 B C N 
 1.0
 17.527899999999772   0.000000000000000   0.000000000000000
 -8.763949999999658  15.179606674993195   0.000000000000000
  0.000000000000001   0.000000000000002  15.000000000000000
 B C N 
  48   1  49
Cartesian
  7.507076164129227  14.453312449502748   1.627320317869365 
 15.023604418494187   1.445873404177694   1.611315573062745 
 13.773402489229628   3.615034124717888   1.608465978940575 
 12.519899351941406   5.782381239177723   1.613624626049670 
 11.262615164812861   7.948755461016451   1.632713778303465 
 10.007910510209033  10.115124781242482   1.662223335945285 
  8.755554206639982  12.283936762623119   1.659009119477415 
 -7.515001361017815  14.458543282074864   1.641221684079165 
  0.000567320173690   1.451657900049750   1.627320310774350 
 -1.248470457951261   3.618669951858630   1.616475029120025 
 -2.498269900399416   5.783326731618585   1.617835627967250 
 -3.750644853375337   7.948761924030664   1.632982525726425 
 -5.008121489316879  10.116655496064030   1.648997675086800 
 -6.262773385979172  12.287012679484640   1.654840139373540 
 -5.008286593259587  14.459847948712445   1.654840116483585 
  2.503540613908234   1.455131924753663   1.659009057617460 
  1.258563417563251   3.632681788480061   1.655020295809935 
  0.010616723253688   5.788861880064228   1.644371794429875 
 -1.232950313141787   7.947738387697249   1.657235261853615 
 -2.496346743812057  10.114968593658794   1.665377376804645 
 -3.753446718491025  12.286808404949195   1.658709624941760 
 -2.501376089916608  14.458465529070661   1.648997711296770 
  5.007965025944401   1.454965955031087   1.662223270290285 
  3.755938903564811   3.633328669957047   1.719958105770810 
  2.519144038363077   5.821474819568408   1.738536318195000 
  1.293133679127289   7.944975761733472   1.739201428556535 
  0.016354957934728  10.110312475589069   1.722621291838260 
 -1.244028428367197  12.284046800155737   1.665377429799690 
  0.004813540187389  14.453403434470040   1.632982605391455 
  7.511447975797455   1.451545766213936   1.632713908698465 
  6.253562923955555   3.632532026482776   1.655365974013095 
  4.993056748086550   5.821242835216005   1.736572347063780 
  2.529980997179064  10.087260371203794   1.739201436266640 
  1.264546785866507  12.273529382958124   1.657235347908615 
  2.506322900214075  14.451534077227446   1.617835659572265 
 10.016225118913750   1.445890776075868   1.613624642339670 
  8.760847668115591   3.618637266806713   1.617493516830210 
  7.501551439921977   5.788732589890383   1.642102917070920 
  6.219147086613567   7.944896578490776   1.736572268193750 
  4.981990742865412  10.087252697525342   1.738536313889955 
  3.755971961466661  12.276008241760088   1.644371729209830 
  5.005870102755548  14.451504933267646   1.616475062509950 
 12.519954887130497   1.443998609540167   1.608466014985560 
 11.267227297362725   3.614618326150146   1.608806595211080 
 10.010558591977059   5.783198049068200   1.617493390725225 
  8.744882410912354   7.947621849790218   1.655365854553140 
  7.495378869861163  10.110229344477348   1.719958235190810 
  6.247251247730424  12.273343947427213   1.655020332919875 
  3.756975382556991   7.950663788572329   2.292256598453895 
  8.761566970038039  13.733505080737395   1.638575384054010 
 16.275342751848729   0.723181643122317   1.617985450596150 
 15.024638069707272   2.891938729145587   1.608972163946010 
 13.772913751896088   5.059868891664398   1.610171079588735 
 12.519930617237691   7.227756748411664   1.622983714470975 
 11.266286111046952   9.395274374901325   1.645487948731515 
 10.013649307070299  11.564401484986861   1.661196188315055 
 -6.261016591116086  13.734555132127186   1.650058217407155 
  1.251184031235720   0.725140652548648   1.638575481508950 
  0.002883933880345   2.897321389930426   1.627248558988080 
 -1.248946450321942   5.059868891664398   1.619096144852385 
 -2.497529536708799   7.227852826892059   1.630288301339865 
 -3.754608727979562   9.395229099375690   1.646590759482345 
 -5.008138954456345  11.564659816612352   1.655202581196855 
 -3.755393646950230  13.734478295562395   1.655202594576885 
  3.755723997209123   0.725358100166218   1.661196076970085 
  2.503855626525307   2.896000400737122   1.679381786865480 
  1.259924861567125   5.074516541337432   1.658386254436935 
  0.016520998143760   7.228025496895283   1.658970195273270 
 -1.248332685570248   9.394642532194212   1.683266283210675 
 -2.502023518138570  11.564298272669824   1.666683795018180 
 -1.249846395778487  13.733603343753041   1.646590821732390 
  6.260561700319522   0.725106087349024   1.645488064951515 
  5.008036878453923   2.895934143928373   1.680581288137860 
  3.757493022880015   5.059868891664398   1.782232238558760 
  2.540964146258097   7.249653250590643   1.821060895616340 
  1.254047372421531   9.395731390158394   1.783925410815675 
  0.003800077911296  11.563399136741548   1.683266352525675 
  1.255697448038861  13.728628506344355   1.630288508009850 
  8.764508855913670   0.723175557504169   1.622983721145945 
  7.509334308807823   2.897226798841461   1.629756335527935 
  6.252213184876294   5.074346249121716   1.656045329977200 
  4.971448051191891   7.249487070137345   1.818652729092870 
  3.756062531053559   9.354266083141408   1.821060919286355 
  2.512571776255784  11.551314500786024   1.658970153033255 
  3.757486460073141  13.731318109059089   1.619096111657385 
 11.268417378192400   0.722004146736126   1.610171057568810 
 10.015659448264545   2.891844530956057   1.610219495334015 
  8.763949999999962   5.059868891664398   1.618270558711440 
  7.495557962813803   7.227884150810277   1.656045023992305 
  6.260706660532410   9.395613539330734   1.782232278083730 
  4.999266001138412  11.551248145020768   1.658386147471935 
  6.256253026669474  13.728474453566406   1.627248564628155 
 13.771791891477859   0.721945002442911   1.608972309251010 
 12.520269626101555   2.891173489421483   1.608122258761755 
 11.267399361912354   5.059868891664398   1.610219406234090 
 10.009562925156942   7.227745630495805   1.629756027862890 
  8.760031140664182   9.394578309961821   1.680581518432890 
  7.507882203161485  11.563229575260836   1.679381956305405 
