 Ga B N 
 1.0
 14.936314146199660   0.000000000000000   0.000000000000000
 -7.468157073099825  12.935227489513863   0.000000000000000
  0.000000000000001   0.000000000000001  13.341276283792837
 Ga B N 
   1 144 143
Cartesian
  4.978771382066589   5.748989995339477   5.002978606422314 
  1.223559541839154   0.693807839459369   5.002978606422314 
  4.978771382066790   7.522878212537703   5.002978606422314 
  6.228707073717509   0.697216599339953   5.002978606422314 
  9.978703322989329   7.192400631273113   5.002978606422314 
 11.208149001489870   0.722037847787835   5.002978606422314 
 -3.734236879556355   9.342017323049516  11.673616748318732 
  1.245054174890996   9.341640190608897  11.673616748318732 
  2.490286781429795   2.875274467163975  11.673616748318732 
  6.223239732398078   9.340938640504495  11.673616748318732 
  7.467255982703560   2.875274467163975  11.673616748318732 
 12.446928455166379   2.874688245831624  11.673616748318732 
 -1.251022441167134   9.345763136179013   5.002978606422314 
 -0.029144214986106   2.857668577302135   5.002978606422314 
  4.978771382066340   2.846914533645275   5.002978606422314 
  3.692378255613493   9.445082346022092   5.002978606422314 
  8.728767631338595   9.357352755405945   5.002978606422314 
  9.986686979119563   2.857668577302135   5.002978606422314 
 -4.978751643666578  11.497968594708663  11.673616748318732 
 -0.000019738400019  11.497968594708663  11.673616748318732 
  1.245818431098325   5.030756878349521  11.673616748318732 
  6.222559068095811   5.030888839995535  11.673616748318732 
  4.978771382066352  11.497213042820734  11.673616748318732 
 11.201833652791308   5.030575985255951  11.673616748318732 
 -1.276750705797195   5.024472223050676   5.002978606422314 
 -2.489385691033239  11.490671203173234   5.002978606422314 
  2.478461134430404  11.528689923509083   5.002978606422314 
  3.442539122499021   4.862045886740358   5.002978606422314 
  7.479081629702373  11.528689923509083   5.002978606422314 
  8.822877815716893   5.014992946760310   5.002978606422314 
  0.000586442464273   7.186158849666131  11.673616748318732 
  1.245075463537157   0.718866984600582  11.673616748318732 
  4.978771382066201   7.185192306027361  11.673616748318732 
  6.223239114493167   0.719170945743675  11.673616748318732 
  9.956956321668518   7.186158849666131  11.673616748318732 
 -2.489385691033472   7.191237916814858   5.002978606422314 
 11.202068251832474   0.718527125336453  11.673616748318732 
  3.728835690415723   0.697216599339953   5.002978606422314 
  2.465500308540066   7.200027726185989   5.002978606422314 
  7.492042455593933   7.200027726185989   5.002978606422314 
  8.733983222294317   0.693807839459369   5.002978606422314 
  2.490198838159301   7.185768023462365  11.673616748318732 
 13.685707908843813   0.722037847787835   5.002978606422314 
 -1.244534502510333   9.342017323049516  11.673616748318732 
  0.000664196328513   2.874878471598850  11.673616748318732 
  4.978771382066266   2.875433939094542  11.673616748318732 
  3.734303031735717   9.340938640504495  11.673616748318732 
  8.712488589242003   9.341640190608897  11.673616748318732 
  9.956878567804289   2.874878471598850  11.673616748318732 
 -3.727748940899287   9.345763136179013   5.002978606422314 
  1.228775132794032   9.357352755405945   5.002978606422314 
  2.421058074868437   2.786894693235872   5.002978606422314 
  6.265164508519014   9.445082346022092   5.002978606422314 
  7.536484689264634   2.786894693235872   5.002978606422314 
 12.446928455166752   2.867666800928935   5.002978606422314 
 -1.244290888658536   5.030575985255951  11.673616748318732 
 -2.489385691033238  11.498162829433705  11.673616748318732 
  2.489405029870829  11.497527016161937  11.673616748318732 
  3.734983696037769   5.030888839995535  11.673616748318732 
  7.468137734261637  11.497527016161937  11.673616748318732 
 -4.974440889030720  11.495479779359254   5.002978606422314 
  8.711724333034450   5.030756878349521  11.673616748318732 
 -0.004330493035849  11.495479779359254   5.002978606422314 
  1.134664948415176   5.014992946760310   5.002978606422314 
 -0.021160558857020   7.192400631273113   5.002978606422314 
  6.515003641634319   4.862045886740358   5.002978606422314 
  4.978771382066799  11.531632831414210   5.002978606422314 
 11.234293469929938   5.024472223050676   5.002978606422314 
 -2.489385691033166   7.186260286115464  11.673616748318732 
  3.734303649639931   0.719170945743675  11.673616748318732 
  7.467343925973609   7.185768023462365  11.673616748318732 
  8.712467300596193   0.718866984600582  11.673616748318732 
 13.691788658500462   0.718527125336453  11.673616748318732 
 -0.000143120604019   1.437611226002789   1.671169534622872 
  3.736904143165208   7.902838042409259   1.685329217060804 
  4.978771382066437   1.440412490120700   1.674718331000294 
  8.710108955760333   7.903278747948801   1.674718331000294 
  9.957685884737250   1.437611226002789   1.671169534622872 
 -4.979967702534108  10.060322006869395   8.338858508150858 
  0.001196320467554  10.060322006869395   8.338858508150858 
  1.245388338329406   3.593520290050172   8.328763631745696 
  4.978771382066345  10.059929405918178   8.328763631745696 
  6.223124887269759   3.596577394788449   8.320627995784196 
 11.201992172983983   3.592812937424312   8.334787678221756 
 -2.489385691033300  10.060732491844131   1.668427026469872 
 -1.244449408851168   3.592812937424311   1.671169534622872 
  3.734417876863954   3.596577394788448   1.685329217060804 
  2.490955688967858  10.059864585067523   1.671796893491583 
  7.466587075164785  10.059864585067523   1.671796893491583 
  8.712154425802963   3.593520290050171   1.677193581098439 
 -6.224091776693337  12.216966055744464   8.338692627299110 
 -1.244450175699030  12.217845026500084   8.338858508150858 
  0.001536628284527   5.748064290632727   8.334160319353163 
  4.978771382066590   5.748989995339477   8.283453574565266 
  3.734465093819419  12.216545822591524   8.334787678221756 
  9.956006135848606   5.748064290632727   8.334160319353163 
 -2.489385691033287   5.748265364044527   1.667264585544797 
 -3.734321206368135  12.217845026500084   1.667098704693983 
  1.245320394626023  12.216966055744464   1.667264585544797 
  2.492550637962335   5.747554548821343   1.685329217060804 
  6.223077670313300  12.216545822591524   1.671169534622872 
  7.464992126171021   5.747554548821343   1.685329217060804 
 -1.243739194867029   7.904030442163047   8.338858508150858 
 -0.000143120604018   1.437611226002790   8.334787678221756 
  3.736904143165208   7.902838042409260   8.320627995784196 
  4.978771382066438   1.440412490120700   8.331238881844040 
  8.710108955760333   7.903278747948802   8.331238881844040 
 -3.735032187199587   7.904030442163046   1.667098704693983 
  9.957685884737250   1.437611226002790   8.334787678221756 
  2.489352321382973   1.439041110319007   1.671796893491583 
  1.247433808372859   7.903278747948801   1.674718331000294 
  6.220638620968090   7.902838042409259   1.685329217060804 
  7.468190442750125   1.439041110319007   1.671796893491583 
  1.247433808372860   7.903278747948802   8.331238881844040 
 12.446928455166319   1.437247498834911   1.671963181981785 
 -2.489385691033300  10.060732491844131   8.337530186374236 
 -1.244449408851168   3.592812937424312   8.334787678221756 
  3.734417876863954   3.596577394788449   8.320627995784196 
  2.490955688967859  10.059864585067523   8.334160319353163 
  7.466587075164786  10.059864585067523   8.334160319353163 
  8.712154425802963   3.593520290050172   8.328763631745696 
 -4.979967702534108  10.060322006869395   1.667098704693983 
  0.001196320467553  10.060322006869395   1.667098704693983 
  1.245388338329406   3.593520290050171   1.677193581098439 
  4.978771382066344  10.059929405918178   1.677193581098439 
  6.223124887269758   3.596577394788448   1.685329217060804 
 11.201992172983983   3.592812937424311   1.671169534622872 
 -2.489385691033287   5.748265364044528   8.338692627299110 
 -3.734321206368134  12.217845026500084   8.338858508150858 
  1.245320394626023  12.216966055744464   8.338692627299110 
  2.492550637962335   5.747554548821344   8.320627995784196 
  6.223077670313301  12.216545822591524   8.334787678221756 
 -6.224091776693338  12.216966055744464   1.667264585544797 
  7.464992126171022   5.747554548821344   8.320627995784196 
 -1.244450175699030  12.217845026500084   1.667098704693983 
  0.001536628284527   5.748064290632726   1.671796893491583 
 -1.243739194867030   7.904030442163046   1.667098704693983 
  4.978771382066589   5.748989995339476   1.722503638279028 
  3.734465093819418  12.216545822591524   1.671169534622872 
  9.956006135848606   5.748064290632726   1.671796893491583 
 -3.735032187199587   7.904030442163047   8.338858508150858 
  2.489352321382973   1.439041110319007   8.334160319353163 
  6.220638620968090   7.902838042409260   8.320627995784196 
  7.468190442750126   1.439041110319007   8.334160319353163 
 12.446928455166319   1.437247498834912   8.333994030863069 
  1.244426366568679   0.718453931399938   1.666531127737520 
  4.978771382066776   7.188675807845689   1.673402651731880 
  6.223505938363280   0.718638905509365   1.666347082404594 
  9.957550493962755   7.186193793533069   1.666347082404594 
 11.202428571532870   0.718735156012720   1.669200173565332 
 -3.734111509429529   9.342089705525355   8.339456085526702 
  1.244726826467231   9.342137286976035   8.339610130440180 
  2.488608292091841   2.873986059160864   8.331293541800566 
  6.223516281790226   9.343036458913229   8.331293541800566 
  7.468934472041931   2.873986059160864   8.331293541800566 
 12.446928455166013   2.874272184479255   8.336757039279989 
 -1.244659872636832   9.342089705525355   1.666501127318099 
 -0.000657720431927   2.874115262601284   1.670327309298154 
  4.978771382066669   2.874567345039560   1.681991466915235 
  3.734026482343671   9.343036458913229   1.674663671043662 
  8.712815937665845   9.342137286976035   1.666347082404594 
  9.958200484565788   2.874115262601284   1.670327309298154 
 -4.978790826840871  11.497991217124680   8.341625724410587 
  0.000019444774364  11.497991217124680   8.341625724410587 
  1.243863392368296   5.029947467944285   8.331293541800566 
  6.225575869165191   5.029147089086364   8.332554561113282 
  4.978771382067002  11.498739460816338   8.335629903547128 
 11.202515915840387   5.030220377392621   8.339426085106840 
 -1.244973151707975   5.030220377392620   1.666531127737520 
 -2.489385691033232  11.498018064480688   1.666501127318099 
  2.489371863789801  11.498295677226233   1.666531127737520 
  3.731966894967881   5.029147089086363   1.673402651731880 
  7.468170900342708  11.498295677226233   1.666531127737520 
  8.713679371764940   5.029947467944284   1.674663671043662 
 -0.000007729829471   7.186193793533070   8.339610130440180 
  1.244426366568680   0.718453931399939   8.339426085106840 
  4.978771382066776   7.188675807845690   8.332554561113282 
  6.223505938363281   0.718638905509365   8.339610130440180 
  9.957550493962755   7.186193793533070   8.339610130440180 
 -2.489385691033435   7.186215041283268   1.664331488434027 
 11.202428571532870   0.718735156012721   8.336757039279989 
  3.734036825769667   0.718638905509365   1.666347082404594 
  2.489448345693249   7.186201320489984   1.681991466915235 
  7.468094418439123   7.186201320489984   1.681991466915235 
  8.713116397564134   0.718453931399938   1.666531127737520 
  2.489448345693249   7.186201320489984   8.323965745929753 
 13.691428338799364   0.718735156012720   1.669200173565332 
 -1.244659872636831   9.342089705525355   8.339456085526702 
 -0.000657720431927   2.874115262601285   8.335629903547128 
  4.978771382066670   2.874567345039561   8.323965745929753 
  3.734026482343671   9.343036458913229   8.331293541800566 
  8.712815937665845   9.342137286976035   8.339610130440180 
  9.958200484565788   2.874115262601285   8.335629903547128 
 -3.734111509429529   9.342089705525355   1.666501127318099 
  1.244726826467231   9.342137286976035   1.666347082404594 
  2.488608292091841   2.873986059160863   1.674663671043662 
  6.223516281790225   9.343036458913229   1.674663671043662 
  7.468934472041930   2.873986059160863   1.674663671043662 
 12.446928455166013   2.874272184479254   1.669200173565332 
 -1.244973151707974   5.030220377392621   8.339426085106840 
 -2.489385691033231  11.498018064480688   8.339456085526702 
  2.489371863789801  11.498295677226233   8.339426085106840 
  3.731966894967881   5.029147089086364   8.332554561113282 
  7.468170900342709  11.498295677226233   8.339426085106840 
 -4.978790826840872  11.497991217124680   1.664331488434027 
  8.713679371764940   5.029947467944285   8.331293541800566 
  0.000019444774363  11.497991217124680   1.664331488434027 
  1.243863392368296   5.029947467944284   1.674663671043662 
 -0.000007729829472   7.186193793533069   1.666347082404594 
  6.225575869165191   5.029147089086363   1.673402651731880 
  4.978771382067001  11.498739460816338   1.670327309298154 
 11.202515915840387   5.030220377392620   1.666531127737520 
 -2.489385691033435   7.186215041283269   8.341625724410587 
  3.734036825769668   0.718638905509365   8.339610130440180 
  7.468094418439124   7.186201320489984   8.323965745929753 
  8.713116397564134   0.718453931399939   8.339426085106840 
 13.691428338799364   0.718735156012721   8.336757039279989 
 -0.013406054842223   1.425119855054805   5.002978606422314 
  3.659473666477483   8.053031757830254   5.002978606422314 
  4.978771382066183   1.405389546243139   5.002978606422314 
  8.740439714873975   7.920790219887813   5.002978606422314 
  9.970948818975710   1.425119855054805   5.002978606422314 
 -4.978566075811003  10.060742390212981  11.673616748318732 
 -0.000205306255969  10.060742390212981  11.673616748318732 
  1.244798237725697   3.593179595307719  11.673616748318732 
  4.978771382066776  10.060610795403084  11.673616748318732 
  6.223340787278241   3.592955998659863  11.673616748318732 
 11.202216723976518   3.593256340058891  11.673616748318732 
 -2.489385691033300  10.060732491844131   5.002978606422314 
 -1.261898720539424   3.587572584919477   5.002978606422314 
  3.643061542163531   3.454423777238762   5.002978606422314 
  2.448612313732886  10.119410650797855   5.002978606422314 
  7.508930450400310  10.119410650797855   5.002978606422314 
  8.763205085061736   3.564046178184818   5.002978606422314 
 -6.223248480314368  12.216479178352966  11.673616748318732 
 -1.244786926405928  12.216420990479113  11.673616748318732 
 -0.000063182898714   5.749184562923172  11.673616748318732 
  4.978771382066590   5.748989995339477  11.673616748318732 
  3.733968820377674  12.216518588137943  11.673616748318732 
  9.957605947032356   5.749184562923172  11.673616748318732 
 -2.489385691033309   5.756072813384628   5.002978606422314 
 -3.731159760912698  12.201934038046481   5.002978606422314 
  1.238558945158659  12.213062331073800   5.002978606422314 
  2.323763826574194   5.739514450949064   5.002978606422314 
  6.227264047763740  12.234277546044316   5.002978606422314 
  7.633778937559073   5.739514450949064   5.002978606422314 
 -1.244804070883385   7.905034094840410  11.673616748318732 
  0.000128601845320   1.437195057821936  11.673616748318732 
  3.733875872125108   7.904835715365264  11.673616748318732 
  4.978771382066378   1.436981583405794  11.673616748318732 
  8.713080208133547   7.904994201306279  11.673616748318732 
 -3.722833589726880   7.914723828465902   5.002978606422314 
  9.957414162287778   1.437195057821936  11.673616748318732 
  2.458955603381925   1.372597638817796   5.002978606422314 
  1.217103049259187   7.920790219887813   5.002978606422314 
  6.298069097656367   8.053031757830254   5.002978606422314 
  7.498587160750859   1.372597638817796   5.002978606422314 
  1.244462555999662   7.904994201306279  11.673616748318732 
 12.446928455166319   1.437247498834912   5.002978606422314 
 -2.489385691033299  10.060732491844133  11.673616748318732 
 -1.244673959843507   3.593256340058891  11.673616748318732 
  3.734201976855502   3.592955998659863  11.673616748318732 
  2.489185599113653  10.060689926047123  11.673616748318732 
  7.468357165020245  10.060689926047123  11.673616748318732 
  8.712744526407194   3.593179595307719  11.673616748318732 
 -4.964607659606711  10.065539609019368   5.002978606422314 
 -0.014163722459724  10.065539609019368   5.002978606422314 
  1.194337679070945   3.564046178184818   5.002978606422314 
  4.978771382066358  10.118877629648884   5.002978606422314 
  6.314481221969524   3.454423777238762   5.002978606422314 
 11.219441484672405   3.587572584919477   5.002978606422314 
 -2.489385691033323   5.749239118827307  11.673616748318732 
 -3.733984455660997  12.216420990479113  11.673616748318732 
  1.244477098247129  12.216479178352966  11.673616748318732 
  2.489306466913475   5.749178271993834  11.673616748318732 
  6.223573943755374  12.216518588137943  11.673616748318732 
 -6.217330327225720  12.213062331073800   5.002978606422314 
  7.468236297219478   5.749178271993834  11.673616748318732 
 -1.247611621153735  12.201934038046481   5.002978606422314 
 -0.071203464951523   5.754961696402495   5.002978606422314 
 -1.255937792338855   7.914723828465902   5.002978606422314 
  3.730278716369845  12.234277546044316   5.002978606422314 
 10.028746229084835   5.754961696402495   5.002978606422314 
 -3.733967311183349   7.905034094840410  11.673616748318732 
  2.489522600054280   1.437095497047413  11.673616748318732 
  6.223666892008371   7.904835715365264  11.673616748318732 
  7.468020164078759   1.437095497047413  11.673616748318732 
 12.446928455166319   1.437247498834912  11.673616748318732 
Generated by cif2cell 2.0.0.  :  Failed to get author information, No journal information. Species order: Ga B N 
 1.0
 14.936314146199660   0.000000000000000   0.000000000000000
 -7.468157073099825  12.935227489513863   0.000000000000000
  0.000000000000001   0.000000000000001  13.341276283792837
 Ga B N 
   1 144 143
Cartesian
  4.978771382066589   5.748989995339477   5.002978606422314 
  1.223559541839154   0.693807839459369   5.002978606422314 
  4.978771382066790   7.522878212537703   5.002978606422314 
  6.228707073717509   0.697216599339953   5.002978606422314 
  9.978703322989329   7.192400631273113   5.002978606422314 
 11.208149001489870   0.722037847787835   5.002978606422314 
 -3.734236879556355   9.342017323049516  11.673616748318732 
  1.245054174890996   9.341640190608897  11.673616748318732 
  2.490286781429795   2.875274467163975  11.673616748318732 
  6.223239732398078   9.340938640504495  11.673616748318732 
  7.467255982703560   2.875274467163975  11.673616748318732 
 12.446928455166379   2.874688245831624  11.673616748318732 
 -1.251022441167134   9.345763136179013   5.002978606422314 
 -0.029144214986106   2.857668577302135   5.002978606422314 
  4.978771382066340   2.846914533645275   5.002978606422314 
  3.692378255613493   9.445082346022092   5.002978606422314 
  8.728767631338595   9.357352755405945   5.002978606422314 
  9.986686979119563   2.857668577302135   5.002978606422314 
 -4.978751643666578  11.497968594708663  11.673616748318732 
 -0.000019738400019  11.497968594708663  11.673616748318732 
  1.245818431098325   5.030756878349521  11.673616748318732 
  6.222559068095811   5.030888839995535  11.673616748318732 
  4.978771382066352  11.497213042820734  11.673616748318732 
 11.201833652791308   5.030575985255951  11.673616748318732 
 -1.276750705797195   5.024472223050676   5.002978606422314 
 -2.489385691033239  11.490671203173234   5.002978606422314 
  2.478461134430404  11.528689923509083   5.002978606422314 
  3.442539122499021   4.862045886740358   5.002978606422314 
  7.479081629702373  11.528689923509083   5.002978606422314 
  8.822877815716893   5.014992946760310   5.002978606422314 
  0.000586442464273   7.186158849666131  11.673616748318732 
  1.245075463537157   0.718866984600582  11.673616748318732 
  4.978771382066201   7.185192306027361  11.673616748318732 
  6.223239114493167   0.719170945743675  11.673616748318732 
  9.956956321668518   7.186158849666131  11.673616748318732 
 -2.489385691033472   7.191237916814858   5.002978606422314 
 11.202068251832474   0.718527125336453  11.673616748318732 
  3.728835690415723   0.697216599339953   5.002978606422314 
  2.465500308540066   7.200027726185989   5.002978606422314 
  7.492042455593933   7.200027726185989   5.002978606422314 
  8.733983222294317   0.693807839459369   5.002978606422314 
  2.490198838159301   7.185768023462365  11.673616748318732 
 13.685707908843813   0.722037847787835   5.002978606422314 
 -1.244534502510333   9.342017323049516  11.673616748318732 
  0.000664196328513   2.874878471598850  11.673616748318732 
  4.978771382066266   2.875433939094542  11.673616748318732 
  3.734303031735717   9.340938640504495  11.673616748318732 
  8.712488589242003   9.341640190608897  11.673616748318732 
  9.956878567804289   2.874878471598850  11.673616748318732 
 -3.727748940899287   9.345763136179013   5.002978606422314 
  1.228775132794032   9.357352755405945   5.002978606422314 
  2.421058074868437   2.786894693235872   5.002978606422314 
  6.265164508519014   9.445082346022092   5.002978606422314 
  7.536484689264634   2.786894693235872   5.002978606422314 
 12.446928455166752   2.867666800928935   5.002978606422314 
 -1.244290888658536   5.030575985255951  11.673616748318732 
 -2.489385691033238  11.498162829433705  11.673616748318732 
  2.489405029870829  11.497527016161937  11.673616748318732 
  3.734983696037769   5.030888839995535  11.673616748318732 
  7.468137734261637  11.497527016161937  11.673616748318732 
 -4.974440889030720  11.495479779359254   5.002978606422314 
  8.711724333034450   5.030756878349521  11.673616748318732 
 -0.004330493035849  11.495479779359254   5.002978606422314 
  1.134664948415176   5.014992946760310   5.002978606422314 
 -0.021160558857020   7.192400631273113   5.002978606422314 
  6.515003641634319   4.862045886740358   5.002978606422314 
  4.978771382066799  11.531632831414210   5.002978606422314 
 11.234293469929938   5.024472223050676   5.002978606422314 
 -2.489385691033166   7.186260286115464  11.673616748318732 
  3.734303649639931   0.719170945743675  11.673616748318732 
  7.467343925973609   7.185768023462365  11.673616748318732 
  8.712467300596193   0.718866984600582  11.673616748318732 
 13.691788658500462   0.718527125336453  11.673616748318732 
 -0.000143120604019   1.437611226002789   1.671169534622872 
  3.736904143165208   7.902838042409259   1.685329217060804 
  4.978771382066437   1.440412490120700   1.674718331000294 
  8.710108955760333   7.903278747948801   1.674718331000294 
  9.957685884737250   1.437611226002789   1.671169534622872 
 -4.979967702534108  10.060322006869395   8.338858508150858 
  0.001196320467554  10.060322006869395   8.338858508150858 
  1.245388338329406   3.593520290050172   8.328763631745696 
  4.978771382066345  10.059929405918178   8.328763631745696 
  6.223124887269759   3.596577394788449   8.320627995784196 
 11.201992172983983   3.592812937424312   8.334787678221756 
 -2.489385691033300  10.060732491844131   1.668427026469872 
 -1.244449408851168   3.592812937424311   1.671169534622872 
  3.734417876863954   3.596577394788448   1.685329217060804 
  2.490955688967858  10.059864585067523   1.671796893491583 
  7.466587075164785  10.059864585067523   1.671796893491583 
  8.712154425802963   3.593520290050171   1.677193581098439 
 -6.224091776693337  12.216966055744464   8.338692627299110 
 -1.244450175699030  12.217845026500084   8.338858508150858 
  0.001536628284527   5.748064290632727   8.334160319353163 
  4.978771382066590   5.748989995339477   8.283453574565266 
  3.734465093819419  12.216545822591524   8.334787678221756 
  9.956006135848606   5.748064290632727   8.334160319353163 
 -2.489385691033287   5.748265364044527   1.667264585544797 
 -3.734321206368135  12.217845026500084   1.667098704693983 
  1.245320394626023  12.216966055744464   1.667264585544797 
  2.492550637962335   5.747554548821343   1.685329217060804 
  6.223077670313300  12.216545822591524   1.671169534622872 
  7.464992126171021   5.747554548821343   1.685329217060804 
 -1.243739194867029   7.904030442163047   8.338858508150858 
 -0.000143120604018   1.437611226002790   8.334787678221756 
  3.736904143165208   7.902838042409260   8.320627995784196 
  4.978771382066438   1.440412490120700   8.331238881844040 
  8.710108955760333   7.903278747948802   8.331238881844040 
 -3.735032187199587   7.904030442163046   1.667098704693983 
  9.957685884737250   1.437611226002790   8.334787678221756 
  2.489352321382973   1.439041110319007   1.671796893491583 
  1.247433808372859   7.903278747948801   1.674718331000294 
  6.220638620968090   7.902838042409259   1.685329217060804 
  7.468190442750125   1.439041110319007   1.671796893491583 
  1.247433808372860   7.903278747948802   8.331238881844040 
 12.446928455166319   1.437247498834911   1.671963181981785 
 -2.489385691033300  10.060732491844131   8.337530186374236 
 -1.244449408851168   3.592812937424312   8.334787678221756 
  3.734417876863954   3.596577394788449   8.320627995784196 
  2.490955688967859  10.059864585067523   8.334160319353163 
  7.466587075164786  10.059864585067523   8.334160319353163 
  8.712154425802963   3.593520290050172   8.328763631745696 
 -4.979967702534108  10.060322006869395   1.667098704693983 
  0.001196320467553  10.060322006869395   1.667098704693983 
  1.245388338329406   3.593520290050171   1.677193581098439 
  4.978771382066344  10.059929405918178   1.677193581098439 
  6.223124887269758   3.596577394788448   1.685329217060804 
 11.201992172983983   3.592812937424311   1.671169534622872 
 -2.489385691033287   5.748265364044528   8.338692627299110 
 -3.734321206368134  12.217845026500084   8.338858508150858 
  1.245320394626023  12.216966055744464   8.338692627299110 
  2.492550637962335   5.747554548821344   8.320627995784196 
  6.223077670313301  12.216545822591524   8.334787678221756 
 -6.224091776693338  12.216966055744464   1.667264585544797 
  7.464992126171022   5.747554548821344   8.320627995784196 
 -1.244450175699030  12.217845026500084   1.667098704693983 
  0.001536628284527   5.748064290632726   1.671796893491583 
 -1.243739194867030   7.904030442163046   1.667098704693983 
  4.978771382066589   5.748989995339476   1.722503638279028 
  3.734465093819418  12.216545822591524   1.671169534622872 
  9.956006135848606   5.748064290632726   1.671796893491583 
 -3.735032187199587   7.904030442163047   8.338858508150858 
  2.489352321382973   1.439041110319007   8.334160319353163 
  6.220638620968090   7.902838042409260   8.320627995784196 
  7.468190442750126   1.439041110319007   8.334160319353163 
 12.446928455166319   1.437247498834912   8.333994030863069 
  1.244426366568679   0.718453931399938   1.666531127737520 
  4.978771382066776   7.188675807845689   1.673402651731880 
  6.223505938363280   0.718638905509365   1.666347082404594 
  9.957550493962755   7.186193793533069   1.666347082404594 
 11.202428571532870   0.718735156012720   1.669200173565332 
 -3.734111509429529   9.342089705525355   8.339456085526702 
  1.244726826467231   9.342137286976035   8.339610130440180 
  2.488608292091841   2.873986059160864   8.331293541800566 
  6.223516281790226   9.343036458913229   8.331293541800566 
  7.468934472041931   2.873986059160864   8.331293541800566 
 12.446928455166013   2.874272184479255   8.336757039279989 
 -1.244659872636832   9.342089705525355   1.666501127318099 
 -0.000657720431927   2.874115262601284   1.670327309298154 
  4.978771382066669   2.874567345039560   1.681991466915235 
  3.734026482343671   9.343036458913229   1.674663671043662 
  8.712815937665845   9.342137286976035   1.666347082404594 
  9.958200484565788   2.874115262601284   1.670327309298154 
 -4.978790826840871  11.497991217124680   8.341625724410587 
  0.000019444774364  11.497991217124680   8.341625724410587 
  1.243863392368296   5.029947467944285   8.331293541800566 
  6.225575869165191   5.029147089086364   8.332554561113282 
  4.978771382067002  11.498739460816338   8.335629903547128 
 11.202515915840387   5.030220377392621   8.339426085106840 
 -1.244973151707975   5.030220377392620   1.666531127737520 
 -2.489385691033232  11.498018064480688   1.666501127318099 
  2.489371863789801  11.498295677226233   1.666531127737520 
  3.731966894967881   5.029147089086363   1.673402651731880 
  7.468170900342708  11.498295677226233   1.666531127737520 
  8.713679371764940   5.029947467944284   1.674663671043662 
 -0.000007729829471   7.186193793533070   8.339610130440180 
  1.244426366568680   0.718453931399939   8.339426085106840 
  4.978771382066776   7.188675807845690   8.332554561113282 
  6.223505938363281   0.718638905509365   8.339610130440180 
  9.957550493962755   7.186193793533070   8.339610130440180 
 -2.489385691033435   7.186215041283268   1.664331488434027 
 11.202428571532870   0.718735156012721   8.336757039279989 
  3.734036825769667   0.718638905509365   1.666347082404594 
  2.489448345693249   7.186201320489984   1.681991466915235 
  7.468094418439123   7.186201320489984   1.681991466915235 
  8.713116397564134   0.718453931399938   1.666531127737520 
  2.489448345693249   7.186201320489984   8.323965745929753 
 13.691428338799364   0.718735156012720   1.669200173565332 
 -1.244659872636831   9.342089705525355   8.339456085526702 
 -0.000657720431927   2.874115262601285   8.335629903547128 
  4.978771382066670   2.874567345039561   8.323965745929753 
  3.734026482343671   9.343036458913229   8.331293541800566 
  8.712815937665845   9.342137286976035   8.339610130440180 
  9.958200484565788   2.874115262601285   8.335629903547128 
 -3.734111509429529   9.342089705525355   1.666501127318099 