Species order:X N B                     
   2.51242800000000     
     5.9449720136058266    0.0000000000000000    0.0000000000000000
    -2.9724860068029120    5.1484967885702053   -0.0000000000000001
     0.0000000000000000    0.0000000000000009    5.3101128803662583
   C    N    B 
     2   143   142
Direct
  0.4447194120585247  0.3867212645529982  0.3750000000000000
  0.5476931129970861  0.4398570407352133  0.3750000000000000
  0.1109328863888674  0.0554821660748118  0.1247363637883476
  0.6110194971562675  0.5554989673115783  0.1262009419532941
  0.4443241444465209  0.0555160517272363  0.1255543927735756
  0.9443271798457759  0.5555071961425913  0.1257610841873837
  0.7776718923128243  0.0554862490426940  0.1247130571177715
  0.1109846963149478  0.7221768083119441  0.6251687526557107
  0.4443487840096143  0.7221462590395766  0.6253713462915171
  0.2775650561168099  0.2221124396694321  0.6250079250504689
  0.7776935266204025  0.7222103834439233  0.6247729044720495
  0.6110106723440537  0.2221631818440452  0.6228734355078508
  0.9443186920752510  0.2221335677100875  0.6253530803852743
  0.2776675016716774  0.7221648107435920  0.1246208994382580
  0.1109304648890405  0.2221156293000733  0.1245976424012440
  0.4442551050540370  0.2221452292166770  0.1263399971027018
  0.6110204963472914  0.7221499495936781  0.1248980820721389
  0.9443359567508577  0.7222127261811295  0.1251788634904961
  0.7776837165659151  0.2221469441419716  0.1255722980957567
  0.1109729261711808  0.8888572852362399  0.6252225705299284
  0.4443446270959520  0.8888466989327040  0.6251926544695873
  0.2776182008119573  0.3887668998487663  0.6251866302130922
  0.6109845366411442  0.3888436987996067  0.6226051849565475
  0.7776738005370770  0.8888449890331352  0.6252649111095611
  0.9443247316271219  0.3888101759307070  0.6247489395051724
  0.1109751126264534  0.3887966146295689  0.1245891271889855
  0.2776543616501352  0.8888524218627755  0.1248134673824136
  0.6110122570521173  0.8888313692072586  0.1246898122068014
  0.4442309235849534  0.3887508564457479  0.1255995219865078
  0.9443239154297802  0.8888676941280551  0.1248088506539983
  0.7776840138500418  0.3888125385737781  0.1272625002662010
  0.2776655999608902  0.5554656216527458  0.6254156148730668
  0.1109328863888674  0.0554821660748118  0.6252636362117000
  0.6110194971562675  0.5554989673115783  0.6237990580467011
  0.4443241444465209  0.0555160517272364  0.6244456072264888
  0.9443271798457759  0.5555071961425913  0.6242389158125941
  0.1109856823975125  0.5554838998074472  0.1247291172258266
  0.7776718923128243  0.0554862490426940  0.6252869428822655
  0.2776135116678585  0.0555040807859212  0.1249779979172267
  0.4443438199634215  0.5554540648497504  0.1250413433470282
  0.7776977658510260  0.5555711035246572  0.1268020693587603
  0.6110160266676492  0.0555123032214935  0.1252729739198881
  0.4443438199634215  0.5554540648497504  0.6249586566529646
  0.9443041722821855  0.0554852836160560  0.1246546027900732
  0.2776675016716774  0.7221648107435920  0.6253791005617492
  0.1109304648890405  0.2221156293000733  0.6254023575988061
  0.4442551050540370  0.2221452292166770  0.6236600028972213
  0.6110204963472914  0.7221499495936781  0.6251019179277952
  0.9443359567508577  0.7222127261811295  0.6248211365095556
  0.7776837165659151  0.2221469441419716  0.6244277019042375
  0.1109846963149478  0.7221768083119441  0.1248312473442428
  0.4443487840096143  0.7221462590395766  0.1246286537085102
  0.2775650561168099  0.2221124396694321  0.1249920749496212
  0.7776935266204025  0.7222103834439233  0.1252270955279822
  0.6110106723440537  0.2221631818440452  0.1271265644921323
  0.9443186920752510  0.2221335677100875  0.1246469196148164
  0.1109751126264534  0.3887966146295689  0.6254108728110550
  0.2776543616501352  0.8888524218627755  0.6251865326175485
  0.6110122570521173  0.8888313692072586  0.6253101877931512
  0.4442309235849534  0.3887508564457479  0.6244004780135216
  0.9443239154297802  0.8888676941280551  0.6251911493460384
  0.1109729261711808  0.8888572852362399  0.1247774294701196
  0.7776840138500418  0.3888125385737781  0.6227374997337126
  0.4443446270959520  0.8888466989327040  0.1248073455305067
  0.2776182008119573  0.3887668998487663  0.1248133697869458
  0.2776655999608902  0.5554656216527458  0.1245843851269133
  0.6109845366411442  0.3888436987996067  0.1273948150433856
  0.7776738005370770  0.8888449890331352  0.1247350888903891
  0.9443247316271219  0.3888101759307070  0.1252510604946957
  0.1109856823975125  0.5554838998074472  0.6252708827743044
  0.2776135116678585  0.0555040807859212  0.6250220020828312
  0.7776977658510260  0.5555711035246572  0.6231979306411692
  0.6110160266676492  0.0555123032214935  0.6247270260800999
  0.9443041722821855  0.0554852836160560  0.6253453972099187
  0.0552629792831477  0.1111907881883291  0.3750000000000000
  0.5568025959120353  0.6114580491582807  0.3750000000000000
  0.3866543345130627  0.1092771074588464  0.3750000000000000
  0.8935271445539714  0.6145349033154487  0.3750000000000000
  0.7222506191113400  0.1117175712482423  0.3750000000000000
  0.0552370866921355  0.7776195352783589  0.8750000000000000
  0.3885786375452869  0.7776413460073774  0.8750000000000000
  0.2219035861480806  0.2776482299193279  0.8750000000000000
  0.7219031439871625  0.7776304144205124  0.8750000000000000
  0.5552218116264165  0.2776279426083015  0.8750000000000000
  0.8885644566890820  0.2776467851633130  0.8750000000000000
  0.2237272699823784  0.7779113641490143  0.3750000000000000
  0.0555085034831669  0.2780450551989255  0.3750000000000000
  0.3870260682426631  0.2787050626130648  0.3750000000000000
  0.5561928521737428  0.7777976480492633  0.3750000000000000
  0.8905437103807035  0.7792029508179396  0.3750000000000000
  0.7222909728323569  0.2789798864288866  0.3750000000000000
  0.0552361664573102  0.9442923737764729  0.8750000000000000
  0.3885667507591560  0.9442948171675545  0.8750000000000000
  0.2219081778589989  0.4443213125663134  0.8750000000000000
  0.5552253594092345  0.4442979621509687  0.8750000000000000
  0.7219016571921114  0.9443041329914815  0.8750000000000000
  0.8885638041160405  0.4443013616259015  0.8750000000000000
  0.0575025288303744  0.4450314895498677  0.3750000000000000
  0.2224332690869545  0.9440384222921491  0.3750000000000000
  0.5558487710542294  0.9442596169333505  0.3750000000000000
  0.3890485458132645  0.4414603538594026  0.3750000000000000
  0.8892411864213015  0.9450372854136591  0.3750000000000000
  0.7285883163157177  0.4495829991234845  0.3750000000000000
  0.2219092830217116  0.6109776098622932  0.8750000000000000
  0.0552383058752997  0.1109721545398130  0.8750000000000000
  0.5552339836129069  0.6109654597036089  0.8750000000000000
  0.3885607847510969  0.1109584557500926  0.8750000000000000
  0.8885656839481112  0.6109548911473691  0.8750000000000000
  0.0582321439536708  0.6121560175382088  0.3750000000000000
  0.7218919303576415  0.1109701434540513  0.8750000000000000
  0.2220506135236900  0.1112345375443414  0.3750000000000000
  0.3900745701854401  0.6098357817236565  0.3750000000000000
  0.7246066118540322  0.6131361557854080  0.3750000000000000
  0.5552563673762015  0.1105240708661302  0.3750000000000000
  0.3885777379861637  0.6109798619464665  0.8750000000000000
  0.8888695309181122  0.1115946424638301  0.3750000000000000
  0.2219073668069140  0.7776269911629017  0.8750000000000000
  0.0552377203715812  0.2776528481485658  0.8750000000000000
  0.3885600091174022  0.2776348368912909  0.8750000000000000
  0.5552416629650561  0.7776389860776399  0.8750000000000000
  0.8885695786711783  0.7776231623609734  0.8750000000000000
  0.7218871077064688  0.2776315602061086  0.8750000000000000
  0.0578082297893024  0.7790796264546535  0.3750000000000000
  0.3898935598264200  0.7772268966558412  0.3750000000000000
  0.2209734255552154  0.2772464222643716  0.3750000000000000
  0.7230326216550362  0.7786050494013310  0.3750000000000000
  0.5511887285281803  0.2744781226307498  0.3750000000000000
  0.8892232027285415  0.2784836179132439  0.3750000000000000
  0.0552371286127858  0.4443171431984303  0.8750000000000000
  0.2219003717224231  0.9442872980470119  0.8750000000000000
  0.5552320447804613  0.9443040020532594  0.8750000000000000
  0.3885699382319429  0.4443137141694800  0.8750000000000000
  0.8885732922230555  0.9443003116676029  0.8750000000000000
  0.0562679770426791  0.9450714953325606  0.3750000000000000
  0.7218964536505850  0.4442962211118297  0.8750000000000000
  0.3892146745723760  0.9439175336086582  0.3750000000000000
  0.2235315332577062  0.4443447061762230  0.3750000000000000
  0.2240096512965329  0.6111845091370786  0.3750000000000000
  0.7224970274080300  0.9449558654657836  0.3750000000000000
  0.8921256874380243  0.4458934562819689  0.3750000000000000
  0.0552347775027595  0.6109627433980357  0.8750000000000000
  0.2218987184635220  0.1109627179518460  0.8750000000000000
  0.7218939335431301  0.6109565422545951  0.8750000000000000
  0.5552211106979800  0.1109607225523912  0.8750000000000000
  0.8885695054355894  0.1109760566158719  0.8750000000000000
  0.1115407677222976  0.0560695470918677  0.3750000000000000
  0.6135457693489383  0.5549602730682556  0.3750000000000000
  0.4447096382379037  0.0562177349812444  0.3750000000000000
  0.9461677390681644  0.5564772168585229  0.3750000000000000
  0.7774583381762454  0.0565100576423064  0.3750000000000000
  0.1107579197080786  0.7220403133262457  0.8750000000000000
  0.4441430584153724  0.7220778422567816  0.8750000000000000
  0.2775574873143539  0.2221246398563001  0.8750000000000000
  0.7774103618197031  0.7219594387386342  0.8750000000000000
  0.6107747207976706  0.2221585894441026  0.8750000000000000
  0.9440886630241818  0.2221240944869355  0.8750000000000000
  0.2790391010372176  0.7221911909530575  0.3750000000000000
  0.1105099781727407  0.2221974218443982  0.3750000000000000
  0.4469548059474784  0.2229036230500318  0.3750000000000000
  0.6119233304198117  0.7221749338306613  0.3750000000000000
  0.9465434444154543  0.7233643651080385  0.3750000000000000
  0.7766411208615955  0.2242751149093145  0.3750000000000000
  0.1107954428840522  0.8887141666062305  0.8750000000000000
  0.4441375701374663  0.8887901526281429  0.8750000000000000
  0.2775278258215221  0.3887757096955635  0.8750000000000000
  0.6107992908437568  0.3887336736287291  0.8750000000000000
  0.7774309534201903  0.8887029855893107  0.8750000000000000
  0.9440505344010647  0.3887711477201952  0.8750000000000000
  0.1121468448751600  0.3891877074909904  0.3750000000000000
  0.2786676482391277  0.8890335760599036  0.3750000000000000
  0.6113708394031319  0.8890706634011867  0.3750000000000000
  0.9450694743996446  0.8893671827648056  0.3750000000000000
  0.7772749355157123  0.3929891052244145  0.3750000000000000
  0.2774801802252299  0.5554265845638469  0.8750000000000000
  0.1108328820206334  0.0554187493487814  0.8750000000000000
  0.6107862952145895  0.5553065489063422  0.8750000000000000
  0.4441651846342450  0.0554906086075813  0.8750000000000000
  0.9440314884418792  0.5553564444059647  0.8750000000000000
  0.1127293798260384  0.5560156646366119  0.3750000000000000
  0.7774207020396486  0.0554484596268345  0.8750000000000000
  0.2777926276030038  0.0552388097718356  0.3750000000000000
  0.4463377798324678  0.5538911011018822  0.3750000000000000
  0.7799100974253999  0.5540013176969272  0.3750000000000000
  0.6107666327029231  0.0563372048687016  0.3750000000000000
  0.4441701200809324  0.5553844291745460  0.8750000000000000
  0.9442413465329483  0.0559550950589284  0.3750000000000000
  0.2774659503642578  0.7220890618420782  0.8750000000000000
  0.1108258916535669  0.2221158672193493  0.8750000000000000
  0.4442207116962219  0.2221507617160893  0.8750000000000000
  0.6107838765001342  0.7220104732241734  0.8750000000000000
  0.9440620819742667  0.7219764894787639  0.8750000000000000
  0.7773906246342889  0.2221433557794034  0.8750000000000000
  0.1126788906819603  0.7227454174499381  0.3750000000000000
  0.4453030269547492  0.7213138775580639  0.3750000000000000
  0.2776893572999133  0.2227798603671673  0.3750000000000000
  0.7787026993095020  0.7221795701406429  0.3750000000000000
  0.6086551653830331  0.2256480234212668  0.3750000000000000
  0.9439760932396710  0.2230266509039955  0.3750000000000000
  0.1107839384975208  0.3887813245290521  0.8750000000000000
  0.2774823389025351  0.8887657564880230  0.8750000000000000
  0.6107783576762942  0.8887575746952812  0.8750000000000000
  0.4442196543386286  0.3887523833396301  0.8750000000000000
  0.9441031468131011  0.8886813654748249  0.8750000000000000
  0.1120592972570756  0.8893702833670422  0.3750000000000000
  0.7773678863229999  0.3887500680943652  0.8750000000000000
  0.4449806719816728  0.8887915471027732  0.3750000000000000
  0.2782063524934010  0.3878326580340846  0.3750000000000000
  0.2792498559701295  0.5553284055026687  0.3750000000000000
  0.7780071570099505  0.8892509647318873  0.3750000000000000
  0.9455015074030363  0.3900733908279872  0.3750000000000000
  0.1107525659398977  0.5554137599377886  0.8750000000000000
  0.2775335304080593  0.0554552378333992  0.8750000000000000
  0.7773778917940219  0.5552984120599634  0.8750000000000000
  0.6107707170303561  0.0554850682577694  0.8750000000000000
  0.9441196959699435  0.0554177218181634  0.8750000000000000
  0.0554207082123758  0.1110299536385822  0.1250012922519058
  0.5556219399175377  0.6108034527022408  0.1259201483000522
  0.3890074682022699  0.1114169059702273  0.1264494419722149
  0.8884135036557103  0.6108162223742972  0.1268533310900514
  0.7221038098705318  0.1112352255279834  0.1257164687517942
  0.0552804569670804  0.7776538718683467  0.6246618768920540
  0.3888369040495165  0.7777796154896230  0.6250148693082093
  0.2221707446743275  0.2776500101561724  0.6248581802646063
  0.7221517555269390  0.7775848875423662  0.6246194808088958
  0.5556412389539351  0.2780953314557823  0.6202060591534573
  0.8885983122910925  0.2777367972641488  0.6243017032250634
  0.2220511810782165  0.7777620259081757  0.1250787159844718
  0.0553614865489638  0.2776690517765653  0.1249450008897289
  0.3890438841634384  0.2777971451057228  0.1265640772991019
  0.5555417250758026  0.7776762175796670  0.1250464657256201
  0.8886673066501072  0.7775808919120609  0.1255852061486216
  0.7219728196071947  0.2779075000935780  0.1280283768483433
  0.0553991659647551  0.9443753548120952  0.6248519087509229
  0.3888947073095835  0.9446519735566364  0.6245281785672808
  0.2221119974801747  0.4442802612051700  0.6250394421418479
  0.5556127521914674  0.4441066445956130  0.6212815005106942
  0.7221379634861358  0.9444220368734169  0.6249411717651141
  0.8883674690154678  0.4442543913825601  0.6229271141208392
  0.0552332859069803  0.4442973812737255  0.1252245858978096
  0.2221500974921032  0.9445279063044243  0.1252495227746890
  0.5555356056223351  0.9445836298631302  0.1253034355120463
  0.3889915828612486  0.4441850632680446  0.1256496911985110
  0.8887485099357106  0.9443433640962710  0.1250938961483836
  0.7217764071817738  0.4442111338721941  0.1302521491966171
  0.2220356380497247  0.6109909346729219  0.6250702454672641
  0.0554207082123758  0.1110299536385822  0.6249987077480792
  0.5556219399175377  0.6108034527022408  0.6240798516999118
  0.3890074682022699  0.1114169059702273  0.6235505580279294
  0.8884135036557103  0.6108162223742972  0.6231466689099128
  0.0551591834358679  0.6109274990106678  0.1255377491511628
  0.7221038098705318  0.1112352255279834  0.6242835312482713
  0.2221937961852585  0.1111269785771326  0.1253514402763940
  0.3888849581060878  0.6109330489018878  0.1250504155633631
  0.7220508971534425  0.6107475867578265  0.1271659713176266
  0.5555898596805604  0.1114717269630210  0.1268811177315385
  0.3888849581060878  0.6109330489018878  0.6249495844367254
  0.8887247296619997  0.1110739578728446  0.1250336080075012
  0.2220511810782165  0.7777620259081757  0.6249212840155777
  0.0553614865489638  0.2776690517765653  0.6250549991102008
  0.3890438841634384  0.2777971451057228  0.6234359227008680
  0.5555417250758026  0.7776762175796670  0.6249535342744568
  0.8886673066501058  0.7775808919120609  0.6244147938513320
  0.7219728196071947  0.2779075000935780  0.6219716231517790
  0.0552804569670804  0.7776538718683467  0.1253381231080081
  0.3888369040495165  0.7777796154896230  0.1249851306917572
  0.2221707446743275  0.2776500101561724  0.1251418197353471
  0.7221517555269390  0.7775848875423662  0.1253805191911463
  0.5556412389539351  0.2780953314557824  0.1297939408464418
  0.8885983122910925  0.2777367972641488  0.1256982967749847
  0.0552332859069803  0.4442973812737255  0.6247754141023077
  0.2221500974921032  0.9445279063044243  0.6247504772252956
  0.5555356056223351  0.9445836298631302  0.6246965644880633
  0.3889915828612486  0.4441850632680446  0.6243503088015770
  0.8887485099357106  0.9443433640962710  0.6249061038517223
  0.0553991659647550  0.9443753548120952  0.1251480912491449
  0.7217764071817738  0.4442111338721941  0.6197478508034516
  0.3888947073095835  0.9446519735566364  0.1254718214326849
  0.2221119974801747  0.4442802612051700  0.1249605578580897
  0.2220356380497247  0.6109909346729219  0.1249297545327760
  0.5556127521914674  0.4441066445956130  0.1287184994892711
  0.7221379634861358  0.9444220368734169  0.1250588282349609
  0.8883674690154678  0.4442543913825601  0.1270728858792241
  0.0551591834358679  0.6109274990106678  0.6244622508487839
  0.2221937961852585  0.1111269785771326  0.6246485597235901
  0.7220508971534425  0.6107475867578265  0.6228340286823822
  0.5555898596805604  0.1114717269630210  0.6231188822683792
  0.8887247296619997  0.1110739578728446  0.6249663919925146
 
  0.00000000E+00  0.00000000E+00  0.00000000E+00
  0.00000000E+00  0.00000000E+00  0.00000000E+00
  0.00000000E+00  0.00000000E+00  0.00000000E+00
  0.00000000E+00  0.00000000E+00  0.00000000E+00
  0.00000000E+00  0.00000000E+00  0.00000000E+00
  0.00000000E+00  0.00000000E+00  0.00000000E+00
  0.00000000E+00  0.00000000E+00  0.00000000E+00
  0.00000000E+00  0.00000000E+00  0.00000000E+00
  0.00000000E+00  0.00000000E+00  0.00000000E+00
  0.00000000E+00  0.00000000E+00  0.00000000E+00
  0.00000000E+00  0.00000000E+00  0.00000000E+00
  0.00000000E+00  0.00000000E+00  0.00000000E+00
  0.00000000E+00  0.00000000E+00  0.00000000E+00
  0.00000000E+00  0.00000000E+00  0.00000000E+00
  0.00000000E+00  0.00000000E+00  0.00000000E+00
  0.00000000E+00  0.00000000E+00  0.00000000E+00
  0.00000000E+00  0.00000000E+00  0.00000000E+00
  0.00000000E+00  0.00000000E+00  0.00000000E+00
  0.00000000E+00  0.00000000E+00  0.00000000E+00
  0.00000000E+00  0.00000000E+00  0.00000000E+00
  0.00000000E+00  0.00000000E+00  0.00000000E+00
  0.00000000E+00  0.00000000E+00  0.00000000E+00
  0.00000000E+00  0.00000000E+00  0.00000000E+00
  0.00000000E+00  0.00000000E+00  0.00000000E+00
  0.00000000E+00  0.00000000E+00  0.00000000E+00
  0.00000000E+00  0.00000000E+00  0.00000000E+00
  0.00000000E+00  0.00000000E+00  0.00000000E+00
  0.00000000E+00  0.00000000E+00  0.00000000E+00
  0.00000000E+00  0.00000000E+00  0.00000000E+00
  0.00000000E+00  0.00000000E+00  0.00000000E+00
  0.00000000E+00  0.00000000E+00  0.00000000E+00
  0.00000000E+00  0.00000000E+00  0.00000000E+00
  0.00000000E+00  0.00000000E+00  0.00000000E+00
  0.00000000E+00  0.00000000E+00  0.00000000E+00
  0.00000000E+00  0.00000000E+00  0.00000000E+00
  0.00000000E+00  0.00000000E+00  0.00000000E+00
  0.00000000E+00  0.00000000E+00  0.00000000E+00
  0.00000000E+00  0.00000000E+00  0.00000000E+00
  0.00000000E+00  0.00000000E+00  0.00000000E+00
  0.00000000E+00  0.00000000E+00  0.00000000E+00
  0.00000000E+00  0.00000000E+00  0.00000000E+00
  0.00000000E+00  0.00000000E+00  0.00000000E+00
  0.00000000E+00  0.00000000E+00  0.00000000E+00
  0.00000000E+00  0.00000000E+00  0.00000000E+00
  0.00000000E+00  0.00000000E+00  0.00000000E+00
  0.00000000E+00  0.00000000E+00  0.00000000E+00
  0.00000000E+00  0.00000000E+00  0.00000000E+00
  0.00000000E+00  0.00000000E+00  0.00000000E+00
  0.00000000E+00  0.00000000E+00  0.00000000E+00
  0.00000000E+00  0.00000000E+00  0.00000000E+00
  0.00000000E+00  0.00000000E+00  0.00000000E+00
  0.00000000E+00  0.00000000E+00  0.00000000E+00
  0.00000000E+00  0.00000000E+00  0.00000000E+00
  0.00000000E+00  0.00000000E+00  0.00000000E+00
  0.00000000E+00  0.00000000E+00  0.00000000E+00
  0.00000000E+00  0.00000000E+00  0.00000000E+00
  0.00000000E+00  0.00000000E+00  0.00000000E+00
  0.00000000E+00  0.00000000E+00  0.00000000E+00
  0.00000000E+00  0.00000000E+00  0.00000000E+00
  0.00000000E+00  0.00000000E+00  0.00000000E+00
  0.00000000E+00  0.00000000E+00  0.00000000E+00
  0.00000000E+00  0.00000000E+00  0.00000000E+00
  0.00000000E+00  0.00000000E+00  0.00000000E+00
  0.00000000E+00  0.00000000E+00  0.00000000E+00
  0.00000000E+00  0.00000000E+00  0.00000000E+00
  0.00000000E+00  0.00000000E+00  0.00000000E+00
  0.00000000E+00  0.00000000E+00  0.00000000E+00
  0.00000000E+00  0.00000000E+00  0.00000000E+00
  0.00000000E+00  0.00000000E+00  0.00000000E+00
  0.00000000E+00  0.00000000E+00  0.00000000E+00
  0.00000000E+00  0.00000000E+00  0.00000000E+00
  0.00000000E+00  0.00000000E+00  0.00000000E+00
  0.00000000E+00  0.00000000E+00  0.00000000E+00
  0.00000000E+00  0.00000000E+00  0.00000000E+00
  0.00000000E+00  0.00000000E+00  0.00000000E+00
  0.00000000E+00  0.00000000E+00  0.00000000E+00
  0.00000000E+00  0.00000000E+00  0.00000000E+00
  0.00000000E+00  0.00000000E+00  0.00000000E+00
  0.00000000E+00  0.00000000E+00  0.00000000E+00
  0.00000000E+00  0.00000000E+00  0.00000000E+00
  0.00000000E+00  0.00000000E+00  0.00000000E+00
  0.00000000E+00  0.00000000E+00  0.00000000E+00
  0.00000000E+00  0.00000000E+00  0.00000000E+00
  0.00000000E+00  0.00000000E+00  0.00000000E+00
  0.00000000E+00  0.00000000E+00  0.00000000E+00
  0.00000000E+00  0.00000000E+00  0.00000000E+00
  0.00000000E+00  0.00000000E+00  0.00000000E+00
  0.00000000E+00  0.00000000E+00  0.00000000E+00
  0.00000000E+00  0.00000000E+00  0.00000000E+00
  0.00000000E+00  0.00000000E+00  0.00000000E+00
  0.00000000E+00  0.00000000E+00  0.00000000E+00
  0.00000000E+00  0.00000000E+00  0.00000000E+00
  0.00000000E+00  0.00000000E+00  0.00000000E+00
  0.00000000E+00  0.00000000E+00  0.00000000E+00
  0.00000000E+00  0.00000000E+00  0.00000000E+00
  0.00000000E+00  0.00000000E+00  0.00000000E+00
  0.00000000E+00  0.00000000E+00  0.00000000E+00
  0.00000000E+00  0.00000000E+00  0.00000000E+00
  0.00000000E+00  0.00000000E+00  0.00000000E+00
  0.00000000E+00  0.00000000E+00  0.00000000E+00
  0.00000000E+00  0.00000000E+00  0.00000000E+00
  0.00000000E+00  0.00000000E+00  0.00000000E+00
  0.00000000E+00  0.00000000E+00  0.00000000E+00
  0.00000000E+00  0.00000000E+00  0.00000000E+00
  0.00000000E+00  0.00000000E+00  0.00000000E+00
  0.00000000E+00  0.00000000E+00  0.00000000E+00
  0.00000000E+00  0.00000000E+00  0.00000000E+00
  0.00000000E+00  0.00000000E+00  0.00000000E+00
  0.00000000E+00  0.00000000E+00  0.00000000E+00
  0.00000000E+00  0.00000000E+00  0.00000000E+00
  0.00000000E+00  0.00000000E+00  0.00000000E+00
  0.00000000E+00  0.00000000E+00  0.00000000E+00
  0.00000000E+00  0.00000000E+00  0.00000000E+00
  0.00000000E+00  0.00000000E+00  0.00000000E+00
  0.00000000E+00  0.00000000E+00  0.00000000E+00
  0.00000000E+00  0.00000000E+00  0.00000000E+00
  0.00000000E+00  0.00000000E+00  0.00000000E+00
  0.00000000E+00  0.00000000E+00  0.00000000E+00
  0.00000000E+00  0.00000000E+00  0.00000000E+00
  0.00000000E+00  0.00000000E+00  0.00000000E+00
  0.00000000E+00  0.00000000E+00  0.00000000E+00
  0.00000000E+00  0.00000000E+00  0.00000000E+00
  0.00000000E+00  0.00000000E+00  0.00000000E+00
  0.00000000E+00  0.00000000E+00  0.00000000E+00
  0.00000000E+00  0.00000000E+00  0.00000000E+00
  0.00000000E+00  0.00000000E+00  0.00000000E+00
  0.00000000E+00  0.00000000E+00  0.00000000E+00
  0.00000000E+00  0.00000000E+00  0.00000000E+00
  0.00000000E+00  0.00000000E+00  0.00000000E+00
  0.00000000E+00  0.00000000E+00  0.00000000E+00
  0.00000000E+00  0.00000000E+00  0.00000000E+00
  0.00000000E+00  0.00000000E+00  0.00000000E+00
  0.00000000E+00  0.00000000E+00  0.00000000E+00
  0.00000000E+00  0.00000000E+00  0.00000000E+00
  0.00000000E+00  0.00000000E+00  0.00000000E+00
  0.00000000E+00  0.00000000E+00  0.00000000E+00
  0.00000000E+00  0.00000000E+00  0.00000000E+00
  0.00000000E+00  0.00000000E+00  0.00000000E+00
  0.00000000E+00  0.00000000E+00  0.00000000E+00
  0.00000000E+00  0.00000000E+00  0.00000000E+00
  0.00000000E+00  0.00000000E+00  0.00000000E+00
  0.00000000E+00  0.00000000E+00  0.00000000E+00
  0.00000000E+00  0.00000000E+00  0.00000000E+00
  0.00000000E+00  0.00000000E+00  0.00000000E+00
  0.00000000E+00  0.00000000E+00  0.00000000E+00
  0.00000000E+00  0.00000000E+00  0.00000000E+00
  0.00000000E+00  0.00000000E+00  0.00000000E+00
  0.00000000E+00  0.00000000E+00  0.00000000E+00
  0.00000000E+00  0.00000000E+00  0.00000000E+00
  0.00000000E+00  0.00000000E+00  0.00000000E+00
  0.00000000E+00  0.00000000E+00  0.00000000E+00
  0.00000000E+00  0.00000000E+00  0.00000000E+00
  0.00000000E+00  0.00000000E+00  0.00000000E+00
  0.00000000E+00  0.00000000E+00  0.00000000E+00
  0.00000000E+00  0.00000000E+00  0.00000000E+00
  0.00000000E+00  0.00000000E+00  0.00000000E+00
  0.00000000E+00  0.00000000E+00  0.00000000E+00
  0.00000000E+00  0.00000000E+00  0.00000000E+00
  0.00000000E+00  0.00000000E+00  0.00000000E+00
  0.00000000E+00  0.00000000E+00  0.00000000E+00
  0.00000000E+00  0.00000000E+00  0.00000000E+00
  0.00000000E+00  0.00000000E+00  0.00000000E+00
  0.00000000E+00  0.00000000E+00  0.00000000E+00
  0.00000000E+00  0.00000000E+00  0.00000000E+00
  0.00000000E+00  0.00000000E+00  0.00000000E+00
  0.00000000E+00  0.00000000E+00  0.00000000E+00
  0.00000000E+00  0.00000000E+00  0.00000000E+00
  0.00000000E+00  0.00000000E+00  0.00000000E+00
  0.00000000E+00  0.00000000E+00  0.00000000E+00
  0.00000000E+00  0.00000000E+00  0.00000000E+00
  0.00000000E+00  0.00000000E+00  0.00000000E+00
  0.00000000E+00  0.00000000E+00  0.00000000E+00
  0.00000000E+00  0.00000000E+00  0.00000000E+00
  0.00000000E+00  0.00000000E+00  0.00000000E+00
  0.00000000E+00  0.00000000E+00  0.00000000E+00
  0.00000000E+00  0.00000000E+00  0.00000000E+00
  0.00000000E+00  0.00000000E+00  0.00000000E+00
  0.00000000E+00  0.00000000E+00  0.00000000E+00
  0.00000000E+00  0.00000000E+00  0.00000000E+00
  0.00000000E+00  0.00000000E+00  0.00000000E+00
  0.00000000E+00  0.00000000E+00  0.00000000E+00
  0.00000000E+00  0.00000000E+00  0.00000000E+00
  0.00000000E+00  0.00000000E+00  0.00000000E+00
  0.00000000E+00  0.00000000E+00  0.00000000E+00
  0.00000000E+00  0.00000000E+00  0.00000000E+00
  0.00000000E+00  0.00000000E+00  0.00000000E+00
  0.00000000E+00  0.00000000E+00  0.00000000E+00
  0.00000000E+00  0.00000000E+00  0.00000000E+00
  0.00000000E+00  0.00000000E+00  0.00000000E+00
  0.00000000E+00  0.00000000E+00  0.00000000E+00
  0.00000000E+00  0.00000000E+00  0.00000000E+00
  0.00000000E+00  0.00000000E+00  0.00000000E+00
  0.00000000E+00  0.00000000E+00  0.00000000E+00
  0.00000000E+00  0.00000000E+00  0.00000000E+00
  0.00000000E+00  0.00000000E+00  0.00000000E+00
  0.00000000E+00  0.00000000E+00  0.00000000E+00
  0.00000000E+00  0.00000000E+00  0.00000000E+00
  0.00000000E+00  0.00000000E+00  0.00000000E+00
  0.00000000E+00  0.00000000E+00  0.00000000E+00
  0.00000000E+00  0.00000000E+00  0.00000000E+00
  0.00000000E+00  0.00000000E+00  0.00000000E+00
  0.00000000E+00  0.00000000E+00  0.00000000E+00
  0.00000000E+00  0.00000000E+00  0.00000000E+00
  0.00000000E+00  0.00000000E+00  0.00000000E+00
  0.00000000E+00  0.00000000E+00  0.00000000E+00
  0.00000000E+00  0.00000000E+00  0.00000000E+00
  0.00000000E+00  0.00000000E+00  0.00000000E+00
  0.00000000E+00  0.00000000E+00  0.00000000E+00
  0.00000000E+00  0.00000000E+00  0.00000000E+00
  0.00000000E+00  0.00000000E+00  0.00000000E+00
  0.00000000E+00  0.00000000E+00  0.00000000E+00
  0.00000000E+00  0.00000000E+00  0.00000000E+00
  0.00000000E+00  0.00000000E+00  0.00000000E+00
  0.00000000E+00  0.00000000E+00  0.00000000E+00
  0.00000000E+00  0.00000000E+00  0.00000000E+00
  0.00000000E+00  0.00000000E+00  0.00000000E+00
  0.00000000E+00  0.00000000E+00  0.00000000E+00
  0.00000000E+00  0.00000000E+00  0.00000000E+00
  0.00000000E+00  0.00000000E+00  0.00000000E+00
  0.00000000E+00  0.00000000E+00  0.00000000E+00
  0.00000000E+00  0.00000000E+00  0.00000000E+00
  0.00000000E+00  0.00000000E+00  0.00000000E+00
  0.00000000E+00  0.00000000E+00  0.00000000E+00
  0.00000000E+00  0.00000000E+00  0.00000000E+00
  0.00000000E+00  0.00000000E+00  0.00000000E+00
  0.00000000E+00  0.00000000E+00  0.00000000E+00
  0.00000000E+00  0.00000000E+00  0.00000000E+00
  0.00000000E+00  0.00000000E+00  0.00000000E+00
  0.00000000E+00  0.00000000E+00  0.00000000E+00
  0.00000000E+00  0.00000000E+00  0.00000000E+00
  0.00000000E+00  0.00000000E+00  0.00000000E+00
  0.00000000E+00  0.00000000E+00  0.00000000E+00
  0.00000000E+00  0.00000000E+00  0.00000000E+00
  0.00000000E+00  0.00000000E+00  0.00000000E+00
  0.00000000E+00  0.00000000E+00  0.00000000E+00
  0.00000000E+00  0.00000000E+00  0.00000000E+00
  0.00000000E+00  0.00000000E+00  0.00000000E+00
  0.00000000E+00  0.00000000E+00  0.00000000E+00
  0.00000000E+00  0.00000000E+00  0.00000000E+00
  0.00000000E+00  0.00000000E+00  0.00000000E+00
  0.00000000E+00  0.00000000E+00  0.00000000E+00
  0.00000000E+00  0.00000000E+00  0.00000000E+00
  0.00000000E+00  0.00000000E+00  0.00000000E+00
  0.00000000E+00  0.00000000E+00  0.00000000E+00
  0.00000000E+00  0.00000000E+00  0.00000000E+00
  0.00000000E+00  0.00000000E+00  0.00000000E+00
  0.00000000E+00  0.00000000E+00  0.00000000E+00
  0.00000000E+00  0.00000000E+00  0.00000000E+00