 B Si N 
 1.0
 17.527899999999772   0.000000000000000   0.000000000000000
 -8.763949999999658  15.179606674993195   0.000000000000000
  0.000000000000001   0.000000000000002  15.000000000000000
 B Si N 
  47   1  49
Cartesian
  7.519043840916543  14.480739856710780   1.595705243403855 
 15.023945799050420   1.459919135294446   1.618410957517935 
 13.769618437270754   3.621214277641955   1.641024292670415 
 12.514037984475326   5.783907922405047   1.646330029924995 
 11.256275813803299   7.949530032516239   1.674028475023590 
 10.000721415107808  10.119737783328796   1.719117412155705 
  8.766794046634487  12.308495634785301   1.637413373562900 
 -7.511719546113808  14.458563526702262   1.615298521448970 
 -0.000117743975282   1.447226625378644   1.623625588056015 
 -1.254582038289735   3.615803905535160   1.635748471468875 
 -2.511202566450445   5.784575313529213   1.636934669513445 
 -3.769867892653197   7.950687324712927   1.633143795210660 
 -5.022282804190489  10.114804141386291   1.641489286294425 
 -6.266653597114209  12.283574965007897   1.639287641223450 
 -5.014344462920103  14.441180170318942   1.638335275943325 
  2.501366856762588   1.428922225541928   1.637285613781425 
  1.246497234797995   3.592844495781156   1.630528535591865 
 -0.008257645880234   5.775515811420532   1.637148229079400 
 -1.271748832373224   7.952626093937216   1.635641373410535 
 -2.517852684202046  10.119737783328796   1.627840965897015 
 -3.766126144077025  12.278600799757404   1.635601064879175 
 -2.511359366248879  14.439402974954538   1.644338673177195 
  5.003603749982533   1.413583395286789   1.648715052170340 
  3.755718668885080   3.575189656757256   1.635852247059360 
  2.494652133025105   5.726128799342812   1.649201892052410 
  1.212886419734170   7.953762351910513   1.701873165302895 
 -0.010918566882834  10.125301270138264   1.654354187809395 
 -1.264041245583159  12.283993504088121   1.630188543622620 
 -0.009288940022577  14.453605935706344   1.623991398684450 
  7.514363871589969   1.414614710001935   1.651890467890440 
  6.273597436468089   3.543388464834619   1.654952048627295 
  5.059901215293608   5.685714396635936   1.620722185170840 
  2.472333197258028  10.191092747814210   1.813872807643290 
  1.231329765210383  12.313131802154496   1.625731476186210 
  2.493834126340408  14.478042477910385   1.596196680992340 
 10.014228397145452   1.441761664101174   1.634607596650695 
  8.771438929004631   3.585907601347423   1.656308893152165 
  7.512868890718542   5.722502721525701   1.695223755735705 
  5.042859777155013  10.267224150741983   2.002837248346035 
  3.742986251691605  12.343606641526863   1.640768262896970 
  5.006266133655931  14.486981620324672   1.588037902949790 
 12.517382333942093   1.459064472875313   1.621094002229820 
 11.267461564843236   3.615364635902143   1.645006944595800 
 10.012701709784690   5.775767282582605   1.673334511689855 
  8.744466358490005   7.958761123627832   1.786547090992980 
  7.500985535303943  10.165471351563324   1.907228325649290 
  6.274746670973329  12.343865063277626   1.654776602701185 
  3.910537066640792   7.955385290573160   1.832862363676170 
  8.764939313261378  13.751378400587688   1.596675709542510 
 16.275641776160985   0.739120720519350   1.610131907043990 
 15.022295574741793   2.900891710741552   1.636906701373815 
 13.769092924986754   5.064091532047218   1.642369833562755 
 12.511508504922890   7.228529936457856   1.645070128605525 
 11.255278213467204   9.396783896614190   1.668925102752360 
 10.009288626155413  11.568556978921274   1.662279038146710 
 -6.265833730527703  13.726945498282605   1.626900847227525 
  1.248267819088510   0.720365366977752   1.626599796705555 
 -0.005978858956919   2.888101856469805   1.632413593216695 
 -1.256609526769265   5.059868891664398   1.635631845969660 
 -2.515675662056996   7.229524792471564   1.630611971611770 
 -3.766154792870777   9.394740787352424   1.628908460283930 
 -5.016815416393150  11.559212376623019   1.637806625564775 
 -3.763196983410970  13.719617705709931   1.641922213733910 
  3.749099989658972   0.701634403802135   1.643750441348745 
  2.497014694652830   2.869967841866142   1.635093116335275 
  1.238566695140799   5.036582351367139   1.630082276918130 
 -0.020797995169785   7.227606673805833   1.648117230108990 
 -1.259060297778650   9.397341443216575   1.631027330034900 
 -2.512734917114324  11.559055274539602   1.630869589935975 
 -1.257987183996659  13.724017331185420   1.633808923232160 
  6.257572271942121   0.697326850842308   1.652482757998530 
  5.004663910109878   2.848098763034447   1.644600904614705 
  3.753094778615950   5.015562578037227   1.631559329358120 
  2.436796712233278   7.181926016698309   1.719650849801805 
  1.250296739328950   9.407299654026508   1.720470096454800 
 -0.008644875611244  11.568444528630597   1.632698334202755 
  1.243556201388014  13.747125881208252   1.601647925775990 
  8.766564730652304   0.708460576247105   1.638960610838970 
  7.527015955554029   2.844322526247287   1.658826197842185 
  6.287313841544816   4.958530131700980   1.657235049304935 
  5.197069919956362   7.073004379231094   1.568574919591035 
  3.752443788834222   9.574774237232599   2.053332979371165 
  2.486212257440361  11.613227842491643   1.672635308888565 
  3.747699493900323  13.773364664044447   1.579717110124470 
 11.267037077679447   0.733561585049291   1.616642594965380 
 10.023244071516249   2.878707578127838   1.645587357488565 
  8.786344201044171   5.021080997660914   1.668739165437720 
  7.625420943563392   7.116971184509054   1.765068710334405 
  6.245485729795441   9.548655449334110   2.109100808089440 
  5.004599962509681  11.662391753987075   1.708558275687975 
  6.263811941920102  13.775581978472106   1.588297580403915 
 13.770930901436365   0.744059637043598   1.605607213485540 
 12.520933823324009   2.898827789969581   1.639121372335080 
 11.268241513815260   5.059868891664398   1.650490669107540 
 10.013051132160518   7.225548902631487   1.706414117610180 
  8.747268455525424   9.415436006159792   1.838880315825840 
  7.517536184833673  11.611011083877578   1.692781312920585 
