 O N B 
 1.0
 17.527899999999772   0.000000000000000   0.000000000000000
 -8.763949999999658  15.179606674993195   0.000000000000000
  0.000000000000001   0.000000000000002  15.000000000000000
 O N B 
   1  49  48
Cartesian
  3.755980213596274   7.951242049921758   1.668426195041520 
  8.765329398666811  13.735724617368696   1.665214724062230 
 16.275478690247748   0.723099967366771   1.664954063812575 
 15.022035362671215   2.889839143837974   1.665258141840930 
 13.769168103614177   5.059868891664398   1.665258141840930 
 12.519954786406217   7.227858177859944   1.664954063812575 
 11.270178657429003   9.397198435891189   1.665214724062230 
 10.018131013707329  11.566679179401959   1.665291706117800 
 -6.259986929112769  13.733957109018275   1.664954666888205 
  1.251140527643919   0.720767715088830   1.665214724062230 
 -0.006281155219421   2.883618574164319   1.665157574564700 
 -1.260571485750666   5.054917255220042   1.665008969163930 
 -2.513826137482880   7.226813885709178   1.665157574564700 
 -3.758199084616288   9.397198435891189   1.665214724062230 
 -5.007975213584789  11.565409206052269   1.664954666888205 
 -3.755963498056605  13.733957109018275   1.664954666888205 
  3.755989786406228   0.720332409544916   1.665291706117800 
  2.501925996857585   2.884639736046779   1.665413263082835 
  1.233979592608864   5.039833715407913   1.665152235893400 
 -0.026358675227104   7.222803630023237   1.665152235893400 
 -1.258838209321477   9.398474416435576   1.665413263082835 
 -2.506151440894548  11.566679179401959   1.665291706117800 
 -1.253349825853985  13.735724617368696   1.665214724062230 
  6.260839045168414   0.720767715088830   1.665214724062230 
  5.010053575954919   2.884639736046779   1.665413263082835 
  3.755989786406302   5.047414483646485   1.665317816806500 
  2.376297520979739   7.154664555263166   1.664123951374860 
  1.241211559537681   9.403138142351061   1.665317816806500 
 -0.004774419772839  11.570576615866356   1.665413263082835 
  1.248444804134055  13.743258308460021   1.665157574564700 
  8.764430882546804   0.723099967366771   1.664954063812575 
  7.518260728031818   2.883618574164319   1.665157574564700 
  6.277999980203720   5.039833715407913   1.665152235893400 
  5.135682051832911   7.154664555263166   1.664123951374860 
  3.755989786397580   9.544361657807048   1.664123951374860 
  2.495651518561546  11.591053422902368   1.665152235893400 
  3.755989786397580  13.743856257893436   1.665008969163930 
 11.266546765467703   0.725244143016586   1.665258141840930 
 10.016817259056999   2.889839143837974   1.665258141840930 
  8.772551058563129   5.054917255220042   1.665008969163930 
  7.538338248039754   7.222803630023237   1.665152235893400 
  6.270768013257473   9.403138142351061   1.665317816806500 
  5.016328054233549  11.591053422902368   1.665152235893400 
  6.263534768678668  13.743258308460021   1.665157574564700 
 13.772305856260322   0.725244143016586   1.665258141840930 
 12.519954786406029   2.891352704197829   1.665408015365460 
 11.269709090792581   5.059868891664398   1.665258141840930 
 10.025805710312973   7.226813885709178   1.665157574564700 
  8.770817782134195   9.398474416435576   1.665413263082835 
  7.516753992585499  11.570576615866356   1.665413263082835 
  7.515007797672721  14.460588333743219   1.665262105142595 
 15.023780939149072   1.445774267838548   1.665352741522080 
 13.771593784111829   3.614004137121463   1.665685036761795 
 12.519945213587370   5.782544958317652   1.665352741522080 
 11.272753249453617   7.951982289347619   1.665262105142595 
 10.021216511635480  10.119737783328796   1.665684992371695 
  8.767713421259025  12.290868823305496   1.665684992371695 
 -7.511745140346167  14.456666316165251   1.665332746299480 
 -0.001765238193458   1.441155526659227   1.665262105142595 
 -1.255587200882093   3.610396499949555   1.665305465184840 
 -2.509086013814657   5.781520131176108   1.665305465184840 
 -3.760792822278491   7.951982289347619   1.665262105142595 
 -5.007818284456958  10.119737783328796   1.665332746299480 
 -6.259400848721524  12.288614201382540   1.665170563969785 
 -5.007984786403458  14.456130402725202   1.665170563969785 
  2.503619788725498   1.441140388388685   1.665684992371695 
  1.244352462777729   3.599420486009858   1.665545071361775 
 -0.012333798712519   5.775604940514099   1.665223533354945 
 -1.268621688897565   7.952019394818915   1.665545071361775 
 -2.506970753431387  10.119737783328796   1.665684992371695 
 -3.756568724085441  12.288614201382540   1.665170563969785 
 -2.503926855889057  14.456666316165251   1.665332746299480 
  5.010590542157037   1.441140388388685   1.665684992371695 
  3.755980213604989   3.604350131329620   1.665723397061415 
  2.492426271013432   5.746083070540628   1.665197794860435 
  1.214479546786243   7.959551726268409   1.665197794860435 
 -0.008538615396559  10.124688009210223   1.665723397061415 
 -1.253503090376305  12.290868823305496   1.665684992371695 
 -0.003047370479978  14.460588333743219   1.665262105142595 
  7.513725665385951   1.441155526659227   1.665262105142595 
  6.267607964414688   3.599420486009858   1.665545071361775 
  5.019534156196630   5.746083070540628   1.665197794860435 
  2.478033489377875  10.148091352941044   1.665197794860435 
  1.243006061929700  12.302286268921399   1.665545071361775 
  2.502481400663845  14.461809518609316   1.665305465184840 
 10.016109488025640   1.445774267838548   1.665352741522080 
  8.767547628074650   3.610396499949555   1.665305465184840 
  7.524294225905124   5.775604940514099   1.665223533354945 
  6.297480880406427   7.959551726268409   1.665197794860435 
  5.033926937814861  10.148091352941044   1.665197794860435 
  3.755980213596400  12.302516268706766   1.665223533354945 
  5.009479026529039  14.461809518609316   1.665305465184840 
 12.519945213587365   1.446085219751929   1.665685036761795 
 11.268296643062826   3.614004137121463   1.665685036761795 
 10.021046441007281   5.781520131176108   1.665305465184840 
  8.780582116072688   7.952019394818915   1.665545071361775 
  7.520499042589293  10.124688009210223   1.665723397061415 
  6.268954365262994  12.302286268921399   1.665545071361775 
