B N O                                   
   1.0000000000000000     
     8.7639499999999995  -15.1796066749929999    0.0000000000000000
     8.7639499999999995   15.1796066749929999    0.0000000000000000
     0.0000000000000000    0.0000000000000000   15.0000000000000000
   B    N    O 
    48    49     1
Selective dynamics
Direct
  0.9050617794943858  0.9526326105382898  0.1110174736761732   T   T   T
  0.9047575067106306  0.0952445144853656  0.1110235161014722   T   T   T
  0.9047370218640831  0.2380828577775437  0.1110456691174526   T   T   T
  0.9047575067106306  0.3809416859162622  0.1110235161014722   T   T   T
  0.9050617794943858  0.5238595742040980  0.1110174736761732   T   T   T
  0.9050627767712497  0.6667970491442542  0.1110456661581128   T   T   T
  0.9050627767712497  0.8096961328749975  0.1110456661581128   T   T   T
  0.0476277847817568  0.9523742364142468  0.1110221830866322   T   T   T
  0.0473694106577138  0.0949402417016103  0.1110174736761732   T   T   T
  0.0472889616123436  0.2378451943618078  0.1110203643456565   T   T   T
  0.0472889616123436  0.3808741724975356  0.1110203643456565   T   T   T
  0.0473694106577138  0.5238595742040980  0.1110174736761732   T   T   T
  0.0476277847817568  0.6666856651715073  0.1110221830866322   T   T   T
  0.0476630896122125  0.8095476032081085  0.1110113709313187   T   T   T
  0.1904544179878950  0.9523389315837907  0.1110113709313187   T   T   T
  0.1903058883210060  0.0949392444247465  0.1110456661581128   T   T   T
  0.1895537314397134  0.2371221180545819  0.1110363380907852   T   T   T
  0.1895385795461041  0.3804844923965521  0.1110149022236625   T   T   T
  0.1895537314397134  0.5238620186331330  0.1110363380907852   T   T   T
  0.1903058883210060  0.6667970491442542  0.1110456661581128   T   T   T
  0.1904544179878950  0.8095476032081085  0.1110113709313187   T   T   T
  0.3333163560254909  0.9523742364142468  0.1110221830866322   T   T   T
  0.3332049720527441  0.0949392444247465  0.1110456661581128   T   T   T
  0.3330092442438524  0.2374468725377064  0.1110482264707615   T   T   T
  0.3314674820472487  0.3785396547860953  0.1110131863240291   T   T   T
  0.3314674820472487  0.5243582325081536  0.1110131863240291   T   T   T
  0.3330092442438524  0.6669927769531460  0.1110482264707615   T   T   T
  0.3332049720527441  0.8096961328749975  0.1110456661581128   T   T   T
  0.4761424469929002  0.9526326105382898  0.1110174736761732   T   T   T
  0.4761424469929002  0.0949402417016103  0.1110174736761732   T   T   T
  0.4761400025638651  0.2371221180545819  0.1110363380907852   T   T   T
  0.4756437886888448  0.3785396547860952  0.1110131863240291   T   T   T
  0.4756437886888448  0.6685345391497496  0.1110131863240291   T   T   T
  0.4761400025638651  0.8104482897562904  0.1110363380907852   T   T   T
  0.6191278486984678  0.9527130595836601  0.1110203643456565   T   T   T
  0.6190603352797409  0.0952445144853656  0.1110235161014722   T   T   T
  0.6191278486984678  0.2378451943618078  0.1110203643456565   T   T   T
  0.6195175287994511  0.3804844923965521  0.1110149022236625   T   T   T
  0.6214623664099084  0.5243582325081536  0.1110131863240291   T   T   T
  0.6214623664099084  0.6685345391497496  0.1110131863240291   T   T   T
  0.6195175287994511  0.8104634416498990  0.1110149022236625   T   T   T
  0.7621568268341961  0.9527130595836601  0.1110203643456565   T   T   T
  0.7619191634184598  0.0952649993319132  0.1110456691174526   T   T   T
  0.7619191634184598  0.2380828577775437  0.1110456691174526   T   T   T
  0.7621568268341961  0.3808741724975356  0.1110203643456565   T   T   T
  0.7628799031414217  0.5238620186331330  0.1110363380907852   T   T   T
  0.7625551486582971  0.6669927769531460  0.1110482264707615   T   T   T
  0.7628799031414217  0.8104482897562904  0.1110363380907852   T   T   T
  0.9525187674518424  0.9048801402737829  0.1110143149374822   T   T   T
  0.9523651236633123  0.0476362782546933  0.1109969375875048   T   T   T
  0.9522238699605173  0.1903764178948515  0.1110172094560622   T   T   T
  0.9522238699605173  0.3332744341836641  0.1110172094560622   T   T   T
  0.9523651236633123  0.4761558275266174  0.1109969375875048   T   T   T
  0.9525187674518424  0.6190673208530553  0.1110143149374822   T   T   T
  0.9525474444494246  0.7619880690622138  0.1110194470745203   T   T   T
  0.0952377013114780  0.9047637006065202  0.1109969777925469   T   T   T
  0.0951212616442157  0.0474826344661633  0.1110143149374822   T   T   T
  0.0946249581989008  0.1899666200781586  0.1110105049709804   T   T   T
  0.0945855665699731  0.3330071301219870  0.1110005979442618   T   T   T
  0.0946249581989008  0.4760870317947432  0.1110105049709804   T   T   T
  0.0951212616442157  0.6190673208530553  0.1110143149374822   T   T   T
  0.0952377013114780  0.7619044059359629  0.1109969777925469   T   T   T
  0.2380969959820428  0.9047637006065202  0.1109969777925469   T   T   T
  0.2380133328557919  0.0474539574685809  0.1110194470745203   T   T   T
  0.2377565780829015  0.1900338920374611  0.1110275508721892   T   T   T
  0.2364076098603097  0.3320134588013077  0.1110101490595596   T   T   T
  0.2364076098603097  0.4758228447329959  0.1110101490595596   T   T   T
  0.2377565780829015  0.6191513797204359  0.1110275508721892   T   T   T
  0.2380133328557919  0.7619880690622138  0.1110194470745203   T   T   T
  0.3809340810649435  0.9048801402737829  0.1110143149374822   T   T   T
  0.3809340810649435  0.0474826344661633  0.1110143149374822   T   T   T
  0.3808500221975624  0.1900338920374611  0.1110275508721892   T   T   T
  0.3805427859156656  0.3325128635883285  0.1110211877871004   T   T   T
  0.3712392829672894  0.4713339883206415  0.1109415967583243   T   T   T
  0.3805427859156656  0.6194586160023329  0.1110211877871004   T   T   T
  0.3808500221975624  0.7622448238351042  0.1110275508721892   T   T   T
  0.5239143701222535  0.9053764437190979  0.1110105049709804   T   T   T
  0.5238455743903794  0.0476362782546933  0.1109969375875048   T   T   T
  0.5239143701222535  0.1899666200781586  0.1110105049709804   T   T   T
  0.5241785571840007  0.3320134588013077  0.1110101490595596   T   T   T
  0.5286674135963548  0.4713339883206415  0.1109415967583243   T   T   T
  0.5286674135963548  0.6287621189507094  0.1109415967583243   T   T   T
  0.5241785571840007  0.7635937920576961  0.1110101490595596   T   T   T
  0.6669942717950096  0.9054158353480256  0.1110005979442618   T   T   T
  0.6667269677333323  0.0477775319574882  0.1110172094560622   T   T   T
  0.6667269677333323  0.1903764178948515  0.1110172094560622   T   T   T
  0.6669942717950096  0.3330071301219870  0.1110005979442618   T   T   T
  0.6679879431156892  0.4758228447329959  0.1110101490595596   T   T   T
  0.6674885383286683  0.6194586160023329  0.1110211877871004   T   T   T
  0.6679879431156892  0.7635937920576961  0.1110101490595596   T   T   T
  0.8100347818398398  0.9053764437190979  0.1110105049709804   T   T   T
  0.8096249840231472  0.0477775319574882  0.1110172094560622   T   T   T
  0.8095252739059973  0.1904761280120013  0.1110272010243640   T   T   T
  0.8096249840231472  0.3332744341836641  0.1110172094560622   T   T   T
  0.8100347818398398  0.4760870317947432  0.1110105049709804   T   T   T
  0.8099675098805376  0.6191513797204359  0.1110275508721892   T   T   T
  0.8099675098805376  0.7622448238351042  0.1110275508721892   T   T   T
  0.4761912123819982  0.5238108088150000  0.1112284130027681   T   T   T

  0.00000000E+00  0.00000000E+00  0.00000000E+00
  0.00000000E+00  0.00000000E+00  0.00000000E+00
  0.00000000E+00  0.00000000E+00  0.00000000E+00
  0.00000000E+00  0.00000000E+00  0.00000000E+00
  0.00000000E+00  0.00000000E+00  0.00000000E+00
  0.00000000E+00  0.00000000E+00  0.00000000E+00
  0.00000000E+00  0.00000000E+00  0.00000000E+00
  0.00000000E+00  0.00000000E+00  0.00000000E+00
  0.00000000E+00  0.00000000E+00  0.00000000E+00
  0.00000000E+00  0.00000000E+00  0.00000000E+00
  0.00000000E+00  0.00000000E+00  0.00000000E+00
  0.00000000E+00  0.00000000E+00  0.00000000E+00
  0.00000000E+00  0.00000000E+00  0.00000000E+00
  0.00000000E+00  0.00000000E+00  0.00000000E+00
  0.00000000E+00  0.00000000E+00  0.00000000E+00
  0.00000000E+00  0.00000000E+00  0.00000000E+00
  0.00000000E+00  0.00000000E+00  0.00000000E+00
  0.00000000E+00  0.00000000E+00  0.00000000E+00
  0.00000000E+00  0.00000000E+00  0.00000000E+00
  0.00000000E+00  0.00000000E+00  0.00000000E+00
  0.00000000E+00  0.00000000E+00  0.00000000E+00
  0.00000000E+00  0.00000000E+00  0.00000000E+00
  0.00000000E+00  0.00000000E+00  0.00000000E+00
  0.00000000E+00  0.00000000E+00  0.00000000E+00
  0.00000000E+00  0.00000000E+00  0.00000000E+00
  0.00000000E+00  0.00000000E+00  0.00000000E+00
  0.00000000E+00  0.00000000E+00  0.00000000E+00
  0.00000000E+00  0.00000000E+00  0.00000000E+00
  0.00000000E+00  0.00000000E+00  0.00000000E+00
  0.00000000E+00  0.00000000E+00  0.00000000E+00
  0.00000000E+00  0.00000000E+00  0.00000000E+00
  0.00000000E+00  0.00000000E+00  0.00000000E+00
  0.00000000E+00  0.00000000E+00  0.00000000E+00
  0.00000000E+00  0.00000000E+00  0.00000000E+00
  0.00000000E+00  0.00000000E+00  0.00000000E+00
  0.00000000E+00  0.00000000E+00  0.00000000E+00
  0.00000000E+00  0.00000000E+00  0.00000000E+00
  0.00000000E+00  0.00000000E+00  0.00000000E+00
  0.00000000E+00  0.00000000E+00  0.00000000E+00
  0.00000000E+00  0.00000000E+00  0.00000000E+00
  0.00000000E+00  0.00000000E+00  0.00000000E+00
  0.00000000E+00  0.00000000E+00  0.00000000E+00
  0.00000000E+00  0.00000000E+00  0.00000000E+00
  0.00000000E+00  0.00000000E+00  0.00000000E+00
  0.00000000E+00  0.00000000E+00  0.00000000E+00
  0.00000000E+00  0.00000000E+00  0.00000000E+00
  0.00000000E+00  0.00000000E+00  0.00000000E+00
  0.00000000E+00  0.00000000E+00  0.00000000E+00
  0.00000000E+00  0.00000000E+00  0.00000000E+00
  0.00000000E+00  0.00000000E+00  0.00000000E+00
  0.00000000E+00  0.00000000E+00  0.00000000E+00
  0.00000000E+00  0.00000000E+00  0.00000000E+00
  0.00000000E+00  0.00000000E+00  0.00000000E+00
  0.00000000E+00  0.00000000E+00  0.00000000E+00
  0.00000000E+00  0.00000000E+00  0.00000000E+00
  0.00000000E+00  0.00000000E+00  0.00000000E+00
  0.00000000E+00  0.00000000E+00  0.00000000E+00
  0.00000000E+00  0.00000000E+00  0.00000000E+00
  0.00000000E+00  0.00000000E+00  0.00000000E+00
  0.00000000E+00  0.00000000E+00  0.00000000E+00
  0.00000000E+00  0.00000000E+00  0.00000000E+00
  0.00000000E+00  0.00000000E+00  0.00000000E+00
  0.00000000E+00  0.00000000E+00  0.00000000E+00
  0.00000000E+00  0.00000000E+00  0.00000000E+00
  0.00000000E+00  0.00000000E+00  0.00000000E+00
  0.00000000E+00  0.00000000E+00  0.00000000E+00
  0.00000000E+00  0.00000000E+00  0.00000000E+00
  0.00000000E+00  0.00000000E+00  0.00000000E+00
  0.00000000E+00  0.00000000E+00  0.00000000E+00
  0.00000000E+00  0.00000000E+00  0.00000000E+00
  0.00000000E+00  0.00000000E+00  0.00000000E+00
  0.00000000E+00  0.00000000E+00  0.00000000E+00
  0.00000000E+00  0.00000000E+00  0.00000000E+00
  0.00000000E+00  0.00000000E+00  0.00000000E+00
  0.00000000E+00  0.00000000E+00  0.00000000E+00
  0.00000000E+00  0.00000000E+00  0.00000000E+00
  0.00000000E+00  0.00000000E+00  0.00000000E+00
  0.00000000E+00  0.00000000E+00  0.00000000E+00
  0.00000000E+00  0.00000000E+00  0.00000000E+00
  0.00000000E+00  0.00000000E+00  0.00000000E+00
  0.00000000E+00  0.00000000E+00  0.00000000E+00
  0.00000000E+00  0.00000000E+00  0.00000000E+00
  0.00000000E+00  0.00000000E+00  0.00000000E+00
  0.00000000E+00  0.00000000E+00  0.00000000E+00
  0.00000000E+00  0.00000000E+00  0.00000000E+00
  0.00000000E+00  0.00000000E+00  0.00000000E+00
  0.00000000E+00  0.00000000E+00  0.00000000E+00
  0.00000000E+00  0.00000000E+00  0.00000000E+00
  0.00000000E+00  0.00000000E+00  0.00000000E+00
  0.00000000E+00  0.00000000E+00  0.00000000E+00
  0.00000000E+00  0.00000000E+00  0.00000000E+00
  0.00000000E+00  0.00000000E+00  0.00000000E+00
  0.00000000E+00  0.00000000E+00  0.00000000E+00
  0.00000000E+00  0.00000000E+00  0.00000000E+00
  0.00000000E+00  0.00000000E+00  0.00000000E+00
  0.00000000E+00  0.00000000E+00  0.00000000E+00
  0.00000000E+00  0.00000000E+00  0.00000000E+00
  0.00000000E+00  0.00000000E+00  0.00000000E+00
