 C N B 
 1.0
 17.527899999999772   0.000000000000000   0.000000000000000
 -8.763949999999658  15.179606674993195   0.000000000000000
  0.000000000000001   0.000000000000002  15.000000000000000
 C N B 
   4  47  46
Cartesian
  4.947272456719516   5.712315856461197   1.665650778885420 
  3.730432452522951   7.832700441406356   1.667737426544460 
  4.877387508889426   7.100496456336743   1.667228004013560 
  3.759479844049532   9.283794117930949   1.666073569006260 
  8.776799644952272  13.753468352342507   1.665316843548345 
 16.280901919331193   0.733831908576487   1.665092887540950 
 15.025975520499546   2.898979934135907   1.665620368443405 
 13.771787101207829   5.065169666511252   1.665224921923695 
 12.524877491848578   7.230384637430827   1.664074450441080 
 11.288222161617306   9.401090879740172   1.665559834949010 
 10.033837089064956  11.580372083513057   1.666124039371920 
 -6.250942986485999  13.740395612648873   1.664957018835750 
  1.256534429597633   0.727814929756048   1.664979881529420 
  0.002212660121622   2.894558400541395   1.664434051975380 
 -1.247599437133388   5.059868891664398   1.664530307959740 
 -2.500820299246223   7.229769017121051   1.665180942518730 
 -3.750262052013975   9.398711317332264   1.665351497526720 
 -4.997373185570555  11.570743633197374   1.664980650682080 
 -3.749169349233811  13.736205617489972   1.665077248654290 
  3.757713256394376   0.717211165851023   1.666200981625920 
  2.500750959189311   2.881977794677364   1.665324260693055 
  1.255978140649962   5.050588956594969   1.664967394134420 
  0.001921541400673   7.224236736295877   1.665853106679165 
 -1.261659446975933   9.397220311633614   1.666554667432950 
 -2.499563362626978  11.568869825336394   1.665753959244975 
 -1.247207955565621  13.738486815774516   1.665544337377050 
  6.263166927903979   0.720682803039016   1.665959088001425 
  4.998051997831509   2.869431665654759   1.666379216099490 
  3.767950452374552   5.023807689287160   1.665825030472155 
  2.490204174482292   7.201775130081396   1.666698012036060 
  1.218957500455153   9.394446757256476   1.665720423513060 
 -0.001272952890395  11.569475847636729   1.666007777904390 
  1.252382989885931  13.741358953481198   1.664854694793195 
  8.761412041457257   0.733053363516373   1.664384753311365 
  7.491921697971794   2.904216086079860   1.665050792052555 
  6.156942772878981   5.065605320040439   1.666000595119200 
  2.497920138951918  11.559112242966380   1.664153797213620 
  3.755177017411796  13.735318181085704   1.664038675548030 
 11.268112719766650   0.730537341986091   1.664981255064870 
 10.006403030597854   2.901255336418421   1.665074935545000 
  8.733028554505823   5.059868891664398   1.665132435303285 
  7.604345216425610   7.177563058443769   1.661958513407160 
  6.315854916939869   9.562686196292658   1.661165247918870 
  5.018269398200877  11.582411960452676   1.662923609323680 
  6.268146397597695  13.750577519313268   1.664326402039830 
 13.774506618259252   0.732381504345219   1.665332048524320 
 12.518236932926234   2.899832316941805   1.666456424319555 
 11.258569952604972   5.065342668274950   1.665172436966670 
 10.024197397470850   7.230041525863684   1.664534039699415 
  8.808288739193245   9.413513137959225   1.665465889138005 
  7.536442541842431  11.600834708808112   1.664753860651440 
  7.521959667547927  14.470600208260047   1.665230230717785 
 15.026541315183502   1.453473887687336   1.665698026400070 
 13.771124872218934   3.620860741844451   1.666427402811630 
 12.516159862282246   5.786529873852628   1.664845686847785 
 11.277571760452119   7.955750821939763   1.664861652615795 
 10.049706182194925  10.133432673167613   1.666616708859480 
  8.789971365425362  12.314608300340650   1.665925476853485 
 -7.501087339312652  14.463461386523967   1.665259869908670 
  0.002797104881655   1.447309728158919   1.665052671282615 
 -1.253194022484374   3.616658497286195   1.664883823666185 
 -2.506488623440680   5.784901737423081   1.665143637688050 
 -3.754783470937761   7.954658368062057   1.665043025458215 
 -4.995766414899432  10.124191624573763   1.665654968142825 
 -6.244807518056293  12.297380668396812   1.665579132390735 
 -5.001750412237977  14.450247374144721   1.665524939930520 
  2.504943399996309   1.430969723849391   1.665894551658870 
  1.245393061481118   3.601727613110575   1.665023381503035 
 -0.006036323141503   5.777366590822737   1.665200240359875 
 -1.260273847179633   7.954514488148499   1.666358321482380 
 -2.509636475350684  10.124285180270773   1.666257602583435 
 -3.749793855371991  12.291354018513879   1.665227715585600 
 -2.501901481357315  14.453158264571917   1.665865717362855 
  5.009076805229327   1.416673162392461   1.666876163499765 
  3.750340666375699   3.554834071661333   1.666059009175920 
  2.486980933830661   5.761521091059144   1.666109898754170 
  1.228092573388494   7.955870228794064   1.666212997378965 
 -0.030018379308958  10.128353642995407   1.666468999616385 
 -1.256327653581629  12.295761110286307   1.666234885446930 
  0.001409848406816  14.465265436462428   1.665078812501400 
  7.510131898962220   1.448937457625503   1.665159864448590 
  6.233652401030779   3.590729493699268   1.666119037138050 
  2.444360881913608  10.123574444109053   1.665480868565235 
  1.247202714252349  12.299832130392154   1.665362567319000 
  2.505108935210611  14.464723276260258   1.664896587776385 
 10.014881760932184   1.454752778988095   1.664922912066930 
  8.755133443140888   3.621584901847717   1.665272698902780 
  7.474100382631057   5.803091067441291   1.664880259997730 
  5.063888099091179  10.129179168955318   1.663684469474040 
  3.763919464391888  12.291226040770239   1.663663476117885 
  5.014248578823931  14.467582685338385   1.664662284830655 
 12.522927950631667   1.455447381516078   1.666001303392965 
 11.264712842099753   3.622393071786031   1.666101100338945 
 10.001434233913031   5.788416769560692   1.665134917979820 
  8.776347984053348   7.973390679153730   1.664296589603385 
  7.592057941478659  10.153717814801579   1.664152922269230 
  6.272950848538184  12.307131763265192   1.663937200401360 
