 B N 
 1.0
 17.527899999999772   0.000000000000000   0.000000000000000
 -8.763949999999658  15.179606674993195   0.000000000000000
  0.000000000000001   0.000000000000002  15.000000000000000
 B N 
  49  47
Cartesian
  7.493173494878103  14.436302943596029   1.664875903547025 
 15.032570214678486   1.449748182088503   1.665405569902890 
 13.787444491413003   3.623155547248611   1.666213774461180 
 12.527781362044998   5.788169737082009   1.665405569902890 
 11.240804333248025   7.945215923527156   1.664875903547025 
  9.970343854173898  10.098593181636662   1.665179551904730 
  8.722822664795498  12.259363265158882   1.665179551904730 
 -7.528046823708968  14.448726329228345   1.664948664441570 
  0.004921220486812   1.453255577475851   1.664967465303615 
 -1.228372297946727   3.631507700326328   1.665310212528885 
 -2.477195726516304   5.794533328291275   1.665310212528885 
 -3.746970641544095   7.951722907017806   1.664967465303615 
 -5.023011858477932  10.109878494711504   1.664948664441570 
 -6.285267477619076  12.273680096225519   1.664648769396900 
 -5.020599733402959  14.450662951629537   1.664839794348915 
  2.507025922267426   1.457879348235340   1.665463578866085 
  1.282436813355916   3.650173681645757   1.665082002126495 
  0.048017472322418   5.810448763092066   1.665000624524190 
 -1.205625956864551   7.959624812088324   1.665082002126495 
 -2.491913987714753  10.116297256308565   1.665463578866085 
 -3.767611149127986  12.280423062361411   1.664839794348915 
 -2.511234850327772  14.452618849512463   1.665104379693960 
  5.005164182699214   1.443734724060980   1.665802838431005 
  3.781856297587008   3.645438824756333   1.666185730161765 
  2.575235991243467   5.856780734321033   1.665853480728555 
  1.351751395874678   7.975918215777696   1.665853480728555 
  0.039983278910294  10.126553008575753   1.666185730161765 
 -1.255094461352068  12.286820764080423   1.665802838431005 
 -0.003518609967278  14.459310292237388   1.664920061741550 
  7.512383229231167   1.441386442044860   1.664920061741550 
  6.266117589790015   3.602832383084429   1.665981836945265 
  5.073128782964709   5.815528258716824   1.666761821837925 
  3.954231732538042   8.065702617750039   1.667569574887800 
  2.564972099893081  10.159783067140463   1.666761821837925 
  1.245215664159040  12.299289618097992   1.665981836945265 
  2.503921411269291  14.460260703795797   1.665065894270235 
 10.019285586679453   1.447607989251289   1.664801241021315 
  8.766926320403117   3.612417993122337   1.665065894270235 
  7.508691226271202   5.773615795328140   1.665349390291230 
  6.056576858679023   7.858530117873789   1.666557214623945 
  4.825987647750273   9.989973154448551   1.666557214623945 
  3.746456063516583  12.289998247241527   1.665349390291230 
  5.006567779964367  14.451212712835725   1.664974972097505 
 12.527885101090131   1.449416433250956   1.665709060503480 
 11.275151502329795   3.619214674652535   1.665709060503480 
 10.010413714726045   5.784297320581216   1.664974972097505 
  8.686376836493816   7.935228747942360   1.665273618177630 
  7.423521470069145  10.068697981610327   1.665536284864635 
  6.207310598732470  12.229097427073786   1.665273618177630 
  8.743440943488713  13.713391505792774   1.664763007529460 
 16.277493948113651   0.715464745002774   1.664720126450100 
 15.042447137782615   2.900941414295039   1.665474020465805 
 13.789505028628124   5.071100806293201   1.665474020465805 
 12.514350118808402   7.233421053548991   1.664720126450100 
 11.239893387869653   9.389409033445318   1.664763007529460 
  9.982499284228343  11.546107190795565   1.664869731003690 
 -6.276045704967601  13.723640442776277   1.664442575918835 
  1.252733521412087   0.724262742352293   1.664914533221970 
  0.025091366681868   2.910129691065704   1.664679597590685 
 -1.215558646895930   5.080905429849823   1.664875055676870 
 -2.475180575812937   7.240727728205786   1.664679597590685 
 -3.754375805335117   9.396830495330745   1.664914533221970 
 -5.024939096560134  11.556660231329289   1.664442575918835 
 -3.765953109722637  13.728189604033791   1.664523516226950 
  3.751889765971282   0.721766194909501   1.665201020853630 
  2.527126381530925   2.915830921716143   1.665299808687495 
  1.311588679370590   5.107972059664288   1.664879424395190 
  0.071455405251597   7.255945898595199   1.664879424395190 
 -1.219225657820990   9.404702996913162   1.665299808687495 
 -2.506959756562725  11.562411564866984   1.665201020853630 
 -1.255985862133665  13.732704080881739   1.665030655061730 
  6.256905165697821   0.719995108948792   1.665030655061730 
  5.013491127066208   2.893761677469259   1.666014512186100 
  3.815787715901628   5.115661879774041   1.666034675492565 
  2.653231585064533   7.314552511710309   1.665953082674310 
  1.330214503073936   9.420800970323961   1.666034675492565 
  0.004844188786507  11.568992651744301   1.666014512186100 
  1.249371341711242  13.741101666723667   1.665042691861875 
  8.765176659600833   0.723530541949691   1.664276510442180 
  7.516856290289876   2.885499300111884   1.665042691861875 
  6.271890456274820   5.047131070374662   1.665762625688145 
  2.498916451378742  11.582113742491519   1.665762625688145 
  3.756992797511589  13.732173157697492   1.664702048409810 
 11.272655158426980   0.726157762635666   1.664944370878335 
 10.021191148869359   2.893757011033403   1.664944370878335 
  8.763949999999962   5.059868891664398   1.664702048409810 
  7.404112312735220   7.212679457437345   1.665377205575670 
  6.145357005887627   9.330732063486728   1.666072690506480 
  4.940447295929592  11.479872439374873   1.665377205575670 
  6.237093100500464  13.696121420443081   1.664682545326305 
 13.778832442014776   0.721894959599471   1.665172225341240 
 12.531007291181332   2.897733870805080   1.665953618998335 
 11.270588094951405   5.066301606510804   1.665172225341240 
  9.971763133745849   7.227483173356902   1.664682545326305 
  8.700897069934195   9.374392504647222   1.665116544265275 
  7.460938089105070  11.522064458744666   1.665116544265275 
