B C N                                   
   1.0000000000000000     
     8.7639499999999995  -15.1796066749929999    0.0000000000000000
     8.7639499999999995   15.1796066749929999    0.0000000000000000
     0.0000000000000000    0.0000000000000000   15.0000000000000000
   B    C    N 
    48     1    49
Selective dynamics
Direct
  0.9045997365810077  0.9522453638307498  0.1110167127742279   T   T   T
  0.9047804436722919  0.0952213030197080  0.1110340092357608   T   T   T
  0.9048155555769094  0.2381267846140117  0.1110314808344032   T   T   T
  0.9047760028085162  0.3809800578614889  0.1110078374502065   T   T   T
  0.9045938163605973  0.5237628451906330  0.1110066836505593   T   T   T
  0.9046135289044127  0.6665787256657680  0.1110317608660729   T   T   T
  0.9046162663897921  0.8094738218431043  0.1110269841265489   T   T   T
  0.0475837025530423  0.9524180208119533  0.1110138431027247   T   T   T
  0.0477563515112520  0.0954019838909990  0.1110167123012267   T   T   T
  0.0477920513377183  0.2382178025142378  0.1110090817853369   T   T   T
  0.0477787841612176  0.3809886152864669  0.1110216508531469   T   T   T
  0.0477538078413191  0.5237685226909905  0.1110124798555980   T   T   T
  0.0475940960128071  0.6666073351433801  0.1110195606799308   T   T   T
  0.0475776727631175  0.8095108941250622  0.1110101491321889   T   T   T
  0.1904908555679363  0.9524240903298856  0.1110101476061918   T   T   T
  0.1905278791928869  0.0953854463182135  0.1110269800025518   T   T   T
  0.1909979192417136  0.2386799717540947  0.1110211470388352   T   T   T
  0.1907783879761895  0.3810999546655446  0.1110065046941672   T   T   T
  0.1909905261644848  0.5237485373191730  0.1110276549115626   T   T   T
  0.1905227426115593  0.6665778208146628  0.1110367340639951   T   T   T
  0.1905005538587806  0.8095011406822177  0.1110087070083109   T   T   T
  0.3333944005616182  0.9524076278211965  0.1110195630939287   T   T   T
  0.3334229883112313  0.0953882110155892  0.1110317564890728   T   T   T
  0.3334381151333086  0.2383162946605687  0.1110414894494519   T   T   T
  0.3344074342176817  0.3818646583680441  0.1110191058433251   T   T   T
  0.3344111199762262  0.5239841787943520  0.1110249745071384   T   T   T
  0.3334325407416049  0.6665691620323951  0.1110329551268670   T   T   T
  0.3334238325053354  0.8094788862314284  0.1110367375969984   T   T   T
  0.4762331647280104  0.9522477730886847  0.1110124851665994   T   T   T
  0.4762388963153641  0.0954080063154004  0.1110066923435594   T   T   T
  0.4762522355424166  0.2386818009874810  0.1110317465049511   T   T   T
  0.4760233810133117  0.3818652443001329  0.1110361907933733   T   T   T
  0.4760176056386440  0.6655907373637765  0.1110249750211450   T   T   T
  0.4762531784708260  0.8090111609035151  0.1110276606485628   T   T   T
  0.6190131236855358  0.9522229002557829  0.1110216529601477   T   T   T
  0.6190216124865097  0.0952256844734850  0.1110078385362072   T   T   T
  0.6190173310817374  0.2382185569441199  0.1110135004261273   T   T   T
  0.6189003997565965  0.3811013344524039  0.1110145692479973   T   T   T
  0.6181363246698662  0.5239782861896898  0.1110361855353713   T   T   T
  0.6181369910869500  0.6655942894983149  0.1110191055563227   T   T   T
  0.6189017884944539  0.8092233814268097  0.1110065003461643   T   T   T
  0.7617839380137612  0.9522096681892807  0.1110090840113322   T   T   T
  0.7618749111469884  0.0951861209570884  0.1110314832374019   T   T   T
  0.7618759447818733  0.2381257603981240  0.1110456871720140   T   T   T
  0.7617832654398803  0.3809844243492632  0.1110134920191277   T   T   T
  0.7613199511885163  0.5237494472645864  0.1110317385409536   T   T   T
  0.7616853641104292  0.6665635654116887  0.1110414980774515   T   T   T
  0.7613216996699073  0.8090037974402865  0.1110211495128313   T   T   T
  0.4762053188762479  0.5237963366707475  0.1111064492013924   T   T   T
  0.9523009113068740  0.9047276277629671  0.1110135062078232   T   T   T
  0.9523963501001370  0.0476053672098621  0.1110159322254715   T   T   T
  0.9524759159877372  0.1905131078874359  0.1110155643859727   T   T   T
  0.9524708168467307  0.3333901143706662  0.1110173246074838   T   T   T
  0.9523954091933103  0.4762091485208101  0.1109981177039628   T   T   T
  0.9523011883775410  0.6189991050702174  0.1110160525559505   T   T   T
  0.9522839816212645  0.7618601319803332  0.1110156072770674   T   T   T
  0.0952204794582627  0.9047812730097391  0.1110078907260878   T   T   T
  0.0952740776750352  0.0477008075081257  0.1110135127048199   T   T   T
  0.0956034776116449  0.1908091298536969  0.1110137683566116   T   T   T
  0.0954692736199776  0.3334466726724697  0.1110100438996301   T   T   T
  0.0955995176083876  0.4762126506587093  0.1110133930707984   T   T   T
  0.0952702541766927  0.6189978021280038  0.1110181441075117   T   T   T
  0.0952258394378570  0.7618789938461876  0.1110079818004252   T   T   T
  0.2381227183148139  0.9047758713201423  0.1110079826924264   T   T   T
  0.2381415973966710  0.0477177873427330  0.1110155998540701   T   T   T
  0.2382055557676804  0.1906780606181870  0.1110197469300677   T   T   T
  0.2389683772685280  0.3342190031681571  0.1110097356402486   T   T   T
  0.2389715692725211  0.4761814030922386  0.1110111341577327   T   T   T
  0.2382024224583667  0.6189611316649666  0.1110212642900187   T   T   T
  0.2381445394783029  0.7618570947166845  0.1110148096540703   T   T   T
  0.3810038689749962  0.9047313716063071  0.1110181482575147   T   T   T
  0.3810026221167805  0.0477005625424582  0.1110160603039501   T   T   T
  0.3810382429977422  0.1906794865588782  0.1110247926956049   T   T   T
  0.3809901756328049  0.3334161605108709  0.1110299027479440   T   T   T
  0.3835280657579165  0.4774787577703601  0.1110255770072969   T   T   T
  0.3809891322807963  0.6190126656782049  0.1110208066100730   T   T   T
  0.3810406068240306  0.7617992844216325  0.1110212689110192   T   T   T
  0.5237890815692909  0.9044020779076091  0.1110134068487975   T   T   T
  0.5237925098281894  0.0476062525666921  0.1109981181489686   T   T   T
  0.5237893559856324  0.1908143363272563  0.1110137376714583   T   T   T
  0.5238218882008623  0.3342206664074008  0.1110213290265197   T   T   T
  0.5225284153809433  0.4774731812440615  0.1110308989436571   T   T   T
  0.5225229015126407  0.6164736163810840  0.1110255785852986   T   T   T
  0.5238203795207661  0.7610302870554768  0.1110111313417311   T   T   T
  0.6665551179395268  0.9045324738530225  0.1110100416866305   T   T   T
  0.6666115553603326  0.0475308374022737  0.1110173231394883   T   T   T
  0.6666136845250613  0.1905097568978868  0.1110205914741965   T   T   T
  0.6665557268488560  0.3334460837001454  0.1110071206513639   T   T   T
  0.6657809977245994  0.4761798278091350  0.1110213086275199   T   T   T
  0.6665854701331293  0.6190115189121937  0.1110299053829420   T   T   T
  0.6657826632858399  0.7610333801994706  0.1110097285092488   T   T   T
  0.8091925826623059  0.9043982374223579  0.1110137687326166   T   T   T
  0.8094886173895662  0.0475257930852598  0.1110155740729723   T   T   T
  0.8095230194068743  0.1904786352851251  0.1110248098662793   T   T   T
  0.8094919812101102  0.3333880006359414  0.1110205855342014   T   T   T
  0.8091875552277452  0.4762123984643715  0.1110137171604556   T   T   T
  0.8093222348081208  0.6189634610492591  0.1110248080486073   T   T   T
  0.8093236014758132  0.7617961360163196  0.1110197582260630   T   T   T

  0.00000000E+00  0.00000000E+00  0.00000000E+00
  0.00000000E+00  0.00000000E+00  0.00000000E+00
  0.00000000E+00  0.00000000E+00  0.00000000E+00
  0.00000000E+00  0.00000000E+00  0.00000000E+00
  0.00000000E+00  0.00000000E+00  0.00000000E+00
  0.00000000E+00  0.00000000E+00  0.00000000E+00
  0.00000000E+00  0.00000000E+00  0.00000000E+00
  0.00000000E+00  0.00000000E+00  0.00000000E+00
  0.00000000E+00  0.00000000E+00  0.00000000E+00
  0.00000000E+00  0.00000000E+00  0.00000000E+00
  0.00000000E+00  0.00000000E+00  0.00000000E+00
  0.00000000E+00  0.00000000E+00  0.00000000E+00
  0.00000000E+00  0.00000000E+00  0.00000000E+00
  0.00000000E+00  0.00000000E+00  0.00000000E+00
  0.00000000E+00  0.00000000E+00  0.00000000E+00
  0.00000000E+00  0.00000000E+00  0.00000000E+00
  0.00000000E+00  0.00000000E+00  0.00000000E+00
  0.00000000E+00  0.00000000E+00  0.00000000E+00
  0.00000000E+00  0.00000000E+00  0.00000000E+00
  0.00000000E+00  0.00000000E+00  0.00000000E+00
  0.00000000E+00  0.00000000E+00  0.00000000E+00
  0.00000000E+00  0.00000000E+00  0.00000000E+00
  0.00000000E+00  0.00000000E+00  0.00000000E+00
  0.00000000E+00  0.00000000E+00  0.00000000E+00
  0.00000000E+00  0.00000000E+00  0.00000000E+00
  0.00000000E+00  0.00000000E+00  0.00000000E+00
  0.00000000E+00  0.00000000E+00  0.00000000E+00
  0.00000000E+00  0.00000000E+00  0.00000000E+00
  0.00000000E+00  0.00000000E+00  0.00000000E+00
  0.00000000E+00  0.00000000E+00  0.00000000E+00
  0.00000000E+00  0.00000000E+00  0.00000000E+00
  0.00000000E+00  0.00000000E+00  0.00000000E+00
  0.00000000E+00  0.00000000E+00  0.00000000E+00
  0.00000000E+00  0.00000000E+00  0.00000000E+00
  0.00000000E+00  0.00000000E+00  0.00000000E+00
  0.00000000E+00  0.00000000E+00  0.00000000E+00
  0.00000000E+00  0.00000000E+00  0.00000000E+00
  0.00000000E+00  0.00000000E+00  0.00000000E+00
  0.00000000E+00  0.00000000E+00  0.00000000E+00
  0.00000000E+00  0.00000000E+00  0.00000000E+00
  0.00000000E+00  0.00000000E+00  0.00000000E+00
  0.00000000E+00  0.00000000E+00  0.00000000E+00
  0.00000000E+00  0.00000000E+00  0.00000000E+00
  0.00000000E+00  0.00000000E+00  0.00000000E+00
  0.00000000E+00  0.00000000E+00  0.00000000E+00
  0.00000000E+00  0.00000000E+00  0.00000000E+00
  0.00000000E+00  0.00000000E+00  0.00000000E+00
  0.00000000E+00  0.00000000E+00  0.00000000E+00
  0.00000000E+00  0.00000000E+00  0.00000000E+00
  0.00000000E+00  0.00000000E+00  0.00000000E+00
  0.00000000E+00  0.00000000E+00  0.00000000E+00
  0.00000000E+00  0.00000000E+00  0.00000000E+00
  0.00000000E+00  0.00000000E+00  0.00000000E+00
  0.00000000E+00  0.00000000E+00  0.00000000E+00
  0.00000000E+00  0.00000000E+00  0.00000000E+00
  0.00000000E+00  0.00000000E+00  0.00000000E+00
  0.00000000E+00  0.00000000E+00  0.00000000E+00
  0.00000000E+00  0.00000000E+00  0.00000000E+00
  0.00000000E+00  0.00000000E+00  0.00000000E+00
  0.00000000E+00  0.00000000E+00  0.00000000E+00
  0.00000000E+00  0.00000000E+00  0.00000000E+00
  0.00000000E+00  0.00000000E+00  0.00000000E+00
  0.00000000E+00  0.00000000E+00  0.00000000E+00
  0.00000000E+00  0.00000000E+00  0.00000000E+00
  0.00000000E+00  0.00000000E+00  0.00000000E+00
  0.00000000E+00  0.00000000E+00  0.00000000E+00
  0.00000000E+00  0.00000000E+00  0.00000000E+00
  0.00000000E+00  0.00000000E+00  0.00000000E+00
  0.00000000E+00  0.00000000E+00  0.00000000E+00
  0.00000000E+00  0.00000000E+00  0.00000000E+00
  0.00000000E+00  0.00000000E+00  0.00000000E+00
  0.00000000E+00  0.00000000E+00  0.00000000E+00
  0.00000000E+00  0.00000000E+00  0.00000000E+00
  0.00000000E+00  0.00000000E+00  0.00000000E+00
  0.00000000E+00  0.00000000E+00  0.00000000E+00
  0.00000000E+00  0.00000000E+00  0.00000000E+00
  0.00000000E+00  0.00000000E+00  0.00000000E+00
  0.00000000E+00  0.00000000E+00  0.00000000E+00
  0.00000000E+00  0.00000000E+00  0.00000000E+00
  0.00000000E+00  0.00000000E+00  0.00000000E+00
  0.00000000E+00  0.00000000E+00  0.00000000E+00
  0.00000000E+00  0.00000000E+00  0.00000000E+00
  0.00000000E+00  0.00000000E+00  0.00000000E+00
  0.00000000E+00  0.00000000E+00  0.00000000E+00
  0.00000000E+00  0.00000000E+00  0.00000000E+00
  0.00000000E+00  0.00000000E+00  0.00000000E+00
  0.00000000E+00  0.00000000E+00  0.00000000E+00
  0.00000000E+00  0.00000000E+00  0.00000000E+00
  0.00000000E+00  0.00000000E+00  0.00000000E+00
  0.00000000E+00  0.00000000E+00  0.00000000E+00
  0.00000000E+00  0.00000000E+00  0.00000000E+00
  0.00000000E+00  0.00000000E+00  0.00000000E+00
  0.00000000E+00  0.00000000E+00  0.00000000E+00
  0.00000000E+00  0.00000000E+00  0.00000000E+00
  0.00000000E+00  0.00000000E+00  0.00000000E+00
  0.00000000E+00  0.00000000E+00  0.00000000E+00
  0.00000000E+00  0.00000000E+00  0.00000000E+00
  0.00000000E+00  0.00000000E+00  0.00000000E+00
