 Pb N B 
 1.0
 14.936314146199660   0.000000000000000   0.000000000000000
 -7.468157073099825  12.935227489513863   0.000000000000000
  0.000000000000001   0.000000000000001  13.341276283792837
 Pb N B 
   1 144 143
Cartesian
  3.734078536549917   5.030366245922021   5.002978606422314 
  1.244937491685460   0.719434630061448   1.670530303949659 
  4.978138310746617   7.184933067944270   1.617242711953529 
  6.223219581414281   0.719434630061448   1.670530303949659 
  9.957334899489982   7.185967614163573   1.672586450098465 
 11.202235609649751   0.718623749417456   1.666856000680103 
 -3.734078536549858   9.342108742426664   8.335209881123827 
  1.245272765669236   9.341491432307635   8.335426908894943 
  2.490198821625815   2.875695466630294   8.388714500890991 
  6.222884307430290   9.341491432307635   8.335426908894943 
  7.467574328857753   2.874831445214642   8.343303616721073 
 12.447055981625077   2.874442041173944   8.335751246836939 
 -1.244355190249617   9.342063666370576   1.672586450098465 
  0.000582744241977   2.874831445214641   1.662653596123594 
  4.977958251474017   2.875695466630293   1.617242711953529 
  3.734078536549650   9.341435847336937   1.662653596123594 
  8.712512263349588   9.342063666370576   1.672586450098465 
  9.957415237674219   2.874442041173944   1.670205966007610 
 -4.978901172690237  11.498294946745816   8.333370762746297 
  0.000229319775881  11.498112388513242   8.332293601379609 
  1.246139047429228   5.030470203191462   8.388714500890991 
  6.222018025670696   5.030470203191462   8.388714500890991 
  4.978661757166388  11.497896027773953   8.335751246836939 
 11.202235609649790   5.030101450253365   8.332293601379609 
 -1.243868279195087   5.030172675397211   1.670530303949659 
 -2.489255900409344  11.498294946745816   1.672586450098465 
  2.489495315933272  11.497896027773953   1.670205966007610 
  3.734078536549917   5.030366245922020   1.421946620138054 
  7.467927753324033  11.498112388513242   1.673663611465045 
  8.712025352294772   5.030172675397211   1.670530303949659 
  0.000553059063713   7.185918185375160   8.342137831652433 
  1.244937491685461   0.719434630061449   8.335426908894943 
  4.978138310746618   7.184933067944271   8.388714500890991 
  6.223219581414281   0.719434630061449   8.335426908894943 
  9.957334899489982   7.185967614163574   8.333370762746297 
 -2.489177826390117   7.185967614163573   1.672586450098465 
 11.202235609649751   0.718623749417456   8.339101212164499 
  3.734078536549982   0.719262367016042   1.663819381192274 
  2.490018762353352   7.184933067944270   1.617242711953529 
  7.467604014035974   7.185918185375159   1.663819381192274 
  8.712832017057647   0.718760668818373   1.670205966007610 
  2.490018762353353   7.184933067944271   8.388714500890991 
 13.691639202241619   0.718760668818373   1.670205966007610 
 -1.244355190249616   9.342063666370576   8.333370762746297 
  0.000582744241978   2.874831445214642   8.343303616721073 
  4.977958251474018   2.875695466630294   8.388714500890991 
  3.734078536549651   9.341435847336937   8.343303616721073 
  8.712512263349588   9.342063666370576   8.333370762746297 
  9.957415237674219   2.874442041173944   8.335751246836939 
 -3.734078536549859   9.342108742426664   1.670747331720774 
  1.245272765669236   9.341491432307635   1.670530303949659 
  2.490198821625815   2.875695466630293   1.617242711953529 
  6.222884307430273   9.341491432307635   1.670530303949659 
  7.467574328857752   2.874831445214641   1.662653596123594 
 12.447055981625077   2.874442041173944   1.670205966007610 
 -1.243868279195087   5.030172675397212   8.335426908894943 
 -2.489255900409343  11.498294946745816   8.333370762746297 
  2.489495315933273  11.497896027773953   8.335751246836939 
  3.734078536549917   5.030366245922021   8.584010592706614 
  7.467927753324034  11.498112388513242   8.332293601379609 
 -4.978901172690238  11.498294946745816   1.672586450098465 
  8.712025352294788   5.030172675397212   8.335426908894943 
  0.000229319775881  11.498112388513242   1.673663611465045 
  1.246139047429228   5.030470203191461   1.617242711953529 
  0.000553059063712   7.185918185375159   1.663819381192274 
  6.222018025670695   5.030470203191461   1.617242711953529 
  4.978661757166387  11.497896027773953   1.670205966007610 
 11.202235609649790   5.030101450253365   1.673663611465045 
 -2.489177826390116   7.185967614163574   8.333370762746297 
  3.734078536549983   0.719262367016042   8.342137831652433 
  7.467604014035975   7.185918185375160   8.342137831652433 
  8.712832017057647   0.718760668818374   8.335751246836939 
 13.691639202241619   0.718760668818374   8.335751246836939 
 -0.019701549239377   1.421815709437732   5.002978606422314 
  3.734078536549875   7.925432227163209   5.002978606422314 
  5.035982797756219   1.288459557001791   5.002978606422314 
  8.757385758156616   7.930574022539219   5.002978606422314 
  9.965463686866686   1.432674351962530   5.002978606422314 
 -4.978691449280928  10.060686342628760  11.673616748318732 
 -0.000188387517048  10.060794696340611  11.673616748318732 
  1.244656301084675   3.593097648149576  11.673616748318732 
  4.978870152019172  10.060706248751924  11.673616748318732 
  6.223500772015083   3.593097648149576  11.673616748318732 
 11.202235609649522   3.593230314809571  11.673616748318732 
 -2.498180861627832  10.055654597733533   5.002978606422314 
 -1.267907941780144   3.583772599650617   5.002978606422314 
  3.734078536549864   3.085188022904816   5.002978606422314 
  2.485872144009107  10.085510428678024   5.002978606422314 
  7.497424089713903  10.094745190846352   5.002978606422314 
  8.736065014879770   3.583772599650617   5.002978606422314 
 -6.223423904498684  12.216409489472641  11.673616748318732 
 -1.244733168600956  12.216409489472641  11.673616748318732 
 -0.000511501541707   5.749258527970365  11.673616748318732 
  4.980003301711390   5.749701244478024  11.673616748318732 
  3.734078536550250  12.216561029646691  11.673616748318732 
  9.957690828565818   5.749122041466716  11.673616748318732 
 -2.533475060727341   5.757329625719632   5.002978606422314 
 -3.734078536549858  12.165178182202020   5.002978606422314 
  1.250908904077108  12.220192583179889   5.002978606422314 
  2.049504780528633   6.002955357430695   5.002978606422314 
  6.217248169022181  12.220192583179889   5.002978606422314 
  7.625616918349106   5.773837426882259   5.002978606422314 
 -1.245029374287210   7.905055538568180  11.673616748318732 
  0.000072112160933   1.437175083092809  11.673616748318732 
  3.734078536549851   7.904903441467082  11.673616748318732 
  4.978794576757240   1.436670259190292  11.673616748318732 
  8.713186447386764   7.905055538568180  11.673616748318732 
 -3.734078536549859   7.915017031812535   5.002978606422314 
  9.957505775798966   1.437268854059727  11.673616748318732 
  2.432174275343553   1.288459557001791   5.002978606422314 
  1.144444415957077   8.028801753882323   5.002978606422314 
  6.323712657142624   8.028801753882323   5.002978606422314 
  7.487858622339194   1.421815709437732   5.002978606422314 
  1.244204538665633   7.905169950605590  11.673616748318732 
 12.439007532432582   1.432674351962530   5.002978606422314 
 -2.489465623818789  10.060686342628760  11.673616748318732 
 -1.244719503308432   3.593217405921503  11.673616748318732 
  3.734078536549827   3.591696248810173  11.673616748318732 
  2.489286921080399  10.060706248751924  11.673616748318732 
  7.468345460616844  10.060794696340611  11.673616748318732 
  8.712876576408190   3.593217405921503  11.673616748318732 
 -4.969976211471765  10.055654597733533   5.002978606422314 
 -0.029267016614693  10.094745190846352   5.002978606422314 
  1.226877851163037   3.582833255301518   5.002978606422314 
  4.982284929090450  10.085510428678024   5.002978606422314 
  6.241279221936796   3.582833255301518   5.002978606422314 
 11.202235609649492   3.585941060920585   5.002978606422314 
 -2.489533755465803   5.749122041466716  11.673616748318732 
 -3.734078536549938  12.216215150144007  11.673616748318732 
  1.244596225034881  12.216547956235374  11.673616748318732 
  2.488153771388445   5.749701244478024  11.673616748318732 
  6.223560848064722  12.216547956235374  11.673616748318732 
 -6.238286580662863  12.174251410714476   5.002978606422314 
  7.468668574641453   5.749258527970365  11.673616748318732 
 -1.229870492437047  12.174251410714476   5.002978606422314 
 -0.157459845249108   5.773837426882259   5.002978606422314 
 -1.289228685057047   7.930574022539219   5.002978606422314 
  5.418652292571144   6.002955357430695   5.002978606422314 
  3.734078536549943  12.225750033841429   5.002978606422314 
 10.001632133827069   5.757329625719632   5.002978606422314 
 -3.734078536550015   7.904953542022515  11.673616748318732 
  2.489362496342473   1.436670259190292  11.673616748318732 
  6.223952534434025   7.905169950605590  11.673616748318732 
  7.468084960938781   1.437175083092809  11.673616748318732 
 12.446965443500808   1.437268854059727  11.673616748318732 
  1.196163351186100   0.648068206320813   5.002978606422314 
  5.098978233868753   7.327458354045253   5.002978606422314 
  6.271993721913820   0.648068206320813   5.002978606422314 
  9.979067573426764   7.192532030851970   5.002978606422314 
 11.202235609649751   0.718623749417456   5.002978606422314 
 -3.734078536549858   9.342108742426666  11.673616748318732 
  1.244743830820813   9.341350964523107  11.673616748318732 
  2.490531045115889   2.875277352047432  11.673616748318732 
  6.223413242279070   9.341350964523107  11.673616748318732 
  7.466919622929658   2.875209439858553  11.673616748318732 
 12.447361419746438   2.874868215870814  11.673616748318732 
 -1.260906478831222   9.357602505748016   5.002978606422314 
 -0.014567328186054   2.866084546820144   5.002978606422314 
  5.040968808358043   2.699782380364725   5.002978606422314 
  3.734078536549994   9.358929644125880   5.002978606422314 
  8.729063551931029   9.357602505748016   5.002978606422314 
  9.965869836112377   2.864233813229697   5.002978606422314 
 -4.978670022135863  11.498107012953675  11.673616748318732 
 -0.000181474992482  11.497875216043354  11.673616748318732 
  1.245943061323837   5.030966974464992  11.673616748318732 
  6.222214011776239   5.030966974464992  11.673616748318732 
  4.978878116219851  11.497418423253125  11.673616748318732 
 11.202235609649598   5.030575795193454  11.673616748318732 
 -1.330060485381313   5.023616242547178   5.002978606422314 
 -2.484074515054047  11.476191690680212   5.002978606422314 
  2.494108601441615  11.510322038772122   5.002978606422314 
  7.461448674212827  11.501853086582198   5.002978606422314 
  8.798217558481445   5.023616242547178   5.002978606422314 
  0.000385608110494   7.186014863228007  11.673616748318732 
  1.245323607779502   0.719046792937903  11.673616748318732 
  4.978666520342137   7.184854411253694  11.673616748318732 
  6.222833465320329   0.719046792937903  11.673616748318732 
  9.957382079650984   7.186261763311923  11.673616748318732 
 -2.510910500326915   7.192532030851970   5.002978606422314 
 11.202235609649751   0.718623749417457  11.673616748318732 
  3.734078536549796   0.646566680604079   5.002978606422314 
  2.369178839231247   7.327458354045253   5.002978606422314 
  7.530560325214584   7.222266028581264   5.002978606422314 
  8.725899901004050   0.716542885764230   5.002978606422314 
  2.489490552757836   7.184854411253694  11.673616748318732 
 13.678571318295441   0.716542885764230   5.002978606422314 
 -1.244633520965328   9.341957451014437  11.673616748318732 
  0.001237450170041   2.875209439858553  11.673616748318732 
  4.977626027983990   2.875277352047432  11.673616748318732 
  3.734078536549658   9.340679858049361  11.673616748318732 
  8.712790594065030   9.341957451014437  11.673616748318732 
  9.957109799553056   2.874868215870814  11.673616748318732 
 -3.734078536549858   9.342108742426664   5.002978606422314 
  1.207854699982534   9.419414288898022   5.002978606422314 
  2.427188264741789   2.699782380364725   5.002978606422314 
  6.260302373117572   9.419414288898022   5.002978606422314 
  7.482724401285975   2.866084546820144   5.002978606422314 
 12.438601383187144   2.864233813229697   5.002978606422314 
 -1.244011097949542   5.030700980305158  11.673616748318732 
 -2.489487050964032  11.498107012953675  11.673616748318732 
  2.489278956880022  11.497418423253125  11.673616748318732 
  3.734078536549918   5.030366245922021  11.673616748318732 
  7.468338548092023  11.497875216043354  11.673616748318732 
 -4.984082558045476  11.476191690680212   5.002978606422314 
  8.712168171049541   5.030700980305158  11.673616748318732 
  0.006708398887341  11.501853086582198   5.002978606422314 
  1.062288567423111   5.063858003356074   5.002978606422314 
 -0.062403252114852   7.222266028581264   5.002978606422314 
  6.405868505676873   5.063858003356074   5.002978606422314 
  4.974048471658238  11.510322038772122   5.002978606422314 
 11.202235609649911   5.022620054115246   5.002978606422314 
 -2.489225006551206   7.186261763311923  11.673616748318732 
  3.734078536549953   0.719069011310191  11.673616748318732 
  7.467771464989329   7.186014863228007  11.673616748318732 
  8.712310219883163   0.718812098642088  11.673616748318732 
 13.692160999416373   0.718812098642088  11.673616748318732 
  0.000937918814780   1.438628822445508   1.670931313015868 
  3.734078536549710   7.901372855815112   1.635458438954464 
  4.977662532217950   1.441561962111937   1.657717941792344 
  8.710904793485053   7.903738225073710   1.673200571206882 
  9.957197010368063   1.437447119864158   1.670526033728058 
 -4.979390261726784  10.061089802182615   8.332360815405330 
  0.001333491731087  10.060033344538784   8.330599478218870 
  1.247713877949558   3.594862940975566   8.370498773890176 
  4.978044080136684  10.059229568518237   8.335025899828867 
  6.220443195150097   3.594862940975566   8.370498773890176 
 11.202235609649657   3.592869855826131   8.332393474348587 
 -2.488766811373142  10.061089802182615   1.673596397439672 
 -1.243027624771618   3.593240346802201   1.670931313015868 
  3.734078536549759   3.601087571398883   1.569642991667428 
  2.490112992963483  10.059229568518237   1.670931313015868 
  7.466823581368498  10.060033344538784   1.675357734625865 
  8.711184697871630   3.593240346802201   1.670931313015868 
 -6.223525494121287  12.218108151464110   8.330599478218870 
 -1.244631578978591  12.218108151464110   8.330599478218870 
  0.004290859725968   5.747793055838780   8.348239271052284 
  4.971870177774466   5.745005583183688   8.436314221177186 
  3.734078536549838  12.216204498037888   8.335431179116743 
  9.956270538939942   5.748184731277251   8.330599478218870 
 -2.488113465840167   5.748184731277250   1.675357734625865 
 -3.734078536550014  12.218849777132764   1.673200571206882 
  1.244908391671405  12.216728185726975   1.673563738496254 
  2.496286895325347   5.745005583183725   1.569642991667428 
  6.223248681428242  12.216728185726975   1.673563738496254 
  7.463866213374017   5.747793055838780   1.657717941792344 
 -1.242747720385473   7.903738225073711   8.332756641637719 
  0.000937918814780   1.438628822445509   8.335025899828867 
  3.734078536549710   7.901372855815112   8.370498773890176 
  4.977662532217951   1.441561962111938   8.348239271052284 
  8.710904793485053   7.903738225073711   8.332756641637719 
 -3.734078536549912   7.904146622915007   1.673596397439672 
  9.957197010368063   1.437447119864159   8.335431179116743 
  2.490494540881880   1.441561962111937   1.657717941792344 
  1.247874855393891   7.901743719815540   1.657717941792344 
  6.220282217705869   7.901743719815540   1.657717941792344 
  7.467219154284828   1.438628822445508   1.670931313015868 
  1.247874855393892   7.901743719815541   8.348239271052284 
 12.447274208931249   1.437447119864158   1.670526033728058 
 -2.488766811373141  10.061089802182615   8.332360815405330 
 -1.243027624771618   3.593240346802202   8.335025899828867 
  3.734078536549805   3.601087571398883   8.436314221177186 
  2.490112992963483  10.059229568518237   8.335025899828867 
  7.466823581368499  10.060033344538784   8.330599478218870 
  8.711184697871584   3.593240346802279   8.335025899828867 
 -4.979390261726785  10.061089802182615   1.673596397439672 
  0.001333491731087  10.060033344538784   1.675357734625865 
  1.247713877949557   3.594862940975565   1.635458438954464 
  4.978044080136683  10.059229568518237   1.670931313015868 
  6.220443195150096   3.594862940975565   1.635458438954464 
 11.202235609649657   3.592869855826130   1.673563738496254 
 -2.488113465840166   5.748184731277251   8.330599478218870 
 -3.734078536550013  12.218849777132764   8.332756641637719 
  1.244908391671406  12.216728185726975   8.332393474348587 
  2.496286895325369   5.745005583183688   8.436314221177186 
  6.223248681428243  12.216728185726975   8.332393474348587 
 -6.223525494121288  12.218108151464110   1.675357734625865 
  7.463866213374017   5.747793055838780   8.348239271052284 
 -1.244631578978591  12.218108151464110   1.675357734625865 
  0.004290859725968   5.747793055838780   1.657717941792344 
 -1.242747720385474   7.903738225073710   1.673200571206882 
  4.971870177774532   5.745005583183725   1.569642991667428 
  3.734078536549838  12.216204498037888   1.670526033728058 
  9.956270538939942   5.748184731277250   1.675357734625865 
 -3.734078536549911   7.904146622915007   8.332360815405330 
  2.490494540881880   1.441561962111938   8.348239271052284 
  6.220282217705870   7.901743719815541   8.348239271052284 
  7.467219154284829   1.438628822445509   8.335025899828867 
 12.447274208931249   1.437447119864159   8.335431179116743 
Generated by cif2cell 2.0.0.  :  Failed to get author information, No journal information. Species order: Pb N B 
 1.0
 14.936314146199660   0.000000000000000   0.000000000000000
 -7.468157073099825  12.935227489513863   0.000000000000000
  0.000000000000001   0.000000000000001  13.341276283792837
 Pb N B 
   1 144 143
Cartesian
  3.734078536549917   5.030366245922021   5.002978606422314 
  1.244937491685460   0.719434630061448   1.670530303949659 
  4.978138310746617   7.184933067944270   1.617242711953529 
  6.223219581414281   0.719434630061448   1.670530303949659 
  9.957334899489982   7.185967614163573   1.672586450098465 
 11.202235609649751   0.718623749417456   1.666856000680103 
 -3.734078536549858   9.342108742426664   8.335209881123827 
  1.245272765669236   9.341491432307635   8.335426908894943 
  2.490198821625815   2.875695466630294   8.388714500890991 
  6.222884307430290   9.341491432307635   8.335426908894943 
  7.467574328857753   2.874831445214642   8.343303616721073 
 12.447055981625077   2.874442041173944   8.335751246836939 
 -1.244355190249617   9.342063666370576   1.672586450098465 
  0.000582744241977   2.874831445214641   1.662653596123594 
  4.977958251474017   2.875695466630293   1.617242711953529 
  3.734078536549650   9.341435847336937   1.662653596123594 
  8.712512263349588   9.342063666370576   1.672586450098465 
  9.957415237674219   2.874442041173944   1.670205966007610 
 -4.978901172690237  11.498294946745816   8.333370762746297 
  0.000229319775881  11.498112388513242   8.332293601379609 
  1.246139047429228   5.030470203191462   8.388714500890991 
  6.222018025670696   5.030470203191462   8.388714500890991 
  4.978661757166388  11.497896027773953   8.335751246836939 
 11.202235609649790   5.030101450253365   8.332293601379609 
 -1.243868279195087   5.030172675397211   1.670530303949659 
 -2.489255900409344  11.498294946745816   1.672586450098465 
  2.489495315933272  11.497896027773953   1.670205966007610 
  3.734078536549917   5.030366245922020   1.421946620138054 
  7.467927753324033  11.498112388513242   1.673663611465045 
  8.712025352294772   5.030172675397211   1.670530303949659 
  0.000553059063713   7.185918185375160   8.342137831652433 
  1.244937491685461   0.719434630061449   8.335426908894943 
  4.978138310746618   7.184933067944271   8.388714500890991 
  6.223219581414281   0.719434630061449   8.335426908894943 
  9.957334899489982   7.185967614163574   8.333370762746297 
 -2.489177826390117   7.185967614163573   1.672586450098465 
 11.202235609649751   0.718623749417456   8.339101212164499 
  3.734078536549982   0.719262367016042   1.663819381192274 
  2.490018762353352   7.184933067944270   1.617242711953529 
  7.467604014035974   7.185918185375159   1.663819381192274 
  8.712832017057647   0.718760668818373   1.670205966007610 
  2.490018762353353   7.184933067944271   8.388714500890991 
 13.691639202241619   0.718760668818373   1.670205966007610 
 -1.244355190249616   9.342063666370576   8.333370762746297 
  0.000582744241978   2.874831445214642   8.343303616721073 
  4.977958251474018   2.875695466630294   8.388714500890991 
  3.734078536549651   9.341435847336937   8.343303616721073 
  8.712512263349588   9.342063666370576   8.333370762746297 
  9.957415237674219   2.874442041173944   8.335751246836939 
 -3.734078536549859   9.342108742426664   1.670747331720774 
  1.245272765669236   9.341491432307635   1.670530303949659 
  2.490198821625815   2.875695466630293   1.617242711953529 
  6.222884307430273   9.341491432307635   1.670530303949659 
  7.467574328857752   2.874831445214641   1.662653596123594 
 12.447055981625077   2.874442041173944   1.670205966007610 
 -1.243868279195087   5.030172675397212   8.335426908894943 
 -2.489255900409343  11.498294946745816   8.333370762746297 
  2.489495315933273  11.497896027773953   8.335751246836939 
  3.734078536549917   5.030366245922021   8.584010592706614 
  7.467927753324034  11.498112388513242   8.332293601379609 
 -4.978901172690238  11.498294946745816   1.672586450098465 
  8.712025352294788   5.030172675397212   8.335426908894943 
  0.000229319775881  11.498112388513242   1.673663611465045 
  1.246139047429228   5.030470203191461   1.617242711953529 
  0.000553059063712   7.185918185375159   1.663819381192274 
  6.222018025670695   5.030470203191461   1.617242711953529 
  4.978661757166387  11.497896027773953   1.670205966007610 
 11.202235609649790   5.030101450253365   1.673663611465045 
 -2.489177826390116   7.185967614163574   8.333370762746297 
  3.734078536549983   0.719262367016042   8.342137831652433 
  7.467604014035975   7.185918185375160   8.342137831652433 
  8.712832017057647   0.718760668818374   8.335751246836939 
 13.691639202241619   0.718760668818374   8.335751246836939 
 -0.019701549239377   1.421815709437732   5.002978606422314 
  3.734078536549875   7.925432227163209   5.002978606422314 
  5.035982797756219   1.288459557001791   5.002978606422314 
  8.757385758156616   7.930574022539219   5.002978606422314 
  9.965463686866686   1.432674351962530   5.002978606422314 
 -4.978691449280928  10.060686342628760  11.673616748318732 
 -0.000188387517048  10.060794696340611  11.673616748318732 
  1.244656301084675   3.593097648149576  11.673616748318732 
  4.978870152019172  10.060706248751924  11.673616748318732 
  6.223500772015083   3.593097648149576  11.673616748318732 
 11.202235609649522   3.593230314809571  11.673616748318732 
 -2.498180861627832  10.055654597733533   5.002978606422314 
 -1.267907941780144   3.583772599650617   5.002978606422314 
  3.734078536549864   3.085188022904816   5.002978606422314 
  2.485872144009107  10.085510428678024   5.002978606422314 
  7.497424089713903  10.094745190846352   5.002978606422314 
  8.736065014879770   3.583772599650617   5.002978606422314 
 -6.223423904498684  12.216409489472641  11.673616748318732 
 -1.244733168600956  12.216409489472641  11.673616748318732 
 -0.000511501541707   5.749258527970365  11.673616748318732 
  4.980003301711390   5.749701244478024  11.673616748318732 
  3.734078536550250  12.216561029646691  11.673616748318732 
  9.957690828565818   5.749122041466716  11.673616748318732 
 -2.533475060727341   5.757329625719632   5.002978606422314 
 -3.734078536549858  12.165178182202020   5.002978606422314 
  1.250908904077108  12.220192583179889   5.002978606422314 
  2.049504780528633   6.002955357430695   5.002978606422314 
  6.217248169022181  12.220192583179889   5.002978606422314 
  7.625616918349106   5.773837426882259   5.002978606422314 
 -1.245029374287210   7.905055538568180  11.673616748318732 
  0.000072112160933   1.437175083092809  11.673616748318732 
  3.734078536549851   7.904903441467082  11.673616748318732 
  4.978794576757240   1.436670259190292  11.673616748318732 
  8.713186447386764   7.905055538568180  11.673616748318732 
 -3.734078536549859   7.915017031812535   5.002978606422314 
  9.957505775798966   1.437268854059727  11.673616748318732 
  2.432174275343553   1.288459557001791   5.002978606422314 
  1.144444415957077   8.028801753882323   5.002978606422314 
  6.323712657142624   8.028801753882323   5.002978606422314 
  7.487858622339194   1.421815709437732   5.002978606422314 
  1.244204538665633   7.905169950605590  11.673616748318732 
 12.439007532432582   1.432674351962530   5.002978606422314 
 -2.489465623818789  10.060686342628760  11.673616748318732 
 -1.244719503308432   3.593217405921503  11.673616748318732 
  3.734078536549827   3.591696248810173  11.673616748318732 
  2.489286921080399  10.060706248751924  11.673616748318732 
  7.468345460616844  10.060794696340611  11.673616748318732 
  8.712876576408190   3.593217405921503  11.673616748318732 
 -4.969976211471765  10.055654597733533   5.002978606422314 
 -0.029267016614693  10.094745190846352   5.002978606422314 
  1.226877851163037   3.582833255301518   5.002978606422314 
  4.982284929090450  10.085510428678024   5.002978606422314 
  6.241279221936796   3.582833255301518   5.002978606422314 
 11.202235609649492   3.585941060920585   5.002978606422314 
 -2.489533755465803   5.749122041466716  11.673616748318732 
 -3.734078536549938  12.216215150144007  11.673616748318732 
  1.244596225034881  12.216547956235374  11.673616748318732 
  2.488153771388445   5.749701244478024  11.673616748318732 
  6.223560848064722  12.216547956235374  11.673616748318732 
 -6.238286580662863  12.174251410714476   5.002978606422314 
  7.468668574641453   5.749258527970365  11.673616748318732 
 -1.229870492437047  12.174251410714476   5.002978606422314 
 -0.157459845249108   5.773837426882259   5.002978606422314 
 -1.289228685057047   7.930574022539219   5.002978606422314 
  5.418652292571144   6.002955357430695   5.002978606422314 
  3.734078536549943  12.225750033841429   5.002978606422314 
 10.001632133827069   5.757329625719632   5.002978606422314 
 -3.734078536550015   7.904953542022515  11.673616748318732 
  2.489362496342473   1.436670259190292  11.673616748318732 
  6.223952534434025   7.905169950605590  11.673616748318732 
  7.468084960938781   1.437175083092809  11.673616748318732 
 12.446965443500808   1.437268854059727  11.673616748318732 
  1.196163351186100   0.648068206320813   5.002978606422314 
  5.098978233868753   7.327458354045253   5.002978606422314 
  6.271993721913820   0.648068206320813   5.002978606422314 
  9.979067573426764   7.192532030851970   5.002978606422314 
 11.202235609649751   0.718623749417456   5.002978606422314 
 -3.734078536549858   9.342108742426666  11.673616748318732 
  1.244743830820813   9.341350964523107  11.673616748318732 
  2.490531045115889   2.875277352047432  11.673616748318732 
  6.223413242279070   9.341350964523107  11.673616748318732 
  7.466919622929658   2.875209439858553  11.673616748318732 
 12.447361419746438   2.874868215870814  11.673616748318732 
 -1.260906478831222   9.357602505748016   5.002978606422314 
 -0.014567328186054   2.866084546820144   5.002978606422314 
  5.040968808358043   2.699782380364725   5.002978606422314 
  3.734078536549994   9.358929644125880   5.002978606422314 
  8.729063551931029   9.357602505748016   5.002978606422314 
  9.965869836112377   2.864233813229697   5.002978606422314 
 -4.978670022135863  11.498107012953675  11.673616748318732 
 -0.000181474992482  11.497875216043354  11.673616748318732 
  1.245943061323837   5.030966974464992  11.673616748318732 
  6.222214011776239   5.030966974464992  11.673616748318732 
  4.978878116219851  11.497418423253125  11.673616748318732 
 11.202235609649598   5.030575795193454  11.673616748318732 
 -1.330060485381313   5.023616242547178   5.002978606422314 
 -2.484074515054047  11.476191690680212   5.002978606422314 
  2.494108601441615  11.510322038772122   5.002978606422314 
  7.461448674212827  11.501853086582198   5.002978606422314 
  8.798217558481445   5.023616242547178   5.002978606422314 
  0.000385608110494   7.186014863228007  11.673616748318732 
  1.245323607779502   0.719046792937903  11.673616748318732 
  4.978666520342137   7.184854411253694  11.673616748318732 
  6.222833465320329   0.719046792937903  11.673616748318732 
  9.957382079650984   7.186261763311923  11.673616748318732 
 -2.510910500326915   7.192532030851970   5.002978606422314 
 11.202235609649751   0.718623749417457  11.673616748318732 
  3.734078536549796   0.646566680604079   5.002978606422314 
  2.369178839231247   7.327458354045253   5.002978606422314 
  7.530560325214584   7.222266028581264   5.002978606422314 
  8.725899901004050   0.716542885764230   5.002978606422314 
  2.489490552757836   7.184854411253694  11.673616748318732 
 13.678571318295441   0.716542885764230   5.002978606422314 
 -1.244633520965328   9.341957451014437  11.673616748318732 
  0.001237450170041   2.875209439858553  11.673616748318732 
  4.977626027983990   2.875277352047432  11.673616748318732 
  3.734078536549658   9.340679858049361  11.673616748318732 
  8.712790594065030   9.341957451014437  11.673616748318732 
  9.957109799553056   2.874868215870814  11.673616748318732 
 -3.734078536549858   9.342108742426664   5.002978606422314 
  1.207854699982534   9.419414288898022   5.002978606422314 