 Sn B N 
 1.0
 17.527899999999772   0.000000000000000   0.000000000000000
 -8.763949999999658  15.179606674993195   0.000000000000000
  0.000000000000001   0.000000000000002  15.000000000000000
 Sn B N 
   1  48  48
Cartesian
  4.125318108446216   7.742620023521046   0.211101673829010 
  7.517709411461706  14.457770352274448   1.790278796097945 
 15.027898081197907   1.445181885334937   1.792978009278375 
 13.776296787235584   3.613752451229143   1.771805630167230 
 12.525916294191539   5.782492208276959   1.740003433455750 
 11.269649179891628   7.949482546734299   1.715951418818310 
 10.012343566457560  10.113986041965806   1.723959257252580 
  8.761881424620036  12.279945832310714   1.756816523621730 
 -7.508046656336615  14.456128690477364   1.777534534833720 
  0.003710906083714   1.442920069128534   1.793745228278820 
 -1.249929835539760   3.612804427600343   1.783498436160330 
 -2.503028567031092   5.783344057531538   1.743466357460685 
 -3.753865486914533   7.951627645832207   1.726629356693535 
 -5.006142633965707  10.119737783328796   1.734870260572410 
 -6.258617850116357  12.286041645107964   1.756587281374560 
 -5.003922115047303  14.458666070211992   1.757116266063795 
  2.511695124703961   1.453532550029708   1.758322887407970 
  1.249049310269938   3.605632002094856   1.761917579684820 
 -0.006190730338414   5.780897664908092   1.672940067453195 
 -1.251522888717138   7.949974589855720   1.634894165128275 
 -2.496876935989672  10.119737783328796   1.676118582119385 
 -3.752067320707429  12.287376077283417   1.734217699866570 
 -2.499958306425339  14.456965650287380   1.734001677287970 
  5.012812097081886   1.452986660487396   1.722007320061185 
  3.766355997956554   3.637171370481930   1.676330794002645 
  2.461538036301167   5.757769542177519   1.481665339856730 
  1.242099501063596   7.929185638849781   1.321065164429415 
  0.015047486519376  10.112403153712870   1.507539455561760 
 -1.245533382889064  12.284101029789882   1.675854665084805 
  0.002248529788140  14.456714613923978   1.723369523755455 
  7.516199542094599   1.446495058479485   1.711223390832015 
  6.269233226972552   3.616857339765602   1.641909664327770 
  5.050717662127058   5.791166624499273   1.571772410965410 
  2.518994179195060  10.142412240709145   1.321360207856550 
  1.254509191500784  12.290933072817690   1.633155392385750 
  2.505514935403276  14.458144440115440   1.738250055916380 
 10.020691846535273   1.442888386967667   1.735902457005810 
  8.777128404842720   3.607111932090162   1.675052442039480 
  7.544102376088361   5.765942792124640   1.592104902855345 
  6.268986569980527   7.910823827762657   1.554985313257335 
  5.009861376911251  10.172098532393562   1.483111855071330 
  3.755580205834642  12.297524140954740   1.669531293803385 
  5.011334161026371  14.458538607900095   1.777237299031350 
 12.523922500729221   1.444797439201292   1.768847063246925 
 11.275921577144437   3.611330498559552   1.733273971886865 
 10.029780746396701   5.777364348338548   1.677568558334415 
  8.765220356467498   7.943570110194186   1.644366009271425 
  7.496682460259284  10.101083235935363   1.679974434200520 
  6.267184762642967  12.298153956854494   1.758714525933735 
  8.767164892652843  13.728883178678551   1.779636790509300 
 16.280501429018443   0.722085691826696   1.796059953602760 
 15.026664843295057   2.890359231356788   1.790115080374410 
 13.774081917509122   5.059868891664398   1.760551841634375 
 12.520632775949425   7.228068114731465   1.735164350010660 
 11.266579485691526   9.394334632807276   1.728914281364670 
 10.015516890999555  11.559495100592516   1.748330530959345 
 -6.256123841808044  13.733154213247598   1.767305463484200 
  1.259405671239831   0.724964545439108   1.782244415907780 
  0.000316608435285   2.885348649188013   1.797024148538490 
 -1.256064375500681   5.059868891664398   1.748688377548395 
 -2.504502031756508   7.228667531872062   1.716310786134900 
 -3.752572294503064   9.397135257450401   1.719483211295340 
 -5.006008564973030  11.564384493950998   1.746625481886420 
 -3.752560823321492  13.734897173074531   1.746954077059890 
  3.762380424750673   0.728147620415206   1.748763906163020 
  2.515280451004289   2.903030801549036   1.736504225808165 
  1.236323272040241   5.039296829573948   1.703002069141380 
 -0.008352646982607   7.224839609715560   1.573610994690675 
 -1.244726570799950   9.396182525168330   1.601401487913705 
 -2.500179172149021  11.564670069834273   1.695483373436415 
 -1.248777195108350  13.732860252463526   1.718410879622175 
  6.263251919161235   0.726978370520550   1.726105266978765 
  5.015545814554491   2.904681140350093   1.682686950999105 
  3.768216697569863   5.098675828337310   1.592592245821230 
  2.406884069626285   7.123249833898216   1.118385207846015 
  1.262655328220080   9.392217536284182   1.317020339568555 
  0.005372830564642  11.561425661507460   1.600994658261285 
  1.252967329448692  13.736609256982604   1.712757989858640 
  8.766395585576632   0.724320704586220   1.730407212971055 
  7.518707359197456   2.895200144129246   1.672194057948675 
  6.284282519844369   5.073360481556981   1.579693213663845 
  3.799456613122272   9.536557848520227   1.119625418658780 
  2.503919335079320  11.577134987376859   1.572364551437205 
  3.757768772645647  13.740406793582263   1.742471857554165 
 11.271248099380800   0.723566648281805   1.755878214517605 
 10.024122281356686   2.887729407319541   1.717600657769475 
  8.783708784948040   5.050112607387445   1.640337687558540 
  7.511556464514738   7.202641084539456   1.575420244603125 
  6.232604175931090   9.369856215367621   1.596804898129590 
  5.019211933221858  11.592878417670452   1.701283024793985 
  6.266953780937038  13.739885097496272   1.790629214423550 
 13.775829983995610   0.723788967308040   1.786162843338840 
 12.525061869299678   2.890141562424697   1.762384644918555 
 11.274705075497661   5.059868891664398   1.720048760433630 
 10.015905938751015   7.223025457242906   1.677360997926090 
  8.756362261967331   9.385594523446876   1.685891839498335 
  7.508198417973072  11.552308661407240   1.736066415464880 
