 N B As 
 1.0
 17.527899999999772   0.000000000000000   0.000000000000000
 -8.763949999999658  15.179606674993195   0.000000000000000
  0.000000000000001   0.000000000000002  15.000000000000000
 N B As 
  48  48   1
Cartesian
  8.768806932879560  13.761585911872917   1.665156367315680 
 16.253813146402273   0.735608574938097   1.664996250807315 
 14.989328255622386   2.899110820711810   1.665257801054010 
 13.740237967660347   5.068410639988788   1.664904617229300 
 12.508685684640149   7.236188146780222   1.664465974551690 
 11.281630120895713   9.406212028730241   1.665434663341200 
 10.034989985519127  11.584744735886185   1.665709815625020 
 -6.252405575729187  13.729580012601444   1.664465795655135 
  1.230482756734893   0.704825434865966   1.665156367315680 
 -0.043693932008939   2.868321384133836   1.665070017043575 
 -1.287856436731032   5.050280619901278   1.664852682056190 
 -2.504384243880993   7.224798857079818   1.664853581144355 
 -3.737867375008769   9.392804356649567   1.665177142959750 
 -4.988949922394303  11.561736414613669   1.664653863781530 
 -3.743270121772759  13.719317119252235   1.664653863781530 
  3.748774041463285   0.696699333432102   1.665709815625020 
  2.450224717841835   2.823052067045506   1.665575152555185 
  1.186191573637446   4.997322507354425   1.664582155200690 
  0.010746404512297   7.204559450697456   1.665343757599935 
 -1.220989426000004   9.381895328197103   1.665861999648360 
 -2.480626165791449  11.551942154950035   1.665395112321240 
 -1.239378586800722  13.720313879966996   1.665177142959750 
  6.258758776523806   0.706343660396639   1.665434663341200 
  4.983905999411019   2.852268915628678   1.665609322199325 
  3.655033327216544   4.918381248995531   1.662405216529680 
  2.500085135407695   7.111177813987032   1.663909187102550 
  1.307293717331748   9.364985590760023   1.666089464329800 
  0.028507883474008  11.546088152126879   1.665861999648360 
  1.254910816917371  13.736088903055622   1.664853581144355 
  8.751582366966083   0.728694311313895   1.664465974551690 
  7.480093488114906   2.899710470826688   1.665235628266635 
  6.188430986371529   5.067163611620479   1.665749517493110 
  3.855544216284500   9.458901809676647   1.663909187102550 
  2.530003981198572  11.568041570901491   1.665343757599935 
  3.746362754881522  13.769804036242812   1.664852682056190 
 11.244708899110066   0.746027501525345   1.664904617229300 
  9.977801985168400   2.916392147303819   1.665248403538185 
  8.703091302456253   5.095019864106193   1.665727491142740 
  7.469885366720786   7.286707705967045   1.665749517493110 
  6.332035842802820   9.555085618010994   1.662405216529680 
  5.029249830867708  11.653694665354895   1.664582155200690 
  6.258076135456808  13.783307318601102   1.665070017043575 
 13.747922795027504   0.748933490168252   1.665257801054010 
 12.484934026083360   2.911571949597358   1.665886063905495 
 11.227193591969643   5.080401888803203   1.665248403538185 
  9.992786099049820   7.251821736738361   1.665235628266635 
  8.785777946685620   9.437304292179057   1.665609322199325 
  7.544239838992585  11.646145071402795   1.665575152555185 
  7.509281306644231  14.480449986795715   1.665363289242750 
 15.000724156378519   1.459086107577773   1.665239183771355 
 13.740128370390014   3.625979575428242   1.665797679529095 
 12.488739797266280   5.793022204745967   1.664947658600115 
 11.255452808898029   7.961293527403510   1.665126022698930 
 10.033989372140155  10.138048791427330   1.666203108478260 
  8.788771283622296  12.328485090565048   1.666042952752215 
 -7.508982659699136  14.455071397220035   1.664963547985320 
 -0.021829179812318   1.436183986838195   1.665363289242750 
 -1.283578228120257   3.610375491599668   1.665177007311750 
 -2.526511511897098   5.781990788464627   1.664985499843215 
 -3.753431949845377   7.948338581661504   1.665009417065325 
 -4.990768560304049  10.119737783328796   1.665488972752890 
 -6.241740855340734  12.289121111773802   1.665144862052955 
 -4.999593786989341  14.440582944631140   1.665144862052955 
  2.481572076864764   1.404095611002918   1.666042952752215 
  1.208997202511244   3.571222683154865   1.665354808855095 
 -0.025936357556802   5.761993525947914   1.665197930603160 
 -1.229152665947481   7.934049168772751   1.665600271061940 
 -2.472219963185271  10.104265433556728   1.665739350958080 
 -3.733557684816713  12.275328771666405   1.664861763205860 
 -2.495401993812603  14.441900821921315   1.665488972752890 
  5.001154601565996   1.420923262663390   1.666203108478260 
  3.699021719355065   3.521966820998535   1.664649677461425 
  2.438255772211493   5.705041188511894   1.663657706397810 
  1.317887432080732   7.899380115775096   1.665644095830465 
  0.056848810126093  10.086936561483103   1.666267122397845 
 -1.222692819955519  12.268509931036780   1.665739350958080 
  0.003788609156727  14.456035485065168   1.665009417065325 
  7.497011676411089   1.451482528649083   1.665126022698930 
  6.217115901823812   3.620319545197810   1.665715452765555 
  4.850344777807746   5.670943553079208   1.665115613725275 
  2.581847575298957  10.088623302571030   1.665644095830465 
  1.278303245672451  12.277090205407157   1.665600271061940 
  2.493361050454299  14.476665113978031   1.664985499843215 
  9.991433218296475   1.467560327894108   1.664947658600115 
  8.718200899099060   3.645231414402607   1.665638691954225 
  7.427094062948317   5.831723480762487   1.666189274949405 
  6.277958922161690   8.143643784734374   1.665115613725275 
  5.042385000869926  10.215525322053550   1.663657706397810 
  3.760966764970024  12.321102137505463   1.665197930603160 
  4.995501706674650  14.486060963450502   1.665177007311750 
 12.493841472931315   1.467347348222219   1.665797679529095 
 11.230054867969855   3.636083036265669   1.665929451278115 
  9.966205155664467   5.806838194836108   1.665638691954225 
  8.737236968605290   7.985297274118111   1.665715452765555 
  7.563365835058908  10.215207167357510   1.664649677461425 
  6.275696748733038  12.347003723897096   1.665354808855095 
  4.461643814587920   7.543826979931893   1.674837911067330 
