 B As N 
 1.0
 17.527899999999772   0.000000000000000   0.000000000000000
 -8.763949999999658  15.179606674993195   0.000000000000000
  0.000000000000001   0.000000000000002  15.000000000000000
 B As N 
  48   1  48
Cartesian
  7.529288779509120  14.464695820842685   1.665080947367610 
 15.026955394362037   1.443941495266741   1.665286004837040 
 13.771020967325263   3.610735525661360   1.665125380414335 
 12.526079004434827   5.780682505003702   1.664494293338550 
 11.293082792391528   7.953201780563929   1.665566557244400 
 10.048381105206836  10.127173080403459   1.666487923335660 
  8.793770364663498  12.299788578824364   1.665635597034585 
 -7.495629075440253  14.447361701753595   1.665254299067070 
  0.001818064550669   1.426734090048051   1.665080947367610 
 -1.259886044361134   3.599333563138935   1.664689270011195 
 -2.511014659741357   5.775325953610557   1.664909703766860 
 -3.748163501804262   7.948483955401004   1.665006030077160 
 -4.988084855303037  10.119737783328796   1.666151865789465 
 -6.237111853262549  12.284349606120436   1.666182238738065 
 -4.993147040840430  14.438959864064218   1.666182238738065 
  2.508923525552594   1.414114535696080   1.665635597034585 
  1.232822578179040   3.565501848570337   1.664901505769715 
 -0.024959824455851   5.760429336696634   1.664874374464650 
 -1.262021424453749   7.944092678075970   1.665558069545775 
 -2.491213655870757  10.114133936522080   1.665624253223490 
 -3.738934177799087  12.278432891337358   1.665330595902600 
 -2.494060141312133  14.439576665214236   1.666151865789465 
  5.017769110129807   1.413897511735216   1.666487923335660 
  3.750017161522579   3.549895856234695   1.665520469743215 
  2.438260367639664   5.701270019776536   1.665588697292475 
  1.216569549678086   7.940159233114682   1.665054529756875 
  0.007824197393670  10.115240934841156   1.666386316614105 
 -1.240736040563561  12.280024699931651   1.665624253223490 
  0.006296935825597  14.451400188352885   1.665006030077160 
  7.522834326481915   1.422939880419589   1.665566557244400 
  6.277638022912138   3.561577037521502   1.664549906982285 
  5.017505102608032   5.591650257072664   1.668616102172610 
  2.495872882537824  10.155977603919391   1.665054529756875 
  1.253170932219313  12.300533630613119   1.665558069545775 
  2.506881392827559  14.466576863759169   1.664909703766860 
 10.020789315332534   1.441393475800109   1.664494293338550 
  8.776348027477603   3.600038263800711   1.664256062138880 
  7.542652313630997   5.765005893624032   1.664342886630510 
  6.430209093253475   8.038525344955433   1.668616102172610 
  5.045653226511368  10.217406926663449   1.665588697292475 
  3.762809659148804  12.321038529658257   1.664874374464650 
  5.016910389108080  14.471063894674367   1.664689270011195 
 12.522489505753589   1.448215599370754   1.665125380414335 
 11.273524806954622   3.610985655290903   1.665119532289395 
 10.034417136352367   5.779077879803546   1.664256062138880 
  8.818370533079174   7.962254833602764   1.664549906982285 
  7.564676302124550  10.157079301345279   1.665520469743215 
  6.292563824648012  12.329230760606237   1.664901505769715 
  4.092349949166219   7.757032625591940   1.673735158875375 
  8.779601947412832  13.735937855442558   1.664911639728585 
 16.280146316852104   0.720405111890290   1.664968759862310 
 15.020304501480798   2.885652024656641   1.664831125896435 
 13.769602813784465   5.054867797862106   1.664446272945705 
 12.530231232305963   7.225028751187176   1.664586858969375 
 11.287129745229183   9.395504969708693   1.666339411324275 
 10.036688053556015  11.565986448543326   1.666142058074340 
 -6.244884344265089  13.725237627591019   1.665444486288975 
  1.258092132427857   0.708300706261214   1.664911639728585 
 -0.010588818221038   2.865666213413202   1.664457123319350 
 -1.264951251417098   5.044435620531559   1.664637150183525 
 -2.505181187419595   7.220126841565978   1.664801195314260 
 -3.741725800020943   9.391561117419549   1.665172093770285 
 -4.990402592801654  11.559225526789220   1.665595535434170 
 -3.741821964334389  13.721830612640641   1.665595535434170 
  3.765868228851632   0.704607907046368   1.666142058074340 
  2.499755861718542   2.859783361519032   1.664948889349155 
  1.214159777369821   5.002724579842200   1.664592667520520 
 -0.018369367134045   7.210047515923264   1.664920884768690 
 -1.240321586016062   9.388669598140586   1.665715856523180 
 -2.489051265429426  11.556806388494042   1.665105718405005 
 -1.240231122550498  13.724276993661158   1.665172093770285 
  6.270781173802828   0.706934375523693   1.666339411324275 
  5.015943645325479   2.866702009212024   1.665227356637880 
  3.736300175992502   5.017227744263922   1.666535629513995 
  2.401224642558843   7.121919046802396   1.664270522056545 
  1.268851731390218   9.387180081691591   1.665617407858710 
  0.012975113602681  11.559443158839116   1.665715856523180 
  1.258558429269455  13.739115084162595   1.664801195314260 
  8.772019460873757   0.715615017493176   1.664586858969375 
  7.525315412669196   2.872706372785598   1.664454321119910 
  6.285372356917119   5.031159081494374   1.664307169563315 
  3.796811789373734   9.539146891506917   1.664270522056545 
  2.510693291471840  11.590512536185438   1.664920884768690 
  3.762877265477725  13.752890063567218   1.664637150183525 
 11.271119767492896   0.727368219867206   1.664446272945705 
 10.017680980855282   2.888343133799744   1.664417228420010 
  8.774160248157900   5.053988189174385   1.663844038630500 
  7.549536889733530   7.220756281460301   1.664307169563315 
  6.287065691212926   9.435283214851555   1.666535629513995 
  5.038555600726371  11.626772454180687   1.664592667520520 
  6.276928137646719  13.755965034425346   1.664457123319350 
 13.775066577244647   0.728836672368941   1.664831125896435 
 12.520208221142834   2.891206383584322   1.665232952285835 
 11.271436534388952   5.059868891664398   1.664417228420010 
 10.038783296237140   7.226160450286945   1.664454321119910 
  8.789297343945254   9.402342330147571   1.665227356637880 
  7.537195176802698  11.584884195290908   1.664948889349155 
