Species order: X N B                    
   2.51242800000000     
     5.9449720136058266    0.0000000000000000    0.0000000000000000
    -2.9724860068029120    5.1484967885702053   -0.0000000000000001
     0.0000000000000000    0.0000000000000009    5.3101128803662583
   Sn   N    B 
     1   143   144
Direct
  0.5555555555555571  0.4444444444444429  0.3750000000000000
  0.1111102084690867  0.0555388994325475  0.1253729629460991
  0.6111372013139683  0.5556077359612441  0.1231547699840992
  0.4444279229719786  0.0555359719626453  0.1254300492680912
  0.9444640280373411  0.5555720770280121  0.1254300492680911
  0.7777715048753664  0.0555524191043358  0.1251763945859653
  0.1111230546615372  0.7222281939974368  0.6247629281405330
  0.4444279229719854  0.7222252843426833  0.6245699507319100
  0.2777636720606449  0.2222041222946603  0.6250350482423680
  0.7777958777053495  0.7222363279393558  0.6250350482423680
  0.6111071169006901  0.2222041222946663  0.6250350482423680
  0.9444475808956646  0.2222284951246601  0.6248236054140360
  0.2777718060025549  0.7222281939974368  0.1252370718594662
  0.1111061557043646  0.2222197445188452  0.1252182956184720
  0.4444419323809184  0.2222171980951575  0.1246837302386116
  0.6111071169006901  0.7222363279393558  0.1249649517576074
  0.9444640280373408  0.7222252843426833  0.1254300492680911
  0.7777802554811486  0.2222197445188452  0.1252182956184720
  0.1111202079079377  0.8888797920920528  0.6246384843505902
  0.4444262508507923  0.8888797920920660  0.6246384843505902
  0.2777636720606450  0.3888928830993076  0.6250350482423680
  0.6111372013139847  0.3888627986860508  0.6268452300159033
  0.7777802554811486  0.8888938442956237  0.6247817043815421
  0.9444611005674467  0.3889046423698572  0.6246270370539296
  0.1111102084690867  0.3889046423698677  0.1253729629460991
  0.2777718060025548  0.8888769453384384  0.1252370718594662
  0.6110953576301063  0.8888897915309212  0.1253729629460991
  0.4443922640387383  0.3888627986860390  0.1231547699841014
  0.9444611005674467  0.8888897915309212  0.1253729629460991
  0.7777958777053495  0.3888928830993076  0.1249649517576074
  0.2777747156573298  0.5555720770280450  0.6245699507319340
  0.1111102084690865  0.0555388994325457  0.6246270370539296
  0.6111372013139683  0.5556077359612268  0.6268452300158753
  0.4444279229719786  0.0555359719626453  0.6245699507319340
  0.9444640280373411  0.5555720770280121  0.6245699507319338
  0.1111202079079383  0.5555737491492182  0.1253615156494099
  0.7777715048753664  0.0555524191043358  0.6248236054140360
  0.2777747156573300  0.0555359719626457  0.1254300492680911
  0.4444419323809184  0.5555580676190752  0.1246837302386156
  0.7777828019048214  0.5555580676190879  0.1246837302386116
  0.6110953576301287  0.0555388994325459  0.1253729629460991
  0.4444419323809215  0.5555580676190878  0.6253162697614070
  0.9444475808956646  0.0555524191043362  0.1251763945859641
  0.2777718060025600  0.7222281939974368  0.6247629281405190
  0.1111061557043703  0.2222197445188453  0.6247817043815438
  0.4444419323809215  0.2222171980951564  0.6253162697614070
  0.6111071169006901  0.7222363279393554  0.6250350482423680
  0.9444640280373408  0.7222252843426833  0.6245699507319100
  0.7777802554811484  0.2222197445188453  0.6247817043815421
  0.1111230546615372  0.7222281939974307  0.1252370718594662
  0.4444279229719743  0.7222252843426833  0.1254300492680930
  0.2777636720606450  0.2222041222946591  0.1249649517576076
  0.7777958777053495  0.7222363279393558  0.1249649517576074
  0.6111071169006898  0.2222041222946602  0.1249649517576074
  0.9444475808956646  0.2222284951246601  0.1251763945859641
  0.1111102084690863  0.3889046423698573  0.6246270370539296
  0.2777718060025548  0.8888769453384486  0.6247629281405330
  0.6110953576301287  0.8888897915309212  0.6246270370539296
  0.4443922640387380  0.3888627986860509  0.6268452300159033
  0.9444611005674467  0.8888897915309212  0.6246270370539296
  0.1111202079079382  0.8888797920920660  0.1253615156494114
  0.7777958777053433  0.3888928830993076  0.6250350482423680
  0.4444262508507941  0.8888797920920528  0.1253615156494114
  0.2777636720606340  0.3888928830993076  0.1249649517576076
  0.2777747156573302  0.5555720770280452  0.1254300492680930
  0.6111372013139683  0.3888627986860390  0.1231547699840992
  0.7777802554811486  0.8888938442956237  0.1252182956184720
  0.9444611005674467  0.3889046423698677  0.1253729629460991
  0.1111202079079380  0.5555737491492183  0.6246384843505902
  0.2777747156573371  0.0555359719626459  0.6245699507319100
  0.7777828019048214  0.5555580676190879  0.6253162697614070
  0.6110953576301287  0.0555388994325457  0.6246270370539296
  0.9444475808956646  0.0555524191043362  0.6248236054140356
  0.0542927458252884  0.1103127953472436  0.3750000000000000
  0.5545544875624233  0.6212571162948602  0.3750000000000000
  0.3871340956904333  0.1076015247141900  0.3750000000000000
  0.8923984752857896  0.6128659043095906  0.3750000000000000
  0.7226867161886203  0.1103127953472436  0.3750000000000000
  0.0555509103560864  0.7777800170674027  0.8750000000000000
  0.3888957733779665  0.7777800170674027  0.8750000000000000
  0.2222166594388127  0.2777749963860690  0.8750000000000000
  0.7222250036139031  0.7777833405611744  0.8750000000000000
  0.5555553693452315  0.2777736287404274  0.8750000000000000
  0.8888897388402852  0.2777749912082287  0.8750000000000000
  0.2222222222222214  0.7777777777777786  0.3750000000000000
  0.0542927458252870  0.2773132838113676  0.3750000000000000
  0.3787428837051460  0.2666307046009194  0.3750000000000000
  0.5549386812918317  0.7820812817927152  0.3750000000000000
  0.8938092671675373  0.7820812817927159  0.3750000000000000
  0.7241576878156989  0.2758423121842846  0.3750000000000000
  0.0555519944452316  0.9444480055547855  0.8750000000000000
  0.3888957733779665  0.9444490896439052  0.8750000000000000
  0.2222167628900835  0.4444395214936819  0.8750000000000000
  0.5555555555555571  0.4444444444444429  0.8750000000000000
  0.7222250087917726  0.9444480809653839  0.8750000000000000
  0.8888894252702780  0.4444395214936819  0.8750000000000000
  0.0557589059141615  0.4448511451616504  0.3750000000000000
  0.2216708829804318  0.9431237903799682  0.3750000000000000
  0.5551488548383483  0.9442410940858557  0.3750000000000000
  0.3787428837051284  0.4454455124375659  0.3750000000000000
  0.8896872046527516  0.9457072541746948  0.3750000000000000
  0.7333692953990832  0.4454455124375595  0.3750000000000000
  0.2222199829326065  0.6111042266220338  0.8750000000000000
  0.0555519190346313  0.1111102611597301  0.8750000000000000
  0.5555553693452316  0.6111150739381335  0.8750000000000000
  0.3888894861817231  0.1111123056967808  0.8750000000000000
  0.8888876943032455  0.6111105138182743  0.8750000000000000
  0.0568762096200224  0.6118804259337929  0.3750000000000000
  0.7222250087917714  0.1111102611597295  0.8750000000000000
  0.2179187182073038  0.1061907328324510  0.3750000000000000
  0.3871340956904313  0.6128659043095959  0.3750000000000000
  0.7333692953991098  0.6212571162948698  0.3750000000000000
  0.5549386812918321  0.1061907328324510  0.3750000000000000
  0.3888894861817058  0.6111105138182743  0.8750000000000000
  0.8888888888888857  0.1111111111111143  0.3750000000000000
  0.2222222222222214  0.7777777777777786  0.8750000000000000
  0.0555519190346296  0.2777749912082287  0.8750000000000000
  0.3888849260618299  0.2777736287404274  0.8750000000000000
  0.5555604785063224  0.7777832371099106  0.8750000000000000
  0.8888894252702619  0.7777832371099106  0.8750000000000000
  0.7222250036139191  0.2777749963860690  0.8750000000000000
  0.0568762096200236  0.7783291170195463  0.3750000000000000
  0.3881195740662027  0.7783291170195541  0.3750000000000000
  0.2183512910352375  0.2758423121842926  0.3750000000000000
  0.7241576878157104  0.7816487089647475  0.3750000000000000
  0.5545544875624598  0.2666307046009103  0.3750000000000000
  0.8896872046527716  0.2773132838113682  0.3750000000000000
  0.0555519944452327  0.4444373222237977  0.8750000000000000
  0.2222199829326015  0.9444490896439059  0.8750000000000000
  0.5555626777762143  0.9444480055547855  0.8750000000000000
  0.3888849260618299  0.4444446306547528  0.8750000000000000
  0.8888897388402852  0.9444480809653839  0.8750000000000000
  0.0557589059141625  0.9442410940858503  0.3750000000000000
  0.7222263712596059  0.4444446306547528  0.8750000000000000
  0.3881195740662087  0.9431237903799682  0.3750000000000000
  0.2179187182073022  0.4450613187081834  0.3750000000000000
  0.2216708829804258  0.6118804259337929  0.3750000000000000
  0.7226867161886324  0.9457072541747205  0.3750000000000000
  0.8938092671675373  0.4450613187081777  0.3750000000000000
  0.0555509103560874  0.6111042266220338  0.8750000000000000
  0.2222167628900834  0.1111105747297309  0.8750000000000000
  0.7222263712596054  0.6111150739381335  0.8750000000000000
  0.5555604785063224  0.1111105747297325  0.8750000000000000
  0.8888888888888857  0.1111111111111143  0.8750000000000000
  0.1080671112306525  0.0533991968495309  0.3750000000000000
  0.6315845042760129  0.5965023418853559  0.3750000000000000
  0.4436966652314770  0.0524984564903777  0.3750000000000000
  0.9475015435096197  0.5563033347685447  0.3750000000000000
  0.7785696527373041  0.0559514930353230  0.3750000000000000
  0.1111219318411990  0.7222276325872488  0.8750000000000000
  0.4444422887587381  0.7222632401885166  0.8750000000000000
  0.2776952661844928  0.2221662093931256  0.8750000000000000
  0.7778337906068814  0.7223047338155389  0.8750000000000000
  0.6111376098753165  0.2221662093931285  0.8750000000000000
  0.9444342848934446  0.2222019031201869  0.8750000000000000
  0.2773347629450661  0.7226652370549470  0.3750000000000000
  0.1075563351442963  0.2204448342388102  0.3750000000000000
  0.4411472237753212  0.2156277808839654  0.3750000000000000
  0.6129892322238532  0.7325817645662570  0.3750000000000000
  0.9475015435096603  0.7245315420744317  0.3750000000000000
  0.7795551657612235  0.2204448342388097  0.3750000000000000
  0.1111059865881261  0.8888940134118624  0.8750000000000000
  0.4444546934904391  0.8888940134118624  0.8750000000000000
  0.2776952661844923  0.3888623901246859  0.8750000000000000
  0.6111384261410744  0.3888615738589312  0.8750000000000000
  0.7778105605588852  0.8889544544510311  0.8750000000000000
  0.9444624314840249  0.3888628909219852  0.8750000000000000
  0.1080671112306516  0.3880012477144420  0.3750000000000000
  0.2773347629450633  0.8880028592234555  0.3750000000000000
  0.6119987522855486  0.8919328887693455  0.3750000000000000
  0.4034976581146550  0.3684154957239815  0.3750000000000000
  0.9466008031504649  0.8919328887693455  0.3750000000000000
  0.7862591990090210  0.3870107677761050  0.3750000000000000
  0.2777367598114989  0.5555577112412561  0.8750000000000000
  0.1110671261046564  0.0555375685159910  0.8750000000000000
  0.6111384261410741  0.5556101856154884  0.8750000000000000
  0.4444422887587346  0.0555123819035738  0.8750000000000000
  0.9444876180963934  0.5555577112412561  0.8750000000000000
  0.1112321292329867  0.5557975917992937  0.3750000000000000
  0.7777980968798223  0.0555657151065757  0.8750000000000000
  0.2754684579255633  0.0524984564903768  0.3750000000000000
  0.4411472237753105  0.5588527762246764  0.3750000000000000
  0.7843722191160215  0.5588527762246953  0.3750000000000000
  0.6119987522855486  0.0533991968495297  0.3750000000000000
  0.4444112407938964  0.5555887592061026  0.8750000000000000
  0.9440485069646611  0.0559514930353245  0.3750000000000000
  0.2777723674127245  0.7222276325872488  0.8750000000000000
  0.1110455455489383  0.2221894394411279  0.8750000000000000
  0.4444112407939008  0.2221558149211284  0.8750000000000000
  0.6111376098753165  0.7223047338155389  0.8750000000000000
  0.9444876180963934  0.7222632401885168  0.8750000000000000
  0.7778105605588852  0.2221894394411271  0.8750000000000000
  0.1119971407765301  0.7226652370549471  0.3750000000000000
  0.4436966652314716  0.7245315420744394  0.3750000000000000
  0.2674182354337485  0.2137408009909736  0.3750000000000000
  0.7862591990090342  0.7325817645662441  0.3750000000000000
  0.6129892322239019  0.2137408009909749  0.3750000000000000
  0.9440485069646612  0.2214303472626836  0.3750000000000000
  0.1110671261046556  0.3888628909219852  0.8750000000000000
  0.2777723674127309  0.8888780681587903  0.8750000000000000
  0.6111371090780071  0.8889328738953661  0.8750000000000000
  0.4443898143845313  0.3888615738589201  0.8750000000000000
  0.9444624314840249  0.8889328738953661  0.8750000000000000
  0.1112321292329843  0.8887678707670233  0.3750000000000000
  0.7778337906068802  0.3888623901246859  0.8750000000000000
  0.4442024082007164  0.8887678707670280  0.3750000000000000
  0.2674182354337540  0.3870107677761099  0.3750000000000000
  0.2754684579255719  0.5563033347685469  0.3750000000000000
  0.6315845042760018  0.3684154957239893  0.3750000000000000
  0.7795551657612059  0.8924436648557313  0.3750000000000000
  0.9466008031504701  0.3880012477144470  0.3750000000000000
  0.1111059865881261  0.5555453065095789  0.8750000000000000
  0.2777367598114975  0.0555123819035739  0.8750000000000000
  0.7778441850788628  0.5555887592061026  0.8750000000000000
  0.6111371090780071  0.0555375685159920  0.8750000000000000
  0.9444342848934446  0.0555657151065756  0.8750000000000000
  0.0554832517373751  0.1110517506801834  0.1248191205968659
  0.5555132940791991  0.6113446517656242  0.1230849012851475
  0.3887497076514357  0.1108327486362250  0.1245809539146203
  0.8891672513637726  0.6112502923485634  0.1245809539146202
  0.7222351656094881  0.1110517506801834  0.1248191205968659
  0.0556827028055181  0.7778243543796474  0.6250992430042771
  0.3888083182407984  0.7778243543796474  0.6250992430042853
  0.2220115503733778  0.2776724418533524  0.6256771910237491
  0.7223275581466737  0.7779884496266170  0.6256771910237491
  0.5555132940792051  0.2775019756469425  0.6269150987148894
  0.8889482493198159  0.2777648343905407  0.6251808794030798
  0.2222222222222214  0.7777777777777786  0.1247851526646738
  0.0554832517373734  0.2777648343905410  0.1248191205968648
  0.3886553482344160  0.2775019756469425  0.1230849012851475
  0.5555031839639275  0.7779299410979117  0.1247070299679453
  0.8890934238006081  0.7779299410979116  0.1247070299679443
  0.7223275581466737  0.2776724418533593  0.1243228089762350
  0.0555819324329422  0.9444180675670618  0.6250492946090855
  0.3888083182407980  0.9443172971944883  0.6250992430042853
  0.2220700589021119  0.4444968160360528  0.6252929700320539
  0.5555555555555571  0.4444444444444429  0.6284201760204190
  0.7222351656094881  0.9445167482626371  0.6251808794030798
  0.8890934238005986  0.4444968160360528  0.6252929700320539
  0.0555819324329424  0.4444971981992126  0.1249507053909131
  0.2221756456203441  0.9443172971944884  0.1249007569957276
  0.5555028018007729  0.9444180675670618  0.1249507053909125
  0.3886553482344187  0.4444867059207851  0.1230849012851475
  0.8889482493198159  0.9445167482626371  0.1248191205968659
  0.7224980243530162  0.4444867059207930  0.1230849012851469
  0.2221756456203443  0.6111916817592092  0.6250992430042853
  0.0554832517373751  0.1110517506801869  0.6251808794030794
  0.5555132940792051  0.6113446517656242  0.6269150987148894
  0.3887497076514383  0.1108327486362279  0.6254190460854099
  0.8891672513637776  0.6112502923485634  0.6254190460854094
  0.0556827028055180  0.6111916817592092  0.1249007569957276
  0.7222351656094881  0.1110517506801834  0.6251808794030794
  0.2220700589021117  0.1109065761993945  0.1247070299679444
  0.3887497076514388  0.6112502923485635  0.1245809539146202
  0.7224980243530162  0.6113446517656242  0.1230849012851490
  0.5555031839639274  0.1109065761993945  0.1247070299679443
  0.3887497076514420  0.6112502923485635  0.6254190460854097
  0.8888888888888857  0.1111111111111143  0.1247684211991885
  0.2222222222222214  0.7777777777777786  0.6252148473353408
  0.0554832517373751  0.2777648343905407  0.6251808794030794
  0.3886553482344139  0.2775019756469501  0.6269150987148894
  0.5555031839639429  0.7779299410979117  0.6252929700320539
  0.8890934238006055  0.7779299410979117  0.6252929700320539
  0.7223275581466737  0.2776724418533593  0.6256771910237491
  0.0556827028055175  0.7778243543796474  0.1249007569957276
  0.3888083182408072  0.7778243543796474  0.1249007569957276
  0.2220115503733779  0.2776724418533593  0.1243228089762349
  0.7223275581466737  0.7779884496266171  0.1243228089762350
  0.5555132940791925  0.2775019756469506  0.1230849012851490
  0.8889482493198159  0.2777648343905410  0.1248191205968659
  0.0555819324329425  0.4444971981992131  0.6250492946090855
  0.2221756456203440  0.9443172971944884  0.6250992430042771
  0.5555028018007728  0.9444180675670621  0.6250492946091024
  0.3886553482344211  0.4444867059207930  0.6269150987148894
  0.8889482493198159  0.9445167482626372  0.6251808794030794
  0.0555819324329424  0.9444180675670618  0.1249507053909125
  0.7224980243530160  0.4444867059207930  0.6269150987148894
  0.3888083182407970  0.9443172971944884  0.1249007569957276
  0.2220700589021134  0.4444968160360528  0.1247070299679443
  0.2221756456203405  0.6111916817591651  0.1249007569957276
  0.5555555555555571  0.4444444444444429  0.1215798239795766
  0.7222351656094881  0.9445167482626371  0.1248191205968659
  0.8890934238005986  0.4444968160360528  0.1247070299679443
  0.0556827028055180  0.6111916817592092  0.6250992430042853
  0.2220700589021192  0.1109065761993945  0.6252929700320539
  0.7224980243530162  0.6113446517656218  0.6269150987148894
  0.5555031839639275  0.1109065761993976  0.6252929700320539
  0.8888888888888857  0.1111111111111143  0.6252315788007919
 
  0.00000000E+00  0.00000000E+00  0.00000000E+00
  0.00000000E+00  0.00000000E+00  0.00000000E+00
  0.00000000E+00  0.00000000E+00  0.00000000E+00
  0.00000000E+00  0.00000000E+00  0.00000000E+00
  0.00000000E+00  0.00000000E+00  0.00000000E+00
  0.00000000E+00  0.00000000E+00  0.00000000E+00
  0.00000000E+00  0.00000000E+00  0.00000000E+00
  0.00000000E+00  0.00000000E+00  0.00000000E+00
  0.00000000E+00  0.00000000E+00  0.00000000E+00
  0.00000000E+00  0.00000000E+00  0.00000000E+00
  0.00000000E+00  0.00000000E+00  0.00000000E+00
  0.00000000E+00  0.00000000E+00  0.00000000E+00
  0.00000000E+00  0.00000000E+00  0.00000000E+00
  0.00000000E+00  0.00000000E+00  0.00000000E+00
  0.00000000E+00  0.00000000E+00  0.00000000E+00
  0.00000000E+00  0.00000000E+00  0.00000000E+00
  0.00000000E+00  0.00000000E+00  0.00000000E+00
  0.00000000E+00  0.00000000E+00  0.00000000E+00
  0.00000000E+00  0.00000000E+00  0.00000000E+00
  0.00000000E+00  0.00000000E+00  0.00000000E+00
  0.00000000E+00  0.00000000E+00  0.00000000E+00
  0.00000000E+00  0.00000000E+00  0.00000000E+00
  0.00000000E+00  0.00000000E+00  0.00000000E+00
  0.00000000E+00  0.00000000E+00  0.00000000E+00
  0.00000000E+00  0.00000000E+00  0.00000000E+00
  0.00000000E+00  0.00000000E+00  0.00000000E+00
  0.00000000E+00  0.00000000E+00  0.00000000E+00
  0.00000000E+00  0.00000000E+00  0.00000000E+00
  0.00000000E+00  0.00000000E+00  0.00000000E+00
  0.00000000E+00  0.00000000E+00  0.00000000E+00
  0.00000000E+00  0.00000000E+00  0.00000000E+00
  0.00000000E+00  0.00000000E+00  0.00000000E+00
  0.00000000E+00  0.00000000E+00  0.00000000E+00
  0.00000000E+00  0.00000000E+00  0.00000000E+00
  0.00000000E+00  0.00000000E+00  0.00000000E+00
  0.00000000E+00  0.00000000E+00  0.00000000E+00
  0.00000000E+00  0.00000000E+00  0.00000000E+00
  0.00000000E+00  0.00000000E+00  0.00000000E+00
  0.00000000E+00  0.00000000E+00  0.00000000E+00
  0.00000000E+00  0.00000000E+00  0.00000000E+00
  0.00000000E+00  0.00000000E+00  0.00000000E+00
  0.00000000E+00  0.00000000E+00  0.00000000E+00
  0.00000000E+00  0.00000000E+00  0.00000000E+00
  0.00000000E+00  0.00000000E+00  0.00000000E+00
  0.00000000E+00  0.00000000E+00  0.00000000E+00
  0.00000000E+00  0.00000000E+00  0.00000000E+00
  0.00000000E+00  0.00000000E+00  0.00000000E+00
  0.00000000E+00  0.00000000E+00  0.00000000E+00
  0.00000000E+00  0.00000000E+00  0.00000000E+00
  0.00000000E+00  0.00000000E+00  0.00000000E+00
  0.00000000E+00  0.00000000E+00  0.00000000E+00
  0.00000000E+00  0.00000000E+00  0.00000000E+00
  0.00000000E+00  0.00000000E+00  0.00000000E+00
  0.00000000E+00  0.00000000E+00  0.00000000E+00
  0.00000000E+00  0.00000000E+00  0.00000000E+00
  0.00000000E+00  0.00000000E+00  0.00000000E+00
  0.00000000E+00  0.00000000E+00  0.00000000E+00
  0.00000000E+00  0.00000000E+00  0.00000000E+00
  0.00000000E+00  0.00000000E+00  0.00000000E+00
  0.00000000E+00  0.00000000E+00  0.00000000E+00
  0.00000000E+00  0.00000000E+00  0.00000000E+00
  0.00000000E+00  0.00000000E+00  0.00000000E+00
  0.00000000E+00  0.00000000E+00  0.00000000E+00
  0.00000000E+00  0.00000000E+00  0.00000000E+00
  0.00000000E+00  0.00000000E+00  0.00000000E+00
  0.00000000E+00  0.00000000E+00  0.00000000E+00
  0.00000000E+00  0.00000000E+00  0.00000000E+00
  0.00000000E+00  0.00000000E+00  0.00000000E+00
  0.00000000E+00  0.00000000E+00  0.00000000E+00
  0.00000000E+00  0.00000000E+00  0.00000000E+00
  0.00000000E+00  0.00000000E+00  0.00000000E+00
  0.00000000E+00  0.00000000E+00  0.00000000E+00
  0.00000000E+00  0.00000000E+00  0.00000000E+00
  0.00000000E+00  0.00000000E+00  0.00000000E+00
  0.00000000E+00  0.00000000E+00  0.00000000E+00
  0.00000000E+00  0.00000000E+00  0.00000000E+00
  0.00000000E+00  0.00000000E+00  0.00000000E+00
  0.00000000E+00  0.00000000E+00  0.00000000E+00
  0.00000000E+00  0.00000000E+00  0.00000000E+00
  0.00000000E+00  0.00000000E+00  0.00000000E+00
  0.00000000E+00  0.00000000E+00  0.00000000E+00
  0.00000000E+00  0.00000000E+00  0.00000000E+00
  0.00000000E+00  0.00000000E+00  0.00000000E+00
  0.00000000E+00  0.00000000E+00  0.00000000E+00
  0.00000000E+00  0.00000000E+00  0.00000000E+00
  0.00000000E+00  0.00000000E+00  0.00000000E+00
  0.00000000E+00  0.00000000E+00  0.00000000E+00
  0.00000000E+00  0.00000000E+00  0.00000000E+00
  0.00000000E+00  0.00000000E+00  0.00000000E+00
  0.00000000E+00  0.00000000E+00  0.00000000E+00
  0.00000000E+00  0.00000000E+00  0.00000000E+00
  0.00000000E+00  0.00000000E+00  0.00000000E+00
  0.00000000E+00  0.00000000E+00  0.00000000E+00
  0.00000000E+00  0.00000000E+00  0.00000000E+00
  0.00000000E+00  0.00000000E+00  0.00000000E+00
  0.00000000E+00  0.00000000E+00  0.00000000E+00
  0.00000000E+00  0.00000000E+00  0.00000000E+00
  0.00000000E+00  0.00000000E+00  0.00000000E+00
  0.00000000E+00  0.00000000E+00  0.00000000E+00
  0.00000000E+00  0.00000000E+00  0.00000000E+00
  0.00000000E+00  0.00000000E+00  0.00000000E+00
  0.00000000E+00  0.00000000E+00  0.00000000E+00
  0.00000000E+00  0.00000000E+00  0.00000000E+00
  0.00000000E+00  0.00000000E+00  0.00000000E+00
  0.00000000E+00  0.00000000E+00  0.00000000E+00
  0.00000000E+00  0.00000000E+00  0.00000000E+00
  0.00000000E+00  0.00000000E+00  0.00000000E+00
  0.00000000E+00  0.00000000E+00  0.00000000E+00
  0.00000000E+00  0.00000000E+00  0.00000000E+00
  0.00000000E+00  0.00000000E+00  0.00000000E+00
  0.00000000E+00  0.00000000E+00  0.00000000E+00
  0.00000000E+00  0.00000000E+00  0.00000000E+00
  0.00000000E+00  0.00000000E+00  0.00000000E+00
  0.00000000E+00  0.00000000E+00  0.00000000E+00
  0.00000000E+00  0.00000000E+00  0.00000000E+00
  0.00000000E+00  0.00000000E+00  0.00000000E+00
  0.00000000E+00  0.00000000E+00  0.00000000E+00
  0.00000000E+00  0.00000000E+00  0.00000000E+00
  0.00000000E+00  0.00000000E+00  0.00000000E+00
  0.00000000E+00  0.00000000E+00  0.00000000E+00
  0.00000000E+00  0.00000000E+00  0.00000000E+00
  0.00000000E+00  0.00000000E+00  0.00000000E+00
  0.00000000E+00  0.00000000E+00  0.00000000E+00
  0.00000000E+00  0.00000000E+00  0.00000000E+00
  0.00000000E+00  0.00000000E+00  0.00000000E+00
  0.00000000E+00  0.00000000E+00  0.00000000E+00
  0.00000000E+00  0.00000000E+00  0.00000000E+00
  0.00000000E+00  0.00000000E+00  0.00000000E+00
  0.00000000E+00  0.00000000E+00  0.00000000E+00
  0.00000000E+00  0.00000000E+00  0.00000000E+00
  0.00000000E+00  0.00000000E+00  0.00000000E+00
  0.00000000E+00  0.00000000E+00  0.00000000E+00
  0.00000000E+00  0.00000000E+00  0.00000000E+00
  0.00000000E+00  0.00000000E+00  0.00000000E+00
  0.00000000E+00  0.00000000E+00  0.00000000E+00
  0.00000000E+00  0.00000000E+00  0.00000000E+00
  0.00000000E+00  0.00000000E+00  0.00000000E+00
  0.00000000E+00  0.00000000E+00  0.00000000E+00
  0.00000000E+00  0.00000000E+00  0.00000000E+00
  0.00000000E+00  0.00000000E+00  0.00000000E+00
  0.00000000E+00  0.00000000E+00  0.00000000E+00
  0.00000000E+00  0.00000000E+00  0.00000000E+00
  0.00000000E+00  0.00000000E+00  0.00000000E+00
  0.00000000E+00  0.00000000E+00  0.00000000E+00
  0.00000000E+00  0.00000000E+00  0.00000000E+00
  0.00000000E+00  0.00000000E+00  0.00000000E+00
  0.00000000E+00  0.00000000E+00  0.00000000E+00
  0.00000000E+00  0.00000000E+00  0.00000000E+00
  0.00000000E+00  0.00000000E+00  0.00000000E+00
  0.00000000E+00  0.00000000E+00  0.00000000E+00
  0.00000000E+00  0.00000000E+00  0.00000000E+00
  0.00000000E+00  0.00000000E+00  0.00000000E+00
  0.00000000E+00  0.00000000E+00  0.00000000E+00
  0.00000000E+00  0.00000000E+00  0.00000000E+00
  0.00000000E+00  0.00000000E+00  0.00000000E+00
  0.00000000E+00  0.00000000E+00  0.00000000E+00
  0.00000000E+00  0.00000000E+00  0.00000000E+00
  0.00000000E+00  0.00000000E+00  0.00000000E+00
  0.00000000E+00  0.00000000E+00  0.00000000E+00
  0.00000000E+00  0.00000000E+00  0.00000000E+00
  0.00000000E+00  0.00000000E+00  0.00000000E+00
  0.00000000E+00  0.00000000E+00  0.00000000E+00
  0.00000000E+00  0.00000000E+00  0.00000000E+00
  0.00000000E+00  0.00000000E+00  0.00000000E+00
  0.00000000E+00  0.00000000E+00  0.00000000E+00
  0.00000000E+00  0.00000000E+00  0.00000000E+00
  0.00000000E+00  0.00000000E+00  0.00000000E+00
  0.00000000E+00  0.00000000E+00  0.00000000E+00
  0.00000000E+00  0.00000000E+00  0.00000000E+00
  0.00000000E+00  0.00000000E+00  0.00000000E+00
  0.00000000E+00  0.00000000E+00  0.00000000E+00
  0.00000000E+00  0.00000000E+00  0.00000000E+00
  0.00000000E+00  0.00000000E+00  0.00000000E+00
  0.00000000E+00  0.00000000E+00  0.00000000E+00
  0.00000000E+00  0.00000000E+00  0.00000000E+00
  0.00000000E+00  0.00000000E+00  0.00000000E+00
  0.00000000E+00  0.00000000E+00  0.00000000E+00
  0.00000000E+00  0.00000000E+00  0.00000000E+00
  0.00000000E+00  0.00000000E+00  0.00000000E+00
  0.00000000E+00  0.00000000E+00  0.00000000E+00
  0.00000000E+00  0.00000000E+00  0.00000000E+00
  0.00000000E+00  0.00000000E+00  0.00000000E+00
  0.00000000E+00  0.00000000E+00  0.00000000E+00
  0.00000000E+00  0.00000000E+00  0.00000000E+00
  0.00000000E+00  0.00000000E+00  0.00000000E+00
  0.00000000E+00  0.00000000E+00  0.00000000E+00
  0.00000000E+00  0.00000000E+00  0.00000000E+00
  0.00000000E+00  0.00000000E+00  0.00000000E+00
  0.00000000E+00  0.00000000E+00  0.00000000E+00
  0.00000000E+00  0.00000000E+00  0.00000000E+00
  0.00000000E+00  0.00000000E+00  0.00000000E+00
  0.00000000E+00  0.00000000E+00  0.00000000E+00
  0.00000000E+00  0.00000000E+00  0.00000000E+00
  0.00000000E+00  0.00000000E+00  0.00000000E+00
  0.00000000E+00  0.00000000E+00  0.00000000E+00
  0.00000000E+00  0.00000000E+00  0.00000000E+00
  0.00000000E+00  0.00000000E+00  0.00000000E+00
  0.00000000E+00  0.00000000E+00  0.00000000E+00
  0.00000000E+00  0.00000000E+00  0.00000000E+00
  0.00000000E+00  0.00000000E+00  0.00000000E+00
  0.00000000E+00  0.00000000E+00  0.00000000E+00
  0.00000000E+00  0.00000000E+00  0.00000000E+00
  0.00000000E+00  0.00000000E+00  0.00000000E+00
  0.00000000E+00  0.00000000E+00  0.00000000E+00
  0.00000000E+00  0.00000000E+00  0.00000000E+00
  0.00000000E+00  0.00000000E+00  0.00000000E+00
  0.00000000E+00  0.00000000E+00  0.00000000E+00
  0.00000000E+00  0.00000000E+00  0.00000000E+00
  0.00000000E+00  0.00000000E+00  0.00000000E+00
  0.00000000E+00  0.00000000E+00  0.00000000E+00
  0.00000000E+00  0.00000000E+00  0.00000000E+00
  0.00000000E+00  0.00000000E+00  0.00000000E+00
  0.00000000E+00  0.00000000E+00  0.00000000E+00
  0.00000000E+00  0.00000000E+00  0.00000000E+00
  0.00000000E+00  0.00000000E+00  0.00000000E+00
  0.00000000E+00  0.00000000E+00  0.00000000E+00
  0.00000000E+00  0.00000000E+00  0.00000000E+00
  0.00000000E+00  0.00000000E+00  0.00000000E+00
  0.00000000E+00  0.00000000E+00  0.00000000E+00
  0.00000000E+00  0.00000000E+00  0.00000000E+00
  0.00000000E+00  0.00000000E+00  0.00000000E+00
  0.00000000E+00  0.00000000E+00  0.00000000E+00
  0.00000000E+00  0.00000000E+00  0.00000000E+00
  0.00000000E+00  0.00000000E+00  0.00000000E+00
  0.00000000E+00  0.00000000E+00  0.00000000E+00
  0.00000000E+00  0.00000000E+00  0.00000000E+00
  0.00000000E+00  0.00000000E+00  0.00000000E+00
  0.00000000E+00  0.00000000E+00  0.00000000E+00
  0.00000000E+00  0.00000000E+00  0.00000000E+00
  0.00000000E+00  0.00000000E+00  0.00000000E+00
  0.00000000E+00  0.00000000E+00  0.00000000E+00
  0.00000000E+00  0.00000000E+00  0.00000000E+00
  0.00000000E+00  0.00000000E+00  0.00000000E+00
  0.00000000E+00  0.00000000E+00  0.00000000E+00
  0.00000000E+00  0.00000000E+00  0.00000000E+00
  0.00000000E+00  0.00000000E+00  0.00000000E+00
  0.00000000E+00  0.00000000E+00  0.00000000E+00
  0.00000000E+00  0.00000000E+00  0.00000000E+00
  0.00000000E+00  0.00000000E+00  0.00000000E+00
  0.00000000E+00  0.00000000E+00  0.00000000E+00
  0.00000000E+00  0.00000000E+00  0.00000000E+00
  0.00000000E+00  0.00000000E+00  0.00000000E+00
  0.00000000E+00  0.00000000E+00  0.00000000E+00
  0.00000000E+00  0.00000000E+00  0.00000000E+00
  0.00000000E+00  0.00000000E+00  0.00000000E+00
  0.00000000E+00  0.00000000E+00  0.00000000E+00
  0.00000000E+00  0.00000000E+00  0.00000000E+00