 N B Ga 
 1.0
 14.936314146199660   0.000000000000000   0.000000000000000
 -7.468157073099825  12.935227489513863   0.000000000000000
  0.000000000000001   0.000000000000001  13.341276283792837
 N B Ga 
 143 143   1
Cartesian
  1.244945437278051   0.718886197468545   1.666082927141050 
  4.979549344252495   7.188373001505921   1.640441626262715 
  6.224191762592036   0.718853842257812   1.665931927540769 
  9.957862225567261   7.186235290892616   1.666597060913665 
 11.202867080030407   0.718988329011703   1.665713507042804 
 -3.733825900840353   9.342254601721553   8.339847237349838 
  1.245255879266022   9.342623759806356   8.340025285303858 
  2.489603570153673   2.874562578500447   8.342345929363542 
  6.223774287026162   9.342995171527361   8.342982281136209 
  7.469311816930545   2.874317359364982   8.344267502737464 
 12.447449506770688   2.874636393724565   8.339783322617528 
 -1.244231246616607   9.342326569857573   1.666279215203755 
  0.000299968207596   2.874668184395105   1.665757510586832 
  4.979773841904357   2.874713097369057   1.661789775166838 
  3.734502069180696   9.343197599071267   1.661689710107162 
  8.713007741235550   9.342386505785109   1.666597060913665 
  9.958425081579952   2.874444677574267   1.665980269096424 
 -4.978536775027167  11.498291910723358   8.339639259763780 
  0.000573978217706  11.498311377157467   8.339813060850679 
  1.244860311793064   5.030521144359869   8.342345929363542 
  6.225702612275274   5.029972227272459   8.365515586581900 
  4.979168962309006  11.498769260049842   8.339976943748203 
 11.202789863449933   5.030345352388164   8.339002902150277 
 -1.244339262956457   5.030453772778604   1.666082927141050 
 -2.488966247494417  11.498270833337244   1.666279215203755 
  2.489907757651568  11.498592843326866   1.666159932279672 
  3.734099964333053   5.030378617258382   1.663741363785195 
  7.468416105668832  11.498470435316987   1.666954310694337 
  8.713772618457838   5.030191550725938   1.662974931708433 
  0.000563348205576   7.186477209097403   8.339536508942398 
  1.244945437278051   0.718886197468546   8.339874285703564 
  4.979549344252496   7.188373001505922   8.365515586581900 
  6.224191762592037   0.718853842257813   8.340025285303858 
  9.957862225567261   7.186235290892617   8.339360151930935 
 -2.488998256831179   7.186284709808139   1.666317953080847 
 11.202867080030407   0.718988329011704   8.340243705801823 
  3.734567809865694   0.718991765813157   1.666420703902229 
  2.490075800832313   7.186996600010571   1.661789775166838 
  7.468597321319214   7.186491671602361   1.659873391370136 
  8.713641697887489   0.718769446047332   1.666159932279672 
  2.490075800832314   7.186996600010572   8.344167437677790 
 13.692004279060628   0.719004295316060   1.666173890227087 
 -1.244231246616607   9.342326569857573   8.339677997640887 
  0.000299968207596   2.874668184395106   8.340199702257797 
  4.979773841904358   2.874713097369058   8.344167437677790 
  3.734502069180696   9.343197599071267   8.344267502737464 
  8.713007741235550   9.342386505785109   8.339360151930935 
  9.958425081579952   2.874444677574268   8.339976943748203 
 -3.733825900840354   9.342254601721553   1.666109975494790 
  1.245255879266022   9.342623759806356   1.665931927540769 
  2.489603570153673   2.874562578500446   1.663611283481085 
  6.223774287026161   9.342995171527361   1.662974931708433 
  7.469311816930544   2.874317359364981   1.661689710107162 
 12.447449506770688   2.874636393724564   1.666173890227087 
 -1.244339262956457   5.030453772778605   8.339874285703564 
 -2.488966247494416  11.498270833337244   8.339677997640887 
  2.489907757651568  11.498592843326866   8.339797280564955 
  3.734099964333053   5.030378617258383   8.342215849059432 
  7.468416105668833  11.498470435316987   8.339002902150277 
 -4.978536775027168  11.498291910723358   1.666317953080847 
  8.713772618457838   5.030191550725939   8.342982281136209 
  0.000573978217705  11.498311377157467   1.666144151993950 
  1.244860311793064   5.030521144359868   1.663611283481085 
  0.000563348205575   7.186477209097402   1.666420703902229 
  6.225702612275273   5.029972227272458   1.640441626262715 
  4.979168962309005  11.498769260049842   1.665980269096424 
 11.202789863449933   5.030345352388163   1.666954310694337 
 -2.488998256831178   7.186284709808140   8.339639259763780 
  3.734567809865694   0.718991765813158   8.339536508942398 
  7.468597321319215   7.186491671602361   8.346083821474519 
  8.713641697887489   0.718769446047333   8.339797280564955 
 13.692004279060628   0.719004295316061   8.339783322617528 
  0.012649398474204   1.446822159153830   5.002978606422314 
  3.670001401973122   7.989665726673916   5.002978606422314 
  4.995016145091850   1.355848710554046   5.002978606422314 
  8.680373010349701   7.886110691861604   5.002978606422314 
  9.967738649727194   1.431651339279042   5.002978606422314 
 -4.978661171240950  10.060785040218322  11.673616748318732 
 -0.000047289341443  10.060769716801794  11.673616748318732 
  1.244723788315661   3.593136611920535  11.673616748318732 
  4.978822103903616  10.060712347787538  11.673616748318732 
  6.223451011135636   3.593003906539907  11.673616748318732 
 11.202254754942397   3.593205351648431  11.673616748318732 
 -2.517019287891036  10.044778227259640   5.002978606422314 
 -1.230076247210725   3.599286117348980   5.002978606422314 
  3.798704354095184   3.484243000963122   5.002978606422314 
  2.457908578790966  10.097895089312441   5.002978606422314 
  7.450849535121580  10.055242017636676   5.002978606422314 
  8.726787448561391   3.572479695423858   5.002978606422314 
 -6.223398163432470  12.216574289052401  11.673616748318732 
 -1.244684252428381  12.216544173846616  11.673616748318732 
 -0.000042328350106   5.749052162301820  11.673616748318732 
  4.978731079424325   5.748966726598117  11.673616748318732 
  3.734067644245883  12.216576606073462  11.673616748318732 
  9.957651678731871   5.749096578322415  11.673616748318732 
 -2.502358978947512   5.746670674274844   5.002978606422314 
 -3.750190168837913  12.184535217652162   5.002978606422314 
  1.237887054738240  12.212674414958428   5.002978606422314 
  2.427409437806478   5.859395468136088   5.002978606422314 
  6.225583810844612  12.226802568759204   5.002978606422314 
  7.449271998858784   5.722206434010134   5.002978606422314 
 -1.244730030942685   7.904915661517188  11.673616748318732 
  0.000035076165396   1.437220352631338  11.673616748318732 
  3.733972473494793   7.904907218086146  11.673616748318732 
  4.978794898644511   1.437121306646014  11.673616748318732 
  8.713076106925836   7.904991833473191  11.673616748318732 
 -3.763717850365855   7.892719809746441   5.002978606422314 
  9.957513819227879   1.437251632834379  11.673616748318732 
  2.493340416014407   1.415479519560191   5.002978606422314 
  1.182321808540758   7.959629015190696   5.002978606422314 
  6.190826445947604   7.901898070211420   5.002978606422314 
  7.484602270456847   1.391406221261112   5.002978606422314 
  1.244595318164236   7.904944705640283  11.673616748318732 
 12.458213563754128   1.443762959315926   5.002978606422314 
 -2.489357251675647  10.060748911314938  11.673616748318732 
 -1.244698816735838   3.593162697039288  11.673616748318732 
  3.734146977479333   3.593071522723541  11.673616748318732 
  2.489314904950743  10.060748924522608  11.673616748318732 
  7.468303833970038  10.060773523162025  11.673616748318732 
  8.712857834270260   3.593172745514904  11.673616748318732 
 -5.004105829123003  10.041134810051499   5.002978606422314 
 -0.033110217625532  10.069641810931412   5.002978606422314 
  1.276068165653576   3.611233296614179   5.002978606422314 
  4.967866203988537  10.083122272674121   5.002978606422314 
  6.264868496998696   3.495224079200931   5.002978606422314 
 11.212127845991253   3.589854945705639   5.002978606422314 
 -2.489378164310163   5.749061934094226  11.673616748318732 
 -3.734050001957137  12.216544327610135  11.673616748318732 
  1.244637749482855  12.216571930386444  11.673616748318732 
  2.489379013999374   5.749072879104886  11.673616748318732 
  6.223548801979641  12.216577018125610  11.673616748318732 
 -6.231959462501787  12.206528203724345   5.002978606422314 
  7.468303891356498   5.749119766876747  11.673616748318732 
 -1.253532257669425  12.183474790964306   5.002978606422314 
 -0.016874260550381   5.763298877275511   5.002978606422314 
 -1.280520816759229   7.906942421956141   5.002978606422314 
  3.734330063007955  12.228231715812948   5.002978606422314 
  9.944134105001503   5.736746464877105   5.002978606422314 
 -3.733977922910143   7.904930414779479  11.673616748318732 
  2.489418365026860   1.437179757927240  11.673616748318732 
  6.223650022159458   7.904923506163225  11.673616748318732 
  7.468135911175552   1.437177979949979  11.673616748318732 
 12.446951638809661   1.437260883917638  11.673616748318732 
  1.250745183263856   0.713753296743441   5.002978606422314 
  4.902485902657165   7.255398478418570   5.002978606422314 
  6.235437167127429   0.673050713028217   5.002978606422314 
  9.927410109165709   7.172905379896584   5.002978606422314 
 11.213002606685665   0.724840078054495   5.002978606422314 
 -3.734075205784940   9.342110665444705  11.673616748318732 
  1.244869223150157   9.341713240535338  11.673616748318732 
  2.489893272813622   2.874996188983890  11.673616748318732 
  6.223386010004754   9.341442421753907  11.673616748318732 
  7.467516760585450   2.874935448248205  11.673616748318732 
 12.447068569235304   2.874696186643602  11.673616748318732 
 -1.271481305792683   9.338672264271915   5.002978606422314 
  0.033818099268157   2.894019886385653   5.002978606422314 
  5.003840628280204   2.781668892709133   5.002978606422314 
  3.702516340089367   9.393881078762570   5.002978606422314 
  8.686237641482027   9.322679154880380   5.002978606422314 
  9.969693082017976   2.867996873825424   5.002978606422314 
 -4.978677646531756  11.498090569257167  11.673616748318732 
 -0.000082345750096  11.497932448337975  11.673616748318732 
  1.245380680817048   5.030555228981207  11.673616748318732 
  6.222862038729663   5.030588966435332  11.673616748318732 
  4.978825305840393  11.497525558403103  11.673616748318732 
 11.202140405954427   5.030569264024848  11.673616748318732 
 -1.245884612386598   5.038042950500362   5.002978606422314 
 -2.505755998552832  11.476498742628975   5.002978606422314 
  2.482118436274749  11.516238007844844   5.002978606422314 
  7.460230609129917  11.493277889116795   5.002978606422314 
  8.699377993898786   5.013518527463799   5.002978606422314 
  0.000419534081859   7.186111982438553  11.673616748318732 
  1.245039798422403   0.718896593401292  11.673616748318732 
  4.978663169262263   7.185604623072643  11.673616748318732 
  6.223209901714782   0.718974247874427  11.673616748318732 
  9.957330639165853   7.186271692691063  11.673616748318732 
 -2.515981873812863   7.181533118115190   5.002978606422314 
 11.202170457695898   0.718586133919369  11.673616748318732 
  3.730053749974915   0.685372307547575   5.002978606422314 
  2.421530549109832   7.254361150729460   5.002978606422314 
  7.425499364082258   7.161609054390075   5.002978606422314 
  8.725028197925596   0.703201113597791   5.002978606422314 
  2.489787180734168   7.185869818478660  11.673616748318732 
 13.705339936733713   0.730220399684423   5.002978606422314 
 -1.244554641135124   9.342015930072536  11.673616748318732 
  0.000557242580570   2.874816721823607  11.673616748318732 
  4.978653710424141   2.875026535797964  11.673616748318732 
  3.734139821682823   9.341333990233569  11.673616748318732 
  8.712773472917037   9.341907937557973  11.673616748318732 
  9.957176176124838   2.874768913165644  11.673616748318732 
 -3.760915049522950   9.326614674437538   5.002978606422314 
  1.211211908048084   9.375264130424609   5.002978606422314 
  2.534421370464431   2.873322599893763   5.002978606422314 
  6.202137713043724   9.338865572612365   5.002978606422314 
  7.497212133349740   2.821275165567673   5.002978606422314 
 12.463830766921722   2.880577359861463   5.002978606422314 
 -1.244283079242434   5.030530293960384  11.673616748318732 
 -2.489396966698942  11.498146085361284  11.673616748318732 
  2.489333831694349  11.497641964297923  11.673616748318732 
  3.734450013292834   5.030580718119533  11.673616748318732 
  7.468285290086667  11.497796032808832  11.673616748318732 
 -4.996143582632516  11.477299208777705   5.002978606422314 
  8.712233759197600   5.030631667848423  11.673616748318732 
 -0.010195055641821  11.492093872559741   5.002978606422314 
  1.266195358974906   5.069954487274067   5.002978606422314 
 -0.030808986659272   7.199377647690562   5.002978606422314 
  6.245216657184741   4.929720590691495   5.002978606422314 
  4.979219000682924  11.511751536553410   5.002978606422314 
 11.194200238260795   5.025852777542957   5.002978606422314 
 -2.489243059408030   7.186263382239592  11.673616748318732 
  3.734179607239133   0.719049832458021  11.673616748318732 
  7.467754986428881   7.186005349326680  11.673616748318732 
  8.712531249513873   0.718747851102990  11.673616748318732 
 13.691865592479779   0.718644497273657  11.673616748318732 
  0.000909539758381   1.438284876889903   1.669281365045789 
  3.735765650742387   7.903791931930299   1.662377815942842 
  4.979164310710140   1.439763648682881   1.670031414543257 
  8.711439167104661   7.904046745826803   1.668344213213491 
  9.957956171637715   1.437609980601324   1.668382770456906 
 -4.979089045714829  10.060969330922179   8.337255730571094 
  0.001295242810384  10.060628323288460   8.337183111826505 
  1.246536724970662   3.594183311386350   8.335248404289139 
  4.978789990177384  10.060325771473495   8.338793684557761 
  6.223381733616003   3.595114486667698   8.343579396901786 
 11.202707764620026   3.593102732514564   8.337088966209468 
 -2.488837181985594  10.061049173690487   1.668239315757101 
 -1.243339679888483   3.593387742596213   1.669281365045789 
  3.734888241676153   3.594394694496909   1.674237408274547 
  2.490583417775006  10.060306918292156   1.668377691984019 
  7.467523730549146  10.060590500354726   1.668703586927895 
  8.712506992498691   3.593338222369181   1.667163528286866 
 -6.223295319394561  12.217627870759914   8.336747579707890 
 -1.244135436726936  12.217777537552145   8.337183111826505 
  0.002194016386543   5.748604838748005   8.335687896182700 
  4.980340872705800   5.749896141182517   8.330848807599432 
  3.734599158720358  12.216780520614341   8.337574442387723 
  9.957103124620813   5.748512500346031   8.337253625916732 
 -2.488414313767547   5.748624208789938   1.669209633136738 
 -3.733773720687795  12.218190928778313   1.669180125595960 
  1.245413961640994  12.217020076684882   1.668728066474893 
  2.490895546467084   5.749053246843576   1.674237408274547 
  6.223686436041603  12.217020645581544   1.668868246635160 
  7.466531021696539   5.748224101050386   1.659876634698666 
 -1.243165891866477   7.904331627530952   8.336777087248668 
  0.000909539758381   1.438284876889904   8.336675847798825 
  3.735765650742387   7.903791931930300   8.343579396901786 
  4.979164310710141   1.439763648682882   8.335925798301371 
  8.711439167104661   7.904046745826804   8.337612999631149 
 -3.734032259715853   7.904467719263525   1.668701482273534 
  9.957956171637715   1.437609980601325   8.337574442387723 
  2.490149143833861   1.439340151057717   1.670269316661915 
  1.247068359526458   7.903943454855161   1.670031414543257 
  6.221987917970570   7.903835988913244   1.659876634698666 
  7.468387378963497   1.438497547396014   1.668377691984019 
  1.247068359526458   7.903943454855161   8.335925798301371 
 12.447603284985636   1.437637112012741   1.668332255015192 
 -2.488837181985594  10.061049173690487   8.337717897087515 
 -1.243339679888483   3.593387742596214   8.336675847798825 
  3.734888241676154   3.594394694496910   8.331719804570080 
  2.490583417775006  10.060306918292156   8.337579520860610 
  7.467523730549147  10.060590500354726   8.337253625916732 
  8.712506992498691   3.593338222369181   8.338793684557761 
 -4.979089045714830  10.060969330922179   1.668701482273534 
  0.001295242810383  10.060628323288460   1.668774101018110 
  1.246536724970662   3.594183311386349   1.670708808555488 
  4.978789990177383  10.060325771473495   1.667163528286866 
  6.223381733616002   3.595114486667697   1.662377815942842 
 11.202707764620026   3.593102732514563   1.668868246635160 
 -2.488414313767546   5.748624208789939   8.336747579707890 
 -3.733773720687795  12.218190928778313   8.336777087248668 
  1.245413961640994  12.217020076684882   8.337229146369735 
  2.490895546467085   5.749053246843577   8.331719804570080 
  6.223686436041604  12.217020645581544   8.337088966209468 
 -6.223295319394562  12.217627870759914   1.669209633136738 
  7.466531021696540   5.748224101050387   8.346080578145962 
 -1.244135436726936  12.217777537552145   1.668774101018110 
  0.002194016386543   5.748604838748004   1.670269316661915 
 -1.243165891866477   7.904331627530951   1.669180125595960 
  4.980340872705799   5.749896141182516   1.675108405245196 
  3.734599158720358  12.216780520614341   1.668382770456906 
  9.957103124620813   5.748512500346030   1.668703586927895 
 -3.734032259715853   7.904467719263526   8.337255730571094 
  2.490149143833862   1.439340151057718   8.335687896182700 
  6.221987917970571   7.903835988913245   8.346080578145962 
  7.468387378963498   1.438497547396015   8.337579520860610 
 12.447603284985636   1.437637112012742   8.337624957829437 
  4.240109158940578   5.322523161977458   5.002978606422314 
Generated by cif2cell 2.0.0.  :  Failed to get author information, No journal information. Species order: N B Ga 
 1.0
 14.936314146199660   0.000000000000000   0.000000000000000
 -7.468157073099825  12.935227489513863   0.000000000000000
  0.000000000000001   0.000000000000001  13.341276283792837
 N B Ga 
 143 143   1
Cartesian
  1.244945437278051   0.718886197468545   1.666082927141050 
  4.979549344252495   7.188373001505921   1.640441626262715 
  6.224191762592036   0.718853842257812   1.665931927540769 
  9.957862225567261   7.186235290892616   1.666597060913665 
 11.202867080030407   0.718988329011703   1.665713507042804 
 -3.733825900840353   9.342254601721553   8.339847237349838 
  1.245255879266022   9.342623759806356   8.340025285303858 
  2.489603570153673   2.874562578500447   8.342345929363542 
  6.223774287026162   9.342995171527361   8.342982281136209 
  7.469311816930545   2.874317359364982   8.344267502737464 
 12.447449506770688   2.874636393724565   8.339783322617528 
 -1.244231246616607   9.342326569857573   1.666279215203755 
  0.000299968207596   2.874668184395105   1.665757510586832 
  4.979773841904357   2.874713097369057   1.661789775166838 
  3.734502069180696   9.343197599071267   1.661689710107162 
  8.713007741235550   9.342386505785109   1.666597060913665 
  9.958425081579952   2.874444677574267   1.665980269096424 
 -4.978536775027167  11.498291910723358   8.339639259763780 
  0.000573978217706  11.498311377157467   8.339813060850679 
  1.244860311793064   5.030521144359869   8.342345929363542 
  6.225702612275274   5.029972227272459   8.365515586581900 
  4.979168962309006  11.498769260049842   8.339976943748203 
 11.202789863449933   5.030345352388164   8.339002902150277 
 -1.244339262956457   5.030453772778604   1.666082927141050 
 -2.488966247494417  11.498270833337244   1.666279215203755 
  2.489907757651568  11.498592843326866   1.666159932279672 
  3.734099964333053   5.030378617258382   1.663741363785195 
  7.468416105668832  11.498470435316987   1.666954310694337 
  8.713772618457838   5.030191550725938   1.662974931708433 
  0.000563348205576   7.186477209097403   8.339536508942398 
  1.244945437278051   0.718886197468546   8.339874285703564 
  4.979549344252496   7.188373001505922   8.365515586581900 
  6.224191762592037   0.718853842257813   8.340025285303858 
  9.957862225567261   7.186235290892617   8.339360151930935 
 -2.488998256831179   7.186284709808139   1.666317953080847 
 11.202867080030407   0.718988329011704   8.340243705801823 
  3.734567809865694   0.718991765813157   1.666420703902229 
  2.490075800832313   7.186996600010571   1.661789775166838 
  7.468597321319214   7.186491671602361   1.659873391370136 
  8.713641697887489   0.718769446047332   1.666159932279672 
  2.490075800832314   7.186996600010572   8.344167437677790 
 13.692004279060628   0.719004295316060   1.666173890227087 
 -1.244231246616607   9.342326569857573   8.339677997640887 
  0.000299968207596   2.874668184395106   8.340199702257797 
  4.979773841904358   2.874713097369058   8.344167437677790 
  3.734502069180696   9.343197599071267   8.344267502737464 
  8.713007741235550   9.342386505785109   8.339360151930935 
  9.958425081579952   2.874444677574268   8.339976943748203 
 -3.733825900840354   9.342254601721553   1.666109975494790 
  1.245255879266022   9.342623759806356   1.665931927540769 
  2.489603570153673   2.874562578500446   1.663611283481085 
  6.223774287026161   9.342995171527361   1.662974931708433 
  7.469311816930544   2.874317359364981   1.661689710107162 
 12.447449506770688   2.874636393724564   1.666173890227087 
 -1.244339262956457   5.030453772778605   8.339874285703564 
 -2.488966247494416  11.498270833337244   8.339677997640887 
  2.489907757651568  11.498592843326866   8.339797280564955 
  3.734099964333053   5.030378617258383   8.342215849059432 
  7.468416105668833  11.498470435316987   8.339002902150277 
 -4.978536775027168  11.498291910723358   1.666317953080847 
  8.713772618457838   5.030191550725939   8.342982281136209 
  0.000573978217705  11.498311377157467   1.666144151993950 
  1.244860311793064   5.030521144359868   1.663611283481085 
  0.000563348205575   7.186477209097402   1.666420703902229 
  6.225702612275273   5.029972227272458   1.640441626262715 
  4.979168962309005  11.498769260049842   1.665980269096424 
 11.202789863449933   5.030345352388163   1.666954310694337 
 -2.488998256831178   7.186284709808140   8.339639259763780 
  3.734567809865694   0.718991765813158   8.339536508942398 
  7.468597321319215   7.186491671602361   8.346083821474519 
  8.713641697887489   0.718769446047333   8.339797280564955 
 13.692004279060628   0.719004295316061   8.339783322617528 
  0.012649398474204   1.446822159153830   5.002978606422314 
  3.670001401973122   7.989665726673916   5.002978606422314 
  4.995016145091850   1.355848710554046   5.002978606422314 
  8.680373010349701   7.886110691861604   5.002978606422314 
  9.967738649727194   1.431651339279042   5.002978606422314 
 -4.978661171240950  10.060785040218322  11.673616748318732 
 -0.000047289341443  10.060769716801794  11.673616748318732 
  1.244723788315661   3.593136611920535  11.673616748318732 
  4.978822103903616  10.060712347787538  11.673616748318732 
  6.223451011135636   3.593003906539907  11.673616748318732 
 11.202254754942397   3.593205351648431  11.673616748318732 
 -2.517019287891036  10.044778227259640   5.002978606422314 
 -1.230076247210725   3.599286117348980   5.002978606422314 
  3.798704354095184   3.484243000963122   5.002978606422314 
  2.457908578790966  10.097895089312441   5.002978606422314 
  7.450849535121580  10.055242017636676   5.002978606422314 
  8.726787448561391   3.572479695423858   5.002978606422314 
 -6.223398163432470  12.216574289052401  11.673616748318732 
 -1.244684252428381  12.216544173846616  11.673616748318732 
 -0.000042328350106   5.749052162301820  11.673616748318732 
  4.978731079424325   5.748966726598117  11.673616748318732 
  3.734067644245883  12.216576606073462  11.673616748318732 
  9.957651678731871   5.749096578322415  11.673616748318732 
 -2.502358978947512   5.746670674274844   5.002978606422314 
 -3.750190168837913  12.184535217652162   5.002978606422314 
  1.237887054738240  12.212674414958428   5.002978606422314 
  2.427409437806478   5.859395468136088   5.002978606422314 
  6.225583810844612  12.226802568759204   5.002978606422314 
  7.449271998858784   5.722206434010134   5.002978606422314 
 -1.244730030942685   7.904915661517188  11.673616748318732 
  0.000035076165396   1.437220352631338  11.673616748318732 
  3.733972473494793   7.904907218086146  11.673616748318732 
  4.978794898644511   1.437121306646014  11.673616748318732 
  8.713076106925836   7.904991833473191  11.673616748318732 
 -3.763717850365855   7.892719809746441   5.002978606422314 
  9.957513819227879   1.437251632834379  11.673616748318732 
  2.493340416014407   1.415479519560191   5.002978606422314 
  1.182321808540758   7.959629015190696   5.002978606422314 
  6.190826445947604   7.901898070211420   5.002978606422314 
  7.484602270456847   1.391406221261112   5.002978606422314 
  1.244595318164236   7.904944705640283  11.673616748318732 
 12.458213563754128   1.443762959315926   5.002978606422314 
 -2.489357251675647  10.060748911314938  11.673616748318732 
 -1.244698816735838   3.593162697039288  11.673616748318732 
  3.734146977479333   3.593071522723541  11.673616748318732 
  2.489314904950743  10.060748924522608  11.673616748318732 
  7.468303833970038  10.060773523162025  11.673616748318732 
  8.712857834270260   3.593172745514904  11.673616748318732 
 -5.004105829123003  10.041134810051499   5.002978606422314 
 -0.033110217625532  10.069641810931412   5.002978606422314 
  1.276068165653576   3.611233296614179   5.002978606422314 
  4.967866203988537  10.083122272674121   5.002978606422314 
  6.264868496998696   3.495224079200931   5.002978606422314 
 11.212127845991253   3.589854945705639   5.002978606422314 
 -2.489378164310163   5.749061934094226  11.673616748318732 
 -3.734050001957137  12.216544327610135  11.673616748318732 
  1.244637749482855  12.216571930386444  11.673616748318732 
  2.489379013999374   5.749072879104886  11.673616748318732 
  6.223548801979641  12.216577018125610  11.673616748318732 
 -6.231959462501787  12.206528203724345   5.002978606422314 
  7.468303891356498   5.749119766876747  11.673616748318732 
 -1.253532257669425  12.183474790964306   5.002978606422314 
 -0.016874260550381   5.763298877275511   5.002978606422314 
 -1.280520816759229   7.906942421956141   5.002978606422314 
  3.734330063007955  12.228231715812948   5.002978606422314 
  9.944134105001503   5.736746464877105   5.002978606422314 
 -3.733977922910143   7.904930414779479  11.673616748318732 
  2.489418365026860   1.437179757927240  11.673616748318732 
  6.223650022159458   7.904923506163225  11.673616748318732 
  7.468135911175552   1.437177979949979  11.673616748318732 
 12.446951638809661   1.437260883917638  11.673616748318732 
  1.250745183263856   0.713753296743441   5.002978606422314 
  4.902485902657165   7.255398478418570   5.002978606422314 
  6.235437167127429   0.673050713028217   5.002978606422314 
  9.927410109165709   7.172905379896584   5.002978606422314 
 11.213002606685665   0.724840078054495   5.002978606422314 
 -3.734075205784940   9.342110665444705  11.673616748318732 
  1.244869223150157   9.341713240535338  11.673616748318732 
  2.489893272813622   2.874996188983890  11.673616748318732 
  6.223386010004754   9.341442421753907  11.673616748318732 
  7.467516760585450   2.874935448248205  11.673616748318732 
 12.447068569235304   2.874696186643602  11.673616748318732 
 -1.271481305792683   9.338672264271915   5.002978606422314 
  0.033818099268157   2.894019886385653   5.002978606422314 
  5.003840628280204   2.781668892709133   5.002978606422314 
  3.702516340089367   9.393881078762570   5.002978606422314 
  8.686237641482027   9.322679154880380   5.002978606422314 
  9.969693082017976   2.867996873825424   5.002978606422314 
 -4.978677646531756  11.498090569257167  11.673616748318732 
 -0.000082345750096  11.497932448337975  11.673616748318732 
  1.245380680817048   5.030555228981207  11.673616748318732 
  6.222862038729663   5.030588966435332  11.673616748318732 
  4.978825305840393  11.497525558403103  11.673616748318732 
 11.202140405954427   5.030569264024848  11.673616748318732 
 -1.245884612386598   5.038042950500362   5.002978606422314 
 -2.505755998552832  11.476498742628975   5.002978606422314 
  2.482118436274749  11.516238007844844   5.002978606422314 
  7.460230609129917  11.493277889116795   5.002978606422314 
  8.699377993898786   5.013518527463799   5.002978606422314 
  0.000419534081859   7.186111982438553  11.673616748318732 
  1.245039798422403   0.718896593401292  11.673616748318732 
  4.978663169262263   7.185604623072643  11.673616748318732 
  6.223209901714782   0.718974247874427  11.673616748318732 
  9.957330639165853   7.186271692691063  11.673616748318732 
 -2.515981873812863   7.181533118115190   5.002978606422314 
 11.202170457695898   0.718586133919369  11.673616748318732 
  3.730053749974915   0.685372307547575   5.002978606422314 
  2.421530549109832   7.254361150729460   5.002978606422314 
  7.425499364082258   7.161609054390075   5.002978606422314 
  8.725028197925596   0.703201113597791   5.002978606422314 
  2.489787180734168   7.185869818478660  11.673616748318732 
 13.705339936733713   0.730220399684423   5.002978606422314 
 -1.244554641135124   9.342015930072536  11.673616748318732 
  0.000557242580570   2.874816721823607  11.673616748318732 
  4.978653710424141   2.875026535797964  11.673616748318732 
  3.734139821682823   9.341333990233569  11.673616748318732 
  8.712773472917037   9.341907937557973  11.673616748318732 
  9.957176176124838   2.874768913165644  11.673616748318732 
 -3.760915049522950   9.326614674437538   5.002978606422314 
  1.211211908048084   9.375264130424609   5.002978606422314 
  2.534421370464431   2.873322599893763   5.002978606422314 
  6.202137713043724   9.338865572612365   5.002978606422314 
  7.497212133349740   2.821275165567673   5.002978606422314 