 N C B 
 1.0
 14.936314146199660   0.000000000000000   0.000000000000000
 -7.468157073099825  12.935227489513863   0.000000000000000
  0.000000000000001   0.000000000000001  13.341276283792837
 N C B 
 142   3 142
Cartesian
  1.244461140329366   0.718416873408771   1.670159784552167 
  4.979062302316435   7.185782195780771   1.668198244387712 
  6.223234391750170   0.718648803281729   1.671621904552038 
  9.957899901517131   7.186388896596182   1.671750242692615 
 11.201801753947819   0.718592204076840   1.669963130899455 
 -3.733947072592639   9.342104805209130   8.336260818127895 
  1.244681485001788   9.341759086486837   8.335763488583597 
  2.489351533522671   2.874486598409427   8.333031783340795 
  6.223579327834912   9.341548904945276   8.334625030190709 
  7.467845052715251   2.874826246085236   8.332055582658130 
 12.446600867681738   2.874608434141222   8.335951264592218 
 -1.244659928271174   9.342024585610510   1.669479969430221 
 -0.000221969387867   2.874393044872247   1.670368360877574 
  4.978609513673780   2.874600233865409   1.673445295996798 
  3.734122959713592   9.341543091016264   1.670568276454821 
  8.713046679645926   9.341937993425239   1.670510720834686 
  9.957147591610147   2.874815292318566   1.671781819849440 
 -4.978869252880750  11.497849991526783   8.336641416601122 
 -0.000181367086066  11.497853879236777   8.336426726045211 
  1.244771148915492   5.030227296374972   8.333791098643296 
  6.223690676718607   5.030110378017030   8.344245646074539 
  4.978579620041458  11.497615854358459   8.336095364571975 
 11.202282590034423   5.030671175707776   8.335298068110882 
 -1.244721573319461   5.030425174672179   1.670110818503163 
 -2.489439369810002  11.497910185428299   1.669544970999185 
  2.489118330840996  11.497690613973603   1.669629878603778 
  3.733962625388774   5.030133735647087   1.664836700163156 
  7.468016120238174  11.497643976782513   1.669947400215825 
  8.712979029017463   5.030780686417688   1.671220343756321 
  0.000103622897563   7.186115098630951   8.335231202544355 
  1.244461140329366   0.718416873408772   8.335797428292461 
  4.979062302316436   7.185782195780772   8.337758968456901 
  6.223234391750171   0.718648803281730   8.334335308292591 
  9.957899901517131   7.186388896596183   8.334206970152014 
 -2.489237368515913   7.186317013508610   1.669917763387860 
 11.201801753947819   0.718592204076841   8.335994081945172 
  3.733877891579383   0.718505634760392   1.670935079463845 
  2.489602561963769   7.185722578739979   1.671890044918259 
  7.468614225059610   7.186005569389320   1.670652282465421 
  8.712420725278562   0.718667103034238   1.670974537048627 
  2.489602561963770   7.185722578739980   8.334067167926367 
 13.691300052423049   0.718435674162832   1.669720102641971 
 -1.244659928271174   9.342024585610510   8.336477243414393 
 -0.000221969387867   2.874393044872248   8.335588851967067 
  4.978609513673781   2.874600233865410   8.332511916847830 
  3.734122959713593   9.341543091016264   8.335388936389807 
  8.713046679645926   9.341937993425239   8.335446492009941 
  9.957147591610147   2.874815292318567   8.334175392995189 
 -3.733947072592639   9.342104805209130   1.669696394716744 
  1.244681485001788   9.341759086486837   1.670193724261030 
  2.489351533522671   2.874486598409426   1.672925429503832 
  6.223579327834911   9.341548904945276   1.671332182653920 
  7.467845052715250   2.874826246085235   1.673901630186498 
 12.446600867681738   2.874608434141221   1.670005948252424 
 -1.244721573319461   5.030425174672180   8.335846394341464 
 -2.489439369810002  11.497910185428299   8.336412241845457 
  2.489118330840996  11.497690613973603   8.336327334240849 
  3.733962625388774   5.030133735647087   8.341120512681485 
  7.468016120238175  11.497643976782513   8.336009812628790 
 -4.978869252880751  11.497849991526783   1.669315796243521 
  8.712979029017463   5.030780686417689   8.334736869088321 
 -0.000181367086067  11.497853879236777   1.669530486799403 
  1.244771148915492   5.030227296374971   1.672166114201333 
  0.000103622897562   7.186115098630951   1.670726010300273 
  6.223690676718606   5.030110378017029   1.661711566770089 
  4.978579620041457  11.497615854358459   1.669861848272654 
 11.202282590034423   5.030671175707775   1.670659144733760 
 -2.489237368515913   7.186317013508611   8.336039449456754 
  3.733877891579383   0.718505634760393   8.335022133380782 
  7.468614225059611   7.186005569389321   8.335304930379207 
  8.712420725278562   0.718667103034238   8.334982675796015 
 13.691300052423049   0.718435674162833   8.336237110202669 
 -0.022196607726158   1.427104380395384   5.002978606422314 
  3.774690305000542   7.888603052643631   5.002978606422314 
  4.949406489568737   1.441931139296508   5.002978606422314 
  8.757107170579467   7.902944968423022   5.002978606422314 
  9.930698279470821   1.492294153212928   5.002978606422314 
 -4.978876814140866  10.060763324925112  11.673616748318732 
 -0.000041904856459  10.060778384651607  11.673616748318732 
  1.244634424425210   3.593095671420255  11.673616748318732 
  4.978679956546639  10.060742084157981  11.673616748318732 
  6.223374004929179   3.593066231536140  11.673616748318732 
 11.202142118225192   3.593099502514800  11.673616748318732 
 -2.459592943514125  10.078060785396106   5.002978606422314 
 -1.266603931588213   3.595006752970543   5.002978606422314 
  3.673833027267502   3.613651849691814   5.002978606422314 
  2.513982248072996  10.060822379400468   5.002978606422314 
  7.483377979222292  10.039041947239296   5.002978606422314 
  8.645042374399459   3.729967193744718   5.002978606422314 
 -6.223602972583794  12.216652459721415  11.673616748318732 
 -1.244725431298536  12.216661633009254  11.673616748318732 
 -0.000035168309888   5.748943442047891  11.673616748318732 
  4.978644371312671   5.749016050363441  11.673616748318732 
  3.733999419219500  12.216607150972383  11.673616748318732 
  9.957469276955035   5.748974862151497  11.673616748318732 
 -2.476825701781822   5.762011397681499   5.002978606422314 
 -3.733215066128781  12.218051689517740   5.002978606422314 
  1.251648738580782  12.241939597537765   5.002978606422314 
  2.522306268278660   5.687250220878090   5.002978606422314 
  6.219420612614834  12.205476571164585   5.002978606422314 
 -1.244764173600829   7.904820164023420  11.673616748318732 
 -0.000101105349942   1.437214944551300  11.673616748318732 
  3.734003859402338   7.904832642554580  11.673616748318732 
  4.978724570239559   1.437257055265625  11.673616748318732 
  8.712770190271643   7.904856407224620  11.673616748318732 
 -3.687125513575808   7.929305938403557   5.002978606422314 
  9.957449416559070   1.437219303943316  11.673616748318732 
  2.468739893060989   1.432153131883627   5.002978606422314 
  1.290008254346861   7.883962417479127   5.002978606422314 
  6.310018066000422   7.799854049810539   5.002978606422314 
  7.455904258360427   1.486387803481268   5.002978606422314 
  1.244683959375032   7.904841279647256  11.673616748318732 
 12.427631534090123   1.445501340864491   5.002978606422314 
 -2.489460586795129  10.060749913182947  11.673616748318732 
 -1.244773977799497   3.593062609392525  11.673616748318732 
  3.734016327692666   3.593128701451872  11.673616748318732 
  2.489330387200273  10.060743812172564  11.673616748318732 
  7.468046582112827  10.060774575131598  11.673616748318732 
  8.712750650266390   3.593078529649736  11.673616748318732 
 -4.959655175444196  10.063940405077657   5.002978606422314 
  0.030750807144529  10.068359767981045   5.002978606422314 
  1.210622519117255   3.576861436792688   5.002978606422314 
  5.013320683540436  10.024358974920512   5.002978606422314 
  6.155183640254954   3.585086422070717   5.002978606422314 
 11.177467947495600   3.621408072014923   5.002978606422314 
 -2.489476367575261   5.748947097059726  11.673616748318732 
 -3.734166608148481  12.216652689147530  11.673616748318732 
  1.244616874544289  12.216644557820826  11.673616748318732 
  2.489336744884088   5.749005652541724  11.673616748318732 
  6.223384565909910  12.216624553818415  11.673616748318732 
 -6.229261559242215  12.207363374356358   5.002978606422314 
  7.468063796921134   5.748991048110453  11.673616748318732 
 -1.233530274324945  12.240993919831729   5.002978606422314 
  0.015910175927885   5.744230187090554   5.002978606422314 
 -1.205906819793977   7.912280327675954   5.002978606422314 
  3.736213499178766  12.223714179241998   5.002978606422314 
  9.969154794205139   5.791209857616067   5.002978606422314 
 -3.734178084079599   7.904811582554343  11.673616748318732 
  2.489275913521134   1.437267645411771  11.673616748318732 
  6.223338424383316   7.904859455351657  11.673616748318732 
  7.468092831190677   1.437238258033801  11.673616748318732 
 12.446858660051692   1.437208310541699  11.673616748318732 
  6.054834452286567   4.898385057043282   5.002978606422314 
  3.681193070701468   4.975762514739487   5.002978606422314 
  4.920005106527844   5.643547058637903   5.002978606422314 
  1.220222929091853   0.705117792310436   5.002978606422314 
  5.017460056746009   7.165636843518609   5.002978606422314 
  6.218717263610461   0.740915347242796   5.002978606422314 
 10.017498379237882   7.223264301977438   5.002978606422314 
 11.180251880062755   0.739550994639735   5.002978606422314 
 -3.734204828949244   9.342116680043279  11.673616748318732 
  1.244639305365748   9.342360089193715  11.673616748318732 
  2.489085024509806   2.874267739753868  11.673616748318732 
  6.223400312747630   9.342347237801233  11.673616748318732 
  7.468404124117773   2.874320685785678  11.673616748318732 
 12.446730767396723   2.874302664676894  11.673616748318732 
 -1.214405808112657   9.353527269905484   5.002978606422314 
 -0.040588521626758   2.858342880883017   5.002978606422314 
  4.914792240979814   2.853162177974291   5.002978606422314 
  3.759078408952298   9.336719416088219   5.002978606422314 
  8.735076700823157   9.342904490802797   5.002978606422314 
  9.911694888633324   2.948545535506142   5.002978606422314 
 -4.978997428462476  11.497854024102569  11.673616748318732 
  0.000063583962319  11.497935540779096  11.673616748318732 
  1.244374463843440   5.030421987835150  11.673616748318732 
  6.223536628938866   5.030578777219293  11.673616748318732 
  4.978676862292518  11.498054166210819  11.673616748318732 
 11.202172593425814   5.030331560964397  11.673616748318732 
 -1.243841378325595   5.031742596515193   5.002978606422314 
 -2.475188047738953  11.512918486917711   5.002978606422314 
  2.496340856213882  11.507470495183201   5.002978606422314 
  7.464146181391049  11.482773943850315   5.002978606422314 
  8.666506283257540   5.211515810858114   5.002978606422314 
 -0.000209464834256   7.186408249513208  11.673616748318732 
  1.244315455757213   0.718348470749736  11.673616748318732 
  4.978803109274794   7.186585950685595  11.673616748318732 
  6.223599359461800   0.718327381582813  11.673616748318732 
  9.957503195105417   7.186336954832695  11.673616748318732 
 -2.452169122250391   7.199543034249746   5.002978606422314 
 11.202223774973007   0.718480319250371  11.673616748318732 
  3.712303399513848   0.707822925004147   5.002978606422314 
  2.537553059277113   7.173220406598701   5.002978606422314 
  7.596626837031394   7.078258523929632   5.002978606422314 
  8.706101483438154   0.749582743298548   5.002978606422314 
  2.489284273311235   7.186618346935356  11.673616748318732 
 13.668512826357455   0.709572494620072   5.002978606422314 
 -1.244788488881729   9.342175024618294  11.673616748318732 
 -0.000420030401547   2.874251195581442  11.673616748318732 
  4.978831454040781   2.874293395071230  11.673616748318732 
  3.734045673444226   9.342428198113693  11.673616748318732 
  8.712739359179228   9.342222922848503  11.673616748318732 
  9.957661722573540   2.874333097354283  11.673616748318732 
 -3.702885033867133   9.363792123015063   5.002978606422314 
  1.275544845929812   9.338511399484668   5.002978606422314 
  2.427129627490211   2.852688371082776   5.002978606422314 
  6.267317451779777   9.279844938071486   5.002978606422314 
  7.463881600445481   2.919036224399683   5.002978606422314 
 12.418874871396435   2.882688227005395   5.002978606422314 
 -1.244998086048372   5.030296708806566  11.673616748318732 
 -2.489439571081935  11.497824013919045  11.673616748318732 
  2.489414901376806  11.498056150084086  11.673616748318732 
  3.734069984895604   5.030614060282807  11.673616748318732 
  7.467934496536397  11.497953948782476  11.673616748318732 
 -4.977389698344911  11.496404191511560   5.002978606422314 
  8.713001501815404   5.030427779600074  11.673616748318732 
  0.015481971192685  11.512749255303650   5.002978606422314 
  1.228034720645433   5.000030073741504   5.002978606422314 
  0.030492097867881   7.185341037410142   5.002978606422314 
  4.984071388726772  11.479862054168660   5.002978606422314 
 11.206904833071725   5.052838391181566   5.002978606422314 
 -2.489543225313560   7.186270559870780  11.673616748318732 
  3.733912414436610   0.718292275227854  11.673616748318732 
  7.468183506703908   7.186527590464439  11.673616748318732 
  8.713043412087861   0.718430895242351  11.673616748318732 
 13.691357750923848   0.718433471624876  11.673616748318732 
 -0.000897034486588   1.436387616671863   1.666199225349987 
  3.734655376654138   7.905451437524941   1.665180898943084 
  4.978638748103540   1.435642437942065   1.665965605659997 
  8.713587176750348   7.905271962358722   1.667549779622815 
  9.957655511471573   1.437070904031973   1.667524595194114 
 -4.978630356432911  10.060383575871095   8.339170498201664 
 -0.000256838553383  10.060551946438405   8.339324580779152 
  1.243195754261869   3.592663263966804   8.341018707410106 
  4.979042774421109  10.060742237773974   8.338489672191415 
  6.224253772003731   3.593829435139080   8.346202229158246 
 11.202274414470937   3.593493672670958   8.338776794417456 
 -2.489411455921098  10.060354615467510   1.666503568627213 
 -1.245638186708270   3.593167368897141   1.666210373814157 
  3.733588094392911   3.593142324469983   1.659393217663277 
  2.489305825418485  10.060785942089080   1.666899368852865 
  7.468383778421460  10.060511618084350   1.667515051788436 
  8.713766405541600   3.593734067205144   1.667351252798746 
 -6.223819338040633  12.215584558532546   8.339498750453975 
 -1.244722394239185  12.215431715900699   8.339409359350364 
 -0.001249964467581   5.749534962497507   8.339704366837053 
  4.979664121297125   5.749623166067425   8.346064048651879 
  3.733942629935770  12.216310065142594   8.338908619340707 
  9.958316579368370   5.749737784091915   8.338522667636775 
 -2.489636820254691   5.749527069809646   1.666738214562181 
 -3.734312942961548  12.215217458208260   1.666184071235000 
  1.244657174540680  12.215994503443893   1.666830543822940 
  2.489040219634385   5.749367303365278   1.660349836391741 
  6.223160159122493  12.216082230045689   1.666942723742973 
  7.468816318356293   5.749625988000445   1.663967302211243 
 -1.245125978881136   7.905284760642123   8.339317163749781 
 -0.000897034486587   1.436387616671864   8.339757987494627 
  3.734655376654139   7.905451437524942   8.340776313901545 
  4.978638748103541   1.435642437942066   8.339991607184645 
  8.713587176750348   7.905271962358722   8.338407433221812 
 -3.733678867441081   7.905285998618831   1.667022128838862 
  9.957655511471573   1.437070904031973   8.338432617650527 
  2.488602349887051   1.435616701998551   1.665919465425442 
  1.244075359026080   7.905459471143167   1.666662712796511 
  6.224213085027911   7.905164132541911   1.666671753209498 
  7.468527113987685   1.436339015286919   1.667098873139056 
  1.244075359026080   7.905459471143168   8.339294500048103 
 12.446462295536998   1.436964617527954   1.666799380584923 
 -2.489411455921097  10.060354615467510   8.339453644217402 
 -1.245638186708270   3.593167368897142   8.339746839030484 
  3.733588094392911   3.593142324469984   8.346563995181350 
  2.489305825418486  10.060785942089080   8.339057843991762 
  7.468383778421461  10.060511618084350   8.338442161056179 
  8.713766405541600   3.593734067205145   8.338605960045880 
 -4.978630356432912  10.060383575871095   1.666786714642964 
 -0.000256838553383  10.060551946438405   1.666632632065475 
  1.243195754261869   3.592663263966803   1.664938505434522 
  4.979042774421108  10.060742237773974   1.667467540653225 
  6.224253772003730   3.593829435139079   1.659754983686382 
 11.202274414470937   3.593493672670957   1.667180418427158 
 -2.489636820254690   5.749527069809647   8.339218998282433 
 -3.734312942961548  12.215217458208260   8.339773141609628 
  1.244657174540680  12.215994503443893   8.339126669021674 
  2.489040219634385   5.749367303365279   8.345607376452886 
  6.223160159122494  12.216082230045689   8.339014489101642 
 -6.223819338040633  12.215584558532546   1.666458462390639 
  7.468816318356294   5.749625988000446   8.341989910633384 
 -1.244722394239186  12.215431715900699   1.666547853494264 
 -0.001249964467582   5.749534962497506   1.666252846007576 
 -1.245125978881137   7.905284760642122   1.666640049094846 
  4.979664121297124   5.749623166067424   1.659893164192748 
  3.733942629935769  12.216310065142594   1.667048593503920 
  9.958316579368370   5.749737784091915   1.667434545207865 
 -3.733678867441080   7.905285998618832   8.338935084005765 
  2.488602349887052   1.435616701998551   8.340037747419185 
  6.224213085027912   7.905164132541912   8.339285459635116 
  7.468527113987686   1.436339015286919   8.338858339705572 
 12.446462295536998   1.436964617527955   8.339157832259705 
Generated by cif2cell 2.0.0.  :  Failed to get author information, No journal information. Species order: N C B 
 1.0
 14.936314146199660   0.000000000000000   0.000000000000000
 -7.468157073099825  12.935227489513863   0.000000000000000
  0.000000000000001   0.000000000000001  13.341276283792837
 N C B 
 142   3 142
Cartesian
  1.244461140329366   0.718416873408771   1.670159784552167 
  4.979062302316435   7.185782195780771   1.668198244387712 
  6.223234391750170   0.718648803281729   1.671621904552038 
  9.957899901517131   7.186388896596182   1.671750242692615 
 11.201801753947819   0.718592204076840   1.669963130899455 
 -3.733947072592639   9.342104805209130   8.336260818127895 
  1.244681485001788   9.341759086486837   8.335763488583597 
  2.489351533522671   2.874486598409427   8.333031783340795 
  6.223579327834912   9.341548904945276   8.334625030190709 
  7.467845052715251   2.874826246085236   8.332055582658130 
 12.446600867681738   2.874608434141222   8.335951264592218 
 -1.244659928271174   9.342024585610510   1.669479969430221 
 -0.000221969387867   2.874393044872247   1.670368360877574 
  4.978609513673780   2.874600233865409   1.673445295996798 
  3.734122959713592   9.341543091016264   1.670568276454821 
  8.713046679645926   9.341937993425239   1.670510720834686 
  9.957147591610147   2.874815292318566   1.671781819849440 
 -4.978869252880750  11.497849991526783   8.336641416601122 
 -0.000181367086066  11.497853879236777   8.336426726045211 
  1.244771148915492   5.030227296374972   8.333791098643296 
  6.223690676718607   5.030110378017030   8.344245646074539 
  4.978579620041458  11.497615854358459   8.336095364571975 
 11.202282590034423   5.030671175707776   8.335298068110882 
 -1.244721573319461   5.030425174672179   1.670110818503163 
 -2.489439369810002  11.497910185428299   1.669544970999185 
  2.489118330840996  11.497690613973603   1.669629878603778 
  3.733962625388774   5.030133735647087   1.664836700163156 
  7.468016120238174  11.497643976782513   1.669947400215825 
  8.712979029017463   5.030780686417688   1.671220343756321 
  0.000103622897563   7.186115098630951   8.335231202544355 
  1.244461140329366   0.718416873408772   8.335797428292461 
  4.979062302316436   7.185782195780772   8.337758968456901 
  6.223234391750171   0.718648803281730   8.334335308292591 
  9.957899901517131   7.186388896596183   8.334206970152014 
 -2.489237368515913   7.186317013508610   1.669917763387860 
 11.201801753947819   0.718592204076841   8.335994081945172 
  3.733877891579383   0.718505634760392   1.670935079463845 
  2.489602561963769   7.185722578739979   1.671890044918259 
  7.468614225059610   7.186005569389320   1.670652282465421 
  8.712420725278562   0.718667103034238   1.670974537048627 
  2.489602561963770   7.185722578739980   8.334067167926367 
 13.691300052423049   0.718435674162832   1.669720102641971 
 -1.244659928271174   9.342024585610510   8.336477243414393 
 -0.000221969387867   2.874393044872248   8.335588851967067 
  4.978609513673781   2.874600233865410   8.332511916847830 
  3.734122959713593   9.341543091016264   8.335388936389807 
  8.713046679645926   9.341937993425239   8.335446492009941 
  9.957147591610147   2.874815292318567   8.334175392995189 
 -3.733947072592639   9.342104805209130   1.669696394716744 
  1.244681485001788   9.341759086486837   1.670193724261030 
  2.489351533522671   2.874486598409426   1.672925429503832 
  6.223579327834911   9.341548904945276   1.671332182653920 
  7.467845052715250   2.874826246085235   1.673901630186498 
 12.446600867681738   2.874608434141221   1.670005948252424 
 -1.244721573319461   5.030425174672180   8.335846394341464 
 -2.489439369810002  11.497910185428299   8.336412241845457 
  2.489118330840996  11.497690613973603   8.336327334240849 
  3.733962625388774   5.030133735647087   8.341120512681485 
  7.468016120238175  11.497643976782513   8.336009812628790 
 -4.978869252880751  11.497849991526783   1.669315796243521 
  8.712979029017463   5.030780686417689   8.334736869088321 
 -0.000181367086067  11.497853879236777   1.669530486799403 
  1.244771148915492   5.030227296374971   1.672166114201333 
  0.000103622897562   7.186115098630951   1.670726010300273 
  6.223690676718606   5.030110378017029   1.661711566770089 
  4.978579620041457  11.497615854358459   1.669861848272654 
 11.202282590034423   5.030671175707775   1.670659144733760 
 -2.489237368515913   7.186317013508611   8.336039449456754 
  3.733877891579383   0.718505634760393   8.335022133380782 
  7.468614225059611   7.186005569389321   8.335304930379207 
  8.712420725278562   0.718667103034238   8.334982675796015 
 13.691300052423049   0.718435674162833   8.336237110202669 
 -0.022196607726158   1.427104380395384   5.002978606422314 
  3.774690305000542   7.888603052643631   5.002978606422314 
  4.949406489568737   1.441931139296508   5.002978606422314 
  8.757107170579467   7.902944968423022   5.002978606422314 
  9.930698279470821   1.492294153212928   5.002978606422314 
 -4.978876814140866  10.060763324925112  11.673616748318732 
 -0.000041904856459  10.060778384651607  11.673616748318732 
  1.244634424425210   3.593095671420255  11.673616748318732 
  4.978679956546639  10.060742084157981  11.673616748318732 
  6.223374004929179   3.593066231536140  11.673616748318732 
 11.202142118225192   3.593099502514800  11.673616748318732 
 -2.459592943514125  10.078060785396106   5.002978606422314 
 -1.266603931588213   3.595006752970543   5.002978606422314 
  3.673833027267502   3.613651849691814   5.002978606422314 
  2.513982248072996  10.060822379400468   5.002978606422314 
  7.483377979222292  10.039041947239296   5.002978606422314 
  8.645042374399459   3.729967193744718   5.002978606422314 
 -6.223602972583794  12.216652459721415  11.673616748318732 
 -1.244725431298536  12.216661633009254  11.673616748318732 
 -0.000035168309888   5.748943442047891  11.673616748318732 
  4.978644371312671   5.749016050363441  11.673616748318732 
  3.733999419219500  12.216607150972383  11.673616748318732 
  9.957469276955035   5.748974862151497  11.673616748318732 
 -2.476825701781822   5.762011397681499   5.002978606422314 
 -3.733215066128781  12.218051689517740   5.002978606422314 
  1.251648738580782  12.241939597537765   5.002978606422314 
  2.522306268278660   5.687250220878090   5.002978606422314 
  6.219420612614834  12.205476571164585   5.002978606422314 
 -1.244764173600829   7.904820164023420  11.673616748318732 
 -0.000101105349942   1.437214944551300  11.673616748318732 
  3.734003859402338   7.904832642554580  11.673616748318732 
  4.978724570239559   1.437257055265625  11.673616748318732 
  8.712770190271643   7.904856407224620  11.673616748318732 
 -3.687125513575808   7.929305938403557   5.002978606422314 
  9.957449416559070   1.437219303943316  11.673616748318732 
  2.468739893060989   1.432153131883627   5.002978606422314 
  1.290008254346861   7.883962417479127   5.002978606422314 
  6.310018066000422   7.799854049810539   5.002978606422314 
  7.455904258360427   1.486387803481268   5.002978606422314 
  1.244683959375032   7.904841279647256  11.673616748318732 
 12.427631534090123   1.445501340864491   5.002978606422314 
 -2.489460586795129  10.060749913182947  11.673616748318732 
 -1.244773977799497   3.593062609392525  11.673616748318732 
  3.734016327692666   3.593128701451872  11.673616748318732 
  2.489330387200273  10.060743812172564  11.673616748318732 
  7.468046582112827  10.060774575131598  11.673616748318732 
  8.712750650266390   3.593078529649736  11.673616748318732 
 -4.959655175444196  10.063940405077657   5.002978606422314 
  0.030750807144529  10.068359767981045   5.002978606422314 
  1.210622519117255   3.576861436792688   5.002978606422314 
  5.013320683540436  10.024358974920512   5.002978606422314 
  6.155183640254954   3.585086422070717   5.002978606422314 
 11.177467947495600   3.621408072014923   5.002978606422314 
 -2.489476367575261   5.748947097059726  11.673616748318732 
 -3.734166608148481  12.216652689147530  11.673616748318732 
  1.244616874544289  12.216644557820826  11.673616748318732 
  2.489336744884088   5.749005652541724  11.673616748318732 
  6.223384565909910  12.216624553818415  11.673616748318732 
 -6.229261559242215  12.207363374356358   5.002978606422314 
  7.468063796921134   5.748991048110453  11.673616748318732 
 -1.233530274324945  12.240993919831729   5.002978606422314 
  0.015910175927885   5.744230187090554   5.002978606422314 
 -1.205906819793977   7.912280327675954   5.002978606422314 
  3.736213499178766  12.223714179241998   5.002978606422314 
  9.969154794205139   5.791209857616067   5.002978606422314 
 -3.734178084079599   7.904811582554343  11.673616748318732 
  2.489275913521134   1.437267645411771  11.673616748318732 
  6.223338424383316   7.904859455351657  11.673616748318732 
  7.468092831190677   1.437238258033801  11.673616748318732 
 12.446858660051692   1.437208310541699  11.673616748318732 
  6.054834452286567   4.898385057043282   5.002978606422314 
  3.681193070701468   4.975762514739487   5.002978606422314 
  4.920005106527844   5.643547058637903   5.002978606422314 
  1.220222929091853   0.705117792310436   5.002978606422314 
  5.017460056746009   7.165636843518609   5.002978606422314 
  6.218717263610461   0.740915347242796   5.002978606422314 
 10.017498379237882   7.223264301977438   5.002978606422314 
 11.180251880062755   0.739550994639735   5.002978606422314 
 -3.734204828949244   9.342116680043279  11.673616748318732 
  1.244639305365748   9.342360089193715  11.673616748318732 
  2.489085024509806   2.874267739753868  11.673616748318732 
  6.223400312747630   9.342347237801233  11.673616748318732 
  7.468404124117773   2.874320685785678  11.673616748318732 
 12.446730767396723   2.874302664676894  11.673616748318732 
 -1.214405808112657   9.353527269905484   5.002978606422314 
 -0.040588521626758   2.858342880883017   5.002978606422314 
  4.914792240979814   2.853162177974291   5.002978606422314 
  3.759078408952298   9.336719416088219   5.002978606422314 
  8.735076700823157   9.342904490802797   5.002978606422314 
  9.911694888633324   2.948545535506142   5.002978606422314 
 -4.978997428462476  11.497854024102569  11.673616748318732 
  0.000063583962319  11.497935540779096  11.673616748318732 
  1.244374463843440   5.030421987835150  11.673616748318732 
  6.223536628938866   5.030578777219293  11.673616748318732 
  4.978676862292518  11.498054166210819  11.673616748318732 
 11.202172593425814   5.030331560964397  11.673616748318732 
 -1.243841378325595   5.031742596515193   5.002978606422314 
 -2.475188047738953  11.512918486917711   5.002978606422314 
  2.496340856213882  11.507470495183201   5.002978606422314 
  7.464146181391049  11.482773943850315   5.002978606422314 
  8.666506283257540   5.211515810858114   5.002978606422314 
 -0.000209464834256   7.186408249513208  11.673616748318732 
  1.244315455757213   0.718348470749736  11.673616748318732 
  4.978803109274794   7.186585950685595  11.673616748318732 
  6.223599359461800   0.718327381582813  11.673616748318732 
  9.957503195105417   7.186336954832695  11.673616748318732 
 -2.452169122250391   7.199543034249746   5.002978606422314 
 11.202223774973007   0.718480319250371  11.673616748318732 
  3.712303399513848   0.707822925004147   5.002978606422314 
  2.537553059277113   7.173220406598701   5.002978606422314 
  7.596626837031394   7.078258523929632   5.002978606422314 
  8.706101483438154   0.749582743298548   5.002978606422314 
  2.489284273311235   7.186618346935356  11.673616748318732 
 13.668512826357455   0.709572494620072   5.002978606422314 
 -1.244788488881729   9.342175024618294  11.673616748318732 
 -0.000420030401547   2.874251195581442  11.673616748318732 
  4.978831454040781   2.874293395071230  11.673616748318732 
  3.734045673444226   9.342428198113693  11.673616748318732 
  8.712739359179228   9.342222922848503  11.673616748318732 
  9.957661722573540   2.874333097354283  11.673616748318732 
 -3.702885033867133   9.363792123015063   5.002978606422314 
  1.275544845929812   9.338511399484668   5.002978606422314 
  2.427129627490211   2.852688371082776   5.002978606422314 