Species order:X N B                     
   2.51242800000000     
     5.9449720136058266    0.0000000000000000    0.0000000000000000
    -2.9724860068029120    5.1484967885702053   -0.0000000000000001
     0.0000000000000000    0.0000000000000009    5.3101128803662583
   C    N    B 
     3   142   142
Direct
  0.5947195738263887  0.3786856521088812  0.3750000000000000
  0.4387930538858880  0.3846675691458203  0.3750000000000000
  0.5475452939705074  0.4362928339074770  0.3750000000000000
  0.1110876016225503  0.0555395623301691  0.1251874070384931
  0.6111129893254753  0.5555203572264994  0.1250403791138233
  0.4444300251589617  0.0555574924263455  0.1252970007511760
  0.9444742074508097  0.5555672602141661  0.1253066203811009
  0.7777475113808353  0.0555531168399922  0.1251726667956160
  0.1111197605545006  0.7222219178427634  0.6248473265076516
  0.4444301682004023  0.7221951909280199  0.6248100489988353
  0.2777751662348342  0.2222215728899758  0.6246052930830821
  0.7777638438134247  0.7221789421576194  0.6247247154543775
  0.6111030251789625  0.2222478304626462  0.6245321216216789
  0.9444268969488082  0.2222309917990668  0.6248241238148136
  0.2777767286089630  0.7222157162047413  0.1251364512597891
  0.1110923091590229  0.2222143404282934  0.1252030409494447
  0.4444376750202150  0.2222303578499679  0.1254336736905538
  0.6110922205181819  0.7221784926928517  0.1252180256910093
  0.9444510176221744  0.7222090219130989  0.1252137115895006
  0.7777637013249666  0.2222469836459449  0.1253089872578641
  0.1110995335654041  0.8888788388799265  0.6248758543984716
  0.4444274270224290  0.8888791394320424  0.6248597621932479
  0.2777776492882761  0.3888781469404234  0.6246622078254463
  0.6111163817375054  0.3888691081849751  0.6254458320611528
  0.7777508637597781  0.8888607381415727  0.6248349248788719
  0.9444593766209078  0.3889124624816972  0.6247751632455668
  0.1111114655979587  0.3888934445683438  0.1251837367712738
  0.2777714856727720  0.8888834923660415  0.1251413234749786
  0.6110820254942189  0.8888665176777432  0.1251476877539871
  0.4444276966023366  0.3888709139228394  0.1247884133983207
  0.9444220191946827  0.8888629122373957  0.1251714876967578
  0.7778024416760531  0.3889209285647250  0.1252669016221886
  0.2777799843327081  0.5555460933683987  0.6247701513137917
  0.1110876016225503  0.0555395623301691  0.6248125929615069
  0.6111129893254753  0.5555203572264994  0.6249596208861763
  0.4444300251589617  0.0555574924263455  0.6247029992488241
  0.9444742074508097  0.5555672602141661  0.6246933796188990
  0.1111241151912675  0.5555617030573530  0.1251692662580191
  0.7777475113808353  0.0555531168399922  0.6248273332043840
  0.2777597787924226  0.0555464243162987  0.1252455195380159
  0.4444390605436117  0.5555157483364859  0.1253170993055061
  0.7777994196714562  0.5555376258527162  0.1252243223907255
  0.6110840520179762  0.0555589071484703  0.1252484770949950
  0.4444390605436117  0.5555157483364859  0.6246829006944939
  0.9444156666914703  0.0555410157838537  0.1251544505281226
  0.2777767286089630  0.7222157162047413  0.6248635487402103
  0.1110923091590229  0.2222143404282934  0.6247969590505559
  0.4444376750202150  0.2222303578499679  0.6245663263094456
  0.6110922205181819  0.7221784926928517  0.6247819743089912
  0.9444510176221744  0.7222090219130989  0.6247862884104994
  0.7777637013249666  0.2222469836459449  0.6246910127421359
  0.1111197605545006  0.7222219178427634  0.1251526734923487
  0.4444301682004023  0.7221951909280199  0.1251899510011646
  0.2777751662348342  0.2222215728899758  0.1253947069169181
  0.7777638438134247  0.7221789421576194  0.1252752845456225
  0.6111030251789625  0.2222478304626462  0.1254678783783207
  0.9444268969488082  0.2222309917990668  0.1251758761851874
  0.1111114655979587  0.3888934445683438  0.6248162632287260
  0.2777714856727720  0.8888834923660415  0.6248586765250220
  0.6110820254942189  0.8888665176777432  0.6248523122460131
  0.4444276966023366  0.3888709139228394  0.6252115866016797
  0.9444220191946827  0.8888629122373957  0.6248285123032413
  0.1110995335654041  0.8888788388799265  0.1251241456015287
  0.7778024416760531  0.3889209285647250  0.6247330983778121
  0.4444274270224290  0.8888791394320424  0.1251402378067513
  0.2777776492882761  0.3888781469404234  0.1253377921745542
  0.2777799843327081  0.5555460933683987  0.1252298486862082
  0.6111163817375054  0.3888691081849751  0.1245541679388470
  0.7777508637597781  0.8888607381415727  0.1251650751211275
  0.9444593766209078  0.3889124624816972  0.1252248367544338
  0.1111241151912675  0.5555617030573530  0.6248307337419796
  0.2777597787924226  0.0555464243162987  0.6247544804619836
  0.7777994196714562  0.5555376258527162  0.6247756776092742
  0.6110840520179762  0.0555589071484703  0.6247515229050057
  0.9444156666914703  0.0555410157838537  0.6248455494718775
  0.0536773987617815  0.1103269642186259  0.3750000000000000
  0.5576461046176951  0.6098542185700755  0.3750000000000000
  0.3871039243283190  0.1114731952310405  0.3750000000000000
  0.8917778807483320  0.6109629672017489  0.3750000000000000
  0.7225527399130363  0.1153666724781363  0.3750000000000000
  0.0555496886069996  0.7777801614297875  0.8750000000000000
  0.3888878572667935  0.7777813256711203  0.8750000000000000
  0.2222174189064082  0.2777759938379938  0.8750000000000000
  0.7222164719819631  0.7777785193429235  0.8750000000000000
  0.5555474851226245  0.2777737178916193  0.8750000000000000
  0.8888818856695816  0.2777762900132684  0.8750000000000000
  0.2248866842893990  0.7791173980949341  0.3750000000000000
  0.0541615673759559  0.2779237362377190  0.3750000000000000
  0.3856490857826691  0.2793651563237888  0.3750000000000000
  0.5572057922473729  0.7777847268288420  0.3750000000000000
  0.8890695133943455  0.7761009193984096  0.3750000000000000
  0.7229722026517484  0.2883572938140030  0.3750000000000000
  0.0555481496647231  0.9444482108741444  0.8750000000000000
  0.3888889450410893  0.9444489200451155  0.8750000000000000
  0.2222180681943462  0.4444408454902210  0.8750000000000000
  0.5555480592028613  0.4444464587131505  0.8750000000000000
  0.7222170570884737  0.9444447081333477  0.8750000000000000
  0.8888833838943209  0.4444432745239303  0.8750000000000000
  0.0568997894276006  0.4454511064728128  0.3750000000000000
  0.2223360015919287  0.9445563829026192  0.3750000000000000
  0.5570005946037960  0.9464031156361089  0.3750000000000000
  0.3887064544453606  0.4396714495735421  0.3750000000000000
  0.8881880540748899  0.9435842223153117  0.3750000000000000
  0.2222158588461493  0.6111079353209345  0.8750000000000000
  0.0555475281015834  0.1111085943959164  0.8750000000000000
  0.5555494503034009  0.6111089000145336  0.8750000000000000
  0.3888861241894643  0.1111118499021962  0.8750000000000000
  0.8888833640571319  0.6111107372199529  0.8750000000000000
  0.0596439922010489  0.6130008880656765  0.3750000000000000
  0.7222148826670146  0.1111089314129511  0.8750000000000000
  0.2206430486810082  0.1107172744387083  0.3750000000000000
  0.3911149712826346  0.6094954591150703  0.3750000000000000
  0.7239581194835529  0.6029931871034823  0.3750000000000000
  0.5566346941715808  0.1149100628254296  0.3750000000000000
  0.3888875222645555  0.6111095677331870  0.8750000000000000
  0.8879159873405974  0.1117492013214543  0.3750000000000000
  0.2222178812886715  0.7777791245912640  0.8750000000000000
  0.0555479537205329  0.2777734378699787  0.8750000000000000
  0.3888851087258870  0.2777785473324452  0.8750000000000000
  0.5555522904904356  0.7777786529327341  0.8750000000000000
  0.8888831181084402  0.7777810311637355  0.8750000000000000
  0.7222140215445174  0.2777746686374488  0.8750000000000000
  0.0569594023135996  0.7780257759854744  0.3750000000000000
  0.3912425095165258  0.7783674292657868  0.3750000000000000
  0.2193127702350155  0.2765209533185499  0.3750000000000000
  0.7231293430523038  0.7749658042772665  0.3750000000000000
  0.5506736247374850  0.2771568126634820  0.3750000000000000
  0.8883241703974752  0.2799647764177841  0.3750000000000000
  0.0555478264816875  0.4444411280528457  0.8750000000000000
  0.2222182178306327  0.9444482286106790  0.8750000000000000
  0.5555520470026639  0.9444475999919164  0.8750000000000000
  0.3888862171146558  0.4444456548755899  0.8750000000000000
  0.8888843600028037  0.9444460535171885  0.8750000000000000
  0.0548102405335556  0.9437300877972533  0.3750000000000000
  0.7222160179900267  0.4444445258323408  0.8750000000000000
  0.3905790145638281  0.9463300069330112  0.3750000000000000
  0.2231034369064632  0.4440764719249969  0.3750000000000000
  0.2251057606570867  0.6116846676326463  0.3750000000000000
  0.7226400077965293  0.9449941401611477  0.3750000000000000
  0.8912982971652746  0.4477083887632284  0.3750000000000000
  0.0555469711523500  0.6111072719024461  0.8750000000000000
  0.2222156512650509  0.1111126686080246  0.8750000000000000
  0.7222137304591560  0.6111109728653666  0.8750000000000000
  0.5555508973053697  0.1111103967208094  0.8750000000000000
  0.8888827012521396  0.1111080815321414  0.8750000000000000
  0.1089507665923536  0.0545114334388048  0.3750000000000000
  0.6129050532587924  0.5539629549868786  0.3750000000000000
  0.4449882932114757  0.0572788803168267  0.3750000000000000
  0.9498897672838681  0.5584180338407717  0.3750000000000000
  0.7771148713319453  0.0571734045836658  0.3750000000000000
  0.1111029625402484  0.7222228358655931  0.8750000000000000
  0.4444505754732786  0.7222416534047997  0.8750000000000000
  0.2777488634192454  0.2222046533069432  0.8750000000000000
  0.7777827174524802  0.7222406598859389  0.8750000000000000
  0.6111209135297884  0.2222087464728233  0.8750000000000000
  0.9444237746010116  0.2222073532921615  0.8750000000000000
  0.2802468961262957  0.7231049687752353  0.3750000000000000
  0.1077693261089346  0.2209735300906129  0.3750000000000000
  0.4393363803307889  0.2205730189350938  0.3750000000000000
  0.6125765558771942  0.7218055827512249  0.3750000000000000
  0.9459633069645936  0.7222837401488892  0.3750000000000000
  0.7775705795683655  0.2279469408556149  0.3750000000000000
  0.1110911079677777  0.8888791506313652  0.8750000000000000
  0.4444469832770021  0.8888854525442297  0.8750000000000000
  0.2777586164865868  0.3888931981995012  0.8750000000000000
  0.6111241736615795  0.3889053193148253  0.8750000000000000
  0.7777743167826314  0.8888946232705912  0.8750000000000000
  0.9444388847332086  0.3888862074549764  0.8750000000000000
  0.1112213192628926  0.3889952921658510  0.3750000000000000
  0.2793057576994404  0.8900437581210561  0.3750000000000000
  0.6119436130516261  0.8896225833300498  0.3750000000000000
  0.9435881349953102  0.8877133357847014  0.3750000000000000
  0.7816772079953257  0.4028932475352987  0.3750000000000000
  0.2777703543135733  0.5555687563546124  0.8750000000000000
  0.1110752038606959  0.0555342742392493  0.8750000000000000
  0.6111267045611760  0.5555824941240116  0.8750000000000000
  0.4444420358066676  0.0555326438723352  0.8750000000000000
  0.9444456398270530  0.5555632446865280  0.8750000000000000
  0.1141171088082435  0.5565841837792306  0.3750000000000000
  0.7777714412665490  0.0555444672181307  0.8750000000000000
  0.2759024157812118  0.0547205625550805  0.3750000000000000
  0.4471661299171817  0.5545492270942881  0.3750000000000000
  0.7822051134475198  0.5472078886643265  0.3750000000000000
  0.6118559902134040  0.0579489416715872  0.3750000000000000
  0.4444523759676350  0.5555849986218867  0.8750000000000000
  0.9425474423834285  0.0548558187473162  0.3750000000000000
  0.2777739364469539  0.7222273463834843  0.8750000000000000
  0.1110735657302783  0.2222033743056703  0.8750000000000000
  0.4444406735448941  0.2222066366750268  0.8750000000000000
  0.6111212591784129  0.7222469187872632  0.8750000000000000
  0.9444414559333882  0.7222310493125775  0.8750000000000000
  0.7777794840387378  0.2222097059896632  0.8750000000000000
  0.1140376971399371  0.7238985267639061  0.3750000000000000
  0.4463709621392103  0.7219441178792625  0.3750000000000000
  0.2727667606994972  0.2205363897461685  0.3750000000000000
  0.7783070382040089  0.7174087155092045  0.3750000000000000
  0.6125465667649193  0.2256656272002976  0.3750000000000000
  0.9428829333260262  0.2228556265703319  0.3750000000000000
  0.1110879870792582  0.3888835130951076  0.8750000000000000
  0.2777681413124755  0.8888768305961319  0.8750000000000000
  0.6111160106462873  0.8888947766403917  0.8750000000000000
  0.4444534509524928  0.3889080469872643  0.8750000000000000
  0.9444285361114331  0.8888868756350409  0.8750000000000000
  0.1111427049597346  0.8887670665886084  0.3750000000000000
  0.7777903049436282  0.3888936459508007  0.8750000000000000
  0.4460518698014940  0.8900306751185193  0.3750000000000000
  0.2754898825372690  0.3865436520381915  0.3750000000000000
  0.2797846000781355  0.5554862520380913  0.3750000000000000
  0.7774322849868072  0.8874882226443238  0.3750000000000000
  0.9456256945416320  0.3906261714591202  0.3750000000000000
  0.1111018421716523  0.5555581118071902  0.8750000000000000
  0.2777538429018506  0.0555299298609275  0.8750000000000000
  0.7777907609524307  0.5555779823965453  0.8750000000000000
  0.6111166110665008  0.0555406463338006  0.8750000000000000
  0.9444194445220894  0.0555408455094646  0.8750000000000000
  0.0554622602705718  0.1110446351126252  0.1248905419471833
  0.5556169889668652  0.6111567379803416  0.1248142129374814
  0.3888179666860503  0.1109870266375980  0.1248730309021355
  0.8889541249782604  0.6111428630665556  0.1249917732120258
  0.7222229446415128  0.1110974588732173  0.1249898855044207
  0.0555515103073959  0.7777508036891267  0.6250654225887075
  0.3888647144849205  0.7777638201256334  0.6250769719018474
  0.2221043842777530  0.2777425651678141  0.6252039557521865
  0.7222407689109880  0.7777785312187103  0.6250143910385190
  0.5556358873125650  0.2778327198383234  0.6255924884261129
  0.8889059793307077  0.2778067626243199  0.6250359123847482
  0.2222058907556236  0.7777485648105601  0.1249133541032885
  0.0554941435252787  0.2777815366455671  0.1248913775841893
  0.3888569646976837  0.2777796005043453  0.1243803952759100
  0.5555522745518889  0.7777819099235024  0.1249430214467441
  0.8888955293355212  0.7777607024105342  0.1249891701751323
  0.7223073665321518  0.2778253471087736  0.1249768925649393
  0.0554923850036732  0.9443656532855947  0.6250900268503481
  0.3888416069958774  0.9443538372868452  0.6250833265091134
  0.2221596011817802  0.4444865749101405  0.6251054388977937
  0.5556397999352907  0.4444933937751341  0.6255821310582402
  0.7222017713984911  0.9444217409431670  0.6250457933676802
  0.8889696016578472  0.4445022546957931  0.6250168642235916
  0.0555595023705412  0.4444859647401323  0.1249309420708845
  0.2221529429728160  0.9443372733962905  0.1248894060652278
  0.5555296178364156  0.9443973454156078  0.1249378626427095
  0.3888803437747868  0.4444736134734464  0.1244520989651307
  0.8888483727064519  0.9444041274070238  0.1249462711275983
  0.7222909430445360  0.4444936119338815  0.1247232473727162
  0.2222095942284847  0.6111438524796455  0.6250764159558332
  0.0554622602705718  0.1110446351126252  0.6251094580528161
  0.5556169889668652  0.6111567379803416  0.6251857870625190
  0.3888179666860503  0.1109870266375980  0.6251269690978650
  0.8889541249782604  0.6111428630665556  0.6250082267879742
  0.0555987323079803  0.6111439481854779  0.1249522229641538
  0.7222229446415128  0.1110974588732173  0.6250101144955796
  0.2221067397730856  0.1109850370364459  0.1248695724448206
  0.3888706715663235  0.6111573590454316  0.1249252828098013
  0.7222840668280972  0.6111345269304578  0.1249259604370982
  0.5555452134904650  0.1110408778238583  0.1249579753598437
  0.3888706715663235  0.6111573590454316  0.6250747171901981
  0.8888467445404294  0.1110892420479543  0.1249355267913740
  0.2222058907556236  0.7777485648105601  0.6250866458967115
  0.0554941435252787  0.2777815366455671  0.6251086224158116
  0.3888569646976837  0.2777796005043453  0.6256196047240898
  0.5555522745518889  0.7777819099235024  0.6250569785532558
  0.8888955293355212  0.7777607024105342  0.6250108298248672
  0.7223073665321518  0.2778253471087736  0.6250231074350606
  0.0555515103073959  0.7777508036891267  0.1249345774112928
  0.3888647144849205  0.7777638201256334  0.1249230280981529
  0.2221043842777530  0.2777425651678141  0.1247960442478135
  0.7222407689109880  0.7777785312187103  0.1249856089614817
  0.5556358873125650  0.2778327198383234  0.1244075115738871
  0.8889059793307077  0.2778067626243199  0.1249640876152514
  0.0555595023705412  0.4444859647401323  0.6250690579291154
  0.2221529429728160  0.9443372733962905  0.6251105939347719
  0.5555296178364156  0.9443973454156078  0.6250621373572899
  0.3888803437747868  0.4444736134734464  0.6255479010348689
  0.8888483727064519  0.9444041274070238  0.6250537288724014
  0.0554923850036732  0.9443656532855947  0.1249099731496515
  0.7222909430445360  0.4444936119338815  0.6252767526272843
  0.3888416069958774  0.9443538372868452  0.1249166734908870
  0.2221596011817802  0.4444865749101405  0.1248945611022061
  0.2222095942284847  0.6111438524796455  0.1249235840441666
  0.5556397999352907  0.4444933937751341  0.1244178689417599
  0.7222017713984911  0.9444217409431670  0.1249542066323203
  0.8889696016578472  0.4445022546957931  0.1249831357764087
  0.0555987323079803  0.6111439481854779  0.6250477770358461
  0.2221067397730856  0.1109850370364459  0.6251304275551790
  0.7222840668280972  0.6111345269304578  0.6250740395629014
  0.5555452134904650  0.1110408778238583  0.6250420246401562
  0.8888467445404294  0.1110892420479543  0.6250644732086261
 
  0.00000000E+00  0.00000000E+00  0.00000000E+00
  0.00000000E+00  0.00000000E+00  0.00000000E+00
  0.00000000E+00  0.00000000E+00  0.00000000E+00
  0.00000000E+00  0.00000000E+00  0.00000000E+00
  0.00000000E+00  0.00000000E+00  0.00000000E+00
  0.00000000E+00  0.00000000E+00  0.00000000E+00
  0.00000000E+00  0.00000000E+00  0.00000000E+00
  0.00000000E+00  0.00000000E+00  0.00000000E+00
  0.00000000E+00  0.00000000E+00  0.00000000E+00
  0.00000000E+00  0.00000000E+00  0.00000000E+00
  0.00000000E+00  0.00000000E+00  0.00000000E+00
  0.00000000E+00  0.00000000E+00  0.00000000E+00
  0.00000000E+00  0.00000000E+00  0.00000000E+00
  0.00000000E+00  0.00000000E+00  0.00000000E+00
  0.00000000E+00  0.00000000E+00  0.00000000E+00
  0.00000000E+00  0.00000000E+00  0.00000000E+00
  0.00000000E+00  0.00000000E+00  0.00000000E+00
  0.00000000E+00  0.00000000E+00  0.00000000E+00
  0.00000000E+00  0.00000000E+00  0.00000000E+00
  0.00000000E+00  0.00000000E+00  0.00000000E+00
  0.00000000E+00  0.00000000E+00  0.00000000E+00
  0.00000000E+00  0.00000000E+00  0.00000000E+00
  0.00000000E+00  0.00000000E+00  0.00000000E+00
  0.00000000E+00  0.00000000E+00  0.00000000E+00
  0.00000000E+00  0.00000000E+00  0.00000000E+00
  0.00000000E+00  0.00000000E+00  0.00000000E+00
  0.00000000E+00  0.00000000E+00  0.00000000E+00
  0.00000000E+00  0.00000000E+00  0.00000000E+00
  0.00000000E+00  0.00000000E+00  0.00000000E+00
  0.00000000E+00  0.00000000E+00  0.00000000E+00
  0.00000000E+00  0.00000000E+00  0.00000000E+00
  0.00000000E+00  0.00000000E+00  0.00000000E+00
  0.00000000E+00  0.00000000E+00  0.00000000E+00
  0.00000000E+00  0.00000000E+00  0.00000000E+00
  0.00000000E+00  0.00000000E+00  0.00000000E+00
  0.00000000E+00  0.00000000E+00  0.00000000E+00
  0.00000000E+00  0.00000000E+00  0.00000000E+00
  0.00000000E+00  0.00000000E+00  0.00000000E+00
  0.00000000E+00  0.00000000E+00  0.00000000E+00
  0.00000000E+00  0.00000000E+00  0.00000000E+00
  0.00000000E+00  0.00000000E+00  0.00000000E+00
  0.00000000E+00  0.00000000E+00  0.00000000E+00
  0.00000000E+00  0.00000000E+00  0.00000000E+00
  0.00000000E+00  0.00000000E+00  0.00000000E+00
  0.00000000E+00  0.00000000E+00  0.00000000E+00
  0.00000000E+00  0.00000000E+00  0.00000000E+00
  0.00000000E+00  0.00000000E+00  0.00000000E+00
  0.00000000E+00  0.00000000E+00  0.00000000E+00
  0.00000000E+00  0.00000000E+00  0.00000000E+00
  0.00000000E+00  0.00000000E+00  0.00000000E+00
  0.00000000E+00  0.00000000E+00  0.00000000E+00
  0.00000000E+00  0.00000000E+00  0.00000000E+00
  0.00000000E+00  0.00000000E+00  0.00000000E+00
  0.00000000E+00  0.00000000E+00  0.00000000E+00
  0.00000000E+00  0.00000000E+00  0.00000000E+00
  0.00000000E+00  0.00000000E+00  0.00000000E+00
  0.00000000E+00  0.00000000E+00  0.00000000E+00
  0.00000000E+00  0.00000000E+00  0.00000000E+00
  0.00000000E+00  0.00000000E+00  0.00000000E+00
  0.00000000E+00  0.00000000E+00  0.00000000E+00
  0.00000000E+00  0.00000000E+00  0.00000000E+00
  0.00000000E+00  0.00000000E+00  0.00000000E+00
  0.00000000E+00  0.00000000E+00  0.00000000E+00
  0.00000000E+00  0.00000000E+00  0.00000000E+00
  0.00000000E+00  0.00000000E+00  0.00000000E+00
  0.00000000E+00  0.00000000E+00  0.00000000E+00
  0.00000000E+00  0.00000000E+00  0.00000000E+00
  0.00000000E+00  0.00000000E+00  0.00000000E+00
  0.00000000E+00  0.00000000E+00  0.00000000E+00
  0.00000000E+00  0.00000000E+00  0.00000000E+00
  0.00000000E+00  0.00000000E+00  0.00000000E+00
  0.00000000E+00  0.00000000E+00  0.00000000E+00
  0.00000000E+00  0.00000000E+00  0.00000000E+00
  0.00000000E+00  0.00000000E+00  0.00000000E+00
  0.00000000E+00  0.00000000E+00  0.00000000E+00
  0.00000000E+00  0.00000000E+00  0.00000000E+00
  0.00000000E+00  0.00000000E+00  0.00000000E+00
  0.00000000E+00  0.00000000E+00  0.00000000E+00
  0.00000000E+00  0.00000000E+00  0.00000000E+00
  0.00000000E+00  0.00000000E+00  0.00000000E+00
  0.00000000E+00  0.00000000E+00  0.00000000E+00
  0.00000000E+00  0.00000000E+00  0.00000000E+00
  0.00000000E+00  0.00000000E+00  0.00000000E+00
  0.00000000E+00  0.00000000E+00  0.00000000E+00
  0.00000000E+00  0.00000000E+00  0.00000000E+00
  0.00000000E+00  0.00000000E+00  0.00000000E+00
  0.00000000E+00  0.00000000E+00  0.00000000E+00
  0.00000000E+00  0.00000000E+00  0.00000000E+00
  0.00000000E+00  0.00000000E+00  0.00000000E+00
  0.00000000E+00  0.00000000E+00  0.00000000E+00
  0.00000000E+00  0.00000000E+00  0.00000000E+00
  0.00000000E+00  0.00000000E+00  0.00000000E+00
  0.00000000E+00  0.00000000E+00  0.00000000E+00
  0.00000000E+00  0.00000000E+00  0.00000000E+00
  0.00000000E+00  0.00000000E+00  0.00000000E+00
  0.00000000E+00  0.00000000E+00  0.00000000E+00
  0.00000000E+00  0.00000000E+00  0.00000000E+00
  0.00000000E+00  0.00000000E+00  0.00000000E+00
  0.00000000E+00  0.00000000E+00  0.00000000E+00
  0.00000000E+00  0.00000000E+00  0.00000000E+00
  0.00000000E+00  0.00000000E+00  0.00000000E+00
  0.00000000E+00  0.00000000E+00  0.00000000E+00
  0.00000000E+00  0.00000000E+00  0.00000000E+00
  0.00000000E+00  0.00000000E+00  0.00000000E+00
  0.00000000E+00  0.00000000E+00  0.00000000E+00
  0.00000000E+00  0.00000000E+00  0.00000000E+00
  0.00000000E+00  0.00000000E+00  0.00000000E+00
  0.00000000E+00  0.00000000E+00  0.00000000E+00
  0.00000000E+00  0.00000000E+00  0.00000000E+00
  0.00000000E+00  0.00000000E+00  0.00000000E+00
  0.00000000E+00  0.00000000E+00  0.00000000E+00
  0.00000000E+00  0.00000000E+00  0.00000000E+00
  0.00000000E+00  0.00000000E+00  0.00000000E+00
  0.00000000E+00  0.00000000E+00  0.00000000E+00
  0.00000000E+00  0.00000000E+00  0.00000000E+00
  0.00000000E+00  0.00000000E+00  0.00000000E+00
  0.00000000E+00  0.00000000E+00  0.00000000E+00
  0.00000000E+00  0.00000000E+00  0.00000000E+00
  0.00000000E+00  0.00000000E+00  0.00000000E+00
  0.00000000E+00  0.00000000E+00  0.00000000E+00
  0.00000000E+00  0.00000000E+00  0.00000000E+00
  0.00000000E+00  0.00000000E+00  0.00000000E+00
  0.00000000E+00  0.00000000E+00  0.00000000E+00
  0.00000000E+00  0.00000000E+00  0.00000000E+00
  0.00000000E+00  0.00000000E+00  0.00000000E+00
  0.00000000E+00  0.00000000E+00  0.00000000E+00
  0.00000000E+00  0.00000000E+00  0.00000000E+00
  0.00000000E+00  0.00000000E+00  0.00000000E+00
  0.00000000E+00  0.00000000E+00  0.00000000E+00
  0.00000000E+00  0.00000000E+00  0.00000000E+00
  0.00000000E+00  0.00000000E+00  0.00000000E+00
  0.00000000E+00  0.00000000E+00  0.00000000E+00
  0.00000000E+00  0.00000000E+00  0.00000000E+00
  0.00000000E+00  0.00000000E+00  0.00000000E+00
  0.00000000E+00  0.00000000E+00  0.00000000E+00
  0.00000000E+00  0.00000000E+00  0.00000000E+00
  0.00000000E+00  0.00000000E+00  0.00000000E+00
  0.00000000E+00  0.00000000E+00  0.00000000E+00
  0.00000000E+00  0.00000000E+00  0.00000000E+00
  0.00000000E+00  0.00000000E+00  0.00000000E+00
  0.00000000E+00  0.00000000E+00  0.00000000E+00
  0.00000000E+00  0.00000000E+00  0.00000000E+00
  0.00000000E+00  0.00000000E+00  0.00000000E+00
  0.00000000E+00  0.00000000E+00  0.00000000E+00
  0.00000000E+00  0.00000000E+00  0.00000000E+00
  0.00000000E+00  0.00000000E+00  0.00000000E+00
  0.00000000E+00  0.00000000E+00  0.00000000E+00
  0.00000000E+00  0.00000000E+00  0.00000000E+00
  0.00000000E+00  0.00000000E+00  0.00000000E+00
  0.00000000E+00  0.00000000E+00  0.00000000E+00
  0.00000000E+00  0.00000000E+00  0.00000000E+00
  0.00000000E+00  0.00000000E+00  0.00000000E+00
  0.00000000E+00  0.00000000E+00  0.00000000E+00
  0.00000000E+00  0.00000000E+00  0.00000000E+00
  0.00000000E+00  0.00000000E+00  0.00000000E+00
  0.00000000E+00  0.00000000E+00  0.00000000E+00
  0.00000000E+00  0.00000000E+00  0.00000000E+00
  0.00000000E+00  0.00000000E+00  0.00000000E+00
  0.00000000E+00  0.00000000E+00  0.00000000E+00
  0.00000000E+00  0.00000000E+00  0.00000000E+00
  0.00000000E+00  0.00000000E+00  0.00000000E+00
  0.00000000E+00  0.00000000E+00  0.00000000E+00
  0.00000000E+00  0.00000000E+00  0.00000000E+00
  0.00000000E+00  0.00000000E+00  0.00000000E+00
  0.00000000E+00  0.00000000E+00  0.00000000E+00
  0.00000000E+00  0.00000000E+00  0.00000000E+00
  0.00000000E+00  0.00000000E+00  0.00000000E+00
  0.00000000E+00  0.00000000E+00  0.00000000E+00
  0.00000000E+00  0.00000000E+00  0.00000000E+00
  0.00000000E+00  0.00000000E+00  0.00000000E+00
  0.00000000E+00  0.00000000E+00  0.00000000E+00
  0.00000000E+00  0.00000000E+00  0.00000000E+00
  0.00000000E+00  0.00000000E+00  0.00000000E+00
  0.00000000E+00  0.00000000E+00  0.00000000E+00
  0.00000000E+00  0.00000000E+00  0.00000000E+00
  0.00000000E+00  0.00000000E+00  0.00000000E+00
  0.00000000E+00  0.00000000E+00  0.00000000E+00
  0.00000000E+00  0.00000000E+00  0.00000000E+00
  0.00000000E+00  0.00000000E+00  0.00000000E+00
  0.00000000E+00  0.00000000E+00  0.00000000E+00
  0.00000000E+00  0.00000000E+00  0.00000000E+00
  0.00000000E+00  0.00000000E+00  0.00000000E+00
  0.00000000E+00  0.00000000E+00  0.00000000E+00
  0.00000000E+00  0.00000000E+00  0.00000000E+00
  0.00000000E+00  0.00000000E+00  0.00000000E+00
  0.00000000E+00  0.00000000E+00  0.00000000E+00
  0.00000000E+00  0.00000000E+00  0.00000000E+00
  0.00000000E+00  0.00000000E+00  0.00000000E+00
  0.00000000E+00  0.00000000E+00  0.00000000E+00
  0.00000000E+00  0.00000000E+00  0.00000000E+00
  0.00000000E+00  0.00000000E+00  0.00000000E+00
  0.00000000E+00  0.00000000E+00  0.00000000E+00
  0.00000000E+00  0.00000000E+00  0.00000000E+00
  0.00000000E+00  0.00000000E+00  0.00000000E+00
  0.00000000E+00  0.00000000E+00  0.00000000E+00
  0.00000000E+00  0.00000000E+00  0.00000000E+00
  0.00000000E+00  0.00000000E+00  0.00000000E+00
  0.00000000E+00  0.00000000E+00  0.00000000E+00
  0.00000000E+00  0.00000000E+00  0.00000000E+00
  0.00000000E+00  0.00000000E+00  0.00000000E+00
  0.00000000E+00  0.00000000E+00  0.00000000E+00
  0.00000000E+00  0.00000000E+00  0.00000000E+00
  0.00000000E+00  0.00000000E+00  0.00000000E+00
  0.00000000E+00  0.00000000E+00  0.00000000E+00
  0.00000000E+00  0.00000000E+00  0.00000000E+00
  0.00000000E+00  0.00000000E+00  0.00000000E+00
  0.00000000E+00  0.00000000E+00  0.00000000E+00
  0.00000000E+00  0.00000000E+00  0.00000000E+00
  0.00000000E+00  0.00000000E+00  0.00000000E+00
  0.00000000E+00  0.00000000E+00  0.00000000E+00
  0.00000000E+00  0.00000000E+00  0.00000000E+00
  0.00000000E+00  0.00000000E+00  0.00000000E+00
  0.00000000E+00  0.00000000E+00  0.00000000E+00
  0.00000000E+00  0.00000000E+00  0.00000000E+00
  0.00000000E+00  0.00000000E+00  0.00000000E+00
  0.00000000E+00  0.00000000E+00  0.00000000E+00
  0.00000000E+00  0.00000000E+00  0.00000000E+00
  0.00000000E+00  0.00000000E+00  0.00000000E+00
  0.00000000E+00  0.00000000E+00  0.00000000E+00
  0.00000000E+00  0.00000000E+00  0.00000000E+00
  0.00000000E+00  0.00000000E+00  0.00000000E+00
  0.00000000E+00  0.00000000E+00  0.00000000E+00
  0.00000000E+00  0.00000000E+00  0.00000000E+00
  0.00000000E+00  0.00000000E+00  0.00000000E+00
  0.00000000E+00  0.00000000E+00  0.00000000E+00
  0.00000000E+00  0.00000000E+00  0.00000000E+00
  0.00000000E+00  0.00000000E+00  0.00000000E+00
  0.00000000E+00  0.00000000E+00  0.00000000E+00
  0.00000000E+00  0.00000000E+00  0.00000000E+00
  0.00000000E+00  0.00000000E+00  0.00000000E+00
  0.00000000E+00  0.00000000E+00  0.00000000E+00
  0.00000000E+00  0.00000000E+00  0.00000000E+00
  0.00000000E+00  0.00000000E+00  0.00000000E+00
  0.00000000E+00  0.00000000E+00  0.00000000E+00
  0.00000000E+00  0.00000000E+00  0.00000000E+00
  0.00000000E+00  0.00000000E+00  0.00000000E+00
  0.00000000E+00  0.00000000E+00  0.00000000E+00
  0.00000000E+00  0.00000000E+00  0.00000000E+00
  0.00000000E+00  0.00000000E+00  0.00000000E+00
  0.00000000E+00  0.00000000E+00  0.00000000E+00
  0.00000000E+00  0.00000000E+00  0.00000000E+00
  0.00000000E+00  0.00000000E+00  0.00000000E+00
  0.00000000E+00  0.00000000E+00  0.00000000E+00
  0.00000000E+00  0.00000000E+00  0.00000000E+00
  0.00000000E+00  0.00000000E+00  0.00000000E+00
  0.00000000E+00  0.00000000E+00  0.00000000E+00
  0.00000000E+00  0.00000000E+00  0.00000000E+00
  0.00000000E+00  0.00000000E+00  0.00000000E+00