B N Si                                  
   1.0000000000000000     
     8.7639499999999995  -15.1796066749929999    0.0000000000000000
     8.7639499999999995   15.1796066749929999    0.0000000000000000
     0.0000000000000000    0.0000000000000000   15.0000000000000000
   B    N    Si
    48    48     2
Selective dynamics
Direct
  0.9053934505033041  0.9533960039085656  0.1113075268952386   T   T   T
  0.9042671932657669  0.0957348279302366  0.1088434987333926   T   T   T
  0.9038789116101498  0.2385245398673561  0.1092130712361410   T   T   T
  0.9039570214024337  0.3813884912525936  0.1111706542311666   T   T   T
  0.9047616260034559  0.5242879387620434  0.1132408233924451   T   T   T
  0.9059475713931207  0.6674594785440959  0.1145239500701862   T   T   T
  0.9064410693269807  0.8109606222587828  0.1148503281306574   T   T   T
  0.0477428258703156  0.9522591953256807  0.1116960237705413   T   T   T
  0.0466060172874379  0.0946085706926780  0.1113075268952386   T   T   T
  0.0462804502173242  0.2377132205988630  0.1107290382087740   T   T   T
  0.0466009167542367  0.3808814045385844  0.1112459606159248   T   T   T
  0.0474788735885738  0.5238139300491014  0.1109642046808048   T   T   T
  0.0482089979169942  0.6666919896655799  0.1114234854319989   T   T   T
  0.0483061179676199  0.8096125475720228  0.1120750467316114   T   T   T
  0.1903894736239664  0.9516959032283836  0.1120750467316114   T   T   T
  0.1890413989372277  0.0935609518690157  0.1148503281306574   T   T   T
  0.1876386257412932  0.2356468959005653  0.1152104828197054   T   T   T
  0.1885229985079491  0.3798126395694084  0.1157726295444448   T   T   T
  0.1901900137060366  0.5233100302840299  0.1139143188119434   T   T   T
  0.1910211593538662  0.6662734017460465  0.1107732447183878   T   T   T
  0.1908824561373024  0.8091195650586940  0.1102776563088597   T   T   T
  0.3333100315314255  0.9517930232790093  0.1114234854319989   T   T   T
  0.3325425426529165  0.0940544498028757  0.1145239500701862   T   T   T
  0.3300429003214589  0.2345440019935552  0.1152542575975204   T   T   T
  0.3278904510818492  0.3761036737958889  0.1152955237093636   T   T   T
  0.3326376170400067  0.5220793702620909  0.1205372843585764   T   T   T
  0.3341643365933038  0.6658376846036944  0.1155715102785493   T   T   T
  0.3337286194509517  0.8089808618421372  0.1107732447183878   T   T   T
  0.4761880911478968  0.9525231476074225  0.1109642046808048   T   T   T
  0.4757140824349477  0.0952403951925263  0.1132408233924451   T   T   T
  0.4749330731645074  0.2376889703995104  0.1125587752703723   T   T   T
  0.4674582080664322  0.3724723533857457  0.0847806250743659   T   T   T
  0.4779226509349002  0.6673644041569915  0.1205372843585764   T   T   T
  0.4766919909129683  0.8098120074899526  0.1139143188119434   T   T   T
  0.6191206166574190  0.9534011044417667  0.1112459606159248   T   T   T
  0.6186135299434312  0.0960449997935555  0.1111706542311666   T   T   T
  0.6181975963485371  0.2390215409069825  0.1128099938131157   T   T   T
  0.6176946877421798  0.3823073334538307  0.1056777765264698   T   T   T
  0.6275296678102578  0.5325438131305660  0.0847806250743659   T   T   T
  0.6238983474001216  0.6721115701151419  0.1152955237093636   T   T   T
  0.6201893816265951  0.8114790226880473  0.1157726295444448   T   T   T
  0.7622888005971262  0.9537215709786864  0.1107290382087740   T   T   T
  0.7614774813286473  0.0961231095858608  0.1092130712361410   T   T   T
  0.7611127689787409  0.2388892522172625  0.1112808102983749   T   T   T
  0.7609804802890139  0.3818044248474735  0.1128099938131157   T   T   T
  0.7623130507965001  0.5250689480324908  0.1125587752703723   T   T   T
  0.7654580192024412  0.6699591208755535  0.1152542575975204   T   T   T
  0.7643551252954452  0.8123633954547032  0.1152104828197054   T   T   T
  0.9530305922504070  0.9056615953732745  0.1121188483209039   T   T   T
  0.9519280929730343  0.0480733089449643  0.1102162257280597   T   T   T
  0.9513668029425162  0.1907406524898150  0.1084755544791491   T   T   T
  0.9514471130927760  0.3336521231413769  0.1099088753454183   T   T   T
  0.9521420686341600  0.4765295318822638  0.1114600905501462   T   T   T
  0.9530300970003083  0.6194401799221581  0.1133314102425160   T   T   T
  0.9533821099925532  0.7626091526405503  0.1141487637701317   T   T   T
  0.0953959402901816  0.9046054616278312  0.1113733220097615   T   T   T
  0.0943398065447170  0.0469708096675987  0.1121188483209039   T   T   T
  0.0931975106493326  0.1893319678212322  0.1117910923784535   T   T   T
  0.0936794543305837  0.3328613412845485  0.1124222987138523   T   T   T
  0.0949013304225517  0.4760629673614361  0.1116200938762972   T   T   T
  0.0956806897655937  0.6189489529539927  0.1102453211709857   T   T   T
  0.0957601896160796  0.7618130208591083  0.1110476213006990   T   T   T
  0.2381883810588832  0.9042412123019190  0.1110476213006990   T   T   T
  0.2373922492774625  0.0466192919254595  0.1141487637701317   T   T   T
  0.2354263290988783  0.1881268707476593  0.1175679851895026   T   T   T
  0.2340108194552712  0.3302515524614833  0.1166790977554655   T   T   T
  0.2372771026228122  0.4752282576697340  0.1170815419584201   T   T   T
  0.2386845068006522  0.6185515673715614  0.1130426833871851   T   T   T
  0.2385352514543513  0.7614661504636757  0.1097652382679470   T   T   T
  0.3810524489639917  0.9043207121524048  0.1102453211709857   T   T   T
  0.3805612219958618  0.0469713049176832  0.1133314102425160   T   T   T
  0.3795452019736842  0.1890067837431033  0.1148492733297033   T   T   T
  0.3757004539491717  0.3286812365147611  0.1081475339833986   T   T   T
  0.3757717548342967  0.4702197087437199  0.1226587195767266   T   T   T
  0.3820094134708043  0.6179919884471943  0.1204775268791352   T   T   T
  0.3814498345464372  0.7613168951173606  0.1130426833871851   T   T   T
  0.5239384345555536  0.9051000714954469  0.1116200938762972   T   T   T
  0.5234718700347329  0.0478593332838457  0.1114600905501462   T   T   T
  0.5230025631795314  0.1906398335266317  0.1141613688328746   T   T   T
  0.5217014154490016  0.3330056926929430  0.1043764817608945   T   T   T
  0.5297816931732768  0.6242296470837019  0.1226587195767266   T   T   T
  0.5247731442472485  0.7627242992951864  0.1170815419584201   T   T   T
  0.6671400606324625  0.9063219475874078  0.1124222987138523   T   T   T
  0.6663492787756269  0.0485542888252226  0.1099088753454183   T   T   T
  0.6659111316749389  0.1913754022080383  0.1121447923745791   T   T   T
  0.6654210855213023  0.3345803163957015  0.1118762167972491   T   T   T
  0.6669957092240466  0.4782999864680093  0.1043764817608945   T   T   T
  0.6713201654022498  0.6243009479688126  0.1081475339833915   T   T   T
  0.6697498494555205  0.7659905824627344  0.1166790977554655   T   T   T
  0.8106694340967735  0.9068038912686589  0.1117910923784535   T   T   T
  0.8092607494281765  0.0486345989755037  0.1084755544791491   T   T   T
  0.8087556490495302  0.1912457528684754  0.1096236260613566   T   T   T
  0.8086259997099745  0.3340902702420649  0.1121447923745791   T   T   T
  0.8093615683913526  0.4769988387374653  0.1141613688328746   T   T   T
  0.8109946181748882  0.6204561999443214  0.1148492733297033   T   T   T
  0.8118745311703321  0.7645750728191345  0.1175679851895026   T   T   T
  0.4880788434709800  0.5119231777260254  0.1231699397267860   T   T   T
  0.5280079850027946  0.4719934169141879  0.9902492813334476   T   T   T

  0.00000000E+00  0.00000000E+00  0.00000000E+00
  0.00000000E+00  0.00000000E+00  0.00000000E+00
  0.00000000E+00  0.00000000E+00  0.00000000E+00
  0.00000000E+00  0.00000000E+00  0.00000000E+00
  0.00000000E+00  0.00000000E+00  0.00000000E+00
  0.00000000E+00  0.00000000E+00  0.00000000E+00
  0.00000000E+00  0.00000000E+00  0.00000000E+00
  0.00000000E+00  0.00000000E+00  0.00000000E+00
  0.00000000E+00  0.00000000E+00  0.00000000E+00
  0.00000000E+00  0.00000000E+00  0.00000000E+00
  0.00000000E+00  0.00000000E+00  0.00000000E+00
  0.00000000E+00  0.00000000E+00  0.00000000E+00
  0.00000000E+00  0.00000000E+00  0.00000000E+00
  0.00000000E+00  0.00000000E+00  0.00000000E+00
  0.00000000E+00  0.00000000E+00  0.00000000E+00
  0.00000000E+00  0.00000000E+00  0.00000000E+00
  0.00000000E+00  0.00000000E+00  0.00000000E+00
  0.00000000E+00  0.00000000E+00  0.00000000E+00
  0.00000000E+00  0.00000000E+00  0.00000000E+00
  0.00000000E+00  0.00000000E+00  0.00000000E+00
  0.00000000E+00  0.00000000E+00  0.00000000E+00
  0.00000000E+00  0.00000000E+00  0.00000000E+00
  0.00000000E+00  0.00000000E+00  0.00000000E+00
  0.00000000E+00  0.00000000E+00  0.00000000E+00
  0.00000000E+00  0.00000000E+00  0.00000000E+00
  0.00000000E+00  0.00000000E+00  0.00000000E+00
  0.00000000E+00  0.00000000E+00  0.00000000E+00
  0.00000000E+00  0.00000000E+00  0.00000000E+00
  0.00000000E+00  0.00000000E+00  0.00000000E+00
  0.00000000E+00  0.00000000E+00  0.00000000E+00
  0.00000000E+00  0.00000000E+00  0.00000000E+00
  0.00000000E+00  0.00000000E+00  0.00000000E+00
  0.00000000E+00  0.00000000E+00  0.00000000E+00
  0.00000000E+00  0.00000000E+00  0.00000000E+00
  0.00000000E+00  0.00000000E+00  0.00000000E+00
  0.00000000E+00  0.00000000E+00  0.00000000E+00
  0.00000000E+00  0.00000000E+00  0.00000000E+00
  0.00000000E+00  0.00000000E+00  0.00000000E+00
  0.00000000E+00  0.00000000E+00  0.00000000E+00
  0.00000000E+00  0.00000000E+00  0.00000000E+00
  0.00000000E+00  0.00000000E+00  0.00000000E+00
  0.00000000E+00  0.00000000E+00  0.00000000E+00
  0.00000000E+00  0.00000000E+00  0.00000000E+00
  0.00000000E+00  0.00000000E+00  0.00000000E+00
  0.00000000E+00  0.00000000E+00  0.00000000E+00
  0.00000000E+00  0.00000000E+00  0.00000000E+00
  0.00000000E+00  0.00000000E+00  0.00000000E+00
  0.00000000E+00  0.00000000E+00  0.00000000E+00
  0.00000000E+00  0.00000000E+00  0.00000000E+00
  0.00000000E+00  0.00000000E+00  0.00000000E+00
  0.00000000E+00  0.00000000E+00  0.00000000E+00
  0.00000000E+00  0.00000000E+00  0.00000000E+00
  0.00000000E+00  0.00000000E+00  0.00000000E+00
  0.00000000E+00  0.00000000E+00  0.00000000E+00
  0.00000000E+00  0.00000000E+00  0.00000000E+00
  0.00000000E+00  0.00000000E+00  0.00000000E+00
  0.00000000E+00  0.00000000E+00  0.00000000E+00
  0.00000000E+00  0.00000000E+00  0.00000000E+00
  0.00000000E+00  0.00000000E+00  0.00000000E+00
  0.00000000E+00  0.00000000E+00  0.00000000E+00
  0.00000000E+00  0.00000000E+00  0.00000000E+00
  0.00000000E+00  0.00000000E+00  0.00000000E+00
  0.00000000E+00  0.00000000E+00  0.00000000E+00
  0.00000000E+00  0.00000000E+00  0.00000000E+00
  0.00000000E+00  0.00000000E+00  0.00000000E+00
  0.00000000E+00  0.00000000E+00  0.00000000E+00
  0.00000000E+00  0.00000000E+00  0.00000000E+00
  0.00000000E+00  0.00000000E+00  0.00000000E+00
  0.00000000E+00  0.00000000E+00  0.00000000E+00
  0.00000000E+00  0.00000000E+00  0.00000000E+00
  0.00000000E+00  0.00000000E+00  0.00000000E+00
  0.00000000E+00  0.00000000E+00  0.00000000E+00
  0.00000000E+00  0.00000000E+00  0.00000000E+00
  0.00000000E+00  0.00000000E+00  0.00000000E+00
  0.00000000E+00  0.00000000E+00  0.00000000E+00
  0.00000000E+00  0.00000000E+00  0.00000000E+00
  0.00000000E+00  0.00000000E+00  0.00000000E+00
  0.00000000E+00  0.00000000E+00  0.00000000E+00
  0.00000000E+00  0.00000000E+00  0.00000000E+00
  0.00000000E+00  0.00000000E+00  0.00000000E+00
  0.00000000E+00  0.00000000E+00  0.00000000E+00
  0.00000000E+00  0.00000000E+00  0.00000000E+00
  0.00000000E+00  0.00000000E+00  0.00000000E+00
  0.00000000E+00  0.00000000E+00  0.00000000E+00
  0.00000000E+00  0.00000000E+00  0.00000000E+00
  0.00000000E+00  0.00000000E+00  0.00000000E+00
  0.00000000E+00  0.00000000E+00  0.00000000E+00
  0.00000000E+00  0.00000000E+00  0.00000000E+00
  0.00000000E+00  0.00000000E+00  0.00000000E+00
  0.00000000E+00  0.00000000E+00  0.00000000E+00
  0.00000000E+00  0.00000000E+00  0.00000000E+00
  0.00000000E+00  0.00000000E+00  0.00000000E+00
  0.00000000E+00  0.00000000E+00  0.00000000E+00
  0.00000000E+00  0.00000000E+00  0.00000000E+00
  0.00000000E+00  0.00000000E+00  0.00000000E+00
  0.00000000E+00  0.00000000E+00  0.00000000E+00
  0.00000000E+00  0.00000000E+00  0.00000000E+00
  0.00000000E+00  0.00000000E+00  0.00000000E+00
