B N O                                   
   1.0000000000000000     
     8.7639499999999995  -15.1796066749929999    0.0000000000000000
     8.7639499999999995   15.1796066749929999    0.0000000000000000
     0.0000000000000000    0.0000000000000000   15.0000000000000000
   B    N    O 
    48    49     1
Selective dynamics
Direct
  0.9052392468138543  0.9526904541921956  0.1110180413174119   T   T   T
  0.9047727443283908  0.0952292768676039  0.1110258220488737   T   T   T
  0.9046392525384465  0.2380339731147269  0.1110578643158646   T   T   T
  0.9047727443283908  0.3809721611517866  0.1110258220488737   T   T   T
  0.9052392468138543  0.5239791978696619  0.1110180413174119   T   T   T
  0.9055643086204432  0.6670244024965563  0.1110692295472987   T   T   T
  0.9055643086204432  0.8099703113718895  0.1110692295472987   T   T   T
  0.0477297499477514  0.9522722712482525  0.1110270384614309   T   T   T
  0.0473115670038085  0.0947627743821431  0.1110180413174119   T   T   T
  0.0470957673373812  0.2376717068342291  0.1110251117378766   T   T   T
  0.0470957673373812  0.3808544657501520  0.1110251117378766   T   T   T
  0.0473115670038085  0.5239791978696619  0.1110180413174119   T   T   T
  0.0477297499477514  0.6668895955034894  0.1110270384614309   T   T   T
  0.0478933279114165  0.8096627223577093  0.1109992976560792   T   T   T
  0.1903392988382965  0.9521086932845862  0.1109992976560792   T   T   T
  0.1900317098241148  0.0944377125755529  0.1110692295472987   T   T   T
  0.1892091453581396  0.2365663012118107  0.1110448256536798   T   T   T
  0.1891204477542434  0.3802754265006212  0.1110231929200515   T   T   T
  0.1892091453581396  0.5240732493943308  0.1110448256536798   T   T   T
  0.1900317098241148  0.6670244024965563  0.1110692295472987   T   T   T
  0.1903392988382965  0.8096627223577093  0.1109992976560792   T   T   T
  0.3331124256935075  0.9522722712482525  0.1110270384614309   T   T   T
  0.3329776187004422  0.0944377125755529  0.1110692295472987   T   T   T
  0.3324072088937183  0.2362428018374361  0.1110597481949332   T   T   T
  0.3306948689796229  0.3768140164080358  0.1109984764106536   T   T   T
  0.3306948689796229  0.5253112578185866  0.1109984764106536   T   T   T
  0.3324072088937183  0.6675948123032809  0.1110597481949332   T   T   T
  0.3329776187004422  0.8099703113718895  0.1110692295472987   T   T   T
  0.4760228233273378  0.9526904541921956  0.1110180413174119   T   T   T
  0.4760228233273378  0.0947627743821431  0.1110180413174119   T   T   T
  0.4759287718026678  0.2365663012118107  0.1110448256536798   T   T   T
  0.4746907633784105  0.3768140164080358  0.1109984764106536   T   T   T
  0.4746907633784105  0.6693071522173742  0.1109984764106536   T   T   T
  0.4759287718026678  0.8107928758378626  0.1110448256536798   T   T   T
  0.6191475554458500  0.9529062538586217  0.1110251117378766   T   T   T
  0.6190298600442182  0.0952292768676039  0.1110258220488737   T   T   T
  0.6191475554458500  0.2376717068342291  0.1110251117378766   T   T   T
  0.6197265946953830  0.3802754265006212  0.1110231929200515   T   T   T
  0.6231880047879652  0.5253112578185866  0.1109984764106536   T   T   T
  0.6231880047879652  0.6693071522173742  0.1109984764106536   T   T   T
  0.6197265946953830  0.8108815734417609  0.1110231929200515   T   T   T
  0.7623303143617743  0.9529062538586217  0.1110251117378766   T   T   T
  0.7619680480812754  0.0953627686575464  0.1110578643158646   T   T   T
  0.7619680480812754  0.2380339731147269  0.1110578643158646   T   T   T
  0.7623303143617743  0.3808544657501520  0.1110251117378766   T   T   T
  0.7634357199841938  0.5240732493943308  0.1110448256536798   T   T   T
  0.7637592193585653  0.6675948123032809  0.1110597481949332   T   T   T
  0.7634357199841938  0.8107928758378626  0.1110448256536798   T   T   T
  0.9525748412826894  0.9048697014364551  0.1110266020661812   T   T   T
  0.9523887779865001  0.0476126239315045  0.1109892849472008   T   T   T
  0.9522543555709787  0.1903938074727528  0.1110262253508770   T   T   T
  0.9522543555709787  0.3332875302162249  0.1110262253508770   T   T   T
  0.9523887779865001  0.4762031361729949  0.1109892849472008   T   T   T
  0.9525748412826894  0.6191338335212307  0.1110266020661812   T   T   T
  0.9526300370187409  0.7620293653468700  0.1110376976263131   T   T   T
  0.0952686489531134  0.9047327529648852  0.1109799815369165   T   T   T
  0.0951317004815442  0.0474265606353166  0.1110266020661812   T   T   T
  0.0947376718233748  0.1900044158384421  0.1110103193080198   T   T   T
  0.0947638218819341  0.3330962577779680  0.1110059336202713   T   T   T
  0.0947376718233748  0.4761619496589340  0.1110103193080198   T   T   T
  0.0951317004815442  0.6191338335212307  0.1110266020661812   T   T   T
  0.0952686489531134  0.7619663012192397  0.1109799815369165   T   T   T
  0.2380351006987649  0.9047327529648852  0.1109799815369165   T   T   T
  0.2379720365711284  0.0473713648992618  0.1110376976263131   T   T   T
  0.2377403389885714  0.1899477796734591  0.1110488989021071   T   T   T
  0.2366288584073570  0.3321471548793350  0.1110126558159507   T   T   T
  0.2366288584073570  0.4759103972020153  0.1110126558159507   T   T   T
  0.2377403389885714  0.6192212529901142  0.1110488989021071   T   T   T
  0.2379720365711284  0.7620293653468700  0.1110376976263131   T   T   T
  0.3808675683967682  0.9048697014364551  0.1110266020661812   T   T   T
  0.3808675683967682  0.0474265606353166  0.1110266020661812   T   T   T
  0.3807801489278828  0.1899477796734591  0.1110488989021071   T   T   T
  0.3804937134505791  0.3324147186581528  0.1110068504459318   T   T   T
  0.3709630149281400  0.4711958543010707  0.1109343408460955   T   T   T
  0.3804937134505791  0.6195076884674190  0.1110068504459318   T   T   T
  0.3807801489278828  0.7622610629294347  0.1110488989021071   T   T   T
  0.5238394522580641  0.9052637300946250  0.1110103193080198   T   T   T
  0.5237982657440012  0.0476126239315045  0.1109892849472008   T   T   T
  0.5238394522580641  0.1900044158384421  0.1110103193080198   T   T   T
  0.5240910047149828  0.3321471548793350  0.1110126558159507   T   T   T
  0.5288055476159262  0.4711958543010707  0.1109343408460955   T   T   T
  0.5288055476159262  0.6290383869898580  0.1109343408460955   T   T   T
  0.5240910047149828  0.7633725435106510  0.1110126558159507   T   T   T
  0.6669051441390307  0.9052375800360636  0.1110059336202713   T   T   T
  0.6667138717007720  0.0477470463470255  0.1110262253508770   T   T   T
  0.6667138717007720  0.1903938074727528  0.1110262253508770   T   T   T
  0.6669051441390307  0.3330962577779680  0.1110059336202713   T   T   T
  0.6678542470376616  0.4759103972020153  0.1110126558159507   T   T   T
  0.6675866832588414  0.6195076884674190  0.1110068504459318   T   T   T
  0.6678542470376616  0.7633725435106510  0.1110126558159507   T   T   T
  0.8099969860795602  0.9052637300946250  0.1110103193080198   T   T   T
  0.8096075944452479  0.0477470463470255  0.1110262253508770   T   T   T
  0.8095252739059973  0.1904761280120013  0.1110459115276094   T   T   T
  0.8096075944452479  0.3332875302162249  0.1110262253508770   T   T   T
  0.8099969860795602  0.4761619496589340  0.1110103193080198   T   T   T
  0.8100536222445383  0.6192212529901142  0.1110488989021071   T   T   T
  0.8100536222445383  0.7622610629294347  0.1110488989021071   T   T   T
  0.4761912123819982  0.5238108088150000  0.1107906139521974   T   T   T

  0.00000000E+00  0.00000000E+00  0.00000000E+00
  0.00000000E+00  0.00000000E+00  0.00000000E+00
  0.00000000E+00  0.00000000E+00  0.00000000E+00
  0.00000000E+00  0.00000000E+00  0.00000000E+00
  0.00000000E+00  0.00000000E+00  0.00000000E+00
  0.00000000E+00  0.00000000E+00  0.00000000E+00
  0.00000000E+00  0.00000000E+00  0.00000000E+00
  0.00000000E+00  0.00000000E+00  0.00000000E+00
  0.00000000E+00  0.00000000E+00  0.00000000E+00
  0.00000000E+00  0.00000000E+00  0.00000000E+00
  0.00000000E+00  0.00000000E+00  0.00000000E+00
  0.00000000E+00  0.00000000E+00  0.00000000E+00
  0.00000000E+00  0.00000000E+00  0.00000000E+00
  0.00000000E+00  0.00000000E+00  0.00000000E+00
  0.00000000E+00  0.00000000E+00  0.00000000E+00
  0.00000000E+00  0.00000000E+00  0.00000000E+00
  0.00000000E+00  0.00000000E+00  0.00000000E+00
  0.00000000E+00  0.00000000E+00  0.00000000E+00
  0.00000000E+00  0.00000000E+00  0.00000000E+00
  0.00000000E+00  0.00000000E+00  0.00000000E+00
  0.00000000E+00  0.00000000E+00  0.00000000E+00
  0.00000000E+00  0.00000000E+00  0.00000000E+00
  0.00000000E+00  0.00000000E+00  0.00000000E+00
  0.00000000E+00  0.00000000E+00  0.00000000E+00
  0.00000000E+00  0.00000000E+00  0.00000000E+00
  0.00000000E+00  0.00000000E+00  0.00000000E+00
  0.00000000E+00  0.00000000E+00  0.00000000E+00
  0.00000000E+00  0.00000000E+00  0.00000000E+00
  0.00000000E+00  0.00000000E+00  0.00000000E+00
  0.00000000E+00  0.00000000E+00  0.00000000E+00
  0.00000000E+00  0.00000000E+00  0.00000000E+00
  0.00000000E+00  0.00000000E+00  0.00000000E+00
  0.00000000E+00  0.00000000E+00  0.00000000E+00
  0.00000000E+00  0.00000000E+00  0.00000000E+00
  0.00000000E+00  0.00000000E+00  0.00000000E+00
  0.00000000E+00  0.00000000E+00  0.00000000E+00
  0.00000000E+00  0.00000000E+00  0.00000000E+00
  0.00000000E+00  0.00000000E+00  0.00000000E+00
  0.00000000E+00  0.00000000E+00  0.00000000E+00
  0.00000000E+00  0.00000000E+00  0.00000000E+00
  0.00000000E+00  0.00000000E+00  0.00000000E+00
  0.00000000E+00  0.00000000E+00  0.00000000E+00
  0.00000000E+00  0.00000000E+00  0.00000000E+00
  0.00000000E+00  0.00000000E+00  0.00000000E+00
  0.00000000E+00  0.00000000E+00  0.00000000E+00
  0.00000000E+00  0.00000000E+00  0.00000000E+00
  0.00000000E+00  0.00000000E+00  0.00000000E+00
  0.00000000E+00  0.00000000E+00  0.00000000E+00
  0.00000000E+00  0.00000000E+00  0.00000000E+00
  0.00000000E+00  0.00000000E+00  0.00000000E+00
  0.00000000E+00  0.00000000E+00  0.00000000E+00
  0.00000000E+00  0.00000000E+00  0.00000000E+00
  0.00000000E+00  0.00000000E+00  0.00000000E+00
  0.00000000E+00  0.00000000E+00  0.00000000E+00
  0.00000000E+00  0.00000000E+00  0.00000000E+00
  0.00000000E+00  0.00000000E+00  0.00000000E+00
  0.00000000E+00  0.00000000E+00  0.00000000E+00
  0.00000000E+00  0.00000000E+00  0.00000000E+00
  0.00000000E+00  0.00000000E+00  0.00000000E+00
  0.00000000E+00  0.00000000E+00  0.00000000E+00
  0.00000000E+00  0.00000000E+00  0.00000000E+00
  0.00000000E+00  0.00000000E+00  0.00000000E+00
  0.00000000E+00  0.00000000E+00  0.00000000E+00
  0.00000000E+00  0.00000000E+00  0.00000000E+00
  0.00000000E+00  0.00000000E+00  0.00000000E+00
  0.00000000E+00  0.00000000E+00  0.00000000E+00
  0.00000000E+00  0.00000000E+00  0.00000000E+00
  0.00000000E+00  0.00000000E+00  0.00000000E+00
  0.00000000E+00  0.00000000E+00  0.00000000E+00
  0.00000000E+00  0.00000000E+00  0.00000000E+00
  0.00000000E+00  0.00000000E+00  0.00000000E+00
  0.00000000E+00  0.00000000E+00  0.00000000E+00
  0.00000000E+00  0.00000000E+00  0.00000000E+00
  0.00000000E+00  0.00000000E+00  0.00000000E+00
  0.00000000E+00  0.00000000E+00  0.00000000E+00
  0.00000000E+00  0.00000000E+00  0.00000000E+00
  0.00000000E+00  0.00000000E+00  0.00000000E+00
  0.00000000E+00  0.00000000E+00  0.00000000E+00
  0.00000000E+00  0.00000000E+00  0.00000000E+00
  0.00000000E+00  0.00000000E+00  0.00000000E+00
  0.00000000E+00  0.00000000E+00  0.00000000E+00
  0.00000000E+00  0.00000000E+00  0.00000000E+00
  0.00000000E+00  0.00000000E+00  0.00000000E+00
  0.00000000E+00  0.00000000E+00  0.00000000E+00
  0.00000000E+00  0.00000000E+00  0.00000000E+00
  0.00000000E+00  0.00000000E+00  0.00000000E+00
  0.00000000E+00  0.00000000E+00  0.00000000E+00
  0.00000000E+00  0.00000000E+00  0.00000000E+00
  0.00000000E+00  0.00000000E+00  0.00000000E+00
  0.00000000E+00  0.00000000E+00  0.00000000E+00
  0.00000000E+00  0.00000000E+00  0.00000000E+00
  0.00000000E+00  0.00000000E+00  0.00000000E+00
  0.00000000E+00  0.00000000E+00  0.00000000E+00
  0.00000000E+00  0.00000000E+00  0.00000000E+00
  0.00000000E+00  0.00000000E+00  0.00000000E+00
  0.00000000E+00  0.00000000E+00  0.00000000E+00
  0.00000000E+00  0.00000000E+00  0.00000000E+00
  0.00000000E+00  0.00000000E+00  0.00000000E+00
