Species order: X N B                    
   2.51242800000000     
     5.9449720136058266    0.0000000000000000    0.0000000000000000
    -2.9724860068029120    5.1484967885702053   -0.0000000000000001
     0.0000000000000000    0.0000000000000009    5.3101128803662583
   Si   N    B 
     1   144   143
Direct
  0.4444444444444429  0.3888888888888857  0.3750000000000000
  0.1111016114892058  0.0555535736726145  0.1250481475222942
  0.6111108051331035  0.5555709597687460  0.1250283750161332
  0.4444519621834081  0.0555535736726145  0.1250481475222942
  0.9444385824695586  0.5555552436520584  0.1250054085614967
  0.7777777777777786  0.0555555555555571  0.1249599127620484
  0.1111111111111143  0.7222222222222214  0.6250072125324695
  0.4444519621834081  0.7222317218441291  0.6249518524777061
  0.2777623735645896  0.2222225282002315  0.6249716249838667
  0.7777797596607214  0.7222317218441291  0.6249518524777061
  0.6111210393518145  0.2222122939815230  0.6249464375763247
  0.9444314368540797  0.2222191626047589  0.6250347245066808
  0.2777780896812780  0.7222166721508386  0.1250054085614967
  0.1110912546297168  0.2222122939815230  0.1250535624236753
  0.4444601546356414  0.2222225282002315  0.1250283750161332
  0.6111210393518145  0.7222420787036186  0.1250535624236753
  0.9444385824695586  0.7222166721508386  0.1250054085614967
  0.7777877257506786  0.2222191626047589  0.1249652754933182
  0.1111166611824969  0.8888947508637700  0.6249945914385022
  0.4444534248360377  0.8888933790846836  0.6250171702043186
  0.2777623735645896  0.3888731786976872  0.6249716249838667
  0.6111108051331035  0.3888731786976872  0.6249716249838667
  0.7777877257506786  0.8889018964792489  0.6250347245066808
  0.9444399542486450  0.3888799084972909  0.6250171702043186
  0.1111016114892058  0.3888813711499205  0.1250481475222942
  0.2777780896812780  0.8888947508637700  0.1250054085614967
  0.6111141707285769  0.8889018964792489  0.1249652754933182
  0.4444444444444429  0.3888888888888857  0.1233450812442640
  0.9444399542486450  0.8888933790846836  0.1249828297956813
  0.7777797596607214  0.3888813711499205  0.1250481475222942
  0.2777806889247642  0.5555526444085719  0.6249393598094795
  0.1111016114892058  0.0555535736726145  0.6249518524777061
  0.6111108051331035  0.5555709597687460  0.6249716249838667
  0.4444519621834081  0.0555535736726145  0.6249518524777061
  0.9444385824695586  0.5555552436520584  0.6249945914385022
  0.1111166611824969  0.5555552436520584  0.1250054085614967
  0.7777777777777786  0.0555555555555571  0.6250400872379520
  0.2777806889247642  0.0555613778495292  0.1250606401905201
  0.4444601546356414  0.5555709597687460  0.1250283750161332
  0.7777719554838074  0.5555526444085719  0.1250606401905201
  0.6111141707285769  0.0555456075826566  0.1249652754933182
  0.4444601546356414  0.5555709597687460  0.6249716249838667
  0.9444314368540797  0.0555456075826566  0.1249652754933182
  0.2777780896812780  0.7222166721508386  0.6249945914385022
  0.1110912546297168  0.2222122939815230  0.6249464375763247
  0.4444601546356414  0.2222225282002315  0.6249716249838667
  0.6111210393518145  0.7222420787036186  0.6249464375763247
  0.9444385824695586  0.7222166721508386  0.6249945914385022
  0.7777877257506786  0.2222191626047589  0.6250347245066808
  0.1111111111111143  0.7222222222222214  0.1249927874675310
  0.4444519621834081  0.7222317218441291  0.1250481475222942
  0.2777623735645896  0.2222225282002315  0.1250283750161332
  0.7777797596607214  0.7222317218441291  0.1250481475222942
  0.6111210393518145  0.2222122939815230  0.1250535624236753
  0.9444314368540797  0.2222191626047589  0.1249652754933182
  0.1111016114892058  0.3888813711499205  0.6249518524777061
  0.2777780896812780  0.8888947508637700  0.6249945914385022
  0.6111141707285769  0.8889018964792489  0.6250347245066808
  0.4444444444444429  0.3888888888888857  0.6266549187557353
  0.9444399542486450  0.8888933790846836  0.6250171702043186
  0.1111166611824969  0.8888947508637700  0.1250054085614967
  0.7777797596607214  0.3888813711499205  0.6249518524777061
  0.4444534248360377  0.8888933790846836  0.1249828297956813
  0.2777623735645896  0.3888731786976872  0.1250283750161332
  0.2777806889247642  0.5555526444085719  0.1250606401905201
  0.6111108051331035  0.3888731786976872  0.1250283750161332
  0.7777877257506786  0.8889018964792489  0.1249652754933182
  0.9444399542486450  0.3888799084972909  0.1249828297956813
  0.1111166611824969  0.5555552436520584  0.6249945914385022
  0.2777806889247642  0.0555613778495292  0.6249393598094795
  0.7777719554838074  0.5555526444085719  0.6249393598094795
  0.6111141707285769  0.0555456075826566  0.6250347245066808
  0.9444314368540797  0.0555456075826566  0.6250347245066808
  0.0548158679137949  0.1105920321417797  0.3750000000000000
  0.5559515280997805  0.6119030561995620  0.3750000000000000
  0.3878852711632186  0.1065090805331666  0.3750000000000000
  0.8905776877163060  0.6119555105248252  0.3750000000000000
  0.7223529157522320  0.1109804175811032  0.3750000000000000
  0.0555569464576405  0.7777763868756959  0.8750000000000000
  0.3888905484994676  0.7777759112553022  0.8750000000000000
  0.2222259147700944  0.2777796240517147  0.8750000000000000
  0.7222230381161823  0.7777714424626474  0.8750000000000000
  0.5555537092816216  0.2777796240517147  0.8750000000000000
  0.8888907894400374  0.2777815788800854  0.8750000000000000
  0.2218847913033800  0.7776090623183569  0.3750000000000000
  0.0548158679137949  0.2775571691053513  0.3750000000000000
  0.3812700921578024  0.2625401843156125  0.3750000000000000
  0.5557761642279845  0.7785174654195409  0.3750000000000000
  0.8901560257305956  0.7787752340878720  0.3750000000000000
  0.7227413011915560  0.2775571691053513  0.3750000000000000
  0.0555574220780334  0.9444479705775009  0.8750000000000000
  0.3888905484994676  0.9444479705775009  0.8750000000000000
  0.2222185667280979  0.4444444942309080  0.8750000000000000
  0.5555631855567230  0.4444482594450258  0.8750000000000000
  0.7222225430287355  0.9444450860574699  0.8750000000000000
  0.8888853627558277  0.4444427848338610  0.8750000000000000
  0.0545580992454628  0.4447141249760585  0.3750000000000000
  0.2213778228085109  0.9427556456170226  0.3750000000000000
  0.5557520214444851  0.9445426773889081  0.3750000000000000
  0.3812700921578024  0.4520632411755262  0.3750000000000000
  0.8887906559444205  0.9445426773889081  0.3750000000000000
  0.7268242528001694  0.4454480621701100  0.3750000000000000
  0.2222211447828162  0.6111121885505186  0.8750000000000000
  0.0555618908706879  0.1111102952171526  0.8750000000000000
  0.5555537092816216  0.6111074185632420  0.8750000000000000
  0.3888888391024207  0.1111074058305266  0.8750000000000000
  0.8888910437676958  0.6111121885505186  0.8750000000000000
  0.0557242710149779  0.6114485420299547  0.3750000000000000
  0.7222225430287355  0.1111107903046004  0.8750000000000000
  0.2186238093699417  0.1065090805331666  0.3750000000000000
  0.3878852711632186  0.6147095239633942  0.3750000000000000
  0.7268242528001694  0.6147095239633942  0.3750000000000000
  0.5557761642279845  0.1105920321417797  0.3750000000000000
  0.3888888391024207  0.6111147666052377  0.8750000000000000
  0.8886275018288639  0.1109804175811032  0.3750000000000000
  0.2222194404180546  0.7777763868756959  0.8750000000000000
  0.0555618908706879  0.2777849289868708  0.8750000000000000
  0.3888850738883028  0.2777701477766131  0.8750000000000000
  0.5555484043464671  0.7777714424626474  0.8750000000000000
  0.8888853627558277  0.7777759112553022  0.8750000000000000
  0.7222230381161823  0.2777849289868708  0.8750000000000000
  0.0557242710149779  0.7776090623183569  0.3750000000000000
  0.3886192083572701  0.7787752340878720  0.3750000000000000
  0.2214302771337743  0.2773818052335547  0.3750000000000000
  0.7227413011915560  0.7785174654195409  0.3750000000000000
  0.5559515280997805  0.2773818052335547  0.3750000000000000
  0.8887906559444205  0.2775813118888509  0.3750000000000000
  0.0555574220780334  0.4444427848338610  0.8750000000000000
  0.2222211447828162  0.9444422895656328  0.8750000000000000
  0.5555517544532491  0.9444425438932912  0.8750000000000000
  0.3888850738883028  0.4444482594450258  0.8750000000000000
  0.8888907894400374  0.9444425438932912  0.8750000000000000
  0.0545580992454628  0.9431773076027330  0.3750000000000000
  0.7222259275028101  0.4444444942309080  0.8750000000000000
  0.3886192083572701  0.9431773076027330  0.3750000000000000
  0.2186238093699417  0.4454480621701100  0.3750000000000000
  0.2213778228085109  0.6119555105248252  0.3750000000000000
  0.5707931490177239  0.4520632411755262  0.3750000000000000
  0.7223529157522320  0.9447058315044647  0.3750000000000000
  0.8901560257305956  0.4447141249760585  0.3750000000000000
  0.0555569464576405  0.6111138929152811  0.8750000000000000
  0.2222185667280979  0.1111074058305266  0.8750000000000000
  0.7222259275028101  0.6111147666052377  0.8750000000000000
  0.5555484043464671  0.1111102952171526  0.8750000000000000
  0.8888882472758587  0.1111107903046004  0.8750000000000000
  0.1087165801170139  0.0532664836900003  0.3750000000000000
  0.6173511924186963  0.5609330471199235  0.3750000000000000
  0.4445499035729861  0.0532664836900003  0.3750000000000000
  0.9451912208042343  0.5558225452185337  0.3750000000000000
  0.7777777777777786  0.0555555555555571  0.3750000000000000
  0.1111111111111143  0.7222222222222214  0.8750000000000000
  0.4444412638779542  0.7222183517183467  0.8750000000000000
  0.2777603294011858  0.2222504883362619  0.8750000000000000
  0.7777770878403948  0.7222183517183467  0.8750000000000000
  0.6110813304378715  0.2222520028954637  0.8750000000000000
  0.9444239733063515  0.2222500824258147  0.8750000000000000
  0.2775107881147992  0.7227020089190326  0.3750000000000000
  0.1103253795134400  0.2218293564233842  0.3750000000000000
  0.4435818547012275  0.2159821409146406  0.3750000000000000
  0.6115039769099523  0.7230079538198952  0.3750000000000000
  0.9451912208042343  0.7227020089190326  0.3750000000000000
  0.7779235183522502  0.2219250976923720  0.3750000000000000
  0.1111606990620502  0.8889119133362666  0.8750000000000000
  0.4444902322878039  0.8889117828105676  0.8750000000000000
  0.2777603294011858  0.3888431743982526  0.8750000000000000
  0.6110828449970720  0.3888431743982526  0.8750000000000000
  0.7778261091194623  0.8889093600269771  0.8750000000000000
  0.9444215505227610  0.3888431010455247  0.8750000000000000
  0.1087165801170138  0.3887834297603425  0.3750000000000000
  0.2775107881147992  0.8881421125290943  0.3750000000000000
  0.6114082356409637  0.8893317539932074  0.3750000000000000
  0.9443001463374429  0.8890331869958857  0.3750000000000000
  0.7800668496433362  0.3887834297603425  0.3750000000000000
  0.2777533748768490  0.5555799584564861  0.8750000000000000
  0.1111149816149875  0.0555562454929419  0.8750000000000000
  0.6110828449970720  0.5555730039321504  0.8750000000000000
  0.4444412638779542  0.0555562454929419  0.8750000000000000
  0.9444214199970620  0.5555821190591150  0.8750000000000000
  0.1106313244143020  0.5558225452185337  0.3750000000000000
  0.7777777777777786  0.0555555555555571  0.8750000000000000
  0.2764474426529181  0.0528948853058362  0.3750000000000000
  0.4435818547012275  0.5609330471199235  0.3750000000000000
  0.7804384480274995  0.5568858906804163  0.3750000000000000
  0.6114082356409637  0.0554098149810853  0.3750000000000000
  0.4444901589350760  0.5555730039321504  0.8750000000000000
  0.9440015793401212  0.0554098149810853  0.3750000000000000
  0.2777512142742223  0.7221726342712849  0.8750000000000000
  0.1111706724575986  0.2222520028954637  0.8750000000000000
  0.4444901589350760  0.2222504883362619  0.8750000000000000
  0.6110813304378715  0.7221626608757378  0.8750000000000000
  0.9444214199970620  0.7221726342712849  0.8750000000000000
  0.7778261091194623  0.2222500824258147  0.8750000000000000
  0.1111111111111143  0.7222222222222214  0.3750000000000000
  0.4445499035729861  0.7246167532163214  0.3750000000000000
  0.2724002862134127  0.2159821409146406  0.3750000000000000
  0.7800668496433362  0.7246167532163214  0.3750000000000000
  0.6115039769099523  0.2218293564233842  0.3750000000000000
  0.9440015793401212  0.2219250976923720  0.3750000000000000
  0.1111149816149875  0.3888920694553744  0.8750000000000000
  0.2777512142742223  0.8889119133362666  0.8750000000000000
  0.6110832509075198  0.8889093600269771  0.8750000000000000
  0.4444444444444429  0.3888888888888857  0.8750000000000000
  0.9444215505227610  0.8889117828105676  0.8750000000000000
  0.1106313244143020  0.8881421125290943  0.3750000000000000
  0.7777770878403948  0.3888920694553744  0.8750000000000000
  0.4447330406584428  0.8890331869958857  0.3750000000000000
  0.2724002862134127  0.3897514786321011  0.3750000000000000
  0.2764474426529181  0.5568858906804163  0.3750000000000000
  0.6173511924186963  0.3897514786321011  0.3750000000000000
  0.7779235183522502  0.8893317539932074  0.3750000000000000
  0.9443001463374429  0.3886002926748858  0.3750000000000000
  0.1111606990620502  0.5555821190591150  0.8750000000000000
  0.2777533748768490  0.0555067497536995  0.8750000000000000
  0.7778265835796376  0.5555799584564861  0.8750000000000000
  0.6110832509075198  0.0555072242138733  0.8750000000000000
  0.9444239733063515  0.0555072242138733  0.8750000000000000
  0.0555691060645333  0.1110887153440330  0.1250419359402094
  0.5555593976003935  0.6111187952007885  0.1251109561302365
  0.3889269347237547  0.1110997897560669  0.1251047937320630
  0.8888715464417524  0.6111024398875465  0.1250360000827870
  0.7222500103838906  0.1110833229494450  0.1249971409245988
  0.0555792326187386  0.7777541007145967  0.6249818642305159
  0.3889234699524238  0.7777516751448563  0.6249726213321667
  0.2222145381325462  0.2777739357329415  0.6248890438697624
  0.7222446179893024  0.7777642272688027  0.6249580640597906
  0.5555593976003935  0.2777739357329415  0.6248890438697624
  0.8888841326709971  0.2777682653419998  0.6250018133390070
  0.2221748680958585  0.7777541007145967  0.1250181357694841
  0.0555691060645333  0.2778137240538358  0.1250419359402094
  0.3889033888276984  0.2778067776554024  0.1244991013987036
  0.5555196092794983  0.7777642272688027  0.1250419359402094
  0.8888282051924264  0.7777516751448563  0.1250273786678330
  0.7222446179893024  0.2778137240538358  0.1250419359402094
  0.0555816581884782  0.9445051281409022  0.6249726213321667
  0.3889234699524238  0.9445051281409022  0.6249726213321667
  0.2221728550323047  0.4444063986095739  0.6248952062679370
  0.5555265556779317  0.4444299445056302  0.6255008986012961
  0.7222500103838906  0.9445000207677825  0.6250028590754010
  0.8888282051924264  0.4444098633809048  0.6249726213321667
  0.0555816581884782  0.4444098633809048  0.1250273786678330
  0.2222308934457889  0.9444617868915762  0.1250360000827870
  0.5555650679913344  0.9444492006623315  0.1249981866609943
  0.3889033888276984  0.4444299445056302  0.1244991013987036
  0.8888841326709971  0.9444492006623315  0.1249981866609943
  0.7222335435772693  0.4444063986095739  0.1251047937320630
  0.2222308934457889  0.6111024398875465  0.6249639999172113
  0.0555691060645333  0.1110887153440330  0.6249580640597906
  0.5555593976003935  0.6111187952007885  0.6248890438697624
  0.3889269347237547  0.1110997897560669  0.6248952062679370
  0.8888715464417524  0.6111024398875465  0.6249639999172113
  0.0555792326187386  0.6111584652374767  0.1250181357694841
  0.7222500103838906  0.1110833229494450  0.6250028590754010
  0.2221728550323047  0.1110997897560669  0.1251047937320630
  0.3889269347237547  0.6111604783010307  0.1251047937320630
  0.7222335435772693  0.6111604783010307  0.1251047937320630
  0.5555196092794983  0.1110887153440330  0.1250419359402094
  0.3889269347237547  0.6111604783010307  0.6248952062679370
  0.8888333125655461  0.1110833229494450  0.1249971409245988
  0.2221748680958585  0.7777541007145967  0.6249818642305159
  0.0555691060645333  0.2778137240538358  0.6249580640597906
  0.3889033888276984  0.2778067776554024  0.6255008986012961
  0.5555196092794983  0.7777642272688027  0.6249580640597906
  0.8888282051924264  0.7777516751448563  0.6249726213321667
  0.7222446179893024  0.2778137240538358  0.6249580640597906
  0.0555792326187386  0.7777541007145967  0.1250181357694841
  0.3889234699524238  0.7777516751448563  0.1250273786678330
  0.2222145381325462  0.2777739357329415  0.1251109561302365
  0.7222446179893024  0.7777642272688027  0.1250419359402094
  0.5555593976003935  0.2777739357329415  0.1251109561302365
  0.8888841326709971  0.2777682653419998  0.1249981866609943
  0.0555816581884782  0.4444098633809048  0.6249726213321667
  0.2222308934457889  0.9444617868915762  0.6249639999172113
  0.5555650679913344  0.9444492006623315  0.6250018133390070
  0.3889033888276984  0.4444299445056302  0.6255008986012961
  0.8888841326709971  0.9444492006623315  0.6250018133390070
  0.0555816581884782  0.9445051281409022  0.1250273786678330
  0.7222335435772693  0.4444063986095739  0.6248952062679370
  0.3889234699524238  0.9445051281409022  0.1250273786678330
  0.2221728550323047  0.4444063986095739  0.1251047937320630
  0.2222308934457889  0.6111024398875465  0.1250360000827870
  0.5555265556779317  0.4444299445056302  0.1244991013987036
  0.7222500103838906  0.9445000207677825  0.1249971409245988
  0.8888282051924264  0.4444098633809048  0.1250273786678330
  0.0555792326187386  0.6111584652374767  0.6249818642305159
  0.2221728550323047  0.1110997897560669  0.6248952062679370
  0.7222335435772693  0.6111604783010307  0.6248952062679370
  0.5555196092794983  0.1110887153440330  0.6249580640597906
  0.8888333125655461  0.1110833229494450  0.6250028590754010
 
  0.00000000E+00  0.00000000E+00  0.00000000E+00
  0.00000000E+00  0.00000000E+00  0.00000000E+00
  0.00000000E+00  0.00000000E+00  0.00000000E+00
  0.00000000E+00  0.00000000E+00  0.00000000E+00
  0.00000000E+00  0.00000000E+00  0.00000000E+00
  0.00000000E+00  0.00000000E+00  0.00000000E+00
  0.00000000E+00  0.00000000E+00  0.00000000E+00
  0.00000000E+00  0.00000000E+00  0.00000000E+00
  0.00000000E+00  0.00000000E+00  0.00000000E+00
  0.00000000E+00  0.00000000E+00  0.00000000E+00
  0.00000000E+00  0.00000000E+00  0.00000000E+00
  0.00000000E+00  0.00000000E+00  0.00000000E+00
  0.00000000E+00  0.00000000E+00  0.00000000E+00
  0.00000000E+00  0.00000000E+00  0.00000000E+00
  0.00000000E+00  0.00000000E+00  0.00000000E+00
  0.00000000E+00  0.00000000E+00  0.00000000E+00
  0.00000000E+00  0.00000000E+00  0.00000000E+00
  0.00000000E+00  0.00000000E+00  0.00000000E+00
  0.00000000E+00  0.00000000E+00  0.00000000E+00
  0.00000000E+00  0.00000000E+00  0.00000000E+00
  0.00000000E+00  0.00000000E+00  0.00000000E+00
  0.00000000E+00  0.00000000E+00  0.00000000E+00
  0.00000000E+00  0.00000000E+00  0.00000000E+00
  0.00000000E+00  0.00000000E+00  0.00000000E+00
  0.00000000E+00  0.00000000E+00  0.00000000E+00
  0.00000000E+00  0.00000000E+00  0.00000000E+00
  0.00000000E+00  0.00000000E+00  0.00000000E+00
  0.00000000E+00  0.00000000E+00  0.00000000E+00
  0.00000000E+00  0.00000000E+00  0.00000000E+00
  0.00000000E+00  0.00000000E+00  0.00000000E+00
  0.00000000E+00  0.00000000E+00  0.00000000E+00
  0.00000000E+00  0.00000000E+00  0.00000000E+00
  0.00000000E+00  0.00000000E+00  0.00000000E+00
  0.00000000E+00  0.00000000E+00  0.00000000E+00
  0.00000000E+00  0.00000000E+00  0.00000000E+00
  0.00000000E+00  0.00000000E+00  0.00000000E+00
  0.00000000E+00  0.00000000E+00  0.00000000E+00
  0.00000000E+00  0.00000000E+00  0.00000000E+00
  0.00000000E+00  0.00000000E+00  0.00000000E+00
  0.00000000E+00  0.00000000E+00  0.00000000E+00
  0.00000000E+00  0.00000000E+00  0.00000000E+00
  0.00000000E+00  0.00000000E+00  0.00000000E+00
  0.00000000E+00  0.00000000E+00  0.00000000E+00
  0.00000000E+00  0.00000000E+00  0.00000000E+00
  0.00000000E+00  0.00000000E+00  0.00000000E+00
  0.00000000E+00  0.00000000E+00  0.00000000E+00
  0.00000000E+00  0.00000000E+00  0.00000000E+00
  0.00000000E+00  0.00000000E+00  0.00000000E+00
  0.00000000E+00  0.00000000E+00  0.00000000E+00
  0.00000000E+00  0.00000000E+00  0.00000000E+00
  0.00000000E+00  0.00000000E+00  0.00000000E+00
  0.00000000E+00  0.00000000E+00  0.00000000E+00
  0.00000000E+00  0.00000000E+00  0.00000000E+00
  0.00000000E+00  0.00000000E+00  0.00000000E+00
  0.00000000E+00  0.00000000E+00  0.00000000E+00
  0.00000000E+00  0.00000000E+00  0.00000000E+00
  0.00000000E+00  0.00000000E+00  0.00000000E+00
  0.00000000E+00  0.00000000E+00  0.00000000E+00
  0.00000000E+00  0.00000000E+00  0.00000000E+00
  0.00000000E+00  0.00000000E+00  0.00000000E+00
  0.00000000E+00  0.00000000E+00  0.00000000E+00
  0.00000000E+00  0.00000000E+00  0.00000000E+00
  0.00000000E+00  0.00000000E+00  0.00000000E+00
  0.00000000E+00  0.00000000E+00  0.00000000E+00
  0.00000000E+00  0.00000000E+00  0.00000000E+00
  0.00000000E+00  0.00000000E+00  0.00000000E+00
  0.00000000E+00  0.00000000E+00  0.00000000E+00
  0.00000000E+00  0.00000000E+00  0.00000000E+00
  0.00000000E+00  0.00000000E+00  0.00000000E+00
  0.00000000E+00  0.00000000E+00  0.00000000E+00
  0.00000000E+00  0.00000000E+00  0.00000000E+00
  0.00000000E+00  0.00000000E+00  0.00000000E+00
  0.00000000E+00  0.00000000E+00  0.00000000E+00
  0.00000000E+00  0.00000000E+00  0.00000000E+00
  0.00000000E+00  0.00000000E+00  0.00000000E+00
  0.00000000E+00  0.00000000E+00  0.00000000E+00
  0.00000000E+00  0.00000000E+00  0.00000000E+00
  0.00000000E+00  0.00000000E+00  0.00000000E+00
  0.00000000E+00  0.00000000E+00  0.00000000E+00
  0.00000000E+00  0.00000000E+00  0.00000000E+00
  0.00000000E+00  0.00000000E+00  0.00000000E+00
  0.00000000E+00  0.00000000E+00  0.00000000E+00
  0.00000000E+00  0.00000000E+00  0.00000000E+00
  0.00000000E+00  0.00000000E+00  0.00000000E+00
  0.00000000E+00  0.00000000E+00  0.00000000E+00
  0.00000000E+00  0.00000000E+00  0.00000000E+00
  0.00000000E+00  0.00000000E+00  0.00000000E+00
  0.00000000E+00  0.00000000E+00  0.00000000E+00
  0.00000000E+00  0.00000000E+00  0.00000000E+00
  0.00000000E+00  0.00000000E+00  0.00000000E+00
  0.00000000E+00  0.00000000E+00  0.00000000E+00
  0.00000000E+00  0.00000000E+00  0.00000000E+00
  0.00000000E+00  0.00000000E+00  0.00000000E+00
  0.00000000E+00  0.00000000E+00  0.00000000E+00
  0.00000000E+00  0.00000000E+00  0.00000000E+00
  0.00000000E+00  0.00000000E+00  0.00000000E+00
  0.00000000E+00  0.00000000E+00  0.00000000E+00
  0.00000000E+00  0.00000000E+00  0.00000000E+00
  0.00000000E+00  0.00000000E+00  0.00000000E+00
  0.00000000E+00  0.00000000E+00  0.00000000E+00
  0.00000000E+00  0.00000000E+00  0.00000000E+00
  0.00000000E+00  0.00000000E+00  0.00000000E+00
  0.00000000E+00  0.00000000E+00  0.00000000E+00
  0.00000000E+00  0.00000000E+00  0.00000000E+00
  0.00000000E+00  0.00000000E+00  0.00000000E+00
  0.00000000E+00  0.00000000E+00  0.00000000E+00
  0.00000000E+00  0.00000000E+00  0.00000000E+00
  0.00000000E+00  0.00000000E+00  0.00000000E+00
  0.00000000E+00  0.00000000E+00  0.00000000E+00
  0.00000000E+00  0.00000000E+00  0.00000000E+00
  0.00000000E+00  0.00000000E+00  0.00000000E+00
  0.00000000E+00  0.00000000E+00  0.00000000E+00
  0.00000000E+00  0.00000000E+00  0.00000000E+00
  0.00000000E+00  0.00000000E+00  0.00000000E+00
  0.00000000E+00  0.00000000E+00  0.00000000E+00
  0.00000000E+00  0.00000000E+00  0.00000000E+00
  0.00000000E+00  0.00000000E+00  0.00000000E+00
  0.00000000E+00  0.00000000E+00  0.00000000E+00
  0.00000000E+00  0.00000000E+00  0.00000000E+00
  0.00000000E+00  0.00000000E+00  0.00000000E+00
  0.00000000E+00  0.00000000E+00  0.00000000E+00
  0.00000000E+00  0.00000000E+00  0.00000000E+00
  0.00000000E+00  0.00000000E+00  0.00000000E+00
  0.00000000E+00  0.00000000E+00  0.00000000E+00
  0.00000000E+00  0.00000000E+00  0.00000000E+00
  0.00000000E+00  0.00000000E+00  0.00000000E+00
  0.00000000E+00  0.00000000E+00  0.00000000E+00
  0.00000000E+00  0.00000000E+00  0.00000000E+00
  0.00000000E+00  0.00000000E+00  0.00000000E+00
  0.00000000E+00  0.00000000E+00  0.00000000E+00
  0.00000000E+00  0.00000000E+00  0.00000000E+00
  0.00000000E+00  0.00000000E+00  0.00000000E+00
  0.00000000E+00  0.00000000E+00  0.00000000E+00
  0.00000000E+00  0.00000000E+00  0.00000000E+00
  0.00000000E+00  0.00000000E+00  0.00000000E+00
  0.00000000E+00  0.00000000E+00  0.00000000E+00
  0.00000000E+00  0.00000000E+00  0.00000000E+00
  0.00000000E+00  0.00000000E+00  0.00000000E+00
  0.00000000E+00  0.00000000E+00  0.00000000E+00
  0.00000000E+00  0.00000000E+00  0.00000000E+00
  0.00000000E+00  0.00000000E+00  0.00000000E+00
  0.00000000E+00  0.00000000E+00  0.00000000E+00
  0.00000000E+00  0.00000000E+00  0.00000000E+00
  0.00000000E+00  0.00000000E+00  0.00000000E+00
  0.00000000E+00  0.00000000E+00  0.00000000E+00
  0.00000000E+00  0.00000000E+00  0.00000000E+00
  0.00000000E+00  0.00000000E+00  0.00000000E+00
  0.00000000E+00  0.00000000E+00  0.00000000E+00
  0.00000000E+00  0.00000000E+00  0.00000000E+00
  0.00000000E+00  0.00000000E+00  0.00000000E+00
  0.00000000E+00  0.00000000E+00  0.00000000E+00
  0.00000000E+00  0.00000000E+00  0.00000000E+00
  0.00000000E+00  0.00000000E+00  0.00000000E+00
  0.00000000E+00  0.00000000E+00  0.00000000E+00
  0.00000000E+00  0.00000000E+00  0.00000000E+00
  0.00000000E+00  0.00000000E+00  0.00000000E+00
  0.00000000E+00  0.00000000E+00  0.00000000E+00
  0.00000000E+00  0.00000000E+00  0.00000000E+00
  0.00000000E+00  0.00000000E+00  0.00000000E+00
  0.00000000E+00  0.00000000E+00  0.00000000E+00
  0.00000000E+00  0.00000000E+00  0.00000000E+00
  0.00000000E+00  0.00000000E+00  0.00000000E+00
  0.00000000E+00  0.00000000E+00  0.00000000E+00
  0.00000000E+00  0.00000000E+00  0.00000000E+00
  0.00000000E+00  0.00000000E+00  0.00000000E+00
  0.00000000E+00  0.00000000E+00  0.00000000E+00
  0.00000000E+00  0.00000000E+00  0.00000000E+00
  0.00000000E+00  0.00000000E+00  0.00000000E+00
  0.00000000E+00  0.00000000E+00  0.00000000E+00
  0.00000000E+00  0.00000000E+00  0.00000000E+00
  0.00000000E+00  0.00000000E+00  0.00000000E+00
  0.00000000E+00  0.00000000E+00  0.00000000E+00
  0.00000000E+00  0.00000000E+00  0.00000000E+00
  0.00000000E+00  0.00000000E+00  0.00000000E+00
  0.00000000E+00  0.00000000E+00  0.00000000E+00
  0.00000000E+00  0.00000000E+00  0.00000000E+00
  0.00000000E+00  0.00000000E+00  0.00000000E+00
  0.00000000E+00  0.00000000E+00  0.00000000E+00
  0.00000000E+00  0.00000000E+00  0.00000000E+00
  0.00000000E+00  0.00000000E+00  0.00000000E+00
  0.00000000E+00  0.00000000E+00  0.00000000E+00
  0.00000000E+00  0.00000000E+00  0.00000000E+00
  0.00000000E+00  0.00000000E+00  0.00000000E+00
  0.00000000E+00  0.00000000E+00  0.00000000E+00
  0.00000000E+00  0.00000000E+00  0.00000000E+00
  0.00000000E+00  0.00000000E+00  0.00000000E+00
  0.00000000E+00  0.00000000E+00  0.00000000E+00
  0.00000000E+00  0.00000000E+00  0.00000000E+00
  0.00000000E+00  0.00000000E+00  0.00000000E+00
  0.00000000E+00  0.00000000E+00  0.00000000E+00
  0.00000000E+00  0.00000000E+00  0.00000000E+00
  0.00000000E+00  0.00000000E+00  0.00000000E+00
  0.00000000E+00  0.00000000E+00  0.00000000E+00
  0.00000000E+00  0.00000000E+00  0.00000000E+00
  0.00000000E+00  0.00000000E+00  0.00000000E+00
  0.00000000E+00  0.00000000E+00  0.00000000E+00
  0.00000000E+00  0.00000000E+00  0.00000000E+00
  0.00000000E+00  0.00000000E+00  0.00000000E+00
  0.00000000E+00  0.00000000E+00  0.00000000E+00
  0.00000000E+00  0.00000000E+00  0.00000000E+00
  0.00000000E+00  0.00000000E+00  0.00000000E+00
  0.00000000E+00  0.00000000E+00  0.00000000E+00
  0.00000000E+00  0.00000000E+00  0.00000000E+00
  0.00000000E+00  0.00000000E+00  0.00000000E+00
  0.00000000E+00  0.00000000E+00  0.00000000E+00
  0.00000000E+00  0.00000000E+00  0.00000000E+00
  0.00000000E+00  0.00000000E+00  0.00000000E+00
  0.00000000E+00  0.00000000E+00  0.00000000E+00
  0.00000000E+00  0.00000000E+00  0.00000000E+00
  0.00000000E+00  0.00000000E+00  0.00000000E+00
  0.00000000E+00  0.00000000E+00  0.00000000E+00
  0.00000000E+00  0.00000000E+00  0.00000000E+00
  0.00000000E+00  0.00000000E+00  0.00000000E+00
  0.00000000E+00  0.00000000E+00  0.00000000E+00
  0.00000000E+00  0.00000000E+00  0.00000000E+00
  0.00000000E+00  0.00000000E+00  0.00000000E+00
  0.00000000E+00  0.00000000E+00  0.00000000E+00
  0.00000000E+00  0.00000000E+00  0.00000000E+00
  0.00000000E+00  0.00000000E+00  0.00000000E+00
  0.00000000E+00  0.00000000E+00  0.00000000E+00
  0.00000000E+00  0.00000000E+00  0.00000000E+00
  0.00000000E+00  0.00000000E+00  0.00000000E+00
  0.00000000E+00  0.00000000E+00  0.00000000E+00
  0.00000000E+00  0.00000000E+00  0.00000000E+00
  0.00000000E+00  0.00000000E+00  0.00000000E+00
  0.00000000E+00  0.00000000E+00  0.00000000E+00
  0.00000000E+00  0.00000000E+00  0.00000000E+00
  0.00000000E+00  0.00000000E+00  0.00000000E+00
  0.00000000E+00  0.00000000E+00  0.00000000E+00
  0.00000000E+00  0.00000000E+00  0.00000000E+00
  0.00000000E+00  0.00000000E+00  0.00000000E+00
  0.00000000E+00  0.00000000E+00  0.00000000E+00
  0.00000000E+00  0.00000000E+00  0.00000000E+00
  0.00000000E+00  0.00000000E+00  0.00000000E+00
  0.00000000E+00  0.00000000E+00  0.00000000E+00
  0.00000000E+00  0.00000000E+00  0.00000000E+00
  0.00000000E+00  0.00000000E+00  0.00000000E+00
  0.00000000E+00  0.00000000E+00  0.00000000E+00
  0.00000000E+00  0.00000000E+00  0.00000000E+00
  0.00000000E+00  0.00000000E+00  0.00000000E+00
  0.00000000E+00  0.00000000E+00  0.00000000E+00
  0.00000000E+00  0.00000000E+00  0.00000000E+00
  0.00000000E+00  0.00000000E+00  0.00000000E+00
  0.00000000E+00  0.00000000E+00  0.00000000E+00
  0.00000000E+00  0.00000000E+00  0.00000000E+00
  0.00000000E+00  0.00000000E+00  0.00000000E+00
  0.00000000E+00  0.00000000E+00  0.00000000E+00