 B N Se 
 1.0
 17.527899999999772   0.000000000000000   0.000000000000000
 -8.763949999999658  15.179606674993195   0.000000000000000
  0.000000000000001   0.000000000000002  15.000000000000000
 B N Se 
  49  48   1
Cartesian
  7.516668052154204  14.468695034550253   1.665348347531940 
 15.021716676110344   1.446966070659635   1.665560543508390 
 13.771940213584793   3.611642401857666   1.665560543508390 
 12.532598985540336   5.780847810668789   1.665348347531940 
 11.311066282113643   7.957953277711034   1.665628472405265 
 10.052073057700802  10.140613647763189   1.665985425153600 
  8.791330341608514  12.322263948323416   1.665628472405265 
 -7.507113179623436  14.453992052395096   1.665335730984720 
 -0.007955719792496   1.435664353698016   1.665348347531940 
 -1.266246486938460   3.605978811881368   1.665226558307445 
 -2.516648558352795   5.780847810668789   1.665348347531940 
 -3.755989786406107   7.956855749882288   1.665335730984720 
 -4.996193434414479  10.128194968723044   1.665624774947535 
 -6.246780079878004  12.294274577933072   1.665624774947535 
 -5.006576431869426  14.442370308016157   1.665624774947535 
  2.488239273079860   1.404989972897912   1.665628472405265 
  1.226199281851844   3.582809230517876   1.665303836145105 
 -0.040089048599110   5.776084955890572   1.665303836145105 
 -1.295115854943604   7.957953277711034   1.665628472405265 
 -2.515786138397389  10.128194968723044   1.665624774947535 
 -3.755989786406033  12.288279951557490   1.665134181896460 
 -2.505403140924888  14.442370308016157   1.665624774947535 
  5.007975213602415   1.403979903405877   1.665985425153600 
  3.710491214940484   3.516611064942310   1.665132436411785 
  2.448269297191768   5.750555499747919   1.664994638383350 
  1.144727624872876   7.960643963149887   1.665132436411785 
 -0.036122630513272  10.140613647763189   1.665985425153600 
 -1.265199492916376  12.294274577933072   1.665624774947535 
 -0.004866393171122  14.453992052395096   1.665335730984720 
  7.527711154107564   1.404989972897912   1.665628472405265 
  6.305459212264410   3.516611064942310   1.665132436411785 
  5.007975213602483   5.433770540807862   1.665623435745435 
  3.453778433409476   8.125718329062202   1.665623435745435 
  2.442211623534871  10.207952170840056   1.665132436411785 
  1.224620085578972  12.322263948323416   1.665628472405265 
  2.499282375033580  14.468695034550253   1.665348347531940 
 10.023906146980009   1.435664353698016   1.665348347531940 
  8.789751145335629   3.582809230517876   1.665303836145105 
  7.567681130013332   5.750555499747919   1.664994638383350 
  6.562171993778011   8.125718329062202   1.665623435745435 
  5.007975213593896  10.184096199421189   1.664994638383350 
  3.741686883142878  12.326313012508717   1.665303836145105 
  5.007975213593900  14.473249575154428   1.665226558307445 
 12.522163751059177   1.446966070659635   1.665560543508390 
 11.282196914125933   3.605978811881368   1.665226558307445 
 10.056039475786649   5.776084955890572   1.665303836145105 
  8.871222802314730   7.960643963149887   1.665132436411785 
  7.573738803652799  10.207952170840056   1.665132436411785 
  6.274263544044854  12.326313012508717   1.665303836145105 
  8.770577306652832  13.750675139218071   1.665152948332800 
 16.271384845051703   0.725463549992738   1.665201592854825 
 15.018574687121939   2.888252275933379   1.665258151877265 
 13.771949786403642   5.054612061790229   1.665201592854825 
 12.537745143149623   7.225749045766080   1.665152948332800 
 11.287530159012167   9.403407861484274   1.665651659802150 
 10.031377669762332  11.579127794919181   1.665651659802150 
 -6.257205013410423  13.732350969238665   1.665142132845960 
  1.240816949915510   0.708747632531540   1.665152948332800 
 -0.017010560997421   2.879276555737646   1.665012840605850 
 -1.270956138635653   5.051174006133444   1.665012840605850 
 -2.521775570324493   7.225749045766080   1.665152948332800 
 -3.755980213587303   9.400102534793575   1.665142132845960 
 -5.002747733775055  11.568446594359653   1.665151622215920 
 -3.755980213587115  13.727911284551599   1.665151622215920 
  3.751832297153880   0.702636161127460   1.665651659802150 
  2.466950062836894   2.838260750565823   1.665122098666950 
  1.217318262671239   5.039848267948437   1.664973249036300 
 -0.064496555953873   7.222854910960026   1.665122098666950 
 -1.271560586204431   9.403407861484274   1.665651659802150 
 -2.509212693399346  11.568446594359653   1.665151622215920 
 -1.254755413764053  13.732350969238665   1.665142132845960 
  6.264137275653491   0.702636161127460   1.665651659802150 
  5.007984786403709   2.849536780481844   1.665298493251215 
  3.682180693654198   4.946071665727244   1.664747088395715 
  2.368536558358664   7.221370051124071   1.664747088395715 
  1.215786134181893   9.417817518524476   1.665298493251215 
 -0.015408096954655  11.579127794919181   1.665651659802150 
  1.245392266154947  13.750675139218071   1.665152948332800 
  8.775152622891740   0.708747632531540   1.665152948332800 
  7.549019509970543   2.838260750565823   1.665122098666950 
  6.333788879153300   4.946071665727244   1.664747088395715 
  3.694340651099406   9.517730100664391   1.664747088395715 
  2.476538167604175  11.624056155989857   1.665122098666950 
  3.754039208756783  13.754721255644602   1.665012840605850 
 11.272514727737766   0.725463549992738   1.665201592854825 
 10.032980133804735   2.879276555737646   1.665012840605850 
  8.798651310136140   5.039848267948437   1.664973249036300 
  7.647433014448901   7.221370051124071   1.664747088395715 
  6.321628921690541   9.517730100664391   1.664747088395715 
  5.007984786394936  11.605475281618924   1.664973249036300 
  6.261930364050874  13.754721255644602   1.665012840605850 
 13.771949786403516   0.729034609908810   1.665258151877265 
 12.525324885685277   2.888252275933379   1.665258151877265 
 11.286925711460594   5.051174006133444   1.665012840605850 
 10.080466128779001   7.222854910960026   1.665122098666950 
  8.800183438625739   9.417817518524476   1.665298493251215 
  7.539431405203401  11.624056155989857   1.665122098666950 
  5.007984786403784   7.228390605833453   1.666664076139635 
