 N B 
 1.0
 17.527899999999772   0.000000000000000   0.000000000000000
 -8.763949999999658  15.179606674993195   0.000000000000000
  0.000000000000001   0.000000000000002  15.000000000000000
 N B 
  48  49
Cartesian
  8.759170890022187  13.719557721729435   1.642176979131510 
 16.284217296060628   0.718058801011915   1.648810637723715 
 15.035516026321977   2.888565735881805   1.656507896804055 
 13.780065194176782   5.059868891664398   1.661945663053830 
 12.516862284014124   7.225761410786919   1.662939129473385 
 11.253848264646363   9.390981751830132   1.654821958013070 
 10.001923131159268  11.553393417737064   1.640088056672715 
 -6.264576995179681  13.736609356582608   1.647310190063145 
  1.262062911728094   0.734193572505610   1.642120315137585 
  0.014827873730025   2.898990274344898   1.639942384883670 
 -1.240960920981972   5.063071247026426   1.656074321326275 
 -2.503730668857429   7.229734655785336   1.657677512053905 
 -3.764857113561925   9.397762098356527   1.655843012030580 
 -5.018566591588301  11.566202428784417   1.651508183595630 
 -3.761946250598715  13.742741047151130   1.651503358301130 
  3.759387570685055   0.741021567714880   1.640011116978045 
  2.531751669246713   2.934507787553928   1.624329797350905 
  1.270788167308357   5.077021486076233   1.652128196357745 
  0.003839464822622   7.234380075727613   1.682154573026175 
 -1.258768429904034   9.400599809981401   1.672249128573675 
 -2.512551077274904  11.570376722656610   1.656936953369355 
 -1.257168026090594  13.741213267740562   1.655817514123110 
  6.258066585425019   0.738024073826866   1.654776663646950 
  5.016103665867817   2.924797043425645   1.636009583239710 
  3.813028495440405   5.163807157290083   1.588768940386740 
  2.512452971199536   7.239840859627844   1.826800480581060 
  1.244418015121735   9.401279481563398   1.745013291780345 
 -0.006588958342921  11.569449552366317   1.672264108643655 
  1.250959962364482  13.733053308444216   1.657686738529290 
  8.764703128394682   0.726833069529482   1.662896445572490 
  7.515074230673105   2.904434844765400   1.680398439511470 
  6.272258770380033   5.095644082004171   1.679719531850490 
  3.750307887649884   9.383861670619037   1.826822408888130 
  2.500719560839843  11.559105296312488   1.682258687935545 
  3.758732637135979  13.722779533524333   1.656124091403675 
 11.271996025197604   0.715805748300758   1.661943720357675 
 10.027471830742373   2.883986906496339   1.676760109043085 
  8.785148983060283   5.047652709282370   1.699532296028640 
  7.487148507609520   7.199909413581260   1.679673127390965 
  6.198489931208923   9.295553420766307   1.588726809928485 
  5.002549374930112  11.540586350429924   1.652195731855800 
  6.260781081384004  13.717303658281450   1.640001578513265 
 13.780142858555203   0.714204241766034   1.656534377883285 
 12.531150874902588   2.884890950344604   1.667166779236185 
 11.280092890059095   5.053591516188869   1.676773971503115 
 10.006180404330340   7.219182936282416   1.680441903093420 
  8.739060777186008   9.373176044729480   1.636091772324765 
  7.488497351826225  11.519819568928702   1.624403948022195 
  7.511889355188472  14.446565612859787   1.643474342944245 
 15.032829486144994   1.440544789675293   1.654418078522040 
 13.782467776055277   3.610624328347424   1.663596856188330 
 12.527164828516526   5.779414733073660   1.666732784728110 
 11.256479679755659   7.944137533249818   1.666235337937095 
  9.992542053891617  10.104508684458766   1.645234238060295 
  8.742862914517930  12.261765317778526   1.635899130110235 
 -7.515476686095622  14.458819199585886   1.644651922607070 
  0.008817092433218   1.450871626781438   1.643431385424360 
 -1.239438933283491   3.616702080201923   1.650162472435365 
 -2.495373623971897   5.783268723471190   1.658988519640230 
 -3.759858158854558   7.950770601965598   1.658573364151005 
 -5.022438170252665  10.119737783328796   1.653097514093310 
 -6.273053176235534  12.286167586295385   1.647041874566190 
 -5.012698925476238  14.469177407610742   1.647012651840510 
  2.516389359040382   1.477224983138306   1.635820225539015 
  1.269238309306822   3.634068125233313   1.634043459450585 
  0.013744691838457   5.789849248021346   1.666544272450515 
 -1.250719711555460   7.953893702548244   1.669199947451340 
 -2.510622014902320  10.119737783328796   1.660914474852990 
 -3.765922512154129  12.294013783009841   1.654095234688395 
 -2.511234218533025  14.469323039533933   1.653072116268585 
  5.009473714669389   1.473584747298465   1.645151127877800 
  3.790038609326758   3.691939743189744   1.610816201853855 
  2.527110184044808   5.811368480426651   1.687505370438465 
  1.257957018204248   7.957571192357951   1.745304756653040 
 -0.005318724794608  10.122821883187022   1.694594564094300 
 -1.255325056242773  12.294024560755876   1.660906621146585 
 -0.001537645063751  14.460375031553582   1.658546454249750 
  7.512380540236451   1.459165414669271   1.666186370726055 
  6.264055530155537   3.649308108021837   1.668791768629320 
  5.087455436819042   5.946844785365256   1.586200471394025 
  3.743061003349634   7.958694187957304   2.046192792467130 
  2.501477111735198  10.111410488825308   1.745353822364100 
  1.250313583073592  12.285818554543216   1.669249056844545 
  2.507817545675495  14.449041513774919   1.659007585144380 
 10.022428369049752   1.441079455892220   1.666708730208870 
  8.775549435462581   3.609576198377597   1.689324731999325 
  7.537366818748293   5.768069817763421   1.689090324202140 
  6.157575835280688   7.800357993613235   1.586161564782825 
  4.994726272566870  10.085406904696715   1.687523485714440 
  3.756679627636292  12.272773210648459   1.666636144741020 
  5.012080212400011  14.444658460927727   1.650205587845085 
 12.528307578586139   1.438352933940688   1.663599884619660 
 11.278138049691021   3.608323248026708   1.673046776455905 
 10.025761140001595   5.775005169128113   1.689334711336740 
  8.735610451979273   7.930162693038688   1.668830052182160 
  7.461670566866320  10.051400875732007   1.610840272696410 
  6.251412337793114  12.263417898528463   1.634130455316405 
