 B N O 
 1.0
 14.936314146199660   0.000000000000000   0.000000000000000
 -7.468157073099825  12.935227489513863   0.000000000000000
  0.000000000000001   0.000000000000001  13.341276283792837
 B N O 
 142 143   1
Cartesian
  1.246947632283263   0.722388755662838   5.002978606422314 
  5.005070767002165   7.365091622841348   5.002978606422314 
  6.214902501625763   0.750747259621924   5.002978606422314 
  9.964645148650632   7.179847532148920   5.002978606422314 
 11.193937638140374   0.718418040652228   5.002978606422314 
 -3.734109545902119   9.339735491973777  11.673616748318732 
  1.244404690306662   9.340148522315609  11.673616748318732 
  2.489884949509226   2.872431963228630  11.673616748318732 
  6.223615398242615   9.339467065165493  11.673616748318732 
  7.468014403673693   2.872672336199509  11.673616748318732 
 12.446321051123407   2.872615298101278  11.673616748318732 
 -1.241608318114245   9.339856858734590   5.002978606422314 
 -0.030722721651460   2.855861434255065   5.002978606422314 
  5.028150930244599   2.967699740607082   5.002978606422314 
  3.725016802299479   9.388610580970624   5.002978606422314 
  8.727313292309486   9.339853599298246   5.002978606422314 
  9.953518033410434   2.872193826134200   5.002978606422314 
 -4.978546593907976  11.495741856347770  11.673616748318732 
 -0.000212844438029  11.496246090527974  11.673616748318732 
  1.244683015368663   5.028193223409203  11.673616748318732 
  6.223957407075055   5.027770161619300  11.673616748318732 
  4.978576454371106  11.496006914273806  11.673616748318732 
 11.201623745934119   5.028219744474783  11.673616748318732 
 -1.251481656152101   5.021586158645403   5.002978606422314 
 -2.483978129593995  11.507978450362879   5.002978606422314 
  2.477756090284013  11.511376935179850   5.002978606422314 
  7.480294441128684  11.513589638810702   5.002978606422314 
  8.702158661478535   5.024323531813047   5.002978606422314 
 -0.000358410052703   7.184107802888999  11.673616748318732 
  1.244880350881516   0.716552469321461  11.673616748318732 
  4.979125939735667   7.183370231907154  11.673616748318732 
  6.223647632476896   0.716895568828320  11.673616748318732 
  9.957358481879314   7.183599637468904  11.673616748318732 
 -2.484680174844919   7.182047645732335   5.002978606422314 
 11.201687494341996   0.716947478589137  11.673616748318732 
  3.749521569143910   0.745226743025709   5.002978606422314 
  2.517219804783608   7.162847777825070   5.002978606422314 
  7.476176070586151   7.152130345830090   5.002978606422314 
  8.700090982951485   0.730340652581843   5.002978606422314 
  2.489370546277901   7.183892359198159  11.673616748318732 
 13.684586220532426   0.714063938337612   5.002978606422314 
 -1.244928611652235   9.340067184449470  11.673616748318732 
 -0.000190730221048   2.872460383323857  11.673616748318732 
  4.979530805164987   2.872543258416687  11.673616748318732 
  3.733990671132647   9.339912753682819  11.673616748318732 
  8.712985946477042   9.339402977222527  11.673616748318732 
  9.956893149044756   2.872709928950068  11.673616748318732 
 -3.724689895155553   9.341877852889308   5.002978606422314 
  1.247004189224645   9.330659056961631   5.002978606422314 
  2.443385098390923   2.872034320700902   5.002978606422314 
  6.245952823576892   9.395208989686209   5.002978606422314 
  7.453257744972119   2.916063607203232   5.002978606422314 
 12.435070844594502   2.866694116787421   5.002978606422314 
 -1.245212578907124   5.028276181115165  11.673616748318732 
 -2.489238179625041  11.496004238108677  11.673616748318732 
  2.488996139068044  11.496266967750886  11.673616748318732 
  3.734708545951053   5.028004288992061  11.673616748318732 
  7.468217952611147  11.495721972979716  11.673616748318732 
 -4.966166205240154  11.506444099709274   5.002978606422314 
  8.712514335912328   5.028005713089049  11.673616748318732 
 -0.005652302301317  11.503126006292543   5.002978606422314 
  1.215066076929686   4.992811487877010   5.002978606422314 
  0.003360460855368   7.175331086473809   5.002978606422314 
  4.976893208727877  11.513513264169257   5.002978606422314 
 11.201638339996412   5.025095039243534   5.002978606422314 
 -2.489796791989680   7.183986062601746  11.673616748318732 
  3.734607909792214   0.716676354915016  11.673616748318732 
  7.468394644052121   7.183136059909320  11.673616748318732 
  8.712416539517235   0.717044544632521  11.673616748318732 
 13.691354385677737   0.716695045200592  11.673616748318732 
 -0.000116368347791   1.434062934804491   1.667492381809274 
  3.734742208843181   7.901656823910519   1.666234938247080 
  4.979178272420670   1.436497199312429   1.671972335624238 
  8.712281336845892   7.901011828632273   1.668829703266018 
  9.956203701540081   1.435802215975750   1.668536694130255 
 -4.978940170481498  10.057998793857861   8.338511571474131 
 -0.001293124182523  10.059242659756961   8.338647087744715 
  1.244840037400710   3.589348947509540   8.336875418105189 
  4.979407310092779  10.058741250408342   8.339024891857322 
  6.223733531293576   3.592138318152581   8.323390467654676 
 11.200389858624145   3.590284270177488   8.337738604731447 
 -2.490382871471300  10.058775496239312   1.667363989985428 
 -1.245866194988947   3.589928132525126   1.667299025763033 
  3.736102800095798   3.589960725801774   1.673753961941769 
  2.488508106210990  10.059146813194994   1.667130670524558 
  7.469183205693887  10.058092686820350   1.667122791222124 
  8.710834782056775   3.591029710283528   1.673592440592817 
 -6.223098380313432  12.214003233127324   8.338448820855467 
 -1.245445526186139  12.215918386281215   8.337749449144768 
 -0.000866325832059   5.745544773299837   8.337783480098862 
  4.981386607974650   5.742545829067305   8.329194451323515 
  3.733522981901685  12.214896740759601   8.338710021990142 
  9.955040634050595   5.745259924614436   8.336127653475536 
 -2.491304461004996   5.745811487360494   1.667481692496360 
 -3.734043010281817  12.214728743977256   1.668094800871243 
  1.243551805093053  12.215817897245342   1.667732755466964 
  2.490859185548190   5.744140088727637   1.671355468670183 
  6.223702592979495  12.214196648342931   1.667158994209828 
  7.466496676992643   5.743879769338782   1.679084924708649 
 -1.246280847711630   7.902272914932076   8.338629016216183 
 -0.000116368347790   1.434062934804491   8.338464831035354 
  3.734742208843181   7.901656823910520   8.339722274597548 
  4.979178272420671   1.436497199312429   8.333984877220390 
  8.712281336845892   7.901011828632273   8.337127509578703 
 -3.735692790762209   7.901672957421552   1.667478872907111 
  9.956203701540081   1.435802215975750   8.337420518714358 
  2.489953714000197   1.434310546779957   1.669703555381939 
  1.243810601304377   7.902209122169537   1.668394175736242 
  6.225513913809842   7.900974846884634   1.666432230663651 
  7.467208134964510   1.437136925064166   1.671629264296451 
  1.243810601304377   7.902209122169538   8.337563037108387 
 12.446132815194355   1.434812315660779   1.667425163320549 
 -2.490382871471299  10.058775496239312   8.338593222859199 
 -1.245866194988947   3.589928132525127   8.338658187081688 
  3.736102800095798   3.589960725801775   8.332203250902952 
  2.488508106210990  10.059146813194994   8.338826542320083 
  7.469183205693888  10.058092686820350   8.338834421622504 
  8.710834782056775   3.591029710283529   8.332364772251811 
 -4.978940170481499  10.057998793857861   1.667445641370497 
 -0.001293124182523  10.059242659756961   1.667310125099901 
  1.244840037400710   3.589348947509539   1.669081794739425 
  4.979407310092778  10.058741250408342   1.666932320987293 
  6.223733531293576   3.592138318152580   1.682566745189953 
 11.200389858624145   3.590284270177487   1.668218608113181 
 -2.491304461004996   5.745811487360495   8.338475520348254 
 -3.734043010281817  12.214728743977256   8.337862411973372 
  1.243551805093053  12.215817897245342   8.338224457377663 
  2.490859185548191   5.744140088727638   8.334601744174444 
  6.223702592979496  12.214196648342931   8.338798218634800 
 -6.223098380313433  12.214003233127324   1.667508391989160 
  7.466496676992644   5.743879769338783   8.326872288135965 
 -1.245445526186139  12.215918386281215   1.668207763699859 
 -0.000866325832059   5.745544773299836   1.668173732745766 
 -1.246280847711630   7.902272914932075   1.667328196628445 
  4.981386607974649   5.742545829067304   1.676762761521020 
  3.733522981901684  12.214896740759601   1.667247190854485 
  9.955040634050595   5.745259924614435   1.669829559369079 
 -3.735692790762209   7.901672957421553   8.338478339937518 
  2.489953714000198   1.434310546779958   8.336253657462688 
  6.225513913809843   7.900974846884635   8.339524982180977 
  7.467208134964511   1.437136925064167   8.334327948548177 
 12.446132815194355   1.434812315660779   8.338532049524078 
  1.244458607063579   0.716015190576135   1.669326147133682 
  4.978330576485136   7.183758202957608   1.672599449629765 
  6.222865080272041   0.716331417686585   1.668708814997099 
  9.957239444728582   7.183584895479571   1.666975952406089 
 11.202039531265713   0.715925338452582   1.667890832758758 
 -3.734376760712481   9.339582616649189   8.338525976741893 
  1.244213155471200   9.339395265660951   8.336285421737065 
  2.488889867108389   2.871701421647549   8.331135881065588 
  6.223482472279633   9.339911079742995   8.336173876950770 
  7.467719669983910   2.871846499727679   8.335434155547691 
 12.446785958410008   2.871554545507027   8.338354617768054 
 -1.245110256272133   9.339513378620900   1.668045831825921 
 -0.000200759533292   2.871535196953364   1.669709313061228 
  4.977861429166867   2.871919609129415   1.671665381969694 
  3.733707083224872   9.339591243427469   1.670950552255802 
  8.712761273602760   9.339808291331419   1.667705935046447 
  9.957302920212799   2.871620564923843   1.667696391718415 
 -4.978995495030447  11.495644483216561   8.337665915634560 
 -0.000522434962315  11.495655514818944   8.337964334212989 
  1.244393340228739   5.027093314298472   8.332368540263118 
  6.222550913977114   5.027742004661293   8.342720607550012 
  4.978666634691498  11.495537667803534   8.337149044201858 
 11.201896346532005   5.027467588788316   8.338587153218070 
 -1.244935088689356   5.027390199091072   1.668702214358579 
 -2.489814928458699  11.495656264808646   1.667638343544804 
  2.488949892699593  11.495505899816207   1.668461851816974 
  3.733238223590522   5.027150998063989   1.675085563880170 
  7.468157617793686  11.495695139311945   1.668344365405687 
  8.712569731690209   5.027425952892119   1.668474519199817 
 -0.000325865287961   7.183287919046432   8.335856870972046 
  1.244458607063580   0.716015190576135   8.336631065710947 
  4.978330576485137   7.183758202957609   8.333357763214863 
  6.222865080272042   0.716331417686585   8.337248397847528 
  9.957239444728582   7.183584895479572   8.338981260438537 
 -2.489794683950580   7.183439102240088   1.667648104377598 
 11.202039531265713   0.715925338452582   8.338066380085868 
  3.733545030384977   0.716307720485165   1.669625816533424 
  2.489141282097458   7.183255013368128   1.674957016764870 
  7.467834035862044   7.184018765614423   1.668070359780540 
  8.712332601067681   0.716195566678388   1.668005154044809 
  2.489141282097459   7.183255013368129   8.331000196079945 
 13.691612429874645   0.715900401137153   1.668348841668065 
 -1.245110256272132   9.339513378620900   8.337911381018705 
 -0.000200759533292   2.871535196953365   8.336247899783492 
  4.977861429166868   2.871919609129415   8.334291830874934 
  3.733707083224873   9.339591243427469   8.335006660588824 
  8.712761273602760   9.339808291331419   8.338251277798166 
  9.957302920212799   2.871620564923844   8.338260821126212 
 -3.734376760712481   9.339582616649189   1.667431236102735 
  1.244213155471200   9.339395265660951   1.669671791107563 
  2.488889867108388   2.871701421647548   1.674821331779039 
  6.223482472279632   9.339911079742995   1.669783335893858 
  7.467719669983909   2.871846499727678   1.670523057296937 
 12.446785958410008   2.871554545507026   1.667602595076573 
 -1.244935088689356   5.027390199091073   8.337254998486062 
 -2.489814928458699  11.495656264808646   8.338318869299837 
  2.488949892699594  11.495505899816207   8.337495361027653 
  3.733238223590522   5.027150998063989   8.330871648964457 
  7.468157617793687  11.495695139311945   8.337612847438940 
 -4.978995495030448  11.495644483216561   1.668291297210069 
  8.712569731690209   5.027425952892120   8.337482693644798 
 -0.000522434962315  11.495655514818944   1.667992878631638 
  1.244393340228738   5.027093314298471   1.673588672581602 
 -0.000325865287961   7.183287919046431   1.670100341872581 
  6.222550913977114   5.027742004661292   1.663236605294616 
  4.978666634691497  11.495537667803534   1.668808168642689 
 11.201896346532005   5.027467588788315   1.667370059626570 
 -2.489794683950579   7.183439102240089   8.338309108467136 
  3.733545030384977   0.716307720485166   8.336331396311204 
  7.467834035862045   7.184018765614423   8.337886853064088 
  8.712332601067681   0.716195566678388   8.337952058799912 
 13.691612429874645   0.715900401137153   8.337608371176563 
 -0.005409449296095   1.428508882923232   5.002978606422314 
  3.735452552849216   7.935724795616957   5.002978606422314 
  4.971211306569305   1.489236655815627   5.002978606422314 
  8.721657792258918   7.906230268898399   5.002978606422314 
  9.954607670250484   1.432135616059650   5.002978606422314 
 -4.978794100675910  10.058538985881617  11.673616748318732 
 -0.000028528203802  10.058616612001224  11.673616748318732 
  1.244625143697633   3.591032052936802  11.673616748318732 
  4.978659362880420  10.058578427089804  11.673616748318732 
  6.223465338640366   3.590926000786199  11.673616748318732 
 11.202147036167981   3.591042406669921  11.673616748318732 
 -2.481432953140538  10.064651958793611   5.002978606422314 
 -1.256047623827193   3.585389817767972   5.002978606422314 
  3.681653928056493   3.629983982619970   5.002978606422314 
  2.480529613679386  10.069744426736644   5.002978606422314 
  7.487161974103230  10.082326666203551   5.002978606422314 
  8.727060888393783   3.587672682914810   5.002978606422314 
 -6.223536110430087  12.214457059706429  11.673616748318732 
 -1.244671446974329  12.214450069640966  11.673616748318732 
 -0.000063969829388   5.746910560702068  11.673616748318732 
  4.978651083545746   5.746893101185058  11.673616748318732 
  3.733966915305979  12.214491596462409  11.673616748318732 
  9.957541354549818   5.746857360844629  11.673616748318732 
 -2.484147590632283   5.745044852919331   5.002978606422314 
 -3.725634622500698  12.234886304201165   5.002978606422314 
  1.236597443180762  12.221739522269631   5.002978606422314 
  2.480498969736154   5.690267851645473   5.002978606422314 
  6.225794258570724  12.217299759933240   5.002978606422314 
  7.515903070410230   5.762287618357769   5.002978606422314 
 -1.244747220624163   7.902744071789226  11.673616748318732 
 -0.000064918745676   1.435118792939062  11.673616748318732 
  3.733952575547838   7.902705558840372  11.673616748318732 
  4.978803771023686   1.435069458191408  11.673616748318732 
  8.712859477146724   7.902643124086923  11.673616748318732 
 -3.723650869365820   7.905268966495554   5.002978606422314 
  9.957416283821951   1.435104159839563  11.673616748318732 
  2.489648417050249   1.449610105791308   5.002978606422314 
  1.268723800670332   7.873727422159403   5.002978606422314 
  6.244082855072024   7.957530021985249   5.002978606422314 
  7.462056330966147   1.453397923580714   5.002978606422314 
  1.244625576880528   7.902735396677913  11.673616748318732 
 12.443158240759441   1.430092263319266   5.002978606422314 
 -2.489381049164916  10.058569747986200  11.673616748318732 
 -1.244774248682033   3.591050470637811  11.673616748318732 
  3.734040299445294   3.591022667210618  11.673616748318732 
  2.489277868113853  10.058609061403434  11.673616748318732 
  7.468089661624377  10.058562727328784  11.673616748318732 
  8.712819711297762   3.590962555080914  11.673616748318732 
 -4.967421824595879  10.066361061819721   5.002978606422314 
  0.005949461163209  10.053619722354197   5.002978606422314 
  1.212383234183550   3.576174669280883   5.002978606422314 
  4.980361652650575  10.077277354801193   5.002978606422314 
  6.241536377433057   3.643296823600967   5.002978606422314 
 11.203795478504432   3.587047385735747   5.002978606422314 
 -2.489463525040374   5.746913914321174  11.673616748318732 
 -3.734075426693204  12.214446307503382  11.673616748318732 
  1.244597116981689  12.214478959580315  11.673616748318732 
  2.489296589243662   5.746914842286620  11.673616748318732 
  6.223379238271274  12.214478585221263  11.673616748318732 
 -6.213222479605463  12.226101229790403   5.002978606422314 
  7.468171448198487   5.746813722142005  11.673616748318732 
 -1.246915040820441  12.231632448052080   5.002978606422314 
  0.001676985234617   5.739982047580286   5.002978606422314 
 -1.233652259866708   7.899439190916373   5.002978606422314 
  3.728924496520251  12.216700129169137   5.002978606422314 
  9.969385383380196   5.747444396599031   5.002978606422314 
 -3.734088405732172   7.902697558066722  11.673616748318732 
  2.489355041044020   1.435120273557847  11.673616748318732 
  6.223353304090960   7.902644594468756  11.673616748318732 
  7.468101938646515   1.435055578950900  11.673616748318732 
 12.446840889547055   1.435125002485524  11.673616748318732 
  3.695185863368951   5.001085463210909   5.002978606422314 
Generated by cif2cell 2.0.0.  :  Failed to get author information, No journal information. Species order: B N O 
 1.0
 14.936314146199660   0.000000000000000   0.000000000000000
 -7.468157073099825  12.935227489513863   0.000000000000000
  0.000000000000001   0.000000000000001  13.341276283792837
 B N O 
 142 143   1
Cartesian
  1.246947632283263   0.722388755662838   5.002978606422314 
  5.005070767002165   7.365091622841348   5.002978606422314 
  6.214902501625763   0.750747259621924   5.002978606422314 
  9.964645148650632   7.179847532148920   5.002978606422314 
 11.193937638140374   0.718418040652228   5.002978606422314 
 -3.734109545902119   9.339735491973777  11.673616748318732 
  1.244404690306662   9.340148522315609  11.673616748318732 
  2.489884949509226   2.872431963228630  11.673616748318732 
  6.223615398242615   9.339467065165493  11.673616748318732 
  7.468014403673693   2.872672336199509  11.673616748318732 
 12.446321051123407   2.872615298101278  11.673616748318732 
 -1.241608318114245   9.339856858734590   5.002978606422314 
 -0.030722721651460   2.855861434255065   5.002978606422314 
  5.028150930244599   2.967699740607082   5.002978606422314 
  3.725016802299479   9.388610580970624   5.002978606422314 
  8.727313292309486   9.339853599298246   5.002978606422314 
  9.953518033410434   2.872193826134200   5.002978606422314 
 -4.978546593907976  11.495741856347770  11.673616748318732 
 -0.000212844438029  11.496246090527974  11.673616748318732 
  1.244683015368663   5.028193223409203  11.673616748318732 
  6.223957407075055   5.027770161619300  11.673616748318732 
  4.978576454371106  11.496006914273806  11.673616748318732 
 11.201623745934119   5.028219744474783  11.673616748318732 
 -1.251481656152101   5.021586158645403   5.002978606422314 
 -2.483978129593995  11.507978450362879   5.002978606422314 
  2.477756090284013  11.511376935179850   5.002978606422314 
  7.480294441128684  11.513589638810702   5.002978606422314 
  8.702158661478535   5.024323531813047   5.002978606422314 
 -0.000358410052703   7.184107802888999  11.673616748318732 
  1.244880350881516   0.716552469321461  11.673616748318732 
  4.979125939735667   7.183370231907154  11.673616748318732 
  6.223647632476896   0.716895568828320  11.673616748318732 
  9.957358481879314   7.183599637468904  11.673616748318732 
 -2.484680174844919   7.182047645732335   5.002978606422314 
 11.201687494341996   0.716947478589137  11.673616748318732 
  3.749521569143910   0.745226743025709   5.002978606422314 
  2.517219804783608   7.162847777825070   5.002978606422314 
  7.476176070586151   7.152130345830090   5.002978606422314 
  8.700090982951485   0.730340652581843   5.002978606422314 
  2.489370546277901   7.183892359198159  11.673616748318732 
 13.684586220532426   0.714063938337612   5.002978606422314 
 -1.244928611652235   9.340067184449470  11.673616748318732 
 -0.000190730221048   2.872460383323857  11.673616748318732 
  4.979530805164987   2.872543258416687  11.673616748318732 
  3.733990671132647   9.339912753682819  11.673616748318732 
  8.712985946477042   9.339402977222527  11.673616748318732 
  9.956893149044756   2.872709928950068  11.673616748318732 
 -3.724689895155553   9.341877852889308   5.002978606422314 
  1.247004189224645   9.330659056961631   5.002978606422314 
  2.443385098390923   2.872034320700902   5.002978606422314 
  6.245952823576892   9.395208989686209   5.002978606422314 
  7.453257744972119   2.916063607203232   5.002978606422314 
 12.435070844594502   2.866694116787421   5.002978606422314 
 -1.245212578907124   5.028276181115165  11.673616748318732 
 -2.489238179625041  11.496004238108677  11.673616748318732 
  2.488996139068044  11.496266967750886  11.673616748318732 
  3.734708545951053   5.028004288992061  11.673616748318732 
  7.468217952611147  11.495721972979716  11.673616748318732 
 -4.966166205240154  11.506444099709274   5.002978606422314 
  8.712514335912328   5.028005713089049  11.673616748318732 
 -0.005652302301317  11.503126006292543   5.002978606422314 
  1.215066076929686   4.992811487877010   5.002978606422314 
  0.003360460855368   7.175331086473809   5.002978606422314 
  4.976893208727877  11.513513264169257   5.002978606422314 
 11.201638339996412   5.025095039243534   5.002978606422314 
 -2.489796791989680   7.183986062601746  11.673616748318732 
  3.734607909792214   0.716676354915016  11.673616748318732 
  7.468394644052121   7.183136059909320  11.673616748318732 
  8.712416539517235   0.717044544632521  11.673616748318732 
 13.691354385677737   0.716695045200592  11.673616748318732 
 -0.000116368347791   1.434062934804491   1.667492381809274 
  3.734742208843181   7.901656823910519   1.666234938247080 
  4.979178272420670   1.436497199312429   1.671972335624238 
  8.712281336845892   7.901011828632273   1.668829703266018 
  9.956203701540081   1.435802215975750   1.668536694130255 
 -4.978940170481498  10.057998793857861   8.338511571474131 
 -0.001293124182523  10.059242659756961   8.338647087744715 
  1.244840037400710   3.589348947509540   8.336875418105189 
  4.979407310092779  10.058741250408342   8.339024891857322 
  6.223733531293576   3.592138318152581   8.323390467654676 
 11.200389858624145   3.590284270177488   8.337738604731447 
 -2.490382871471300  10.058775496239312   1.667363989985428 
 -1.245866194988947   3.589928132525126   1.667299025763033 
  3.736102800095798   3.589960725801774   1.673753961941769 
  2.488508106210990  10.059146813194994   1.667130670524558 
  7.469183205693887  10.058092686820350   1.667122791222124 
  8.710834782056775   3.591029710283528   1.673592440592817 
 -6.223098380313432  12.214003233127324   8.338448820855467 
 -1.245445526186139  12.215918386281215   8.337749449144768 
 -0.000866325832059   5.745544773299837   8.337783480098862 
  4.981386607974650   5.742545829067305   8.329194451323515 
  3.733522981901685  12.214896740759601   8.338710021990142 
  9.955040634050595   5.745259924614436   8.336127653475536 
 -2.491304461004996   5.745811487360494   1.667481692496360 
 -3.734043010281817  12.214728743977256   1.668094800871243 
  1.243551805093053  12.215817897245342   1.667732755466964 
  2.490859185548190   5.744140088727637   1.671355468670183 
  6.223702592979495  12.214196648342931   1.667158994209828 
  7.466496676992643   5.743879769338782   1.679084924708649 
 -1.246280847711630   7.902272914932076   8.338629016216183 
 -0.000116368347790   1.434062934804491   8.338464831035354 
  3.734742208843181   7.901656823910520   8.339722274597548 
  4.979178272420671   1.436497199312429   8.333984877220390 
  8.712281336845892   7.901011828632273   8.337127509578703 
 -3.735692790762209   7.901672957421552   1.667478872907111 
  9.956203701540081   1.435802215975750   8.337420518714358 
  2.489953714000197   1.434310546779957   1.669703555381939 
  1.243810601304377   7.902209122169537   1.668394175736242 
  6.225513913809842   7.900974846884634   1.666432230663651 
  7.467208134964510   1.437136925064166   1.671629264296451 
  1.243810601304377   7.902209122169538   8.337563037108387 
 12.446132815194355   1.434812315660779   1.667425163320549 
 -2.490382871471299  10.058775496239312   8.338593222859199 
 -1.245866194988947   3.589928132525127   8.338658187081688 
  3.736102800095798   3.589960725801775   8.332203250902952 
  2.488508106210990  10.059146813194994   8.338826542320083 
  7.469183205693888  10.058092686820350   8.338834421622504 
  8.710834782056775   3.591029710283529   8.332364772251811 
 -4.978940170481499  10.057998793857861   1.667445641370497 
 -0.001293124182523  10.059242659756961   1.667310125099901 
  1.244840037400710   3.589348947509539   1.669081794739425 
  4.979407310092778  10.058741250408342   1.666932320987293 
  6.223733531293576   3.592138318152580   1.682566745189953 
 11.200389858624145   3.590284270177487   1.668218608113181 
 -2.491304461004996   5.745811487360495   8.338475520348254 
 -3.734043010281817  12.214728743977256   8.337862411973372 
  1.243551805093053  12.215817897245342   8.338224457377663 
  2.490859185548191   5.744140088727638   8.334601744174444 
  6.223702592979496  12.214196648342931   8.338798218634800 
 -6.223098380313433  12.214003233127324   1.667508391989160 
  7.466496676992644   5.743879769338783   8.326872288135965 
 -1.245445526186139  12.215918386281215   1.668207763699859 
 -0.000866325832059   5.745544773299836   1.668173732745766 
 -1.246280847711630   7.902272914932075   1.667328196628445 
  4.981386607974649   5.742545829067304   1.676762761521020 
  3.733522981901684  12.214896740759601   1.667247190854485 
  9.955040634050595   5.745259924614435   1.669829559369079 
 -3.735692790762209   7.901672957421553   8.338478339937518 
  2.489953714000198   1.434310546779958   8.336253657462688 
  6.225513913809843   7.900974846884635   8.339524982180977 
  7.467208134964511   1.437136925064167   8.334327948548177 
 12.446132815194355   1.434812315660779   8.338532049524078 
  1.244458607063579   0.716015190576135   1.669326147133682 
  4.978330576485136   7.183758202957608   1.672599449629765 
  6.222865080272041   0.716331417686585   1.668708814997099 
  9.957239444728582   7.183584895479571   1.666975952406089 
 11.202039531265713   0.715925338452582   1.667890832758758 
 -3.734376760712481   9.339582616649189   8.338525976741893 
  1.244213155471200   9.339395265660951   8.336285421737065 
  2.488889867108389   2.871701421647549   8.331135881065588 
  6.223482472279633   9.339911079742995   8.336173876950770 
  7.467719669983910   2.871846499727679   8.335434155547691 
 12.446785958410008   2.871554545507027   8.338354617768054 
 -1.245110256272133   9.339513378620900   1.668045831825921 
 -0.000200759533292   2.871535196953364   1.669709313061228 
  4.977861429166867   2.871919609129415   1.671665381969694 
  3.733707083224872   9.339591243427469   1.670950552255802 
  8.712761273602760   9.339808291331419   1.667705935046447 
  9.957302920212799   2.871620564923843   1.667696391718415 
 -4.978995495030447  11.495644483216561   8.337665915634560 
 -0.000522434962315  11.495655514818944   8.337964334212989 
  1.244393340228739   5.027093314298472   8.332368540263118 
  6.222550913977114   5.027742004661293   8.342720607550012 
  4.978666634691498  11.495537667803534   8.337149044201858 
 11.201896346532005   5.027467588788316   8.338587153218070 
 -1.244935088689356   5.027390199091072   1.668702214358579 
 -2.489814928458699  11.495656264808646   1.667638343544804 
  2.488949892699593  11.495505899816207   1.668461851816974 
  3.733238223590522   5.027150998063989   1.675085563880170 
  7.468157617793686  11.495695139311945   1.668344365405687 
  8.712569731690209   5.027425952892119   1.668474519199817 
 -0.000325865287961   7.183287919046432   8.335856870972046 
  1.244458607063580   0.716015190576135   8.336631065710947 
  4.978330576485137   7.183758202957609   8.333357763214863 
  6.222865080272042   0.716331417686585   8.337248397847528 
  9.957239444728582   7.183584895479572   8.338981260438537 
 -2.489794683950580   7.183439102240088   1.667648104377598 
 11.202039531265713   0.715925338452582   8.338066380085868 
  3.733545030384977   0.716307720485165   1.669625816533424 
  2.489141282097458   7.183255013368128   1.674957016764870 
  7.467834035862044   7.184018765614423   1.668070359780540 
  8.712332601067681   0.716195566678388   1.668005154044809 
  2.489141282097459   7.183255013368129   8.331000196079945 
 13.691612429874645   0.715900401137153   1.668348841668065 
 -1.245110256272132   9.339513378620900   8.337911381018705 
 -0.000200759533292   2.871535196953365   8.336247899783492 
  4.977861429166868   2.871919609129415   8.334291830874934 
  3.733707083224873   9.339591243427469   8.335006660588824 
  8.712761273602760   9.339808291331419   8.338251277798166 
  9.957302920212799   2.871620564923844   8.338260821126212 
 -3.734376760712481   9.339582616649189   1.667431236102735 
  1.244213155471200   9.339395265660951   1.669671791107563 
  2.488889867108388   2.871701421647548   1.674821331779039 
  6.223482472279632   9.339911079742995   1.669783335893858 
  7.467719669983909   2.871846499727678   1.670523057296937 
 12.446785958410008   2.871554545507026   1.667602595076573 