B C N                                   
   1.0000000000000000     
     8.7639499999999995  -15.1796066749929999    0.0000000000000000
     8.7639499999999995   15.1796066749929999    0.0000000000000000
     0.0000000000000000    0.0000000000000000   15.0000000000000000
   B    C    N 
    48     2    48
Selective dynamics
Direct
  0.9047211667810148  0.9523181766689357  0.1110012175267587   T   T   T
  0.9048024844183966  0.0951992844526051  0.1110437418243334   T   T   T
  0.9048210815624659  0.2380560998197845  0.1110489777476184   T   T   T
  0.9048335647603580  0.3809073700713834  0.1109878507566553   T   T   T
  0.9050149465286721  0.5237904855778922  0.1109941833519634   T   T   T
  0.9051061287321635  0.6667812861893255  0.1110790050560397   T   T   T
  0.9052053120831557  0.8099118481578729  0.1110662368150430   T   T   T
  0.0476319580264750  0.9523697641295251  0.1109937314395932   T   T   T
  0.0476835290980622  0.0952805354109866  0.1110012187167614   T   T   T
  0.0477070625353853  0.2381049737486840  0.1109872395207529   T   T   T
  0.0476675798634262  0.3809297471185462  0.1110045642158130   T   T   T
  0.0476876492632829  0.5237954550613615  0.1110002588105716   T   T   T
  0.0477082348375043  0.6666946910165749  0.1110101657713915   T   T   T
  0.0477488137552676  0.8095796136775384  0.1109809027340451   T   T   T
  0.1904221293424550  0.9522529382837369  0.1109808991980434   T   T   T
  0.1900898621521293  0.0947964313738427  0.1110662347540427   T   T   T
  0.1907816340961783  0.2382732688221333  0.1110080931436480   T   T   T
  0.1905428960074260  0.3810843745727922  0.1109965596880556   T   T   T
  0.1904166799828136  0.5238540981126156  0.1110890303461557   T   T   T
  0.1903313719156819  0.6667342595286935  0.1110917324633649   T   T   T
  0.1904608265523164  0.8095408097856821  0.1109915481994996   T   T   T
  0.3333069764454266  0.9522934065214945  0.1110101628883927   T   T   T
  0.3332204656576762  0.0948956110168320  0.1110790040520429   T   T   T
  0.3323195296269760  0.2368500144657728  0.1110967565277177   T   T   T
  0.3342277945971919  0.3811563945425295  0.1110093734640123   T   T   T
  0.3329774158674562  0.5245418998199041  0.1110600217042717   T   T   T
  0.3329570242540932  0.6670447983579060  0.1111634123872866   T   T   T
  0.3332673924972999  0.8096703126713161  0.1110917306813664   T   T   T
  0.4762061888546391  0.9523139421877201  0.1110002641065735   T   T   T
  0.4762112348431047  0.0949867226963279  0.1109941973719663   T   T   T
  0.4760923892795164  0.2374548417732019  0.1110383612652087   T   T   T
  0.4743473541476451  0.3783652370631556  0.1108515673038298   T   T   T
  0.4754598291690940  0.6670243463835396  0.1110600213752691   T   T   T
  0.4761476888983860  0.8095851498461821  0.1110890303211517   T   T   T
  0.6190719977714536  0.9523341478605716  0.1110045669488161   T   T   T
  0.6190942879656168  0.0951680491456428  0.1109878579746540   T   T   T
  0.6190806150635574  0.2380001266257417  0.1110126659584163   T   T   T
  0.6190405943631742  0.3809612049158235  0.1109439978254946   T   T   T
  0.6216364970018461  0.5256542815633564  0.1108515671298250   T   T   T
  0.6188452630834713  0.6657738033368031  0.1110093710500144   T   T   T
  0.6189173501572056  0.8094588676055735  0.1109965578530577   T   T   T
  0.7618967488533094  0.9522946857146147  0.1109872418747526   T   T   T
  0.7619456010832145  0.0951806074455361  0.1110489772516169   T   T   T
  0.7619604402650437  0.2380411829659565  0.1110601683671173   T   T   T
  0.7620016057542649  0.3809211095634404  0.1110126593814195   T   T   T
  0.7625470273217995  0.5239093827054886  0.1110383540312087   T   T   T
  0.7631517746122258  0.6676821629300235  0.1110967580867125   T   T   T
  0.7617283868468624  0.8092200296058226  0.1110080941636534   T   T   T
  0.4739166888110256  0.5260848499319742  0.1115898648663611   T   T   T
  0.5221785389844013  0.4778232148875906  0.1108712785993596   T   T   T
  0.9525346786511206  0.9049898263255571  0.1109985755781581   T   T   T
  0.9523810699760619  0.0476206501529373  0.1109934637778602   T   T   T
  0.9524972411266273  0.1904681306530263  0.1110169758924144   T   T   T
  0.9525159517320168  0.3332876993656383  0.1109908313877083   T   T   T
  0.9526123420653154  0.4761295662360011  0.1109341264484357   T   T   T
  0.9526566750019880  0.6190774777602781  0.1110058952344718   T   T   T
  0.9526649808926090  0.7621027157494735  0.1110344555273206   T   T   T
  0.0952488349610956  0.9047529306119076  0.1109394882673335   T   T   T
  0.0950118885934443  0.0474670478418760  0.1109985860851596   T   T   T
  0.0955069554366891  0.1907462587485385  0.1109616755371292   T   T   T
  0.0954599479505043  0.3334184918490242  0.1109692227896508   T   T   T
  0.0953742529967694  0.4761611388140248  0.1110120036530055   T   T   T
  0.0952807690709225  0.6190163403872397  0.1110134276536110   T   T   T
  0.0953387762913487  0.7619230373640271  0.1109596633580273   T   T   T
  0.2380786302629693  0.9046628760876495  0.1109596624350251   T   T   T
  0.2378990274225261  0.0473367964623865  0.1110344453203174   T   T   T
  0.2373015461629748  0.1897773284795284  0.1110630333565733   T   T   T
  0.2390754988295355  0.3343184746961919  0.1109754669146949   T   T   T
  0.2382336390908514  0.4762826882826544  0.1110261840873968   T   T   T
  0.2379384224740194  0.6190861458840172  0.1111143081059783   T   T   T
  0.2380881283707053  0.7619135210722947  0.1110472336429612   T   T   T
  0.3809853032037587  0.9047208541480768  0.1110134183696099   T   T   T
  0.3809242275537204  0.0473449558500166  0.1110059007944758   T   T   T
  0.3806492900612534  0.1898466744081480  0.1110821602167373   T   T   T
  0.3791120251783002  0.3311395785411855  0.1110104596323912   T   T   T
  0.3826858542450907  0.4786876119109257  0.1110641866667480   T   T   T
  0.3805329469272293  0.6194688079077679  0.1111222489332580   T   T   T
  0.3809156528889815  0.7620634363809813  0.1111143149879755   T   T   T
  0.5238406375029816  0.9046275500662310  0.1110120089210049   T   T   T
  0.5238720905849975  0.0473892020406832  0.1109341444454316   T   T   T
  0.5238261553405078  0.1900252141219672  0.1110060217444765   T   T   T
  0.5235028650210811  0.3323476135467113  0.1109130521992314   T   T   T
  0.5213139348630756  0.6173156457179076  0.1110641901997441   T   T   T
  0.5237190480193491  0.7617681739921516  0.1110261790603993   T   T   T
  0.6665832633769706  0.9045418362055009  0.1109692214946511   T   T   T
  0.6667140131243585  0.0474857226499817  0.1109908340987060   T   T   T
  0.6667500272568566  0.1903530802790565  0.1110160871833458   T   T   T
  0.6667095239644487  0.3332922342045503  0.1109830605759296   T   T   T
  0.6676543214202912  0.4764989100059208  0.1109130473562290   T   T   T
  0.6688622166478146  0.6208896229717039  0.1110104609403938   T   T   T
  0.6656831286828057  0.7609261510324716  0.1109754621296941   T   T   T
  0.8092554245094602  0.9044947526503089  0.1109616772101304   T   T   T
  0.8095336391819757  0.0475045420353784  0.1110169793584135   T   T   T
  0.8096147875416345  0.1903868698893652  0.1110515997499842   T   T   T
  0.8096485480449437  0.3332516160041445  0.1110160816673457   T   T   T
  0.8099765109190352  0.4761755626944935  0.1110060024154758   T   T   T
  0.8101551591408518  0.6193524609847464  0.1110821595867346   T   T   T
  0.8102243993644729  0.7627001475000271  0.1110630381085694   T   T   T

  0.00000000E+00  0.00000000E+00  0.00000000E+00
  0.00000000E+00  0.00000000E+00  0.00000000E+00
  0.00000000E+00  0.00000000E+00  0.00000000E+00
  0.00000000E+00  0.00000000E+00  0.00000000E+00
  0.00000000E+00  0.00000000E+00  0.00000000E+00
  0.00000000E+00  0.00000000E+00  0.00000000E+00
  0.00000000E+00  0.00000000E+00  0.00000000E+00
  0.00000000E+00  0.00000000E+00  0.00000000E+00
  0.00000000E+00  0.00000000E+00  0.00000000E+00
  0.00000000E+00  0.00000000E+00  0.00000000E+00
  0.00000000E+00  0.00000000E+00  0.00000000E+00
  0.00000000E+00  0.00000000E+00  0.00000000E+00
  0.00000000E+00  0.00000000E+00  0.00000000E+00
  0.00000000E+00  0.00000000E+00  0.00000000E+00
  0.00000000E+00  0.00000000E+00  0.00000000E+00
  0.00000000E+00  0.00000000E+00  0.00000000E+00
  0.00000000E+00  0.00000000E+00  0.00000000E+00
  0.00000000E+00  0.00000000E+00  0.00000000E+00
  0.00000000E+00  0.00000000E+00  0.00000000E+00
  0.00000000E+00  0.00000000E+00  0.00000000E+00
  0.00000000E+00  0.00000000E+00  0.00000000E+00
  0.00000000E+00  0.00000000E+00  0.00000000E+00
  0.00000000E+00  0.00000000E+00  0.00000000E+00
  0.00000000E+00  0.00000000E+00  0.00000000E+00
  0.00000000E+00  0.00000000E+00  0.00000000E+00
  0.00000000E+00  0.00000000E+00  0.00000000E+00
  0.00000000E+00  0.00000000E+00  0.00000000E+00
  0.00000000E+00  0.00000000E+00  0.00000000E+00
  0.00000000E+00  0.00000000E+00  0.00000000E+00
  0.00000000E+00  0.00000000E+00  0.00000000E+00
  0.00000000E+00  0.00000000E+00  0.00000000E+00
  0.00000000E+00  0.00000000E+00  0.00000000E+00
  0.00000000E+00  0.00000000E+00  0.00000000E+00
  0.00000000E+00  0.00000000E+00  0.00000000E+00
  0.00000000E+00  0.00000000E+00  0.00000000E+00
  0.00000000E+00  0.00000000E+00  0.00000000E+00
  0.00000000E+00  0.00000000E+00  0.00000000E+00
  0.00000000E+00  0.00000000E+00  0.00000000E+00
  0.00000000E+00  0.00000000E+00  0.00000000E+00
  0.00000000E+00  0.00000000E+00  0.00000000E+00
  0.00000000E+00  0.00000000E+00  0.00000000E+00
  0.00000000E+00  0.00000000E+00  0.00000000E+00
  0.00000000E+00  0.00000000E+00  0.00000000E+00
  0.00000000E+00  0.00000000E+00  0.00000000E+00
  0.00000000E+00  0.00000000E+00  0.00000000E+00
  0.00000000E+00  0.00000000E+00  0.00000000E+00
  0.00000000E+00  0.00000000E+00  0.00000000E+00
  0.00000000E+00  0.00000000E+00  0.00000000E+00
  0.00000000E+00  0.00000000E+00  0.00000000E+00
  0.00000000E+00  0.00000000E+00  0.00000000E+00
  0.00000000E+00  0.00000000E+00  0.00000000E+00
  0.00000000E+00  0.00000000E+00  0.00000000E+00
  0.00000000E+00  0.00000000E+00  0.00000000E+00
  0.00000000E+00  0.00000000E+00  0.00000000E+00
  0.00000000E+00  0.00000000E+00  0.00000000E+00
  0.00000000E+00  0.00000000E+00  0.00000000E+00
  0.00000000E+00  0.00000000E+00  0.00000000E+00
  0.00000000E+00  0.00000000E+00  0.00000000E+00
  0.00000000E+00  0.00000000E+00  0.00000000E+00
  0.00000000E+00  0.00000000E+00  0.00000000E+00
  0.00000000E+00  0.00000000E+00  0.00000000E+00
  0.00000000E+00  0.00000000E+00  0.00000000E+00
  0.00000000E+00  0.00000000E+00  0.00000000E+00
  0.00000000E+00  0.00000000E+00  0.00000000E+00
  0.00000000E+00  0.00000000E+00  0.00000000E+00
  0.00000000E+00  0.00000000E+00  0.00000000E+00
  0.00000000E+00  0.00000000E+00  0.00000000E+00
  0.00000000E+00  0.00000000E+00  0.00000000E+00
  0.00000000E+00  0.00000000E+00  0.00000000E+00
  0.00000000E+00  0.00000000E+00  0.00000000E+00
  0.00000000E+00  0.00000000E+00  0.00000000E+00
  0.00000000E+00  0.00000000E+00  0.00000000E+00
  0.00000000E+00  0.00000000E+00  0.00000000E+00
  0.00000000E+00  0.00000000E+00  0.00000000E+00
  0.00000000E+00  0.00000000E+00  0.00000000E+00
  0.00000000E+00  0.00000000E+00  0.00000000E+00
  0.00000000E+00  0.00000000E+00  0.00000000E+00
  0.00000000E+00  0.00000000E+00  0.00000000E+00
  0.00000000E+00  0.00000000E+00  0.00000000E+00
  0.00000000E+00  0.00000000E+00  0.00000000E+00
  0.00000000E+00  0.00000000E+00  0.00000000E+00
  0.00000000E+00  0.00000000E+00  0.00000000E+00
  0.00000000E+00  0.00000000E+00  0.00000000E+00
  0.00000000E+00  0.00000000E+00  0.00000000E+00
  0.00000000E+00  0.00000000E+00  0.00000000E+00
  0.00000000E+00  0.00000000E+00  0.00000000E+00
  0.00000000E+00  0.00000000E+00  0.00000000E+00
  0.00000000E+00  0.00000000E+00  0.00000000E+00
  0.00000000E+00  0.00000000E+00  0.00000000E+00
  0.00000000E+00  0.00000000E+00  0.00000000E+00
  0.00000000E+00  0.00000000E+00  0.00000000E+00
  0.00000000E+00  0.00000000E+00  0.00000000E+00
  0.00000000E+00  0.00000000E+00  0.00000000E+00
  0.00000000E+00  0.00000000E+00  0.00000000E+00
  0.00000000E+00  0.00000000E+00  0.00000000E+00
  0.00000000E+00  0.00000000E+00  0.00000000E+00
  0.00000000E+00  0.00000000E+00  0.00000000E+00
  0.00000000E+00  0.00000000E+00  0.00000000E+00
