Species order: X N B                    
   2.51242800000000     
     5.9449720136058266    0.0000000000000000    0.0000000000000000
    -2.9724860068029120    5.1484967885702053   -0.0000000000000001
     0.0000000000000000    0.0000000000000009    5.3101128803662583
   Ga   N    B 
     1   143   143
Direct
  0.4909225248259714  0.4121279290796498  0.3750000000000000
  0.1111426037105724  0.0555778624443195  0.1249002447307157
  0.6112456803874839  0.5557213670751471  0.1230358456934241
  0.4445028615690410  0.0555711761489493  0.1248867208146532
  0.9444617082186675  0.5555528112816257  0.1249498370273774
  0.7778402986772873  0.0555868160053120  0.1248495244977902
  0.1111281301513086  0.7222307317423189  0.6251054626908470
  0.4445028615690410  0.7222650187534267  0.6251132791853475
  0.2778003996226842  0.2222295483960492  0.6251541315222567
  0.7778318502501482  0.7222919630924420  0.6252786814095419
  0.6111832912619242  0.2222078471464104  0.6253865197539742
  0.9444918362329426  0.2222359770389412  0.6251181153972348
  0.2778139902188330  0.7222383989178450  0.1249011016692837
  0.1111454354017759  0.2222393843675522  0.1249088942675787
  0.4445234219780689  0.2222395661955769  0.1246475695754425
  0.6111832912619242  0.7223087774488430  0.1246134802460258
  0.9444617082186675  0.7222422302703747  0.1249498370273774
  0.7778382847930627  0.2222177375628172  0.1248828323027874
  0.1111365846014631  0.8889114960119748  0.6251002405560049
  0.4444952174911974  0.8889142754122624  0.6251119512771520
  0.2778003996226842  0.3889041845599634  0.6251541315222567
  0.6112456803874839  0.3888576466456655  0.6269641543065758
  0.7778382847930627  0.8889538805635743  0.6251171676972127
  0.9444822870270948  0.3888865785357122  0.6250500310775915
  0.1111426037105724  0.3888980745995819  0.1249002447307157
  0.2778139902188330  0.8889089246343156  0.1249011016692837
  0.6111723864713654  0.8889388788833190  0.1248923133009977
  0.4444498005909310  0.3888915669621297  0.1248511042914856
  0.9444822870270948  0.8889290418247106  0.1249499689224083
  0.7778318502501482  0.3888732204910341  0.1247213185904579
  0.2778260538501618  0.5555767330981041  0.6250630551435786
  0.1111426037105724  0.0555778624443195  0.6250997552692850
  0.6112456803874839  0.5557213670751471  0.6269641543065758
  0.4445028615690410  0.0555711761489493  0.6251132791853475
  0.9444617082186675  0.5555528112816257  0.6250501629726217
  0.1111365846014631  0.5555584219228168  0.1248997594439952
  0.7778402986772873  0.0555868160053120  0.6251504755022104
  0.2778260538501618  0.0555826540853930  0.1249369448564204
  0.4445234219780689  0.5556171891158280  0.1246475695754425
  0.7778138771562682  0.5555736052448028  0.1245224027456817
  0.6111723864713654  0.0555668409213751  0.1248923133009977
  0.4445234219780689  0.5556171891158280  0.6253524304245569
  0.9444918362329426  0.0555891925273359  0.1248818846027663
  0.2778139902188330  0.7222383989178450  0.6250988983307161
  0.1111454354017759  0.2222393843675522  0.6250911057324217
  0.4445234219780689  0.2222395661955769  0.6253524304245569
  0.6111832912619242  0.7223087774488430  0.6253865197539742
  0.9444617082186675  0.7222422302703747  0.6250501629726217
  0.7778382847930627  0.2222177375628172  0.6251171676972127
  0.1111281301513086  0.7222307317423189  0.1248945373091537
  0.4445028615690410  0.7222650187534267  0.1248867208146532
  0.2778003996226842  0.2222295483960492  0.1248458684777442
  0.7778318502501482  0.7222919630924420  0.1247213185904579
  0.6111832912619242  0.2222078471464104  0.1246134802460258
  0.9444918362329426  0.2222359770389412  0.1248818846027663
  0.1111426037105724  0.3888980745995819  0.6250997552692850
  0.2778139902188330  0.8889089246343156  0.6250988983307161
  0.6111723864713654  0.8889388788833190  0.6251076866990021
  0.4444498005909310  0.3888915669621297  0.6251488957085146
  0.9444822870270948  0.8889290418247106  0.6250500310775915
  0.1111365846014631  0.8889114960119748  0.1248997594439952
  0.7778318502501482  0.3888732204910341  0.6252786814095419
  0.4444952174911974  0.8889142754122624  0.1248880487228471
  0.2778003996226842  0.3889041845599634  0.1248458684777442
  0.2778260538501618  0.5555767330981041  0.1249369448564204
  0.6112456803874839  0.3888576466456655  0.1230358456934241
  0.7778382847930627  0.8889538805635743  0.1248828323027874
  0.9444822870270948  0.3888865785357122  0.1249499689224083
  0.1111365846014631  0.5555584219228168  0.6251002405560049
  0.2778260538501618  0.0555826540853930  0.6250630551435786
  0.7778138771562682  0.5555736052448028  0.6254775972543187
  0.6111723864713654  0.0555668409213751  0.6251076866990021
  0.9444918362329426  0.0555891925273359  0.6251181153972348
  0.0584268826009315  0.1126445466008865  0.3750000000000000
  0.5560556439763188  0.6183735598509962  0.3750000000000000
  0.3884120455375380  0.1055446563377843  0.3750000000000000
  0.8875059964421724  0.6104196648877586  0.3750000000000000
  0.7243767697552949  0.1115222999592338  0.3750000000000000
  0.0555517781833573  0.7777751540406802  0.8750000000000000
  0.3888752020118638  0.7777746324629992  0.8750000000000000
  0.2222151337104683  0.2777742335219020  0.8750000000000000
  0.7222131337850236  0.7777698093353670  0.8750000000000000
  0.5555393734074097  0.2777640708680621  0.8750000000000000
  0.8888827231788879  0.2777786568265089  0.8750000000000000
  0.2213059569605460  0.7773196451469412  0.3750000000000000
  0.0584268826009315  0.2791156693333802  0.3750000000000000
  0.3904801769825441  0.2700371726220498  0.3750000000000000
  0.5565124672129033  0.7814637530504781  0.3750000000000000
  0.8890349038270287  0.7780896366278570  0.3750000000000000
  0.7239218503883008  0.2769795081890467  0.3750000000000000
  0.0555474278809646  0.9444366421804914  0.8750000000000000
  0.3888752020118638  0.9444339028821990  0.8750000000000000
  0.2222115165957351  0.4444437690222826  0.8750000000000000
  0.5555399506504571  0.4444366419918929  0.8750000000000000
  0.7222091514396809  0.9444366206972206  0.8750000000000000
  0.8888879026548503  0.4444463993042960  0.8750000000000000
  0.0561646714278468  0.4451028016825030  0.3750000000000000
  0.2214776021397319  0.9426966346208334  0.3750000000000000
  0.5566187725465802  0.9449760529399532  0.3750000000000000
  0.3904801769825441  0.4537763376938305  0.3750000000000000
  0.8910581288072725  0.9460320289642726  0.3750000000000000
  0.7213991359472801  0.4431428632693022  0.3750000000000000
  0.2222100140786881  0.6111091984237202  0.8750000000000000
  0.0555478570178579  0.1111047129374805  0.8750000000000000
  0.5555393734074097  0.6111086358726818  0.8750000000000000
  0.3888751542664796  0.1110967861759858  0.8750000000000000
  0.8888963296209726  0.6111148314771578  0.8750000000000000
  0.0546268702142859  0.6109467567350416  0.3750000000000000
  0.7222091514396809  0.1111058640757960  0.8750000000000000
  0.2232247569535832  0.1101354778817222  0.3750000000000000
  0.3884120455375380  0.6162007225330965  0.3750000000000000
  0.7213991359472801  0.6115896060113130  0.3750000000000000
  0.5565124672129033  0.1083820474957611  0.3750000000000000
  0.3888751542664796  0.6111117014238376  0.8750000000000000
  0.8916085071268136  0.1124709202300784  0.3750000000000000
  0.2222118873346675  0.7777726103340008  0.8750000000000000
  0.0555478570178579  0.2777764774137126  0.8750000000000000
  0.3888805572011257  0.2777689267790468  0.8750000000000000
  0.5555399603274802  0.7777730211226298  0.8750000000000000
  0.8888879026548503  0.7777748366838908  0.8750000000000000
  0.7222131337850236  0.2777766577829930  0.8750000000000000
  0.0546268702142859  0.7770134468125804  0.3750000000000000
  0.3886269323431124  0.7792991498886219  0.3750000000000000
  0.2265889543594374  0.2799611438463863  0.3750000000000000
  0.7239218503883008  0.7802756755325895  0.3750000000000000
  0.5560556439763188  0.2710154174586578  0.3750000000000000
  0.8910581288072725  0.2783594331763355  0.3750000000000000
  0.0555474278809646  0.4444441190338018  0.8750000000000000
  0.2222100140786881  0.9444341489883039  0.8750000000000000
  0.5555390530299926  0.9444361931816609  0.8750000000000000
  0.3888805572011257  0.4444449637554153  0.8750000000000000
  0.8888827231788879  0.9444373996857152  0.8750000000000000
  0.0561646714278468  0.9443952030786721  0.3750000000000000
  0.7222253122319563  0.4444492779494053  0.8750000000000000
  0.3886269323431124  0.9426611157878264  0.3750000000000000
  0.2232247569535832  0.4464226124051968  0.3750000000000000
  0.2214776021397319  0.6121143008522337  0.3750000000000000
  0.7243767697552949  0.9461878031293973  0.3750000000000000
  0.8890349038270287  0.4442786005325069  0.3750000000000000
  0.0555517781833573  0.6111099574760129  0.8750000000000000
  0.2222115165957351  0.1111010809067879  0.8750000000000000
  0.7222253122319563  0.6111093676158869  0.8750000000000000
  0.5555399603274802  0.1111002725381860  0.8750000000000000
  0.8888814229636818  0.1111073781485126  0.8750000000000000
  0.1129303529579130  0.0559045479407841  0.3750000000000000
  0.6101347988862059  0.5615187763551421  0.3750000000000000
  0.4451112500366444  0.0527953901777258  0.3750000000000000
  0.9434338273886113  0.5552937541991034  0.3750000000000000
  0.7804572057675789  0.0568952695504573  0.3750000000000000
  0.1110995556507411  0.7222164444920349  0.8750000000000000
  0.4444293808615439  0.7221862961623341  0.8750000000000000
  0.2778204974988116  0.2222550318685353  0.8750000000000000
  0.7777342459814613  0.7221646456087740  0.8750000000000000
  0.6110729892285921  0.2222496091201807  0.8750000000000000
  0.9444522910497345  0.2222327791533596  0.8750000000000000
  0.2774538547084079  0.7227916864672727  0.3750000000000000
  0.1157281275350417  0.2245307304341851  0.3750000000000000
  0.4440488757716194  0.2157616150030393  0.3750000000000000
  0.6125562643645672  0.7269517790246418  0.3750000000000000
  0.9434338273886113  0.7214734065228435  0.3750000000000000
  0.7799783088598882  0.2225644500672509  0.3750000000000000
  0.1111102879765437  0.8888917709963757  0.8750000000000000
  0.4444251854030998  0.8888792593682142  0.8750000000000000
  0.2778204974988116  0.3888987989636052  0.8750000000000000
  0.6110670007252926  0.3888999406893496  0.8750000000000000
  0.7777521325599861  0.8888483995861605  0.8750000000000000
  0.9444345616649665  0.3888976436853236  0.8750000000000000
  0.1129303529579130  0.3903591383504574  0.3750000000000000
  0.2774538547084079  0.8879955015744636  0.3750000000000000
  0.6130198649827300  0.8911399010624556  0.3750000000000000
  0.9452943902253740  0.8892641850923619  0.3750000000000000
  0.7777321421176183  0.3883777707552009  0.3750000000000000
  0.2777915311145265  0.5555418872694869  0.8750000000000000
  0.1111344346809873  0.0555709741147324  0.8750000000000000
  0.6110670007252926  0.5555003933692712  0.8750000000000000
  0.4444293808615439  0.0555764180325459  0.8750000000000000
  0.9444195746429659  0.5555507343725581  0.8750000000000000
  0.1107215869762475  0.5560200209443589  0.3750000000000000
  0.7777610285444242  0.0555471809388796  0.8750000000000000
  0.2778207950147211  0.0536977082402691  0.3750000000000000
  0.4440488757716194  0.5616205941019157  0.3750000000000000
  0.7754880826250539  0.5544107079791946  0.3750000000000000
  0.6130198649827300  0.0552132972536024  0.3750000000000000
  0.4444470964258014  0.5555226536492239  0.8750000000000000
  0.9474911255712611  0.0572676034234516  0.3750000000000000
  0.2777717568633244  0.7222093992226396  0.8750000000000000
  0.1111505625565013  0.2222419479449152  0.8750000000000000
  0.4444470964258014  0.2222577761099126  0.8750000000000000
  0.6110729892285921  0.7221567134417396  0.8750000000000000
  0.9444195746429659  0.7222021736037436  0.8750000000000000
  0.7777521325599861  0.2222370663071552  0.8750000000000000
  0.1102471654564226  0.7217902493948748  0.3750000000000000
  0.4451112500366444  0.7256491931922550  0.3750000000000000
  0.2822428853564030  0.2228350639804579  0.3750000000000000
  0.7777321421176183  0.7226877046957452  0.3750000000000000
  0.6125562643645672  0.2189378186732551  0.3750000000000000
  0.9474911255712611  0.2235568554811453  0.3750000000000000
  0.1111344346809873  0.3888967938995837  0.8750000000000000
  0.2777717568633244  0.8888956909740133  0.8750000000000000
  0.6110826665196177  0.8888568901669688  0.8750000000000000
  0.4444660731705263  0.3888997032519270  0.8750000000000000
  0.9444345616649665  0.8888702513129727  0.8750000000000000
  0.1107215869762475  0.8880348993652173  0.3750000000000000
  0.7777342459814613  0.3889029337060172  0.8750000000000000
  0.4451897750467523  0.8892615541900413  0.3750000000000000
  0.2822428853564030  0.3927411547092734  0.3750000000000000
  0.2778207950147211  0.5574564201077868  0.3750000000000000
  0.6101347988862059  0.3819493558643922  0.3750000000000000
  0.7799783088598881  0.8907471921259661  0.3750000000000000
  0.9452943902253740  0.3893635384663408  0.3750000000000000
  0.1111102879765437  0.5555518503134960  0.8750000000000000
  0.2777915311145265  0.0555829771783750  0.8750000000000000
  0.7777295935256541  0.5555314634294940  0.8750000000000000
  0.6110826665196177  0.0555591096859780  0.8750000000000000
  0.9444522910497345  0.0555528452297102  0.8750000000000000
  0.0556615819299248  0.1111934090933343  0.1251363909096480
  0.5556325500376489  0.6110308177289281  0.1246773406152049
  0.3890142501553264  0.1113028893958978  0.1252197132195577
  0.8887577612575192  0.6110455472954306  0.1251103397116311
  0.7222660528596121  0.1111390438095671  0.1250553868500345
  0.0555370017894980  0.7777926949453411  0.6249131861202216
  0.3889691581312039  0.7777699201795674  0.6249139266794426
  0.2223917357552296  0.2778625345442828  0.6246447759267999
  0.7222085597945539  0.7777496052360617  0.6250032310648054
  0.5556325500376489  0.2779350656420564  0.6253226593847954
  0.8889214956406106  0.2777759881889385  0.6249108620300742
  0.2222655751675516  0.7777994542504441  0.1250497964664328
  0.0556615819299248  0.2778015061699259  0.1251363909096480
  0.3889997333790349  0.2778797457239822  0.1256218485380675
  0.5556207292378138  0.7777467937012608  0.1250838961395953
  0.8888376408859172  0.7777664916771319  0.1251150272527427
  0.7222085597945539  0.2777922878918269  0.1249967689351953
  0.0556057381162102  0.9445227504910736  0.6248846398672624
  0.3889691581312039  0.9445325712849718  0.6249139266794426
  0.2223579786219952  0.4444192581506499  0.6247396911192593
  0.5557008002073482  0.4445170667703384  0.6243326300858698
  0.7222660528596121  0.9444603423833813  0.6249446131499660
  0.8888376408859172  0.4444044825421223  0.6248849727472572
  0.0556057381162102  0.4444163209584645  0.1251153601327376
  0.2223014216805254  0.9445640707784894  0.1251180032576858
  0.5556195690212147  0.9444764511772715  0.1250799462402016
  0.3889997333790349  0.4444533209883883  0.1256218485380675
  0.8889214956406106  0.9444788407850078  0.1250891379699258
  0.7220831869536037  0.4443845477178753  0.1245140488008499
  0.2223014216805255  0.6110706842353705  0.6248819967423143
  0.0556615819299248  0.1111934090933343  0.6248636090903523
  0.5556325500376489  0.6110308177289281  0.6253226593847954
  0.3890142501553264  0.1113028893958978  0.6247802867804412
  0.8887577612575192  0.6110455472954306  0.6248896602883685
  0.0555370017894980  0.6110776401774922  0.1250868138797783
  0.7222660528596121  0.1111390438095671  0.6249446131499660
  0.2223579786219952  0.1112720538046809  0.1252603088807403
  0.3890142501553264  0.6110446940927720  0.1252197132195577
  0.7220831869536037  0.6110319725690638  0.1245140488008499
  0.5556207292378138  0.1112072688698897  0.1250838961395953
  0.3890142501553264  0.6110446940927720  0.6247802867804412
  0.8889538422716806  0.1111435878025121  0.1250431085785047
  0.2222655751675516  0.7777994542504441  0.6249502035335672
  0.0556615819299248  0.2778015061699259  0.6248636090903523
  0.3889997333790349  0.2778797457239822  0.6243781514619320
  0.5556207292378138  0.7777467937012608  0.6249161038604050
  0.8888376408859172  0.7777664916771319  0.6248849727472572
  0.7222085597945539  0.2777922878918269  0.6250032310648054
  0.0555370017894980  0.7777926949453411  0.1250868138797783
  0.3889691581312039  0.7777699201795674  0.1250860733205578
  0.2223917357552296  0.2778625345442828  0.1253552240732002
  0.7222085597945539  0.7777496052360617  0.1249967689351953
  0.5556325500376489  0.2779350656420564  0.1246773406152049
  0.8889214956406106  0.2777759881889385  0.1250891379699258
  0.0556057381162102  0.4444163209584645  0.6248846398672624
  0.2223014216805254  0.9445640707784894  0.6248819967423143
  0.5556195690212147  0.9444764511772715  0.6249200537597990
  0.3889997333790349  0.4444533209883883  0.6243781514619320
  0.8889214956406106  0.9444788407850078  0.6249108620300742
  0.0556057381162102  0.9445227504910736  0.1251153601327376
  0.7220831869536037  0.4443845477178753  0.6254859511991498
  0.3889691581312039  0.9445325712849718  0.1250860733205578
  0.2223579786219952  0.4444192581506499  0.1252603088807403
  0.2223014216805255  0.6110706842353705  0.1251180032576858
  0.5557008002073482  0.4445170667703384  0.1256673699141296
  0.7222660528596121  0.9444603423833813  0.1250553868500345
  0.8888376408859172  0.4444044825421223  0.1251150272527427
  0.0555370017894980  0.6110776401774922  0.6249131861202216
  0.2223579786219952  0.1112720538046809  0.6247396911192593
  0.7220831869536037  0.6110319725690638  0.6254859511991498
  0.5556207292378138  0.1112072688698897  0.6249161038604050
  0.8889538422716806  0.1111435878025121  0.6249568914214964
 
  0.00000000E+00  0.00000000E+00  0.00000000E+00
  0.00000000E+00  0.00000000E+00  0.00000000E+00
  0.00000000E+00  0.00000000E+00  0.00000000E+00
  0.00000000E+00  0.00000000E+00  0.00000000E+00
  0.00000000E+00  0.00000000E+00  0.00000000E+00
  0.00000000E+00  0.00000000E+00  0.00000000E+00
  0.00000000E+00  0.00000000E+00  0.00000000E+00
  0.00000000E+00  0.00000000E+00  0.00000000E+00
  0.00000000E+00  0.00000000E+00  0.00000000E+00
  0.00000000E+00  0.00000000E+00  0.00000000E+00
  0.00000000E+00  0.00000000E+00  0.00000000E+00
  0.00000000E+00  0.00000000E+00  0.00000000E+00
  0.00000000E+00  0.00000000E+00  0.00000000E+00
  0.00000000E+00  0.00000000E+00  0.00000000E+00
  0.00000000E+00  0.00000000E+00  0.00000000E+00
  0.00000000E+00  0.00000000E+00  0.00000000E+00
  0.00000000E+00  0.00000000E+00  0.00000000E+00
  0.00000000E+00  0.00000000E+00  0.00000000E+00
  0.00000000E+00  0.00000000E+00  0.00000000E+00
  0.00000000E+00  0.00000000E+00  0.00000000E+00
  0.00000000E+00  0.00000000E+00  0.00000000E+00
  0.00000000E+00  0.00000000E+00  0.00000000E+00
  0.00000000E+00  0.00000000E+00  0.00000000E+00
  0.00000000E+00  0.00000000E+00  0.00000000E+00
  0.00000000E+00  0.00000000E+00  0.00000000E+00
  0.00000000E+00  0.00000000E+00  0.00000000E+00
  0.00000000E+00  0.00000000E+00  0.00000000E+00
  0.00000000E+00  0.00000000E+00  0.00000000E+00
  0.00000000E+00  0.00000000E+00  0.00000000E+00
  0.00000000E+00  0.00000000E+00  0.00000000E+00
  0.00000000E+00  0.00000000E+00  0.00000000E+00
  0.00000000E+00  0.00000000E+00  0.00000000E+00
  0.00000000E+00  0.00000000E+00  0.00000000E+00
  0.00000000E+00  0.00000000E+00  0.00000000E+00
  0.00000000E+00  0.00000000E+00  0.00000000E+00
  0.00000000E+00  0.00000000E+00  0.00000000E+00
  0.00000000E+00  0.00000000E+00  0.00000000E+00
  0.00000000E+00  0.00000000E+00  0.00000000E+00
  0.00000000E+00  0.00000000E+00  0.00000000E+00
  0.00000000E+00  0.00000000E+00  0.00000000E+00
  0.00000000E+00  0.00000000E+00  0.00000000E+00
  0.00000000E+00  0.00000000E+00  0.00000000E+00
  0.00000000E+00  0.00000000E+00  0.00000000E+00
  0.00000000E+00  0.00000000E+00  0.00000000E+00
  0.00000000E+00  0.00000000E+00  0.00000000E+00
  0.00000000E+00  0.00000000E+00  0.00000000E+00
  0.00000000E+00  0.00000000E+00  0.00000000E+00
  0.00000000E+00  0.00000000E+00  0.00000000E+00
  0.00000000E+00  0.00000000E+00  0.00000000E+00
  0.00000000E+00  0.00000000E+00  0.00000000E+00
  0.00000000E+00  0.00000000E+00  0.00000000E+00
  0.00000000E+00  0.00000000E+00  0.00000000E+00
  0.00000000E+00  0.00000000E+00  0.00000000E+00
  0.00000000E+00  0.00000000E+00  0.00000000E+00
  0.00000000E+00  0.00000000E+00  0.00000000E+00
  0.00000000E+00  0.00000000E+00  0.00000000E+00
  0.00000000E+00  0.00000000E+00  0.00000000E+00
  0.00000000E+00  0.00000000E+00  0.00000000E+00
  0.00000000E+00  0.00000000E+00  0.00000000E+00
  0.00000000E+00  0.00000000E+00  0.00000000E+00
  0.00000000E+00  0.00000000E+00  0.00000000E+00
  0.00000000E+00  0.00000000E+00  0.00000000E+00
  0.00000000E+00  0.00000000E+00  0.00000000E+00
  0.00000000E+00  0.00000000E+00  0.00000000E+00
  0.00000000E+00  0.00000000E+00  0.00000000E+00
  0.00000000E+00  0.00000000E+00  0.00000000E+00
  0.00000000E+00  0.00000000E+00  0.00000000E+00
  0.00000000E+00  0.00000000E+00  0.00000000E+00
  0.00000000E+00  0.00000000E+00  0.00000000E+00
  0.00000000E+00  0.00000000E+00  0.00000000E+00
  0.00000000E+00  0.00000000E+00  0.00000000E+00
  0.00000000E+00  0.00000000E+00  0.00000000E+00
  0.00000000E+00  0.00000000E+00  0.00000000E+00
  0.00000000E+00  0.00000000E+00  0.00000000E+00
  0.00000000E+00  0.00000000E+00  0.00000000E+00
  0.00000000E+00  0.00000000E+00  0.00000000E+00
  0.00000000E+00  0.00000000E+00  0.00000000E+00
  0.00000000E+00  0.00000000E+00  0.00000000E+00
  0.00000000E+00  0.00000000E+00  0.00000000E+00
  0.00000000E+00  0.00000000E+00  0.00000000E+00
  0.00000000E+00  0.00000000E+00  0.00000000E+00
  0.00000000E+00  0.00000000E+00  0.00000000E+00
  0.00000000E+00  0.00000000E+00  0.00000000E+00
  0.00000000E+00  0.00000000E+00  0.00000000E+00
  0.00000000E+00  0.00000000E+00  0.00000000E+00
  0.00000000E+00  0.00000000E+00  0.00000000E+00
  0.00000000E+00  0.00000000E+00  0.00000000E+00
  0.00000000E+00  0.00000000E+00  0.00000000E+00
  0.00000000E+00  0.00000000E+00  0.00000000E+00
  0.00000000E+00  0.00000000E+00  0.00000000E+00
  0.00000000E+00  0.00000000E+00  0.00000000E+00
  0.00000000E+00  0.00000000E+00  0.00000000E+00
  0.00000000E+00  0.00000000E+00  0.00000000E+00
  0.00000000E+00  0.00000000E+00  0.00000000E+00
  0.00000000E+00  0.00000000E+00  0.00000000E+00
  0.00000000E+00  0.00000000E+00  0.00000000E+00
  0.00000000E+00  0.00000000E+00  0.00000000E+00
  0.00000000E+00  0.00000000E+00  0.00000000E+00
  0.00000000E+00  0.00000000E+00  0.00000000E+00
  0.00000000E+00  0.00000000E+00  0.00000000E+00
  0.00000000E+00  0.00000000E+00  0.00000000E+00
  0.00000000E+00  0.00000000E+00  0.00000000E+00
  0.00000000E+00  0.00000000E+00  0.00000000E+00
  0.00000000E+00  0.00000000E+00  0.00000000E+00
  0.00000000E+00  0.00000000E+00  0.00000000E+00
  0.00000000E+00  0.00000000E+00  0.00000000E+00
  0.00000000E+00  0.00000000E+00  0.00000000E+00
  0.00000000E+00  0.00000000E+00  0.00000000E+00
  0.00000000E+00  0.00000000E+00  0.00000000E+00
  0.00000000E+00  0.00000000E+00  0.00000000E+00
  0.00000000E+00  0.00000000E+00  0.00000000E+00
  0.00000000E+00  0.00000000E+00  0.00000000E+00
  0.00000000E+00  0.00000000E+00  0.00000000E+00
  0.00000000E+00  0.00000000E+00  0.00000000E+00
  0.00000000E+00  0.00000000E+00  0.00000000E+00
  0.00000000E+00  0.00000000E+00  0.00000000E+00
  0.00000000E+00  0.00000000E+00  0.00000000E+00
  0.00000000E+00  0.00000000E+00  0.00000000E+00
  0.00000000E+00  0.00000000E+00  0.00000000E+00
  0.00000000E+00  0.00000000E+00  0.00000000E+00
  0.00000000E+00  0.00000000E+00  0.00000000E+00
  0.00000000E+00  0.00000000E+00  0.00000000E+00
  0.00000000E+00  0.00000000E+00  0.00000000E+00
  0.00000000E+00  0.00000000E+00  0.00000000E+00
  0.00000000E+00  0.00000000E+00  0.00000000E+00
  0.00000000E+00  0.00000000E+00  0.00000000E+00
  0.00000000E+00  0.00000000E+00  0.00000000E+00
  0.00000000E+00  0.00000000E+00  0.00000000E+00
  0.00000000E+00  0.00000000E+00  0.00000000E+00
  0.00000000E+00  0.00000000E+00  0.00000000E+00
  0.00000000E+00  0.00000000E+00  0.00000000E+00
  0.00000000E+00  0.00000000E+00  0.00000000E+00
  0.00000000E+00  0.00000000E+00  0.00000000E+00
  0.00000000E+00  0.00000000E+00  0.00000000E+00
  0.00000000E+00  0.00000000E+00  0.00000000E+00
  0.00000000E+00  0.00000000E+00  0.00000000E+00
  0.00000000E+00  0.00000000E+00  0.00000000E+00
  0.00000000E+00  0.00000000E+00  0.00000000E+00
  0.00000000E+00  0.00000000E+00  0.00000000E+00
  0.00000000E+00  0.00000000E+00  0.00000000E+00
  0.00000000E+00  0.00000000E+00  0.00000000E+00
  0.00000000E+00  0.00000000E+00  0.00000000E+00
  0.00000000E+00  0.00000000E+00  0.00000000E+00
  0.00000000E+00  0.00000000E+00  0.00000000E+00
  0.00000000E+00  0.00000000E+00  0.00000000E+00
  0.00000000E+00  0.00000000E+00  0.00000000E+00
  0.00000000E+00  0.00000000E+00  0.00000000E+00
  0.00000000E+00  0.00000000E+00  0.00000000E+00
  0.00000000E+00  0.00000000E+00  0.00000000E+00
  0.00000000E+00  0.00000000E+00  0.00000000E+00
  0.00000000E+00  0.00000000E+00  0.00000000E+00
  0.00000000E+00  0.00000000E+00  0.00000000E+00
  0.00000000E+00  0.00000000E+00  0.00000000E+00
  0.00000000E+00  0.00000000E+00  0.00000000E+00
  0.00000000E+00  0.00000000E+00  0.00000000E+00
  0.00000000E+00  0.00000000E+00  0.00000000E+00
  0.00000000E+00  0.00000000E+00  0.00000000E+00
  0.00000000E+00  0.00000000E+00  0.00000000E+00
  0.00000000E+00  0.00000000E+00  0.00000000E+00
  0.00000000E+00  0.00000000E+00  0.00000000E+00
  0.00000000E+00  0.00000000E+00  0.00000000E+00
  0.00000000E+00  0.00000000E+00  0.00000000E+00
  0.00000000E+00  0.00000000E+00  0.00000000E+00
  0.00000000E+00  0.00000000E+00  0.00000000E+00
  0.00000000E+00  0.00000000E+00  0.00000000E+00
  0.00000000E+00  0.00000000E+00  0.00000000E+00
  0.00000000E+00  0.00000000E+00  0.00000000E+00
  0.00000000E+00  0.00000000E+00  0.00000000E+00
  0.00000000E+00  0.00000000E+00  0.00000000E+00
  0.00000000E+00  0.00000000E+00  0.00000000E+00
  0.00000000E+00  0.00000000E+00  0.00000000E+00
  0.00000000E+00  0.00000000E+00  0.00000000E+00
  0.00000000E+00  0.00000000E+00  0.00000000E+00
  0.00000000E+00  0.00000000E+00  0.00000000E+00
  0.00000000E+00  0.00000000E+00  0.00000000E+00
  0.00000000E+00  0.00000000E+00  0.00000000E+00
  0.00000000E+00  0.00000000E+00  0.00000000E+00
  0.00000000E+00  0.00000000E+00  0.00000000E+00
  0.00000000E+00  0.00000000E+00  0.00000000E+00
  0.00000000E+00  0.00000000E+00  0.00000000E+00
  0.00000000E+00  0.00000000E+00  0.00000000E+00
  0.00000000E+00  0.00000000E+00  0.00000000E+00
  0.00000000E+00  0.00000000E+00  0.00000000E+00
  0.00000000E+00  0.00000000E+00  0.00000000E+00
  0.00000000E+00  0.00000000E+00  0.00000000E+00
  0.00000000E+00  0.00000000E+00  0.00000000E+00
  0.00000000E+00  0.00000000E+00  0.00000000E+00
  0.00000000E+00  0.00000000E+00  0.00000000E+00
  0.00000000E+00  0.00000000E+00  0.00000000E+00
  0.00000000E+00  0.00000000E+00  0.00000000E+00
  0.00000000E+00  0.00000000E+00  0.00000000E+00
  0.00000000E+00  0.00000000E+00  0.00000000E+00
  0.00000000E+00  0.00000000E+00  0.00000000E+00
  0.00000000E+00  0.00000000E+00  0.00000000E+00
  0.00000000E+00  0.00000000E+00  0.00000000E+00
  0.00000000E+00  0.00000000E+00  0.00000000E+00
  0.00000000E+00  0.00000000E+00  0.00000000E+00
  0.00000000E+00  0.00000000E+00  0.00000000E+00
  0.00000000E+00  0.00000000E+00  0.00000000E+00
  0.00000000E+00  0.00000000E+00  0.00000000E+00
  0.00000000E+00  0.00000000E+00  0.00000000E+00
  0.00000000E+00  0.00000000E+00  0.00000000E+00
  0.00000000E+00  0.00000000E+00  0.00000000E+00
  0.00000000E+00  0.00000000E+00  0.00000000E+00
  0.00000000E+00  0.00000000E+00  0.00000000E+00
  0.00000000E+00  0.00000000E+00  0.00000000E+00
  0.00000000E+00  0.00000000E+00  0.00000000E+00
  0.00000000E+00  0.00000000E+00  0.00000000E+00
  0.00000000E+00  0.00000000E+00  0.00000000E+00
  0.00000000E+00  0.00000000E+00  0.00000000E+00
  0.00000000E+00  0.00000000E+00  0.00000000E+00
  0.00000000E+00  0.00000000E+00  0.00000000E+00
  0.00000000E+00  0.00000000E+00  0.00000000E+00
  0.00000000E+00  0.00000000E+00  0.00000000E+00
  0.00000000E+00  0.00000000E+00  0.00000000E+00
  0.00000000E+00  0.00000000E+00  0.00000000E+00
  0.00000000E+00  0.00000000E+00  0.00000000E+00
  0.00000000E+00  0.00000000E+00  0.00000000E+00
  0.00000000E+00  0.00000000E+00  0.00000000E+00
  0.00000000E+00  0.00000000E+00  0.00000000E+00
  0.00000000E+00  0.00000000E+00  0.00000000E+00
  0.00000000E+00  0.00000000E+00  0.00000000E+00
  0.00000000E+00  0.00000000E+00  0.00000000E+00
  0.00000000E+00  0.00000000E+00  0.00000000E+00
  0.00000000E+00  0.00000000E+00  0.00000000E+00
  0.00000000E+00  0.00000000E+00  0.00000000E+00
  0.00000000E+00  0.00000000E+00  0.00000000E+00
  0.00000000E+00  0.00000000E+00  0.00000000E+00
  0.00000000E+00  0.00000000E+00  0.00000000E+00
  0.00000000E+00  0.00000000E+00  0.00000000E+00
  0.00000000E+00  0.00000000E+00  0.00000000E+00
  0.00000000E+00  0.00000000E+00  0.00000000E+00
  0.00000000E+00  0.00000000E+00  0.00000000E+00
  0.00000000E+00  0.00000000E+00  0.00000000E+00
  0.00000000E+00  0.00000000E+00  0.00000000E+00
  0.00000000E+00  0.00000000E+00  0.00000000E+00
  0.00000000E+00  0.00000000E+00  0.00000000E+00
  0.00000000E+00  0.00000000E+00  0.00000000E+00
  0.00000000E+00  0.00000000E+00  0.00000000E+00
  0.00000000E+00  0.00000000E+00  0.00000000E+00
  0.00000000E+00  0.00000000E+00  0.00000000E+00
  0.00000000E+00  0.00000000E+00  0.00000000E+00
  0.00000000E+00  0.00000000E+00  0.00000000E+00
  0.00000000E+00  0.00000000E+00  0.00000000E+00
  0.00000000E+00  0.00000000E+00  0.00000000E+00
  0.00000000E+00  0.00000000E+00  0.00000000E+00
  0.00000000E+00  0.00000000E+00  0.00000000E+00
  0.00000000E+00  0.00000000E+00  0.00000000E+00