B C N                                   
   1.0000000000000000     
     8.7639499999999995  -15.1796066749929999    0.0000000000000000
     8.7639499999999995   15.1796066749929999    0.0000000000000000
     0.0000000000000000    0.0000000000000000   15.0000000000000000
   B    C    N 
    47     4    47
Selective dynamics
Direct
  0.9045382449089843  0.9522383663156546  0.1110113279196838   T   T   T
  0.9046677424438272  0.0952838028302523  0.1110479057819092   T   T   T
  0.9046395715673015  0.2381619596691777  0.1110495726714618   T   T   T
  0.9044290537506825  0.3809983634416199  0.1109925042118576   T   T   T
  0.9055130505416145  0.5240667841825442  0.1110258821979571   T   T   T
  0.9044053745036749  0.6660820269468175  0.1110577226586571   T   T   T
  0.9048792958878664  0.8096146505631694  0.1110471764759353   T   T   T
  0.0475812347647562  0.9523487968700266  0.1110113974165614   T   T   T
  0.0474900869637054  0.0951918454402261  0.1110154084595223   T   T   T
  0.0477494740810656  0.2382538035427615  0.1110127688571367   T   T   T
  0.0476440235396609  0.3809314788972173  0.1110141253630985   T   T   T
  0.0476778760583372  0.5238062355028177  0.1110199558580121   T   T   T
  0.0477765970618620  0.6667371556590425  0.1110264763649198   T   T   T
  0.0474937124087091  0.8093647624981770  0.1110003478639072   T   T   T
  0.1905806728176316  0.9524017364542701  0.1110006516202660   T   T   T
  0.1903608139036095  0.0950012242365048  0.1110501199744078   T   T   T
  0.1905406242198424  0.2381587128696268  0.1110113627487053   T   T   T
  0.1913362222166768  0.3812818904641091  0.1109894235584576   T   T   T
  0.1902027117352816  0.5237915302101044  0.1110682024041267   T   T   T
  0.1904146901735544  0.6667594088157784  0.1110730015583457   T   T   T
  0.1904609323539219  0.8095291359433361  0.1110007896440166   T   T   T
  0.3332700818271945  0.9521564945765704  0.1110291562411021   T   T   T
  0.3338825547500051  0.0952089867211825  0.1110705580451139   T   T   T
  0.3330973092556349  0.2368682470952592  0.1110670291692841   T   T   T
  0.3346310293229067  0.3798080158241532  0.1109104475129428   T   T   T
  0.3332289184104624  0.5257396798997007  0.1109394945610731   T   T   T
  0.3331881309949409  0.6677046359826946  0.1111076739735211   T   T   T
  0.3333344864896617  0.8098468159655710  0.1110685052560640   T   T   T
  0.4762438211428517  0.9521394363490074  0.1110204999941544   T   T   T
  0.4759609091486112  0.0943868978873397  0.1110304726300342   T   T   T
  0.4774676772915072  0.2379030193954108  0.1110589990689448   T   T   T
  0.4757119169965378  0.3814238813506492  0.1110726265156714   T   T   T
  0.4753772572020836  0.6661101894333328  0.1110531625624915   T   T   T
  0.4762790353816868  0.8093988564475580  0.1110663367951972   T   T   T
  0.6190668947282134  0.9524098788164537  0.1110112471858358   T   T   T
  0.6189897419697203  0.0955420349884193  0.1109908529390538   T   T   T
  0.6181054291978327  0.2380804843400384  0.1110184906338105   T   T   T
  0.6190975157688783  0.5242088510014256  0.1110609117618893   T   T   T
  0.6188999850962702  0.6653660480914070  0.1110261127505865   T   T   T
  0.6189051240143684  0.8091495393629984  0.1110109362068243   T   T   T
  0.7617516678708043  0.9522710977245623  0.1110065542209142   T   T   T
  0.7617980845890955  0.0953272894248158  0.1110490732302480   T   T   T
  0.7616871330692163  0.2382696859969045  0.1110426233073198   T   T   T
  0.7618833588606861  0.3818947892701985  0.1110195869297854   T   T   T
  0.7620458028950452  0.5225143006532775  0.1110525338822299   T   T   T
  0.7624174655120797  0.6670402382515803  0.1110507968944816   T   T   T
  0.7615016075998255  0.8090961976677775  0.1110107965849281   T   T   T
  0.3845074486017381  0.4788456833486165  0.1107212594310454   T   T   T
  0.4758343024581890  0.5247461833560365  0.1109440243943141   T   T   T
  0.5230109855657616  0.4786241781075020  0.1110527258232494   T   T   T
  0.6187785997594162  0.3811032455114969  0.1110759042738749   T   T   T
  0.9523595862214762  0.9046878161789422  0.1110096121069688   T   T   T
  0.9520847784268938  0.0474571588352575  0.1110075278708109   T   T   T
  0.9520887121963355  0.1905318985994455  0.1110332112144974   T   T   T
  0.9517729204726493  0.3333487217104150  0.1109869719244827   T   T   T
  0.9520698094661952  0.4760536372135107  0.1109784521154680   T   T   T
  0.9522482097107172  0.6188166937035575  0.1110248710135693   T   T   T
  0.9520252405239660  0.7613465524757999  0.1110269760270342   T   T   T
  0.0952157843078822  0.9046275094104956  0.1109719164450382   T   T   T
  0.0950975114842691  0.0473533258746741  0.1110087427728317   T   T   T
  0.0949116843033266  0.1901581199605999  0.1109956598875144   T   T   T
  0.0951686182758564  0.3333557938859713  0.1109895767202431   T   T   T
  0.0946549535739152  0.4761370585343201  0.1110219524254177   T   T   T
  0.0949601431976319  0.6190309905524103  0.1110246438265605   T   T   T
  0.0951370911785006  0.7618467506878872  0.1109786790569700   T   T   T
  0.2381591411150126  0.9047813450888853  0.1109791190477694   T   T   T
  0.2385859597911235  0.0476825549813853  0.1110328560074549   T   T   T
  0.2379444557934889  0.1896652296046994  0.1110389936872735   T   T   T
  0.2380748983827559  0.3325885662929977  0.1109621195163655   T   T   T
  0.2373216657097714  0.4766195049294595  0.1110017549805207   T   T   T
  0.2377405577061538  0.6194341544358366  0.1110855607279930   T   T   T
  0.2380291517581412  0.7621389088640456  0.1110315176667527   T   T   T
  0.3811269438620428  0.9050936360344437  0.1110225028848859   T   T   T
  0.3812567796972246  0.0474924455489401  0.1110342175339625   T   T   T
  0.3826759741652737  0.1906946886495149  0.1110595257263398   T   T   T
  0.3809655499077422  0.3302879601004207  0.1110215309747460   T   T   T
  0.3807390304765761  0.6210946511053521  0.1110523245029782   T   T   T
  0.3810836153307591  0.7628743391040800  0.1110815072749247   T   T   T
  0.5239831392834873  0.9049072494801678  0.1110163547559679   T   T   T
  0.5239903427364396  0.0477170659903265  0.1109814675298466   T   T   T
  0.5240987388033886  0.1902892605696280  0.1110133796649890   T   T   T
  0.5291250772045188  0.3354643334323129  0.1110697853087004   T   T   T
  0.5231996118400062  0.6178556583105674  0.1109985472863215   T   T   T
  0.5239461504471592  0.7618116730269691  0.1110362096113846   T   T   T
  0.6666034789749062  0.9047558638778312  0.1109841297279530   T   T   T
  0.6665774109154796  0.0480768704170487  0.1109860614766163   T   T   T
  0.6664255057924393  0.1916410361018634  0.1109955520328683   T   T   T
  0.6645219729080338  0.3354621849319699  0.1110233317504594   T   T   T
  0.6648413145291698  0.4710743387312775  0.1110589019742534   T   T   T
  0.6685942467608044  0.6195463233143101  0.1110140778899051   T   T   T
  0.6662710637740190  0.7611673991155712  0.1109966359241099   T   T   T
  0.8092452259355483  0.9045169069087109  0.1109816423339964   T   T   T
  0.8092895947656089  0.0476984583324835  0.1110315034685030   T   T   T
  0.8090975967527996  0.1907678437777989  0.1110530705912538   T   T   T
  0.8082523858970347  0.3335333921801080  0.1109989261640365   T   T   T
  0.8096549260452051  0.4759759518172473  0.1110149552990691   T   T   T
  0.8086206315656312  0.6174178584848846  0.1110494791427641   T   T   T
  0.8099104026518233  0.7620156309333552  0.1110281477427151   T   T   T

  0.00000000E+00  0.00000000E+00  0.00000000E+00
  0.00000000E+00  0.00000000E+00  0.00000000E+00
  0.00000000E+00  0.00000000E+00  0.00000000E+00
  0.00000000E+00  0.00000000E+00  0.00000000E+00
  0.00000000E+00  0.00000000E+00  0.00000000E+00
  0.00000000E+00  0.00000000E+00  0.00000000E+00
  0.00000000E+00  0.00000000E+00  0.00000000E+00
  0.00000000E+00  0.00000000E+00  0.00000000E+00
  0.00000000E+00  0.00000000E+00  0.00000000E+00
  0.00000000E+00  0.00000000E+00  0.00000000E+00
  0.00000000E+00  0.00000000E+00  0.00000000E+00
  0.00000000E+00  0.00000000E+00  0.00000000E+00
  0.00000000E+00  0.00000000E+00  0.00000000E+00
  0.00000000E+00  0.00000000E+00  0.00000000E+00
  0.00000000E+00  0.00000000E+00  0.00000000E+00
  0.00000000E+00  0.00000000E+00  0.00000000E+00
  0.00000000E+00  0.00000000E+00  0.00000000E+00
  0.00000000E+00  0.00000000E+00  0.00000000E+00
  0.00000000E+00  0.00000000E+00  0.00000000E+00
  0.00000000E+00  0.00000000E+00  0.00000000E+00
  0.00000000E+00  0.00000000E+00  0.00000000E+00
  0.00000000E+00  0.00000000E+00  0.00000000E+00
  0.00000000E+00  0.00000000E+00  0.00000000E+00
  0.00000000E+00  0.00000000E+00  0.00000000E+00
  0.00000000E+00  0.00000000E+00  0.00000000E+00
  0.00000000E+00  0.00000000E+00  0.00000000E+00
  0.00000000E+00  0.00000000E+00  0.00000000E+00
  0.00000000E+00  0.00000000E+00  0.00000000E+00
  0.00000000E+00  0.00000000E+00  0.00000000E+00
  0.00000000E+00  0.00000000E+00  0.00000000E+00
  0.00000000E+00  0.00000000E+00  0.00000000E+00
  0.00000000E+00  0.00000000E+00  0.00000000E+00
  0.00000000E+00  0.00000000E+00  0.00000000E+00
  0.00000000E+00  0.00000000E+00  0.00000000E+00
  0.00000000E+00  0.00000000E+00  0.00000000E+00
  0.00000000E+00  0.00000000E+00  0.00000000E+00
  0.00000000E+00  0.00000000E+00  0.00000000E+00
  0.00000000E+00  0.00000000E+00  0.00000000E+00
  0.00000000E+00  0.00000000E+00  0.00000000E+00
  0.00000000E+00  0.00000000E+00  0.00000000E+00
  0.00000000E+00  0.00000000E+00  0.00000000E+00
  0.00000000E+00  0.00000000E+00  0.00000000E+00
  0.00000000E+00  0.00000000E+00  0.00000000E+00
  0.00000000E+00  0.00000000E+00  0.00000000E+00
  0.00000000E+00  0.00000000E+00  0.00000000E+00
  0.00000000E+00  0.00000000E+00  0.00000000E+00
  0.00000000E+00  0.00000000E+00  0.00000000E+00
  0.00000000E+00  0.00000000E+00  0.00000000E+00
  0.00000000E+00  0.00000000E+00  0.00000000E+00
  0.00000000E+00  0.00000000E+00  0.00000000E+00
  0.00000000E+00  0.00000000E+00  0.00000000E+00
  0.00000000E+00  0.00000000E+00  0.00000000E+00
  0.00000000E+00  0.00000000E+00  0.00000000E+00
  0.00000000E+00  0.00000000E+00  0.00000000E+00
  0.00000000E+00  0.00000000E+00  0.00000000E+00
  0.00000000E+00  0.00000000E+00  0.00000000E+00
  0.00000000E+00  0.00000000E+00  0.00000000E+00
  0.00000000E+00  0.00000000E+00  0.00000000E+00
  0.00000000E+00  0.00000000E+00  0.00000000E+00
  0.00000000E+00  0.00000000E+00  0.00000000E+00
  0.00000000E+00  0.00000000E+00  0.00000000E+00
  0.00000000E+00  0.00000000E+00  0.00000000E+00
  0.00000000E+00  0.00000000E+00  0.00000000E+00
  0.00000000E+00  0.00000000E+00  0.00000000E+00
  0.00000000E+00  0.00000000E+00  0.00000000E+00
  0.00000000E+00  0.00000000E+00  0.00000000E+00
  0.00000000E+00  0.00000000E+00  0.00000000E+00
  0.00000000E+00  0.00000000E+00  0.00000000E+00
  0.00000000E+00  0.00000000E+00  0.00000000E+00
  0.00000000E+00  0.00000000E+00  0.00000000E+00
  0.00000000E+00  0.00000000E+00  0.00000000E+00
  0.00000000E+00  0.00000000E+00  0.00000000E+00
  0.00000000E+00  0.00000000E+00  0.00000000E+00
  0.00000000E+00  0.00000000E+00  0.00000000E+00
  0.00000000E+00  0.00000000E+00  0.00000000E+00
  0.00000000E+00  0.00000000E+00  0.00000000E+00
  0.00000000E+00  0.00000000E+00  0.00000000E+00
  0.00000000E+00  0.00000000E+00  0.00000000E+00
  0.00000000E+00  0.00000000E+00  0.00000000E+00
  0.00000000E+00  0.00000000E+00  0.00000000E+00
  0.00000000E+00  0.00000000E+00  0.00000000E+00
  0.00000000E+00  0.00000000E+00  0.00000000E+00
  0.00000000E+00  0.00000000E+00  0.00000000E+00
  0.00000000E+00  0.00000000E+00  0.00000000E+00
  0.00000000E+00  0.00000000E+00  0.00000000E+00
  0.00000000E+00  0.00000000E+00  0.00000000E+00
  0.00000000E+00  0.00000000E+00  0.00000000E+00
  0.00000000E+00  0.00000000E+00  0.00000000E+00
  0.00000000E+00  0.00000000E+00  0.00000000E+00
  0.00000000E+00  0.00000000E+00  0.00000000E+00
  0.00000000E+00  0.00000000E+00  0.00000000E+00
  0.00000000E+00  0.00000000E+00  0.00000000E+00
  0.00000000E+00  0.00000000E+00  0.00000000E+00
  0.00000000E+00  0.00000000E+00  0.00000000E+00
  0.00000000E+00  0.00000000E+00  0.00000000E+00
  0.00000000E+00  0.00000000E+00  0.00000000E+00
  0.00000000E+00  0.00000000E+00  0.00000000E+00
  0.00000000E+00  0.00000000E+00  0.00000000E+00
