 B N 
 1.0
 17.527899999999772   0.000000000000000   0.000000000000000
 -8.763949999999658  15.179606674993195   0.000000000000000
  0.000000000000001   0.000000000000002  15.000000000000000
 B N 
  47  49
Cartesian
  7.532877658527831  14.458340253344598   1.665193974401145 
 15.031081358845420   1.435449781111203   1.665689319411015 
 13.773331932424780   3.604118627157541   1.665530238634200 
 12.515163436441917   5.774963266770441   1.664941582547460 
 11.256901805284134   7.945969257477124   1.665196066776165 
 10.020768050686904  10.119737783328796   1.666195394654655 
  8.809234276311406  12.308336995982893   1.666053904190490 
 -7.488855027610583  14.466003894841448   1.665513390260280 
  0.011629376327421   1.443629904034807   1.665015249442080 
 -1.248365291710565   3.604972839410045   1.664678629614510 
 -2.504697400208288   5.770097035347671   1.664863659226575 
 -3.760786386463422   7.941056210702392   1.664894134688685 
 -5.009304052307309  10.115641631396469   1.665640975657530 
 -6.239124231848634  12.292348200923826   1.666370980612005 
 -4.993155040588695  14.462194946912680   1.665912536893035 
  2.517092887415161   1.449737557326552   1.665581350365240 
  1.257350005033822   3.609745298009913   1.664729671207650 
  0.003981801372668   5.770231666801700   1.664870858063835 
 -1.252472180728933   7.934559806266456   1.666186765559460 
 -2.516228333048634  10.115320577216149   1.666397890695570 
 -3.749929167867319  12.290160671613817   1.665705520457865 
 -2.497478816421300  14.463089418978253   1.665662110264605 
  5.018649621994811   1.452503516141831   1.666431754143840 
  3.761376722728898   3.617310225444495   1.666344019665705 
  2.514425509440195   5.785520381297125   1.665140900259585 
  1.281572289432433   7.920014371350938   1.666599254197680 
 -0.040855578969415  10.119737783328796   1.666558242550935 
 -1.260118892674259  12.294117914570007   1.666579584144615 
  0.000632655992588  14.463858715420622   1.664968178163750 
  7.518033074831692   1.454107412902309   1.665117482129265 
  6.260735883133156   3.627894188377412   1.666417213636155 
  4.982965424187666   5.812120002796638   1.665342588195525 
  2.367076254514793  10.159997435024708   1.669125508691355 
  1.228523731283301  12.301673469937766   1.665023942031615 
  2.517530942894773  14.436548836073927   1.664301172126560 
 10.024059097932504   1.441549954015430   1.664792926355625 
  8.761962652456152   3.623621692231450   1.665521554567125 
  7.487087849839984   5.806449937023959   1.665204166794240 
  6.149053172672382   7.945842386963474   1.664588565581055 
  3.764683565049461  12.238908380529638   1.663783860831330 
  5.022160926954724  14.438971325124088   1.664634952651305 
 12.526858510000501   1.433624198921986   1.665629561697285 
 11.268261352378511   3.609952208220463   1.665991664159205 
 10.004259815380443   5.784168691248468   1.665564612126945 
  8.733979226108456   7.952886350678753   1.665561101296440 
  7.540766953557192  10.163569110492364   1.664808213117225 
  6.321954725021874  12.295068136337006   1.663752350584245 
  8.785508191097366  13.741292040364318   1.665286287039510 
 16.284529736935131   0.714638318099311   1.665235131644340 
 15.024162444145642   2.876983856605722   1.665161261456955 
 13.767326524238927   5.049125553665444   1.664661279374190 
 12.511036320279903   7.222789819518234   1.664335242227625 
 11.263654493911982   9.395241222431338   1.665409388758560 
 10.035720488924508  11.568194812824911   1.666389367635900 
 -6.244088645274815  13.734826002162210   1.665773655613665 
  1.264270499665478   0.722151618589461   1.664865674715900 
  0.001554030565950   2.880875645214735   1.664354926251570 
 -1.256769512827971   5.047261722358837   1.664282449061535 
 -2.510175024104579   7.218228778052138   1.664822988039255 
 -3.763240073552365   9.390655571333014   1.665250431259140 
 -4.998350637726592  11.562954829850337   1.665551877372240 
 -3.745112239800331  13.733936506014283   1.665462122865360 
  3.768593230400242   0.722133688141098   1.665825870003255 
  2.508985840397615   2.883716778114143   1.665373604576190 
  1.245746091645357   5.043722429929036   1.664385270703995 
 -0.006684019515317   7.218606143248143   1.665914863568805 
 -1.271210141744165   9.391356298185064   1.666531097429895 
 -2.503475686640620  11.563876895242656   1.666093325504265 
 -1.245940035129210  13.736214837526779   1.665610537792680 
  6.271087692473612   0.724212611106998   1.665416111003340 
  5.017318231748568   2.889474509507284   1.666682939396175 
  3.755205198458382   5.042079515073075   1.665516319505805 
  2.460668617429324   7.183903903173897   1.664835312012075 
  1.214938028718933   9.401552525181103   1.666158776824125 
 -0.008307036928165  11.567831829654919   1.666434914391930 
  1.256279781131955  13.732664945891626   1.664569012985895 
  8.772135983740958   0.723059707712375   1.664102639668440 
  7.517215100920124   2.895835660938534   1.665428088780240 
  6.254968527243607   5.068673968703289   1.665462779109150 
  4.980093423146119   7.221705869818137   1.664059737453795 
  2.490733156173868  11.559014140029248   1.664321829209895 
  3.778303391675643  13.681408185478190   1.663627570662225 
 11.280397344443372   0.701254236516481   1.664554306369785 
 10.018187449620680   2.887465904165631   1.665424325548455 
  8.756672509463755   5.072473875024710   1.665255615857880 
  7.471776719835314   7.267494940862774   1.664656113809340 
  5.073430236756415  10.156295062135655   1.663786301591160 
  6.202625357403312   9.502380468743876   1.664427133979730 
  5.080720928015720  11.497192824290465   1.662863185453050 
  6.277506352637952  13.722688177696876   1.663990543335570 
 13.778225586929519   0.699865009583741   1.665368908643805 
 12.521488526620786   2.877712110881781   1.665787369299855 
 11.261952324212473   5.056496696690753   1.665474169749105 
  9.997227944654641   7.234431816152448   1.665359131351020 
  8.752741648544248   9.410361076741268   1.665342546472545 
  7.551807129353175  11.586107270982987   1.664763357142695 
