 B Se N 
 1.0
 17.527899999999772   0.000000000000000   0.000000000000000
 -8.763949999999658  15.179606674993195   0.000000000000000
  0.000000000000001   0.000000000000002  15.000000000000000
 B Se N 
  48   1  49
Cartesian
  7.525008657956743  14.469121304060058   1.666091856277755 
 15.023484364622748   1.445945495221165   1.665553549755375 
 13.766500974915793   3.611063802361170   1.666322230271190 
 12.519945213587377   5.782202503552432   1.665553549755375 
 11.285143448659721   7.956376803254909   1.666091856277755 
 10.031876039097172  10.129036956500684   1.667269490072550 
  8.779953839676471  12.297429813020788   1.667269490072550 
 -7.506110944367254  14.453413411600160   1.665863609063460 
 -0.004154577115558   1.428228042435130   1.666091856277755 
 -1.268429633036823   3.596941563733137   1.665401919528375 
 -2.527159546461730   5.777125726791926   1.665401919528375 
 -3.773183021484649   7.956376803254909   1.666091856277755 
 -5.007984786403444  10.126531982289855   1.665863609063460 
 -6.254423600921873  12.291487816739531   1.665080393599020 
 -5.007984786403467  14.450383172011293   1.665080393599020 
  2.504058014166793   1.427259380228580   1.667269490072550 
  1.225766652041463   3.559558024383447   1.666200008416860 
 -0.048713992699802   5.754600825722389   1.665466585465785 
 -1.312436498691542   7.955854841384569   1.666200008416860 
 -2.519915611921981  10.129036956500684   1.667269490072550 
 -3.761545971885126  12.291487816739531   1.665080393599020 
 -2.509858628422083  14.453413411600160   1.665863609063460 
  5.007902413025699   1.427259380228580   1.667269490072550 
  3.755980213604982   3.579984940772993   1.664712197379810 
  2.438237927967533   5.662608126902862   1.662935480351775 
  1.115093953493515   7.954360716420557   1.662935480351775 
 -0.029639489386650  10.136870604488529   1.664712197379810 
 -1.267993412483776  12.297429813020788   1.667269490072550 
 -0.013048230764019  14.469121304060058   1.666091856277755 
  7.516115004308050   1.428228042435130   1.666091856277755 
  6.286193775150970   3.559558024383447   1.666200008416860 
  5.073722499242491   5.662608126902862   1.662935480351775 
  2.432836239131038  10.236757306426616   1.662935480351775 
  1.217777062871980  12.338313283982171   1.666200008416860 
  2.497250300171485  14.479658859209913   1.665401919528375 
 10.016406062551980   1.445945495221165   1.665553549755375 
  8.780390060229379   3.596941563733137   1.665401919528375 
  7.560674419892425   5.754600825722389   1.665466585465785 
  6.396866473699144   7.954360716420572   1.662935480351775 
  5.079124188061717  10.236757306426616   1.662935480351775 
  3.755980213596445  12.344524498290198   1.665466585465785 
  5.014710127021347  14.479658859209913   1.665401919528375 
 12.519945213587365   1.451965889272515   1.666322230271190 
 11.273389452258915   3.611063802361170   1.666322230271190 
 10.039119973654335   5.777125726791926   1.665401919528375 
  8.824396925866685   7.955854841384569   1.666200008416860 
  7.541599916579421  10.136870604488529   1.664712197379810 
  6.294183364320698  12.338313283982171   1.666200008416860 
  3.755980213596274   7.951242049921758   1.661221662918975 
  8.770111393467801  13.737671339137584   1.666291341225390 
 16.274866640159313   0.723453334650088   1.665053758501680 
 15.014991245391977   2.885869977844081   1.665429143361600 
 13.762724835594735   5.054859024224847   1.665429143361600 
 12.519954786406210   7.227151443293326   1.665053758501680 
 11.274255565335437   9.400366403985196   1.666291341225390 
 10.023549702750239  11.569807660979560   1.667417987436180 
 -6.257655915124008  13.732611297464400   1.663850464795275 
  1.251845614538438   0.715653025225964   1.666291341225390 
 -0.019276913277550   2.866121605537289   1.665922138000845 
 -1.281115039066272   5.043056429183175   1.664603253179370 
 -2.535476835832171   7.224307713402918   1.665922138000845 
 -3.762275992522775   9.400366403985196   1.666291341225390 
 -5.007975213584781  11.568100829160066   1.663850464795275 
 -3.758294512045400  13.732611297464400   1.663850464795275 
  3.755989786406227   0.714075446389746   1.667417987436180 
  2.499679470609275   2.874143656634208   1.666450741368900 
  1.196092619226153   4.996635937711326   1.665152020313145 
 -0.082712534790737   7.211591437449600   1.665152020313145 
 -1.269051343857049   9.401776907340542   1.666450741368900 
 -2.511570129937478  11.569807660979560   1.667417987436180 
 -1.258131820654974  13.737671339137584   1.666291341225390 
  6.260133958273877   0.715653025225964   1.666291341225390 
  5.012300102203245   2.874143656634208   1.666450741368900 
  3.755989786406302   5.043880916304814   1.659732500424540 
  2.247026468252066   7.080029878172439   1.662452002303770 
  1.238151400453793   9.404904926021928   1.659732500424540 
 -0.012741028060111  11.577770204373978   1.666450741368900 
  1.239789863842884  13.763261449393296   1.665922138000845 
  8.765042932635259   0.723453334650088   1.665053758501680 
  7.531256486089930   2.866121605537289   1.665922138000845 
  6.315886953586430   4.996635937711326   1.665152020313145 
  5.264953104560580   7.080029878172439   1.662452002303770 
  3.755989786397599   9.693631011988533   1.662452002303770 
  2.477184632380625  11.645463393172594   1.665152020313145 
  3.755989786397597  13.767577909967168   1.664603253179370 
 11.267688376591160   0.733329110524588   1.665429143361600 
 10.024918327402622   2.885869977844081   1.665429143361600 
  8.793094611878734   5.043056429183175   1.664603253179370 
  7.594692107603371   7.211591437449600   1.665152020313145 
  6.273828172341343   9.404904926021928   1.659732500424540 
  5.034794940414455  11.645463393172594   1.665152020313145 
  6.272189708969838  13.763261449393296   1.665922138000845 
 13.772221196203271   0.733329110524588   1.665429143361600 
 12.519954786406029   2.891352704197829   1.666987907051265 
 11.277184737217491   5.054859024224847   1.665429143361600 
 10.047456408662262   7.224307713402918   1.665922138000845 
  8.781030916669764   9.401776907340542   1.666450741368900 
  7.524720600872732  11.577770204373978   1.666450741368900 
