B O N                                   
   1.0000000000000000     
     8.7639499999999995  -15.1796066749929999    0.0000000000000000
     8.7639499999999995   15.1796066749929999    0.0000000000000000
     0.0000000000000000    0.0000000000000000   15.0000000000000000
   B    O    N 
    47     1    49
Selective dynamics
Direct
  0.9068242872848523  0.9523251125124064  0.1122322950311498   T   T   T
  0.9079589609455693  0.0954327897539199  0.1137702918422911   T   T   T
  0.9084721521848806  0.2381205449088912  0.1138766132758065   T   T   T
  0.9085684199204889  0.3807713686903546  0.1108361148895831   T   T   T
  0.9076931684099889  0.5234458594098765  0.1056933194113923   T   T   T
  0.9064628835443933  0.6658830833724334  0.1052231060184213   T   T   T
  0.9034833250851785  0.8069236778366972  0.1121109021452479   T   T   T
  0.0494053137735242  0.9534048634918297  0.1136748535139824   T   T   T
  0.0516295037828044  0.0972243703547178  0.1146631265048300   T   T   T
  0.0519128731613923  0.2394245473302963  0.1151754674222822   T   T   T
  0.0512172177226739  0.3818222436571321  0.1151838634445292   T   T   T
  0.0497772411531559  0.5246992914066504  0.1139230510848961   T   T   T
  0.0491339777918163  0.6676136201041697  0.1114229597068718   T   T   T
  0.0485911512108399  0.8103516926869617  0.1122522127263854   T   T   T
  0.1925590485064059  0.9547007802617907  0.1152541890289768   T   T   T
  0.1955097676031807  0.0995350269263330  0.1149394653360046   T   T   T
  0.1968855118490980  0.2423267087559461  0.1143972981330223   T   T   T
  0.1949580462539830  0.3832273204768966  0.1131162942013922   T   T   T
  0.1917277406466415  0.5257241592595965  0.1157129646673239   T   T   T
  0.1911656624471693  0.6686311184941646  0.1165965968794717   T   T   T
  0.1916312608949222  0.8114720726599215  0.1154540124493848   T   T   T
  0.3351640935119529  0.9545953053178964  0.1164873642369527   T   T   T
  0.3368118143383028  0.0983759872755754  0.1155520042130424   T   T   T
  0.3431190718606624  0.2464859927899755  0.1140455467207098   T   T   T
  0.3423043214089042  0.3864899346509827  0.1064771045204768   T   T   T
  0.3326742524399304  0.5281705863568830  0.1027725469833970   T   T   T
  0.3326335951472093  0.6698476591355875  0.1123600976647109   T   T   T
  0.3343009927430425  0.8119210387957139  0.1161668628017464   T   T   T
  0.4779620178708888  0.9534773611578107  0.1152237556030188   T   T   T
  0.4789275856364898  0.0959980345360275  0.1144229571560053   T   T   T
  0.4807730616034130  0.2391758358952675  0.1112354299241130   T   T   T
  0.4964697401801363  0.3933664759401911  0.1128916947254553   T   T   T
  0.4725480349025946  0.6707384554623081  0.0909907995067505   T   T   T
  0.4770961718981945  0.8113035195657493  0.1095461423917004   T   T   T
  0.6210717643041196  0.9527721888847484  0.1107552331669997   T   T   T
  0.6217628947987495  0.0947461624526066  0.1135746516552971   T   T   T
  0.6226950038416390  0.2363473706109771  0.1091465902168342   T   T   T
  0.6248725440964813  0.3771194591726497  0.1014196437726301   T   T   T
  0.6108243951035331  0.5038621375410863  0.1121413733248724   T   T   T
  0.6199021314615693  0.8098068631662035  0.1006216900658438   T   T   T
  0.7639303584525012  0.9517087057750671  0.1094130761146216   T   T   T
  0.7648930971896140  0.0947623937289411  0.1129012331591789   T   T   T
  0.7655619507517480  0.2372019728581430  0.1111515418348375   T   T   T
  0.7664559568756659  0.3793855534459432  0.1039740409667671   T   T   T
  0.7647444523447765  0.5207537931936516  0.0985056741287093   T   T   T
  0.7605470219623185  0.6588084553903261  0.1119049574229836   T   T   T
  0.7620365806916424  0.8071486648787308  0.1073223640762187   T   T   T
  0.6311311911330909  0.6413650264977480  0.1694247711630203   T   T   T
  0.9533890678152388  0.9037063992185442  0.1127192243179759   T   T   T
  0.9559670108055431  0.0483795035846302  0.1138336806397378   T   T   T
  0.9564619848602051  0.1910731608728544  0.1147504101653800   T   T   T
  0.9562481493701246  0.3335112412883084  0.1137721556972411   T   T   T
  0.9551968856387593  0.4761113228125727  0.1101912659678707   T   T   T
  0.9543396884940395  0.6188125508699684  0.1065003418436691   T   T   T
  0.9530254482136015  0.7611170337876560  0.1099841703197947   T   T   T
  0.0970711908716875  0.9060310772998040  0.1138952721217468   T   T   T
  0.0993028387197275  0.0499645019239133  0.1144628284670516   T   T   T
  0.1008383934015954  0.1932277659109080  0.1152510558924300   T   T   T
  0.0997436742721089  0.3349014961079464  0.1152361432156658   T   T   T
  0.0973337017020796  0.4771569086999387  0.1161488658362278   T   T   T
  0.0965006753290258  0.6200499661740458  0.1145593148435399   T   T   T
  0.0964222333862881  0.7630140615335899  0.1129178100130620   T   T   T
  0.2398191369646851  0.9068617930085511  0.1160517344888679   T   T   T
  0.2415347855048612  0.0505922761949753  0.1155527265410517   T   T   T
  0.2460436087745328  0.1965360313901723  0.1145541193044339   T   T   T
  0.2459662866710519  0.3383985983465259  0.1120126019360238   T   T   T
  0.2396212021988267  0.4783637056992012  0.1123999319695865   T   T   T
  0.2383635382514560  0.6208935085238971  0.1167778372464254   T   T   T
  0.2390761414295443  0.7638360128638085  0.1167741370910152   T   T   T
  0.3825197601481081  0.9068186367893404  0.1165611594873571   T   T   T
  0.3835843948841505  0.0498636891368519  0.1159130530654087   T   T   T
  0.3860427910033148  0.1943331344974173  0.1145536546116124   T   T   T
  0.3962172790021317  0.3455433166908579  0.1122865567210957   T   T   T
  0.3823144605008287  0.4820479950345328  0.0928028741082687   T   T   T
  0.3792304191329418  0.6219906773059906  0.1032008754994306   T   T   T
  0.3816638934218390  0.7643155638830358  0.1135259061446556   T   T   T
  0.5254044391601320  0.9059467624238283  0.1127066377646611   T   T   T
  0.5263096033772304  0.0483129534187156  0.1149677151563850   T   T   T
  0.5274756324033272  0.1907494593389316  0.1114422051969646   T   T   T
  0.5304316488284194  0.3338124068980121  0.1080088205495529   T   T   T
  0.4688305992602951  0.5327062722838508  0.0742184178854223   T   T   T
  0.5051994163099762  0.6116229337280601  0.0650769615820329   T   T   T
  0.5237833842490982  0.7632612056576632  0.1002291856029649   T   T   T
  0.6684070442088693  0.9056209220031152  0.1067293114995149   T   T   T
  0.6694385911526837  0.0476782286889616  0.1130564726754540   T   T   T
  0.6702443345245089  0.1894619559575499  0.1117158662367781   T   T   T
  0.6717302064073546  0.3306012050678179  0.1036898112434059   T   T   T
  0.6700962789295369  0.4707465445918289  0.0959373562707643   T   T   T
  0.6640269939498388  0.5990682331056395  0.1271392454334373   T   T   T
  0.6711620898476651  0.7695054614755416  0.0937191328880683   T   T   T
  0.8118368434773611  0.9042233051243467  0.1094853610043737   T   T   T
  0.8125483012587348  0.0474366039245003  0.1124235483146608   T   T   T
  0.8132089471597982  0.1900770054198733  0.1130772563333556   T   T   T
  0.8137470354985774  0.3323247687701968  0.1085840666606350   T   T   T
  0.8130461770692727  0.4743996145006752  0.1010616497638604   T   T   T
  0.8111886644669312  0.6157980146344701  0.1012117873316500   T   T   T
  0.8069144988808420  0.7558010258189292  0.1135394680272385   T   T   T

  0.00000000E+00  0.00000000E+00  0.00000000E+00
  0.00000000E+00  0.00000000E+00  0.00000000E+00
  0.00000000E+00  0.00000000E+00  0.00000000E+00
  0.00000000E+00  0.00000000E+00  0.00000000E+00
  0.00000000E+00  0.00000000E+00  0.00000000E+00
  0.00000000E+00  0.00000000E+00  0.00000000E+00
  0.00000000E+00  0.00000000E+00  0.00000000E+00
  0.00000000E+00  0.00000000E+00  0.00000000E+00
  0.00000000E+00  0.00000000E+00  0.00000000E+00
  0.00000000E+00  0.00000000E+00  0.00000000E+00
  0.00000000E+00  0.00000000E+00  0.00000000E+00
  0.00000000E+00  0.00000000E+00  0.00000000E+00
  0.00000000E+00  0.00000000E+00  0.00000000E+00
  0.00000000E+00  0.00000000E+00  0.00000000E+00
  0.00000000E+00  0.00000000E+00  0.00000000E+00
  0.00000000E+00  0.00000000E+00  0.00000000E+00
  0.00000000E+00  0.00000000E+00  0.00000000E+00
  0.00000000E+00  0.00000000E+00  0.00000000E+00
  0.00000000E+00  0.00000000E+00  0.00000000E+00
  0.00000000E+00  0.00000000E+00  0.00000000E+00
  0.00000000E+00  0.00000000E+00  0.00000000E+00
  0.00000000E+00  0.00000000E+00  0.00000000E+00
  0.00000000E+00  0.00000000E+00  0.00000000E+00
  0.00000000E+00  0.00000000E+00  0.00000000E+00
  0.00000000E+00  0.00000000E+00  0.00000000E+00
  0.00000000E+00  0.00000000E+00  0.00000000E+00
  0.00000000E+00  0.00000000E+00  0.00000000E+00
  0.00000000E+00  0.00000000E+00  0.00000000E+00
  0.00000000E+00  0.00000000E+00  0.00000000E+00
  0.00000000E+00  0.00000000E+00  0.00000000E+00
  0.00000000E+00  0.00000000E+00  0.00000000E+00
  0.00000000E+00  0.00000000E+00  0.00000000E+00
  0.00000000E+00  0.00000000E+00  0.00000000E+00
  0.00000000E+00  0.00000000E+00  0.00000000E+00
  0.00000000E+00  0.00000000E+00  0.00000000E+00
  0.00000000E+00  0.00000000E+00  0.00000000E+00
  0.00000000E+00  0.00000000E+00  0.00000000E+00
  0.00000000E+00  0.00000000E+00  0.00000000E+00
  0.00000000E+00  0.00000000E+00  0.00000000E+00
  0.00000000E+00  0.00000000E+00  0.00000000E+00
  0.00000000E+00  0.00000000E+00  0.00000000E+00
  0.00000000E+00  0.00000000E+00  0.00000000E+00
  0.00000000E+00  0.00000000E+00  0.00000000E+00
  0.00000000E+00  0.00000000E+00  0.00000000E+00
  0.00000000E+00  0.00000000E+00  0.00000000E+00
  0.00000000E+00  0.00000000E+00  0.00000000E+00
  0.00000000E+00  0.00000000E+00  0.00000000E+00
  0.00000000E+00  0.00000000E+00  0.00000000E+00
  0.00000000E+00  0.00000000E+00  0.00000000E+00
  0.00000000E+00  0.00000000E+00  0.00000000E+00
  0.00000000E+00  0.00000000E+00  0.00000000E+00
  0.00000000E+00  0.00000000E+00  0.00000000E+00
  0.00000000E+00  0.00000000E+00  0.00000000E+00
  0.00000000E+00  0.00000000E+00  0.00000000E+00
  0.00000000E+00  0.00000000E+00  0.00000000E+00
  0.00000000E+00  0.00000000E+00  0.00000000E+00
  0.00000000E+00  0.00000000E+00  0.00000000E+00
  0.00000000E+00  0.00000000E+00  0.00000000E+00
  0.00000000E+00  0.00000000E+00  0.00000000E+00
  0.00000000E+00  0.00000000E+00  0.00000000E+00
  0.00000000E+00  0.00000000E+00  0.00000000E+00
  0.00000000E+00  0.00000000E+00  0.00000000E+00
  0.00000000E+00  0.00000000E+00  0.00000000E+00
  0.00000000E+00  0.00000000E+00  0.00000000E+00
  0.00000000E+00  0.00000000E+00  0.00000000E+00
  0.00000000E+00  0.00000000E+00  0.00000000E+00
  0.00000000E+00  0.00000000E+00  0.00000000E+00
  0.00000000E+00  0.00000000E+00  0.00000000E+00
  0.00000000E+00  0.00000000E+00  0.00000000E+00
  0.00000000E+00  0.00000000E+00  0.00000000E+00
  0.00000000E+00  0.00000000E+00  0.00000000E+00
  0.00000000E+00  0.00000000E+00  0.00000000E+00
  0.00000000E+00  0.00000000E+00  0.00000000E+00
  0.00000000E+00  0.00000000E+00  0.00000000E+00
  0.00000000E+00  0.00000000E+00  0.00000000E+00
  0.00000000E+00  0.00000000E+00  0.00000000E+00
  0.00000000E+00  0.00000000E+00  0.00000000E+00
  0.00000000E+00  0.00000000E+00  0.00000000E+00
  0.00000000E+00  0.00000000E+00  0.00000000E+00
  0.00000000E+00  0.00000000E+00  0.00000000E+00
  0.00000000E+00  0.00000000E+00  0.00000000E+00
  0.00000000E+00  0.00000000E+00  0.00000000E+00
  0.00000000E+00  0.00000000E+00  0.00000000E+00
  0.00000000E+00  0.00000000E+00  0.00000000E+00
  0.00000000E+00  0.00000000E+00  0.00000000E+00
  0.00000000E+00  0.00000000E+00  0.00000000E+00
  0.00000000E+00  0.00000000E+00  0.00000000E+00
  0.00000000E+00  0.00000000E+00  0.00000000E+00
  0.00000000E+00  0.00000000E+00  0.00000000E+00
  0.00000000E+00  0.00000000E+00  0.00000000E+00
  0.00000000E+00  0.00000000E+00  0.00000000E+00
  0.00000000E+00  0.00000000E+00  0.00000000E+00
  0.00000000E+00  0.00000000E+00  0.00000000E+00
  0.00000000E+00  0.00000000E+00  0.00000000E+00
  0.00000000E+00  0.00000000E+00  0.00000000E+00
  0.00000000E+00  0.00000000E+00  0.00000000E+00
  0.00000000E+00  0.00000000E+00  0.00000000E+00
