B N                                     
   1.0000000000000000     
     8.7639499999999995  -15.1796066749929999    0.0000000000000000
     8.7639499999999995   15.1796066749929999    0.0000000000000000
     0.0000000000000000    0.0000000000000000   15.0000000000000000
   B    N 
    49    47
Selective dynamics
Direct
  0.9031400243850863  0.9510892844749210  0.1109947188001321   T   T   T
  0.9054896067541759  0.0955497415154543  0.1110377570704837   T   T   T
  0.9059985414247064  0.2387136175578556  0.1110909287433363   T   T   T
  0.9054896067541759  0.3813685589297194  0.1110377570704837   T   T   T
  0.9031400243850863  0.5234811451581669  0.1109947188001321   T   T   T
  0.9010895271584386  0.6652066820164423  0.1110062323094128   T   T   T
  0.9010895271584386  0.8073132503899966  0.1110062323094128   T   T   T
  0.0464184635812583  0.9517934009207655  0.1109941816481330   T   T   T
  0.0481832494998657  0.0956796030726712  0.1109996843213611   T   T   T
  0.0495209414623323  0.2391877070971936  0.1110231560330064   T   T   T
  0.0495209414623323  0.3817636396121389  0.1110231560330064   T   T   T
  0.0481832494998657  0.5239340516751888  0.1109996843213611   T   T   T
  0.0464184635812582  0.6660571794644907  0.1109941816481330   T   T   T
  0.0456281096687516  0.8085301132363774  0.1109737771813504   T   T   T
  0.1896292208521086  0.9520358262128085  0.1109831937352022   T   T   T
  0.1912546129581433  0.0962017168369987  0.1110248829652076   T   T   T
  0.1932596197744751  0.2402587891444492  0.1110025349453034   T   T   T
  0.1939438163423666  0.3826871107946833  0.1109988931657650   T   T   T
  0.1932596197744751  0.5244312358780278  0.1110025349453034   T   T   T
  0.1912546129581433  0.6664833013691391  0.1110248829652076   T   T   T
  0.1896292208521086  0.8090255114433048  0.1109831937352022   T   T   T
  0.3328897987983737  0.9521609578006887  0.1110126955104038   T   T   T
  0.3332811124651932  0.0953215060277209  0.1110521151521937   T   T   T
  0.3363743275548231  0.2407234665574454  0.1110771520943579   T   T   T
  0.3391888443351467  0.3851586526797646  0.1110503663549385   T   T   T
  0.3391888443351467  0.5254605969023817  0.1110503663549385   T   T   T
  0.3363743275548231  0.6670812662443775  0.1110771520943579   T   T   T
  0.3332811124651932  0.8093900116844736  0.1110521151521937   T   T   T
  0.4761705566210309  0.9525280799204419  0.1109951470785058   T   T   T
  0.4761705566210309  0.0950728819475898  0.1109951470785058   T   T   T
  0.4764217616185333  0.2377346579794701  0.1110762985945056   T   T   T
  0.4824930626329130  0.3849535814952196  0.1111428763147840   T   T   T
  0.4881087053417946  0.5297695552948974  0.1112049403337642   T   T   T
  0.4824930626329130  0.6689698863846928  0.1111428763147840   T   T   T
  0.4764217616185333  0.8101175088860707  0.1110762985945056   T   T   T
  0.6192627256062921  0.9527839204995654  0.1110048987857285   T   T   T
  0.6193466198032359  0.0953876567471126  0.1109809532545101   T   T   T
  0.6192627256062921  0.2379092103537253  0.1110048987857285   T   T   T
  0.6188485955533538  0.3800863857030788  0.1110217518766788   T   T   T
  0.6037898986202879  0.5155853361272138  0.1110924279260417   T   T   T
  0.6037898986202880  0.6596349677410688  0.1110924279260417   T   T   T
  0.6188485955533538  0.8101926150972732  0.1110217518766788   T   T   T
  0.7618271919094373  0.9522099420154442  0.1109894998388038   T   T   T
  0.7625562715779101  0.0955538302787144  0.1110474730574276   T   T   T
  0.7625562715779101  0.2384311349901927  0.1110474730574276   T   T   T
  0.7618271919094373  0.3810476551409941  0.1109894998388038   T   T   T
  0.7572129875882817  0.5227163390207203  0.1110064552745915   T   T   T
  0.7536168684949985  0.6625236368714972  0.1110337930411174   T   T   T
  0.7572129875882817  0.8059270538155637  0.1110064552745915   T   T   T
  0.9504256511289637  0.9032417480417270  0.1109819422177709   T   T   T
  0.9523088867806715  0.0471445718755792  0.1109948152124703   T   T   T
  0.9537766444797641  0.1911106806645416  0.1110426016186163   T   T   T
  0.9537766444797641  0.3340929459332213  0.1110426016186163   T   T   T
  0.9523088867806715  0.4765912970230907  0.1109948152124703   T   T   T
  0.9504256511289637  0.6186125967622311  0.1109819422177709   T   T   T
  0.9496713837489282  0.7605500387119660  0.1109946188731250   T   T   T
  0.0940147333563712  0.9040826959742460  0.1109601791085027   T   T   T
  0.0954290264742531  0.0477332466103212  0.1109911704365165   T   T   T
  0.0972138971201537  0.1915973751463694  0.1109735368194821   T   T   T
  0.0978933941839868  0.3346610439289938  0.1109897563650429   T   T   T
  0.0972138971201536  0.4770452156477855  0.1109735368194821   T   T   T
  0.0954290264742531  0.6191244735389351  0.1109911704365165   T   T   T
  0.0940147333563712  0.7613624426131300  0.1109601791085027   T   T   T
  0.2374231141328856  0.9044267596819406  0.1109727378415206   T   T   T
  0.2379661137488702  0.0476643687110183  0.1110102798230237   T   T   T
  0.2405225248853040  0.1923402588011323  0.1110150103351078   T   T   T
  0.2426740105020358  0.3361578693038453  0.1109910144233384   T   T   T
  0.2426740105020358  0.4779448348721836  0.1109910144233384   T   T   T
  0.2405225248853040  0.6196109597591670  0.1110150103351078   T   T   T
  0.2379661137488702  0.7617304387128548  0.1110102798230237   T   T   T
  0.3807826535771064  0.9046725306056517  0.1110069940643251   T   T   T
  0.3807826535771064  0.0475388166464566  0.1110069940643251   T   T   T
  0.3815887360085186  0.1909237756085089  0.1110639098987766   T   T   T
  0.3869254595399403  0.3377976282616895  0.1110761502621724   T   T   T
  0.3906051585843196  0.4810169261291564  0.1110573276049009   T   T   T
  0.3869254595399403  0.6205565249532462  0.1110761502621724   T   T   T
  0.3815887360085186  0.7620936540750127  0.1110639098987766   T   T   T
  0.5240194956129313  0.9051998680839126  0.1110108034519104   T   T   T
  0.5239536443961097  0.0476903132575591  0.1109501312751313   T   T   T
  0.5240194956129313  0.1902483212040196  0.1110108034519104   T   T   T
  0.5244536951823641  0.3329086268164452  0.1110647543213840   T   T   T
  0.5244536951823641  0.7629737620409218  0.1110647543213840   T   T   T
  0.6667370973594382  0.9050326205760134  0.1109702229834304   T   T   T
  0.6671259559311975  0.0479391959342034  0.1109901995749302   T   T   T
  0.6671259559311975  0.1906137421160009  0.1109901995749302   T   T   T
  0.6667370973594382  0.3331331704584290  0.1109702229834304   T   T   T
  0.6605050659979148  0.4748797264591926  0.1110108640033619   T   T   T
  0.6555567696253863  0.6134927316506921  0.1110652009561259   T   T   T
  0.6605050659979148  0.7570540332137252  0.1110108640033619   T   T   T
  0.8071853859940024  0.9024667247966317  0.1109749103602976   T   T   T
  0.8100221348924350  0.0476898122239665  0.1110113705600623   T   T   T
  0.8104367822770607  0.1909318821975330  0.1110653907592620   T   T   T
  0.8100221348924350  0.3337593047864730  0.1110113705600623   T   T   T
  0.8071853859940024  0.4761473548713722  0.1109749103602976   T   T   T
  0.8046053094787385  0.6174534616091899  0.1110050475730411   T   T   T
  0.8046053094787385  0.7585805415445517  0.1110050475730411   T   T   T

  0.00000000E+00  0.00000000E+00  0.00000000E+00
  0.00000000E+00  0.00000000E+00  0.00000000E+00
  0.00000000E+00  0.00000000E+00  0.00000000E+00
  0.00000000E+00  0.00000000E+00  0.00000000E+00
  0.00000000E+00  0.00000000E+00  0.00000000E+00
  0.00000000E+00  0.00000000E+00  0.00000000E+00
  0.00000000E+00  0.00000000E+00  0.00000000E+00
  0.00000000E+00  0.00000000E+00  0.00000000E+00
  0.00000000E+00  0.00000000E+00  0.00000000E+00
  0.00000000E+00  0.00000000E+00  0.00000000E+00
  0.00000000E+00  0.00000000E+00  0.00000000E+00
  0.00000000E+00  0.00000000E+00  0.00000000E+00
  0.00000000E+00  0.00000000E+00  0.00000000E+00
  0.00000000E+00  0.00000000E+00  0.00000000E+00
  0.00000000E+00  0.00000000E+00  0.00000000E+00
  0.00000000E+00  0.00000000E+00  0.00000000E+00
  0.00000000E+00  0.00000000E+00  0.00000000E+00
  0.00000000E+00  0.00000000E+00  0.00000000E+00
  0.00000000E+00  0.00000000E+00  0.00000000E+00
  0.00000000E+00  0.00000000E+00  0.00000000E+00
  0.00000000E+00  0.00000000E+00  0.00000000E+00
  0.00000000E+00  0.00000000E+00  0.00000000E+00
  0.00000000E+00  0.00000000E+00  0.00000000E+00
  0.00000000E+00  0.00000000E+00  0.00000000E+00
  0.00000000E+00  0.00000000E+00  0.00000000E+00
  0.00000000E+00  0.00000000E+00  0.00000000E+00
  0.00000000E+00  0.00000000E+00  0.00000000E+00
  0.00000000E+00  0.00000000E+00  0.00000000E+00
  0.00000000E+00  0.00000000E+00  0.00000000E+00
  0.00000000E+00  0.00000000E+00  0.00000000E+00
  0.00000000E+00  0.00000000E+00  0.00000000E+00
  0.00000000E+00  0.00000000E+00  0.00000000E+00
  0.00000000E+00  0.00000000E+00  0.00000000E+00
  0.00000000E+00  0.00000000E+00  0.00000000E+00
  0.00000000E+00  0.00000000E+00  0.00000000E+00
  0.00000000E+00  0.00000000E+00  0.00000000E+00
  0.00000000E+00  0.00000000E+00  0.00000000E+00
  0.00000000E+00  0.00000000E+00  0.00000000E+00
  0.00000000E+00  0.00000000E+00  0.00000000E+00
  0.00000000E+00  0.00000000E+00  0.00000000E+00
  0.00000000E+00  0.00000000E+00  0.00000000E+00
  0.00000000E+00  0.00000000E+00  0.00000000E+00
  0.00000000E+00  0.00000000E+00  0.00000000E+00
  0.00000000E+00  0.00000000E+00  0.00000000E+00
  0.00000000E+00  0.00000000E+00  0.00000000E+00
  0.00000000E+00  0.00000000E+00  0.00000000E+00
  0.00000000E+00  0.00000000E+00  0.00000000E+00
  0.00000000E+00  0.00000000E+00  0.00000000E+00
  0.00000000E+00  0.00000000E+00  0.00000000E+00
  0.00000000E+00  0.00000000E+00  0.00000000E+00
  0.00000000E+00  0.00000000E+00  0.00000000E+00
  0.00000000E+00  0.00000000E+00  0.00000000E+00
  0.00000000E+00  0.00000000E+00  0.00000000E+00
  0.00000000E+00  0.00000000E+00  0.00000000E+00
  0.00000000E+00  0.00000000E+00  0.00000000E+00
  0.00000000E+00  0.00000000E+00  0.00000000E+00
  0.00000000E+00  0.00000000E+00  0.00000000E+00
  0.00000000E+00  0.00000000E+00  0.00000000E+00
  0.00000000E+00  0.00000000E+00  0.00000000E+00
  0.00000000E+00  0.00000000E+00  0.00000000E+00
  0.00000000E+00  0.00000000E+00  0.00000000E+00
  0.00000000E+00  0.00000000E+00  0.00000000E+00
  0.00000000E+00  0.00000000E+00  0.00000000E+00
  0.00000000E+00  0.00000000E+00  0.00000000E+00
  0.00000000E+00  0.00000000E+00  0.00000000E+00
  0.00000000E+00  0.00000000E+00  0.00000000E+00
  0.00000000E+00  0.00000000E+00  0.00000000E+00
  0.00000000E+00  0.00000000E+00  0.00000000E+00
  0.00000000E+00  0.00000000E+00  0.00000000E+00
  0.00000000E+00  0.00000000E+00  0.00000000E+00
  0.00000000E+00  0.00000000E+00  0.00000000E+00
  0.00000000E+00  0.00000000E+00  0.00000000E+00
  0.00000000E+00  0.00000000E+00  0.00000000E+00
  0.00000000E+00  0.00000000E+00  0.00000000E+00
  0.00000000E+00  0.00000000E+00  0.00000000E+00
  0.00000000E+00  0.00000000E+00  0.00000000E+00
  0.00000000E+00  0.00000000E+00  0.00000000E+00
  0.00000000E+00  0.00000000E+00  0.00000000E+00
  0.00000000E+00  0.00000000E+00  0.00000000E+00
  0.00000000E+00  0.00000000E+00  0.00000000E+00
  0.00000000E+00  0.00000000E+00  0.00000000E+00
  0.00000000E+00  0.00000000E+00  0.00000000E+00
  0.00000000E+00  0.00000000E+00  0.00000000E+00
  0.00000000E+00  0.00000000E+00  0.00000000E+00
  0.00000000E+00  0.00000000E+00  0.00000000E+00
  0.00000000E+00  0.00000000E+00  0.00000000E+00
  0.00000000E+00  0.00000000E+00  0.00000000E+00
  0.00000000E+00  0.00000000E+00  0.00000000E+00
  0.00000000E+00  0.00000000E+00  0.00000000E+00
  0.00000000E+00  0.00000000E+00  0.00000000E+00
  0.00000000E+00  0.00000000E+00  0.00000000E+00
  0.00000000E+00  0.00000000E+00  0.00000000E+00
  0.00000000E+00  0.00000000E+00  0.00000000E+00
  0.00000000E+00  0.00000000E+00  0.00000000E+00
  0.00000000E+00  0.00000000E+00  0.00000000E+00
  0.00000000E+00  0.00000000E+00  0.00000000E+00
