 B N 
 1.0
 17.527899999999772   0.000000000000000   0.000000000000000
 -8.763949999999658  15.179606674993195   0.000000000000000
  0.000000000000001   0.000000000000002  15.000000000000000
 B N 
  49  47
Cartesian
  7.494849098745483  14.437161251130012   1.664920782001980 
 15.033938121071984   1.450407494101860   1.665566356057260 
 13.788177625641808   3.623578822493004   1.666363931150040 
 12.529036296194334   5.789024722762099   1.665566356057260 
 11.242385451310405   7.946237885275994   1.664920782001980 
  9.964369022222430  10.097575790586859   1.665093484641195 
  8.718954162325060  12.254697604430451   1.665093484641195 
 -7.527851588193291  14.447849461831320   1.664912724721995 
  0.006019921559988   1.452378741462616   1.664995264820415 
 -1.228230995756774   3.630775315228883   1.665347340495090 
 -2.477759339521077   5.795021892126122   1.665347340495090 
 -3.747180653269904   7.953112828064929   1.664995264820415 
 -5.023673630161676  10.110486007326328   1.664912724721995 
 -6.286152542434762  12.273169103815913   1.664606657720250 
 -5.019792358963777  14.451529382412602   1.664747906028030 
  2.509184694195407   1.460304223044716   1.665373244478120 
  1.281819274322565   3.647033919422861   1.665038024179545 
  0.045577113818399   5.809039821452830   1.664983397486475 
 -1.208653840228088   7.960659888709045   1.665038024179545 
 -2.490341602864114  10.119737783328796   1.665373244478120 
 -3.766457110839639  12.280689053744577   1.664747906028030 
 -2.509831921759079  14.453428830699252   1.665190432656060 
  5.007240420581645   1.446942969168798   1.665781727282910 
  3.786247151212067   3.654087539782894   1.666157281415370 
  2.569756970469251   5.846556855149147   1.665755495324085 
  1.340157746399495   7.976285184185307   1.665755495324085 
  0.049668712645925  10.126031241846059   1.666157281415370 
 -1.250820259568612  12.286222024038462   1.665781727282910 
 -0.001638566620770  14.459001600078793   1.664927206177590 
  7.513055915653113   1.443168953422477   1.664927206177590 
  6.267178339674281   3.608718601142387   1.666144478917590 
  5.083376211978423   5.843443955227379   1.667143144721760 
  3.912646682233805   8.041693477762594   1.668074105006460 
  2.594271516742423  10.154699752734526   1.667143144721760 
  1.250843653471571  12.297265145415864   1.666144478917590 
  2.504224488092547  14.462885159441383   1.665073481785935 
 10.019872962900170   1.447947111070436   1.664714298817650 
  8.769350704074938   3.611368237527764   1.665073481785935 
  7.516058218017124   5.769561837492496   1.665326278150185 
  6.064604857474486   7.826382609805268   1.666386418890630 
  4.802161088492292  10.012999359381253   1.666386418890630 
  3.746628728918024  12.298405228160759   1.665326278150185 
  5.008110515743322  14.454172391812516   1.664842497582060 
 12.528581081719171   1.450469559919934   1.665712095861420 
 11.276411527093053   3.619290848223337   1.665712095861420 
 10.013748239796463   5.784153529468737   1.664842497582060 
  8.691293665788017   7.934628428926928   1.665096829118880 
  7.402997081933591  10.056848220595343   1.665506895616755 
  6.209249121861840  12.233655685656334   1.665096829118880 
  8.743000252673166  13.710854467706721   1.664729133266565 
 16.278802265913740   0.715636057932236   1.664922228187050 
 15.042817196966688   2.900984963877975   1.665639024279240 
 13.789727773265298   5.071399512156062   1.665639024279240 
 12.515152639057348   7.234468433535377   1.664922228187050 
 11.237475903029008   9.390295903046836   1.664729133266565 
  9.980322535443143  11.544850444298493   1.664919283096875 
 -6.275454698586070  13.723619726556507   1.664402686627545 
  1.254338646507531   0.724571908865125   1.664867556547755 
  0.024805651418370   2.908372794682998   1.664603052292230 
 -1.217087032023909   5.080023016284748   1.664846345475645 
 -2.476844950343926   7.241358739720701   1.664603052292230 
 -3.753305496733300   9.398065991183264   1.664867556547755 
 -5.024661534141967  11.557182415979392   1.664402686627545 
 -3.764822298304479  13.728842478310458   1.664591067622815 
  3.753318101013854   0.723526369445106   1.665154197345360 
  2.530194352816950   2.919649476367582   1.665225155026620 
  1.307495029993264   5.102744236736136   1.664865216350070 
  0.064881153100668   7.255014605704324   1.664865216350070 
 -1.214384706844076   9.405450660659191   1.665225155026620 
 -2.504721233178501  11.562768452031149   1.665154197345360 
 -1.254184550967026  13.732573184264542   1.665104910964875 
  6.257692461485369   0.721620538487836   1.665104910964875 
  5.015202782639506   2.898147818641827   1.665958648481655 
  3.821549238066103   5.127635132758019   1.666142253932580 
  2.630879869400561   7.301647742654845   1.665859914073515 
  1.343464405406238   9.419803968390873   1.666142253932580 
  0.009498526253184  11.568281918367022   1.665958648481655 
  1.251834933260075  13.740577959769524   1.665162051778650 
  8.765851562736890   0.723920197456959   1.664251969126965 
  7.517634542537869   2.887894686454791   1.665162051778650 
  6.274977363798969   5.053422013785728   1.665971314820760 
  2.505908021948560  11.581641611121050   1.665971314820760 
  3.753606031569674  13.738039208382231   1.664553344751450 
 11.273180326758750   0.727698138596635   1.664852993623950 
 10.022787737748830   2.893441632169480   1.664852993623950 
  8.765704217427480   5.056830497952415   1.664553344751450 
  7.415444567602821   7.208487465578909   1.665162960050430 
  6.113913876766781   9.312578364424652   1.665978014341890 
  4.942483051921537  11.491782455901580   1.665162960050430 
  6.239091474382948  13.699089919682203   1.664623655404470 
 13.780035848340708   0.723912591964102   1.665170558400930 
 12.531937407088908   2.898270873474686   1.665980861388930 
 11.272937118997632   5.066334970777834   1.665170558400930 
  9.975333116439284   7.227729566285833   1.664623655404470 
  8.691710139142556   9.372700687340515   1.665075713595615 
  7.454879466943089  11.514954251949634   1.665075713595615 
