 N B Ge 
 1.0
 17.527899999999772   0.000000000000000   0.000000000000000
 -8.763949999999658  15.179606674993195   0.000000000000000
  0.000000000000001   0.000000000000002  15.000000000000000
 N B Ge 
  48  48   1
Cartesian
  8.769231652507814  13.753844492042523   1.665050976475755 
 16.259092128764493   0.732565901755869   1.665495246257445 
 14.995588544649724   2.897170731329849   1.665342527771385 
 13.745523420324471   5.066831307886930   1.664935873776510 
 12.510635989074455   7.235552435406841   1.665021029154840 
 11.279162680608179   9.404776463661829   1.665199569962400 
 10.032168987395623  11.579398773543767   1.665694452817935 
 -6.252925616392012  13.729887363706407   1.664601600718185 
  1.237403368686112   0.708339216162228   1.665186433136595 
 -0.035253518501181   2.869049905744947   1.665378774706125 
 -1.282901082861960   5.050573829667025   1.665005611492050 
 -2.507104700527873   7.225656635971020   1.664998525356075 
 -3.742371601438155   9.394604163722990   1.664798600214615 
 -4.992538199226864  11.562765581657375   1.665216799980000 
 -3.745949487074832  13.721922930741481   1.664877761714295 
  3.751992997029437   0.701827284833548   1.665186645113505 
  2.466534785883797   2.839271543095677   1.665392662137780 
  1.193374376704320   4.999546803931572   1.665059133778155 
  0.002131015190296   7.208185793056055   1.665252386359905 
 -1.228877395977602   9.385365201226220   1.664782415223120 
 -2.486081446817701  11.555101075615150   1.664998065017310 
 -1.243185522503008  13.723326048339979   1.664836832291760 
  6.258766126320705   0.709213257874546   1.665143730618315 
  4.991636799965177   2.861916254241281   1.665386654630715 
  3.682788586878289   4.958250944983874   1.666009889274000 
  2.473142332937286   7.112975182185155   1.665227527753860 
  1.295545182469112   9.371774456627483   1.664912341983540 
  0.021575152440801  11.551200679935720   1.665203221231650 
  1.252796410500243  13.738008884601165   1.665036283678230 
  8.753095505879154   0.727335498394798   1.665090323479080 
  7.488120011439786   2.897070467456092   1.665140803919910 
  6.210019071990353   5.068350028656157   1.665206444595120 
  3.840528254209350   9.481310976221840   1.665770156169990 
  2.522573824331334  11.573684549946034   1.665526128649530 
  3.748584528304121  13.765375538015531   1.664891933977005 
 11.248690148467800   0.742220990232216   1.665242529238260 
  9.986386622381023   2.910373694500507   1.665251842313550 
  8.718942955641829   5.085874028772886   1.665194973677790 
  7.479659525565893   7.267429549937240   1.665258251952960 
  6.311396433130174   9.511114745816654   1.666044225672525 
  5.030924194516429  11.646356258062035   1.665258565213005 
  6.261674084579946  13.775647672721155   1.665028349917560 
 13.752724990154716   0.744486385873634   1.665474547234305 
 12.491817510270959   2.907578081690568   1.665454081256775 
 11.236703999897884   5.075979383783038   1.665295506650385 
  9.999095430576240   7.246199357166123   1.665330929987850 
  8.781297126572646   9.425792923011466   1.665451919979495 
  7.538356327022912  11.623916416034609   1.665287728305045 
  7.513477266782868  14.477631917201146   1.665451769005140 
 15.005284091630276   1.456441882690177   1.665460743197760 
 13.745724512515405   3.623517840928641   1.665544271167980 
 12.496483535843204   5.791956761880732   1.665125932901520 
 11.262638918617295   7.961345512834982   1.665213314602095 
 10.036166420594691  10.136497608289391   1.665968401433205 
  8.788189891330594  12.319912907468108   1.665708066376155 
 -7.507194434147674  14.454039627857348   1.664907380346240 
 -0.017291544395324   1.433959340035265   1.665679057087950 
 -1.279834110580107   3.607912905541589   1.665364005050100 
 -2.525788038329007   5.781830048020525   1.665081574029630 
 -3.755721411789766   7.950970586848101   1.665047419762215 
 -4.991549548903752  10.119737783328796   1.665378898922790 
 -6.242707410736782  12.289404408589915   1.665417866654550 
 -5.000322456335310  14.441281224719928   1.665046449523665 
  2.488701908745806   1.408886793866009   1.665613600157655 
  1.213737763885305   3.568109056068870   1.665472125438435 
 -0.029568626437157   5.762072734751793   1.665227506141860 
 -1.243415004416563   7.939164057461386   1.665192699618975 
 -2.482189365902492  10.109771111241654   1.665031540763490 
 -3.738426256152089  12.278142217049078   1.664999185432440 
 -2.495796681750170  14.442584441482314   1.665226629052380 
  5.003573048666038   1.419813947199792   1.665747522694605 
  3.715624217321057   3.534432013245369   1.665632406093585 
  2.432142018915023   5.698549067816534   1.665854007034125 
  1.280188248689996   7.914000044540987   1.665501352002495 
  0.036435031533035  10.098731925181717   1.665271239624855 
 -1.232438224883569  12.274397220380617   1.665216085778610 
  0.000385557402918  14.456694952959547   1.665088944088995 
  7.500550267530047   1.445236785274906   1.665176309896665 
  6.231734266150921   3.606055431181405   1.665262442465505 
  4.906730084523829   5.660123157870854   1.666511134713525 
  2.550348610398423  10.113939775944790   1.665776928854610 
  1.266760807277673  12.286883379667040   1.665416181000690 
  2.493835692935260  14.476104554885824   1.665140016286650 
  9.996206971273152   1.461380774526009   1.665247723643730 
  8.732753125769563   3.632957731375604   1.665520448006310 
  7.461692955854888   5.811748703711711   1.665286454421420 
  6.315522598013612   8.100217953655907   1.666561060288290 
  5.044958046271164  10.224040782593674   1.666169052920565 
  3.759089812772237  12.324211290842630   1.665334123621815 
  4.999502817976760  14.484047257581734   1.665243192556065 
 12.498725589761177   1.463681997280117   1.665724403236695 
 11.239833601347975   3.630427448447757   1.665744017798940 
  9.984111061861491   5.800369937543010   1.665651678351840 
  8.756900791951768   7.979770129649706   1.665382426032330 
  7.560874113972176  10.194595642701284   1.665606167034960 
  6.280763952831048  12.344456240650587   1.665333170966190 
  4.266353931771022   7.656574968732965   1.662174564273330 
