Species order: X N B                    
   2.51242800000000     
     5.9449720136058266    0.0000000000000000    0.0000000000000000
    -2.9724860068029120    5.1484967885702053   -0.0000000000000001
     0.0000000000000000    0.0000000000000009    5.3101128803662583
   C    N    B 
     1   144   143
Direct
  0.4444444444444429  0.3888888888888857  0.3750000000000000
  0.1111191804259787  0.0555499248744603  0.1251442062043822
  0.6111044255813136  0.5555401627145120  0.1253665662115182
  0.4444307444484817  0.0555499248744603  0.1251442062043822
  0.9444522695535253  0.5555633082727658  0.1251073105554162
  0.7777777777777786  0.0555555555555571  0.1251065676141844
  0.1111111111111143  0.7222222222222214  0.6249022763234081
  0.4444307444484817  0.7222141529073571  0.6248557937956175
  0.2777931706188235  0.2222289077520223  0.6246334337884817
  0.7777834084588754  0.7222141529073571  0.6248557937956175
  0.6111028855920158  0.2222304477413200  0.6248253047159049
  0.9444561845163462  0.2222344140771392  0.6248867907562555
  0.2777700250605701  0.7222222946140958  0.1251073105554162
  0.1111275621493115  0.2222304477413200  0.1251746952840950
  0.4444357371331987  0.2222289077520223  0.1253665662115182
  0.6111028855920158  0.7222057711840243  0.1251746952840950
  0.9444522695535253  0.7222222946140958  0.1251073105554162
  0.7777782295607933  0.2222344140771392  0.1251132092437445
  0.1111110387192401  0.8888810637798032  0.6248926894445838
  0.4444310778404706  0.8888822055868997  0.6248931057536445
  0.2777931706188235  0.3888975962001299  0.6246334337884817
  0.6111044255813136  0.3888975962001299  0.6246334337884817
  0.7777782295607933  0.8888771488169824  0.6248867907562555
  0.9444511277464289  0.3889022554928580  0.6248931057536445
  0.1111191804259787  0.3889025888848469  0.1251442062043822
  0.2777700250605701  0.8888810637798032  0.1251073105554162
  0.6110989192561965  0.8888771488169824  0.1251132092437445
  0.4444444444444429  0.3888888888888857  0.1254454573478710
  0.9444511277464289  0.8888822055868997  0.1251068942463554
  0.7777834084588754  0.3889025888848469  0.1251442062043822
  0.2777728459926368  0.5555604873406990  0.6248283549570216
  0.1111191804259787  0.0555499248744603  0.6248557937956175
  0.6111044255813136  0.5555401627145120  0.6246334337884817
  0.4444307444484817  0.0555499248744603  0.6248557937956175
  0.9444522695535253  0.5555633082727658  0.6248926894445838
  0.1111110387192401  0.5555633082727658  0.1251073105554162
  0.7777777777777786  0.0555555555555571  0.6248934323858156
  0.2777728459926368  0.0555456919852738  0.1251716450429783
  0.4444357371331987  0.5555401627145120  0.1253665662115182
  0.7777876413480621  0.5555604873406990  0.1251716450429783
  0.6110989192561965  0.0555551037725426  0.1251132092437445
  0.4444357371331987  0.5555401627145120  0.6246334337884817
  0.9444561845163462  0.0555551037725426  0.1251132092437445
  0.2777700250605701  0.7222222946140958  0.6248926894445838
  0.1111275621493115  0.2222304477413200  0.6248253047159049
  0.4444357371331987  0.2222289077520223  0.6246334337884817
  0.6111028855920158  0.7222057711840243  0.6248253047159049
  0.9444522695535253  0.7222222946140958  0.6248926894445838
  0.7777782295607933  0.2222344140771392  0.6248867907562555
  0.1111111111111143  0.7222222222222214  0.1250977236765917
  0.4444307444484817  0.7222141529073571  0.1251442062043822
  0.2777931706188235  0.2222289077520223  0.1253665662115182
  0.7777834084588754  0.7222141529073571  0.1251442062043822
  0.6111028855920158  0.2222304477413200  0.1251746952840950
  0.9444561845163462  0.2222344140771392  0.1251132092437445
  0.1111191804259787  0.3889025888848469  0.6248557937956175
  0.2777700250605701  0.8888810637798032  0.6248926894445838
  0.6110989192561965  0.8888771488169824  0.6248867907562555
  0.4444444444444429  0.3888888888888857  0.6245545426521290
  0.9444511277464289  0.8888822055868997  0.6248931057536445
  0.1111110387192401  0.8888810637798032  0.1251073105554162
  0.7777834084588754  0.3889025888848469  0.6248557937956175
  0.4444310778404706  0.8888822055868997  0.1251068942463554
  0.2777931706188235  0.3888975962001299  0.1253665662115182
  0.2777728459926368  0.5555604873406990  0.1251716450429783
  0.6111044255813136  0.3888975962001299  0.1253665662115182
  0.7777782295607933  0.8888771488169824  0.1251132092437445
  0.9444511277464289  0.3889022554928580  0.1251068942463554
  0.1111110387192401  0.5555633082727658  0.6248926894445838
  0.2777728459926368  0.0555456919852738  0.6248283549570216
  0.7777876413480621  0.5555604873406990  0.6248283549570216
  0.6110989192561965  0.0555551037725426  0.6248867907562555
  0.9444561845163462  0.0555551037725426  0.6248867907562555
  0.0557195240082467  0.1112443087626294  0.3750000000000000
  0.5555313590270718  0.6110627180541434  0.3750000000000000
  0.3893104153057657  0.1130214315596825  0.3750000000000000
  0.8881113529230367  0.6107223431281894  0.3750000000000000
  0.7221941909346392  0.1111391423986965  0.3750000000000000
  0.0555536078435608  0.7777797254897747  0.8750000000000000
  0.3888948199323095  0.7777795067818614  0.8750000000000000
  0.2222240127877685  0.2777786730605522  0.8750000000000000
  0.7222207687878266  0.7777785202740828  0.8750000000000000
  0.5555546602727839  0.2777786730605522  0.8750000000000000
  0.8888879409598637  0.2777758819197342  0.8750000000000000
  0.2223834713294652  0.7778584023314005  0.3750000000000000
  0.0557195240082467  0.2778085485789529  0.3750000000000000
  0.3918732154969867  0.2837464309939802  0.3750000000000000
  0.5555247847543826  0.7776138093250889  0.3750000000000000
  0.8883602947097229  0.7773959838208215  0.3750000000000000
  0.7220890245707067  0.2778085485789529  0.3750000000000000
  0.0555538265514741  0.9444486464837835  0.8750000000000000
  0.3888948199323095  0.9444486464837835  0.8750000000000000
  0.2222245851074485  0.4444395797216495  0.8750000000000000
  0.5555512283807943  0.4444422808570614  0.8750000000000000
  0.7222221878083648  0.9444443756167293  0.8750000000000000
  0.8888846868495451  0.4444385134010191  0.8750000000000000
  0.0559373495125141  0.4442976442222369  0.3750000000000000
  0.2226109902051459  0.9452219804102919  0.3750000000000000
  0.5555063138065256  0.9444198235699273  0.3750000000000000
  0.3918732154969867  0.4414601178363419  0.3750000000000000
  0.8889135097634013  0.9444198235699273  0.3750000000000000
  0.7203119017736532  0.4440229180275629  0.3750000000000000
  0.2222253751304194  0.6111079582029164  0.8750000000000000
  0.0555548130592531  0.1111125645455092  0.8750000000000000
  0.5555546602727839  0.6111093205455670  0.8750000000000000
  0.3888937536116790  0.1111183387191346  0.8750000000000000
  0.8888825830724896  0.6111079582029164  0.8750000000000000
  0.0554749310019352  0.6109498620038704  0.3750000000000000
  0.7222221878083648  0.1111111455249710  0.8750000000000000
  0.2237110162539097  0.1130214315596825  0.3750000000000000
  0.3893104153057657  0.6096223170794262  0.3750000000000000
  0.7203119017736532  0.6096223170794262  0.3750000000000000
  0.5555247847543826  0.1112443087626294  0.3750000000000000
  0.3888937536116790  0.6111087482258872  0.8750000000000000
  0.8889449514640499  0.1111391423986965  0.3750000000000000
  0.2222261176462142  0.7777797254897747  0.8750000000000000
  0.0555548130592531  0.2777755818470795  0.8750000000000000
  0.3888910524762672  0.2777821049525415  0.8750000000000000
  0.5555577514862561  0.7777785202740828  0.8750000000000000
  0.8888846868495451  0.7777795067818614  0.8750000000000000
  0.7222207687878266  0.2777755818470795  0.8750000000000000
  0.0554749310019352  0.7778584023314005  0.3750000000000000
  0.3890356891110917  0.7773959838208215  0.3750000000000000
  0.2222706152791922  0.2778019743062640  0.3750000000000000
  0.7220890245707067  0.7776138093250889  0.3750000000000000
  0.5555313590270718  0.2778019743062640  0.3750000000000000
  0.8889135097634013  0.2778270195268104  0.3750000000000000
  0.0555538265514741  0.4444385134010191  0.8750000000000000
  0.2222253751304194  0.9444507502608390  0.8750000000000000
  0.5555574514136014  0.9444453923734649  0.8750000000000000
  0.3888910524762672  0.4444422808570614  0.8750000000000000
  0.8888879409598637  0.9444453923734649  0.8750000000000000
  0.0559373495125141  0.9449730386236057  0.3750000000000000
  0.7222149946142014  0.4444395797216495  0.8750000000000000
  0.3890356891110917  0.9449730386236057  0.3750000000000000
  0.2237110162539097  0.4440229180275629  0.3750000000000000
  0.2226109902051459  0.6107223431281894  0.3750000000000000
  0.5495869023393553  0.4414601178363419  0.3750000000000000
  0.7221941909346392  0.9443883818692786  0.3750000000000000
  0.8883602947097229  0.4442976442222369  0.3750000000000000
  0.0555536078435608  0.6111072156871215  0.8750000000000000
  0.2222245851074485  0.1111183387191346  0.8750000000000000
  0.7222149946142014  0.6111087482258872  0.8750000000000000
  0.5555577514862561  0.1111125645455092  0.8750000000000000
  0.8888889577165993  0.1111111455249710  0.8750000000000000
  0.1114391555517491  0.0560537209909825  0.3750000000000000
  0.6100124361020868  0.5559308844055892  0.3750000000000000
  0.4446145654392334  0.0560537209909825  0.3750000000000000
  0.9442483964222738  0.5554525866264823  0.3750000000000000
  0.7777777777777786  0.0555555555555571  0.3750000000000000
  0.1111111111111143  0.7222222222222214  0.8750000000000000
  0.4444540798171663  0.7222559527227554  0.8750000000000000
  0.2777412884854845  0.2221914914351494  0.8750000000000000
  0.7778018729055893  0.7222559527227554  0.8750000000000000
  0.6111352972470889  0.2221980360862468  0.8750000000000000
  0.9444202437520052  0.2222074545463162  0.8750000000000000
  0.2778807467068535  0.7221291431291269  0.3750000000000000
  0.1101444398058086  0.2217388865695686  0.3750000000000000
  0.4459184483035026  0.2233208972312490  0.3750000000000000
  0.6115944467637672  0.7231888935275275  0.3750000000000000
  0.9442483964222738  0.7221291431291269  0.3750000000000000
  0.7778938671586939  0.2221447008680109  0.3750000000000000
  0.1111003450902814  0.8888775282839911  0.8750000000000000
  0.4444550823062640  0.8888942078197963  0.8750000000000000
  0.2777412884854845  0.3888831303836638  0.8750000000000000
  0.6111418418981865  0.3888831303836638  0.8750000000000000
  0.7777872107943108  0.8889130895813234  0.8750000000000000
  0.9444391255135323  0.3888782510270646  0.8750000000000000
  0.1114391555517491  0.3887187678940952  0.3750000000000000
  0.2778807467068535  0.8890849369110548  0.3750000000000000
  0.6111886324653248  0.8890824996240118  0.3750000000000000
  0.9444330832272855  0.8889002501060431  0.3750000000000000
  0.7772796123423533  0.3887187678940952  0.3750000000000000
  0.2777624479373197  0.5555708853960160  0.8750000000000000
  0.1110773806105800  0.0555314604277463  0.8750000000000000
  0.6111418418981865  0.5555920448478510  0.8750000000000000
  0.4444540798171663  0.0555314604277463  0.8750000000000000
  0.9444558050493375  0.5555561501396191  0.8750000000000000
  0.1112041902042085  0.5554525866264823  0.3750000000000000
  0.7777777777777786  0.0555555555555571  0.8750000000000000
  0.2780351729398111  0.0560703458796221  0.3750000000000000
  0.4459184483035026  0.5559308844055892  0.3750000000000000
  0.7772629874537136  0.5552981603935246  0.3750000000000000
  0.6111886324653248  0.0554394661746419  0.3750000000000000
  0.4444502029496648  0.5555920448478510  0.8750000000000000
  0.9442508337093168  0.0554394661746419  0.3750000000000000
  0.2777771831937167  0.7222329882430546  0.8750000000000000
  0.1110627388391652  0.2221980360862468  0.8750000000000000
  0.4444502029496648  0.2221914914351494  0.8750000000000000
  0.6111352972470889  0.7222705944941706  0.8750000000000000
  0.9444558050493375  0.7222329882430546  0.8750000000000000
  0.7777872107943108  0.2222074545463162  0.8750000000000000
  0.1111111111111143  0.7222222222222214  0.3750000000000000
  0.4446145654392334  0.7218941777815867  0.3750000000000000
  0.2774024489277463  0.2233208972312490  0.3750000000000000
  0.7772796123423533  0.7218941777815867  0.3750000000000000
  0.6115944467637672  0.2217388865695686  0.3750000000000000
  0.9442508337093168  0.2221447008680109  0.3750000000000000
  0.1110773806105800  0.3888792535161623  0.8750000000000000
  0.2777771831937167  0.8888775282839911  0.8750000000000000
  0.6111258787870194  0.8889130895813234  0.8750000000000000
  0.4444444444444429  0.3888888888888857  0.8750000000000000
  0.9444391255135323  0.8888942078197963  0.8750000000000000
  0.1112041902042085  0.8890849369110548  0.3750000000000000
  0.7778018729055893  0.3888792535161623  0.8750000000000000
  0.4444671668787576  0.8889002501060431  0.3750000000000000
  0.2774024489277463  0.3874148850298260  0.3750000000000000
  0.2780351729398111  0.5552981603935246  0.3750000000000000
  0.6100124361020868  0.3874148850298260  0.3750000000000000
  0.7778938671586939  0.8890824996240118  0.3750000000000000
  0.9444330832272855  0.3888661664545709  0.3750000000000000
  0.1111003450902814  0.5555561501396191  0.8750000000000000
  0.2777624479373197  0.0555248958746394  0.8750000000000000
  0.7778084374586963  0.5555708853960160  0.8750000000000000
  0.6111258787870194  0.0555461225390247  0.8750000000000000
  0.9444202437520052  0.0555461225390247  0.8750000000000000
  0.0554899057733799  0.1110429382773485  0.1248667187850402
  0.5556160372842024  0.6112320745684047  0.1247632564097108
  0.3888306408487540  0.1109552686001294  0.1248327985492885
  0.8889998774043806  0.6111666053688618  0.1248890954534409
  0.7222307687698530  0.1111025645634829  0.1249099671267542
  0.0555724273455071  0.7777609059878288  0.6250830273213410
  0.3888441435543323  0.7778047430931435  0.6251029938222290
  0.2221012587649311  0.2777172960491334  0.6252367435902892
  0.7222903950559871  0.7778434275599558  0.6251332812149598
  0.5556160372842024  0.2777172960491334  0.6252367435902892
  0.8888984233359211  0.2777968466718490  0.6250947474181363
  0.2221884786423214  0.7777609059878288  0.1249169726786592
  0.0554899057733799  0.2777803008293671  0.1248667187850402
  0.3888410846669142  0.2776821693338355  0.1245349646338963
  0.5555530325039683  0.7778434275599558  0.1248667187850402
  0.8889605995388035  0.7778047430931435  0.1248970061777708
  0.7222903950559871  0.2777803008293671  0.1248667187850402
  0.0555285902401922  0.9443727337945251  0.6251029938222290
  0.3888441435543323  0.9443727337945251  0.6251029938222290
  0.2221246277513684  0.4445026924845746  0.6251672014507116
  0.5556511639995002  0.4444922486664144  0.6254650353661038
  0.7222307687698530  0.9444615375397056  0.6250900328732456
  0.8889605995388035  0.4444891897789963  0.6251029938222290
  0.0555285902401922  0.4444891897789963  0.1248970061777708
  0.2221667279644742  0.9443334559289480  0.1248890954534409
  0.5555364866614866  0.9444349099974075  0.1249052525818636
  0.3888410846669142  0.4444922486664144  0.1245349646338963
  0.8888984233359211  0.9444349099974075  0.1249052525818636
  0.7223780647332064  0.4445026924845746  0.1248327985492885
  0.2221667279644742  0.6111666053688618  0.6251109045465593
  0.0554899057733799  0.1110429382773485  0.6251332812149598
  0.5556160372842024  0.6112320745684047  0.6252367435902892
  0.3888306408487540  0.1109552686001294  0.6251672014507116
  0.8889998774043806  0.6111666053688618  0.6251109045465593
  0.0555724273455071  0.6111448546910141  0.1249169726786592
  0.7222307687698530  0.1111025645634829  0.6250900328732456
  0.2221246277513684  0.1109552686001294  0.1248327985492885
  0.3888306408487540  0.6112087055819676  0.1248327985492885
  0.7223780647332064  0.6112087055819676  0.1248327985492885
  0.5555530325039683  0.1110429382773485  0.1248667187850402
  0.3888306408487540  0.6112087055819676  0.6251672014507116
  0.8888717957936230  0.1111025645634829  0.1249099671267542
  0.2221884786423214  0.7777609059878288  0.6250830273213410
  0.0554899057733799  0.2777803008293671  0.6251332812149598
  0.3888410846669142  0.2776821693338355  0.6254650353661038
  0.5555530325039683  0.7778434275599558  0.6251332812149598
  0.8889605995388035  0.7778047430931435  0.6251029938222290
  0.7222903950559871  0.2777803008293671  0.6251332812149598
  0.0555724273455071  0.7777609059878288  0.1249169726786592
  0.3888441435543323  0.7778047430931435  0.1248970061777708
  0.2221012587649311  0.2777172960491334  0.1247632564097108
  0.7222903950559871  0.7778434275599558  0.1248667187850402
  0.5556160372842024  0.2777172960491334  0.1247632564097108
  0.8888984233359211  0.2777968466718490  0.1249052525818636
  0.0555285902401922  0.4444891897789963  0.6251029938222290
  0.2221667279644742  0.9443334559289480  0.6251109045465593
  0.5555364866614866  0.9444349099974075  0.6250947474181363
  0.3888410846669142  0.4444922486664144  0.6254650353661038
  0.8888984233359211  0.9444349099974075  0.6250947474181363
  0.0555285902401922  0.9443727337945251  0.1248970061777708
  0.7223780647332064  0.4445026924845746  0.6251672014507116
  0.3888441435543323  0.9443727337945251  0.1248970061777708
  0.2221246277513684  0.4445026924845746  0.1248327985492885
  0.2221667279644742  0.6111666053688618  0.1248890954534409
  0.5556511639995002  0.4444922486664144  0.1245349646338963
  0.7222307687698530  0.9444615375397056  0.1249099671267542
  0.8889605995388035  0.4444891897789963  0.1248970061777708
  0.0555724273455071  0.6111448546910141  0.6250830273213410
  0.2221246277513684  0.1109552686001294  0.6251672014507116
  0.7223780647332064  0.6112087055819676  0.6251672014507116
  0.5555530325039683  0.1110429382773485  0.6251332812149598
  0.8888717957936230  0.1111025645634829  0.6250900328732456
 
  0.00000000E+00  0.00000000E+00  0.00000000E+00
  0.00000000E+00  0.00000000E+00  0.00000000E+00
  0.00000000E+00  0.00000000E+00  0.00000000E+00
  0.00000000E+00  0.00000000E+00  0.00000000E+00
  0.00000000E+00  0.00000000E+00  0.00000000E+00
  0.00000000E+00  0.00000000E+00  0.00000000E+00
  0.00000000E+00  0.00000000E+00  0.00000000E+00
  0.00000000E+00  0.00000000E+00  0.00000000E+00
  0.00000000E+00  0.00000000E+00  0.00000000E+00
  0.00000000E+00  0.00000000E+00  0.00000000E+00
  0.00000000E+00  0.00000000E+00  0.00000000E+00
  0.00000000E+00  0.00000000E+00  0.00000000E+00
  0.00000000E+00  0.00000000E+00  0.00000000E+00
  0.00000000E+00  0.00000000E+00  0.00000000E+00
  0.00000000E+00  0.00000000E+00  0.00000000E+00
  0.00000000E+00  0.00000000E+00  0.00000000E+00
  0.00000000E+00  0.00000000E+00  0.00000000E+00
  0.00000000E+00  0.00000000E+00  0.00000000E+00
  0.00000000E+00  0.00000000E+00  0.00000000E+00
  0.00000000E+00  0.00000000E+00  0.00000000E+00
  0.00000000E+00  0.00000000E+00  0.00000000E+00
  0.00000000E+00  0.00000000E+00  0.00000000E+00
  0.00000000E+00  0.00000000E+00  0.00000000E+00
  0.00000000E+00  0.00000000E+00  0.00000000E+00
  0.00000000E+00  0.00000000E+00  0.00000000E+00
  0.00000000E+00  0.00000000E+00  0.00000000E+00
  0.00000000E+00  0.00000000E+00  0.00000000E+00
  0.00000000E+00  0.00000000E+00  0.00000000E+00
  0.00000000E+00  0.00000000E+00  0.00000000E+00
  0.00000000E+00  0.00000000E+00  0.00000000E+00
  0.00000000E+00  0.00000000E+00  0.00000000E+00
  0.00000000E+00  0.00000000E+00  0.00000000E+00
  0.00000000E+00  0.00000000E+00  0.00000000E+00
  0.00000000E+00  0.00000000E+00  0.00000000E+00
  0.00000000E+00  0.00000000E+00  0.00000000E+00
  0.00000000E+00  0.00000000E+00  0.00000000E+00
  0.00000000E+00  0.00000000E+00  0.00000000E+00
  0.00000000E+00  0.00000000E+00  0.00000000E+00
  0.00000000E+00  0.00000000E+00  0.00000000E+00
  0.00000000E+00  0.00000000E+00  0.00000000E+00
  0.00000000E+00  0.00000000E+00  0.00000000E+00
  0.00000000E+00  0.00000000E+00  0.00000000E+00
  0.00000000E+00  0.00000000E+00  0.00000000E+00
  0.00000000E+00  0.00000000E+00  0.00000000E+00
  0.00000000E+00  0.00000000E+00  0.00000000E+00
  0.00000000E+00  0.00000000E+00  0.00000000E+00
  0.00000000E+00  0.00000000E+00  0.00000000E+00
  0.00000000E+00  0.00000000E+00  0.00000000E+00
  0.00000000E+00  0.00000000E+00  0.00000000E+00
  0.00000000E+00  0.00000000E+00  0.00000000E+00
  0.00000000E+00  0.00000000E+00  0.00000000E+00
  0.00000000E+00  0.00000000E+00  0.00000000E+00
  0.00000000E+00  0.00000000E+00  0.00000000E+00
  0.00000000E+00  0.00000000E+00  0.00000000E+00
  0.00000000E+00  0.00000000E+00  0.00000000E+00
  0.00000000E+00  0.00000000E+00  0.00000000E+00
  0.00000000E+00  0.00000000E+00  0.00000000E+00
  0.00000000E+00  0.00000000E+00  0.00000000E+00
  0.00000000E+00  0.00000000E+00  0.00000000E+00
  0.00000000E+00  0.00000000E+00  0.00000000E+00
  0.00000000E+00  0.00000000E+00  0.00000000E+00
  0.00000000E+00  0.00000000E+00  0.00000000E+00
  0.00000000E+00  0.00000000E+00  0.00000000E+00
  0.00000000E+00  0.00000000E+00  0.00000000E+00
  0.00000000E+00  0.00000000E+00  0.00000000E+00
  0.00000000E+00  0.00000000E+00  0.00000000E+00
  0.00000000E+00  0.00000000E+00  0.00000000E+00
  0.00000000E+00  0.00000000E+00  0.00000000E+00
  0.00000000E+00  0.00000000E+00  0.00000000E+00
  0.00000000E+00  0.00000000E+00  0.00000000E+00
  0.00000000E+00  0.00000000E+00  0.00000000E+00
  0.00000000E+00  0.00000000E+00  0.00000000E+00
  0.00000000E+00  0.00000000E+00  0.00000000E+00
  0.00000000E+00  0.00000000E+00  0.00000000E+00
  0.00000000E+00  0.00000000E+00  0.00000000E+00
  0.00000000E+00  0.00000000E+00  0.00000000E+00
  0.00000000E+00  0.00000000E+00  0.00000000E+00
  0.00000000E+00  0.00000000E+00  0.00000000E+00
  0.00000000E+00  0.00000000E+00  0.00000000E+00
  0.00000000E+00  0.00000000E+00  0.00000000E+00
  0.00000000E+00  0.00000000E+00  0.00000000E+00
  0.00000000E+00  0.00000000E+00  0.00000000E+00
  0.00000000E+00  0.00000000E+00  0.00000000E+00
  0.00000000E+00  0.00000000E+00  0.00000000E+00
  0.00000000E+00  0.00000000E+00  0.00000000E+00
  0.00000000E+00  0.00000000E+00  0.00000000E+00
  0.00000000E+00  0.00000000E+00  0.00000000E+00
  0.00000000E+00  0.00000000E+00  0.00000000E+00
  0.00000000E+00  0.00000000E+00  0.00000000E+00
  0.00000000E+00  0.00000000E+00  0.00000000E+00
  0.00000000E+00  0.00000000E+00  0.00000000E+00
  0.00000000E+00  0.00000000E+00  0.00000000E+00
  0.00000000E+00  0.00000000E+00  0.00000000E+00
  0.00000000E+00  0.00000000E+00  0.00000000E+00
  0.00000000E+00  0.00000000E+00  0.00000000E+00
  0.00000000E+00  0.00000000E+00  0.00000000E+00
  0.00000000E+00  0.00000000E+00  0.00000000E+00
  0.00000000E+00  0.00000000E+00  0.00000000E+00
  0.00000000E+00  0.00000000E+00  0.00000000E+00
  0.00000000E+00  0.00000000E+00  0.00000000E+00
  0.00000000E+00  0.00000000E+00  0.00000000E+00
  0.00000000E+00  0.00000000E+00  0.00000000E+00
  0.00000000E+00  0.00000000E+00  0.00000000E+00
  0.00000000E+00  0.00000000E+00  0.00000000E+00
  0.00000000E+00  0.00000000E+00  0.00000000E+00
  0.00000000E+00  0.00000000E+00  0.00000000E+00
  0.00000000E+00  0.00000000E+00  0.00000000E+00
  0.00000000E+00  0.00000000E+00  0.00000000E+00
  0.00000000E+00  0.00000000E+00  0.00000000E+00
  0.00000000E+00  0.00000000E+00  0.00000000E+00
  0.00000000E+00  0.00000000E+00  0.00000000E+00
  0.00000000E+00  0.00000000E+00  0.00000000E+00
  0.00000000E+00  0.00000000E+00  0.00000000E+00
  0.00000000E+00  0.00000000E+00  0.00000000E+00
  0.00000000E+00  0.00000000E+00  0.00000000E+00
  0.00000000E+00  0.00000000E+00  0.00000000E+00
  0.00000000E+00  0.00000000E+00  0.00000000E+00
  0.00000000E+00  0.00000000E+00  0.00000000E+00
  0.00000000E+00  0.00000000E+00  0.00000000E+00
  0.00000000E+00  0.00000000E+00  0.00000000E+00
  0.00000000E+00  0.00000000E+00  0.00000000E+00
  0.00000000E+00  0.00000000E+00  0.00000000E+00
  0.00000000E+00  0.00000000E+00  0.00000000E+00
  0.00000000E+00  0.00000000E+00  0.00000000E+00
  0.00000000E+00  0.00000000E+00  0.00000000E+00
  0.00000000E+00  0.00000000E+00  0.00000000E+00
  0.00000000E+00  0.00000000E+00  0.00000000E+00
  0.00000000E+00  0.00000000E+00  0.00000000E+00
  0.00000000E+00  0.00000000E+00  0.00000000E+00
  0.00000000E+00  0.00000000E+00  0.00000000E+00
  0.00000000E+00  0.00000000E+00  0.00000000E+00
  0.00000000E+00  0.00000000E+00  0.00000000E+00
  0.00000000E+00  0.00000000E+00  0.00000000E+00
  0.00000000E+00  0.00000000E+00  0.00000000E+00
  0.00000000E+00  0.00000000E+00  0.00000000E+00
  0.00000000E+00  0.00000000E+00  0.00000000E+00
  0.00000000E+00  0.00000000E+00  0.00000000E+00
  0.00000000E+00  0.00000000E+00  0.00000000E+00
  0.00000000E+00  0.00000000E+00  0.00000000E+00
  0.00000000E+00  0.00000000E+00  0.00000000E+00
  0.00000000E+00  0.00000000E+00  0.00000000E+00
  0.00000000E+00  0.00000000E+00  0.00000000E+00
  0.00000000E+00  0.00000000E+00  0.00000000E+00
  0.00000000E+00  0.00000000E+00  0.00000000E+00
  0.00000000E+00  0.00000000E+00  0.00000000E+00
  0.00000000E+00  0.00000000E+00  0.00000000E+00
  0.00000000E+00  0.00000000E+00  0.00000000E+00
  0.00000000E+00  0.00000000E+00  0.00000000E+00
  0.00000000E+00  0.00000000E+00  0.00000000E+00
  0.00000000E+00  0.00000000E+00  0.00000000E+00
  0.00000000E+00  0.00000000E+00  0.00000000E+00
  0.00000000E+00  0.00000000E+00  0.00000000E+00
  0.00000000E+00  0.00000000E+00  0.00000000E+00
  0.00000000E+00  0.00000000E+00  0.00000000E+00
  0.00000000E+00  0.00000000E+00  0.00000000E+00
  0.00000000E+00  0.00000000E+00  0.00000000E+00
  0.00000000E+00  0.00000000E+00  0.00000000E+00
  0.00000000E+00  0.00000000E+00  0.00000000E+00
  0.00000000E+00  0.00000000E+00  0.00000000E+00
  0.00000000E+00  0.00000000E+00  0.00000000E+00
  0.00000000E+00  0.00000000E+00  0.00000000E+00
  0.00000000E+00  0.00000000E+00  0.00000000E+00
  0.00000000E+00  0.00000000E+00  0.00000000E+00
  0.00000000E+00  0.00000000E+00  0.00000000E+00
  0.00000000E+00  0.00000000E+00  0.00000000E+00
  0.00000000E+00  0.00000000E+00  0.00000000E+00
  0.00000000E+00  0.00000000E+00  0.00000000E+00
  0.00000000E+00  0.00000000E+00  0.00000000E+00
  0.00000000E+00  0.00000000E+00  0.00000000E+00
  0.00000000E+00  0.00000000E+00  0.00000000E+00
  0.00000000E+00  0.00000000E+00  0.00000000E+00
  0.00000000E+00  0.00000000E+00  0.00000000E+00
  0.00000000E+00  0.00000000E+00  0.00000000E+00
  0.00000000E+00  0.00000000E+00  0.00000000E+00
  0.00000000E+00  0.00000000E+00  0.00000000E+00
  0.00000000E+00  0.00000000E+00  0.00000000E+00
  0.00000000E+00  0.00000000E+00  0.00000000E+00
  0.00000000E+00  0.00000000E+00  0.00000000E+00
  0.00000000E+00  0.00000000E+00  0.00000000E+00
  0.00000000E+00  0.00000000E+00  0.00000000E+00
  0.00000000E+00  0.00000000E+00  0.00000000E+00
  0.00000000E+00  0.00000000E+00  0.00000000E+00
  0.00000000E+00  0.00000000E+00  0.00000000E+00
  0.00000000E+00  0.00000000E+00  0.00000000E+00
  0.00000000E+00  0.00000000E+00  0.00000000E+00
  0.00000000E+00  0.00000000E+00  0.00000000E+00
  0.00000000E+00  0.00000000E+00  0.00000000E+00
  0.00000000E+00  0.00000000E+00  0.00000000E+00
  0.00000000E+00  0.00000000E+00  0.00000000E+00
  0.00000000E+00  0.00000000E+00  0.00000000E+00
  0.00000000E+00  0.00000000E+00  0.00000000E+00
  0.00000000E+00  0.00000000E+00  0.00000000E+00
  0.00000000E+00  0.00000000E+00  0.00000000E+00
  0.00000000E+00  0.00000000E+00  0.00000000E+00
  0.00000000E+00  0.00000000E+00  0.00000000E+00
  0.00000000E+00  0.00000000E+00  0.00000000E+00
  0.00000000E+00  0.00000000E+00  0.00000000E+00
  0.00000000E+00  0.00000000E+00  0.00000000E+00
  0.00000000E+00  0.00000000E+00  0.00000000E+00
  0.00000000E+00  0.00000000E+00  0.00000000E+00
  0.00000000E+00  0.00000000E+00  0.00000000E+00
  0.00000000E+00  0.00000000E+00  0.00000000E+00
  0.00000000E+00  0.00000000E+00  0.00000000E+00
  0.00000000E+00  0.00000000E+00  0.00000000E+00
  0.00000000E+00  0.00000000E+00  0.00000000E+00
  0.00000000E+00  0.00000000E+00  0.00000000E+00
  0.00000000E+00  0.00000000E+00  0.00000000E+00
  0.00000000E+00  0.00000000E+00  0.00000000E+00
  0.00000000E+00  0.00000000E+00  0.00000000E+00
  0.00000000E+00  0.00000000E+00  0.00000000E+00
  0.00000000E+00  0.00000000E+00  0.00000000E+00
  0.00000000E+00  0.00000000E+00  0.00000000E+00
  0.00000000E+00  0.00000000E+00  0.00000000E+00
  0.00000000E+00  0.00000000E+00  0.00000000E+00
  0.00000000E+00  0.00000000E+00  0.00000000E+00
  0.00000000E+00  0.00000000E+00  0.00000000E+00
  0.00000000E+00  0.00000000E+00  0.00000000E+00
  0.00000000E+00  0.00000000E+00  0.00000000E+00
  0.00000000E+00  0.00000000E+00  0.00000000E+00
  0.00000000E+00  0.00000000E+00  0.00000000E+00
  0.00000000E+00  0.00000000E+00  0.00000000E+00
  0.00000000E+00  0.00000000E+00  0.00000000E+00
  0.00000000E+00  0.00000000E+00  0.00000000E+00
  0.00000000E+00  0.00000000E+00  0.00000000E+00
  0.00000000E+00  0.00000000E+00  0.00000000E+00
  0.00000000E+00  0.00000000E+00  0.00000000E+00
  0.00000000E+00  0.00000000E+00  0.00000000E+00
  0.00000000E+00  0.00000000E+00  0.00000000E+00
  0.00000000E+00  0.00000000E+00  0.00000000E+00
  0.00000000E+00  0.00000000E+00  0.00000000E+00
  0.00000000E+00  0.00000000E+00  0.00000000E+00
  0.00000000E+00  0.00000000E+00  0.00000000E+00
  0.00000000E+00  0.00000000E+00  0.00000000E+00
  0.00000000E+00  0.00000000E+00  0.00000000E+00
  0.00000000E+00  0.00000000E+00  0.00000000E+00
  0.00000000E+00  0.00000000E+00  0.00000000E+00
  0.00000000E+00  0.00000000E+00  0.00000000E+00
  0.00000000E+00  0.00000000E+00  0.00000000E+00
  0.00000000E+00  0.00000000E+00  0.00000000E+00
  0.00000000E+00  0.00000000E+00  0.00000000E+00
  0.00000000E+00  0.00000000E+00  0.00000000E+00
  0.00000000E+00  0.00000000E+00  0.00000000E+00
  0.00000000E+00  0.00000000E+00  0.00000000E+00
  0.00000000E+00  0.00000000E+00  0.00000000E+00
  0.00000000E+00  0.00000000E+00  0.00000000E+00
  0.00000000E+00  0.00000000E+00  0.00000000E+00
  0.00000000E+00  0.00000000E+00  0.00000000E+00