 Sn N B 
 1.0
 17.527899999999772   0.000000000000000   0.000000000000000
 -8.763949999999658  15.179606674993195   0.000000000000000
  0.000000000000001   0.000000000000002  15.000000000000000
 Sn N B 
   1  48  49
Cartesian
  4.757432528322039   7.084739723324256  14.280174958011106 
  8.763280943024011  13.730598661071923   1.785069562923270 
 16.286560947257730   0.729334540443712   1.786729740423570 
 15.039245339330336   2.899776673412440   1.776854475246735 
 13.783323834181640   5.065457818838261   1.787867248620795 
 12.516886451697808   7.229167213419241   1.785940308516120 
 11.256102805117006   9.392275914954693   1.761693273219960 
 10.006060330166525  11.557239630006332   1.761573955721115 
 -6.263582713693365  13.728945221707253   1.805612613572895 
  1.259046439987599   0.725536784461562   1.792224438218760 
  0.020316533714747   2.904353416799993   1.748420395031610 
 -1.230353581290433   5.070403700034093   1.748901845344320 
 -2.498544842895941   7.232875697326357   1.793215138381710 
 -3.762356902122180   9.396423251252006   1.806061362138405 
 -5.016039013373806  11.561045320254012   1.800329487214815 
 -3.759942335190387  13.729435269527363   1.798883592877605 
  3.757676133907416   0.717769501336279   1.773655462716930 
  2.519443958413977   2.896961507777676   1.676187185436810 
  1.287643234970851   5.080658103444454   1.594356697114440 
  0.011436669129780   7.239087699711747   1.676898605344155 
 -1.256293301362819   9.401220928786591   1.774522086997020 
 -2.510507455788959  11.564969676285680   1.799514250517865 
 -1.254212066665983  13.733140604100791   1.803256235699040 
  6.262649073024121   0.714964695252924   1.783106998679835 
  5.016686369583192   2.876168750874918   1.640325782522730 
  3.785392124500148   5.051524791329933   1.312214974201155 
  2.509129888935856   7.258948705171652   1.311586122717450 
  1.242068567571868   9.412509858044727   1.641134264928795 
 -0.006339665586472  11.572136051221261   1.783654171706895 
  1.250859022690780  13.742759770565282   1.795124670271275 
  8.771121683129376   0.717916853419223   1.795259437195500 
  7.529261981331875   2.869306516814710   1.728807407190840 
  6.301729900781858   4.996396353698237   1.435219854162465 
  3.720901071510760   9.464473059585815   1.434720232510185 
  2.492824845550480  11.591338863098935   1.728817439956515 
  3.758692275756193  13.743564277067067   1.756274185954170 
 11.275505274291856   0.726896415531419   1.786413659445165 
 10.026375614488952   2.888544623427063   1.756432613915130 
  8.774042986947627   5.049496362607915   1.625386160528055 
  7.487274420639282   7.203923517231629   1.412578010652585 
  6.226260995497496   9.386028213316656   1.411694428936305 
  5.000607613672419  11.578169111061429   1.625005021106280 
  6.263897019231529  13.737570317524304   1.746490586512590 
 13.781665022460773   0.729166065016632   1.775641808414625 
 12.531060434341192   2.895851437626066   1.775516576765745 
 11.274358894447920   5.059868891664398   1.747437768466110 
 10.005243708165224   7.223756382007269   1.656880548747480 
  8.745803410535876   9.385973338822703   1.602820119897450 
  7.502677883699361  11.557444637080115   1.655988482474310 
  7.517584292332117  14.463551843718315   1.775533104437760 
 15.034722145633944   1.453409059124606   1.778984018077320 
 13.784645945053693   3.619489212518979   1.779387379314735 
 12.529106324271007   5.783946793392973   1.776659552859015 
 11.266816265555622   7.949492076168045   1.740686259756705 
 10.011156421512627  10.116693751110910   1.715984777249430 
  8.761904749705421  12.287668580755909   1.740015378613380 
 -7.510238221221442  14.456445361333275   1.800168281482080 
  0.011450903976488   1.453523546669778   1.779232265077110 
 -1.236189500224837   3.622798332603224   1.758567817303905 
 -2.491091132308783   5.788323723534200   1.780260815669040 
 -3.755609190572842   7.952828355011241   1.800962777525010 
 -5.014654018792132  10.119737783328796   1.794848028024345 
 -6.264504572085461  12.284435941677044   1.794587710163415 
 -5.010047057137665  14.449973523514416   1.797415035960270 
  2.511168117216670   1.444036344256920   1.755831051783390 
  1.270514301534146   3.624013718219764   1.675052007707055 
  0.017586156238229   5.793981868573045   1.675305024093285 
 -1.250790861531761   7.958399640147467   1.756669817699925 
 -2.510080288860251  10.119737783328796   1.798368176973660 
 -3.762225848348747  12.285240015368732   1.801001834101620 
 -2.506614347961614  14.449194595457524   1.797994396938300 
  5.010895437970603   1.429018484873432   1.741029757304145 
  3.769711529700765   3.598026282130824   1.558865293603635 
  2.523086447568115   5.794909334112440   1.388976683951625 
  1.240069842724222   7.971873810796686   1.559601908841270 
 -0.013802398208059  10.130978691475448   1.741919912244060 
 -1.260513428477998  12.290404759573908   1.798716752684340 
 -0.002047010178964  14.455937838781320   1.800804906278340 
  7.520429909220018   1.425433294122780   1.775956668082350 
  6.282693672054349   3.560575152331656   1.626186302003370 
  5.096859721746713   5.597208155492593   1.030345258878510 
  3.636305476771433   8.121658038933123   1.026563356577940 
  2.468105406087426  10.166140797304420   1.626508217274855 
  1.237863483525158  12.305807001721680   1.776108778927230 
  2.504135819291534  14.464476281551457   1.782624231887325 
 10.023177773604219   1.441848711425897   1.782739759469175 
  8.777909471775274   3.596230668177517   1.705168105029735 
  7.533636765791907   5.736113145173247   1.479157690100685 
  6.319926094327596   7.984577822156776   1.332350583975240 
  4.977981736553285  10.160390652883073   1.478484987989160 
  3.747049762031647  12.308432459608069   1.704997023395700 
  5.012459638295290  14.466379963839257   1.759681581097980 
 12.528759647698633   1.450144395816841   1.778294515061085 
 11.279415300661286   3.612508335447940   1.759836023913525 
 10.027785702370904   5.775156827468728   1.677232691577390 
  8.769497393054095   7.946820979805935   1.557775650509145 
  7.511039634179423  10.125391500943971   1.557025348327215 
  6.259266890258470  12.301202472618984   1.676458253010135 
