 C O N B 
 1.0
 14.936314146199660   0.000000000000000   0.000000000000000
 -7.468157073099825  12.935227489513863   0.000000000000000
  0.000000000000001   0.000000000000001  13.341276283792837
 C O N B 
   1   1 143 143
Cartesian
  3.700911277487067   5.011217119973794   5.002978606422314 
  4.983155779096075   5.751521328144685   5.002978606422314 
  1.243828502269285   0.718268416976176   1.667804058990167 
  4.977673253716650   7.184955713085465   1.678540871761476 
  6.222853805346051   0.718497206731274   1.667951561038896 
  9.956602381230066   7.185669230071040   1.667869092137612 
 11.201415207318130   0.718150089910467   1.666639940749675 
 -3.734855495445403   9.341660164999171   8.338846890496081 
  1.244278045217179   9.341643372605384   8.338005651805720 
  2.487832864779780   2.874199545965383   8.337175945172932 
  6.222501952984270   9.341649153339830   8.336695509039805 
  7.467631044344781   2.874037801963905   8.337617703147254 
 12.445897944795336   2.873961620788941   8.339087599744010 
 -1.245244494616390   9.341594701056051   1.667479126766624 
 -0.001567466300569   2.873590020579122   1.666041364064955 
  4.978496403516075   2.874457340513252   1.667587254754471 
  3.733419579076672   9.341881786014536   1.668339509697374 
  8.711887596015389   9.341578478995057   1.667869092137612 
  9.957079579324986   2.873970921252107   1.667271434427433 
 -4.979440633812321  11.497674352657917   8.338648524944094 
 -0.000631320346322  11.497615497707047   8.338171456128222 
  1.243660563708352   5.029169184790993   8.337175945172932 
  6.221805108423207   5.030056129418794   8.327416341083177 
  4.978085926171329  11.497840899077273   8.338685778417208 
 11.201588701949964   5.029865926905033   8.338537210212953 
 -1.245432744061194   5.029795368932820   1.667804058990167 
 -2.490106688468684  11.497759269229897   1.667479126766624 
  2.488548726553458  11.497701722078489   1.667182718644257 
  3.732968823776666   5.029725552953652   1.658808641599740 
  7.467400330271234  11.497669911685531   1.667420002631675 
  8.711970765492527   5.029762686217340   1.669261703804809 
 -0.000463535431735   7.185592723876031   8.338321073612970 
  1.243828502269285   0.718268416976177   8.338153153854462 
  4.977673253716651   7.184955713085466   8.327416341083177 
  6.222853805346052   0.718497206731275   8.338005651805720 
  9.956602381230066   7.185669230071041   8.338088120707043 
 -2.489985007196732   7.185810724171469   1.667308687900533 
 11.201415207318130   0.718150089910468   8.339317272094954 
  3.733288381376067   0.718544701107188   1.667636139231670 
  2.489215589703868   7.186018184342426   1.667587254754471 
  7.467162379925443   7.185663207802381   1.671185604084427 
  8.712190448699481   0.718038051216038   1.667182718644257 
  2.489215589703868   7.186018184342427   8.338369958090157 
 13.690644127568907   0.717997989697683   1.666869613100604 
 -1.245244494616390   9.341594701056051   8.338478086078018 
 -0.001567466300569   2.873590020579122   8.339915848779672 
  4.978496403516075   2.874457340513253   8.338369958090157 
  3.733419579076672   9.341881786014536   8.337617703147254 
  8.711887596015389   9.341578478995057   8.338088120707043 
  9.957079579324986   2.873970921252107   8.338685778417208 
 -3.734855495445403   9.341660164999171   1.667110322348547 
  1.244278045217179   9.341643372605384   1.667951561038896 
  2.487832864779780   2.874199545965382   1.668781267671696 
  6.222501952984270   9.341649153339830   1.669261703804809 
  7.467631044344780   2.874037801963905   1.668339509697374 
 12.445897944795336   2.873961620788940   1.666869613100604 
 -1.245432744061193   5.029795368932821   8.338153153854462 
 -2.490106688468683  11.497759269229897   8.338478086078018 
  2.488548726553458  11.497701722078489   8.338774494200370 
  3.732968823776666   5.029725552953653   8.347148571244903 
  7.467400330271235  11.497669911685531   8.338537210212953 
 -4.979440633812322  11.497674352657917   1.667308687900533 
  8.711970765492527   5.029762686217341   8.336695509039805 
 -0.000631320346322  11.497615497707047   1.667785756716404 
  1.243660563708352   5.029169184790992   1.668781267671696 
 -0.000463535431735   7.185592723876030   1.667636139231670 
  6.221805108423206   5.030056129418793   1.678540871761476 
  4.978085926171328  11.497840899077273   1.667271434427433 
 11.201588701949964   5.029865926905032   1.667420002631675 
 -2.489985007196732   7.185810724171470   8.338648524944094 
  3.733288381376067   0.718544701107189   8.338321073612970 
  7.467162379925444   7.185663207802381   8.334771608760201 
  8.712190448699481   0.718038051216038   8.338774494200370 
 13.690644127568907   0.717997989697684   8.339087599744010 
  0.005449657539937   1.441114335585330   5.002978606422314 
  3.737524233121990   7.890447222604221   5.002978606422314 
  4.972031073378034   1.436358055278491   5.002978606422314 
  8.710856781404859   7.903710505286216   5.002978606422314 
  9.957179597592765   1.438879840228162   5.002978606422314 
 -4.977894121364340  10.061166758574471  11.673616748318732 
  0.001004782082636  10.061193687235354  11.673616748318732 
  1.245526454855221   3.593600031663228  11.673616748318732 
  4.979716155321150  10.061327168280481  11.673616748318732 
  6.224435498936342   3.593788923323946  11.673616748318732 
 11.203177525192896   3.593706556786363  11.673616748318732 
 -2.491562347358668  10.059475798728746   5.002978606422314 
 -1.238619237888506   3.595904870583501   5.002978606422314 
  3.748119801133738   3.620054692591850   5.002978606422314 
  2.491112561760848  10.055070023736850   5.002978606422314 
  7.465114593497105  10.056721479757961   5.002978606422314 
  8.708276272129277   3.595581144206306   5.002978606422314 
 -6.222417385803915  12.217118951059412  11.673616748318732 
 -1.243791047550419  12.217243309209671  11.673616748318732 
  0.000854875922763   5.749562590385541  11.673616748318732 
  4.979799586803344   5.749583629621024  11.673616748318732 
  3.734818672871500  12.217111823117619  11.673616748318732 
  9.958450782753795   5.749493459245007  11.673616748318732 
 -2.486255007850741   5.749355664633118   5.002978606422314 
 -3.734824226711201  12.211561434061666   5.002978606422314 
  1.244666917867617  12.216588770761245   5.002978606422314 
  2.519733536407170   5.747682114418033   5.002978606422314 
  6.224722856218851  12.216834302421194   5.002978606422314 
  7.452347446056962   5.752064790332705   5.002978606422314 
 -1.243739312932566   7.905422036084751  11.673616748318732 
  0.000991095726900   1.437660997296457  11.673616748318732 
  3.735144561872519   7.905367301139256  11.673616748318732 
  4.979766554926537   1.437910395650188  11.673616748318732 
  8.713608369882689   7.905299135634615  11.673616748318732 
 -3.736500566108092   7.904206744609226   5.002978606422314 
  9.958352845097460   1.437634434181066  11.673616748318732 
  2.500899732900759   1.443579191214466   5.002978606422314 
  1.240552410457249   7.899468686816517   5.002978606422314 
  6.218222264637288   7.889632307451754   5.002978606422314 
  7.464116667234583   1.441574246807666   5.002978606422314 
  1.245764517428703   7.905391640162190  11.673616748318732 
 12.449391714360923   1.438669662194000   5.002978606422314 
 -2.488559659599611  10.061209401314715  11.673616748318732 
 -1.243839197481051   3.593770311933505  11.673616748318732 
  3.734990556772765   3.593690249901541  11.673616748318732 
  2.490250157150415  10.061172240580731  11.673616748318732 
  7.469047094942226  10.061267127084008  11.673616748318732 
  8.713837310144676   3.593639606508317  11.673616748318732 
 -4.980549209591326  10.058962202209340   5.002978606422314 
 -0.000529671981093  10.059075511780648   5.002978606422314 
  1.255030276258137   3.599087065508549   5.002978606422314 
  4.978617057282320  10.055540399238726   5.002978606422314 
  6.212704167523286   3.603309818346145   5.002978606422314 
 11.203064596797951   3.594093470297257   5.002978606422314 
 -2.488416084361353   5.749638981432540  11.673616748318732 
 -3.733116109712746  12.217149127291119  11.673616748318732 
  1.245413417011966  12.217019762243178  11.673616748318732 
  2.490336637100249   5.749494076614104  11.673616748318732 
  6.224444243486838  12.217125558035448  11.673616748318732 
 -6.221582207094220  12.219132156616821   5.002978606422314 
  7.469104843638226   5.749453449918071  11.673616748318732 
 -1.246392668335723  12.216973520736881   5.002978606422314 
  0.011240427383406   5.755795601907197   5.002978606422314 
 -1.249432455717065   7.906736609986204   5.002978606422314 
  3.735310602393966  12.215473057950074   5.002978606422314 
  9.952547885970242   5.748360636756122   5.002978606422314 
 -3.733263820178323   7.905403840280520  11.673616748318732 
  2.490309010850594   1.437701545578081  11.673616748318732 
  6.224339476290917   7.905450309665761  11.673616748318732 
  7.468970139735582   1.437776274084726  11.673616748318732 
 12.447732870582479   1.437711928291982  11.673616748318732 
  1.253918497726447   0.727047125725113   5.002978606422314 
  4.972840331198102   7.210651722734863   5.002978606422314 
  6.215053891762460   0.720968606540509   5.002978606422314 
  9.957579861282731   7.187248214965479   5.002978606422314 
 11.204757811798851   0.720079943507189   5.002978606422314 
 -3.733068618824231   9.342691818697414  11.673616748318732 
  1.246002261427190   9.342472490901656  11.673616748318732 
  2.489753208037947   2.875383888565934  11.673616748318732 
  6.224490828927214   9.343044959867074  11.673616748318732 
  7.468462516777633   2.875316615289707  11.673616748318732 
 12.447493080112663   2.875382172231124  11.673616748318732 
 -1.246354442001220   9.341338468216938   5.002978606422314 
  0.015840366633036   2.883640437609347   5.002978606422314 
  4.954097587646578   2.876565171498053   5.002978606422314 
  3.733099719498038   9.333650768336200   5.002978606422314 
  8.713743777072498   9.341635509105139   5.002978606422314 
  9.958463180124262   2.876038997926351   5.002978606422314 
 -4.977070511602776  11.498947659798285  11.673616748318732 
  0.001565059907202  11.498883578437681  11.673616748318732 
  1.245646406116304   5.030240079536264  11.673616748318732 
  6.224165529776517   5.030225141136795  11.673616748318732 
  4.980303810699908  11.499088195997206  11.673616748318732 
 11.203367089051774   5.030356038414704  11.673616748318732 
 -1.232785161543617   5.034144206948340   5.002978606422314 
 -2.490883566309040  11.496926143017300   5.002978606422314 
  2.489090528039733  11.494594720901532   5.002978606422314 
  7.469104105917151  11.500016110767111   5.002978606422314 
  8.710975400398382   5.028858612698032   5.002978606422314 
  0.000649359604722   7.186939203101549  11.673616748318732 
  1.246065104341018   0.719341707459950  11.673616748318732 
  4.978999832834624   7.186915392082080  11.673616748318732 
  6.224433950958356   0.719575862622651  11.673616748318732 
  9.957888334828459   7.186880508824469  11.673616748318732 
 -2.488975578473005   7.187131538640454   5.002978606422314 
 11.203169828228397   0.719163120765328  11.673616748318732 
  3.735359032547743   0.713837365569457   5.002978606422314 
  2.478841616948834   7.163834274484798   5.002978606422314 
  7.474231989318820   7.189744848688712   5.002978606422314 
  8.709770607493777   0.720060765655455   5.002978606422314 
  2.491036930992334   7.186758007853870  11.673616748318732 
 13.697394801548542   0.722288939318618   5.002978606422314 
 -1.243672435607126   9.341997021510043  11.673616748318732 
  0.001804109323829   2.875536600673470  11.673616748318732 
  4.980047780115527   2.875664756582317  11.673616748318732 
  3.734942800119941   9.341962455601035  11.673616748318732 
  8.713579570986134   9.342086508102616  11.673616748318732 
  9.959268712408006   2.875268017136539  11.673616748318732 
 -3.734400989384238   9.341922574195943   5.002978606422314 
  1.242518383443082   9.333652749390065   5.002978606422314 
  2.512011725517567   2.887406528651698   5.002978606422314 
  6.221221319802595   9.341239178641903   5.002978606422314 
  7.460342844147026   2.877876304282331   5.002978606422314 
 12.452989353163234   2.877662401137516   5.002978606422314 
 -1.243384946200740   5.031195677903213  11.673616748318732 
 -2.488972239230428  11.498919552041162  11.673616748318732 
  2.489585836387457  11.498581861941483  11.673616748318732 
  3.734784626364183   5.030773907066359  11.673616748318732 
  7.468713972840202  11.498964984338629  11.673616748318732 
 -4.977792060566633  11.497888136341482   5.002978606422314 
  8.714174007375366   5.030787200045272  11.673616748318732 
 -0.000577838454099  11.497646375491927   5.002978606422314 
  1.267187576590936   5.043505201081324   5.002978606422314 
 -0.003504882005710   7.189739628161945   5.002978606422314 
  6.241642044296185   5.013022690918537   5.002978606422314 
  4.980568733507844  11.498005094181011   5.002978606422314 
 11.204472457779906   5.030168340355957   5.002978606422314 
 -2.487697229761580   7.187226656644826  11.673616748318732 
  3.735010914109247   0.718835256867774  11.673616748318732 
  7.469693840591401   7.187124747299332  11.673616748318732 
  8.713471227096715   0.718496144747301  11.673616748318732 
 13.692671928863890   0.718669141683860  11.673616748318732 
 -0.000304934236944   1.437055245710156   1.668231745393372 
  3.731468563996780   7.904100501720801   1.671612106416982 
  4.978177975970904   1.437311069908786   1.670524366418091 
  8.712173145852946   7.904470508654696   1.668610736131551 
  9.957496303037242   1.436493645222144   1.667652692345574 
 -4.978798214427023  10.060399222791634   8.337850152078360 
  0.000068996557088  10.059828001947366   8.336944970679284 
  1.243851965329366   3.592633264684729   8.335090917455403 
  4.978138584266655  10.060293331980080   8.337869132948482 
  6.221500419520578   3.591238815488550   8.334345106427646 
 11.201595188854228   3.592290255210093   8.338033789174249 
 -2.490529320051860  10.060072217322396   1.668432753720419 
 -1.245011808725084   3.592950792853888   1.668231745393372 
  3.732456375633724   3.593714507864175   1.673419340542773 
  2.487829988816250  10.059831570171236   1.668518059827453 
  7.466500704575183  10.060245156981420   1.668171144444657 
  8.712153196117928   3.592790308049049   1.668088079896132 
 -6.224193697481896  12.217526324569407   8.337603101309234 
 -1.245441658466163  12.217115737816044   8.336944970679284 
 -0.000394190049156   5.747423931649139   8.335161620331936 
  4.974176249431423   5.746336994275602   8.339731307767915 
  3.733402449622610  12.216940430413521   8.338304520499053 
  9.956292535499518   5.747799205550502   8.337786068399970 
 -2.488951444391867   5.747896963639382   1.668354111535394 
 -3.734978860778052  12.216959827281810   1.668746870851831 
  1.243829396044670  12.216105227311305   1.668282930756148 
  2.489090554542623   5.747287282388572   1.673419340542773 
  6.222426522173034  12.216463365356963   1.667923423670379 
  7.467902056194695   5.747946799214572   1.671551436581081 
 -1.244834627082228   7.903903496345947   8.337210341992797 
 -0.000304934236943   1.437055245710157   8.337725467451255 
  3.731468563996781   7.904100501720801   8.334345106427646 
  4.978177975970905   1.437311069908787   8.335432846426537 
  8.712173145852946   7.904470508654697   8.337346476713076 
 -3.734380572195920   7.905004640612279   1.668107060766268 
  9.957496303037242   1.436493645222145   8.338304520499053 
  2.487832345068884   1.437689152083596   1.670795592512692 
  1.244451196633698   7.904315553301381   1.670524366418091 
  6.222433284785286   7.905161990536071   1.671551436581081 
  7.466599000935753   1.436350682030689   1.668518059827453 
  1.244451196633698   7.904315553301382   8.335432846426537 
 12.445569247688972   1.436462760031989   1.667902653611140 
 -2.490529320051859  10.060072217322396   8.337524459124209 
 -1.245011808725084   3.592950792853888   8.337725467451255 
  3.732456375633725   3.593714507864176   8.332537872301854 
  2.487829988816250  10.059831570171236   8.337439153017174 
  7.466500704575184  10.060245156981420   8.337786068399970 
  8.712153196117928   3.592790308049050   8.337869132948482 
 -4.978798214427024  10.060399222791634   1.668107060766268 
  0.000068996557087  10.059828001947366   1.669012242165331 
  1.243851965329366   3.592633264684729   1.670866295389224 
  4.978138584266654  10.060293331980080   1.668088079896132 
  6.221500419520577   3.591238815488549   1.671612106416982 
 11.201595188854228   3.592290255210092   1.667923423670379 
 -2.488951444391867   5.747896963639383   8.337603101309234 
 -3.734978860778052  12.216959827281810   8.337210341992797 
  1.243829396044670  12.216105227311305   8.337674282088493 
  2.489090554542624   5.747287282388573   8.332537872301854 
  6.222426522173035  12.216463365356963   8.338033789174249 
 -6.224193697481897  12.217526324569407   1.668354111535394 
  7.467902056194696   5.747946799214573   8.334405776263548 
 -1.245441658466164  12.217115737816044   1.669012242165331 
 -0.000394190049157   5.747423931649138   1.670795592512692 
 -1.244834627082229   7.903903496345946   1.668746870851831 
  4.974176249431422   5.746336994275601   1.666225905076712 
  3.733402449622609  12.216940430413521   1.667652692345574 
  9.956292535499518   5.747799205550501   1.668171144444657 
 -3.734380572195919   7.905004640612280   8.337850152078360 
  2.487832345068885   1.437689152083597   8.335161620331936 
  6.222433284785287   7.905161990536071   8.334405776263548 
  7.466599000935754   1.436350682030690   8.337439153017174 
 12.445569247688972   1.436462760031990   8.338054559233488 
Generated by cif2cell 2.0.0.  :  Failed to get author information, No journal information. Species order: C O N B 
 1.0
 14.936314146199660   0.000000000000000   0.000000000000000
 -7.468157073099825  12.935227489513863   0.000000000000000
  0.000000000000001   0.000000000000001  13.341276283792837
 C O N B 
   1   1 143 143
Cartesian
  3.700911277487067   5.011217119973794   5.002978606422314 
  4.983155779096075   5.751521328144685   5.002978606422314 
  1.243828502269285   0.718268416976176   1.667804058990167 
  4.977673253716650   7.184955713085465   1.678540871761476 
  6.222853805346051   0.718497206731274   1.667951561038896 
  9.956602381230066   7.185669230071040   1.667869092137612 
 11.201415207318130   0.718150089910467   1.666639940749675 
 -3.734855495445403   9.341660164999171   8.338846890496081 
  1.244278045217179   9.341643372605384   8.338005651805720 
  2.487832864779780   2.874199545965383   8.337175945172932 
  6.222501952984270   9.341649153339830   8.336695509039805 
  7.467631044344781   2.874037801963905   8.337617703147254 
 12.445897944795336   2.873961620788941   8.339087599744010 
 -1.245244494616390   9.341594701056051   1.667479126766624 
 -0.001567466300569   2.873590020579122   1.666041364064955 
  4.978496403516075   2.874457340513252   1.667587254754471 
  3.733419579076672   9.341881786014536   1.668339509697374 
  8.711887596015389   9.341578478995057   1.667869092137612 
  9.957079579324986   2.873970921252107   1.667271434427433 
 -4.979440633812321  11.497674352657917   8.338648524944094 
 -0.000631320346322  11.497615497707047   8.338171456128222 
  1.243660563708352   5.029169184790993   8.337175945172932 
  6.221805108423207   5.030056129418794   8.327416341083177 
  4.978085926171329  11.497840899077273   8.338685778417208 
 11.201588701949964   5.029865926905033   8.338537210212953 
 -1.245432744061194   5.029795368932820   1.667804058990167 
 -2.490106688468684  11.497759269229897   1.667479126766624 
  2.488548726553458  11.497701722078489   1.667182718644257 
  3.732968823776666   5.029725552953652   1.658808641599740 
  7.467400330271234  11.497669911685531   1.667420002631675 
  8.711970765492527   5.029762686217340   1.669261703804809 
 -0.000463535431735   7.185592723876031   8.338321073612970 
  1.243828502269285   0.718268416976177   8.338153153854462 
  4.977673253716651   7.184955713085466   8.327416341083177 
  6.222853805346052   0.718497206731275   8.338005651805720 
  9.956602381230066   7.185669230071041   8.338088120707043 
 -2.489985007196732   7.185810724171469   1.667308687900533 
 11.201415207318130   0.718150089910468   8.339317272094954 
  3.733288381376067   0.718544701107188   1.667636139231670 
  2.489215589703868   7.186018184342426   1.667587254754471 
  7.467162379925443   7.185663207802381   1.671185604084427 
  8.712190448699481   0.718038051216038   1.667182718644257 
  2.489215589703868   7.186018184342427   8.338369958090157 
 13.690644127568907   0.717997989697683   1.666869613100604 
 -1.245244494616390   9.341594701056051   8.338478086078018 
 -0.001567466300569   2.873590020579122   8.339915848779672 
  4.978496403516075   2.874457340513253   8.338369958090157 
  3.733419579076672   9.341881786014536   8.337617703147254 
  8.711887596015389   9.341578478995057   8.338088120707043 
  9.957079579324986   2.873970921252107   8.338685778417208 
 -3.734855495445403   9.341660164999171   1.667110322348547 
  1.244278045217179   9.341643372605384   1.667951561038896 
  2.487832864779780   2.874199545965382   1.668781267671696 
  6.222501952984270   9.341649153339830   1.669261703804809 
  7.467631044344780   2.874037801963905   1.668339509697374 
 12.445897944795336   2.873961620788940   1.666869613100604 
 -1.245432744061193   5.029795368932821   8.338153153854462 
 -2.490106688468683  11.497759269229897   8.338478086078018 
  2.488548726553458  11.497701722078489   8.338774494200370 
  3.732968823776666   5.029725552953653   8.347148571244903 
  7.467400330271235  11.497669911685531   8.338537210212953 
 -4.979440633812322  11.497674352657917   1.667308687900533 
  8.711970765492527   5.029762686217341   8.336695509039805 
 -0.000631320346322  11.497615497707047   1.667785756716404 
  1.243660563708352   5.029169184790992   1.668781267671696 
 -0.000463535431735   7.185592723876030   1.667636139231670 
  6.221805108423206   5.030056129418793   1.678540871761476 
  4.978085926171328  11.497840899077273   1.667271434427433 
 11.201588701949964   5.029865926905032   1.667420002631675 
 -2.489985007196732   7.185810724171470   8.338648524944094 
  3.733288381376067   0.718544701107189   8.338321073612970 
  7.467162379925444   7.185663207802381   8.334771608760201 
  8.712190448699481   0.718038051216038   8.338774494200370 
 13.690644127568907   0.717997989697684   8.339087599744010 
  0.005449657539937   1.441114335585330   5.002978606422314 
  3.737524233121990   7.890447222604221   5.002978606422314 
  4.972031073378034   1.436358055278491   5.002978606422314 
  8.710856781404859   7.903710505286216   5.002978606422314 
  9.957179597592765   1.438879840228162   5.002978606422314 
 -4.977894121364340  10.061166758574471  11.673616748318732 
  0.001004782082636  10.061193687235354  11.673616748318732 
  1.245526454855221   3.593600031663228  11.673616748318732 
  4.979716155321150  10.061327168280481  11.673616748318732 
  6.224435498936342   3.593788923323946  11.673616748318732 
 11.203177525192896   3.593706556786363  11.673616748318732 
 -2.491562347358668  10.059475798728746   5.002978606422314 
 -1.238619237888506   3.595904870583501   5.002978606422314 
  3.748119801133738   3.620054692591850   5.002978606422314 
  2.491112561760848  10.055070023736850   5.002978606422314 
  7.465114593497105  10.056721479757961   5.002978606422314 
  8.708276272129277   3.595581144206306   5.002978606422314 
 -6.222417385803915  12.217118951059412  11.673616748318732 
 -1.243791047550419  12.217243309209671  11.673616748318732 
  0.000854875922763   5.749562590385541  11.673616748318732 
  4.979799586803344   5.749583629621024  11.673616748318732 
  3.734818672871500  12.217111823117619  11.673616748318732 
  9.958450782753795   5.749493459245007  11.673616748318732 
 -2.486255007850741   5.749355664633118   5.002978606422314 
 -3.734824226711201  12.211561434061666   5.002978606422314 
  1.244666917867617  12.216588770761245   5.002978606422314 
  2.519733536407170   5.747682114418033   5.002978606422314 
  6.224722856218851  12.216834302421194   5.002978606422314 
  7.452347446056962   5.752064790332705   5.002978606422314 
 -1.243739312932566   7.905422036084751  11.673616748318732 
  0.000991095726900   1.437660997296457  11.673616748318732 
  3.735144561872519   7.905367301139256  11.673616748318732 
  4.979766554926537   1.437910395650188  11.673616748318732 
  8.713608369882689   7.905299135634615  11.673616748318732 
 -3.736500566108092   7.904206744609226   5.002978606422314 
  9.958352845097460   1.437634434181066  11.673616748318732 
  2.500899732900759   1.443579191214466   5.002978606422314 
  1.240552410457249   7.899468686816517   5.002978606422314 
  6.218222264637288   7.889632307451754   5.002978606422314 
  7.464116667234583   1.441574246807666   5.002978606422314 
  1.245764517428703   7.905391640162190  11.673616748318732 
 12.449391714360923   1.438669662194000   5.002978606422314 
 -2.488559659599611  10.061209401314715  11.673616748318732 
 -1.243839197481051   3.593770311933505  11.673616748318732 
  3.734990556772765   3.593690249901541  11.673616748318732 
  2.490250157150415  10.061172240580731  11.673616748318732 
  7.469047094942226  10.061267127084008  11.673616748318732 
  8.713837310144676   3.593639606508317  11.673616748318732 
 -4.980549209591326  10.058962202209340   5.002978606422314 
 -0.000529671981093  10.059075511780648   5.002978606422314 
  1.255030276258137   3.599087065508549   5.002978606422314 
  4.978617057282320  10.055540399238726   5.002978606422314 
  6.212704167523286   3.603309818346145   5.002978606422314 
 11.203064596797951   3.594093470297257   5.002978606422314 
 -2.488416084361353   5.749638981432540  11.673616748318732 
 -3.733116109712746  12.217149127291119  11.673616748318732 
  1.245413417011966  12.217019762243178  11.673616748318732 
  2.490336637100249   5.749494076614104  11.673616748318732 
  6.224444243486838  12.217125558035448  11.673616748318732 
 -6.221582207094220  12.219132156616821   5.002978606422314 
  7.469104843638226   5.749453449918071  11.673616748318732 
 -1.246392668335723  12.216973520736881   5.002978606422314 
  0.011240427383406   5.755795601907197   5.002978606422314 
 -1.249432455717065   7.906736609986204   5.002978606422314 
  3.735310602393966  12.215473057950074   5.002978606422314 
  9.952547885970242   5.748360636756122   5.002978606422314 
 -3.733263820178323   7.905403840280520  11.673616748318732 
  2.490309010850594   1.437701545578081  11.673616748318732 
  6.224339476290917   7.905450309665761  11.673616748318732 
  7.468970139735582   1.437776274084726  11.673616748318732 
 12.447732870582479   1.437711928291982  11.673616748318732 
  1.253918497726447   0.727047125725113   5.002978606422314 
  4.972840331198102   7.210651722734863   5.002978606422314 
  6.215053891762460   0.720968606540509   5.002978606422314 
  9.957579861282731   7.187248214965479   5.002978606422314 
 11.204757811798851   0.720079943507189   5.002978606422314 
 -3.733068618824231   9.342691818697414  11.673616748318732 
  1.246002261427190   9.342472490901656  11.673616748318732 
  2.489753208037947   2.875383888565934  11.673616748318732 
  6.224490828927214   9.343044959867074  11.673616748318732 
  7.468462516777633   2.875316615289707  11.673616748318732 
 12.447493080112663   2.875382172231124  11.673616748318732 
 -1.246354442001220   9.341338468216938   5.002978606422314 
  0.015840366633036   2.883640437609347   5.002978606422314 
  4.954097587646578   2.876565171498053   5.002978606422314 
  3.733099719498038   9.333650768336200   5.002978606422314 
  8.713743777072498   9.341635509105139   5.002978606422314 
  9.958463180124262   2.876038997926351   5.002978606422314 
 -4.977070511602776  11.498947659798285  11.673616748318732 
  0.001565059907202  11.498883578437681  11.673616748318732 
  1.245646406116304   5.030240079536264  11.673616748318732 
  6.224165529776517   5.030225141136795  11.673616748318732 
  4.980303810699908  11.499088195997206  11.673616748318732 
 11.203367089051774   5.030356038414704  11.673616748318732 
 -1.232785161543617   5.034144206948340   5.002978606422314 
 -2.490883566309040  11.496926143017300   5.002978606422314 
  2.489090528039733  11.494594720901532   5.002978606422314 
  7.469104105917151  11.500016110767111   5.002978606422314 
  8.710975400398382   5.028858612698032   5.002978606422314 
  0.000649359604722   7.186939203101549  11.673616748318732 
  1.246065104341018   0.719341707459950  11.673616748318732 
  4.978999832834624   7.186915392082080  11.673616748318732 
  6.224433950958356   0.719575862622651  11.673616748318732 
  9.957888334828459   7.186880508824469  11.673616748318732 
 -2.488975578473005   7.187131538640454   5.002978606422314 
 11.203169828228397   0.719163120765328  11.673616748318732 
  3.735359032547743   0.713837365569457   5.002978606422314 
  2.478841616948834   7.163834274484798   5.002978606422314 
  7.474231989318820   7.189744848688712   5.002978606422314 
  8.709770607493777   0.720060765655455   5.002978606422314 
  2.491036930992334   7.186758007853870  11.673616748318732 
 13.697394801548542   0.722288939318618   5.002978606422314 
 -1.243672435607126   9.341997021510043  11.673616748318732 
  0.001804109323829   2.875536600673470  11.673616748318732 
  4.980047780115527   2.875664756582317  11.673616748318732 
  3.734942800119941   9.341962455601035  11.673616748318732 
  8.713579570986134   9.342086508102616  11.673616748318732 
  9.959268712408006   2.875268017136539  11.673616748318732 
 -3.734400989384238   9.341922574195943   5.002978606422314 
  1.242518383443082   9.333652749390065   5.002978606422314 