Species order:X N B                     
   2.51242800000000     
     5.9449720136058266    0.0000000000000000    0.0000000000000000
    -2.9724860068029120    5.1484967885702053   -0.0000000000000001
     0.0000000000000000    0.0000000000000009    5.3101128803662583
   C    O    N    B 
     1     1   143   143
Direct
  0.4414836730217920  0.3874085031775601  0.3750000000000000
  0.5559469414522893  0.4446401373928089  0.3750000000000000
  0.1110395074666313  0.0555280854208753  0.1250108328103693
  0.6109880442695445  0.5554564632829269  0.1258156143427290
  0.4443986847152117  0.0555457727599873  0.1250218888776893
  0.9443595191862013  0.5555116240434280  0.1250157073925345
  0.7777045421880090  0.0555189377606726  0.1249235759231174
  0.1110417536254636  0.7221875434793961  0.6250411664606796
  0.4443986847152117  0.7221862452885601  0.6249781111223101
  0.2776623941993605  0.2221993813634430  0.6249159201733233
  0.7776955875888253  0.7221866921871133  0.6248799089160114
  0.6110582204975928  0.2221868772152474  0.6249490322958007
  0.9443548336044704  0.2221809877807534  0.6250592089060064
  0.2777209745386952  0.7221824825755058  0.1249864774026381
  0.1109711866928780  0.2221522600131033  0.1248787093997059
  0.4444245787722968  0.2222193110127729  0.1249945821735417
  0.6110582204975928  0.7222046766156739  0.1250509677041995
  0.9443595191862013  0.7221812284761092  0.1250157073925345
  0.7777265094085249  0.2221817067834277  0.1249709097511798
  0.1110544899172050  0.8888652605436345  0.6250262979017978
  0.4443880878056140  0.8888607105694710  0.6249905390429209
  0.2776623941993605  0.3887963461692465  0.6249159201733233
  0.6109880442695445  0.3888649143199437  0.6241843856572726
  0.7777265094085249  0.8888781359584265  0.6250290902488207
  0.9443817939799596  0.3888502100935269  0.6250179542674429
  0.1110395074666313  0.3888447553790843  0.1250108328103693
  0.2777209745386952  0.8888718252965185  0.1249864774026381
  0.6110443193362818  0.8888673764260637  0.1249642600288228
  0.4443453827203440  0.3888393580268362  0.1243365781739250
  0.9443817939799596  0.8888649172197621  0.1249820457325571
  0.7776955875888253  0.3888422287350414  0.1251200910839884
  0.2777218206166689  0.5555057094821981  0.6250017536734828
  0.1110395074666313  0.0555280854208753  0.6249891671896310
  0.6109880442695445  0.5554564632829269  0.6241843856572726
  0.4443986847152117  0.0555457727599873  0.6249781111223101
  0.9443595191862013  0.5555116240434280  0.6249842926074666
  0.1110544899172050  0.5555225627068993  0.1249737020982022
  0.7777045421880090  0.0555189377606726  0.6250764240768830
  0.2777218206166689  0.0555494444678065  0.1249982463265175
  0.4444245787722968  0.5555386010928586  0.1249945821735417
  0.7776889836112341  0.5555111584722841  0.1252642976980095
  0.6110443193362818  0.0555102762435472  0.1249642600288228
  0.4444245787722968  0.5555386010928586  0.6250054178264582
  0.9443548336044704  0.0555071791570528  0.1249407910939933
  0.2777209745386952  0.7221824825755058  0.6250135225973628
  0.1109711866928780  0.2221522600131033  0.6251212906002944
  0.4444245787722968  0.2222193110127729  0.6250054178264582
  0.6110582204975928  0.7222046766156739  0.6249490322958007
  0.9443595191862013  0.7221812284761092  0.6249842926074666
  0.7777265094085249  0.2221817067834277  0.6250290902488207
  0.1110417536254636  0.7221875434793961  0.1249588335393197
  0.4443986847152117  0.7221862452885601  0.1250218888776893
  0.2776623941993605  0.2221993813634430  0.1250840798266774
  0.7776955875888253  0.7221866921871133  0.1251200910839884
  0.6110582204975928  0.2221868772152474  0.1250509677041995
  0.9443548336044704  0.2221809877807534  0.1249407910939933
  0.1110395074666313  0.3888447553790843  0.6249891671896310
  0.2777209745386952  0.8888718252965185  0.6250135225973628
  0.6110443193362818  0.8888673764260637  0.6250357399711771
  0.4443453827203440  0.3888393580268362  0.6256634218260756
  0.9443817939799596  0.8888649172197621  0.6250179542674429
  0.1110544899172050  0.8888652605436345  0.1249737020982022
  0.7776955875888253  0.3888422287350414  0.6248799089160114
  0.4443880878056140  0.8888607105694710  0.1250094609570791
  0.2776623941993605  0.3887963461692465  0.1250840798266774
  0.2777218206166689  0.5555057094821981  0.1249982463265175
  0.6109880442695445  0.3888649143199437  0.1258156143427290
  0.7777265094085249  0.8888781359584265  0.1249709097511798
  0.9443817939799596  0.3888502100935269  0.1249820457325571
  0.1110544899172050  0.5555225627068993  0.6250262979017978
  0.2777218206166689  0.0555494444678065  0.6250017536734828
  0.7776889836112341  0.5555111584722841  0.6247357023019899
  0.6110443193362818  0.0555102762435472  0.6250357399711771
  0.9443548336044704  0.0555071791570528  0.6250592089060064
  0.0560698843721254  0.1114100495529429  0.3750000000000000
  0.5552290866370873  0.6099967881508644  0.3750000000000000
  0.3884032383398835  0.1110423497725803  0.3750000000000000
  0.8887109657241711  0.6110221495287563  0.3750000000000000
  0.7222610046284315  0.1112373045927956  0.3750000000000000
  0.0556310751720314  0.7778113501854298  0.8750000000000000
  0.3889739870833609  0.7778134319934933  0.8750000000000000
  0.2222966367737126  0.2778149850535238  0.8750000000000000
  0.7223084623643746  0.7778237511815582  0.8750000000000000
  0.5556464881491355  0.2778295879401658  0.8750000000000000
  0.8889746722768564  0.2778232203260173  0.8750000000000000
  0.2220279166923946  0.7776806250128658  0.3750000000000000
  0.0560698843721254  0.2779931681525180  0.3750000000000000
  0.3908701501078322  0.2798601490021342  0.3750000000000000
  0.5554522933488727  0.7773400221904210  0.3750000000000000
  0.8885301498815306  0.7774676933908273  0.3750000000000000
  0.7220111941990591  0.2779681414278273  0.3750000000000000
  0.0556455576105662  0.9444842745103172  0.8750000000000000
  0.3889739870833609  0.9444938884232040  0.8750000000000000
  0.2223015901181521  0.4444887107742411  0.8750000000000000
  0.5556473412287555  0.4444903372810420  0.8750000000000000
  0.7222914145397188  0.9444837234615012  0.8750000000000000
  0.8889691425331498  0.4444833663656801  0.8750000000000000
  0.0557792923098132  0.4444727137032511  0.3750000000000000
  0.2219773916119390  0.9440546325111907  0.3750000000000000
  0.5555532410488849  0.9444432871911070  0.3750000000000000
  0.3908701501078322  0.4443433344390331  0.3750000000000000
  0.8889820674229167  0.9444622688178428  0.3750000000000000
  0.7212826066525126  0.4446821515118848  0.3750000000000000
  0.2223077390551122  0.6111544650060001  0.8750000000000000
  0.0556378937524469  0.1111430779599292  0.8750000000000000
  0.5556464881491355  0.6111502335423056  0.8750000000000000
  0.3889811403306612  0.1111623585140540  0.8750000000000000
  0.8889565942374182  0.6111449637853809  0.8750000000000000
  0.0553680993535397  0.6110605129300496  0.3750000000000000
  0.7222914145397188  0.1111410244115537  0.8750000000000000
  0.2232378440161119  0.1116006032661373  0.3750000000000000
  0.3884032383398835  0.6106942219006463  0.3750000000000000
  0.7212826066525126  0.6099337884739644  0.3750000000000000
  0.5554522933488727  0.1114456044917880  0.3750000000000000
  0.3889811403306612  0.6111521151499508  0.8750000000000000
  0.8891087788537501  0.1112210560935463  0.3750000000000000
  0.2222959603100873  0.7778146468217109  0.8750000000000000
  0.0556378937524469  0.2778281491258536  0.8750000000000000
  0.3889720404291152  0.2778219596690369  0.8750000000000000
  0.5556304304649636  0.7778117739898248  0.8750000000000000
  0.8889691425331498  0.7778191095008054  0.8750000000000000
  0.7223084623643746  0.2778180445161524  0.8750000000000000
  0.0553680993535397  0.7776409197568263  0.3750000000000000
  0.3887893777342472  0.7776496795232389  0.3750000000000000
  0.2231450229114527  0.2782391781223945  0.3750000000000000
  0.7220111941990591  0.7773763861045665  0.3750000000000000
  0.5552290866370873  0.2785656318195577  0.3750000000000000
  0.8889820674229167  0.2778531319384106  0.3750000000000000
  0.0556455576105662  0.4444946164335780  0.8750000000000000
  0.2223077390551122  0.9444866073824471  0.8750000000000000
  0.5556198794566417  0.9444766063949854  0.8750000000000000
  0.3889720404291152  0.4444834140934139  0.8750000000000000
  0.8889746722768564  0.9444847852841743  0.8750000000000000
  0.0557792923098132  0.9446399119398903  0.3750000000000000
  0.7223035907681827  0.4444802733140137  0.8750000000000000
  0.3887893777342472  0.9444730315443426  0.3750000000000000
  0.2232378440161119  0.4449705740833104  0.3750000000000000
  0.2219773916119390  0.6112560924340846  0.3750000000000000
  0.7222610046284315  0.9443570333689714  0.3750000000000000
  0.8885301498815306  0.4443957898240385  0.3750000000000000
  0.0556310751720314  0.6111530583199375  0.8750000000000000
  0.2223015901181521  0.1111462126772467  0.8750000000000000
  0.7223035907681827  0.6111566507875050  0.8750000000000000
  0.5556304304649636  0.1111519898084732  0.8750000000000000
  0.8889606973603549  0.1111470153468490  0.8750000000000000
  0.1120543753361825  0.0562067521668642  0.3750000000000000
  0.6116577326191406  0.5574429772170829  0.3750000000000000
  0.4439720031272330  0.0557368323923931  0.3750000000000000
  0.9444859966683984  0.5556336926267380  0.3750000000000000
  0.7780029294561572  0.0556681313947463  0.3750000000000000
  0.1112012643413095  0.7222672988373187  0.8750000000000000
  0.4445461714284665  0.7222503429858705  0.8750000000000000
  0.2778367426866734  0.2222909408355524  0.8750000000000000
  0.7778826983572402  0.7222945995685927  0.8750000000000000
  0.6111633197634081  0.2222857400552583  0.8750000000000000
  0.9445165395682855  0.2222908081486848  0.8750000000000000
  0.2776367580799923  0.7221626736591706  0.3750000000000000
  0.1125251473075445  0.2229292403204364  0.3750000000000000
  0.4428725319382451  0.2223822637700016  0.3750000000000000
  0.6107186427542965  0.7215683509163382  0.3750000000000000
  0.9444859966683984  0.7221856373749962  0.3750000000000000
  0.7778990824676232  0.2223415862038654  0.3750000000000000
  0.1112623903670346  0.8889636977100004  0.8750000000000000
  0.4445841540490017  0.8889587436911660  0.8750000000000000
  0.2778367426866734  0.3888791351844495  0.8750000000000000
  0.6111526096563006  0.3888779803226985  0.8750000000000000
  0.7779232120027735  0.8889745623197673  0.8750000000000000
  0.9445198034710347  0.3888880997642006  0.8750000000000000
  0.1120543753361825  0.3891809565026471  0.3750000000000000
  0.2776367580799923  0.8888074177541490  0.3750000000000000
  0.6109604950093862  0.8886271795544219  0.3750000000000000
  0.9445865536206119  0.8890462978010838  0.3750000000000000
  0.7775940008004760  0.3887723363794531  0.3750000000000000
  0.2778483769518713  0.5556098034555443  0.8750000000000000
  0.1112307371497707  0.0556110596464650  0.8750000000000000
  0.6111526096563006  0.5556079626669307  0.8750000000000000
  0.4445461714284665  0.0556291617759315  0.8750000000000000
  0.9444924358946548  0.5556052659027930  0.8750000000000000
  0.1111731270384918  0.5556246725824346  0.3750000000000000
  0.7778611735044183  0.0555972534188772  0.8750000000000000
  0.2776784946487048  0.0551855285226442  0.3750000000000000
  0.4428725319382451  0.5538236015015789  0.3750000000000000
  0.7783200727651959  0.5558267030492651  0.3750000000000000
  0.6109604950093862  0.0556666487882938  0.3750000000000000
  0.4445751164866182  0.5555957955652439  0.8750000000000000
  0.9449726603861001  0.0558389050292429  0.3750000000000000
  0.2778417766866693  0.7222135852719457  0.8750000000000000
  0.1112721601540590  0.2223027467436939  0.8750000000000000
  0.4445751164866182  0.2223126542547103  0.8750000000000000
  0.6111633197634081  0.7222109130414783  0.8750000000000000
  0.9444924358946548  0.7222205033251965  0.8750000000000000
  0.7779232120027735  0.2222819830163341  0.8750000000000000
  0.1110823264251271  0.7222078298792284  0.3750000000000000
  0.4439720031272330  0.7215685040681759  0.3750000000000000
  0.2797916956746519  0.2232203902863256  0.3750000000000000
  0.7775940008004760  0.7221549977543512  0.3750000000000000
  0.6107186427542965  0.2224836251712868  0.3750000000000000
  0.9449726603861001  0.2224670886901936  0.3750000000000000
  0.1112307371497707  0.3889530108366342  0.8750000000000000
  0.2778417766866693  0.8889615247480520  0.8750000000000000
  0.6111477758387156  0.8889354185121967  0.8750000000000000
  0.4445074755963373  0.3889204044648328  0.8750000000000000
  0.9445198034710347  0.8889650370401626  0.8750000000000000
  0.1111731270384918  0.8888817877893849  0.3750000000000000
  0.7778826983572402  0.3889214321219748  0.8750000000000000
  0.4443928620215905  0.8888630976774597  0.3750000000000000
  0.2797916956746519  0.3899046387216548  0.3750000000000000
  0.2776784946487048  0.5558262994593958  0.3750000000000000
  0.6116577326191406  0.3875480887353874  0.3750000000000000
  0.7778990824676232  0.8888908295970863  0.3750000000000000
  0.9445865536206119  0.3888735891528566  0.3750000000000000
  0.1112623903670346  0.5556320259903627  0.8750000000000000
  0.2778483769518713  0.0555719068296638  0.8750000000000000
  0.7779149617779298  0.5556241475556332  0.8750000000000000
  0.6111477758387156  0.0555456906598477  0.8750000000000000
  0.9445165395682855  0.0555590647529364  0.8750000000000000
  0.0555277085495148  0.1110962483555182  0.1250428901933436
  0.5553514096700785  0.6110522994766326  0.1252962663285584
  0.3888516170885261  0.1111160256805661  0.1252147343989472
  0.8888284748084264  0.6110809040708848  0.1250712975758251
  0.7221899720514383  0.1110528319959317  0.1249994870709228
  0.0555408768781062  0.7777520133254132  0.6249664555862088
  0.3888585459994821  0.7777078532327719  0.6248986073998875
  0.2221471586173703  0.2777402459753526  0.6247596361962000
  0.7221628804825569  0.7777438270904475  0.6249678783039248
  0.5553514096700785  0.2776324435267825  0.6247037336714417
  0.8888139874913397  0.2777137285078475  0.6249802201685464
  0.2221201328662729  0.7777267330998040  0.1250579568423495
  0.0555277085495148  0.2777647935273324  0.1250428901933436
  0.3888033123364196  0.2778238350100512  0.1254317281904779
  0.5554165755122153  0.7777081290859699  0.1250643509912459
  0.8887591559829091  0.7777401027648655  0.1250383478281738
  0.7221628804825569  0.2777523867254439  0.1250321216960745
  0.0555423785760844  0.9445157678497521  0.6249479378099581
  0.3888585459994821  0.9444840261000461  0.6248986073998875
  0.2221352960013593  0.4443233747770092  0.6247649357548798
  0.5551453577347574  0.4442393455340430  0.6251074582646287
  0.7221899720514383  0.9444704733888418  0.6250005129290773
  0.8887591559829091  0.4443523865513800  0.6249616521718262
  0.0555423785760844  0.4443599440596621  0.1250520621900423
  0.2221757089265718  0.9444719729270837  0.1250815016010913
  0.5554784772381478  0.9444059052857381  0.1250467268099976
  0.3888033123364196  0.4443128106597037  0.1254317281904779
  0.8888139874913397  0.9444335923168277  0.1250197798314545
  0.7221648247639008  0.4443637967615359  0.1252917187999245
  0.2221757089265718  0.6110370693328250  0.6249184983989091
  0.0555277085495148  0.1110962483555182  0.6249571098066560
  0.5553514096700785  0.6110522994766326  0.6247037336714417
  0.3888516170885261  0.1111160256805661  0.6247852656010527
  0.8888284748084264  0.6110809040708848  0.6249287024241753
  0.0555408768781062  0.6111221968860299  0.1250335444137906
  0.7221899720514383  0.1110528319959317  0.6250005129290773
  0.2221352960013593  0.1111452545576858  0.1252350642451204
  0.3888516170885261  0.6110689247413028  0.1252147343989472
  0.7221648247639008  0.6111343613357020  0.1252917187999245
  0.5554165755122153  0.1110417797595816  0.1250643509912459
  0.3888516170885261  0.6110689247413028  0.6247852656010527
  0.8887675552975655  0.1110504443154544  0.1250182230044462
  0.2221201328662729  0.7777267330998040  0.6249420431576508
  0.0555277085495148  0.2777647935273324  0.6249571098066560
  0.3888033123364196  0.2778238350100512  0.6245682718095221
  0.5554165755122153  0.7777081290859699  0.6249356490087542
  0.8887591559829091  0.7777401027648655  0.6249616521718262
  0.7221628804825569  0.2777523867254439  0.6249678783039248
  0.0555408768781062  0.7777520133254132  0.1250335444137906
  0.3888585459994821  0.7777078532327719  0.1251013926001124
  0.2221471586173703  0.2777402459753526  0.1252403638038002
  0.7221628804825569  0.7777438270904475  0.1250321216960745
  0.5553514096700785  0.2776324435267825  0.1252962663285584
  0.8888139874913397  0.2777137285078475  0.1250197798314545
  0.0555423785760844  0.4443599440596621  0.6249479378099581
  0.2221757089265718  0.9444719729270837  0.6249184983989091
  0.5554784772381478  0.9444059052857381  0.6249532731900027
  0.3888033123364196  0.4443128106597037  0.6245682718095221
  0.8888139874913397  0.9444335923168277  0.6249802201685464
  0.0555423785760844  0.9445157678497521  0.1250520621900423
  0.7221648247639008  0.4443637967615359  0.6247082812000748
  0.3888585459994821  0.9444840261000461  0.1251013926001124
  0.2221352960013593  0.4443233747770092  0.1252350642451204
  0.2221757089265718  0.6110370693328250  0.1250815016010913
  0.5551453577347574  0.4442393455340430  0.1248925417353713
  0.7221899720514383  0.9444704733888418  0.1249994870709228
  0.8887591559829091  0.4443523865513800  0.1250383478281738
  0.0555408768781062  0.6111221968860299  0.6249664555862088
  0.2221352960013593  0.1111452545576858  0.6247649357548798
  0.7221648247639008  0.6111343613357020  0.6247082812000748
  0.5554165755122153  0.1110417797595816  0.6249356490087542
  0.8887675552975655  0.1110504443154544  0.6249817769955541
 
  0.00000000E+00  0.00000000E+00  0.00000000E+00
  0.00000000E+00  0.00000000E+00  0.00000000E+00
  0.00000000E+00  0.00000000E+00  0.00000000E+00
  0.00000000E+00  0.00000000E+00  0.00000000E+00
  0.00000000E+00  0.00000000E+00  0.00000000E+00
  0.00000000E+00  0.00000000E+00  0.00000000E+00
  0.00000000E+00  0.00000000E+00  0.00000000E+00
  0.00000000E+00  0.00000000E+00  0.00000000E+00
  0.00000000E+00  0.00000000E+00  0.00000000E+00
  0.00000000E+00  0.00000000E+00  0.00000000E+00
  0.00000000E+00  0.00000000E+00  0.00000000E+00
  0.00000000E+00  0.00000000E+00  0.00000000E+00
  0.00000000E+00  0.00000000E+00  0.00000000E+00
  0.00000000E+00  0.00000000E+00  0.00000000E+00
  0.00000000E+00  0.00000000E+00  0.00000000E+00
  0.00000000E+00  0.00000000E+00  0.00000000E+00
  0.00000000E+00  0.00000000E+00  0.00000000E+00
  0.00000000E+00  0.00000000E+00  0.00000000E+00
  0.00000000E+00  0.00000000E+00  0.00000000E+00
  0.00000000E+00  0.00000000E+00  0.00000000E+00
  0.00000000E+00  0.00000000E+00  0.00000000E+00
  0.00000000E+00  0.00000000E+00  0.00000000E+00
  0.00000000E+00  0.00000000E+00  0.00000000E+00
  0.00000000E+00  0.00000000E+00  0.00000000E+00
  0.00000000E+00  0.00000000E+00  0.00000000E+00
  0.00000000E+00  0.00000000E+00  0.00000000E+00
  0.00000000E+00  0.00000000E+00  0.00000000E+00
  0.00000000E+00  0.00000000E+00  0.00000000E+00
  0.00000000E+00  0.00000000E+00  0.00000000E+00
  0.00000000E+00  0.00000000E+00  0.00000000E+00
  0.00000000E+00  0.00000000E+00  0.00000000E+00
  0.00000000E+00  0.00000000E+00  0.00000000E+00
  0.00000000E+00  0.00000000E+00  0.00000000E+00
  0.00000000E+00  0.00000000E+00  0.00000000E+00
  0.00000000E+00  0.00000000E+00  0.00000000E+00
  0.00000000E+00  0.00000000E+00  0.00000000E+00
  0.00000000E+00  0.00000000E+00  0.00000000E+00
  0.00000000E+00  0.00000000E+00  0.00000000E+00
  0.00000000E+00  0.00000000E+00  0.00000000E+00
  0.00000000E+00  0.00000000E+00  0.00000000E+00
  0.00000000E+00  0.00000000E+00  0.00000000E+00
  0.00000000E+00  0.00000000E+00  0.00000000E+00
  0.00000000E+00  0.00000000E+00  0.00000000E+00
  0.00000000E+00  0.00000000E+00  0.00000000E+00
  0.00000000E+00  0.00000000E+00  0.00000000E+00
  0.00000000E+00  0.00000000E+00  0.00000000E+00
  0.00000000E+00  0.00000000E+00  0.00000000E+00
  0.00000000E+00  0.00000000E+00  0.00000000E+00
  0.00000000E+00  0.00000000E+00  0.00000000E+00
  0.00000000E+00  0.00000000E+00  0.00000000E+00
  0.00000000E+00  0.00000000E+00  0.00000000E+00
  0.00000000E+00  0.00000000E+00  0.00000000E+00
  0.00000000E+00  0.00000000E+00  0.00000000E+00
  0.00000000E+00  0.00000000E+00  0.00000000E+00
  0.00000000E+00  0.00000000E+00  0.00000000E+00
  0.00000000E+00  0.00000000E+00  0.00000000E+00
  0.00000000E+00  0.00000000E+00  0.00000000E+00
  0.00000000E+00  0.00000000E+00  0.00000000E+00
  0.00000000E+00  0.00000000E+00  0.00000000E+00
  0.00000000E+00  0.00000000E+00  0.00000000E+00
  0.00000000E+00  0.00000000E+00  0.00000000E+00
  0.00000000E+00  0.00000000E+00  0.00000000E+00
  0.00000000E+00  0.00000000E+00  0.00000000E+00
  0.00000000E+00  0.00000000E+00  0.00000000E+00
  0.00000000E+00  0.00000000E+00  0.00000000E+00
  0.00000000E+00  0.00000000E+00  0.00000000E+00
  0.00000000E+00  0.00000000E+00  0.00000000E+00
  0.00000000E+00  0.00000000E+00  0.00000000E+00
  0.00000000E+00  0.00000000E+00  0.00000000E+00
  0.00000000E+00  0.00000000E+00  0.00000000E+00
  0.00000000E+00  0.00000000E+00  0.00000000E+00
  0.00000000E+00  0.00000000E+00  0.00000000E+00
  0.00000000E+00  0.00000000E+00  0.00000000E+00
  0.00000000E+00  0.00000000E+00  0.00000000E+00
  0.00000000E+00  0.00000000E+00  0.00000000E+00
  0.00000000E+00  0.00000000E+00  0.00000000E+00
  0.00000000E+00  0.00000000E+00  0.00000000E+00
  0.00000000E+00  0.00000000E+00  0.00000000E+00
  0.00000000E+00  0.00000000E+00  0.00000000E+00
  0.00000000E+00  0.00000000E+00  0.00000000E+00
  0.00000000E+00  0.00000000E+00  0.00000000E+00
  0.00000000E+00  0.00000000E+00  0.00000000E+00
  0.00000000E+00  0.00000000E+00  0.00000000E+00
  0.00000000E+00  0.00000000E+00  0.00000000E+00
  0.00000000E+00  0.00000000E+00  0.00000000E+00
  0.00000000E+00  0.00000000E+00  0.00000000E+00
  0.00000000E+00  0.00000000E+00  0.00000000E+00
  0.00000000E+00  0.00000000E+00  0.00000000E+00
  0.00000000E+00  0.00000000E+00  0.00000000E+00
  0.00000000E+00  0.00000000E+00  0.00000000E+00
  0.00000000E+00  0.00000000E+00  0.00000000E+00
  0.00000000E+00  0.00000000E+00  0.00000000E+00
  0.00000000E+00  0.00000000E+00  0.00000000E+00
  0.00000000E+00  0.00000000E+00  0.00000000E+00
  0.00000000E+00  0.00000000E+00  0.00000000E+00
  0.00000000E+00  0.00000000E+00  0.00000000E+00
  0.00000000E+00  0.00000000E+00  0.00000000E+00
  0.00000000E+00  0.00000000E+00  0.00000000E+00
  0.00000000E+00  0.00000000E+00  0.00000000E+00
  0.00000000E+00  0.00000000E+00  0.00000000E+00
  0.00000000E+00  0.00000000E+00  0.00000000E+00
  0.00000000E+00  0.00000000E+00  0.00000000E+00
  0.00000000E+00  0.00000000E+00  0.00000000E+00
  0.00000000E+00  0.00000000E+00  0.00000000E+00
  0.00000000E+00  0.00000000E+00  0.00000000E+00
  0.00000000E+00  0.00000000E+00  0.00000000E+00
  0.00000000E+00  0.00000000E+00  0.00000000E+00
  0.00000000E+00  0.00000000E+00  0.00000000E+00
  0.00000000E+00  0.00000000E+00  0.00000000E+00
  0.00000000E+00  0.00000000E+00  0.00000000E+00
  0.00000000E+00  0.00000000E+00  0.00000000E+00
  0.00000000E+00  0.00000000E+00  0.00000000E+00
  0.00000000E+00  0.00000000E+00  0.00000000E+00
  0.00000000E+00  0.00000000E+00  0.00000000E+00
  0.00000000E+00  0.00000000E+00  0.00000000E+00
  0.00000000E+00  0.00000000E+00  0.00000000E+00
  0.00000000E+00  0.00000000E+00  0.00000000E+00
  0.00000000E+00  0.00000000E+00  0.00000000E+00
  0.00000000E+00  0.00000000E+00  0.00000000E+00
  0.00000000E+00  0.00000000E+00  0.00000000E+00
  0.00000000E+00  0.00000000E+00  0.00000000E+00
  0.00000000E+00  0.00000000E+00  0.00000000E+00
  0.00000000E+00  0.00000000E+00  0.00000000E+00
  0.00000000E+00  0.00000000E+00  0.00000000E+00
  0.00000000E+00  0.00000000E+00  0.00000000E+00
  0.00000000E+00  0.00000000E+00  0.00000000E+00
  0.00000000E+00  0.00000000E+00  0.00000000E+00
  0.00000000E+00  0.00000000E+00  0.00000000E+00
  0.00000000E+00  0.00000000E+00  0.00000000E+00
  0.00000000E+00  0.00000000E+00  0.00000000E+00
  0.00000000E+00  0.00000000E+00  0.00000000E+00
  0.00000000E+00  0.00000000E+00  0.00000000E+00
  0.00000000E+00  0.00000000E+00  0.00000000E+00
  0.00000000E+00  0.00000000E+00  0.00000000E+00
  0.00000000E+00  0.00000000E+00  0.00000000E+00
  0.00000000E+00  0.00000000E+00  0.00000000E+00
  0.00000000E+00  0.00000000E+00  0.00000000E+00
  0.00000000E+00  0.00000000E+00  0.00000000E+00
  0.00000000E+00  0.00000000E+00  0.00000000E+00
  0.00000000E+00  0.00000000E+00  0.00000000E+00
  0.00000000E+00  0.00000000E+00  0.00000000E+00
  0.00000000E+00  0.00000000E+00  0.00000000E+00
  0.00000000E+00  0.00000000E+00  0.00000000E+00
  0.00000000E+00  0.00000000E+00  0.00000000E+00
  0.00000000E+00  0.00000000E+00  0.00000000E+00
  0.00000000E+00  0.00000000E+00  0.00000000E+00
  0.00000000E+00  0.00000000E+00  0.00000000E+00
  0.00000000E+00  0.00000000E+00  0.00000000E+00
  0.00000000E+00  0.00000000E+00  0.00000000E+00
  0.00000000E+00  0.00000000E+00  0.00000000E+00
  0.00000000E+00  0.00000000E+00  0.00000000E+00
  0.00000000E+00  0.00000000E+00  0.00000000E+00
  0.00000000E+00  0.00000000E+00  0.00000000E+00
  0.00000000E+00  0.00000000E+00  0.00000000E+00
  0.00000000E+00  0.00000000E+00  0.00000000E+00
  0.00000000E+00  0.00000000E+00  0.00000000E+00
  0.00000000E+00  0.00000000E+00  0.00000000E+00
  0.00000000E+00  0.00000000E+00  0.00000000E+00
  0.00000000E+00  0.00000000E+00  0.00000000E+00
  0.00000000E+00  0.00000000E+00  0.00000000E+00
  0.00000000E+00  0.00000000E+00  0.00000000E+00
  0.00000000E+00  0.00000000E+00  0.00000000E+00
  0.00000000E+00  0.00000000E+00  0.00000000E+00
  0.00000000E+00  0.00000000E+00  0.00000000E+00
  0.00000000E+00  0.00000000E+00  0.00000000E+00
  0.00000000E+00  0.00000000E+00  0.00000000E+00
  0.00000000E+00  0.00000000E+00  0.00000000E+00
  0.00000000E+00  0.00000000E+00  0.00000000E+00
  0.00000000E+00  0.00000000E+00  0.00000000E+00
  0.00000000E+00  0.00000000E+00  0.00000000E+00
  0.00000000E+00  0.00000000E+00  0.00000000E+00
  0.00000000E+00  0.00000000E+00  0.00000000E+00
  0.00000000E+00  0.00000000E+00  0.00000000E+00
  0.00000000E+00  0.00000000E+00  0.00000000E+00
  0.00000000E+00  0.00000000E+00  0.00000000E+00
  0.00000000E+00  0.00000000E+00  0.00000000E+00
  0.00000000E+00  0.00000000E+00  0.00000000E+00
  0.00000000E+00  0.00000000E+00  0.00000000E+00
  0.00000000E+00  0.00000000E+00  0.00000000E+00
  0.00000000E+00  0.00000000E+00  0.00000000E+00
  0.00000000E+00  0.00000000E+00  0.00000000E+00
  0.00000000E+00  0.00000000E+00  0.00000000E+00
  0.00000000E+00  0.00000000E+00  0.00000000E+00
  0.00000000E+00  0.00000000E+00  0.00000000E+00
  0.00000000E+00  0.00000000E+00  0.00000000E+00
  0.00000000E+00  0.00000000E+00  0.00000000E+00
  0.00000000E+00  0.00000000E+00  0.00000000E+00
  0.00000000E+00  0.00000000E+00  0.00000000E+00
  0.00000000E+00  0.00000000E+00  0.00000000E+00
  0.00000000E+00  0.00000000E+00  0.00000000E+00
  0.00000000E+00  0.00000000E+00  0.00000000E+00
  0.00000000E+00  0.00000000E+00  0.00000000E+00
  0.00000000E+00  0.00000000E+00  0.00000000E+00
  0.00000000E+00  0.00000000E+00  0.00000000E+00
  0.00000000E+00  0.00000000E+00  0.00000000E+00
  0.00000000E+00  0.00000000E+00  0.00000000E+00
  0.00000000E+00  0.00000000E+00  0.00000000E+00
  0.00000000E+00  0.00000000E+00  0.00000000E+00
  0.00000000E+00  0.00000000E+00  0.00000000E+00
  0.00000000E+00  0.00000000E+00  0.00000000E+00
  0.00000000E+00  0.00000000E+00  0.00000000E+00
  0.00000000E+00  0.00000000E+00  0.00000000E+00
  0.00000000E+00  0.00000000E+00  0.00000000E+00
  0.00000000E+00  0.00000000E+00  0.00000000E+00
  0.00000000E+00  0.00000000E+00  0.00000000E+00
  0.00000000E+00  0.00000000E+00  0.00000000E+00
  0.00000000E+00  0.00000000E+00  0.00000000E+00
  0.00000000E+00  0.00000000E+00  0.00000000E+00
  0.00000000E+00  0.00000000E+00  0.00000000E+00
  0.00000000E+00  0.00000000E+00  0.00000000E+00
  0.00000000E+00  0.00000000E+00  0.00000000E+00
  0.00000000E+00  0.00000000E+00  0.00000000E+00
  0.00000000E+00  0.00000000E+00  0.00000000E+00
  0.00000000E+00  0.00000000E+00  0.00000000E+00
  0.00000000E+00  0.00000000E+00  0.00000000E+00
  0.00000000E+00  0.00000000E+00  0.00000000E+00
  0.00000000E+00  0.00000000E+00  0.00000000E+00
  0.00000000E+00  0.00000000E+00  0.00000000E+00
  0.00000000E+00  0.00000000E+00  0.00000000E+00
  0.00000000E+00  0.00000000E+00  0.00000000E+00
  0.00000000E+00  0.00000000E+00  0.00000000E+00
  0.00000000E+00  0.00000000E+00  0.00000000E+00
  0.00000000E+00  0.00000000E+00  0.00000000E+00
  0.00000000E+00  0.00000000E+00  0.00000000E+00
  0.00000000E+00  0.00000000E+00  0.00000000E+00
  0.00000000E+00  0.00000000E+00  0.00000000E+00
  0.00000000E+00  0.00000000E+00  0.00000000E+00
  0.00000000E+00  0.00000000E+00  0.00000000E+00
  0.00000000E+00  0.00000000E+00  0.00000000E+00
  0.00000000E+00  0.00000000E+00  0.00000000E+00
  0.00000000E+00  0.00000000E+00  0.00000000E+00
  0.00000000E+00  0.00000000E+00  0.00000000E+00
  0.00000000E+00  0.00000000E+00  0.00000000E+00
  0.00000000E+00  0.00000000E+00  0.00000000E+00
  0.00000000E+00  0.00000000E+00  0.00000000E+00
  0.00000000E+00  0.00000000E+00  0.00000000E+00
  0.00000000E+00  0.00000000E+00  0.00000000E+00
  0.00000000E+00  0.00000000E+00  0.00000000E+00
  0.00000000E+00  0.00000000E+00  0.00000000E+00
  0.00000000E+00  0.00000000E+00  0.00000000E+00
  0.00000000E+00  0.00000000E+00  0.00000000E+00
  0.00000000E+00  0.00000000E+00  0.00000000E+00
  0.00000000E+00  0.00000000E+00  0.00000000E+00
  0.00000000E+00  0.00000000E+00  0.00000000E+00
  0.00000000E+00  0.00000000E+00  0.00000000E+00
  0.00000000E+00  0.00000000E+00  0.00000000E+00
  0.00000000E+00  0.00000000E+00  0.00000000E+00