Sb B N                                  
   1.0000000000000000     
     8.7639499999999995  -15.1796066749929999    0.0000000000000000
     8.7639499999999995   15.1796066749929999    0.0000000000000000
     0.0000000000000000    0.0000000000000000   15.0000000000000000
   Sb   B    N 
     1    48    48
Selective dynamics
Direct
  0.5009171096052715  0.4990842923117052  0.1109027516782348   T   T   T
  0.9063604804649513  0.9539039532268837  0.1109812269511483   T   T   T
  0.9042568216335345  0.0957451995624976  0.1109131664820763   T   T   T
  0.9036196764269695  0.2383477128606531  0.1109146347432940   T   T   T
  0.9039136788287311  0.3811260468956390  0.1108454437463341   T   T   T
  0.9059615047819233  0.5242000381391432  0.1110070972505276   T   T   T
  0.9081881913007047  0.6679331423158863  0.1110886294872062   T   T   T
  0.9091911646008428  0.8124354868659595  0.1110709722314812   T   T   T
  0.0483641730140014  0.9516378481819888  0.1110211185720648   T   T   T
  0.0460980679691551  0.0936415407310502  0.1109812269511483   T   T   T
  0.0455362583383640  0.2369777225473317  0.1109436150140924   T   T   T
  0.0462017764816516  0.3802698319435719  0.1109674821551674   T   T   T
  0.0480215115341512  0.5232692216247924  0.1109985168353174   T   T   T
  0.0495442061431194  0.6662446467313518  0.1110982921298324   T   T   T
  0.0496644728662073  0.8092206977733650  0.1110756822602457   T   T   T
  0.1907813234226369  0.9503375483297964  0.1110756822602457   T   T   T
  0.1875665343300397  0.0908108565951569  0.1110709722314812   T   T   T
  0.1856634411665451  0.2332330366934472  0.1110502307120006   T   T   T
  0.1874658438845912  0.3785921659753819  0.1111447786083150   T   T   T
  0.1902474347959547  0.5223411160143636  0.1111775304733049   T   T   T
  0.1920809109965878  0.6653901321152961  0.1111135036218121   T   T   T
  0.1918626318233442  0.8081393893726252  0.1110810986745460   T   T   T
  0.3337573744656211  0.9504578150529156  0.1110982921298324   T   T   T
  0.3320688788811068  0.0918138298952627  0.1110886294872062   T   T   T
  0.3257950922187943  0.2288185896027682  0.1110570425308425   T   T   T
  0.3243909233976912  0.3729263412993735  0.1110728080685625   T   T   T
  0.3324295490232788  0.5202336223709068  0.1112418612785880   T   T   T
  0.3353717734990938  0.6646302476979027  0.1112102890804434   T   T   T
  0.3346118890817244  0.8079211101994231  0.1111135036218121   T   T   T
  0.4767327995722128  0.9519805096618366  0.1109985168353175   T   T   T
  0.4758019830578421  0.0940405164140435  0.1110070972505276   T   T   T
  0.4739780165977279  0.2351197941827182  0.1109964578099946   T   T   T
  0.4615775952131707  0.3653351923171090  0.1109555608734654   T   T   T
  0.4797683988260742  0.6675724721736777  0.1112418612785880   T   T   T
  0.4776609051826208  0.8097545864000627  0.1111775304733049   T   T   T
  0.6197321892524182  0.9538002447143502  0.1109674821551674   T   T   T
  0.6188759743003576  0.0960883423672583  0.1108454437463341   T   T   T
  0.6180980207689528  0.2389446171450212  0.1109114026104132   T   T   T
  0.6171134271484056  0.3828885940475869  0.1109153708687931   T   T   T
  0.6346668288788853  0.5384244259838135  0.1109555608734654   T   T   T
  0.6270756798966487  0.6756110977993214  0.1110728080685625   T   T   T
  0.6214098552206174  0.8125361773114241  0.1111447786083150   T   T   T
  0.7630242986486598  0.9544657628576713  0.1109436150140924   T   T   T
  0.7616543083353735  0.0963823447690498  0.1109146347432940   T   T   T
  0.7610756702952552  0.2389263509007483  0.1109183584528464   T   T   T
  0.7610574040510003  0.3819040004270061  0.1109114026104132   T   T   T
  0.7648822270133182  0.5260240045992628  0.1109964578099946   T   T   T
  0.7711834315932197  0.6742069289782110  0.1110570425308425   T   T   T
  0.7667689845025436  0.8143385800294575  0.1110502307120006   T   T   T
  0.9544909217278010  0.9064487055570456  0.1109981419967547   T   T   T
  0.9519509503795134  0.0480504515385060  0.1109466790112641   T   T   T
  0.9508645639872810  0.1904258215580322  0.1108680857435495   T   T   T
  0.9510862842332756  0.3332857710756941  0.1108101004366562   T   T   T
  0.9527530389980927  0.4762023868037230  0.1108804925229996   T   T   T
  0.9546022662010525  0.6193709511052875  0.1110736835375132   T   T   T
  0.9552597806603805  0.7630175249876612  0.1110650387895765   T   T   T
  0.0961084180640912  0.9038929838538711  0.1110348809636019   T   T   T
  0.0935526963609322  0.0455104801901846  0.1109981419967547   T   T   T
  0.0916544555256429  0.1877725903257979  0.1109602737125147   T   T   T
  0.0925687115225568  0.3318287898638568  0.1110143984997218   T   T   T
  0.0947888657977125  0.4753473640655273  0.1110315590994692   T   T   T
  0.0966580828093312  0.6183976218215705  0.1110608058359394   T   T   T
  0.0969249828496694  0.7612638453596314  0.1110748657544853   T   T   T
  0.2387375565583686  0.9030764190683089  0.1110748657544853   T   T   T
  0.2369838769303235  0.0447416212576110  0.1110650387895765   T   T   T
  0.2321356874225062  0.1840854060586324  0.1110579178814658   T   T   T
  0.2308112469720485  0.3271045674478473  0.1110966658706757   T   T   T
  0.2362055463452695  0.4739266160166478  0.1112251134985491   T   T   T
  0.2393992445839716  0.6177324592095890  0.1111692812693238   T   T   T
  0.2393960619606430  0.7606053399573632  0.1110849031284603   T   T   T
  0.3816037800964226  0.9033433191086869  0.1110608058359394   T   T   T
  0.3806304508127099  0.0453991357169517  0.1110736835375132   T   T   T
  0.3782731168523411  0.1860717967840507  0.1110403379511271   T   T   T
  0.3692105151724004  0.3209930022377027  0.1109864296266452   T   T   T
  0.3708380571851462  0.4658228233856446  0.1110765833489122   T   T   T
  0.3830042580649738  0.6169971438530208  0.1112317750681138   T   T   T
  0.3822689427084318  0.7606021573340663  0.1111692812693238   T   T   T
  0.5246540378514539  0.9052125361202824  0.1110315590994692   T   T   T
  0.5237990151132784  0.0472483629199344  0.1108804925229996   T   T   T
  0.5228019931679576  0.1891751852588524  0.1109617401797885   T   T   T
  0.5203153568142952  0.3303546047650511  0.1109298780930926   T   T   T
  0.5341785785313747  0.6291633447328356  0.1110765833489122   T   T   T
  0.5260747859003299  0.7637958555727379  0.1112251134985491   T   T   T
  0.6681726120531164  0.9074326903954345  0.1110143984997218   T   T   T
  0.6667156308412875  0.0489151176847237  0.1108101004366562   T   T   T
  0.6659402390800426  0.1914653697947162  0.1108225018246431   T   T   T
  0.6651782136997042  0.3348231882172636  0.1108872033662517   T   T   T
  0.6696467971519089  0.4796860451026874  0.1109298780930926   T   T   T
  0.6790083996792924  0.6307908867456229  0.1109864296266452   T   T   T
  0.6728968344691352  0.7691901549459866  0.1110966658706757   T   T   T
  0.8122288115921962  0.9083469463923468  0.1109602737125076   T   T   T
  0.8095755803599683  0.0491368379307231  0.1108680857435495   T   T   T
  0.8086648637149436  0.1913365382030543  0.1109549212446259   T   T   T
  0.8085360321232646  0.3340611628369176  0.1108225018246431   T   T   T
  0.8108262166591349  0.4771994087490241  0.1109617401797885   T   T   T
  0.8139296051339628  0.6217282850656427  0.1110403379511271   T   T   T
  0.8159159958593574  0.7678657144955352  0.1110579178814658   T   T   T

  0.00000000E+00  0.00000000E+00  0.00000000E+00
  0.00000000E+00  0.00000000E+00  0.00000000E+00
  0.00000000E+00  0.00000000E+00  0.00000000E+00
  0.00000000E+00  0.00000000E+00  0.00000000E+00
  0.00000000E+00  0.00000000E+00  0.00000000E+00
  0.00000000E+00  0.00000000E+00  0.00000000E+00
  0.00000000E+00  0.00000000E+00  0.00000000E+00
  0.00000000E+00  0.00000000E+00  0.00000000E+00
  0.00000000E+00  0.00000000E+00  0.00000000E+00
  0.00000000E+00  0.00000000E+00  0.00000000E+00
  0.00000000E+00  0.00000000E+00  0.00000000E+00
  0.00000000E+00  0.00000000E+00  0.00000000E+00
  0.00000000E+00  0.00000000E+00  0.00000000E+00
  0.00000000E+00  0.00000000E+00  0.00000000E+00
  0.00000000E+00  0.00000000E+00  0.00000000E+00
  0.00000000E+00  0.00000000E+00  0.00000000E+00
  0.00000000E+00  0.00000000E+00  0.00000000E+00
  0.00000000E+00  0.00000000E+00  0.00000000E+00
  0.00000000E+00  0.00000000E+00  0.00000000E+00
  0.00000000E+00  0.00000000E+00  0.00000000E+00
  0.00000000E+00  0.00000000E+00  0.00000000E+00
  0.00000000E+00  0.00000000E+00  0.00000000E+00
  0.00000000E+00  0.00000000E+00  0.00000000E+00
  0.00000000E+00  0.00000000E+00  0.00000000E+00
  0.00000000E+00  0.00000000E+00  0.00000000E+00
  0.00000000E+00  0.00000000E+00  0.00000000E+00
  0.00000000E+00  0.00000000E+00  0.00000000E+00
  0.00000000E+00  0.00000000E+00  0.00000000E+00
  0.00000000E+00  0.00000000E+00  0.00000000E+00
  0.00000000E+00  0.00000000E+00  0.00000000E+00
  0.00000000E+00  0.00000000E+00  0.00000000E+00
  0.00000000E+00  0.00000000E+00  0.00000000E+00
  0.00000000E+00  0.00000000E+00  0.00000000E+00
  0.00000000E+00  0.00000000E+00  0.00000000E+00
  0.00000000E+00  0.00000000E+00  0.00000000E+00
  0.00000000E+00  0.00000000E+00  0.00000000E+00
  0.00000000E+00  0.00000000E+00  0.00000000E+00
  0.00000000E+00  0.00000000E+00  0.00000000E+00
  0.00000000E+00  0.00000000E+00  0.00000000E+00
  0.00000000E+00  0.00000000E+00  0.00000000E+00
  0.00000000E+00  0.00000000E+00  0.00000000E+00
  0.00000000E+00  0.00000000E+00  0.00000000E+00
  0.00000000E+00  0.00000000E+00  0.00000000E+00
  0.00000000E+00  0.00000000E+00  0.00000000E+00
  0.00000000E+00  0.00000000E+00  0.00000000E+00
  0.00000000E+00  0.00000000E+00  0.00000000E+00
  0.00000000E+00  0.00000000E+00  0.00000000E+00
  0.00000000E+00  0.00000000E+00  0.00000000E+00
  0.00000000E+00  0.00000000E+00  0.00000000E+00
  0.00000000E+00  0.00000000E+00  0.00000000E+00
  0.00000000E+00  0.00000000E+00  0.00000000E+00
  0.00000000E+00  0.00000000E+00  0.00000000E+00
  0.00000000E+00  0.00000000E+00  0.00000000E+00
  0.00000000E+00  0.00000000E+00  0.00000000E+00
  0.00000000E+00  0.00000000E+00  0.00000000E+00
  0.00000000E+00  0.00000000E+00  0.00000000E+00
  0.00000000E+00  0.00000000E+00  0.00000000E+00
  0.00000000E+00  0.00000000E+00  0.00000000E+00
  0.00000000E+00  0.00000000E+00  0.00000000E+00
  0.00000000E+00  0.00000000E+00  0.00000000E+00
  0.00000000E+00  0.00000000E+00  0.00000000E+00
  0.00000000E+00  0.00000000E+00  0.00000000E+00
  0.00000000E+00  0.00000000E+00  0.00000000E+00
  0.00000000E+00  0.00000000E+00  0.00000000E+00
  0.00000000E+00  0.00000000E+00  0.00000000E+00
  0.00000000E+00  0.00000000E+00  0.00000000E+00
  0.00000000E+00  0.00000000E+00  0.00000000E+00
  0.00000000E+00  0.00000000E+00  0.00000000E+00
  0.00000000E+00  0.00000000E+00  0.00000000E+00
  0.00000000E+00  0.00000000E+00  0.00000000E+00
  0.00000000E+00  0.00000000E+00  0.00000000E+00
  0.00000000E+00  0.00000000E+00  0.00000000E+00
  0.00000000E+00  0.00000000E+00  0.00000000E+00
  0.00000000E+00  0.00000000E+00  0.00000000E+00
  0.00000000E+00  0.00000000E+00  0.00000000E+00
  0.00000000E+00  0.00000000E+00  0.00000000E+00
  0.00000000E+00  0.00000000E+00  0.00000000E+00
  0.00000000E+00  0.00000000E+00  0.00000000E+00
  0.00000000E+00  0.00000000E+00  0.00000000E+00
  0.00000000E+00  0.00000000E+00  0.00000000E+00
  0.00000000E+00  0.00000000E+00  0.00000000E+00
  0.00000000E+00  0.00000000E+00  0.00000000E+00
  0.00000000E+00  0.00000000E+00  0.00000000E+00
  0.00000000E+00  0.00000000E+00  0.00000000E+00
  0.00000000E+00  0.00000000E+00  0.00000000E+00
  0.00000000E+00  0.00000000E+00  0.00000000E+00
  0.00000000E+00  0.00000000E+00  0.00000000E+00
  0.00000000E+00  0.00000000E+00  0.00000000E+00
  0.00000000E+00  0.00000000E+00  0.00000000E+00
  0.00000000E+00  0.00000000E+00  0.00000000E+00
  0.00000000E+00  0.00000000E+00  0.00000000E+00
  0.00000000E+00  0.00000000E+00  0.00000000E+00
  0.00000000E+00  0.00000000E+00  0.00000000E+00
  0.00000000E+00  0.00000000E+00  0.00000000E+00
  0.00000000E+00  0.00000000E+00  0.00000000E+00
  0.00000000E+00  0.00000000E+00  0.00000000E+00
  0.00000000E+00  0.00000000E+00  0.00000000E+00
