Species order: X N B                    
   2.51242800000000     
     5.9449720136058266    0.0000000000000000    0.0000000000000000
    -2.9724860068029120    5.1484967885702053   -0.0000000000000001
     0.0000000000000000    0.0000000000000009    5.3101128803662583
   Ga   N    B 
     1   143   143
Direct
  0.4758805571586402  0.4046069452459836  0.3750000000000000
  0.1111361806897715  0.0555574916734713  0.1248420096274939
  0.6111453002534111  0.5555912553302520  0.1258709993787517
  0.4444508178235552  0.0555319071892327  0.1249090957532339
  0.9444745892165622  0.5555726890257860  0.1250414425499464
  0.7777769908765743  0.0555551621049549  0.1249343562121348
  0.1111303361977689  0.7222318347655485  0.6250506811814123
  0.4444508178235552  0.7222522439676577  0.6250909042467664
  0.2778209460486890  0.2222288896331428  0.6249787666496867
  0.7778044836898798  0.7222325837433523  0.6248550602951588
  0.6111110405887807  0.2222049376175129  0.6249404813151763
  0.9444630991927712  0.2222379704216006  0.6250610674014471
  0.2777872401662330  0.7222350000557458  0.1249516499641520
  0.1111520810430318  0.2222427071881802  0.1248703294566682
  0.4444815908421897  0.2222065707371991  0.1252233727346989
  0.6111110405887807  0.7222394363045965  0.1250595186848238
  0.9444745892165622  0.7222352335241121  0.1250414425499464
  0.7777820567829162  0.2222290814025765  0.1249914476664336
  0.1111296797525143  0.8888881780543318  0.6250519558371161
  0.4444421208559644  0.8888877270946470  0.6250543127277698
  0.2778209460486890  0.3889253897488744  0.6249787666496867
  0.6111453002534111  0.3888873782564876  0.6241290006212484
  0.7777820567829162  0.8888863087136677  0.6250085523335658
  0.9444671731204156  0.3889061184297520  0.6250399081641690
  0.1111361806897715  0.3889120223496290  0.1248420096274939
  0.2777872401662330  0.8888855734438176  0.1249516499641520
  0.6111072467800771  0.8888954920904706  0.1249403535833155
  0.4445747277654951  0.3889540305494118  0.1284831123368214
  0.9444671731204156  0.8888943880239911  0.1249600918358311
  0.7778044836898798  0.3889052332798566  0.1251449397048410
  0.2777947359462466  0.5555851452623254  0.6250975731331072
  0.1111361806897715  0.0555574916734713  0.6251579903725063
  0.6111453002534111  0.5555912553302520  0.6241290006212484
  0.4444508178235552  0.0555319071892327  0.6250909042467664
  0.9444745892165622  0.5555726890257860  0.6249585574500539
  0.1111296797525143  0.5555748350315113  0.1249480441628837
  0.7777769908765743  0.0555551621049549  0.6250656437878657
  0.2777947359462466  0.0555429240172563  0.1249024268668940
  0.4444815908421897  0.5556083534383263  0.1252233727346989
  0.7777993510453676  0.5555663421893511  0.1253717591265095
  0.6111072467800771  0.0555450880229357  0.1249403535833155
  0.4444815908421897  0.5556083534383263  0.6247766272653014
  0.9444630991927712  0.0555584621045063  0.1249389325985525
  0.2777872401662330  0.7222350000557458  0.6250483500358485
  0.1111520810430318  0.2222427071881802  0.6251296705433318
  0.4444815908421897  0.2222065707371991  0.6247766272653014
  0.6111110405887807  0.7222394363045965  0.6249404813151763
  0.9444745892165622  0.7222352335241121  0.6249585574500539
  0.7777820567829162  0.2222290814025765  0.6250085523335658
  0.1111303361977689  0.7222318347655485  0.1249493188185867
  0.4444508178235552  0.7222522439676577  0.1249090957532339
  0.2778209460486890  0.2222288896331428  0.1250212333503135
  0.7778044836898798  0.7222325837433523  0.1251449397048410
  0.6111110405887807  0.2222049376175129  0.1250595186848238
  0.9444630991927712  0.2222379704216006  0.1249389325985525
  0.1111361806897715  0.3889120223496290  0.6251579903725063
  0.2777872401662330  0.8888855734438176  0.6250483500358485
  0.6111072467800771  0.8888954920904706  0.6250596464166847
  0.4445747277654951  0.3889540305494118  0.6215168876631789
  0.9444671731204156  0.8888943880239911  0.6250399081641690
  0.1111296797525143  0.8888881780543318  0.1249480441628837
  0.7778044836898798  0.3889052332798566  0.6248550602951588
  0.4444421208559644  0.8888877270946470  0.1249456872722303
  0.2778209460486890  0.3889253897488744  0.1250212333503135
  0.2777947359462466  0.5555851452623254  0.1249024268668940
  0.6111453002534111  0.3888873782564876  0.1258709993787517
  0.7777820567829162  0.8888863087136677  0.1249914476664336
  0.9444671731204156  0.3889061184297520  0.1249600918358311
  0.1111296797525143  0.5555748350315113  0.6250519558371161
  0.2777947359462466  0.0555429240172563  0.6250975731331072
  0.7777993510453676  0.5555663421893511  0.6246282408734906
  0.6111072467800771  0.0555450880229357  0.6250596464166847
  0.9444630991927712  0.0555584621045063  0.6250610674014471
  0.0558640205915654  0.1113245392085615  0.3750000000000000
  0.5546546076696360  0.6124427916161050  0.3750000000000000
  0.3874286620508237  0.1059121531832284  0.3750000000000000
  0.8874644993770900  0.6103989163552171  0.3750000000000000
  0.7224371990034120  0.1109570690019172  0.3750000000000000
  0.0555569213001681  0.7777796958219922  0.8750000000000000
  0.3888894132556692  0.7777781478472052  0.8750000000000000
  0.2222234290140332  0.2777783811736845  0.8750000000000000
  0.7222252731500818  0.7777795302019979  0.8750000000000000
  0.5555595154837735  0.2777761067991286  0.8750000000000000
  0.8888930958870680  0.2777751121955835  0.8750000000000000
  0.2206935916443968  0.7770134624888656  0.3750000000000000
  0.0558640205915654  0.2778728147163393  0.3750000000000000
  0.3868642182657167  0.2676755528697848  0.3750000000000000
  0.5553634178282358  0.7788353324845955  0.3750000000000000
  0.8880436028841681  0.7774306545309271  0.3750000000000000
  0.7221513885881499  0.2771614281571722  0.3750000000000000
  0.0555550285181963  0.9444455146004548  0.8750000000000000
  0.3888894132556692  0.9444445987418001  0.8750000000000000
  0.2222138702201658  0.4444423607322668  0.8750000000000000
  0.5555482839910885  0.4444408086622085  0.8750000000000000
  0.7222286489641034  0.9444485242696563  0.8750000000000000
  0.8889016692296332  0.4444454507479815  0.8750000000000000
  0.0545725769753648  0.4443021955391731  0.3750000000000000
  0.2205937984122155  0.9426010799248088  0.3750000000000000
  0.5554284984433167  0.9443809158883218  0.3750000000000000
  0.3868642182657167  0.4525219987292676  0.3750000000000000
  0.8889269031189602  0.9447021296036852  0.3750000000000000
  0.7212968322222434  0.4441530513290255  0.3750000000000000
  0.2222227856939058  0.6111089885743526  0.8750000000000000
  0.0555533069879212  0.1111116695042190  0.8750000000000000
  0.5555595154837735  0.6111167420179801  0.8750000000000000
  0.3888951733861111  0.1111220992934602  0.8750000000000000
  0.8888842833029511  0.6111088083181477  0.8750000000000000
  0.0540009054078790  0.6105456875528968  0.3750000000000000
  0.7222286489641034  0.1111134580277821  0.8750000000000000
  0.2209532316995574  0.1091338811930563  0.3750000000000000
  0.3874286620508237  0.6148498422009375  0.3750000000000000
  0.7212968322222434  0.6104771142265534  0.3750000000000000
  0.5553634178282358  0.1098614186769761  0.3750000000000000
  0.3888951733861111  0.6111064074259939  0.8750000000000000
  0.8891777520267641  0.1112555426800531  0.3750000000000000
  0.2222217520086438  0.7777775426709898  0.8750000000000000
  0.0555533069879212  0.2777749708170381  0.8750000000000000
  0.3888901511657966  0.2777875991723303  0.8750000000000000
  0.5555569939672398  0.7777877664424236  0.8750000000000000
  0.8889016692296332  0.7777895518149873  0.8750000000000000
  0.7222252731500818  0.2777790762814182  0.8750000000000000
  0.0540009054078790  0.7767885511883181  0.3750000000000000
  0.3879053403504742  0.7785281140111121  0.3750000000000000
  0.2236033717670570  0.2784683525501964  0.3750000000000000
  0.7221513885881499  0.7783232937643138  0.3750000000000000
  0.5546546076696360  0.2755451493868665  0.3750000000000000
  0.8889269031189602  0.2775581068486105  0.3750000000000000
  0.0555550285181963  0.4444428472510696  0.8750000000000000
  0.2222227856939058  0.9444471304528901  0.8750000000000000
  0.5555574633974019  0.9444453983653661  0.8750000000000000
  0.3888901511657966  0.4444358853268022  0.8750000000000000
  0.8888930958870680  0.9444513170248210  0.8750000000000000
  0.0545725769753648  0.9436037147695205  0.3750000000000000
  0.7222241838889659  0.4444402646106065  0.8750000000000000
  0.3879053403504742  0.9427105596726983  0.3750000000000000
  0.2209532316995574  0.4451526838398370  0.3750000000000000
  0.2205937984122155  0.6113260518207423  0.3750000000000000
  0.7224371990034120  0.9448134633348296  0.3750000000000000
  0.8880436028841681  0.4439462816865761  0.3750000000000000
  0.0555569213001681  0.6111105588115108  0.8750000000000000
  0.2222138702201658  0.1111048428212347  0.8750000000000000
  0.7222241838889659  0.6111172526116959  0.8750000000000000
  0.5555569939672398  0.1111025608581512  0.8750000000000000
  0.8888923857506525  0.1111128595419978  0.8750000000000000
  0.1102806045919307  0.0546991907616249  0.3750000000000000
  0.6147729567234211  0.5648700948441675  0.3750000000000000
  0.4438975334556013  0.0524886785368826  0.3750000000000000
  0.9436253697008160  0.5549818325904684  0.3750000000000000
  0.7783279779525725  0.0558306556429541  0.3750000000000000
  0.1113199464798281  0.7223266399065783  0.8750000000000000
  0.4443435041536835  0.7220422829987998  0.8750000000000000
  0.2776364694513808  0.2222935005369465  0.8750000000000000
  0.7777158990421080  0.7223647751391360  0.8750000000000000
  0.6113080938328700  0.2222847649446459  0.8750000000000000
  0.9443576315288423  0.2220209349899488  0.8750000000000000
  0.2765729928831136  0.7221981332203271  0.3750000000000000
  0.1120717209569854  0.2227025271451569  0.3750000000000000
  0.4413727653559328  0.2145467184832709  0.3750000000000000
  0.6117585789021409  0.7251846184399695  0.3750000000000000
  0.9436253697008160  0.7219768704436820  0.3750000000000000
  0.7783025519196848  0.2216070409627530  0.3750000000000000
  0.1110192907045100  0.8889989855434115  0.8750000000000000
  0.4446373141523554  0.8889853237428421  0.8750000000000000
  0.2776364694513808  0.3886763022477628  0.8750000000000000
  0.6110349329723103  0.3889469979534297  0.8750000000000000
  0.7777081353654961  0.8887397100301249  0.8750000000000000
  0.9446650804818597  0.3889790380689546  0.8750000000000000
  0.1102806045919307  0.3889147471636339  0.3750000000000000
  0.2765729928831136  0.8877081929961149  0.3750000000000000
  0.6115028401213247  0.8898359090646433  0.3750000000000000
  0.9440567348922523  0.8889934935251560  0.3750000000000000
  0.7781382077969246  0.3876032034434999  0.3750000000000000
  0.2779434444372126  0.5556353293829249  0.8750000000000000
  0.1110064402795077  0.0553634325965259  0.8750000000000000
  0.6110349329723103  0.5554212683522090  0.8750000000000000
  0.4443435041536835  0.0556345544882201  0.8750000000000000
  0.9443802937389857  0.5556507575817479  0.8750000000000000
  0.1097806010744989  0.5552591999669589  0.3750000000000000
  0.7779956107156624  0.0556644720244990  0.8750000000000000
  0.2760009462390943  0.0530781732194137  0.3750000000000000
  0.4413727653559328  0.5601593802059984  0.3750000000000000
  0.7781143148614456  0.5557238240973890  0.3750000000000000
  0.6115028401213247  0.0550002643900103  0.3750000000000000
  0.4443191685927375  0.5556532145105605  0.8750000000000000
  0.9449237414947539  0.0560451950302613  0.3750000000000000
  0.2776725797429973  0.7223163224598533  0.8750000000000000
  0.1112822962675469  0.2223078148004377  0.8750000000000000
  0.4443191685927375  0.2219992874155116  0.8750000000000000
  0.6113080938328700  0.7223566622215523  0.8750000000000000
  0.9443802937389857  0.7220628694905719  0.8750000000000000
  0.7777081353654961  0.2223017586686989  0.8750000000000000
  0.1098087612794814  0.7215710473064054  0.3750000000000000
  0.4438975334556013  0.7247421882520539  0.3750000000000000
  0.2772195518434741  0.2203692054702989  0.3750000000000000
  0.7781382077969246  0.7238683376867531  0.3750000000000000
  0.6117585789021409  0.2199072937955008  0.3750000000000000
  0.9449237414947539  0.2222118797978281  0.3750000000000000
  0.1110064402795077  0.3889763410163107  0.8750000000000000
  0.2776725797429973  0.8886895906164721  0.8750000000000000
  0.6110202453575754  0.8890043840420124  0.8750000000000000
  0.4445545124180610  0.3889439228756945  0.8750000000000000
  0.9446650804818597  0.8890193757462341  0.8750000000000000
  0.1097806010744989  0.8878547344408688  0.3750000000000000
  0.7777158990421080  0.3886844572363015  0.8750000000000000
  0.4441486593161846  0.8887409963247570  0.3750000000000000
  0.2772195518434741  0.3901836797065039  0.3750000000000000
  0.2760009462390943  0.5562561063530163  0.3750000000000000
  0.6147729567234211  0.3832361952125820  0.3750000000000000
  0.7783025519196848  0.8900288442902613  0.3750000000000000
  0.9440567348922523  0.3883965747004245  0.3750000000000000
  0.1110192907045100  0.5553536384944276  0.8750000000000000
  0.2779434444372126  0.0556414483876237  0.8750000000000000
  0.7780019001396667  0.5556676167365008  0.8750000000000000
  0.6110202453575754  0.0553491946488909  0.8750000000000000
  0.9443576315288423  0.0556700298722301  0.8750000000000000
  0.0555858455339248  0.1111266039812462  0.1251016908750725
  0.5554742538560191  0.6112935965858798  0.1250611006971683
  0.3887800775249467  0.1108995766432903  0.1249853212573939
  0.8891224134792199  0.6112278734062823  0.1250287378655228
  0.7222246896879755  0.1110656569356267  0.1250836521905986
  0.0556864737567721  0.7778467859790498  0.6248971641671677
  0.3888427787232502  0.7778119540946226  0.6249114360176981
  0.2221665500153441  0.2777499416743399  0.6248517274613756
  0.7222814830821651  0.7779190048828335  0.6250239735351724
  0.5554742538560191  0.2775139906034755  0.6249388993028303
  0.8889599761583831  0.2777739805400705  0.6248987860374070
  0.2222557046063707  0.7777945189698530  0.1250718631936554
  0.0555858455339248  0.2777925748860141  0.1251016908750725
  0.3886503617738210  0.2774277771256635  0.1262537219617927
  0.5554989115757532  0.7778798854237390  0.1250256199990605
  0.8890606454409747  0.7779129194047767  0.1250663747567328
  0.7222814830821651  0.2776958115326667  0.1249760264648274
  0.0556273392668044  0.9444866672267697  0.6249595901878345
  0.3888427787232502  0.9443641579619638  0.6249114360176981
  0.2221779053105825  0.4444806212600680  0.6249380693083132
  0.5556989409015252  0.4445161371174269  0.6244254574713778
  0.7222246896879755  0.9444923660856832  0.6249163478094020
  0.8890606454409747  0.4444810593695330  0.6249336252432668
  0.0556273392668044  0.4444740053733646  0.1250404098121657
  0.2222274911513095  0.9444054817433386  0.1251129793053915
  0.5555127666867269  0.9444230500100280  0.1250294123705872
  0.3886503617738210  0.4445559179814929  0.1262537219617927
  0.8889599761583831  0.9445193289516483  0.1251012139625924
  0.7224587324742550  0.4444887227725589  0.1250661122223758
  0.2222274911513095  0.6111553427413071  0.6248870206946086
  0.0555858455339248  0.1111266039812462  0.6248983091249271
  0.5554742538560191  0.6112935965858798  0.6249388993028303
  0.3887800775249467  0.1108995766432903  0.6250146787426061
  0.8891224134792199  0.6112278734062823  0.6249712621344774
  0.0556864737567721  0.6111730211110571  0.1251028358328317
  0.7222246896879755  0.1110656569356267  0.6249163478094020
  0.2221779053105825  0.1110306173838499  0.1250619306916867
  0.3887800775249467  0.6112138342149992  0.1249853212573939
  0.7224587324742550  0.6113033430350314  0.1250661122223758
  0.5554989115757532  0.1109523594853485  0.1250256199990605
  0.3887800775249467  0.6112138342149992  0.6250146787426061
  0.8889245822717792  0.1111289578025607  0.1250697001373194
  0.2222557046063707  0.7777945189698530  0.6249281368063445
  0.0555858455339248  0.2777925748860141  0.6248983091249271
  0.3886503617738210  0.2774277771256635  0.6237462780382076
  0.5554989115757532  0.7778798854237390  0.6249743800009400
  0.8890606454409747  0.7779129194047767  0.6249336252432668
  0.7222814830821651  0.2776958115326667  0.6250239735351724
  0.0556864737567721  0.7778467859790498  0.1251028358328317
  0.3888427787232502  0.7778119540946226  0.1250885639823018
  0.2221665500153441  0.2777499416743399  0.1251482725386239
  0.7222814830821651  0.7779190048828335  0.1249760264648274
  0.5554742538560191  0.2775139906034755  0.1250611006971683
  0.8889599761583831  0.2777739805400705  0.1251012139625924
  0.0556273392668044  0.4444740053733646  0.6249595901878345
  0.2222274911513095  0.9444054817433386  0.6248870206946086
  0.5555127666867269  0.9444230500100280  0.6249705876294140
  0.3886503617738210  0.4445559179814929  0.6237462780382076
  0.8889599761583831  0.9445193289516483  0.6248987860374070
  0.0556273392668044  0.9444866672267697  0.1250404098121657
  0.7224587324742550  0.4444887227725589  0.6249338877776238
  0.3888427787232502  0.9443641579619638  0.1250885639823018
  0.2221779053105825  0.4444806212600680  0.1250619306916867
  0.2222274911513095  0.6111553427413071  0.1251129793053915
  0.5556989409015252  0.4445161371174269  0.1255745425286219
  0.7222246896879755  0.9444923660856832  0.1250836521905986
  0.8890606454409747  0.4444810593695330  0.1250663747567328
  0.0556864737567721  0.6111730211110571  0.6248971641671677
  0.2221779053105825  0.1110306173838499  0.6249380693083132
  0.7224587324742550  0.6113033430350314  0.6249338877776238
  0.5554989115757532  0.1109523594853485  0.6249743800009400
  0.8889245822717792  0.1111289578025607  0.6249302998626807
 
  0.00000000E+00  0.00000000E+00  0.00000000E+00
  0.00000000E+00  0.00000000E+00  0.00000000E+00
  0.00000000E+00  0.00000000E+00  0.00000000E+00
  0.00000000E+00  0.00000000E+00  0.00000000E+00
  0.00000000E+00  0.00000000E+00  0.00000000E+00
  0.00000000E+00  0.00000000E+00  0.00000000E+00
  0.00000000E+00  0.00000000E+00  0.00000000E+00
  0.00000000E+00  0.00000000E+00  0.00000000E+00
  0.00000000E+00  0.00000000E+00  0.00000000E+00
  0.00000000E+00  0.00000000E+00  0.00000000E+00
  0.00000000E+00  0.00000000E+00  0.00000000E+00
  0.00000000E+00  0.00000000E+00  0.00000000E+00
  0.00000000E+00  0.00000000E+00  0.00000000E+00
  0.00000000E+00  0.00000000E+00  0.00000000E+00
  0.00000000E+00  0.00000000E+00  0.00000000E+00
  0.00000000E+00  0.00000000E+00  0.00000000E+00
  0.00000000E+00  0.00000000E+00  0.00000000E+00
  0.00000000E+00  0.00000000E+00  0.00000000E+00
  0.00000000E+00  0.00000000E+00  0.00000000E+00
  0.00000000E+00  0.00000000E+00  0.00000000E+00
  0.00000000E+00  0.00000000E+00  0.00000000E+00
  0.00000000E+00  0.00000000E+00  0.00000000E+00
  0.00000000E+00  0.00000000E+00  0.00000000E+00
  0.00000000E+00  0.00000000E+00  0.00000000E+00
  0.00000000E+00  0.00000000E+00  0.00000000E+00
  0.00000000E+00  0.00000000E+00  0.00000000E+00
  0.00000000E+00  0.00000000E+00  0.00000000E+00
  0.00000000E+00  0.00000000E+00  0.00000000E+00
  0.00000000E+00  0.00000000E+00  0.00000000E+00
  0.00000000E+00  0.00000000E+00  0.00000000E+00
  0.00000000E+00  0.00000000E+00  0.00000000E+00
  0.00000000E+00  0.00000000E+00  0.00000000E+00
  0.00000000E+00  0.00000000E+00  0.00000000E+00
  0.00000000E+00  0.00000000E+00  0.00000000E+00
  0.00000000E+00  0.00000000E+00  0.00000000E+00
  0.00000000E+00  0.00000000E+00  0.00000000E+00
  0.00000000E+00  0.00000000E+00  0.00000000E+00
  0.00000000E+00  0.00000000E+00  0.00000000E+00
  0.00000000E+00  0.00000000E+00  0.00000000E+00
  0.00000000E+00  0.00000000E+00  0.00000000E+00
  0.00000000E+00  0.00000000E+00  0.00000000E+00
  0.00000000E+00  0.00000000E+00  0.00000000E+00
  0.00000000E+00  0.00000000E+00  0.00000000E+00
  0.00000000E+00  0.00000000E+00  0.00000000E+00
  0.00000000E+00  0.00000000E+00  0.00000000E+00
  0.00000000E+00  0.00000000E+00  0.00000000E+00
  0.00000000E+00  0.00000000E+00  0.00000000E+00
  0.00000000E+00  0.00000000E+00  0.00000000E+00
  0.00000000E+00  0.00000000E+00  0.00000000E+00
  0.00000000E+00  0.00000000E+00  0.00000000E+00
  0.00000000E+00  0.00000000E+00  0.00000000E+00
  0.00000000E+00  0.00000000E+00  0.00000000E+00
  0.00000000E+00  0.00000000E+00  0.00000000E+00
  0.00000000E+00  0.00000000E+00  0.00000000E+00
  0.00000000E+00  0.00000000E+00  0.00000000E+00
  0.00000000E+00  0.00000000E+00  0.00000000E+00
  0.00000000E+00  0.00000000E+00  0.00000000E+00
  0.00000000E+00  0.00000000E+00  0.00000000E+00
  0.00000000E+00  0.00000000E+00  0.00000000E+00
  0.00000000E+00  0.00000000E+00  0.00000000E+00
  0.00000000E+00  0.00000000E+00  0.00000000E+00
  0.00000000E+00  0.00000000E+00  0.00000000E+00
  0.00000000E+00  0.00000000E+00  0.00000000E+00
  0.00000000E+00  0.00000000E+00  0.00000000E+00
  0.00000000E+00  0.00000000E+00  0.00000000E+00
  0.00000000E+00  0.00000000E+00  0.00000000E+00
  0.00000000E+00  0.00000000E+00  0.00000000E+00
  0.00000000E+00  0.00000000E+00  0.00000000E+00
  0.00000000E+00  0.00000000E+00  0.00000000E+00
  0.00000000E+00  0.00000000E+00  0.00000000E+00
  0.00000000E+00  0.00000000E+00  0.00000000E+00
  0.00000000E+00  0.00000000E+00  0.00000000E+00
  0.00000000E+00  0.00000000E+00  0.00000000E+00
  0.00000000E+00  0.00000000E+00  0.00000000E+00
  0.00000000E+00  0.00000000E+00  0.00000000E+00
  0.00000000E+00  0.00000000E+00  0.00000000E+00
  0.00000000E+00  0.00000000E+00  0.00000000E+00
  0.00000000E+00  0.00000000E+00  0.00000000E+00
  0.00000000E+00  0.00000000E+00  0.00000000E+00
  0.00000000E+00  0.00000000E+00  0.00000000E+00
  0.00000000E+00  0.00000000E+00  0.00000000E+00
  0.00000000E+00  0.00000000E+00  0.00000000E+00
  0.00000000E+00  0.00000000E+00  0.00000000E+00
  0.00000000E+00  0.00000000E+00  0.00000000E+00
  0.00000000E+00  0.00000000E+00  0.00000000E+00
  0.00000000E+00  0.00000000E+00  0.00000000E+00
  0.00000000E+00  0.00000000E+00  0.00000000E+00
  0.00000000E+00  0.00000000E+00  0.00000000E+00
  0.00000000E+00  0.00000000E+00  0.00000000E+00
  0.00000000E+00  0.00000000E+00  0.00000000E+00
  0.00000000E+00  0.00000000E+00  0.00000000E+00
  0.00000000E+00  0.00000000E+00  0.00000000E+00
  0.00000000E+00  0.00000000E+00  0.00000000E+00
  0.00000000E+00  0.00000000E+00  0.00000000E+00
  0.00000000E+00  0.00000000E+00  0.00000000E+00
  0.00000000E+00  0.00000000E+00  0.00000000E+00
  0.00000000E+00  0.00000000E+00  0.00000000E+00
  0.00000000E+00  0.00000000E+00  0.00000000E+00
  0.00000000E+00  0.00000000E+00  0.00000000E+00
  0.00000000E+00  0.00000000E+00  0.00000000E+00
  0.00000000E+00  0.00000000E+00  0.00000000E+00
  0.00000000E+00  0.00000000E+00  0.00000000E+00
  0.00000000E+00  0.00000000E+00  0.00000000E+00
  0.00000000E+00  0.00000000E+00  0.00000000E+00
  0.00000000E+00  0.00000000E+00  0.00000000E+00
  0.00000000E+00  0.00000000E+00  0.00000000E+00
  0.00000000E+00  0.00000000E+00  0.00000000E+00
  0.00000000E+00  0.00000000E+00  0.00000000E+00
  0.00000000E+00  0.00000000E+00  0.00000000E+00
  0.00000000E+00  0.00000000E+00  0.00000000E+00
  0.00000000E+00  0.00000000E+00  0.00000000E+00
  0.00000000E+00  0.00000000E+00  0.00000000E+00
  0.00000000E+00  0.00000000E+00  0.00000000E+00
  0.00000000E+00  0.00000000E+00  0.00000000E+00
  0.00000000E+00  0.00000000E+00  0.00000000E+00
  0.00000000E+00  0.00000000E+00  0.00000000E+00
  0.00000000E+00  0.00000000E+00  0.00000000E+00
  0.00000000E+00  0.00000000E+00  0.00000000E+00
  0.00000000E+00  0.00000000E+00  0.00000000E+00
  0.00000000E+00  0.00000000E+00  0.00000000E+00
  0.00000000E+00  0.00000000E+00  0.00000000E+00
  0.00000000E+00  0.00000000E+00  0.00000000E+00
  0.00000000E+00  0.00000000E+00  0.00000000E+00
  0.00000000E+00  0.00000000E+00  0.00000000E+00
  0.00000000E+00  0.00000000E+00  0.00000000E+00
  0.00000000E+00  0.00000000E+00  0.00000000E+00
  0.00000000E+00  0.00000000E+00  0.00000000E+00
  0.00000000E+00  0.00000000E+00  0.00000000E+00
  0.00000000E+00  0.00000000E+00  0.00000000E+00
  0.00000000E+00  0.00000000E+00  0.00000000E+00
  0.00000000E+00  0.00000000E+00  0.00000000E+00
  0.00000000E+00  0.00000000E+00  0.00000000E+00
  0.00000000E+00  0.00000000E+00  0.00000000E+00
  0.00000000E+00  0.00000000E+00  0.00000000E+00
  0.00000000E+00  0.00000000E+00  0.00000000E+00
  0.00000000E+00  0.00000000E+00  0.00000000E+00
  0.00000000E+00  0.00000000E+00  0.00000000E+00
  0.00000000E+00  0.00000000E+00  0.00000000E+00
  0.00000000E+00  0.00000000E+00  0.00000000E+00
  0.00000000E+00  0.00000000E+00  0.00000000E+00
  0.00000000E+00  0.00000000E+00  0.00000000E+00
  0.00000000E+00  0.00000000E+00  0.00000000E+00
  0.00000000E+00  0.00000000E+00  0.00000000E+00
  0.00000000E+00  0.00000000E+00  0.00000000E+00
  0.00000000E+00  0.00000000E+00  0.00000000E+00
  0.00000000E+00  0.00000000E+00  0.00000000E+00
  0.00000000E+00  0.00000000E+00  0.00000000E+00
  0.00000000E+00  0.00000000E+00  0.00000000E+00
  0.00000000E+00  0.00000000E+00  0.00000000E+00
  0.00000000E+00  0.00000000E+00  0.00000000E+00
  0.00000000E+00  0.00000000E+00  0.00000000E+00
  0.00000000E+00  0.00000000E+00  0.00000000E+00
  0.00000000E+00  0.00000000E+00  0.00000000E+00
  0.00000000E+00  0.00000000E+00  0.00000000E+00
  0.00000000E+00  0.00000000E+00  0.00000000E+00
  0.00000000E+00  0.00000000E+00  0.00000000E+00
  0.00000000E+00  0.00000000E+00  0.00000000E+00
  0.00000000E+00  0.00000000E+00  0.00000000E+00
  0.00000000E+00  0.00000000E+00  0.00000000E+00
  0.00000000E+00  0.00000000E+00  0.00000000E+00
  0.00000000E+00  0.00000000E+00  0.00000000E+00
  0.00000000E+00  0.00000000E+00  0.00000000E+00
  0.00000000E+00  0.00000000E+00  0.00000000E+00
  0.00000000E+00  0.00000000E+00  0.00000000E+00
  0.00000000E+00  0.00000000E+00  0.00000000E+00
  0.00000000E+00  0.00000000E+00  0.00000000E+00
  0.00000000E+00  0.00000000E+00  0.00000000E+00
  0.00000000E+00  0.00000000E+00  0.00000000E+00
  0.00000000E+00  0.00000000E+00  0.00000000E+00
  0.00000000E+00  0.00000000E+00  0.00000000E+00
  0.00000000E+00  0.00000000E+00  0.00000000E+00
  0.00000000E+00  0.00000000E+00  0.00000000E+00
  0.00000000E+00  0.00000000E+00  0.00000000E+00
  0.00000000E+00  0.00000000E+00  0.00000000E+00
  0.00000000E+00  0.00000000E+00  0.00000000E+00
  0.00000000E+00  0.00000000E+00  0.00000000E+00
  0.00000000E+00  0.00000000E+00  0.00000000E+00
  0.00000000E+00  0.00000000E+00  0.00000000E+00
  0.00000000E+00  0.00000000E+00  0.00000000E+00
  0.00000000E+00  0.00000000E+00  0.00000000E+00
  0.00000000E+00  0.00000000E+00  0.00000000E+00
  0.00000000E+00  0.00000000E+00  0.00000000E+00
  0.00000000E+00  0.00000000E+00  0.00000000E+00
  0.00000000E+00  0.00000000E+00  0.00000000E+00
  0.00000000E+00  0.00000000E+00  0.00000000E+00
  0.00000000E+00  0.00000000E+00  0.00000000E+00
  0.00000000E+00  0.00000000E+00  0.00000000E+00
  0.00000000E+00  0.00000000E+00  0.00000000E+00
  0.00000000E+00  0.00000000E+00  0.00000000E+00
  0.00000000E+00  0.00000000E+00  0.00000000E+00
  0.00000000E+00  0.00000000E+00  0.00000000E+00
  0.00000000E+00  0.00000000E+00  0.00000000E+00
  0.00000000E+00  0.00000000E+00  0.00000000E+00
  0.00000000E+00  0.00000000E+00  0.00000000E+00
  0.00000000E+00  0.00000000E+00  0.00000000E+00
  0.00000000E+00  0.00000000E+00  0.00000000E+00
  0.00000000E+00  0.00000000E+00  0.00000000E+00
  0.00000000E+00  0.00000000E+00  0.00000000E+00
  0.00000000E+00  0.00000000E+00  0.00000000E+00
  0.00000000E+00  0.00000000E+00  0.00000000E+00
  0.00000000E+00  0.00000000E+00  0.00000000E+00
  0.00000000E+00  0.00000000E+00  0.00000000E+00
  0.00000000E+00  0.00000000E+00  0.00000000E+00
  0.00000000E+00  0.00000000E+00  0.00000000E+00
  0.00000000E+00  0.00000000E+00  0.00000000E+00
  0.00000000E+00  0.00000000E+00  0.00000000E+00
  0.00000000E+00  0.00000000E+00  0.00000000E+00
  0.00000000E+00  0.00000000E+00  0.00000000E+00
  0.00000000E+00  0.00000000E+00  0.00000000E+00
  0.00000000E+00  0.00000000E+00  0.00000000E+00
  0.00000000E+00  0.00000000E+00  0.00000000E+00
  0.00000000E+00  0.00000000E+00  0.00000000E+00
  0.00000000E+00  0.00000000E+00  0.00000000E+00
  0.00000000E+00  0.00000000E+00  0.00000000E+00
  0.00000000E+00  0.00000000E+00  0.00000000E+00
  0.00000000E+00  0.00000000E+00  0.00000000E+00
  0.00000000E+00  0.00000000E+00  0.00000000E+00
  0.00000000E+00  0.00000000E+00  0.00000000E+00
  0.00000000E+00  0.00000000E+00  0.00000000E+00
  0.00000000E+00  0.00000000E+00  0.00000000E+00
  0.00000000E+00  0.00000000E+00  0.00000000E+00
  0.00000000E+00  0.00000000E+00  0.00000000E+00
  0.00000000E+00  0.00000000E+00  0.00000000E+00
  0.00000000E+00  0.00000000E+00  0.00000000E+00
  0.00000000E+00  0.00000000E+00  0.00000000E+00
  0.00000000E+00  0.00000000E+00  0.00000000E+00
  0.00000000E+00  0.00000000E+00  0.00000000E+00
  0.00000000E+00  0.00000000E+00  0.00000000E+00
  0.00000000E+00  0.00000000E+00  0.00000000E+00
  0.00000000E+00  0.00000000E+00  0.00000000E+00
  0.00000000E+00  0.00000000E+00  0.00000000E+00
  0.00000000E+00  0.00000000E+00  0.00000000E+00
  0.00000000E+00  0.00000000E+00  0.00000000E+00
  0.00000000E+00  0.00000000E+00  0.00000000E+00
  0.00000000E+00  0.00000000E+00  0.00000000E+00
  0.00000000E+00  0.00000000E+00  0.00000000E+00
  0.00000000E+00  0.00000000E+00  0.00000000E+00
  0.00000000E+00  0.00000000E+00  0.00000000E+00
  0.00000000E+00  0.00000000E+00  0.00000000E+00
  0.00000000E+00  0.00000000E+00  0.00000000E+00
  0.00000000E+00  0.00000000E+00  0.00000000E+00
  0.00000000E+00  0.00000000E+00  0.00000000E+00
  0.00000000E+00  0.00000000E+00  0.00000000E+00
  0.00000000E+00  0.00000000E+00  0.00000000E+00
  0.00000000E+00  0.00000000E+00  0.00000000E+00
  0.00000000E+00  0.00000000E+00  0.00000000E+00
  0.00000000E+00  0.00000000E+00  0.00000000E+00
  0.00000000E+00  0.00000000E+00  0.00000000E+00