 N B Ga 
 1.0
 14.936314146199660   0.000000000000000   0.000000000000000
 -7.468157073099825  12.935227489513863   0.000000000000000
  0.000000000000001   0.000000000000001  13.341276283792837
 N B Ga 
 143 143   1
Cartesian
  1.245052833386326   0.718648793543120   1.665551742264323 
  4.979015430311429   7.186699278881392   1.679279778829047 
  6.223736032089979   0.718317852419299   1.666446756802629 
  9.957865060472436   7.186459119509485   1.668212431982839 
 11.202226794597051   0.718618660044413   1.666783763563883 
 -3.733863172599537   9.342233082861364   8.338973829014130 
  1.244563833198688   9.342497080533523   8.339510456041999 
  2.489980672616730   2.874581242146775   8.338014397377567 
  6.223785734008603   9.342242771059629   8.336363996723748 
  7.468285103899069   2.874271417375768   8.337503622152237 
 12.447089478321129   2.874698704211263   8.339112394445161 
 -1.244646939177904   9.342274026610133   1.667014484287525 
  0.000458954830310   2.874759975364527   1.665929564929643 
  4.979443100081262   2.874292542150423   1.670639612841990 
  3.733948925735197   9.342331410498220   1.668453590692390 
  8.713202999956447   9.342277046576559   1.668212431982839 
  9.957555451261809   2.874583722728015   1.667545436429129 
 -4.978488726381161  11.497970795872288   8.338990834548044 
 -0.000026029385599  11.497964962606176   8.339022278477429 
  1.245065026216448   5.030838392849529   8.338014397377567 
  6.223986168993023   5.030346705548300   8.326677434015581 
  4.978854563785362  11.497946615525546   8.338411776415498 
 11.202446419376720   5.030589113952663   8.338830103214681 
 -1.244491162732696   5.030665482499352   1.665551742264323 
 -2.489219597562175  11.497937104642769   1.667014484287525 
  2.489278658424391  11.498065404593614   1.666863776149772 
  3.735538001008349   5.031208868119969   1.714128699487121 
  7.468455487339563  11.498051123242531   1.667127109629947 
  8.713126744030177   5.030577664337408   1.669593216120880 
  0.000032311953703   7.186620243762781   8.339599427497179 
  1.245052833386326   0.718648793543121   8.340405470580304 
  4.979015430311430   7.186699278881393   8.326677434015581 
  6.223736032089980   0.718317852419300   8.339510456041999 
  9.957865060472436   7.186459119509486   8.337744780861788 
 -2.489252326126734   7.186486878581730   1.666966378296584 
 11.202226794597051   0.718618660044414   8.339173449280757 
  3.734426163393612   0.718460357595990   1.666357785347462 
  2.489546218417750   7.186920446798969   1.670639612841990 
  7.468398741926246   7.186377021736359   1.672619276691883 
  8.712870372931949   0.718488349501749   1.666863776149772 
  2.489546218417751   7.186920446798970   8.335317600002638 
 13.691878227300244   0.718661346289320   1.666844818399467 
 -1.244646939177903   9.342274026610133   8.338942728557102 
  0.000458954830311   2.874759975364527   8.340027647914985 
  4.979443100081263   2.874292542150424   8.335317600002638 
  3.733948925735197   9.342331410498220   8.337503622152237 
  8.713202999956447   9.342277046576559   8.337744780861788 
  9.957555451261809   2.874583722728016   8.338411776415498 
 -3.733863172599537   9.342233082861364   1.666983383830485 
  1.244563833198687   9.342497080533523   1.666446756802629 
  2.489980672616729   2.874581242146774   1.667942815467074 
  6.223785734008602   9.342242771059629   1.669593216120880 
  7.468285103899068   2.874271417375768   1.668453590692390 
 12.447089478321129   2.874698704211262   1.666844818399467 
 -1.244491162732695   5.030665482499352   8.340405470580304 
 -2.489219597562175  11.497937104642769   8.338942728557102 
  2.489278658424392  11.498065404593614   8.339093436694856 
  3.735538001008350   5.031208868119970   8.291828513357506 
  7.468455487339564  11.498051123242531   8.338830103214681 
 -4.978488726381162  11.497970795872288   1.666966378296584 
  8.713126744030177   5.030577664337409   8.336363996723748 
 -0.000026029385600  11.497964962606176   1.666934934367199 
  1.245065026216447   5.030838392849528   1.667942815467074 
  0.000032311953702   7.186620243762780   1.666357785347462 
  6.223986168993022   5.030346705548300   1.679279778829047 
  4.978854563785361  11.497946615525546   1.667545436429129 
 11.202446419376720   5.030589113952662   1.667127109629947 
 -2.489252326126733   7.186486878581731   8.338990834548044 
  3.734426163393612   0.718460357595990   8.339599427497179 
  7.468398741926247   7.186377021736360   8.333337936152745 
  8.712870372931949   0.718488349501750   8.339093436694856 
 13.691878227300244   0.718661346289321   8.339112394445161 
  0.003013416125381   1.440008239828056   5.002978606422314 
  3.710676496713990   7.922086833867254   5.002978606422314 
  4.995787609710374   1.369997795329295   5.002978606422314 
  8.696893571705347   7.895648842407478   5.002978606422314 
  9.961904135538429   1.435254929109484   5.002978606422314 
 -4.978765307131439  10.060757302182363  11.673616748318732 
  0.000005068370350  10.060737278776346  11.673616748318732 
  1.244706364282830   3.593126552150498  11.673616748318732 
  4.978803864304174  10.060755159850064  11.673616748318732 
  6.223535853446061   3.593097132598233  11.673616748318732 
 11.202318353682683   3.593084267175104  11.673616748318732 
 -2.506509770926192  10.050845899708330   5.002978606422314 
 -1.240795265620603   3.594348071507381   5.002978606422314 
  3.779282422480311   3.462444169752065   5.002978606422314 
  2.478617876914792  10.074412202559403   5.002978606422314 
  7.458123986721143  10.056242373679202   5.002978606422314 
  8.716394920984479   3.585146124531573   5.002978606422314 
 -6.223480091671934  12.216617582807874  11.673616748318732 
 -1.244686165726564  12.216605735967823  11.673616748318732 
 -0.000109186636622   5.748963042048458  11.673616748318732 
  4.978689924288161   5.748942965669165  11.673616748318732 
  3.734144059610078  12.216656513563658  11.673616748318732 
  9.957726140084484   5.749003012104664  11.673616748318732 
 -2.503005430737942   5.747149973389675   5.002978606422314 
 -3.744634650363712  12.192759400688844   5.002978606422314 
  1.243269521809490  12.215781983770903   5.002978606422314 
  2.398820130397449   5.853474997572586   5.002978606422314 
  6.222107586820949  12.219936956251875   5.002978606422314 
  7.456511326908362   5.745220759102667   5.002978606422314 
 -1.244668577888650   7.904833788095986  11.673616748318732 
 -0.000037755480006   1.437254721776754  11.673616748318732 
  3.734095630784811   7.904934080653129  11.673616748318732 
  4.978783187819587   1.437389633473254  11.673616748318732 
  8.712798325757632   7.904831456440967  11.673616748318732 
 -3.753076607597470   7.897547361238376   5.002978606422314 
  9.957621228826440   1.437277856735912  11.673616748318732 
  2.485197913535868   1.411671580045758   5.002978606422314 
  1.194961007705684   7.953222580760835   5.002978606422314 
  6.214377100153488   7.896660349662405   5.002978606422314 
  7.474620143036434   1.421082442907412   5.002978606422314 
  1.244821840600680   7.904800400354778  11.673616748318732 
 12.450164368095772   1.439115754035805   5.002978606422314 
 -2.489390958476571  10.060729450684333  11.673616748318732 
 -1.244705468005502   3.593082438411463  11.673616748318732 
  3.734024042597164   3.593245789059983  11.673616748318732 
  2.489332578685544  10.060861697493634  11.673616748318732 
  7.468260033924821  10.060884791693889  11.673616748318732 
  8.712885790804275   3.593135543527168  11.673616748318732 
 -4.994604425508709  10.047936620870779   5.002978606422314 
 -0.020294218795974  10.070438261715919   5.002978606422314 
  1.260164808130034   3.602051488866933   5.002978606422314 
  4.973639389582598  10.067788865229128   5.002978606422314 
  6.226681006438936   3.564239190951193   5.002978606422314 
 11.204443939135533   3.590277253645566   5.002978606422314 
 -2.489381634937846   5.748969335279853  11.673616748318732 
 -3.734090179892798  12.216638484226710  11.673616748318732 
  1.244714217610525  12.216616079280556  11.673616748318732 
  2.489468465632680   5.748879281205681  11.673616748318732 
  6.223475739119863  12.216692638487039  11.673616748318732 
 -6.231867603187554  12.205728710494107   5.002978606422314 
  7.468217588826215   5.748935928237927  11.673616748318732 
 -1.246434511642375  12.194175546133282   5.002978606422314 
 -0.024243284145224   5.758151233035934   5.002978606422314 
 -1.270620706086981   7.907641550567639   5.002978606422314 
  3.734533606251568  12.221377083391491   5.002978606422314 
  9.948637664546942   5.742546146739664   5.002978606422314 
 -3.734054012699171   7.904854099470836  11.673616748318732 
  2.489307755480191   1.437166417079357  11.673616748318732 
  6.223447661962899   7.904940685299000  11.673616748318732 
  7.468242412300743   1.437136899367743  11.673616748318732 
 12.446967627835724   1.437270115186147  11.673616748318732 
  1.238683606038644   0.707546475993935   5.002978606422314 
  4.963903416015983   7.306723178832585   5.002978606422314 
  6.238199312543144   0.678952997498546   5.002978606422314 
  9.949593459672776   7.178816257105003   5.002978606422314 
 11.208399081640250   0.722182231630321   5.002978606422314 
 -3.731739113545895   9.343459408927751  11.673616748318732 
  1.244528984007965   9.339781187637428  11.673616748318732 
  2.486742747828480   2.875416998885770  11.673616748318732 
  6.221475379773522   9.343952696836254  11.673616748318732 
  7.470632190038557   2.875304002012114  11.673616748318732 
 12.447135034854426   2.871891301529560  11.673616748318732 
 -1.262507990732041   9.341797145707169   5.002978606422314 
  0.010760977822446   2.880707851112243   5.002978606422314 
  4.990213685781888   2.775210610709800   5.002978606422314 
  3.721625678609391   9.380428011417321   5.002978606422314 
  8.702448286556724   9.338935061356304   5.002978606422314 
  9.969975225846580   2.866537488131228   5.002978606422314 
 -4.980965059613775  11.499404115951082  11.673616748318732 
  0.002160571910000  11.499227397452794  11.673616748318732 
  1.244169850389676   5.027616389357864  11.673616748318732 
  6.221892439349626   5.031117899891101  11.673616748318732 
  4.978845272268053  11.496050328204253  11.673616748318732 
 11.204857850579813   5.031532346074207  11.673616748318732 
 -1.257290665445013   5.030700728588373   5.002978606422314 
 -2.498563114315767  11.482707420710025   5.002978606422314 
  2.488164183166090  11.510229912089530   5.002978606422314 
  7.461584917576588  11.499333075445563   5.002978606422314 
  8.727835115462936   5.013735612205997   5.002978606422314 
  0.001878685795763   7.187269386779103  11.673616748318732 
  1.244564253529253   0.716138595236432  11.673616748318732 
  4.978636439381853   7.184500458650151  11.673616748318732 
  6.221366575252641   0.719645618582881  11.673616748318732 
  9.955873605358398   7.187468954040631  11.673616748318732 
 -2.507045376829654   7.182404067218085   5.002978606422314 
 11.204675825543458   0.720032608720576  11.673616748318732 
  3.726040702919688   0.686578245320943   5.002978606422314 
  2.409124041584448   7.245789013349674   5.002978606422314 
  7.471927040802474   7.188414086042314   5.002978606422314 
  8.722847907818803   0.711440931868188   5.002978606422314 
  2.486785199141692   7.187500734973741  11.673616748318732 
 13.695123527489502   0.724957347410598   5.002978606422314 
 -1.246966871766924   9.343325950407252  11.673616748318732 
  0.001917656455288   2.875602157140384  11.673616748318732 
  4.978565134744108   2.871611285229621  11.673616748318732 
  3.736016713331582   9.343847754401702  11.673616748318732 
  8.713081814757036   9.340047478591709  11.673616748318732 
  9.955908572510044   2.875523819698633  11.673616748318732 
 -3.748667766210003   9.333685646755118   5.002978606422314 
  1.217704509047608   9.374705076288400   5.002978606422314 
  2.494886473276410   2.850525804441741   5.002978606422314 
  6.216554274727324   9.363401620434392   5.002978606422314 
  7.495116104529937   2.844550871848166   5.002978606422314 
 12.454164625329048   2.874361216057415   5.002978606422314 
 -1.246909348163369   5.031497459084706  11.673616748318732 
 -2.489468571125513  11.495402022187012  11.673616748318732 
  2.487165955648631  11.499473946758576  11.673616748318732 
  3.735311543923463   5.031078123061051  11.673616748318732 
  7.470478065920019  11.499667867863142  11.673616748318732 
 -4.990921070092402  11.484602967634560   5.002978606422314 
  8.713452406073769   5.027721875989791  11.673616748318732 
 -0.003313454696571  11.496066966717937   5.002978606422314 
  1.226685306394567   5.047114659699244   5.002978606422314 
 -0.031771137439773   7.195299278107481   5.002978606422314 
  6.320373908264315   4.957247367290493   5.002978606422314 
  4.978096207512112  11.512725573123637   5.002978606422314 
 11.200121337669490   5.023998049897950   5.002978606422314 
 -2.489249201143060   7.183625651054670  11.673616748318732 
  3.735911524657452   0.719734792739962  11.673616748318732 
  7.470667744603101   7.187687031042643  11.673616748318732 
  8.713033854841241   0.715954424144790  11.673616748318732 
 13.689469723525876   0.720104500745329  11.673616748318732 
  0.000336717444728   1.437447902634534   1.669016221533994 
  3.731501358635888   7.907221734721473   1.668474696756155 
  4.978725913984103   1.434511252371735   1.667463702313499 
  8.715465916097969   7.906371590442039   1.668042935277853 
  9.957919077898879   1.436659538734639   1.668775562460630 
 -4.977331310772157  10.061625128626215   8.336925716112837 
 -0.000943950021690  10.061174570277263   8.337116120813841 
  1.244069192338271   3.592758680756796   8.336319532467440 
  4.978601814683707  10.062559296575692   8.338617514926753 
  6.224219883909860   3.589706599978762   8.337482516088446 
 11.203325749806345   3.593069628953617   8.336947353931793 
 -2.489010613477271  10.060949042972053   1.668618282195292 
 -1.244350932012765   3.593310151048407   1.669016221533994 
  3.733129680472549   3.588591409030615   1.684385786549444 
  2.487777082818058  10.062053277473042   1.668001338959968 
  7.469713224020914  10.062480579532654   1.668545059441949 
  8.714347194230330   3.592058495060215   1.667339697917862 
 -6.222707369891870  12.217149901391048   8.337758558901854 
 -1.244781969373938  12.215565216181210   8.337116120813841 
 -0.000932105455711   5.749457950679433   8.337471442902279 
  4.980377618495094   5.749917356373857   8.330632546759388 
  3.733757505049579  12.217223617427518   8.337181650384011 
  9.959834727939953   5.749463617725028   8.337412153402679 
 -2.488534272631893   5.749372372679884   1.668198653942787 
 -3.733708858598008  12.216099748694022   1.669166823601690 
  1.244213514526572  12.216326998220241   1.668051934036267 
  2.484990473226066   5.750431930900279   1.684385786549444 
  6.223966760110018  12.217572388232545   1.669009858912822 
  7.471358987013696   5.749562745586513   1.668541556898559 
 -1.244944475898483   7.905433389790622   8.336790389242951 
  0.000336717444728   1.437447902634535   8.336940991310634 
  3.731501358635888   7.907221734721474   8.337482516088446 
  4.978725913984104   1.434511252371735   8.338493510531128 
  8.715465916097969   7.906371590442040   8.337914277566775 
 -3.732585454773079   7.905662063524981   1.669031496731790 
  9.957919077898879   1.436659538734639   8.337181650384011 
  2.489324899517630   1.436206294161273   1.668485769942347 
  1.242300452527258   7.906189990309024   1.667463702313499 
  6.225561200804055   7.907347807258456   1.668541556898559 
  7.468496602899819   1.435194010441298   1.668001338959968 
  1.242300452527258   7.906189990309024   8.338493510531128 
 12.447328300851188   1.437478349848713   1.668589424263096 
 -2.489010613477271  10.060949042972053   8.337338930649336 
 -1.244350932012765   3.593310151048408   8.336940991310634 
  3.733129680472549   3.588591409030616   8.321571426295197 
  2.487777082818058  10.062053277473042   8.337955873884672 
  7.469713224020915  10.062480579532654   8.337412153402679 
  8.714347194230330   3.592058495060216   8.338617514926753 
 -4.977331310772158  10.061625128626215   1.669031496731790 
 -0.000943950021691  10.061174570277263   1.668841092030789 
  1.244069192338271   3.592758680756795   1.669637680377187 
  4.978601814683706  10.062559296575692   1.667339697917862 
  6.224219883909859   3.589706599978761   1.668474696756155 
 11.203325749806345   3.593069628953616   1.669009858912822 
 -2.488534272631892   5.749372372679884   8.337758558901854 
 -3.733708858598008  12.216099748694022   8.336790389242951 
  1.244213514526572  12.216326998220241   8.337905278808375 
  2.484990473226066   5.750431930900280   8.321571426295197 
  6.223966760110019  12.217572388232545   8.336947353931793 
 -6.222707369891871  12.217149901391048   1.668198653942787 
  7.471358987013697   5.749562745586513   8.337415655946069 
 -1.244781969373938  12.215565216181210   1.668841092030789 
 -0.000932105455711   5.749457950679432   1.668485769942347 
 -1.244944475898483   7.905433389790621   1.669166823601690 
  4.980377618495093   5.749917356373856   1.675324666085239 
  3.733757505049579  12.217223617427518   1.668775562460630 
  9.959834727939953   5.749463617725027   1.668545059441949 
 -3.732585454773079   7.905662063524982   8.336925716112837 
  2.489324899517630   1.436206294161273   8.337471442902279 
  6.225561200804056   7.907347807258457   8.337415655946069 
  7.468496602899820   1.435194010441299   8.337955873884672 
 12.447328300851188   1.437478349848714   8.337367788581533 
  4.086233277825862   5.233682880594084   5.002978606422314 
Generated by cif2cell 2.0.0.  :  Failed to get author information, No journal information. Species order: N B Ga 
 1.0
 14.936314146199660   0.000000000000000   0.000000000000000
 -7.468157073099825  12.935227489513863   0.000000000000000
  0.000000000000001   0.000000000000001  13.341276283792837
 N B Ga 
 143 143   1
Cartesian
  1.245052833386326   0.718648793543120   1.665551742264323 
  4.979015430311429   7.186699278881392   1.679279778829047 
  6.223736032089979   0.718317852419299   1.666446756802629 
  9.957865060472436   7.186459119509485   1.668212431982839 
 11.202226794597051   0.718618660044413   1.666783763563883 
 -3.733863172599537   9.342233082861364   8.338973829014130 
  1.244563833198688   9.342497080533523   8.339510456041999 
  2.489980672616730   2.874581242146775   8.338014397377567 
  6.223785734008603   9.342242771059629   8.336363996723748 
  7.468285103899069   2.874271417375768   8.337503622152237 
 12.447089478321129   2.874698704211263   8.339112394445161 
 -1.244646939177904   9.342274026610133   1.667014484287525 
  0.000458954830310   2.874759975364527   1.665929564929643 
  4.979443100081262   2.874292542150423   1.670639612841990 
  3.733948925735197   9.342331410498220   1.668453590692390 
  8.713202999956447   9.342277046576559   1.668212431982839 
  9.957555451261809   2.874583722728015   1.667545436429129 
 -4.978488726381161  11.497970795872288   8.338990834548044 
 -0.000026029385599  11.497964962606176   8.339022278477429 
  1.245065026216448   5.030838392849529   8.338014397377567 
  6.223986168993023   5.030346705548300   8.326677434015581 
  4.978854563785362  11.497946615525546   8.338411776415498 
 11.202446419376720   5.030589113952663   8.338830103214681 
 -1.244491162732696   5.030665482499352   1.665551742264323 
 -2.489219597562175  11.497937104642769   1.667014484287525 
  2.489278658424391  11.498065404593614   1.666863776149772 
  3.735538001008349   5.031208868119969   1.714128699487121 
  7.468455487339563  11.498051123242531   1.667127109629947 
  8.713126744030177   5.030577664337408   1.669593216120880 
  0.000032311953703   7.186620243762781   8.339599427497179 
  1.245052833386326   0.718648793543121   8.340405470580304 
  4.979015430311430   7.186699278881393   8.326677434015581 
  6.223736032089980   0.718317852419300   8.339510456041999 
  9.957865060472436   7.186459119509486   8.337744780861788 
 -2.489252326126734   7.186486878581730   1.666966378296584 
 11.202226794597051   0.718618660044414   8.339173449280757 
  3.734426163393612   0.718460357595990   1.666357785347462 
  2.489546218417750   7.186920446798969   1.670639612841990 
  7.468398741926246   7.186377021736359   1.672619276691883 
  8.712870372931949   0.718488349501749   1.666863776149772 
  2.489546218417751   7.186920446798970   8.335317600002638 
 13.691878227300244   0.718661346289320   1.666844818399467 
 -1.244646939177903   9.342274026610133   8.338942728557102 
  0.000458954830311   2.874759975364527   8.340027647914985 
  4.979443100081263   2.874292542150424   8.335317600002638 
  3.733948925735197   9.342331410498220   8.337503622152237 
  8.713202999956447   9.342277046576559   8.337744780861788 
  9.957555451261809   2.874583722728016   8.338411776415498 
 -3.733863172599537   9.342233082861364   1.666983383830485 
  1.244563833198687   9.342497080533523   1.666446756802629 
  2.489980672616729   2.874581242146774   1.667942815467074 
  6.223785734008602   9.342242771059629   1.669593216120880 
  7.468285103899068   2.874271417375768   1.668453590692390 
 12.447089478321129   2.874698704211262   1.666844818399467 
 -1.244491162732695   5.030665482499352   8.340405470580304 
 -2.489219597562175  11.497937104642769   8.338942728557102 
  2.489278658424392  11.498065404593614   8.339093436694856 
  3.735538001008350   5.031208868119970   8.291828513357506 
  7.468455487339564  11.498051123242531   8.338830103214681 
 -4.978488726381162  11.497970795872288   1.666966378296584 
  8.713126744030177   5.030577664337409   8.336363996723748 
 -0.000026029385600  11.497964962606176   1.666934934367199 
  1.245065026216447   5.030838392849528   1.667942815467074 
  0.000032311953702   7.186620243762780   1.666357785347462 
  6.223986168993022   5.030346705548300   1.679279778829047 
  4.978854563785361  11.497946615525546   1.667545436429129 
 11.202446419376720   5.030589113952662   1.667127109629947 
 -2.489252326126733   7.186486878581731   8.338990834548044 
  3.734426163393612   0.718460357595990   8.339599427497179 
  7.468398741926247   7.186377021736360   8.333337936152745 
  8.712870372931949   0.718488349501750   8.339093436694856 
 13.691878227300244   0.718661346289321   8.339112394445161 
  0.003013416125381   1.440008239828056   5.002978606422314 
  3.710676496713990   7.922086833867254   5.002978606422314 
  4.995787609710374   1.369997795329295   5.002978606422314 
  8.696893571705347   7.895648842407478   5.002978606422314 
  9.961904135538429   1.435254929109484   5.002978606422314 
 -4.978765307131439  10.060757302182363  11.673616748318732 
  0.000005068370350  10.060737278776346  11.673616748318732 
  1.244706364282830   3.593126552150498  11.673616748318732 
  4.978803864304174  10.060755159850064  11.673616748318732 
  6.223535853446061   3.593097132598233  11.673616748318732 
 11.202318353682683   3.593084267175104  11.673616748318732 
 -2.506509770926192  10.050845899708330   5.002978606422314 
 -1.240795265620603   3.594348071507381   5.002978606422314 
  3.779282422480311   3.462444169752065   5.002978606422314 
  2.478617876914792  10.074412202559403   5.002978606422314 
  7.458123986721143  10.056242373679202   5.002978606422314 
  8.716394920984479   3.585146124531573   5.002978606422314 
 -6.223480091671934  12.216617582807874  11.673616748318732 
 -1.244686165726564  12.216605735967823  11.673616748318732 
 -0.000109186636622   5.748963042048458  11.673616748318732 
  4.978689924288161   5.748942965669165  11.673616748318732 
  3.734144059610078  12.216656513563658  11.673616748318732 
  9.957726140084484   5.749003012104664  11.673616748318732 
 -2.503005430737942   5.747149973389675   5.002978606422314 
 -3.744634650363712  12.192759400688844   5.002978606422314 
  1.243269521809490  12.215781983770903   5.002978606422314 
  2.398820130397449   5.853474997572586   5.002978606422314 
  6.222107586820949  12.219936956251875   5.002978606422314 
  7.456511326908362   5.745220759102667   5.002978606422314 
 -1.244668577888650   7.904833788095986  11.673616748318732 
 -0.000037755480006   1.437254721776754  11.673616748318732 
  3.734095630784811   7.904934080653129  11.673616748318732 
  4.978783187819587   1.437389633473254  11.673616748318732 
  8.712798325757632   7.904831456440967  11.673616748318732 
 -3.753076607597470   7.897547361238376   5.002978606422314 
  9.957621228826440   1.437277856735912  11.673616748318732 
  2.485197913535868   1.411671580045758   5.002978606422314 
  1.194961007705684   7.953222580760835   5.002978606422314 
  6.214377100153488   7.896660349662405   5.002978606422314 
  7.474620143036434   1.421082442907412   5.002978606422314 
  1.244821840600680   7.904800400354778  11.673616748318732 
 12.450164368095772   1.439115754035805   5.002978606422314 
 -2.489390958476571  10.060729450684333  11.673616748318732 
 -1.244705468005502   3.593082438411463  11.673616748318732 
  3.734024042597164   3.593245789059983  11.673616748318732 
  2.489332578685544  10.060861697493634  11.673616748318732 
  7.468260033924821  10.060884791693889  11.673616748318732 
  8.712885790804275   3.593135543527168  11.673616748318732 
 -4.994604425508709  10.047936620870779   5.002978606422314 
 -0.020294218795974  10.070438261715919   5.002978606422314 
  1.260164808130034   3.602051488866933   5.002978606422314 
  4.973639389582598  10.067788865229128   5.002978606422314 
  6.226681006438936   3.564239190951193   5.002978606422314 
 11.204443939135533   3.590277253645566   5.002978606422314 
 -2.489381634937846   5.748969335279853  11.673616748318732 
 -3.734090179892798  12.216638484226710  11.673616748318732 
  1.244714217610525  12.216616079280556  11.673616748318732 
  2.489468465632680   5.748879281205681  11.673616748318732 
  6.223475739119863  12.216692638487039  11.673616748318732 
 -6.231867603187554  12.205728710494107   5.002978606422314 
  7.468217588826215   5.748935928237927  11.673616748318732 
 -1.246434511642375  12.194175546133282   5.002978606422314 
 -0.024243284145224   5.758151233035934   5.002978606422314 
 -1.270620706086981   7.907641550567639   5.002978606422314 
  3.734533606251568  12.221377083391491   5.002978606422314 
  9.948637664546942   5.742546146739664   5.002978606422314 
 -3.734054012699171   7.904854099470836  11.673616748318732 
  2.489307755480191   1.437166417079357  11.673616748318732 
  6.223447661962899   7.904940685299000  11.673616748318732 
  7.468242412300743   1.437136899367743  11.673616748318732 
 12.446967627835724   1.437270115186147  11.673616748318732 
  1.238683606038644   0.707546475993935   5.002978606422314 
  4.963903416015983   7.306723178832585   5.002978606422314 
  6.238199312543144   0.678952997498546   5.002978606422314 
  9.949593459672776   7.178816257105003   5.002978606422314 
 11.208399081640250   0.722182231630321   5.002978606422314 
 -3.731739113545895   9.343459408927751  11.673616748318732 
  1.244528984007965   9.339781187637428  11.673616748318732 
  2.486742747828480   2.875416998885770  11.673616748318732 
  6.221475379773522   9.343952696836254  11.673616748318732 
  7.470632190038557   2.875304002012114  11.673616748318732 
 12.447135034854426   2.871891301529560  11.673616748318732 
 -1.262507990732041   9.341797145707169   5.002978606422314 
  0.010760977822446   2.880707851112243   5.002978606422314 
  4.990213685781888   2.775210610709800   5.002978606422314 
  3.721625678609391   9.380428011417321   5.002978606422314 
  8.702448286556724   9.338935061356304   5.002978606422314 
  9.969975225846580   2.866537488131228   5.002978606422314 
 -4.980965059613775  11.499404115951082  11.673616748318732 
  0.002160571910000  11.499227397452794  11.673616748318732 
  1.244169850389676   5.027616389357864  11.673616748318732 
  6.221892439349626   5.031117899891101  11.673616748318732 
  4.978845272268053  11.496050328204253  11.673616748318732 
 11.204857850579813   5.031532346074207  11.673616748318732 
 -1.257290665445013   5.030700728588373   5.002978606422314 
 -2.498563114315767  11.482707420710025   5.002978606422314 
  2.488164183166090  11.510229912089530   5.002978606422314 
  7.461584917576588  11.499333075445563   5.002978606422314 
  8.727835115462936   5.013735612205997   5.002978606422314 
  0.001878685795763   7.187269386779103  11.673616748318732 
  1.244564253529253   0.716138595236432  11.673616748318732 
  4.978636439381853   7.184500458650151  11.673616748318732 
  6.221366575252641   0.719645618582881  11.673616748318732 
  9.955873605358398   7.187468954040631  11.673616748318732 
 -2.507045376829654   7.182404067218085   5.002978606422314 
 11.204675825543458   0.720032608720576  11.673616748318732 
  3.726040702919688   0.686578245320943   5.002978606422314 
  2.409124041584448   7.245789013349674   5.002978606422314 
  7.471927040802474   7.188414086042314   5.002978606422314 
  8.722847907818803   0.711440931868188   5.002978606422314 
  2.486785199141692   7.187500734973741  11.673616748318732 
 13.695123527489502   0.724957347410598   5.002978606422314 
 -1.246966871766924   9.343325950407252  11.673616748318732 
  0.001917656455288   2.875602157140384  11.673616748318732 
  4.978565134744108   2.871611285229621  11.673616748318732 
  3.736016713331582   9.343847754401702  11.673616748318732 
  8.713081814757036   9.340047478591709  11.673616748318732 
  9.955908572510044   2.875523819698633  11.673616748318732 
 -3.748667766210003   9.333685646755118   5.002978606422314 
  1.217704509047608   9.374705076288400   5.002978606422314 
  2.494886473276410   2.850525804441741   5.002978606422314 
  6.216554274727324   9.363401620434392   5.002978606422314 
  7.495116104529937   2.844550871848166   5.002978606422314 