B C N                                   
   1.0000000000000000     
     8.7639499999999995  -15.1796066749929999    0.0000000000000000
     8.7639499999999995   15.1796066749929999    0.0000000000000000
     0.0000000000000000    0.0000000000000000   15.0000000000000000
   B    C    N 
    46     2    48
Selective dynamics
Direct
  0.9038315868845472  0.9510293296024607  0.1094615742679063   T   T   T
  0.9056908547594179  0.0946994081122050  0.1096387561043244   T   T   T
  0.9061995307738855  0.2377903677274937  0.1090672289875889   T   T   T
  0.9059680135766582  0.3809253587125884  0.1086460346807621   T   T   T
  0.9044816871041343  0.5237683442698894  0.1088952529586873   T   T   T
  0.9033891442891946  0.6660605513142519  0.1081550773487869   T   T   T
  0.9024529468066625  0.8079868541605918  0.1085485870792609   T   T   T
  0.0488539311033015  0.9552004616635722  0.1088466759502394   T   T   T
  0.0496145060226699  0.0972135325298253  0.1092795014164301   T   T   T
  0.0495303012367392  0.2392736947683846  0.1092276707636042   T   T   T
  0.0482520308814230  0.3819557074286956  0.1092369044186630   T   T   T
  0.0470097028470804  0.5250875971776056  0.1090121521870871   T   T   T
  0.0465931208800094  0.6682641418567413  0.1084788339122093   T   T   T
  0.0469385141993595  0.8113934226929750  0.1084235408840530   T   T   T
  0.1916445089756894  0.9565612766988127  0.1080496170489901   T   T   T
  0.1965232323613358  0.1030562631676581  0.1084682500958252   T   T   T
  0.1948372584905380  0.2425836820935424  0.1086118541290655   T   T   T
  0.1913112855008536  0.3834230340005536  0.1101738349237094   T   T   T
  0.1890053455123759  0.5259290103144160  0.1125519589997137   T   T   T
  0.1887100312162331  0.6692635531681670  0.1105477294725587   T   T   T
  0.1897493590006352  0.8125391878648554  0.1085944307719041   T   T   T
  0.3337025484519857  0.9558075887174042  0.1083931606549794   T   T   T
  0.3365650195571545  0.1009745796171761  0.1092560149812502   T   T   T
  0.3482107377720690  0.2536754854043155  0.1098068486936951   T   T   T
  0.3358624989348085  0.3873576831289180  0.1084321622296071   T   T   T
  0.3316146230792985  0.5277246268731054  0.1181599690560482   T   T   T
  0.3306060471067421  0.6708314160469104  0.1195067899576126   T   T   T
  0.3320202798432809  0.8125293948983494  0.1096381772993121   T   T   T
  0.4761573759667727  0.9535280133846098  0.1087425030633217   T   T   T
  0.4776724653630507  0.0958520771923533  0.1111414565929126   T   T   T
  0.4802124251884758  0.2384582324538130  0.1248444407485556   T   T   T
  0.4736559818911125  0.8108448385553413  0.1138686375971111   T   T   T
  0.6191003753878772  0.9508114634705737  0.1098272083327375   T   T   T
  0.6202383271360630  0.0940416976183408  0.1094075863444294   T   T   T
  0.6215674419467365  0.2362920114764546  0.1159624815220923   T   T   T
  0.6222886580509388  0.3773556403455096  0.1260121291839484   T   T   T
  0.6084644977797209  0.5073644830693482  0.1093999898722764   T   T   T
  0.6131722426643731  0.6541748329762292  0.1083475273448716   T   T   T
  0.6179864643958917  0.8050690227674872  0.1124640674226315   T   T   T
  0.7615264624837484  0.9500310045089949  0.1098726235758103   T   T   T
  0.7628320034907101  0.0938314545621802  0.1093011447231360   T   T   T
  0.7637094828994871  0.2369601429158729  0.1096585631845409   T   T   T
  0.7640272442795997  0.3796390415589634  0.1122074678499337   T   T   T
  0.7605016184569136  0.5208603403394743  0.1100366644709374   T   T   T
  0.7571544928629869  0.6598230478618760  0.1078536922954580   T   T   T
  0.7577119850156264  0.8038814171618034  0.1088343653031840   T   T   T
  0.4684904455680901  0.5155987500090796  0.1093844593598271   T   T   T
  0.4910784257195913  0.4453073831100297  0.1089396441073859   T   T   T
  0.9521590951586486  0.9045040825468168  0.1090460585931750   T   T   T
  0.9533742784729213  0.0473272699879536  0.1096521964368861   T   T   T
  0.9540345966399454  0.1904268766488685  0.1093861205400469   T   T   T
  0.9534329773967787  0.3333332919793672  0.1087180072284343   T   T   T
  0.9522488968491239  0.4764298835223220  0.1085588338552325   T   T   T
  0.9514621279069817  0.6192814749699324  0.1083213583002380   T   T   T
  0.9511033931589524  0.7617399096390189  0.1083494867044550   T   T   T
  0.0959054160720790  0.9074220669328097  0.1084159094700130   T   T   T
  0.0992085754137998  0.0519838353521719  0.1089416960651329   T   T   T
  0.0986060989378326  0.1930050207134719  0.1090965102423518   T   T   T
  0.0963513948317546  0.3347335494404893  0.1092754997428176   T   T   T
  0.0944385752032106  0.4773798379612227  0.1097263761372232   T   T   T
  0.0938816213815488  0.6206012935487002  0.1089682281235392   T   T   T
  0.0943925329393508  0.7638960213536833  0.1084658978372579   T   T   T
  0.2382782859594570  0.9081562000259142  0.1081182755840262   T   T   T
  0.2412046697334745  0.0529272810462807  0.1078884466881740   T   T   T
  0.2484540485422037  0.2012296367478518  0.1083701842329305   T   T   T
  0.2411041335607364  0.3375824525890359  0.1088786917902677   T   T   T
  0.2365408430788570  0.4782753866866217  0.1130657869616209   T   T   T
  0.2354009183932340  0.6212114556950578  0.1136351067197159   T   T   T
  0.2368031836566626  0.7646250774824679  0.1094547514632179   T   T   T
  0.3806703127992467  0.9074937229136252  0.1082841273792366   T   T   T
  0.3823482745088826  0.0511476624184931  0.1094440551259881   T   T   T
  0.3864746124554599  0.1975207095980388  0.1121617044625510   T   T   T
  0.4012225265764526  0.3582500938035430  0.1083594287625047   T   T   T
  0.3789412146857153  0.4812376940611422  0.1096317548586696   T   T   T
  0.3676883339535957  0.6171137187207821  0.1360980605260814   T   T   T
  0.3789889284761769  0.7646896513111046  0.1129030523873613   T   T   T
  0.5236930919180189  0.9060417756393979  0.1100537216799423   T   T   T
  0.5248761028067093  0.0480377692523957  0.1087098056443163   T   T   T
  0.5266450080802412  0.1898080901806669  0.1167514992181869   T   T   T
  0.5331681893780758  0.3269047454141933  0.1495894682648475   T   T   T
  0.5210101055958396  0.5993807025167058  0.1081403794001075   T   T   T
  0.5271913246885340  0.7724094157747412  0.1200323289318894   T   T   T
  0.6663300670681990  0.9022338186361504  0.1103277462772210   T   T   T
  0.6675475679053554  0.0461533604604142  0.1090006756389577   T   T   T
  0.6687253580833822  0.1889183383587122  0.1107940124422612   T   T   T
  0.6700514241913957  0.3308224054420593  0.1181275671698605   T   T   T
  0.6647484022494559  0.4706101505192636  0.1131640321492350   T   T   T
  0.6599863002692853  0.6062351256831388  0.1074772181625490   T   T   T
  0.6610805916352613  0.7524495279750995  0.1092011462600130   T   T   T
  0.8075910582104698  0.9008564441492322  0.1095548667153853   T   T   T
  0.8101467312217731  0.0459340283235930  0.1096575730512256   T   T   T
  0.8110612974176603  0.1893314589786980  0.1090609209278913   T   T   T
  0.8113531532444361  0.3323074332758260  0.1092765441978578   T   T   T
  0.8095485178695159  0.4748890448894463  0.1104047757664741   T   T   T
  0.8076734357289037  0.6159813003057028  0.1079392985861962   T   T   T
  0.8056352967750878  0.7567072109723478  0.1082202297094950   T   T   T

  0.00000000E+00  0.00000000E+00  0.00000000E+00
  0.00000000E+00  0.00000000E+00  0.00000000E+00
  0.00000000E+00  0.00000000E+00  0.00000000E+00
  0.00000000E+00  0.00000000E+00  0.00000000E+00
  0.00000000E+00  0.00000000E+00  0.00000000E+00
  0.00000000E+00  0.00000000E+00  0.00000000E+00
  0.00000000E+00  0.00000000E+00  0.00000000E+00
  0.00000000E+00  0.00000000E+00  0.00000000E+00
  0.00000000E+00  0.00000000E+00  0.00000000E+00
  0.00000000E+00  0.00000000E+00  0.00000000E+00
  0.00000000E+00  0.00000000E+00  0.00000000E+00
  0.00000000E+00  0.00000000E+00  0.00000000E+00
  0.00000000E+00  0.00000000E+00  0.00000000E+00
  0.00000000E+00  0.00000000E+00  0.00000000E+00
  0.00000000E+00  0.00000000E+00  0.00000000E+00
  0.00000000E+00  0.00000000E+00  0.00000000E+00
  0.00000000E+00  0.00000000E+00  0.00000000E+00
  0.00000000E+00  0.00000000E+00  0.00000000E+00
  0.00000000E+00  0.00000000E+00  0.00000000E+00
  0.00000000E+00  0.00000000E+00  0.00000000E+00
  0.00000000E+00  0.00000000E+00  0.00000000E+00
  0.00000000E+00  0.00000000E+00  0.00000000E+00
  0.00000000E+00  0.00000000E+00  0.00000000E+00
  0.00000000E+00  0.00000000E+00  0.00000000E+00
  0.00000000E+00  0.00000000E+00  0.00000000E+00
  0.00000000E+00  0.00000000E+00  0.00000000E+00
  0.00000000E+00  0.00000000E+00  0.00000000E+00
  0.00000000E+00  0.00000000E+00  0.00000000E+00
  0.00000000E+00  0.00000000E+00  0.00000000E+00
  0.00000000E+00  0.00000000E+00  0.00000000E+00
  0.00000000E+00  0.00000000E+00  0.00000000E+00
  0.00000000E+00  0.00000000E+00  0.00000000E+00
  0.00000000E+00  0.00000000E+00  0.00000000E+00
  0.00000000E+00  0.00000000E+00  0.00000000E+00
  0.00000000E+00  0.00000000E+00  0.00000000E+00
  0.00000000E+00  0.00000000E+00  0.00000000E+00
  0.00000000E+00  0.00000000E+00  0.00000000E+00
  0.00000000E+00  0.00000000E+00  0.00000000E+00
  0.00000000E+00  0.00000000E+00  0.00000000E+00
  0.00000000E+00  0.00000000E+00  0.00000000E+00
  0.00000000E+00  0.00000000E+00  0.00000000E+00
  0.00000000E+00  0.00000000E+00  0.00000000E+00
  0.00000000E+00  0.00000000E+00  0.00000000E+00
  0.00000000E+00  0.00000000E+00  0.00000000E+00
  0.00000000E+00  0.00000000E+00  0.00000000E+00
  0.00000000E+00  0.00000000E+00  0.00000000E+00
  0.00000000E+00  0.00000000E+00  0.00000000E+00
  0.00000000E+00  0.00000000E+00  0.00000000E+00
  0.00000000E+00  0.00000000E+00  0.00000000E+00
  0.00000000E+00  0.00000000E+00  0.00000000E+00
  0.00000000E+00  0.00000000E+00  0.00000000E+00
  0.00000000E+00  0.00000000E+00  0.00000000E+00
  0.00000000E+00  0.00000000E+00  0.00000000E+00
  0.00000000E+00  0.00000000E+00  0.00000000E+00
  0.00000000E+00  0.00000000E+00  0.00000000E+00
  0.00000000E+00  0.00000000E+00  0.00000000E+00
  0.00000000E+00  0.00000000E+00  0.00000000E+00
  0.00000000E+00  0.00000000E+00  0.00000000E+00
  0.00000000E+00  0.00000000E+00  0.00000000E+00
  0.00000000E+00  0.00000000E+00  0.00000000E+00
  0.00000000E+00  0.00000000E+00  0.00000000E+00
  0.00000000E+00  0.00000000E+00  0.00000000E+00
  0.00000000E+00  0.00000000E+00  0.00000000E+00
  0.00000000E+00  0.00000000E+00  0.00000000E+00
  0.00000000E+00  0.00000000E+00  0.00000000E+00
  0.00000000E+00  0.00000000E+00  0.00000000E+00
  0.00000000E+00  0.00000000E+00  0.00000000E+00
  0.00000000E+00  0.00000000E+00  0.00000000E+00
  0.00000000E+00  0.00000000E+00  0.00000000E+00
  0.00000000E+00  0.00000000E+00  0.00000000E+00
  0.00000000E+00  0.00000000E+00  0.00000000E+00
  0.00000000E+00  0.00000000E+00  0.00000000E+00
  0.00000000E+00  0.00000000E+00  0.00000000E+00
  0.00000000E+00  0.00000000E+00  0.00000000E+00
  0.00000000E+00  0.00000000E+00  0.00000000E+00
  0.00000000E+00  0.00000000E+00  0.00000000E+00
  0.00000000E+00  0.00000000E+00  0.00000000E+00
  0.00000000E+00  0.00000000E+00  0.00000000E+00
  0.00000000E+00  0.00000000E+00  0.00000000E+00
  0.00000000E+00  0.00000000E+00  0.00000000E+00
  0.00000000E+00  0.00000000E+00  0.00000000E+00
  0.00000000E+00  0.00000000E+00  0.00000000E+00
  0.00000000E+00  0.00000000E+00  0.00000000E+00
  0.00000000E+00  0.00000000E+00  0.00000000E+00
  0.00000000E+00  0.00000000E+00  0.00000000E+00
  0.00000000E+00  0.00000000E+00  0.00000000E+00
  0.00000000E+00  0.00000000E+00  0.00000000E+00
  0.00000000E+00  0.00000000E+00  0.00000000E+00
  0.00000000E+00  0.00000000E+00  0.00000000E+00
  0.00000000E+00  0.00000000E+00  0.00000000E+00
  0.00000000E+00  0.00000000E+00  0.00000000E+00
  0.00000000E+00  0.00000000E+00  0.00000000E+00
  0.00000000E+00  0.00000000E+00  0.00000000E+00
  0.00000000E+00  0.00000000E+00  0.00000000E+00
  0.00000000E+00  0.00000000E+00  0.00000000E+00
  0.00000000E+00  0.00000000E+00  0.00000000E+00
