Species order: X N B                    
   2.51242800000000     
     5.9449720136058266    0.0000000000000000    0.0000000000000000
    -2.9724860068029120    5.1484967885702053   -0.0000000000000001
     0.0000000000000000    0.0000000000000009    5.3101128803662583
   O    N    B 
     1   143   143
Direct
  0.4365275582465173  0.3849304457899010  0.3750000000000000
  0.1111967286884087  0.0556078420425814  0.1247332086026896
  0.6112495294320532  0.5557264117436554  0.1230631856694184
  0.4445858879292547  0.0556446547082009  0.1247632549653009
  0.9445586243743583  0.5556168503240004  0.1257203798829126
  0.7778914982505180  0.0556124157919453  0.1259784852837645
  0.1112369753994863  0.7222851543664427  0.6240452053890944
  0.4445858879292547  0.7222745665543358  0.6252367450346821
  0.2778636684262639  0.2222934536328239  0.6257732381954396
  0.7779038306526771  0.7223030479407253  0.6251253273279168
  0.6112690738525375  0.2222967147330319  0.6254280240010590
  0.9445483900663982  0.2222776709821151  0.6245846927930581
  0.2779224986677583  0.7222775671065149  0.1252791969342768
  0.1111685876924317  0.2222509605128669  0.1243616590587899
  0.4445361509766772  0.2222788605919976  0.1241442599122890
  0.6112690738525375  0.7223056924528076  0.1245719759989248
  0.9445586243743583  0.7222751073836529  0.1257203798829126
  0.7779146101850353  0.2222727403941351  0.1255284833772533
  0.1112302702617281  0.8889556076015842  0.6245619088353555
  0.4445783995513174  0.8889558664422617  0.6247527411196641
  0.2778636684262643  0.3889035481268132  0.6257732381954395
  0.6112495294320532  0.3888564510217318  0.6269368143306034
  0.7779146101850353  0.8889752031243052  0.6244715166228053
  0.9445629842949069  0.3889411104688525  0.6243917397624745
  0.1111967286884087  0.3889222199791950  0.1247332086026934
  0.2779224986677586  0.8889782648945879  0.1252791969342768
  0.6112406707789749  0.8889572748066392  0.1255916768898793
  0.4445639084335050  0.3889486208834154  0.1247924619481258
  0.9445629842949069  0.8889552071593476  0.1256082602375074
  0.7779038306526771  0.3889341160453167  0.1248746726720981
  0.2778888124839121  0.5555947626435683  0.6255169584228673
  0.1111967286884098  0.0556078420425814  0.6252667913973498
  0.6112495294320532  0.5557264117436554  0.6269368143306034
  0.4445858879292547  0.0556446547082008  0.6252367450346821
  0.9445586243743583  0.5556168503240004  0.6242796201170632
  0.1112302702617281  0.5556079959935097  0.1254380911646424
  0.7778914982505180  0.0556124157919453  0.6240215147162322
  0.2778888124839121  0.0556273831737120  0.1244830415771678
  0.4445361509766772  0.5555906237179929  0.1241442599122908
  0.7778788777269062  0.5556061055301287  0.1245769084563660
  0.6112406707789749  0.0556167293056668  0.1255916768898793
  0.4445361509766772  0.5555906237179929  0.6258557400877336
  0.9445483900663982  0.0556040524176461  0.1254153072069140
  0.2779224986677586  0.7222775671065149  0.6247208030657597
  0.1111685876924325  0.2222509605128669  0.6256383409412287
  0.4445361509766772  0.2222788605919976  0.6258557400877336
  0.6112690738525375  0.7223056924528076  0.6254280240010590
  0.9445586243743583  0.7222751073836529  0.6242796201170632
  0.7779146101850353  0.2222727403941351  0.6244715166227373
  0.1112369753994863  0.7222851543664427  0.1259547946109314
  0.4445858879292547  0.7222745665543358  0.1247632549653009
  0.2778636684262639  0.2222934536328239  0.1242267618045011
  0.7779038306526768  0.7223030479407253  0.1248746726720985
  0.6112690738525375  0.2222967147330319  0.1245719759989248
  0.9445483900663982  0.2222776709821149  0.1254153072069140
  0.1111967286884087  0.3889222199791950  0.6252667913973498
  0.2779224986677586  0.8889782648945879  0.6247208030657597
  0.6112406707789749  0.8889572748066392  0.6244083231100857
  0.4445639084335050  0.3889486208834154  0.6252075380518090
  0.9445629842949056  0.8889552071593476  0.6243917397624745
  0.1112302702617281  0.8889556076015842  0.1254380911646424
  0.7779038306526771  0.3889341160453167  0.6251253273279168
  0.4445783995513174  0.8889558664422617  0.1252472588804084
  0.2778636684262643  0.3889035481268132  0.1242267618045048
  0.2778888124839121  0.5555947626435683  0.1244830415771678
  0.6112495294320532  0.3888564510217318  0.1230631856694184
  0.7779146101850353  0.8889752031243052  0.1255284833772533
  0.9445629842949069  0.3889411104688525  0.1256082602374931
  0.1112302702617281  0.5556079959935097  0.6245619088353555
  0.2778888124839121  0.0556273831737117  0.6255169584228673
  0.7778788777269062  0.5556061055301287  0.6254230915435681
  0.6112406707789749  0.0556167293056668  0.6244083231100857
  0.9445483900663982  0.0556040524176461  0.6245846927930581
  0.0520448552127344  0.1088736200378826  0.3750000000000000
  0.5565999608803274  0.5970135646314809  0.3750000000000000
  0.3905232394334789  0.1170749861171264  0.3750000000000000
  0.8968625871269557  0.6150979602301598  0.3750000000000000
  0.7208170225672466  0.1118233255558676  0.3750000000000000
  0.0549094225820397  0.7774406231066503  0.8750000000000000
  0.3882384454072788  0.7774419463188083  0.8750000000000000
  0.2216094248319847  0.2774713790826685  0.8750000000000000
  0.7215778160143567  0.7774450213140800  0.8750000000000000
  0.5549377301740269  0.2774587773931397  0.8750000000000000
  0.8882749952281723  0.2774759694496483  0.8750000000000000
  0.2261569367996047  0.7797451350665111  0.3750000000000000
  0.0520448552127340  0.2765045685081513  0.3750000000000000
  0.3807752816051083  0.2766434518286504  0.3750000000000000
  0.5561915674981269  0.7722490690399252  0.3750000000000000
  0.8915170122045852  0.7781796265930245  0.3750000000000000
  0.7216007589559137  0.2811785423103567  0.3750000000000000
  0.0549096236839009  0.9441288159072619  0.8750000000000000
  0.3882384454072788  0.9441298324217759  0.8750000000000000
  0.2215794198090592  0.4441251418233948  0.8750000000000000
  0.5549130887752362  0.4441232110542824  0.8750000000000000
  0.7215726589928252  0.9441302399688168  0.8750000000000000
  0.8882590981652267  0.4441288321723837  0.8750000000000000
  0.0559812156483361  0.4448377292929293  0.3750000000000000
  0.2251305255455711  0.9471720979819970  0.3750000000000000
  0.5562155590694752  0.9447744462014092  0.3750000000000000
  0.3807752816051083  0.4374651631098060  0.3750000000000000
  0.8870378011403883  0.9422653548186056  0.3750000000000000
  0.7284334790850553  0.4505743882762940  0.3750000000000000
  0.2216062311880991  0.6108043920190466  0.8750000000000000
  0.0549057626525334  0.1107737633667905  0.8750000000000000
  0.5549377301740269  0.6108122861143980  0.8750000000000000
  0.3882451820240851  0.1107795577380825  0.8750000000000000
  0.8882754800127095  0.6108044066730324  0.8750000000000000
  0.0603256061575461  0.6131328945155181  0.3750000000000000
  0.7215726589928252  0.1107757523573700  0.8750000000000000
  0.2203553848504195  0.1106500858934772  0.3750000000000000
  0.3905232394334789  0.6067815866496935  0.3750000000000000
  0.7284334790850553  0.6111924241421229  0.3750000000000000
  0.5561915674981269  0.1172758317914940  0.3750000000000000
  0.3882451820240851  0.6107989576193898  0.8750000000000000
  0.8861094173514589  0.1097213753423990  0.3750000000000000
  0.2215795191423894  0.7774564262377434  0.8750000000000000
  0.0549057626525333  0.2774653326191086  0.8750000000000000
  0.3882468164879477  0.2774659078199195  0.8750000000000000
  0.5549115782234463  0.7774654374262733  0.8750000000000000
  0.8882590981652267  0.7774635993261384  0.8750000000000000
  0.7215778160143567  0.2774661280335122  0.8750000000000000
  0.0603256061575458  0.7805260449753743  0.3750000000000000
  0.3914438830214827  0.7772877330450154  0.3750000000000000
  0.2156046612680284  0.2744689973006864  0.3750000000000000
  0.7216007589559137  0.7737555499789456  0.3750000000000000
  0.5565999608803274  0.2929197295821180  0.3750000000000000
  0.8870378011403883  0.2781057796551635  0.3750000000000000
  0.0549096236839002  0.4441141411099789  0.8750000000000000
  0.2216062311880991  0.9441351725023414  0.8750000000000000
  0.5549367599031758  0.9441350466182156  0.8750000000000000
  0.3882468164879477  0.4441142420013533  0.8750000000000000
  0.8882749952281723  0.9441323591118682  0.8750000000000000
  0.0559812156483358  0.9444768196887601  0.3750000000000000
  0.7215824925020226  0.4441144448447890  0.8750000000000000
  0.3914438830214827  0.9474894833097143  0.3750000000000000
  0.2203553848504241  0.4430386322902500  0.3750000000000000
  0.2251305255455711  0.6112917608969631  0.3750000000000000
  0.7208170225672466  0.9423270303446705  0.3750000000000000
  0.8915170122045852  0.4466707189449319  0.3750000000000000
  0.0549094225820392  0.6108021328087710  0.8750000000000000
  0.2215794198090592  0.1107876113189651  0.8750000000000000
  0.7215824925020226  0.6108013809905569  0.8750000000000000
  0.5549115782234463  0.1107794741304199  0.8750000000000000
  0.8882474253382115  0.1107903793357705  0.8750000000000000
  0.1094132073296860  0.0548715206406082  0.3750000000000000
  0.6170441349806568  0.5350401277012610  0.3750000000000000
  0.4455940707699384  0.0602213902748115  0.3750000000000000
  0.9493873583090550  0.5577802867546954  0.3750000000000000
  0.7750001967612036  0.0541667650472335  0.3750000000000000
  0.1103440233766093  0.7218386783549594  0.8750000000000000
  0.4437098310005662  0.7218360512150462  0.8750000000000000
  0.2772393297804152  0.2220328466728427  0.8750000000000000
  0.7769964305536532  0.7217940234812686  0.8750000000000000
  0.6105089763532979  0.2220317552774831  0.8750000000000000
  0.9438479723511743  0.2220113612985267  0.8750000000000000
  0.2806855392038414  0.7226986164318862  0.3750000000000000
  0.1058730892590252  0.2196032112961772  0.3750000000000000
  0.4463638188740133  0.2309026971591678  0.3750000000000000
  0.6100411429567913  0.7112500967595051  0.3750000000000000
  0.9493873583090550  0.7249404048875940  0.3750000000000000
  0.7754605875545125  0.2237205113979738  0.3750000000000000
  0.1104576133200357  0.8885582030359379  0.8750000000000000
  0.4438014114573013  0.8885673723952924  0.8750000000000000
  0.2772393297804149  0.3885398164408926  0.8750000000000000
  0.6105043492040562  0.3885538320552754  0.8750000000000000
  0.7771119883301917  0.8885237172615035  0.8750000000000000
  0.9438354043893520  0.3885354734195163  0.8750000000000000
  0.1094132073296833  0.3878750200224413  0.3750000000000000
  0.2806855392038414  0.8913202561053006  0.3750000000000000
  0.6100389425217488  0.8853909958237202  0.3750000000000000
  0.9446453091727801  0.8883151888884708  0.3750000000000000
  0.7795035165989872  0.3928353285731460  0.3750000000000000
  0.2772083281157477  0.5553314200251879  0.8750000000000000
  0.1103628407377552  0.0551771124201189  0.8750000000000000
  0.6105043492040562  0.5552838504821997  0.8750000000000000
  0.4437098310005605  0.0552071131188508  0.8750000000000000
  0.9438191226398460  0.5553269546926417  0.8750000000000000
  0.1140144832190730  0.5562334863445692  0.3750000000000000
  0.7770105677587336  0.0551719505460272  0.8750000000000000
  0.2794381126549444  0.0586037455290774  0.3750000000000000
  0.4463638188740133  0.5487944550481907  0.3750000000000000
  0.7866833212532713  0.5600083272933499  0.3750000000000000
  0.6100389425217488  0.0579812800313720  0.3750000000000000
  0.4438382776783437  0.5552240493844200  0.8750000000000000
  0.9411401651321372  0.0532164595536307  0.3750000000000000
  0.2771947293812348  0.7218494122090162  0.8750000000000000
  0.1104811282080854  0.2219072307707154  0.8750000000000000
  0.4438382776783437  0.2219475616272577  0.8750000000000000
  0.6105089763533003  0.7218105544091916  0.8750000000000000
  0.9438191226398460  0.7218255012805113  0.8750000000000000
  0.7771119883301917  0.2219216044020852  0.8750000000000000
  0.1151958002835951  0.7242645668084968  0.3750000000000000
  0.4455940707699384  0.7187060138284718  0.3750000000000000
  0.2720881186598632  0.2209762625227823  0.3750000000000000
  0.7795035165989872  0.7200015213591821  0.3750000000000000
  0.6100411429567913  0.2321243795307530  0.3750000000000000
  0.9411401651321372  0.2212570389118264  0.3750000000000000
  0.1103628407377552  0.3885190616509270  0.8750000000000000
  0.2771947293812348  0.8886786505055734  0.8750000000000000
  0.6105119531232501  0.8886493776112497  0.8750000000000000
  0.4437761425550258  0.3885547379441619  0.8750000000000000
  0.9438354043893521  0.8886332643033014  0.8750000000000000
  0.1140144832190730  0.8911143302078997  0.3750000000000000
  0.7769964305536532  0.3885357404057108  0.8750000000000000
  0.4456799284916979  0.8895066309125518  0.3750000000000000
  0.2720881186598682  0.3844451894704325  0.3750000000000000
  0.2794381126549444  0.5541677004592281  0.3750000000000000
  0.6170441349806568  0.4153373406128150  0.3750000000000000
  0.7754605875545125  0.8850734094898700  0.3750000000000000
  0.9446453091727801  0.3896634536176017  0.3750000000000000
  0.1104576133200351  0.5552327436173534  0.8750000000000000
  0.2772083281157477  0.0552102414238960  0.8750000000000000
  0.7770847777677651  0.5552090555505687  0.8750000000000000
  0.6105119531232501  0.0551959088453593  0.8750000000000000
  0.9438479723511743  0.0551699443859508  0.8750000000000000
  0.0556188170369107  0.1110956700948433  0.1248529745635189
  0.5558427406832295  0.6110504454322216  0.1244266293388038
  0.3890747027556204  0.1112964269353361  0.1245652876404546
  0.8888268684972858  0.6110801009153390  0.1256726353629965
  0.7223142018794098  0.1111515551168219  0.1258479946055533
  0.0555487389192869  0.7777231776476046  0.6240925203613977
  0.3890465012057869  0.7777555974569534  0.6248298472454544
  0.2224527729893609  0.2778930531613832  0.6257420574812965
  0.7222808575380447  0.7776564332141588  0.6247759188880669
  0.5558427406832295  0.2781256285843846  0.6255733706612707
  0.8890215207814499  0.2778738313374202  0.6243495900230133
  0.2223457469079466  0.7778395401205699  0.1256430999625129
  0.0556188170369107  0.2778564802754171  0.1248529745635189
  0.3891674395147695  0.2780813425247178  0.1247438981250112
  0.5557530913879948  0.7777623418432755  0.1251477278330873
  0.8888764839535583  0.7777308313391862  0.1256734731547864
  0.7222808575380446  0.2779577576573255  0.1252240811120178
  0.0556007537789754  0.9445086590773479  0.6246400964124436
  0.3890465012057869  0.9446242370821923  0.6248298472454544
  0.2223900232388062  0.4444786793733457  0.6255311720255975
  0.5558817445279145  0.4446075389306215  0.6241474237206445
  0.7223142018794098  0.9444959800958940  0.6241520053943918
  0.8888764839535583  0.4444789859476655  0.6243265268452340
  0.0556007537789754  0.4444254280348520  0.1253599035875308
  0.2224280094613305  0.9445905934990597  0.1251219791995808
  0.5557837102172500  0.9445585217753285  0.1256036141848594
  0.3891674395147695  0.4444194303233222  0.1247438981250112
  0.8890215207814499  0.9444810227773160  0.1256504099770035
  0.7221132049345806  0.4444163756865023  0.1248863690607077
  0.2224280094613305  0.6111707492955480  0.6248780208004052
  0.0556188170369107  0.1110956700948433  0.6251470254364333
  0.5558427406832295  0.6110504454322216  0.6255733706612707
  0.3890747027556204  0.1112964269353361  0.6254347123595512
  0.8888268684972505  0.6110801009153390  0.6243273646370097
  0.0555487389192869  0.6111588946050315  0.1259074796385821
  0.7223142018794098  0.1111515551168219  0.6241520053943918
  0.2223900232388063  0.1112446771987994  0.1244688279744154
  0.3890747027556204  0.6111116091536493  0.1245652876404546
  0.7221132049345806  0.6110301625813472  0.1248863690607077
  0.5557530913879948  0.1113240828780645  0.1251477278330873
  0.3890747027556204  0.6111116091536493  0.6254347123595512
  0.8889905713896995  0.1111619523615284  0.1256994320255350
  0.2223457469079466  0.7778395401205699  0.6243569000375019
  0.0556188170369107  0.2778564802754171  0.6251470254364333
  0.3891674395147695  0.2780813425247178  0.6252561018750165
  0.5557530913879948  0.7777623418432755  0.6248522721669082
  0.8888764839535583  0.7777308313391862  0.6243265268452340
  0.7222808575380447  0.2779577576573255  0.6247759188880669
  0.0555487389192869  0.7777231776476046  0.1259074796385821
  0.3890465012057869  0.7777555974569534  0.1251701527545156
  0.2224527729893609  0.2778930531613832  0.1242579425186619
  0.7222808575380447  0.7776564332141588  0.1252240811120178
  0.5558427406832295  0.2781256285843846  0.1244266293388038
  0.8890215207814499  0.2778738313374202  0.1256504099770035
  0.0556007537789745  0.4444254280348520  0.6246400964124436
  0.2224280094613305  0.9445905934990597  0.6248780208004052
  0.5557837102172500  0.9445585217753285  0.6243963858151051
  0.3891674395147695  0.4444194303233222  0.6252561018750165
  0.8890215207814499  0.9444810227773160  0.6243495900230133
  0.0556007537789754  0.9445086590773479  0.1253599035875308
  0.7221132049345806  0.4444163756865023  0.6251136309392425
  0.3890465012057869  0.9446242370821923  0.1251701527545156
  0.2223900232388062  0.4444786793733457  0.1244688279744154
  0.2224280094613305  0.6111707492955480  0.1251219791995808
  0.5558817445279145  0.4446075389306215  0.1258525762793367
  0.7223142018794098  0.9444959800958940  0.1258479946055533
  0.8888764839535583  0.4444789859476656  0.1256734731547864
  0.0555487389192869  0.6111588946050315  0.6240925203613977
  0.2223900232388062  0.1112446771988025  0.6255311720255975
  0.7221132049345806  0.6110301625813472  0.6251136309392425
  0.5557530913879948  0.1113240828780645  0.6248522721669082
  0.8889905713896995  0.1111619523615285  0.6243005679744573
 
  0.00000000E+00  0.00000000E+00  0.00000000E+00
  0.00000000E+00  0.00000000E+00  0.00000000E+00
  0.00000000E+00  0.00000000E+00  0.00000000E+00
  0.00000000E+00  0.00000000E+00  0.00000000E+00
  0.00000000E+00  0.00000000E+00  0.00000000E+00
  0.00000000E+00  0.00000000E+00  0.00000000E+00
  0.00000000E+00  0.00000000E+00  0.00000000E+00
  0.00000000E+00  0.00000000E+00  0.00000000E+00
  0.00000000E+00  0.00000000E+00  0.00000000E+00
  0.00000000E+00  0.00000000E+00  0.00000000E+00
  0.00000000E+00  0.00000000E+00  0.00000000E+00
  0.00000000E+00  0.00000000E+00  0.00000000E+00
  0.00000000E+00  0.00000000E+00  0.00000000E+00
  0.00000000E+00  0.00000000E+00  0.00000000E+00
  0.00000000E+00  0.00000000E+00  0.00000000E+00
  0.00000000E+00  0.00000000E+00  0.00000000E+00
  0.00000000E+00  0.00000000E+00  0.00000000E+00
  0.00000000E+00  0.00000000E+00  0.00000000E+00
  0.00000000E+00  0.00000000E+00  0.00000000E+00
  0.00000000E+00  0.00000000E+00  0.00000000E+00
  0.00000000E+00  0.00000000E+00  0.00000000E+00
  0.00000000E+00  0.00000000E+00  0.00000000E+00
  0.00000000E+00  0.00000000E+00  0.00000000E+00
  0.00000000E+00  0.00000000E+00  0.00000000E+00
  0.00000000E+00  0.00000000E+00  0.00000000E+00
  0.00000000E+00  0.00000000E+00  0.00000000E+00
  0.00000000E+00  0.00000000E+00  0.00000000E+00
  0.00000000E+00  0.00000000E+00  0.00000000E+00
  0.00000000E+00  0.00000000E+00  0.00000000E+00
  0.00000000E+00  0.00000000E+00  0.00000000E+00
  0.00000000E+00  0.00000000E+00  0.00000000E+00
  0.00000000E+00  0.00000000E+00  0.00000000E+00
  0.00000000E+00  0.00000000E+00  0.00000000E+00
  0.00000000E+00  0.00000000E+00  0.00000000E+00
  0.00000000E+00  0.00000000E+00  0.00000000E+00
  0.00000000E+00  0.00000000E+00  0.00000000E+00
  0.00000000E+00  0.00000000E+00  0.00000000E+00
  0.00000000E+00  0.00000000E+00  0.00000000E+00
  0.00000000E+00  0.00000000E+00  0.00000000E+00
  0.00000000E+00  0.00000000E+00  0.00000000E+00
  0.00000000E+00  0.00000000E+00  0.00000000E+00
  0.00000000E+00  0.00000000E+00  0.00000000E+00
  0.00000000E+00  0.00000000E+00  0.00000000E+00
  0.00000000E+00  0.00000000E+00  0.00000000E+00
  0.00000000E+00  0.00000000E+00  0.00000000E+00
  0.00000000E+00  0.00000000E+00  0.00000000E+00
  0.00000000E+00  0.00000000E+00  0.00000000E+00
  0.00000000E+00  0.00000000E+00  0.00000000E+00
  0.00000000E+00  0.00000000E+00  0.00000000E+00
  0.00000000E+00  0.00000000E+00  0.00000000E+00
  0.00000000E+00  0.00000000E+00  0.00000000E+00
  0.00000000E+00  0.00000000E+00  0.00000000E+00
  0.00000000E+00  0.00000000E+00  0.00000000E+00
  0.00000000E+00  0.00000000E+00  0.00000000E+00
  0.00000000E+00  0.00000000E+00  0.00000000E+00
  0.00000000E+00  0.00000000E+00  0.00000000E+00
  0.00000000E+00  0.00000000E+00  0.00000000E+00
  0.00000000E+00  0.00000000E+00  0.00000000E+00
  0.00000000E+00  0.00000000E+00  0.00000000E+00
  0.00000000E+00  0.00000000E+00  0.00000000E+00
  0.00000000E+00  0.00000000E+00  0.00000000E+00
  0.00000000E+00  0.00000000E+00  0.00000000E+00
  0.00000000E+00  0.00000000E+00  0.00000000E+00
  0.00000000E+00  0.00000000E+00  0.00000000E+00
  0.00000000E+00  0.00000000E+00  0.00000000E+00
  0.00000000E+00  0.00000000E+00  0.00000000E+00
  0.00000000E+00  0.00000000E+00  0.00000000E+00
  0.00000000E+00  0.00000000E+00  0.00000000E+00
  0.00000000E+00  0.00000000E+00  0.00000000E+00
  0.00000000E+00  0.00000000E+00  0.00000000E+00
  0.00000000E+00  0.00000000E+00  0.00000000E+00
  0.00000000E+00  0.00000000E+00  0.00000000E+00
  0.00000000E+00  0.00000000E+00  0.00000000E+00
  0.00000000E+00  0.00000000E+00  0.00000000E+00
  0.00000000E+00  0.00000000E+00  0.00000000E+00
  0.00000000E+00  0.00000000E+00  0.00000000E+00
  0.00000000E+00  0.00000000E+00  0.00000000E+00
  0.00000000E+00  0.00000000E+00  0.00000000E+00
  0.00000000E+00  0.00000000E+00  0.00000000E+00
  0.00000000E+00  0.00000000E+00  0.00000000E+00
  0.00000000E+00  0.00000000E+00  0.00000000E+00
  0.00000000E+00  0.00000000E+00  0.00000000E+00
  0.00000000E+00  0.00000000E+00  0.00000000E+00
  0.00000000E+00  0.00000000E+00  0.00000000E+00
  0.00000000E+00  0.00000000E+00  0.00000000E+00
  0.00000000E+00  0.00000000E+00  0.00000000E+00
  0.00000000E+00  0.00000000E+00  0.00000000E+00
  0.00000000E+00  0.00000000E+00  0.00000000E+00
  0.00000000E+00  0.00000000E+00  0.00000000E+00
  0.00000000E+00  0.00000000E+00  0.00000000E+00
  0.00000000E+00  0.00000000E+00  0.00000000E+00
  0.00000000E+00  0.00000000E+00  0.00000000E+00
  0.00000000E+00  0.00000000E+00  0.00000000E+00
  0.00000000E+00  0.00000000E+00  0.00000000E+00
  0.00000000E+00  0.00000000E+00  0.00000000E+00
  0.00000000E+00  0.00000000E+00  0.00000000E+00
  0.00000000E+00  0.00000000E+00  0.00000000E+00
  0.00000000E+00  0.00000000E+00  0.00000000E+00
  0.00000000E+00  0.00000000E+00  0.00000000E+00
  0.00000000E+00  0.00000000E+00  0.00000000E+00
  0.00000000E+00  0.00000000E+00  0.00000000E+00
  0.00000000E+00  0.00000000E+00  0.00000000E+00
  0.00000000E+00  0.00000000E+00  0.00000000E+00
  0.00000000E+00  0.00000000E+00  0.00000000E+00
  0.00000000E+00  0.00000000E+00  0.00000000E+00
  0.00000000E+00  0.00000000E+00  0.00000000E+00
  0.00000000E+00  0.00000000E+00  0.00000000E+00
  0.00000000E+00  0.00000000E+00  0.00000000E+00
  0.00000000E+00  0.00000000E+00  0.00000000E+00
  0.00000000E+00  0.00000000E+00  0.00000000E+00
  0.00000000E+00  0.00000000E+00  0.00000000E+00
  0.00000000E+00  0.00000000E+00  0.00000000E+00
  0.00000000E+00  0.00000000E+00  0.00000000E+00
  0.00000000E+00  0.00000000E+00  0.00000000E+00
  0.00000000E+00  0.00000000E+00  0.00000000E+00
  0.00000000E+00  0.00000000E+00  0.00000000E+00
  0.00000000E+00  0.00000000E+00  0.00000000E+00
  0.00000000E+00  0.00000000E+00  0.00000000E+00
  0.00000000E+00  0.00000000E+00  0.00000000E+00
  0.00000000E+00  0.00000000E+00  0.00000000E+00
  0.00000000E+00  0.00000000E+00  0.00000000E+00
  0.00000000E+00  0.00000000E+00  0.00000000E+00
  0.00000000E+00  0.00000000E+00  0.00000000E+00
  0.00000000E+00  0.00000000E+00  0.00000000E+00
  0.00000000E+00  0.00000000E+00  0.00000000E+00
  0.00000000E+00  0.00000000E+00  0.00000000E+00
  0.00000000E+00  0.00000000E+00  0.00000000E+00
  0.00000000E+00  0.00000000E+00  0.00000000E+00
  0.00000000E+00  0.00000000E+00  0.00000000E+00
  0.00000000E+00  0.00000000E+00  0.00000000E+00
  0.00000000E+00  0.00000000E+00  0.00000000E+00
  0.00000000E+00  0.00000000E+00  0.00000000E+00
  0.00000000E+00  0.00000000E+00  0.00000000E+00
  0.00000000E+00  0.00000000E+00  0.00000000E+00
  0.00000000E+00  0.00000000E+00  0.00000000E+00
  0.00000000E+00  0.00000000E+00  0.00000000E+00
  0.00000000E+00  0.00000000E+00  0.00000000E+00
  0.00000000E+00  0.00000000E+00  0.00000000E+00
  0.00000000E+00  0.00000000E+00  0.00000000E+00
  0.00000000E+00  0.00000000E+00  0.00000000E+00
  0.00000000E+00  0.00000000E+00  0.00000000E+00
  0.00000000E+00  0.00000000E+00  0.00000000E+00
  0.00000000E+00  0.00000000E+00  0.00000000E+00
  0.00000000E+00  0.00000000E+00  0.00000000E+00
  0.00000000E+00  0.00000000E+00  0.00000000E+00
  0.00000000E+00  0.00000000E+00  0.00000000E+00
  0.00000000E+00  0.00000000E+00  0.00000000E+00
  0.00000000E+00  0.00000000E+00  0.00000000E+00
  0.00000000E+00  0.00000000E+00  0.00000000E+00
  0.00000000E+00  0.00000000E+00  0.00000000E+00
  0.00000000E+00  0.00000000E+00  0.00000000E+00
  0.00000000E+00  0.00000000E+00  0.00000000E+00
  0.00000000E+00  0.00000000E+00  0.00000000E+00
  0.00000000E+00  0.00000000E+00  0.00000000E+00
  0.00000000E+00  0.00000000E+00  0.00000000E+00
  0.00000000E+00  0.00000000E+00  0.00000000E+00
  0.00000000E+00  0.00000000E+00  0.00000000E+00
  0.00000000E+00  0.00000000E+00  0.00000000E+00
  0.00000000E+00  0.00000000E+00  0.00000000E+00
  0.00000000E+00  0.00000000E+00  0.00000000E+00
  0.00000000E+00  0.00000000E+00  0.00000000E+00
  0.00000000E+00  0.00000000E+00  0.00000000E+00
  0.00000000E+00  0.00000000E+00  0.00000000E+00
  0.00000000E+00  0.00000000E+00  0.00000000E+00
  0.00000000E+00  0.00000000E+00  0.00000000E+00
  0.00000000E+00  0.00000000E+00  0.00000000E+00
  0.00000000E+00  0.00000000E+00  0.00000000E+00
  0.00000000E+00  0.00000000E+00  0.00000000E+00
  0.00000000E+00  0.00000000E+00  0.00000000E+00
  0.00000000E+00  0.00000000E+00  0.00000000E+00
  0.00000000E+00  0.00000000E+00  0.00000000E+00
  0.00000000E+00  0.00000000E+00  0.00000000E+00
  0.00000000E+00  0.00000000E+00  0.00000000E+00
  0.00000000E+00  0.00000000E+00  0.00000000E+00
  0.00000000E+00  0.00000000E+00  0.00000000E+00
  0.00000000E+00  0.00000000E+00  0.00000000E+00
  0.00000000E+00  0.00000000E+00  0.00000000E+00
  0.00000000E+00  0.00000000E+00  0.00000000E+00
  0.00000000E+00  0.00000000E+00  0.00000000E+00
  0.00000000E+00  0.00000000E+00  0.00000000E+00
  0.00000000E+00  0.00000000E+00  0.00000000E+00
  0.00000000E+00  0.00000000E+00  0.00000000E+00
  0.00000000E+00  0.00000000E+00  0.00000000E+00
  0.00000000E+00  0.00000000E+00  0.00000000E+00
  0.00000000E+00  0.00000000E+00  0.00000000E+00
  0.00000000E+00  0.00000000E+00  0.00000000E+00
  0.00000000E+00  0.00000000E+00  0.00000000E+00
  0.00000000E+00  0.00000000E+00  0.00000000E+00
  0.00000000E+00  0.00000000E+00  0.00000000E+00
  0.00000000E+00  0.00000000E+00  0.00000000E+00
  0.00000000E+00  0.00000000E+00  0.00000000E+00
  0.00000000E+00  0.00000000E+00  0.00000000E+00
  0.00000000E+00  0.00000000E+00  0.00000000E+00
  0.00000000E+00  0.00000000E+00  0.00000000E+00
  0.00000000E+00  0.00000000E+00  0.00000000E+00
  0.00000000E+00  0.00000000E+00  0.00000000E+00
  0.00000000E+00  0.00000000E+00  0.00000000E+00
  0.00000000E+00  0.00000000E+00  0.00000000E+00
  0.00000000E+00  0.00000000E+00  0.00000000E+00
  0.00000000E+00  0.00000000E+00  0.00000000E+00
  0.00000000E+00  0.00000000E+00  0.00000000E+00
  0.00000000E+00  0.00000000E+00  0.00000000E+00
  0.00000000E+00  0.00000000E+00  0.00000000E+00
  0.00000000E+00  0.00000000E+00  0.00000000E+00
  0.00000000E+00  0.00000000E+00  0.00000000E+00
  0.00000000E+00  0.00000000E+00  0.00000000E+00
  0.00000000E+00  0.00000000E+00  0.00000000E+00
  0.00000000E+00  0.00000000E+00  0.00000000E+00
  0.00000000E+00  0.00000000E+00  0.00000000E+00
  0.00000000E+00  0.00000000E+00  0.00000000E+00
  0.00000000E+00  0.00000000E+00  0.00000000E+00
  0.00000000E+00  0.00000000E+00  0.00000000E+00
  0.00000000E+00  0.00000000E+00  0.00000000E+00
  0.00000000E+00  0.00000000E+00  0.00000000E+00
  0.00000000E+00  0.00000000E+00  0.00000000E+00
  0.00000000E+00  0.00000000E+00  0.00000000E+00
  0.00000000E+00  0.00000000E+00  0.00000000E+00
  0.00000000E+00  0.00000000E+00  0.00000000E+00
  0.00000000E+00  0.00000000E+00  0.00000000E+00
  0.00000000E+00  0.00000000E+00  0.00000000E+00
  0.00000000E+00  0.00000000E+00  0.00000000E+00
  0.00000000E+00  0.00000000E+00  0.00000000E+00
  0.00000000E+00  0.00000000E+00  0.00000000E+00
  0.00000000E+00  0.00000000E+00  0.00000000E+00
  0.00000000E+00  0.00000000E+00  0.00000000E+00
  0.00000000E+00  0.00000000E+00  0.00000000E+00
  0.00000000E+00  0.00000000E+00  0.00000000E+00
  0.00000000E+00  0.00000000E+00  0.00000000E+00
  0.00000000E+00  0.00000000E+00  0.00000000E+00
  0.00000000E+00  0.00000000E+00  0.00000000E+00
  0.00000000E+00  0.00000000E+00  0.00000000E+00
  0.00000000E+00  0.00000000E+00  0.00000000E+00
  0.00000000E+00  0.00000000E+00  0.00000000E+00
  0.00000000E+00  0.00000000E+00  0.00000000E+00
  0.00000000E+00  0.00000000E+00  0.00000000E+00
  0.00000000E+00  0.00000000E+00  0.00000000E+00
  0.00000000E+00  0.00000000E+00  0.00000000E+00
  0.00000000E+00  0.00000000E+00  0.00000000E+00
  0.00000000E+00  0.00000000E+00  0.00000000E+00
  0.00000000E+00  0.00000000E+00  0.00000000E+00
  0.00000000E+00  0.00000000E+00  0.00000000E+00
  0.00000000E+00  0.00000000E+00  0.00000000E+00
  0.00000000E+00  0.00000000E+00  0.00000000E+00
  0.00000000E+00  0.00000000E+00  0.00000000E+00
  0.00000000E+00  0.00000000E+00  0.00000000E+00
  0.00000000E+00  0.00000000E+00  0.00000000E+00
  0.00000000E+00  0.00000000E+00  0.00000000E+00
  0.00000000E+00  0.00000000E+00  0.00000000E+00