Species order:X N B                     
   2.51242800000000     
     5.9449720136058266    0.0000000000000000    0.0000000000000000
    -2.9724860068029120    5.1484967885702053   -0.0000000000000001
     0.0000000000000000    0.0000000000000009    5.3101128803662583
   C    N    B 
     3   143   142
Direct
  0.6094244524409137  0.3870450476314075  0.3750000000000000
  0.4442872618571652  0.3870450476314075  0.3750000000000000
  0.5532028748300541  0.4397390829934371  0.3750000000000000
  0.1111193724676059  0.0555504728719747  0.1250340973470316
  0.6111095056936802  0.5555523447206890  0.1249346990579749
  0.4444379411936646  0.0555526863058806  0.1250877042224352
  0.9444470089489236  0.5555533749050191  0.1250421227158847
  0.7777734230840592  0.0555556741040358  0.1249943968724988
  0.1111106578462411  0.7222143289276993  0.6250142303189172
  0.4444318236122647  0.7222079693916151  0.6249869364045113
  0.2777933504565588  0.2222344919758961  0.6247384851421709
  0.7777708317945715  0.7222058086078428  0.6249562481834006
  0.6111078081860087  0.2222344919758961  0.6247384851421709
  0.9444476718128704  0.2222286769590761  0.6250027087999824
  0.2777703377481301  0.7222143289276993  0.1249857696810826
  0.1111192427100173  0.2222278421892182  0.1250516961841046
  0.4444520669133332  0.2222374671600021  0.1253895892768374
  0.6111016434799427  0.7222058086078428  0.1250437518165994
  0.9444428124460149  0.7222079693916151  0.1250130635954891
  0.7777752661458721  0.2222278421892182  0.1250516961841046
  0.1111112205726226  0.8888800657443376  0.6250089766333058
  0.4444355118383864  0.8888800657443376  0.6250089766333058
  0.2777857180730574  0.3888919965197973  0.6247723664991188
  0.6111221041012462  0.3888835832213745  0.6250335341178835
  0.7777733275657972  0.8888799884649244  0.6250151304041874
  0.9444507661167714  0.3889004417836432  0.6249751750257121
  0.1111163423335436  0.3889004417836432  0.1250248249742882
  0.2777720400658996  0.8888774134651277  0.1249988143752309
  0.6110987665808840  0.8888790780282926  0.1249900781508125
  0.4444281457867996  0.3888835832213745  0.1249664658821163
  0.9444469781140802  0.8888790780282926  0.1249900781508125
  0.7777729451134113  0.3888919965197973  0.1252276335008810
  0.2777730326227597  0.5555533749050191  0.6249578772841153
  0.1111193724676059  0.0555504728719747  0.6249659026529681
  0.6111095056936802  0.5555523447206890  0.6250653009420249
  0.4444379411936646  0.0555526863058806  0.6249122957775652
  0.9444470089489236  0.5555533749050191  0.6249578772841153
  0.1111102898686526  0.5555539130706338  0.1249875268067410
  0.7777734230840592  0.0555556741040358  0.6250056031275011
  0.2777814117788802  0.0555526863058806  0.1250877042224352
  0.4444349736789855  0.5555414939676929  0.1251975311468756
  0.7777731869553719  0.5555414939676929  0.1251975311468756
  0.6110977670710406  0.0555504728719747  0.1250340973470316
  0.4444349736789855  0.5555414939676929  0.6248024688531244
  0.9444489176866409  0.0555556741040358  0.1249943968724988
  0.2777703377481301  0.7222143289276993  0.6250142303189172
  0.1111192427100173  0.2222278421892182  0.6249483038158953
  0.4444520669133332  0.2222374671600021  0.6246104107231627
  0.6111016434799427  0.7222058086078428  0.6249562481834006
  0.9444428124460149  0.7222079693916151  0.6249869364045113
  0.7777752661458721  0.2222278421892182  0.6249483038158953
  0.1111106578462411  0.7222143289276993  0.1249857696810826
  0.4444318236122647  0.7222079693916151  0.1250130635954891
  0.2777933504565588  0.2222344919758961  0.1252615148578292
  0.7777708317945715  0.7222058086078428  0.1250437518165994
  0.6111078081860087  0.2222344919758961  0.1252615148578292
  0.9444476718128704  0.2222286769590761  0.1249972912000173
  0.1111163423335436  0.3889004417836432  0.6249751750257121
  0.2777720400658996  0.8888774134651277  0.6250011856247687
  0.6110987665808840  0.8888790780282926  0.6250099218491874
  0.4444281457867996  0.3888835832213745  0.6250335341178835
  0.9444469781140802  0.8888790780282926  0.6250099218491874
  0.1111112205726226  0.8888800657443376  0.1249910233666941
  0.7777729451134113  0.3888919965197973  0.6247723664991188
  0.4444355118383864  0.8888800657443376  0.1249910233666941
  0.2777857180730574  0.3888919965197973  0.1252276335008810
  0.2777730326227597  0.5555533749050191  0.1250421227158847
  0.6111221041012462  0.3888835832213745  0.1249664658821163
  0.7777733275657973  0.8888799884649244  0.1249848695958130
  0.9444507661167714  0.3889004417836432  0.1250248249742882
  0.1111102898686526  0.5555539130706338  0.6250124731932590
  0.2777814117788802  0.0555526863058806  0.6249122957775652
  0.7777731869553719  0.5555414939676929  0.6248024688531244
  0.6110977670710406  0.0555504728719747  0.6249659026529681
  0.9444489176866409  0.0555556741040358  0.6250056031275011
  0.0557041415249954  0.1112020765461438  0.3750000000000000
  0.5562246799737289  0.6118359293011394  0.3750000000000000
  0.3902966700607410  0.1139266734548249  0.3750000000000000
  0.8866359304587400  0.6094398962384038  0.3750000000000000
  0.7221646016878126  0.1112020765461438  0.3750000000000000
  0.0555602983075065  0.7777854332590591  0.8750000000000000
  0.3888918016182171  0.7777854332590591  0.8750000000000000
  0.2222176288780825  0.2777813621799062  0.8750000000000000
  0.7222297141222186  0.7777927615777718  0.8750000000000000
  0.5555579841934435  0.2777853340112033  0.8750000000000000
  0.8888941491716260  0.2777855220214782  0.8750000000000000
  0.2222389596278576  0.7778112525890510  0.3750000000000000
  0.0556488875230179  0.2778374308278571  0.3750000000000000
  0.3901310215152892  0.2814681145633371  0.3750000000000000
  0.5555839890796843  0.7780226988444637  0.3750000000000000
  0.8891053764314442  0.7780226988444637  0.3750000000000000
  0.7221700253832565  0.2775400526567409  0.3750000000000000
  0.0555577032053389  0.9444496631287931  0.8750000000000000
  0.3888938155698091  0.9444511982462594  0.8750000000000000
  0.2222292220540884  0.4444511841916509  0.8750000000000000
  0.5555607443337753  0.4444548220008795  0.8750000000000000
  0.7222225777120850  0.9444505991199713  0.8750000000000000
  0.8888886288042269  0.4444511841916509  0.8750000000000000
  0.0554473209360154  0.4442279752053595  0.3750000000000000
  0.2227887749888567  0.9453026827340617  0.3750000000000000
  0.5555341697794001  0.9449248101699661  0.3750000000000000
  0.3916862429172030  0.4408038850229434  0.3750000000000000
  0.8890856305310459  0.9446367097070199  0.3750000000000000
  0.7157843087724046  0.4408038850229434  0.3750000000000000
  0.2222264196635982  0.6111162647430881  0.8750000000000000
  0.0555564929935759  0.1111115448924897  0.8750000000000000
  0.5555571988502028  0.6111127047320256  0.8750000000000000
  0.3888893248985731  0.1111119831304893  0.8750000000000000
  0.8888955909687333  0.6111216890374642  0.8750000000000000
  0.0548790727247145  0.6106502250389572  0.3750000000000000
  0.7222217185655783  0.1111115448924897  0.8750000000000000
  0.2232623469642377  0.1123086612377746  0.3750000000000000
  0.3894706324463209  0.6094398962384038  0.3750000000000000
  0.7222779159940759  0.6118359293011394  0.3750000000000000
  0.5557129809402009  0.1123086612377746  0.3750000000000000
  0.3888927647353883  0.6111216890374642  0.8750000000000000
  0.8889509522375234  0.1112352378083904  0.3750000000000000
  0.2222260114016284  0.7777853561365922  0.8750000000000000
  0.0555580395165168  0.2777855220214782  0.8750000000000000
  0.3888940164844240  0.2777853340112033  0.8750000000000000
  0.5555609854402089  0.7777800871738570  0.8750000000000000
  0.8888857684003126  0.7777800871738570  0.8750000000000000
  0.7222303999684877  0.2777813621799062  0.8750000000000000
  0.0551098004413420  0.7774579706681172  0.3750000000000000
  0.3890148368934397  0.7774579706681172  0.3750000000000000
  0.2220366939401486  0.2775400526567409  0.3750000000000000
  0.7224552144789668  0.7782437622912696  0.3750000000000000
  0.5580037597147118  0.2814681145633371  0.3750000000000000
  0.8888552099715034  0.2778374308278571  0.3750000000000000
  0.0555617656858150  0.4444568647049585  0.8750000000000000
  0.2222240493431147  0.9444511982462594  0.8750000000000000
  0.5555586265901256  0.9444496631287931  0.8750000000000000
  0.3888976165609476  0.4444506404597715  0.8750000000000000
  0.8888946880745502  0.9444505991199713  0.8750000000000000
  0.0560573070572376  0.9449248101699661  0.3750000000000000
  0.7222196905654884  0.4444506404597715  0.8750000000000000
  0.3891805744118692  0.9453026827340617  0.3750000000000000
  0.2235641522662077  0.4439359944047401  0.3750000000000000
  0.2224378189809071  0.6106502250389572  0.3750000000000000
  0.7222177458426386  0.9446367097070199  0.3750000000000000
  0.8870385088051969  0.4439359944047401  0.3750000000000000
  0.0555565117461540  0.6111162647430881  0.8750000000000000
  0.2222276979102442  0.1111190703562445  0.8750000000000000
  0.7222221725484868  0.6111127047320256  0.8750000000000000
  0.5555580391126647  0.1111190703562445  0.8750000000000000
  0.8888907743672505  0.1111148820678436  0.8750000000000000
  0.1112796218455656  0.0558359965811627  0.3750000000000000
  0.6120782744245856  0.5574898821824998  0.3750000000000000
  0.4446609198267718  0.0563170650167470  0.3750000000000000
  0.9436743551730790  0.5552108645026490  0.3750000000000000
  0.7778418104610924  0.0555426725680096  0.3750000000000000
  0.1109189720943016  0.7221327683041665  0.8750000000000000
  0.4445427679527718  0.7224159797602498  0.8750000000000000
  0.2778668669613200  0.2221299818764690  0.8750000000000000
  0.7778710924331165  0.7221352048154785  0.8750000000000000
  0.6109297815818205  0.2221299818764690  0.8750000000000000
  0.9445402741787013  0.2224138816907385  0.8750000000000000
  0.2778295630361721  0.7220583937173969  0.3750000000000000
  0.1102271209121997  0.2217850809793263  0.3750000000000000
  0.4454999824338736  0.2243332982010831  0.3750000000000000
  0.6116245453627192  0.7234008005080645  0.3750000000000000
  0.9437372705198857  0.7216798884423963  0.3750000000000000
  0.7782246267337974  0.2217850809793263  0.3750000000000000
  0.1112045279218712  0.8887875163271508  0.8750000000000000
  0.4442496550719511  0.8887875163271508  0.8750000000000000
  0.2778776292616828  0.3890872323065110  0.8750000000000000
  0.6111927023744277  0.3888381433573866  0.8750000000000000
  0.7778708424906741  0.8890750183146763  0.8750000000000000
  0.9442567085880195  0.3887991168304460  0.8750000000000000
  0.1114443441174951  0.3887870324614769  0.3750000000000000
  0.2778879115902411  0.8891091565138107  0.3750000000000000
  0.6111576178100149  0.8893039042062378  0.3750000000000000
  0.9448129530628949  0.8893039042062378  0.3750000000000000
  0.7762960493784831  0.3875220739310776  0.3750000000000000
  0.2776025650143958  0.5554848033439660  0.8750000000000000
  0.1111939711064605  0.0557406711033947  0.8750000000000000
  0.6111941075691187  0.5557215484715656  0.8750000000000000
  0.4445296216556360  0.0554516104391203  0.8750000000000000
  0.9445489049962342  0.5554848033439660  0.8750000000000000
  0.1110363570362337  0.5554060474057956  0.3750000000000000
  0.7775814215616663  0.0554481342078275  0.8750000000000000
  0.2783228118566395  0.0563170650167470  0.3750000000000000
  0.4463693638580663  0.5552664072270344  0.3750000000000000
  0.7755637100356323  0.5552664072270344  0.3750000000000000
  0.6112230414022689  0.0558359965811627  0.3750000000000000
  0.4445582940951600  0.5554828081019871  0.8750000000000000
  0.9443675287735818  0.0555426725680096  0.3750000000000000
  0.2778804628765363  0.7221327683041665  0.8750000000000000
  0.1109149159693155  0.2221263553990839  0.8750000000000000
  0.4445370141394637  0.2224073616122630  0.8750000000000000
  0.6109307790490334  0.7221352048154785  0.8750000000000000
  0.9445398784741428  0.7224159797602498  0.8750000000000000
  0.7778781060964397  0.2221263553990839  0.8750000000000000
  0.1108954973478961  0.7220583937173969  0.3750000000000000
  0.4446092845891747  0.7216798884423963  0.3750000000000000
  0.2765603339325891  0.2223902379778880  0.3750000000000000
  0.7784429218120164  0.7234008005080645  0.3750000000000000
  0.6124965707119699  0.2223902379778880  0.3750000000000000
  0.9444234316105158  0.2221801965543676  0.3750000000000000
  0.1112090749090979  0.3887991168304460  0.8750000000000000
  0.2778729699765628  0.8890792732864542  0.8750000000000000
  0.6112158829769766  0.8887907859218778  0.8750000000000000
  0.4443121076496304  0.3888381433573866  0.8750000000000000
  0.9442415696115724  0.8887907859218778  0.8750000000000000
  0.1111816000868292  0.8889511879137819  0.3750000000000000
  0.7778762697114999  0.3890872323065110  0.8750000000000000
  0.4444362544936241  0.8889511879137819  0.3750000000000000
  0.2778926912192660  0.3875220739310776  0.3750000000000000
  0.2782031759962342  0.5552108645026490  0.3750000000000000
  0.7780302284248695  0.8893937901830675  0.3750000000000000
  0.9440093550106532  0.3887870324614769  0.3750000000000000
  0.1112156960105197  0.5557647253543684  0.8750000000000000
  0.2775886554501483  0.0554516104391203  0.8750000000000000
  0.7775911806734916  0.5554828081019871  0.8750000000000000
  0.6112133666636056  0.0557406711033947  0.8750000000000000
  0.9445333793128258  0.0554481342078275  0.8750000000000000
  0.0555028629803325  0.1110650917852546  0.1250377719892607
  0.5555924011177369  0.6111811744049999  0.1249838454126469
  0.3888267919791080  0.1109869172915589  0.1250732772744365
  0.8889707267977206  0.6111669757337190  0.1251091011329839
  0.7222288954715868  0.1110650917852546  0.1250377719892607
  0.0555702115232182  0.7777617628533594  0.6249338687690765
  0.3888582179968053  0.7777617628533594  0.6249338687690765
  0.2221352633256765  0.2777629743221971  0.6249693703253930
  0.7222389812757833  0.7778112958849011  0.6248956066679813
  0.5556065688437919  0.2777953021123341  0.6252752370538239
  0.8889304364117894  0.2777900955432152  0.6249681063401191
  0.2222063381024683  0.7777460095382720  0.1251278958785871
  0.0555263257980897  0.2777900955432152  0.1250318936598812
  0.3888553999352066  0.2777953021123341  0.1247247629461763
  0.5555448179794998  0.7777932854254223  0.1250598572875878
  0.8889151341125866  0.7777932854254223  0.1250598572875878
  0.7222943776631850  0.2777629743221971  0.1250306296746065
  0.0555257670330473  0.9443871468222448  0.6248920091500521
  0.3888414807073975  0.9443469661294132  0.6249497360169182
  0.2221733511491651  0.4444984539386228  0.6249554795727191
  0.5555962594742685  0.4445258522818664  0.6250471466892825
  0.7222146982717286  0.9444276607396989  0.6249330105267483
  0.8889917694561223  0.4444984539386228  0.6249554795727191
  0.0555787046567387  0.4444907426468060  0.1251018866776715
  0.2221721520886798  0.9443469661294132  0.1250502639830817
  0.5555280464558691  0.9443871468222448  0.1251079908499482
  0.3888776187398861  0.4444975400898420  0.1247799872057218
  0.8888796291346346  0.9444276607396989  0.1250669894732516
  0.7222865880166206  0.4444975400898420  0.1247799872057218
  0.2222084735858327  0.6111442173923877  0.6249399912479244
  0.0555028629803325  0.1110650917852546  0.6249622280107393
  0.5555924011177369  0.6111811744049999  0.6250161545873529
  0.3888267919791080  0.1109869172915589  0.6249267227255636
  0.8889707267977206  0.6111669757337190  0.6248908988670160
  0.0556024104732191  0.6111442173923877  0.1250600087520757
  0.7222288954715868  0.1110650917852546  0.6249622280107393
  0.2221407053862067  0.1110078206800003  0.1250251955918983
  0.3888629156026556  0.6111669757337190  0.1251091011329839
  0.7222554399539275  0.6111811744049999  0.1249838454126469
  0.5555337819604579  0.1110078206800003  0.1250251955918983
  0.3888629156026556  0.6111669757337190  0.6248908988670160
  0.8888799370041279  0.1110932073415990  0.1251146708822227
  0.2222063381024683  0.7777460095382720  0.6248721041214129
  0.0555263257980897  0.2777900955432152  0.6249681063401191
  0.3888553999352066  0.2777953021123341  0.6252752370538239
  0.5555448179794998  0.7777932854254223  0.6249401427124121
  0.8889151341125866  0.7777932854254223  0.6249401427124121
  0.7222943776631850  0.2777629743221971  0.6249693703253930
  0.0555702115232182  0.7777617628533594  0.1250661312309242
  0.3888582179968053  0.7777617628533594  0.1250661312309242
  0.2221352633256765  0.2777629743221971  0.1250306296746065
  0.7222389812757833  0.7778112958849011  0.1251043933320186
  0.5556065688437919  0.2777953021123341  0.1247247629461763
  0.8889304364117894  0.2777900955432152  0.1250318936598812
  0.0555787046567387  0.4444907426468060  0.6248981133223288
  0.2221721520886798  0.9443469661294132  0.6249497360169182
  0.5555280464558691  0.9443871468222448  0.6248920091500521
  0.3888776187398861  0.4444975400898420  0.6252200127942782
  0.8888796291346346  0.9444276607396989  0.6249330105267483
  0.0555257670330473  0.9443871468222448  0.1251079908499482
  0.7222865880166206  0.4444975400898420  0.6252200127942782
  0.3888414807073975  0.9443469661294132  0.1250502639830817
  0.2221733511491651  0.4444984539386228  0.1250445204272812
  0.2222084735858327  0.6111442173923877  0.1250600087520757
  0.5555962594742685  0.4445258522818664  0.1249528533107171
  0.7222146982717286  0.9444276607396989  0.1250669894732516
  0.8889917694561223  0.4444984539386228  0.1250445204272812
  0.0556024104732191  0.6111442173923877  0.6249399912479244
  0.2221407053862067  0.1110078206800003  0.6249748044081019
  0.7222554399539275  0.6111811744049999  0.6250161545873529
  0.5555337819604579  0.1110078206800003  0.6249748044081019
  0.8888799370041279  0.1110932073415990  0.6248853291177774
 
  0.00000000E+00  0.00000000E+00  0.00000000E+00
  0.00000000E+00  0.00000000E+00  0.00000000E+00
  0.00000000E+00  0.00000000E+00  0.00000000E+00
  0.00000000E+00  0.00000000E+00  0.00000000E+00
  0.00000000E+00  0.00000000E+00  0.00000000E+00
  0.00000000E+00  0.00000000E+00  0.00000000E+00
  0.00000000E+00  0.00000000E+00  0.00000000E+00
  0.00000000E+00  0.00000000E+00  0.00000000E+00
  0.00000000E+00  0.00000000E+00  0.00000000E+00
  0.00000000E+00  0.00000000E+00  0.00000000E+00
  0.00000000E+00  0.00000000E+00  0.00000000E+00
  0.00000000E+00  0.00000000E+00  0.00000000E+00
  0.00000000E+00  0.00000000E+00  0.00000000E+00
  0.00000000E+00  0.00000000E+00  0.00000000E+00
  0.00000000E+00  0.00000000E+00  0.00000000E+00
  0.00000000E+00  0.00000000E+00  0.00000000E+00
  0.00000000E+00  0.00000000E+00  0.00000000E+00
  0.00000000E+00  0.00000000E+00  0.00000000E+00
  0.00000000E+00  0.00000000E+00  0.00000000E+00
  0.00000000E+00  0.00000000E+00  0.00000000E+00
  0.00000000E+00  0.00000000E+00  0.00000000E+00
  0.00000000E+00  0.00000000E+00  0.00000000E+00
  0.00000000E+00  0.00000000E+00  0.00000000E+00
  0.00000000E+00  0.00000000E+00  0.00000000E+00
  0.00000000E+00  0.00000000E+00  0.00000000E+00
  0.00000000E+00  0.00000000E+00  0.00000000E+00
  0.00000000E+00  0.00000000E+00  0.00000000E+00
  0.00000000E+00  0.00000000E+00  0.00000000E+00
  0.00000000E+00  0.00000000E+00  0.00000000E+00
  0.00000000E+00  0.00000000E+00  0.00000000E+00
  0.00000000E+00  0.00000000E+00  0.00000000E+00
  0.00000000E+00  0.00000000E+00  0.00000000E+00
  0.00000000E+00  0.00000000E+00  0.00000000E+00
  0.00000000E+00  0.00000000E+00  0.00000000E+00
  0.00000000E+00  0.00000000E+00  0.00000000E+00
  0.00000000E+00  0.00000000E+00  0.00000000E+00
  0.00000000E+00  0.00000000E+00  0.00000000E+00
  0.00000000E+00  0.00000000E+00  0.00000000E+00
  0.00000000E+00  0.00000000E+00  0.00000000E+00
  0.00000000E+00  0.00000000E+00  0.00000000E+00
  0.00000000E+00  0.00000000E+00  0.00000000E+00
  0.00000000E+00  0.00000000E+00  0.00000000E+00
  0.00000000E+00  0.00000000E+00  0.00000000E+00
  0.00000000E+00  0.00000000E+00  0.00000000E+00
  0.00000000E+00  0.00000000E+00  0.00000000E+00
  0.00000000E+00  0.00000000E+00  0.00000000E+00
  0.00000000E+00  0.00000000E+00  0.00000000E+00
  0.00000000E+00  0.00000000E+00  0.00000000E+00
  0.00000000E+00  0.00000000E+00  0.00000000E+00
  0.00000000E+00  0.00000000E+00  0.00000000E+00
  0.00000000E+00  0.00000000E+00  0.00000000E+00
  0.00000000E+00  0.00000000E+00  0.00000000E+00
  0.00000000E+00  0.00000000E+00  0.00000000E+00
  0.00000000E+00  0.00000000E+00  0.00000000E+00
  0.00000000E+00  0.00000000E+00  0.00000000E+00
  0.00000000E+00  0.00000000E+00  0.00000000E+00
  0.00000000E+00  0.00000000E+00  0.00000000E+00
  0.00000000E+00  0.00000000E+00  0.00000000E+00
  0.00000000E+00  0.00000000E+00  0.00000000E+00
  0.00000000E+00  0.00000000E+00  0.00000000E+00
  0.00000000E+00  0.00000000E+00  0.00000000E+00
  0.00000000E+00  0.00000000E+00  0.00000000E+00
  0.00000000E+00  0.00000000E+00  0.00000000E+00
  0.00000000E+00  0.00000000E+00  0.00000000E+00
  0.00000000E+00  0.00000000E+00  0.00000000E+00
  0.00000000E+00  0.00000000E+00  0.00000000E+00
  0.00000000E+00  0.00000000E+00  0.00000000E+00
  0.00000000E+00  0.00000000E+00  0.00000000E+00
  0.00000000E+00  0.00000000E+00  0.00000000E+00
  0.00000000E+00  0.00000000E+00  0.00000000E+00
  0.00000000E+00  0.00000000E+00  0.00000000E+00
  0.00000000E+00  0.00000000E+00  0.00000000E+00
  0.00000000E+00  0.00000000E+00  0.00000000E+00
  0.00000000E+00  0.00000000E+00  0.00000000E+00
  0.00000000E+00  0.00000000E+00  0.00000000E+00
  0.00000000E+00  0.00000000E+00  0.00000000E+00
  0.00000000E+00  0.00000000E+00  0.00000000E+00
  0.00000000E+00  0.00000000E+00  0.00000000E+00
  0.00000000E+00  0.00000000E+00  0.00000000E+00
  0.00000000E+00  0.00000000E+00  0.00000000E+00
  0.00000000E+00  0.00000000E+00  0.00000000E+00
  0.00000000E+00  0.00000000E+00  0.00000000E+00
  0.00000000E+00  0.00000000E+00  0.00000000E+00
  0.00000000E+00  0.00000000E+00  0.00000000E+00
  0.00000000E+00  0.00000000E+00  0.00000000E+00
  0.00000000E+00  0.00000000E+00  0.00000000E+00
  0.00000000E+00  0.00000000E+00  0.00000000E+00
  0.00000000E+00  0.00000000E+00  0.00000000E+00
  0.00000000E+00  0.00000000E+00  0.00000000E+00
  0.00000000E+00  0.00000000E+00  0.00000000E+00
  0.00000000E+00  0.00000000E+00  0.00000000E+00
  0.00000000E+00  0.00000000E+00  0.00000000E+00
  0.00000000E+00  0.00000000E+00  0.00000000E+00
  0.00000000E+00  0.00000000E+00  0.00000000E+00
  0.00000000E+00  0.00000000E+00  0.00000000E+00
  0.00000000E+00  0.00000000E+00  0.00000000E+00
  0.00000000E+00  0.00000000E+00  0.00000000E+00
  0.00000000E+00  0.00000000E+00  0.00000000E+00
  0.00000000E+00  0.00000000E+00  0.00000000E+00
  0.00000000E+00  0.00000000E+00  0.00000000E+00
  0.00000000E+00  0.00000000E+00  0.00000000E+00
  0.00000000E+00  0.00000000E+00  0.00000000E+00
  0.00000000E+00  0.00000000E+00  0.00000000E+00
  0.00000000E+00  0.00000000E+00  0.00000000E+00
  0.00000000E+00  0.00000000E+00  0.00000000E+00
  0.00000000E+00  0.00000000E+00  0.00000000E+00
  0.00000000E+00  0.00000000E+00  0.00000000E+00
  0.00000000E+00  0.00000000E+00  0.00000000E+00
  0.00000000E+00  0.00000000E+00  0.00000000E+00
  0.00000000E+00  0.00000000E+00  0.00000000E+00
  0.00000000E+00  0.00000000E+00  0.00000000E+00
  0.00000000E+00  0.00000000E+00  0.00000000E+00
  0.00000000E+00  0.00000000E+00  0.00000000E+00
  0.00000000E+00  0.00000000E+00  0.00000000E+00
  0.00000000E+00  0.00000000E+00  0.00000000E+00
  0.00000000E+00  0.00000000E+00  0.00000000E+00
  0.00000000E+00  0.00000000E+00  0.00000000E+00
  0.00000000E+00  0.00000000E+00  0.00000000E+00
  0.00000000E+00  0.00000000E+00  0.00000000E+00
  0.00000000E+00  0.00000000E+00  0.00000000E+00
  0.00000000E+00  0.00000000E+00  0.00000000E+00
  0.00000000E+00  0.00000000E+00  0.00000000E+00
  0.00000000E+00  0.00000000E+00  0.00000000E+00
  0.00000000E+00  0.00000000E+00  0.00000000E+00
  0.00000000E+00  0.00000000E+00  0.00000000E+00
  0.00000000E+00  0.00000000E+00  0.00000000E+00
  0.00000000E+00  0.00000000E+00  0.00000000E+00
  0.00000000E+00  0.00000000E+00  0.00000000E+00
  0.00000000E+00  0.00000000E+00  0.00000000E+00
  0.00000000E+00  0.00000000E+00  0.00000000E+00
  0.00000000E+00  0.00000000E+00  0.00000000E+00
  0.00000000E+00  0.00000000E+00  0.00000000E+00
  0.00000000E+00  0.00000000E+00  0.00000000E+00
  0.00000000E+00  0.00000000E+00  0.00000000E+00
  0.00000000E+00  0.00000000E+00  0.00000000E+00
  0.00000000E+00  0.00000000E+00  0.00000000E+00
  0.00000000E+00  0.00000000E+00  0.00000000E+00
  0.00000000E+00  0.00000000E+00  0.00000000E+00
  0.00000000E+00  0.00000000E+00  0.00000000E+00
  0.00000000E+00  0.00000000E+00  0.00000000E+00
  0.00000000E+00  0.00000000E+00  0.00000000E+00
  0.00000000E+00  0.00000000E+00  0.00000000E+00
  0.00000000E+00  0.00000000E+00  0.00000000E+00
  0.00000000E+00  0.00000000E+00  0.00000000E+00
  0.00000000E+00  0.00000000E+00  0.00000000E+00
  0.00000000E+00  0.00000000E+00  0.00000000E+00
  0.00000000E+00  0.00000000E+00  0.00000000E+00
  0.00000000E+00  0.00000000E+00  0.00000000E+00
  0.00000000E+00  0.00000000E+00  0.00000000E+00
  0.00000000E+00  0.00000000E+00  0.00000000E+00
  0.00000000E+00  0.00000000E+00  0.00000000E+00
  0.00000000E+00  0.00000000E+00  0.00000000E+00
  0.00000000E+00  0.00000000E+00  0.00000000E+00
  0.00000000E+00  0.00000000E+00  0.00000000E+00
  0.00000000E+00  0.00000000E+00  0.00000000E+00
  0.00000000E+00  0.00000000E+00  0.00000000E+00
  0.00000000E+00  0.00000000E+00  0.00000000E+00
  0.00000000E+00  0.00000000E+00  0.00000000E+00
  0.00000000E+00  0.00000000E+00  0.00000000E+00
  0.00000000E+00  0.00000000E+00  0.00000000E+00
  0.00000000E+00  0.00000000E+00  0.00000000E+00
  0.00000000E+00  0.00000000E+00  0.00000000E+00
  0.00000000E+00  0.00000000E+00  0.00000000E+00
  0.00000000E+00  0.00000000E+00  0.00000000E+00
  0.00000000E+00  0.00000000E+00  0.00000000E+00
  0.00000000E+00  0.00000000E+00  0.00000000E+00
  0.00000000E+00  0.00000000E+00  0.00000000E+00
  0.00000000E+00  0.00000000E+00  0.00000000E+00
  0.00000000E+00  0.00000000E+00  0.00000000E+00
  0.00000000E+00  0.00000000E+00  0.00000000E+00
  0.00000000E+00  0.00000000E+00  0.00000000E+00
  0.00000000E+00  0.00000000E+00  0.00000000E+00
  0.00000000E+00  0.00000000E+00  0.00000000E+00
  0.00000000E+00  0.00000000E+00  0.00000000E+00
  0.00000000E+00  0.00000000E+00  0.00000000E+00
  0.00000000E+00  0.00000000E+00  0.00000000E+00
  0.00000000E+00  0.00000000E+00  0.00000000E+00
  0.00000000E+00  0.00000000E+00  0.00000000E+00
  0.00000000E+00  0.00000000E+00  0.00000000E+00
  0.00000000E+00  0.00000000E+00  0.00000000E+00
  0.00000000E+00  0.00000000E+00  0.00000000E+00
  0.00000000E+00  0.00000000E+00  0.00000000E+00
  0.00000000E+00  0.00000000E+00  0.00000000E+00
  0.00000000E+00  0.00000000E+00  0.00000000E+00
  0.00000000E+00  0.00000000E+00  0.00000000E+00
  0.00000000E+00  0.00000000E+00  0.00000000E+00
  0.00000000E+00  0.00000000E+00  0.00000000E+00
  0.00000000E+00  0.00000000E+00  0.00000000E+00
  0.00000000E+00  0.00000000E+00  0.00000000E+00
  0.00000000E+00  0.00000000E+00  0.00000000E+00
  0.00000000E+00  0.00000000E+00  0.00000000E+00
  0.00000000E+00  0.00000000E+00  0.00000000E+00
  0.00000000E+00  0.00000000E+00  0.00000000E+00
  0.00000000E+00  0.00000000E+00  0.00000000E+00
  0.00000000E+00  0.00000000E+00  0.00000000E+00
  0.00000000E+00  0.00000000E+00  0.00000000E+00
  0.00000000E+00  0.00000000E+00  0.00000000E+00
  0.00000000E+00  0.00000000E+00  0.00000000E+00
  0.00000000E+00  0.00000000E+00  0.00000000E+00
  0.00000000E+00  0.00000000E+00  0.00000000E+00
  0.00000000E+00  0.00000000E+00  0.00000000E+00
  0.00000000E+00  0.00000000E+00  0.00000000E+00
  0.00000000E+00  0.00000000E+00  0.00000000E+00
  0.00000000E+00  0.00000000E+00  0.00000000E+00
  0.00000000E+00  0.00000000E+00  0.00000000E+00
  0.00000000E+00  0.00000000E+00  0.00000000E+00
  0.00000000E+00  0.00000000E+00  0.00000000E+00
  0.00000000E+00  0.00000000E+00  0.00000000E+00
  0.00000000E+00  0.00000000E+00  0.00000000E+00
  0.00000000E+00  0.00000000E+00  0.00000000E+00
  0.00000000E+00  0.00000000E+00  0.00000000E+00
  0.00000000E+00  0.00000000E+00  0.00000000E+00
  0.00000000E+00  0.00000000E+00  0.00000000E+00
  0.00000000E+00  0.00000000E+00  0.00000000E+00
  0.00000000E+00  0.00000000E+00  0.00000000E+00
  0.00000000E+00  0.00000000E+00  0.00000000E+00
  0.00000000E+00  0.00000000E+00  0.00000000E+00
  0.00000000E+00  0.00000000E+00  0.00000000E+00
  0.00000000E+00  0.00000000E+00  0.00000000E+00
  0.00000000E+00  0.00000000E+00  0.00000000E+00
  0.00000000E+00  0.00000000E+00  0.00000000E+00
  0.00000000E+00  0.00000000E+00  0.00000000E+00
  0.00000000E+00  0.00000000E+00  0.00000000E+00
  0.00000000E+00  0.00000000E+00  0.00000000E+00
  0.00000000E+00  0.00000000E+00  0.00000000E+00
  0.00000000E+00  0.00000000E+00  0.00000000E+00
  0.00000000E+00  0.00000000E+00  0.00000000E+00
  0.00000000E+00  0.00000000E+00  0.00000000E+00
  0.00000000E+00  0.00000000E+00  0.00000000E+00
  0.00000000E+00  0.00000000E+00  0.00000000E+00
  0.00000000E+00  0.00000000E+00  0.00000000E+00
  0.00000000E+00  0.00000000E+00  0.00000000E+00
  0.00000000E+00  0.00000000E+00  0.00000000E+00
  0.00000000E+00  0.00000000E+00  0.00000000E+00
  0.00000000E+00  0.00000000E+00  0.00000000E+00
  0.00000000E+00  0.00000000E+00  0.00000000E+00
  0.00000000E+00  0.00000000E+00  0.00000000E+00
  0.00000000E+00  0.00000000E+00  0.00000000E+00
  0.00000000E+00  0.00000000E+00  0.00000000E+00
  0.00000000E+00  0.00000000E+00  0.00000000E+00
  0.00000000E+00  0.00000000E+00  0.00000000E+00
  0.00000000E+00  0.00000000E+00  0.00000000E+00
  0.00000000E+00  0.00000000E+00  0.00000000E+00
  0.00000000E+00  0.00000000E+00  0.00000000E+00
  0.00000000E+00  0.00000000E+00  0.00000000E+00
  0.00000000E+00  0.00000000E+00  0.00000000E+00
  0.00000000E+00  0.00000000E+00  0.00000000E+00