Species order:X N B                     
   2.51242800000000     
     5.9449720136058266    0.0000000000000000    0.0000000000000000
    -2.9724860068029120    5.1484967885702053   -0.0000000000000001
     0.0000000000000000    0.0000000000000009    5.3101128803662583
   O    N    B 
     1   143   142
Direct
  0.4381121596616264  0.3863544107660266  0.3750000000000000
  0.1110907832053384  0.0555230647843416  0.1252430215557941
  0.6111013160193949  0.5555185316277902  0.1272188996589800
  0.4444186195163223  0.0555536679295455  0.1251999963959051
  0.9444311617113563  0.5555528774531205  0.1254419000666963
  0.7777578765263287  0.0555249684378571  0.1251829276048689
  0.1111046223267975  0.7222226230248766  0.6247610125417105
  0.4444166081987338  0.7222034085237649  0.6246169119775581
  0.2777556389417978  0.2222052431592142  0.6243002782138095
  0.7777703762704569  0.7221909472523265  0.6242818468677551
  0.6111016292638897  0.2222116390502656  0.6247165534549248
  0.9444292565391865  0.2222117193168722  0.6248249475492456
  0.2777598601799057  0.7222267354043834  0.1252081942346562
  0.1110995159053128  0.2222054145522791  0.1252914094624429
  0.4443896032655968  0.2222125231908491  0.1255173652779234
  0.6110906170586444  0.7221802395284234  0.1257357980724785
  0.9444446582276805  0.7222081975474075  0.1253542713221396
  0.7777567315004185  0.2222038642033254  0.1252111219473937
  0.1111050590940348  0.8888751243244067  0.6247849704046213
  0.4444168667970231  0.8888853525767603  0.6248151192236622
  0.2777657696948192  0.3888703618555259  0.6243862928735237
  0.6110544778015315  0.3888507514492743  0.6248749701438029
  0.7777624949908877  0.8888539657753834  0.6247592524788069
  0.9444303980926627  0.3888915077202537  0.6248033601043878
  0.1110991939319474  0.3888923002712795  0.1252131186102595
  0.2777648516036262  0.8888899401277632  0.1251782171765009
  0.6110769911831614  0.8888586022563885  0.1252514960188428
  0.4444017165470365  0.3888560840927612  0.1258699422908655
  0.9444396571000334  0.8888601204391597  0.1252378792328560
  0.7777572157102420  0.3888809526857993  0.1257119723130137
  0.2777678874257873  0.5555588983662101  0.6246401145665216
  0.1110907832053384  0.0555230647843416  0.6247569784442049
  0.6111013160193949  0.5555185316277902  0.6227811003410199
  0.4444186195163223  0.0555536679295455  0.6248000036040954
  0.9444311617113563  0.5555528774531205  0.6245580999333038
  0.1110964749555545  0.5555657791101793  0.1252216734537857
  0.7777578765263287  0.0555249684378571  0.6248170723951310
  0.2777530913509783  0.0555429091685681  0.1253058523198661
  0.4444377626988631  0.5555256506097638  0.1260159090111709
  0.7777677876958643  0.5555346700199885  0.1261700043364568
  0.6110821309622796  0.0555432250495372  0.1251906278823813
  0.4444377626988631  0.5555256506097638  0.6239840909888289
  0.9444337021480569  0.0555234019829597  0.1252033290366917
  0.2777598601799057  0.7222267354043834  0.6247918057653441
  0.1110995159053128  0.2222054145522791  0.6247085905375573
  0.4443896032655968  0.2222125231908491  0.6244826347220758
  0.6110906170586444  0.7221802395284234  0.6242642019275217
  0.9444446582276805  0.7222081975474075  0.6246457286778601
  0.7777567315004185  0.2222038642033254  0.6247888780526062
  0.1111046223267975  0.7222226230248766  0.1252389874582889
  0.4444166081987338  0.7222034085237649  0.1253830880224420
  0.2777556389417978  0.2222052431592142  0.1256997217861907
  0.7777703762704569  0.7221909472523265  0.1257181531322447
  0.6111016292638897  0.2222116390502656  0.1252834465450750
  0.9444292565391865  0.2222117193168722  0.1251750524507548
  0.1110991939319474  0.3888923002712795  0.6247868813897406
  0.2777648516036262  0.8888899401277632  0.6248217828234992
  0.6110769911831614  0.8888586022563885  0.6247485039811579
  0.4444017165470365  0.3888560840927612  0.6241300577091350
  0.9444396571000334  0.8888601204391597  0.6247621207671444
  0.1111050590940348  0.8888751243244067  0.1252150295953791
  0.7777572157102420  0.3888809526857993  0.6242880276869864
  0.4444168667970231  0.8888853525767603  0.1251848807763374
  0.2777657696948192  0.3888703618555259  0.1256137071264770
  0.2777678874257873  0.5555588983662101  0.1253598854334783
  0.6110544778015315  0.3888507514492743  0.1251250298561971
  0.7777624949908877  0.8888539657753834  0.1252407475211932
  0.9444303980926627  0.3888915077202537  0.1251966398956127
  0.1110964749555545  0.5555657791101793  0.6247783265462145
  0.2777530913509783  0.0555429091685681  0.6246941476801345
  0.7777677876958643  0.5555346700199885  0.6238299956635427
  0.6110821309622796  0.0555432250495372  0.6248093721176190
  0.9444337021480569  0.0555234019829597  0.6247966709633083
  0.0540321797639449  0.1098871409336371  0.3750000000000000
  0.5532605583775723  0.6075063804554943  0.3750000000000000
  0.3894277441431748  0.1147622790527636  0.3750000000000000
  0.8907535102980385  0.6115351131963056  0.3750000000000000
  0.7219658279803320  0.1104698203335706  0.3750000000000000
  0.0555497217004707  0.7777778970512567  0.8750000000000000
  0.3888932098555032  0.7777793468696014  0.8750000000000000
  0.2222181695063190  0.2777815607115556  0.8750000000000000
  0.7222189504182273  0.7777814876583510  0.8750000000000000
  0.5555550978656516  0.2777795960262388  0.8750000000000000
  0.8888905481819852  0.2777802238211929  0.8750000000000000
  0.2232195750379645  0.7782991489585251  0.3750000000000000
  0.0539713539433723  0.2768287659011667  0.3750000000000000
  0.3858613894069721  0.2820412210066224  0.3750000000000000
  0.5548298764653178  0.7765889202655286  0.3750000000000000
  0.8907706146157263  0.7785703412651476  0.3750000000000000
  0.7238952369848390  0.2781214576584477  0.3750000000000000
  0.0555511707428001  0.9444505041436219  0.8750000000000000
  0.3888944632515590  0.9444478008047041  0.8750000000000000
  0.2222194615462921  0.4444437139379242  0.8750000000000000
  0.5555507382803238  0.4444537537484696  0.8750000000000000
  0.7222240728634208  0.9444508108609775  0.8750000000000000
  0.8888904549234473  0.4444445107926864  0.8750000000000000
  0.0558147892574875  0.4440745852663274  0.3750000000000000
  0.2234011825354283  0.9459543192689687  0.3750000000000000
  0.5553538905747296  0.9441698605606981  0.3750000000000000
  0.3838846707525396  0.4381109098789344  0.3750000000000000
  0.8883543564666971  0.9436025717038111  0.3750000000000000
  0.7210431132356905  0.4427983333310681  0.3750000000000000
  0.2222182881059733  0.6111058432849240  0.8750000000000000
  0.0555509482286889  0.1111131746702461  0.8750000000000000
  0.5555526145278743  0.6111093960835614  0.8750000000000000
  0.3888927345876393  0.1111173079749935  0.8750000000000000
  0.8888821375867596  0.6111070242594632  0.8750000000000000
  0.0566478285887622  0.6112236967366219  0.3750000000000000
  0.7222232061963567  0.1111133914436602  0.8750000000000000
  0.2223495374603636  0.1122691254841953  0.3750000000000000
  0.3885794811991305  0.6077107685966245  0.3750000000000000
  0.7265403268365315  0.6112364647501218  0.3750000000000000
  0.5559036863661959  0.1117228315005784  0.3750000000000000
  0.3888901297396377  0.6111095917102233  0.8750000000000000
  0.8879734132502307  0.1100964136034536  0.3750000000000000
  0.2222215624693626  0.7777763686179295  0.8750000000000000
  0.0555519990371008  0.2777772542956830  0.8750000000000000
  0.3888883891154351  0.2777873721372087  0.8750000000000000
  0.5555582764313444  0.7777804362223889  0.8750000000000000
  0.8888819906101705  0.7777812456446925  0.8750000000000000
  0.7222254615960692  0.2777797370209310  0.8750000000000000
  0.0570113956846320  0.7785755945012992  0.3750000000000000
  0.3891610919788000  0.7769861857782988  0.3750000000000000
  0.2181815188412843  0.2757083723523446  0.3750000000000000
  0.7220713187942934  0.7768721941376757  0.3750000000000000
  0.5527001502683007  0.2714622994180661  0.3750000000000000
  0.8887835307342798  0.2772091034407738  0.3750000000000000
  0.0555534758228467  0.4444431310021036  0.8750000000000000
  0.2222232149121491  0.9444508634404891  0.8750000000000000
  0.5555594858399566  0.9444501292951328  0.8750000000000000
  0.3888870558047769  0.4444507421140676  0.8750000000000000
  0.8888884149581512  0.9444506019251164  0.8750000000000000
  0.0562830598904496  0.9450298428909529  0.3750000000000000
  0.7222230414007453  0.4444460948841373  0.8750000000000000
  0.3895494250543629  0.9457541376649232  0.3750000000000000
  0.2213938544826633  0.4432666769426650  0.3750000000000000
  0.2227960443250930  0.6106350956707044  0.3750000000000000
  0.7215552308126782  0.9434517717987836  0.3750000000000000
  0.8898973104994968  0.4441057190443575  0.3750000000000000
  0.0555492746940294  0.6111052665889728  0.8750000000000000
  0.2222201405714631  0.1111188999167121  0.8750000000000000
  0.7222116477416850  0.6111096238630408  0.8750000000000000
  0.5555578254529668  0.1111136202390877  0.8750000000000000
  0.8888897406556161  0.1111134831200784  0.8750000000000000
  0.1104658652162392  0.0555351638278532  0.3750000000000000
  0.6267780190735236  0.5816461915854255  0.3750000000000000
  0.4450481139198771  0.0573831136561676  0.3750000000000000
  0.9464160748251333  0.5552092287122306  0.3750000000000000
  0.7771065736520929  0.0548561907515906  0.3750000000000000
  0.1111225685952617  0.7222233376639130  0.8750000000000000
  0.4444359314244620  0.7222675552601344  0.8750000000000000
  0.2777446198220841  0.2221887062994428  0.8750000000000000
  0.7778117612243866  0.7222671094689269  0.8750000000000000
  0.6111271373515959  0.2221956057485075  0.8750000000000000
  0.9444155818333410  0.2222152287342400  0.8750000000000000
  0.2780666894000465  0.7221435130797385  0.3750000000000000
  0.1065953240832738  0.2197359374478342  0.3750000000000000
  0.4465584788319346  0.2266362486513983  0.3750000000000000
  0.6117225971957027  0.7247495182283628  0.3750000000000000
  0.9468752902130483  0.7232960470901404  0.3750000000000000
  0.7781919359340381  0.2213235074748125  0.3750000000000000
  0.1111234109742955  0.8888953286475899  0.8750000000000000
  0.4444538366037102  0.8889157239133517  0.8750000000000000
  0.2777186712897771  0.3888721863584057  0.8750000000000000
  0.6111201771326057  0.3888372891042967  0.8750000000000000
  0.7777998823101118  0.8889544060253881  0.8750000000000000
  0.9444365966734645  0.3888678283273199  0.8750000000000000
  0.1095958894392107  0.3876717967242119  0.3750000000000000
  0.2786493857626519  0.8897477033719390  0.3750000000000000
  0.6108171145590430  0.8890419080314680  0.3750000000000000
  0.9456913094168102  0.8901334961140178  0.3750000000000000
  0.7793614675894901  0.3880678949003968  0.3750000000000000
  0.2777343500383613  0.5555629475565858  0.8750000000000000
  0.1110908771136759  0.0555475992890131  0.8750000000000000
  0.6111197501690551  0.5555538961868606  0.8750000000000000
  0.4444617434561329  0.0555432296987973  0.8750000000000000
  0.9444635238716734  0.5555375288099980  0.8750000000000000
  0.1116089178109880  0.5551291878357001  0.3750000000000000
  0.7777813057639694  0.0555878501140971  0.8750000000000000
  0.2782950397665567  0.0567154321750563  0.3750000000000000
  0.4422030844241877  0.5519880246897849  0.3750000000000000
  0.7819520055916457  0.5543792927763925  0.3750000000000000
  0.6111251391418563  0.0554754540750026  0.3750000000000000
  0.4444138085969960  0.5555728147333013  0.8750000000000000
  0.9429989352972763  0.0545220225167624  0.3750000000000000
  0.2777701911858609  0.7222362958344345  0.8750000000000000
  0.1110557269928708  0.2222018030736424  0.8750000000000000
  0.4444612120325163  0.2221845852377818  0.8750000000000000
  0.6111251022567815  0.7222854635180594  0.8750000000000000
  0.9444764144384389  0.7222365034862533  0.8750000000000000
  0.7777812880458936  0.2222108759918676  0.8750000000000000
  0.1124006086546149  0.7226763794217627  0.3750000000000000
  0.4436848831590330  0.7209227978257161  0.3750000000000000
  0.2722978060155766  0.2212596959673758  0.3750000000000000
  0.7821254356967893  0.7264153747938619  0.3750000000000000
  0.6134523943127552  0.2232229421063763  0.3750000000000000
  0.9430284575703742  0.2209754467702948  0.3750000000000000
  0.1110598155390647  0.3888721536032383  0.8750000000000000
  0.2777906315845475  0.8888917599046732  0.8750000000000000
  0.6111263849610136  0.8889490543111745  0.8750000000000000
  0.4444298892319163  0.3888644898828968  0.8750000000000000
  0.9444611025192737  0.8889248023066464  0.8750000000000000
  0.1123076798000802  0.8898345281377157  0.3750000000000000
  0.7778005110672036  0.3888499707225175  0.8750000000000000
  0.4444375604290022  0.8891094768057899  0.3750000000000000
  0.2715241662074090  0.3843852919166130  0.3750000000000000
  0.2766469654501757  0.5542821381694846  0.3750000000000000
  0.7778271402715052  0.8892959188397178  0.3750000000000000
  0.9449005482321646  0.3880604442262409  0.3750000000000000
  0.1110930529836828  0.5555463378949281  0.8750000000000000
  0.2777819574787083  0.0555365500669375  0.8750000000000000
  0.7778122383000691  0.5555408504148441  0.8750000000000000
  0.6111247348079007  0.0555715714333217  0.8750000000000000
  0.9444294694197060  0.0555747727993813  0.8750000000000000
  0.0554670358243261  0.1110073719992979  0.1246780595612363
  0.5555483091231189  0.6112045007224430  0.1249849703930233
  0.3888561481509992  0.1109693151619005  0.1247686508728152
  0.8890638087760215  0.6111579670710771  0.1249121035985423
  0.7221856731214928  0.1110970961902759  0.1247667539140298
  0.0556584755753816  0.7778091199404618  0.6252445888305955
  0.3888072831919577  0.7778805814184103  0.6252643348520215
  0.2220399512246577  0.2776464347852224  0.6254221421787085
  0.7223308036651397  0.7779398869957199  0.6253149324334116
  0.5556117286959590  0.2776910079474922  0.6249467949282219
  0.8888396438067924  0.2777513560224897  0.6252539474778079
  0.2222211402684924  0.7778241102117815  0.1247710555456871
  0.0554300861629444  0.2777552759407861  0.1246715904331728
  0.3888573943439679  0.2776021409179284  0.1245013906466857
  0.5554991068389651  0.7779265306629681  0.1246990153719630
  0.8890787088316638  0.7778739031512782  0.1246992046046480
  0.7221807579279285  0.2776657038927722  0.1249126304442377
  0.0555866332948249  0.9443958454091383  0.6252901954422267
  0.3888536693591652  0.9444400375307749  0.6252436615202019
  0.2220570805679608  0.4444667324116661  0.6253270513199030
  0.5555715251079096  0.4441710857743515  0.6247978479771268
  0.7222158503236564  0.9445211482495866  0.6252880479804523
  0.8889110049710035  0.4444056678758893  0.6250755694837679
  0.0554855858206430  0.4444689432274137  0.1247220788208785
  0.2222078130946039  0.9443579311216289  0.1247513995122953
  0.5554990800783400  0.9444979373797409  0.1247460993347700
  0.3887870847974823  0.4443431791099848  0.1246066726673607
  0.8889341817558017  0.9444829571376058  0.1246929766042471
  0.7221350854723554  0.4442417676540508  0.1250946404359477
  0.2221376654678350  0.6112019169451036  0.6252668117945359
  0.0554670358243261  0.1110073719992979  0.6253219404387639
  0.5555483091231189  0.6112045007224430  0.6250150296069765
  0.3888561481509992  0.1109693151619005  0.6252313491271845
  0.8890638087760215  0.6111579670710771  0.6250878964014572
  0.0556130727287564  0.6111657339386067  0.1247936794593440
  0.7221856731214928  0.1110970961902759  0.6252332460859700
  0.2221105786358247  0.1109006467498002  0.1247177925610281
  0.3887536704996500  0.6112265360672087  0.1247236122854605
  0.7224214767159098  0.6111673012304862  0.1251428771655423
  0.5555361325461493  0.1110677761301760  0.1247766171007085
  0.3887536704996500  0.6112265360672087  0.6252763877145391
  0.8888412635442714  0.1111001227807561  0.1247432059016593
  0.2222211402684924  0.7778241102117815  0.6252289444543122
  0.0554300861629444  0.2777552759407861  0.6253284095668270
  0.3888573943439679  0.2776021409179284  0.6254986093533144
  0.5554991068389651  0.7779265306629681  0.6253009846280368
  0.8890787088316638  0.7778739031512782  0.6253007953953522
  0.7221807579279285  0.2776657038927722  0.6250873695557627
  0.0556584755753816  0.7778091199404618  0.1247554111694041
  0.3888072831919577  0.7778805814184103  0.1247356651479786
  0.2220399512246577  0.2776464347852224  0.1245778578212918
  0.7223308036651397  0.7779398869957199  0.1246850675665881
  0.5556117286959590  0.2776910079474922  0.1250532050717778
  0.8888396438067924  0.2777513560224897  0.1247460525221917
  0.0554855858206430  0.4444689432274137  0.6252779211791213
  0.2222078130946039  0.9443579311216289  0.6252486004877045
  0.5554990800783400  0.9444979373797409  0.6252539006652296
  0.3887870847974823  0.4443431791099848  0.6253933273326397
  0.8889341817558017  0.9444829571376058  0.6253070233957525
  0.0555866332948249  0.9443958454091383  0.1247098045577736
  0.7221350854723554  0.4442417676540508  0.6249053595640521
  0.3888536693591652  0.9444400375307749  0.1247563384797977
  0.2220570805679608  0.4444667324116661  0.1246729486800974
  0.2221376654678350  0.6112019169451036  0.1247331882054629
  0.5555715251079096  0.4441710857743515  0.1252021520228732
  0.7222158503236564  0.9445211482495866  0.1247119520195474
  0.8889110049710035  0.4444056678758893  0.1249244305162322
  0.0556130727287564  0.6111657339386067  0.6252063205406558
  0.2221105786358247  0.1109006467498002  0.6252822074389717
  0.7224214767159098  0.6111673012304862  0.6248571228344574
  0.5555361325461493  0.1110677761301760  0.6252233828992914
  0.8888412635442714  0.1111001227807561  0.6252567940983406
 
  0.00000000E+00  0.00000000E+00  0.00000000E+00
  0.00000000E+00  0.00000000E+00  0.00000000E+00
  0.00000000E+00  0.00000000E+00  0.00000000E+00
  0.00000000E+00  0.00000000E+00  0.00000000E+00
  0.00000000E+00  0.00000000E+00  0.00000000E+00
  0.00000000E+00  0.00000000E+00  0.00000000E+00
  0.00000000E+00  0.00000000E+00  0.00000000E+00
  0.00000000E+00  0.00000000E+00  0.00000000E+00
  0.00000000E+00  0.00000000E+00  0.00000000E+00
  0.00000000E+00  0.00000000E+00  0.00000000E+00
  0.00000000E+00  0.00000000E+00  0.00000000E+00
  0.00000000E+00  0.00000000E+00  0.00000000E+00
  0.00000000E+00  0.00000000E+00  0.00000000E+00
  0.00000000E+00  0.00000000E+00  0.00000000E+00
  0.00000000E+00  0.00000000E+00  0.00000000E+00
  0.00000000E+00  0.00000000E+00  0.00000000E+00
  0.00000000E+00  0.00000000E+00  0.00000000E+00
  0.00000000E+00  0.00000000E+00  0.00000000E+00
  0.00000000E+00  0.00000000E+00  0.00000000E+00
  0.00000000E+00  0.00000000E+00  0.00000000E+00
  0.00000000E+00  0.00000000E+00  0.00000000E+00
  0.00000000E+00  0.00000000E+00  0.00000000E+00
  0.00000000E+00  0.00000000E+00  0.00000000E+00
  0.00000000E+00  0.00000000E+00  0.00000000E+00
  0.00000000E+00  0.00000000E+00  0.00000000E+00
  0.00000000E+00  0.00000000E+00  0.00000000E+00
  0.00000000E+00  0.00000000E+00  0.00000000E+00
  0.00000000E+00  0.00000000E+00  0.00000000E+00
  0.00000000E+00  0.00000000E+00  0.00000000E+00
  0.00000000E+00  0.00000000E+00  0.00000000E+00
  0.00000000E+00  0.00000000E+00  0.00000000E+00
  0.00000000E+00  0.00000000E+00  0.00000000E+00
  0.00000000E+00  0.00000000E+00  0.00000000E+00
  0.00000000E+00  0.00000000E+00  0.00000000E+00
  0.00000000E+00  0.00000000E+00  0.00000000E+00
  0.00000000E+00  0.00000000E+00  0.00000000E+00
  0.00000000E+00  0.00000000E+00  0.00000000E+00
  0.00000000E+00  0.00000000E+00  0.00000000E+00
  0.00000000E+00  0.00000000E+00  0.00000000E+00
  0.00000000E+00  0.00000000E+00  0.00000000E+00
  0.00000000E+00  0.00000000E+00  0.00000000E+00
  0.00000000E+00  0.00000000E+00  0.00000000E+00
  0.00000000E+00  0.00000000E+00  0.00000000E+00
  0.00000000E+00  0.00000000E+00  0.00000000E+00
  0.00000000E+00  0.00000000E+00  0.00000000E+00
  0.00000000E+00  0.00000000E+00  0.00000000E+00
  0.00000000E+00  0.00000000E+00  0.00000000E+00
  0.00000000E+00  0.00000000E+00  0.00000000E+00
  0.00000000E+00  0.00000000E+00  0.00000000E+00
  0.00000000E+00  0.00000000E+00  0.00000000E+00
  0.00000000E+00  0.00000000E+00  0.00000000E+00
  0.00000000E+00  0.00000000E+00  0.00000000E+00
  0.00000000E+00  0.00000000E+00  0.00000000E+00
  0.00000000E+00  0.00000000E+00  0.00000000E+00
  0.00000000E+00  0.00000000E+00  0.00000000E+00
  0.00000000E+00  0.00000000E+00  0.00000000E+00
  0.00000000E+00  0.00000000E+00  0.00000000E+00
  0.00000000E+00  0.00000000E+00  0.00000000E+00
  0.00000000E+00  0.00000000E+00  0.00000000E+00
  0.00000000E+00  0.00000000E+00  0.00000000E+00
  0.00000000E+00  0.00000000E+00  0.00000000E+00
  0.00000000E+00  0.00000000E+00  0.00000000E+00
  0.00000000E+00  0.00000000E+00  0.00000000E+00
  0.00000000E+00  0.00000000E+00  0.00000000E+00
  0.00000000E+00  0.00000000E+00  0.00000000E+00
  0.00000000E+00  0.00000000E+00  0.00000000E+00
  0.00000000E+00  0.00000000E+00  0.00000000E+00
  0.00000000E+00  0.00000000E+00  0.00000000E+00
  0.00000000E+00  0.00000000E+00  0.00000000E+00
  0.00000000E+00  0.00000000E+00  0.00000000E+00
  0.00000000E+00  0.00000000E+00  0.00000000E+00
  0.00000000E+00  0.00000000E+00  0.00000000E+00
  0.00000000E+00  0.00000000E+00  0.00000000E+00
  0.00000000E+00  0.00000000E+00  0.00000000E+00
  0.00000000E+00  0.00000000E+00  0.00000000E+00
  0.00000000E+00  0.00000000E+00  0.00000000E+00
  0.00000000E+00  0.00000000E+00  0.00000000E+00
  0.00000000E+00  0.00000000E+00  0.00000000E+00
  0.00000000E+00  0.00000000E+00  0.00000000E+00
  0.00000000E+00  0.00000000E+00  0.00000000E+00
  0.00000000E+00  0.00000000E+00  0.00000000E+00
  0.00000000E+00  0.00000000E+00  0.00000000E+00
  0.00000000E+00  0.00000000E+00  0.00000000E+00
  0.00000000E+00  0.00000000E+00  0.00000000E+00
  0.00000000E+00  0.00000000E+00  0.00000000E+00
  0.00000000E+00  0.00000000E+00  0.00000000E+00
  0.00000000E+00  0.00000000E+00  0.00000000E+00
  0.00000000E+00  0.00000000E+00  0.00000000E+00
  0.00000000E+00  0.00000000E+00  0.00000000E+00
  0.00000000E+00  0.00000000E+00  0.00000000E+00
  0.00000000E+00  0.00000000E+00  0.00000000E+00
  0.00000000E+00  0.00000000E+00  0.00000000E+00
  0.00000000E+00  0.00000000E+00  0.00000000E+00
  0.00000000E+00  0.00000000E+00  0.00000000E+00
  0.00000000E+00  0.00000000E+00  0.00000000E+00
  0.00000000E+00  0.00000000E+00  0.00000000E+00
  0.00000000E+00  0.00000000E+00  0.00000000E+00
  0.00000000E+00  0.00000000E+00  0.00000000E+00
  0.00000000E+00  0.00000000E+00  0.00000000E+00
  0.00000000E+00  0.00000000E+00  0.00000000E+00
  0.00000000E+00  0.00000000E+00  0.00000000E+00
  0.00000000E+00  0.00000000E+00  0.00000000E+00
  0.00000000E+00  0.00000000E+00  0.00000000E+00
  0.00000000E+00  0.00000000E+00  0.00000000E+00
  0.00000000E+00  0.00000000E+00  0.00000000E+00
  0.00000000E+00  0.00000000E+00  0.00000000E+00
  0.00000000E+00  0.00000000E+00  0.00000000E+00
  0.00000000E+00  0.00000000E+00  0.00000000E+00
  0.00000000E+00  0.00000000E+00  0.00000000E+00
  0.00000000E+00  0.00000000E+00  0.00000000E+00
  0.00000000E+00  0.00000000E+00  0.00000000E+00
  0.00000000E+00  0.00000000E+00  0.00000000E+00
  0.00000000E+00  0.00000000E+00  0.00000000E+00
  0.00000000E+00  0.00000000E+00  0.00000000E+00
  0.00000000E+00  0.00000000E+00  0.00000000E+00
  0.00000000E+00  0.00000000E+00  0.00000000E+00
  0.00000000E+00  0.00000000E+00  0.00000000E+00
  0.00000000E+00  0.00000000E+00  0.00000000E+00
  0.00000000E+00  0.00000000E+00  0.00000000E+00
  0.00000000E+00  0.00000000E+00  0.00000000E+00
  0.00000000E+00  0.00000000E+00  0.00000000E+00
  0.00000000E+00  0.00000000E+00  0.00000000E+00
  0.00000000E+00  0.00000000E+00  0.00000000E+00
  0.00000000E+00  0.00000000E+00  0.00000000E+00
  0.00000000E+00  0.00000000E+00  0.00000000E+00
  0.00000000E+00  0.00000000E+00  0.00000000E+00
  0.00000000E+00  0.00000000E+00  0.00000000E+00
  0.00000000E+00  0.00000000E+00  0.00000000E+00
  0.00000000E+00  0.00000000E+00  0.00000000E+00
  0.00000000E+00  0.00000000E+00  0.00000000E+00
  0.00000000E+00  0.00000000E+00  0.00000000E+00
  0.00000000E+00  0.00000000E+00  0.00000000E+00
  0.00000000E+00  0.00000000E+00  0.00000000E+00
  0.00000000E+00  0.00000000E+00  0.00000000E+00
  0.00000000E+00  0.00000000E+00  0.00000000E+00
  0.00000000E+00  0.00000000E+00  0.00000000E+00
  0.00000000E+00  0.00000000E+00  0.00000000E+00
  0.00000000E+00  0.00000000E+00  0.00000000E+00
  0.00000000E+00  0.00000000E+00  0.00000000E+00
  0.00000000E+00  0.00000000E+00  0.00000000E+00
  0.00000000E+00  0.00000000E+00  0.00000000E+00
  0.00000000E+00  0.00000000E+00  0.00000000E+00
  0.00000000E+00  0.00000000E+00  0.00000000E+00
  0.00000000E+00  0.00000000E+00  0.00000000E+00
  0.00000000E+00  0.00000000E+00  0.00000000E+00
  0.00000000E+00  0.00000000E+00  0.00000000E+00
  0.00000000E+00  0.00000000E+00  0.00000000E+00
  0.00000000E+00  0.00000000E+00  0.00000000E+00
  0.00000000E+00  0.00000000E+00  0.00000000E+00
  0.00000000E+00  0.00000000E+00  0.00000000E+00
  0.00000000E+00  0.00000000E+00  0.00000000E+00
  0.00000000E+00  0.00000000E+00  0.00000000E+00
  0.00000000E+00  0.00000000E+00  0.00000000E+00
  0.00000000E+00  0.00000000E+00  0.00000000E+00
  0.00000000E+00  0.00000000E+00  0.00000000E+00
  0.00000000E+00  0.00000000E+00  0.00000000E+00
  0.00000000E+00  0.00000000E+00  0.00000000E+00
  0.00000000E+00  0.00000000E+00  0.00000000E+00
  0.00000000E+00  0.00000000E+00  0.00000000E+00
  0.00000000E+00  0.00000000E+00  0.00000000E+00
  0.00000000E+00  0.00000000E+00  0.00000000E+00
  0.00000000E+00  0.00000000E+00  0.00000000E+00
  0.00000000E+00  0.00000000E+00  0.00000000E+00
  0.00000000E+00  0.00000000E+00  0.00000000E+00
  0.00000000E+00  0.00000000E+00  0.00000000E+00
  0.00000000E+00  0.00000000E+00  0.00000000E+00
  0.00000000E+00  0.00000000E+00  0.00000000E+00
  0.00000000E+00  0.00000000E+00  0.00000000E+00
  0.00000000E+00  0.00000000E+00  0.00000000E+00
  0.00000000E+00  0.00000000E+00  0.00000000E+00
  0.00000000E+00  0.00000000E+00  0.00000000E+00
  0.00000000E+00  0.00000000E+00  0.00000000E+00
  0.00000000E+00  0.00000000E+00  0.00000000E+00
  0.00000000E+00  0.00000000E+00  0.00000000E+00
  0.00000000E+00  0.00000000E+00  0.00000000E+00
  0.00000000E+00  0.00000000E+00  0.00000000E+00
  0.00000000E+00  0.00000000E+00  0.00000000E+00
  0.00000000E+00  0.00000000E+00  0.00000000E+00
  0.00000000E+00  0.00000000E+00  0.00000000E+00
  0.00000000E+00  0.00000000E+00  0.00000000E+00
  0.00000000E+00  0.00000000E+00  0.00000000E+00
  0.00000000E+00  0.00000000E+00  0.00000000E+00
  0.00000000E+00  0.00000000E+00  0.00000000E+00
  0.00000000E+00  0.00000000E+00  0.00000000E+00
  0.00000000E+00  0.00000000E+00  0.00000000E+00
  0.00000000E+00  0.00000000E+00  0.00000000E+00
  0.00000000E+00  0.00000000E+00  0.00000000E+00
  0.00000000E+00  0.00000000E+00  0.00000000E+00
  0.00000000E+00  0.00000000E+00  0.00000000E+00
  0.00000000E+00  0.00000000E+00  0.00000000E+00
  0.00000000E+00  0.00000000E+00  0.00000000E+00
  0.00000000E+00  0.00000000E+00  0.00000000E+00
  0.00000000E+00  0.00000000E+00  0.00000000E+00
  0.00000000E+00  0.00000000E+00  0.00000000E+00
  0.00000000E+00  0.00000000E+00  0.00000000E+00
  0.00000000E+00  0.00000000E+00  0.00000000E+00
  0.00000000E+00  0.00000000E+00  0.00000000E+00
  0.00000000E+00  0.00000000E+00  0.00000000E+00
  0.00000000E+00  0.00000000E+00  0.00000000E+00
  0.00000000E+00  0.00000000E+00  0.00000000E+00
  0.00000000E+00  0.00000000E+00  0.00000000E+00
  0.00000000E+00  0.00000000E+00  0.00000000E+00
  0.00000000E+00  0.00000000E+00  0.00000000E+00
  0.00000000E+00  0.00000000E+00  0.00000000E+00
  0.00000000E+00  0.00000000E+00  0.00000000E+00
  0.00000000E+00  0.00000000E+00  0.00000000E+00
  0.00000000E+00  0.00000000E+00  0.00000000E+00
  0.00000000E+00  0.00000000E+00  0.00000000E+00
  0.00000000E+00  0.00000000E+00  0.00000000E+00
  0.00000000E+00  0.00000000E+00  0.00000000E+00
  0.00000000E+00  0.00000000E+00  0.00000000E+00
  0.00000000E+00  0.00000000E+00  0.00000000E+00
  0.00000000E+00  0.00000000E+00  0.00000000E+00
  0.00000000E+00  0.00000000E+00  0.00000000E+00
  0.00000000E+00  0.00000000E+00  0.00000000E+00
  0.00000000E+00  0.00000000E+00  0.00000000E+00
  0.00000000E+00  0.00000000E+00  0.00000000E+00
  0.00000000E+00  0.00000000E+00  0.00000000E+00
  0.00000000E+00  0.00000000E+00  0.00000000E+00
  0.00000000E+00  0.00000000E+00  0.00000000E+00
  0.00000000E+00  0.00000000E+00  0.00000000E+00
  0.00000000E+00  0.00000000E+00  0.00000000E+00
  0.00000000E+00  0.00000000E+00  0.00000000E+00
  0.00000000E+00  0.00000000E+00  0.00000000E+00
  0.00000000E+00  0.00000000E+00  0.00000000E+00
  0.00000000E+00  0.00000000E+00  0.00000000E+00
  0.00000000E+00  0.00000000E+00  0.00000000E+00
  0.00000000E+00  0.00000000E+00  0.00000000E+00
  0.00000000E+00  0.00000000E+00  0.00000000E+00
  0.00000000E+00  0.00000000E+00  0.00000000E+00
  0.00000000E+00  0.00000000E+00  0.00000000E+00
  0.00000000E+00  0.00000000E+00  0.00000000E+00
  0.00000000E+00  0.00000000E+00  0.00000000E+00
  0.00000000E+00  0.00000000E+00  0.00000000E+00
  0.00000000E+00  0.00000000E+00  0.00000000E+00
  0.00000000E+00  0.00000000E+00  0.00000000E+00
  0.00000000E+00  0.00000000E+00  0.00000000E+00
  0.00000000E+00  0.00000000E+00  0.00000000E+00
  0.00000000E+00  0.00000000E+00  0.00000000E+00
  0.00000000E+00  0.00000000E+00  0.00000000E+00
  0.00000000E+00  0.00000000E+00  0.00000000E+00
  0.00000000E+00  0.00000000E+00  0.00000000E+00
  0.00000000E+00  0.00000000E+00  0.00000000E+00
  0.00000000E+00  0.00000000E+00  0.00000000E+00
  0.00000000E+00  0.00000000E+00  0.00000000E+00
  0.00000000E+00  0.00000000E+00  0.00000000E+00
  0.00000000E+00  0.00000000E+00  0.00000000E+00
  0.00000000E+00  0.00000000E+00  0.00000000E+00
  0.00000000E+00  0.00000000E+00  0.00000000E+00