B N P                                   
   1.0000000000000000     
     8.7639499999999995  -15.1796066749929999    0.0000000000000000
     8.7639499999999995   15.1796066749929999    0.0000000000000000
     0.0000000000000000    0.0000000000000000   15.0000000000000000
   B    N    P 
    48    48     2
Selective dynamics
Direct
  0.9051492550565075  0.9529355134550551  0.1111219194941876   T   T   T
  0.9045373530454209  0.0954646681505751  0.1092639034644635   T   T   T
  0.9043553990715593  0.2382468670146621  0.1098106355764991   T   T   T
  0.9045046261474766  0.3811240729707201  0.1120982881169542   T   T   T
  0.9052594820365467  0.5241048763048614  0.1146014581724168   T   T   T
  0.9056478555218436  0.6671975567651495  0.1147667715482417   T   T   T
  0.9057133552111496  0.8103112979256666  0.1143614739500460   T   T   T
  0.0476721382003516  0.9523298829956370  0.1115572106419721   T   T   T
  0.0470665077409423  0.0948527661394892  0.1111219194941876   T   T   T
  0.0468638614312696  0.2378256570400038  0.1106279433839694   T   T   T
  0.0470079838759771  0.3808891361142629  0.1104790062809025   T   T   T
  0.0475423576543572  0.5238932198842575  0.1105274272827184   T   T   T
  0.0479870095150212  0.6668021325480037  0.1111258093743335   T   T   T
  0.0480062358428114  0.8096513416983111  0.1116251992972195   T   T   T
  0.1903506794976780  0.9519957853531915  0.1116251992972195   T   T   T
  0.1896907232703426  0.0942886659848457  0.1143614739500460   T   T   T
  0.1888362730315236  0.2366534553702394  0.1134730544913057   T   T   T
  0.1891607427683938  0.3803230500476560  0.1130174304486744   T   T   T
  0.1898573412848256  0.5236937464150233  0.1114277906953566   T   T   T
  0.1906028682913185  0.6666200116810678  0.1097179258261346   T   T   T
  0.1906021290400429  0.8093998921559540  0.1094974272980830   T   T   T
  0.3331998886490087  0.9520150116809896  0.1111258093743335   T   T   T
  0.3328044644318405  0.0943541656741533  0.1147667715482417   T   T   T
  0.3315480972865475  0.2359684715583673  0.1141076579998743   T   T   T
  0.3299510488721372  0.3781103553745293  0.1130349229706258   T   T   T
  0.3316656562160892  0.5233051783932831  0.1186912301137331   T   T   T
  0.3334328936477008  0.6665691275493038  0.1137456801569045   T   T   T
  0.3333820095159306  0.8093991529046860  0.1097179258261346   T   T   T
  0.4761088013127267  0.9524596635416389  0.1105274272827184   T   T   T
  0.4758971448921372  0.0947425391594559  0.1146014581724168   T   T   T
  0.4755584017892564  0.2366612866734562  0.1133701445750166   T   T   T
  0.4708765671989682  0.3714275810063317  0.0825560100373707   T   T   T
  0.4766968428037158  0.6683363649809017  0.1186912301137260   T   T   T
  0.4763082747819823  0.8101446799111778  0.1114277906953566   T   T   T
  0.6191128850817539  0.9529940373200330  0.1104790062809025   T   T   T
  0.6188779482252834  0.0954973950485190  0.1120982881169542   T   T   T
  0.6187817640378799  0.2381979724913570  0.1147806059992970   T   T   T
  0.6189221211275577  0.3810799000684374  0.1046585118055259   T   T   T
  0.6285744401896706  0.5291254539980231  0.0825560100373707   T   T   T
  0.6218916658214739  0.6700509723248672  0.1130349229706258   T   T   T
  0.6196789711483547  0.8108412784276086  0.1130174304486744   T   T   T
  0.7621763641559931  0.9531381597647258  0.1106279433839694   T   T   T
  0.7617551541813339  0.0956466221244377  0.1098106355764991   T   T   T
  0.7616482553312051  0.2383537658647997  0.1125238781272349   T   T   T
  0.7618040487046475  0.3812202571581234  0.1147806059992971   T   T   T
  0.7633407345225328  0.5244436194077268  0.1133701445750166   T   T   T
  0.7640335496376365  0.6684539239104583  0.1141076579998743   T   T   T
  0.7633485658257571  0.8111657481644727  0.1134730544913057   T   T   T
  0.9527221831133227  0.9052377091480061  0.1119863115078758   T   T   T
  0.9521724373727272  0.0478289645452645  0.1098320791246040   T   T   T
  0.9518544760497609  0.1905373999932522  0.1092339311046855   T   T   T
  0.9519008796365679  0.3334007072162935  0.1102397954370530   T   T   T
  0.9524300143793862  0.4763066795073884  0.1122748796952250   T   T   T
  0.9528861917737524  0.6193002009103449  0.1137516736817272   T   T   T
  0.9529766930393705  0.7623404367464008  0.1138118561295848   T   T   T
  0.0952913930673448  0.9047100088506534  0.1111910831117531   T   T   T
  0.0947636927699928  0.0472792188046971  0.1119863115078758   T   T   T
  0.0940975974488266  0.1897880948114744  0.1116304973940223   T   T   T
  0.0942252422896681  0.3329692277955444  0.1113879556389547   T   T   T
  0.0947887363942665  0.4760997780794132  0.1101238804038747   T   T   T
  0.0953799677671960  0.6190758501534073  0.1098000880506172   T   T   T
  0.0954757593867124  0.7619484335059437  0.1102620302309555   T   T   T
  0.2380529684120625  0.9045256425312864  0.1102620302309555   T   T   T
  0.2376609651716047  0.0470247088786275  0.1138118561295848   T   T   T
  0.2366878261031241  0.1892009242231530  0.1163001266675987   T   T   T
  0.2356231627950695  0.3314987319909095  0.1131129850513163   T   T   T
  0.2368105231681187  0.4756605371572394  0.1134086603589451   T   T   T
  0.2380803688533618  0.6189569890200595  0.1112819996052679   T   T   T
  0.2381785863822922  0.7618228155357204  0.1090565120339245   T   T   T
  0.3809255517646050  0.9046214341508014  0.1098000880506172   T   T   T
  0.3807012010076549  0.0471152101442532  0.1137516736817272   T   T   T
  0.3802021774133530  0.1893853865027804  0.1152123359844264   T   T   T
  0.3785176587557147  0.3306978595833557  0.1057862024744108   T   T   T
  0.3749183068003435  0.4724157571016131  0.1237668145604462   T   T   T
  0.3809794194075956  0.6190219825104178  0.1189207522259452   T   T   T
  0.3810444128979318  0.7619210330646448  0.1112819996052679   T   T   T
  0.5239016238375916  0.9052126655237317  0.1101238804038747   T   T   T
  0.5236947224096079  0.0475713875386190  0.1122748796952250   T   T   T
  0.5235509214655595  0.1898553588931931  0.1165276665381272   T   T   T
  0.5229410820128112  0.3312429046256963  0.1025200730310915   T   T   T
  0.5275856448153970  0.6250830951176618  0.1237668145604462   T   T   T
  0.5243408647597564  0.7631908787499015  0.1134086603589451   T   T   T
  0.6670321741214374  0.9057761596283379  0.1113879556389547   T   T   T
  0.6666006947007026  0.0481005222814373  0.1102397954370530   T   T   T
  0.6664626961068389  0.1907411269579192  0.1137204580997009   T   T   T
  0.6663412323333704  0.3336601695836415  0.1132633475111517   T   T   T
  0.6687584972913003  0.4770603199041996  0.1025200730310915   T   T   T
  0.6693035423336485  0.6214837431622836  0.1057862024744108   T   T   T
  0.6685026699260866  0.7643782391229496  0.1131129850513163   T   T   T
  0.8102133071065100  0.9059038044691723  0.1116304973940223   T   T   T
  0.8094640019247528  0.0481469258682304  0.1092339311046855   T   T   T
  0.8092253707371626  0.1907760311808289  0.1102936213397988   T   T   T
  0.8092602749600728  0.3335387058101659  0.1137204580997009   T   T   T
  0.8101460430248132  0.4764504804514501  0.1165276665381272   T   T   T
  0.8106160154152116  0.6197992245046454  0.1152123359844264   T   T   T
  0.8108004776948461  0.7633135758148667  0.1163001266675987   T   T   T
  0.4841511112156131  0.5158509099813777  0.1443015429553824   T   T   T
  0.5200517677537134  0.4799496341632821  0.0189285956416982   T   T   T

  0.00000000E+00  0.00000000E+00  0.00000000E+00
  0.00000000E+00  0.00000000E+00  0.00000000E+00
  0.00000000E+00  0.00000000E+00  0.00000000E+00
  0.00000000E+00  0.00000000E+00  0.00000000E+00
  0.00000000E+00  0.00000000E+00  0.00000000E+00
  0.00000000E+00  0.00000000E+00  0.00000000E+00
  0.00000000E+00  0.00000000E+00  0.00000000E+00
  0.00000000E+00  0.00000000E+00  0.00000000E+00
  0.00000000E+00  0.00000000E+00  0.00000000E+00
  0.00000000E+00  0.00000000E+00  0.00000000E+00
  0.00000000E+00  0.00000000E+00  0.00000000E+00
  0.00000000E+00  0.00000000E+00  0.00000000E+00
  0.00000000E+00  0.00000000E+00  0.00000000E+00
  0.00000000E+00  0.00000000E+00  0.00000000E+00
  0.00000000E+00  0.00000000E+00  0.00000000E+00
  0.00000000E+00  0.00000000E+00  0.00000000E+00
  0.00000000E+00  0.00000000E+00  0.00000000E+00
  0.00000000E+00  0.00000000E+00  0.00000000E+00
  0.00000000E+00  0.00000000E+00  0.00000000E+00
  0.00000000E+00  0.00000000E+00  0.00000000E+00
  0.00000000E+00  0.00000000E+00  0.00000000E+00
  0.00000000E+00  0.00000000E+00  0.00000000E+00
  0.00000000E+00  0.00000000E+00  0.00000000E+00
  0.00000000E+00  0.00000000E+00  0.00000000E+00
  0.00000000E+00  0.00000000E+00  0.00000000E+00
  0.00000000E+00  0.00000000E+00  0.00000000E+00
  0.00000000E+00  0.00000000E+00  0.00000000E+00
  0.00000000E+00  0.00000000E+00  0.00000000E+00
  0.00000000E+00  0.00000000E+00  0.00000000E+00
  0.00000000E+00  0.00000000E+00  0.00000000E+00
  0.00000000E+00  0.00000000E+00  0.00000000E+00
  0.00000000E+00  0.00000000E+00  0.00000000E+00
  0.00000000E+00  0.00000000E+00  0.00000000E+00
  0.00000000E+00  0.00000000E+00  0.00000000E+00
  0.00000000E+00  0.00000000E+00  0.00000000E+00
  0.00000000E+00  0.00000000E+00  0.00000000E+00
  0.00000000E+00  0.00000000E+00  0.00000000E+00
  0.00000000E+00  0.00000000E+00  0.00000000E+00
  0.00000000E+00  0.00000000E+00  0.00000000E+00
  0.00000000E+00  0.00000000E+00  0.00000000E+00
  0.00000000E+00  0.00000000E+00  0.00000000E+00
  0.00000000E+00  0.00000000E+00  0.00000000E+00
  0.00000000E+00  0.00000000E+00  0.00000000E+00
  0.00000000E+00  0.00000000E+00  0.00000000E+00
  0.00000000E+00  0.00000000E+00  0.00000000E+00
  0.00000000E+00  0.00000000E+00  0.00000000E+00
  0.00000000E+00  0.00000000E+00  0.00000000E+00
  0.00000000E+00  0.00000000E+00  0.00000000E+00
  0.00000000E+00  0.00000000E+00  0.00000000E+00
  0.00000000E+00  0.00000000E+00  0.00000000E+00
  0.00000000E+00  0.00000000E+00  0.00000000E+00
  0.00000000E+00  0.00000000E+00  0.00000000E+00
  0.00000000E+00  0.00000000E+00  0.00000000E+00
  0.00000000E+00  0.00000000E+00  0.00000000E+00
  0.00000000E+00  0.00000000E+00  0.00000000E+00
  0.00000000E+00  0.00000000E+00  0.00000000E+00
  0.00000000E+00  0.00000000E+00  0.00000000E+00
  0.00000000E+00  0.00000000E+00  0.00000000E+00
  0.00000000E+00  0.00000000E+00  0.00000000E+00
  0.00000000E+00  0.00000000E+00  0.00000000E+00
  0.00000000E+00  0.00000000E+00  0.00000000E+00
  0.00000000E+00  0.00000000E+00  0.00000000E+00
  0.00000000E+00  0.00000000E+00  0.00000000E+00
  0.00000000E+00  0.00000000E+00  0.00000000E+00
  0.00000000E+00  0.00000000E+00  0.00000000E+00
  0.00000000E+00  0.00000000E+00  0.00000000E+00
  0.00000000E+00  0.00000000E+00  0.00000000E+00
  0.00000000E+00  0.00000000E+00  0.00000000E+00
  0.00000000E+00  0.00000000E+00  0.00000000E+00
  0.00000000E+00  0.00000000E+00  0.00000000E+00
  0.00000000E+00  0.00000000E+00  0.00000000E+00
  0.00000000E+00  0.00000000E+00  0.00000000E+00
  0.00000000E+00  0.00000000E+00  0.00000000E+00
  0.00000000E+00  0.00000000E+00  0.00000000E+00
  0.00000000E+00  0.00000000E+00  0.00000000E+00
  0.00000000E+00  0.00000000E+00  0.00000000E+00
  0.00000000E+00  0.00000000E+00  0.00000000E+00
  0.00000000E+00  0.00000000E+00  0.00000000E+00
  0.00000000E+00  0.00000000E+00  0.00000000E+00
  0.00000000E+00  0.00000000E+00  0.00000000E+00
  0.00000000E+00  0.00000000E+00  0.00000000E+00
  0.00000000E+00  0.00000000E+00  0.00000000E+00
  0.00000000E+00  0.00000000E+00  0.00000000E+00
  0.00000000E+00  0.00000000E+00  0.00000000E+00
  0.00000000E+00  0.00000000E+00  0.00000000E+00
  0.00000000E+00  0.00000000E+00  0.00000000E+00
  0.00000000E+00  0.00000000E+00  0.00000000E+00
  0.00000000E+00  0.00000000E+00  0.00000000E+00
  0.00000000E+00  0.00000000E+00  0.00000000E+00
  0.00000000E+00  0.00000000E+00  0.00000000E+00
  0.00000000E+00  0.00000000E+00  0.00000000E+00
  0.00000000E+00  0.00000000E+00  0.00000000E+00
  0.00000000E+00  0.00000000E+00  0.00000000E+00
  0.00000000E+00  0.00000000E+00  0.00000000E+00
  0.00000000E+00  0.00000000E+00  0.00000000E+00
  0.00000000E+00  0.00000000E+00  0.00000000E+00
  0.00000000E+00  0.00000000E+00  0.00000000E+00
  0.00000000E+00  0.00000000E+00  0.00000000E+00
