 N B C 
 1.0
 17.527899999999772   0.000000000000000   0.000000000000000
 -8.763949999999658  15.179606674993195   0.000000000000000
  0.000000000000001   0.000000000000002  15.000000000000000
 N B C 
  47  46   4
Cartesian
  8.769421098946967  13.748376746763970   1.664982371821185 
 16.280961774961991   0.735871436938558   1.665129270191955 
 15.028427291725563   2.899599957334603   1.665424663782060 
 13.773219322579815   5.063230884525361   1.665151087139265 
 12.515801642854001   7.226193529626777   1.664324046455205 
 11.273285106782000   9.394823526201643   1.665387989984100 
 10.022635820519021  11.571827915558188   1.665932396248440 
 -6.259303998148428  13.736022420455855   1.664641419597570 
  1.257255658411014   0.731990052132557   1.665085498221765 
  0.011377574622155   2.902458619116793   1.664538493288845 
 -1.237762120408559   5.065913731965704   1.664482594068240 
 -2.499248481387001   7.227527950184109   1.665089095203060 
 -3.759145733942709   9.393172881886032   1.665225882081885 
 -5.008098342660499  11.563926119276861   1.664796675718875 
 -3.758555027966297  13.730779952929606   1.664852309857560 
  3.753810943846538   0.717643987100145   1.666043364014475 
  2.514896802662516   2.899441666772093   1.665543640772325 
  1.283136754150118   5.068224912354232   1.664743731831210 
  0.020018290019805   7.228702422587726   1.665578174409915 
 -1.264462402112970   9.393749587520912   1.666290993876840 
 -2.509140843041884  11.563265582458094   1.665406864594755 
 -1.256686733256509  13.732660581276534   1.665229706048790 
  6.256761990322395   0.715298607728839   1.665750239872935 
  5.003340236284613   2.870570893840684   1.666249333275240 
  3.808982746475482   5.059868891664398   1.666793010487965 
  2.543780955425200   7.226287428182392   1.666398312626355 
  1.220531034567284   9.399046736087001   1.665491413892370 
 -0.010401250912848  11.566540879440941   1.665887775269010 
  1.244672903651709  13.737401103115097   1.665060323810940 
  8.756419787228227   0.725108327522422   1.664540804379105 
  7.495242650818543   2.892303165569817   1.664608566829470 
  6.191913847583514   5.048755108103661   1.666227177140190 
  2.488994995579275  11.563589851882030   1.664098285012740 
  3.754046085560987  13.737277012511202   1.664601714595515 
 11.265969361643020   0.726244235777422   1.665150743982315 
 10.006699105611359   2.892439966380235   1.665269444030565 
  8.740029050961880   5.048558322515546   1.664717119820430 
  7.578798148433402   7.153907197222663   1.662910147416255 
  6.288148029563853   9.562795888109173   1.663158950499195 
  5.009989800920566  11.590742269969706   1.663657335342735 
  6.263303543801762  13.750920765011665   1.664526806564130 
 13.771129960579206   0.730791989182400   1.665455874948900 
 12.516833143679396   2.896548910982909   1.666066971011790 
 11.257691469108700   5.059868891664398   1.665114556261155 
 10.003470705350477   7.223797036101817   1.664575763266305 
  8.787414266514457   9.404997447460081   1.665851366174415 
  7.523633114634799  11.591331276541103   1.665214590863805 
  7.516212837798022  14.470514973650165   1.665156244888800 
 15.024901266187589   1.453212914253100   1.665628989822810 
 13.771623441655215   3.618084788809623   1.665997672114245 
 12.515538086144790   5.782265083107081   1.664958305518590 
 11.264969870666269   7.950633858603722   1.664810565800130 
 10.035503589267686  10.127831821810618   1.666458965976405 
  8.778547448052336  12.306362936391070   1.665749648035770 
 -7.507254731962463  14.463173172466462   1.665086395494630 
  0.003985102539728   1.452539479450188   1.665129040567005 
 -1.248178318781481   3.618874591584188   1.664866557550440 
 -2.501594644010251   5.783623793397297   1.665141902181600 
 -3.758579314778125   7.949479724669928   1.665009102376995 
 -5.007052383780819  10.119737783328796   1.665390413956950 
 -6.255527625516658  12.290608394732056   1.665201654276570 
 -5.009690976188720  14.447921569515890   1.665322716260130 
  2.506519953273159   1.440614829865816   1.665913462245315 
  1.257985095865729   3.615944709842638   1.665011093547045 
  0.010570860402805   5.783618665325770   1.664911965589020 
 -1.253707994459049   7.951879301715113   1.666065794468085 
 -2.516382716455659  10.119737783328796   1.666113190745430 
 -3.759885320341437  12.285013214233864   1.664990294578560 
 -2.507432547625220  14.446884269062526   1.665628450944150 
  5.005624057705117   1.416106918379686   1.666757816110515 
  3.768719735187533   3.579172732712510   1.666358288074035 
  2.524398791955401   5.780855944042898   1.666231744079220 
  1.248957580459435   7.967272017517885   1.666063757656110 
 -0.032409997658592  10.127461422049322   1.666332818236260 
 -1.262756383061443  12.289630211824406   1.665870957303675 
 -0.006809916608148  14.457759607161424   1.665116536304055 
  7.505942802728469   1.437556490828254   1.665100930090980 
  6.241646733091313   3.578082943522858   1.665629646980220 
  2.446828007242123  10.129063730386020   1.663659172194330 
  1.238092813657982  12.295910826993081   1.665439275672750 
  2.498370037621697  14.461241460851294   1.665234723384855 
 10.011506261190656   1.445310295039483   1.665081111432585 
  8.757658074972795   3.606019726045537   1.664996903786340 
  7.484877712015790   5.768075161819561   1.665059710351980 
  5.041412460664357  10.143482041628420   1.662493944834930 
  3.749874608600619  12.296006633383641   1.664171525743440 
  5.007379760431508  14.465735782461069   1.664972727781890 
 12.517591211285456   1.450746261279842   1.665937035198630 
 11.263640569445762   3.616301189116731   1.665998533068255 
 10.003074261744976   5.780473742509433   1.664969415497295 
  8.757263871117138   7.973331985867290   1.665066473149305 
  7.571699697533037  10.144136930820759   1.665210899159355 
  6.266433137059593  12.310132166595858   1.664556849838440 
  5.014106190765518   5.729586360344799   1.668559784280300 
  3.767545655909691   7.897360104861578   1.666749719817165 
  4.926067830204853   7.126032991983384   1.671222610733295 
  3.756287187761354   9.318235220883142   1.661445762329070 
