B C N                                   
   1.0000000000000000     
     8.7639499999999995  -15.1796066749929999    0.0000000000000000
     8.7639499999999995   15.1796066749929999    0.0000000000000000
     0.0000000000000000    0.0000000000000000   15.0000000000000000
   B    C    N 
    46     4    47
Selective dynamics
Direct
  0.9054575022191685  0.9532865563301335  0.1110104163259202   T   T   T
  0.9050664445496397  0.0957345565907916  0.1110419326548543   T   T   T
  0.9048731261831405  0.2383516823772544  0.1110665114742833   T   T   T
  0.9044968529260512  0.3809232483363853  0.1109972203679060   T   T   T
  0.9045733070795317  0.5237707424726329  0.1109873710533421   T   T   T
  0.9061444906633032  0.6671998845987988  0.1110972643984272   T   T   T
  0.9061912380902967  0.8107168518842128  0.1110499765357179   T   T   T
  0.0480982999958316  0.9528028941812451  0.1110057596996420   T   T   T
  0.0480724537456764  0.0956901921472771  0.1110086027044671   T   T   T
  0.0479909116798410  0.2384037128936880  0.1109911038366956   T   T   T
  0.0477856508765509  0.3810127572623608  0.1110094601454397   T   T   T
  0.0474132636640663  0.5236947105991790  0.1110006068251328   T   T   T
  0.0476714808706286  0.6666014686852952  0.1110260275971296   T   T   T
  0.0479497509505384  0.8096789763979553  0.1110134436184379   T   T   T
  0.1900866864371449  0.9517981512206976  0.1110215144173417   T   T   T
  0.1904540368837545  0.0949046217540717  0.1110608974830214   T   T   T
  0.1908757893112206  0.2382106985551556  0.1110007395698034   T   T   T
  0.1911092973898023  0.3810124194359840  0.1109941310392681   T   T   T
  0.1903999715282193  0.5238527895992855  0.1110710529645392   T   T   T
  0.1897689179466732  0.6666368354727823  0.1110742127163617   T   T   T
  0.1901465872063625  0.8093103778816702  0.1109993529719042   T   T   T
  0.3328111167948919  0.9517298160868846  0.1110418967296101   T   T   T
  0.3322254102449788  0.0932900929977700  0.1111171877407013   T   T   T
  0.3329067415888540  0.2357882394020667  0.1110905525382693   T   T   T
  0.3344369563607147  0.3808304172707093  0.1110821162719483   T   T   T
  0.3336888175126675  0.5248668287725224  0.1110709171770741   T   T   T
  0.3317386897785247  0.6671754834552630  0.1110888545490843   T   T   T
  0.3327646168666049  0.8096145358015294  0.1110580638202454   T   T   T
  0.4758346113604718  0.9524462600851877  0.1110077690869373   T   T   T
  0.4755798715010660  0.0947031449238056  0.1110067286727320   T   T   T
  0.4739560291716105  0.2357164464226454  0.1110419764653479   T   T   T
  0.4732367071137600  0.6672810400991870  0.1109106114796218   T   T   T
  0.4756496921795504  0.8100282892869219  0.1110292850448499   T   T   T
  0.6188745764101932  0.9526756371543317  0.1110156482256571   T   T   T
  0.6187824296746527  0.0952139489503687  0.1110054074288385   T   T   T
  0.6184194646539725  0.2375568618642851  0.1109997935857560   T   T   T
  0.6170207189337192  0.3799884466915638  0.1110039806901319   T   T   T
  0.6217376039296554  0.6682308875854298  0.1108329296556623   T   T   T
  0.6189547720115923  0.8100346008068851  0.1109447683828960   T   T   T
  0.7621663866442242  0.9529717134431325  0.1109981818521256   T   T   T
  0.7619383928343592  0.0955720587721023  0.1110624690132415   T   T   T
  0.7617291880061601  0.2382341826467883  0.1110665688712171   T   T   T
  0.7610970129351728  0.3808052386516810  0.1109979610331531   T   T   T
  0.7622515669016758  0.5252660465176954  0.1110044315432869   T   T   T
  0.7661168699752284  0.6682740302838120  0.1110140599439569   T   T   T
  0.7629944977552082  0.8109651607031100  0.1109704566558961   T   T   T
  0.4747907289667214  0.3774528868250384  0.1112373189520199   T   T   T
  0.4750762292310484  0.5202611815938315  0.1111166479878107   T   T   T
  0.5157654309061885  0.4694478022097093  0.1114148407155529   T   T   T
  0.5212360180575210  0.6138653932472409  0.1107630508219380   T   T   T
  0.9531689543306090  0.9057136354799612  0.1109988247880786   T   T   T
  0.9530986226055393  0.0484776353362853  0.1110086180127967   T   T   T
  0.9529100524098774  0.1910194393976876  0.1110283109188036   T   T   T
  0.9525657401474149  0.3335548142275977  0.1110100724759507   T   T   T
  0.9520733472007726  0.4760461640637347  0.1109549364303473   T   T   T
  0.9526177693062819  0.6189108668855449  0.1110258659989402   T   T   T
  0.9529740460969399  0.7623272567807408  0.1110621597498965   T   T   T
  0.0953446929692801  0.9048997589037997  0.1109760946398381   T   T   T
  0.0958397932469879  0.0482219380122961  0.1110056998814511   T   T   T
  0.0962529932097365  0.1912077619177239  0.1109692328859226   T   T   T
  0.0962490963796678  0.3337315544750752  0.1109655062712159   T   T   T
  0.0954801616980484  0.4761340728340944  0.1110059396802035   T   T   T
  0.0949346560602650  0.6188021259707797  0.1110150588054587   T   T   T
  0.0951818252724357  0.7618067033533362  0.1109864450479249   T   T   T
  0.2378444921548446  0.9045543963632221  0.1109901539905036   T   T   T
  0.2378004719892947  0.0472768499517437  0.1110695576009649   T   T   T
  0.2389841469584494  0.1910090115542067  0.1110362427181547   T   T   T
  0.2401472949760872  0.3338838100926292  0.1109829154554139   T   T   T
  0.2392478037638531  0.4762114445624115  0.1110385449606606   T   T   T
  0.2372800763891872  0.6188401181037267  0.1110860662584557   T   T   T
  0.2377303415526818  0.7617631886014117  0.1110271243063165   T   T   T
  0.3806427780871114  0.9046782881337530  0.1110153137365862   T   T   T
  0.3805213307952277  0.0471223413783976  0.1110500159915287   T   T   T
  0.3800036008062266  0.1891070668233882  0.1110832888850163   T   T   T
  0.3839763698527560  0.3333188015705608  0.1111195340325313   T   T   T
  0.3831537119294301  0.4760523498996146  0.1110932208417567   T   T   T
  0.3792281561266834  0.6191890829141798  0.1110327609261576   T   T   T
  0.3803960679502422  0.7619789581567747  0.1110591850179340   T   T   T
  0.5235062459564985  0.9049905835667017  0.1110040215873957   T   T   T
  0.5234546794148208  0.0477685847234083  0.1109693869586073   T   T   T
  0.5228872062276909  0.1905387423729877  0.1109739044552980   T   T   T
  0.5195610408731037  0.3326011810583310  0.1110818118093458   T   T   T
  0.5228941692593911  0.7617845507770521  0.1109398856675164   T   T   T
  0.6665141196001528  0.9049824087432993  0.1109734476397006   T   T   T
  0.6665064920193711  0.0478434159281498  0.1110100495988208   T   T   T
  0.6661750750983237  0.1905477545175938  0.1110179629353706   T   T   T
  0.6649293730273340  0.3325882172449512  0.1109811413213616   T   T   T
  0.6680268825419773  0.4712840951938482  0.1108606764944170   T   T   T
  0.6737390565766064  0.6299765265896430  0.1108772633666127   T   T   T
  0.6676160846761494  0.7635732939684285  0.1109104890228492   T   T   T
  0.8102739831403860  0.9058812299573517  0.1109684537709424   T   T   T
  0.8097406370560908  0.0481430121892624  0.1110303916632601   T   T   T
  0.8095183357479457  0.1908184429939591  0.1110711314007858   T   T   T
  0.8089393558712364  0.3334081246233624  0.1110076370840772   T   T   T
  0.8086611555699844  0.4758882881993416  0.1109717175510866   T   T   T
  0.8111292325112122  0.6195811030435872  0.1110567577449609   T   T   T
  0.8110436131773849  0.7636120964607471  0.1110143060575870   T   T   T

  0.00000000E+00  0.00000000E+00  0.00000000E+00
  0.00000000E+00  0.00000000E+00  0.00000000E+00
  0.00000000E+00  0.00000000E+00  0.00000000E+00
  0.00000000E+00  0.00000000E+00  0.00000000E+00
  0.00000000E+00  0.00000000E+00  0.00000000E+00
  0.00000000E+00  0.00000000E+00  0.00000000E+00
  0.00000000E+00  0.00000000E+00  0.00000000E+00
  0.00000000E+00  0.00000000E+00  0.00000000E+00
  0.00000000E+00  0.00000000E+00  0.00000000E+00
  0.00000000E+00  0.00000000E+00  0.00000000E+00
  0.00000000E+00  0.00000000E+00  0.00000000E+00
  0.00000000E+00  0.00000000E+00  0.00000000E+00
  0.00000000E+00  0.00000000E+00  0.00000000E+00
  0.00000000E+00  0.00000000E+00  0.00000000E+00
  0.00000000E+00  0.00000000E+00  0.00000000E+00
  0.00000000E+00  0.00000000E+00  0.00000000E+00
  0.00000000E+00  0.00000000E+00  0.00000000E+00
  0.00000000E+00  0.00000000E+00  0.00000000E+00
  0.00000000E+00  0.00000000E+00  0.00000000E+00
  0.00000000E+00  0.00000000E+00  0.00000000E+00
  0.00000000E+00  0.00000000E+00  0.00000000E+00
  0.00000000E+00  0.00000000E+00  0.00000000E+00
  0.00000000E+00  0.00000000E+00  0.00000000E+00
  0.00000000E+00  0.00000000E+00  0.00000000E+00
  0.00000000E+00  0.00000000E+00  0.00000000E+00
  0.00000000E+00  0.00000000E+00  0.00000000E+00
  0.00000000E+00  0.00000000E+00  0.00000000E+00
  0.00000000E+00  0.00000000E+00  0.00000000E+00
  0.00000000E+00  0.00000000E+00  0.00000000E+00
  0.00000000E+00  0.00000000E+00  0.00000000E+00
  0.00000000E+00  0.00000000E+00  0.00000000E+00
  0.00000000E+00  0.00000000E+00  0.00000000E+00
  0.00000000E+00  0.00000000E+00  0.00000000E+00
  0.00000000E+00  0.00000000E+00  0.00000000E+00
  0.00000000E+00  0.00000000E+00  0.00000000E+00
  0.00000000E+00  0.00000000E+00  0.00000000E+00
  0.00000000E+00  0.00000000E+00  0.00000000E+00
  0.00000000E+00  0.00000000E+00  0.00000000E+00
  0.00000000E+00  0.00000000E+00  0.00000000E+00
  0.00000000E+00  0.00000000E+00  0.00000000E+00
  0.00000000E+00  0.00000000E+00  0.00000000E+00
  0.00000000E+00  0.00000000E+00  0.00000000E+00
  0.00000000E+00  0.00000000E+00  0.00000000E+00
  0.00000000E+00  0.00000000E+00  0.00000000E+00
  0.00000000E+00  0.00000000E+00  0.00000000E+00
  0.00000000E+00  0.00000000E+00  0.00000000E+00
  0.00000000E+00  0.00000000E+00  0.00000000E+00
  0.00000000E+00  0.00000000E+00  0.00000000E+00
  0.00000000E+00  0.00000000E+00  0.00000000E+00
  0.00000000E+00  0.00000000E+00  0.00000000E+00
  0.00000000E+00  0.00000000E+00  0.00000000E+00
  0.00000000E+00  0.00000000E+00  0.00000000E+00
  0.00000000E+00  0.00000000E+00  0.00000000E+00
  0.00000000E+00  0.00000000E+00  0.00000000E+00
  0.00000000E+00  0.00000000E+00  0.00000000E+00
  0.00000000E+00  0.00000000E+00  0.00000000E+00
  0.00000000E+00  0.00000000E+00  0.00000000E+00
  0.00000000E+00  0.00000000E+00  0.00000000E+00
  0.00000000E+00  0.00000000E+00  0.00000000E+00
  0.00000000E+00  0.00000000E+00  0.00000000E+00
  0.00000000E+00  0.00000000E+00  0.00000000E+00
  0.00000000E+00  0.00000000E+00  0.00000000E+00
  0.00000000E+00  0.00000000E+00  0.00000000E+00
  0.00000000E+00  0.00000000E+00  0.00000000E+00
  0.00000000E+00  0.00000000E+00  0.00000000E+00
  0.00000000E+00  0.00000000E+00  0.00000000E+00
  0.00000000E+00  0.00000000E+00  0.00000000E+00
  0.00000000E+00  0.00000000E+00  0.00000000E+00
  0.00000000E+00  0.00000000E+00  0.00000000E+00
  0.00000000E+00  0.00000000E+00  0.00000000E+00
  0.00000000E+00  0.00000000E+00  0.00000000E+00
  0.00000000E+00  0.00000000E+00  0.00000000E+00
  0.00000000E+00  0.00000000E+00  0.00000000E+00
  0.00000000E+00  0.00000000E+00  0.00000000E+00
  0.00000000E+00  0.00000000E+00  0.00000000E+00
  0.00000000E+00  0.00000000E+00  0.00000000E+00
  0.00000000E+00  0.00000000E+00  0.00000000E+00
  0.00000000E+00  0.00000000E+00  0.00000000E+00
  0.00000000E+00  0.00000000E+00  0.00000000E+00
  0.00000000E+00  0.00000000E+00  0.00000000E+00
  0.00000000E+00  0.00000000E+00  0.00000000E+00
  0.00000000E+00  0.00000000E+00  0.00000000E+00
  0.00000000E+00  0.00000000E+00  0.00000000E+00
  0.00000000E+00  0.00000000E+00  0.00000000E+00
  0.00000000E+00  0.00000000E+00  0.00000000E+00
  0.00000000E+00  0.00000000E+00  0.00000000E+00
  0.00000000E+00  0.00000000E+00  0.00000000E+00
  0.00000000E+00  0.00000000E+00  0.00000000E+00
  0.00000000E+00  0.00000000E+00  0.00000000E+00
  0.00000000E+00  0.00000000E+00  0.00000000E+00
  0.00000000E+00  0.00000000E+00  0.00000000E+00
  0.00000000E+00  0.00000000E+00  0.00000000E+00
  0.00000000E+00  0.00000000E+00  0.00000000E+00
  0.00000000E+00  0.00000000E+00  0.00000000E+00
  0.00000000E+00  0.00000000E+00  0.00000000E+00
  0.00000000E+00  0.00000000E+00  0.00000000E+00
  0.00000000E+00  0.00000000E+00  0.00000000E+00
