B C N                                   
   1.0000000000000000     
     8.7639499999999995  -15.1796066749929999    0.0000000000000000
     8.7639499999999995   15.1796066749929999    0.0000000000000000
     0.0000000000000000    0.0000000000000000   15.0000000000000000
   B    C    N 
    46     3    47
Selective dynamics
Direct
  0.9048130785988189  0.9532930205639168  0.1109506094448894   T   T   T
  0.9062495777035777  0.0972850090261025  0.1109976434317154   T   T   T
  0.9062249002887107  0.2400595218778149  0.1110777246604944   T   T   T
  0.9052880874234805  0.3822190011460455  0.1110532562511592   T   T   T
  0.9029224544095307  0.5236853163137589  0.1109931414778357   T   T   T
  0.8999657660060207  0.6652536831891184  0.1109899783896628   T   T   T
  0.9024801645837166  0.8088417348225347  0.1110216383222457   T   T   T
  0.0464511283659052  0.9512673945961218  0.1109504432389667   T   T   T
  0.0477662358432297  0.0951871529389694  0.1109574942197336   T   T   T
  0.0491974353076123  0.2393194010465196  0.1110259574742648   T   T   T
  0.0495104588113568  0.3822348804810707  0.1110236892565230   T   T   T
  0.0484259590151514  0.5241199298989376  0.1110141760440427   T   T   T
  0.0463474918936849  0.6656470714399986  0.1109554628086127   T   T   T
  0.0455364336033038  0.8078208397782002  0.1109677721775033   T   T   T
  0.1891577831684010  0.9503289231723978  0.1110585869495639   T   T   T
  0.1896624772433183  0.0934730125403206  0.1110465136745455   T   T   T
  0.1905689779675117  0.2368607473741969  0.1109780821596085   T   T   T
  0.1931771099105117  0.3817480424933824  0.1109298454353226   T   T   T
  0.1935254839919750  0.5242649623739678  0.1109773960572994   T   T   T
  0.1925910988948795  0.6659799066916586  0.1110025497951057   T   T   T
  0.1898862879277536  0.8079404995559120  0.1109729734554708   T   T   T
  0.3329418710228884  0.9508236104288859  0.1110307170253960   T   T   T
  0.3322135429984051  0.0926700668635675  0.1111297457013890   T   T   T
  0.3326258647486499  0.2347443439600164  0.1111958553867866   T   T   T
  0.3338852594202850  0.3774444536836165  0.1110127450559102   T   T   T
  0.3383669284604657  0.5250478488381970  0.1108846185181906   T   T   T
  0.3398967890569768  0.6666925408898341  0.1110369391846115   T   T   T
  0.3342973239063968  0.8086301890110481  0.1110116586337868   T   T   T
  0.4767978333286797  0.9529052986694068  0.1109416209931560   T   T   T
  0.4760424693269989  0.0947140442489310  0.1109945099548129   T   T   T
  0.4751023289257330  0.2358237540993814  0.1111184279866456   T   T   T
  0.4913769342153531  0.6711033857513978  0.1109903879878410   T   T   T
  0.4782376436662246  0.8111117464029393  0.1110272578464827   T   T   T
  0.6204429572406546  0.9557427424656346  0.1108972414062733   T   T   T
  0.6197349054269812  0.0970223028229540  0.1109153182370356   T   T   T
  0.6191613163947745  0.2389518570264066  0.1110316824431741   T   T   T
  0.6191041276215932  0.3836060877723594  0.1110477275338905   T   T   T
  0.6064469962366736  0.6714427150475222  0.1109812684826632   T   T   T
  0.6218478041045511  0.8159850000752311  0.1110125990767159   T   T   T
  0.7638043163910729  0.9557840963548926  0.1109247305441232   T   T   T
  0.7633246328065264  0.0978611225747314  0.1109382922274839   T   T   T
  0.7626615700520684  0.2399465085990222  0.1110381709928142   T   T   T
  0.7609337952883005  0.3819347127138052  0.1110470319972159   T   T   T
  0.7547825886548339  0.5216502580697269  0.1109986584238230   T   T   T
  0.7546803711423903  0.6657374372576119  0.1109941733698449   T   T   T
  0.7611988354973910  0.8114200677412735  0.1110530248004976   T   T   T
  0.4759573066807121  0.3749790794124945  0.1114122555384633   T   T   T
  0.4692916714778053  0.5050197514372750  0.1118976880128254   T   T   T
  0.5104557239008268  0.4638034334891558  0.1117776817873704   T   T   T
  0.9514088159387307  0.9046529468226535  0.1109493501753083   T   T   T
  0.9529031369785774  0.0486672211732768  0.1109369130547981   T   T   T
  0.9540295910186027  0.1923886025462498  0.1110374324520287   T   T   T
  0.9540366085970651  0.3350407490477487  0.1110550131730625   T   T   T
  0.9529916262513861  0.4772075767118439  0.1110061369100312   T   T   T
  0.9507389761289717  0.6191140784582893  0.1109548666395429   T   T   T
  0.9502290432706059  0.7612050406454647  0.1109849081601883   T   T   T
  0.0938753127861064  0.9032731954720582  0.1109648424769424   T   T   T
  0.0945362766238858  0.0466524640676129  0.1109399825292967   T   T   T
  0.0955984691363433  0.1903898753394893  0.1109662635993257   T   T   T
  0.0974795023717542  0.3345761394209239  0.1109816720764983   T   T   T
  0.0975789709464771  0.4773380456446070  0.1109881988413679   T   T   T
  0.0964631845818346  0.6192163573196885  0.1109721263656232   T   T   T
  0.0944419207964051  0.7609397382382953  0.1109395571799420   T   T   T
  0.2374313725736731  0.9030958787035639  0.1110050913795411   T   T   T
  0.2367881645785490  0.0453298438961171  0.1110916106429703   T   T   T
  0.2373452431401960  0.1885433334979272  0.1110426512004497   T   T   T
  0.2388804020169606  0.3318464152802856  0.1109143491540212   T   T   T
  0.2417271740117518  0.4772062262105579  0.1108969710754925   T   T   T
  0.2427716496587585  0.6195408247580230  0.1109965511418497   T   T   T
  0.2389207676414998  0.7611270900445208  0.1109933576855363   T   T   T
  0.3813045668192558  0.9038883704429305  0.1109719309256264   T   T   T
  0.3803592796945603  0.0456769438864372  0.1110389806137489   T   T   T
  0.3794195076421299  0.1868793484286151  0.1111654643443816   T   T   T
  0.3812964348782921  0.3291348679815438  0.1112918403946387   T   T   T
  0.3801757911047420  0.4732151339295456  0.1108523632739606   T   T   T
  0.3920118833336456  0.6208157853556133  0.1109725308257817   T   T   T
  0.3832705381001743  0.7619072265664985  0.1110424038714034   T   T   T
  0.5251429117955739  0.9064559757727152  0.1109247768459321   T   T   T
  0.5242233963857995  0.0478604246053194  0.1109001432726815   T   T   T
  0.5234666019598284  0.1892191945473189  0.1110360827988748   T   T   T
  0.5209715910325111  0.3293400466135469  0.1110838697622281   T   T   T
  0.5271913191096428  0.7656180865944837  0.1110295020938656   T   T   T
  0.6690565563208130  0.9099871491885644  0.1109002939880179   T   T   T
  0.6680374522939738  0.0503817048262456  0.1108696915128446   T   T   T
  0.6673239304560117  0.1915935808099402  0.1109684209170087   T   T   T
  0.6657786993770007  0.3328671341250256  0.1110522017655479   T   T   T
  0.6632230897919986  0.4745754102943782  0.1109700705466428   T   T   T
  0.6606257991378570  0.6323471192231390  0.1109132814805116   T   T   T
  0.6666319607388709  0.7674097199131855  0.1110400465810383   T   T   T
  0.8101065425906524  0.9071810547395931  0.1109658631111909   T   T   T
  0.8113344573680673  0.0506612381444614  0.1109339936317304   T   T   T
  0.8109870426793180  0.1926920623621240  0.1110184363619510   T   T   T
  0.8101081981291348  0.3346580462067322  0.1110441140564932   T   T   T
  0.8083475879708423  0.4767320718783880  0.1109875406710690   T   T   T
  0.8045395174413591  0.6190823851361937  0.1109870299732846   T   T   T
  0.8073129906041354  0.7627850408649869  0.1110431519939888   T   T   T

  0.00000000E+00  0.00000000E+00  0.00000000E+00
  0.00000000E+00  0.00000000E+00  0.00000000E+00
  0.00000000E+00  0.00000000E+00  0.00000000E+00
  0.00000000E+00  0.00000000E+00  0.00000000E+00
  0.00000000E+00  0.00000000E+00  0.00000000E+00
  0.00000000E+00  0.00000000E+00  0.00000000E+00
  0.00000000E+00  0.00000000E+00  0.00000000E+00
  0.00000000E+00  0.00000000E+00  0.00000000E+00
  0.00000000E+00  0.00000000E+00  0.00000000E+00
  0.00000000E+00  0.00000000E+00  0.00000000E+00
  0.00000000E+00  0.00000000E+00  0.00000000E+00
  0.00000000E+00  0.00000000E+00  0.00000000E+00
  0.00000000E+00  0.00000000E+00  0.00000000E+00
  0.00000000E+00  0.00000000E+00  0.00000000E+00
  0.00000000E+00  0.00000000E+00  0.00000000E+00
  0.00000000E+00  0.00000000E+00  0.00000000E+00
  0.00000000E+00  0.00000000E+00  0.00000000E+00
  0.00000000E+00  0.00000000E+00  0.00000000E+00
  0.00000000E+00  0.00000000E+00  0.00000000E+00
  0.00000000E+00  0.00000000E+00  0.00000000E+00
  0.00000000E+00  0.00000000E+00  0.00000000E+00
  0.00000000E+00  0.00000000E+00  0.00000000E+00
  0.00000000E+00  0.00000000E+00  0.00000000E+00
  0.00000000E+00  0.00000000E+00  0.00000000E+00
  0.00000000E+00  0.00000000E+00  0.00000000E+00
  0.00000000E+00  0.00000000E+00  0.00000000E+00
  0.00000000E+00  0.00000000E+00  0.00000000E+00
  0.00000000E+00  0.00000000E+00  0.00000000E+00
  0.00000000E+00  0.00000000E+00  0.00000000E+00
  0.00000000E+00  0.00000000E+00  0.00000000E+00
  0.00000000E+00  0.00000000E+00  0.00000000E+00
  0.00000000E+00  0.00000000E+00  0.00000000E+00
  0.00000000E+00  0.00000000E+00  0.00000000E+00
  0.00000000E+00  0.00000000E+00  0.00000000E+00
  0.00000000E+00  0.00000000E+00  0.00000000E+00
  0.00000000E+00  0.00000000E+00  0.00000000E+00
  0.00000000E+00  0.00000000E+00  0.00000000E+00
  0.00000000E+00  0.00000000E+00  0.00000000E+00
  0.00000000E+00  0.00000000E+00  0.00000000E+00
  0.00000000E+00  0.00000000E+00  0.00000000E+00
  0.00000000E+00  0.00000000E+00  0.00000000E+00
  0.00000000E+00  0.00000000E+00  0.00000000E+00
  0.00000000E+00  0.00000000E+00  0.00000000E+00
  0.00000000E+00  0.00000000E+00  0.00000000E+00
  0.00000000E+00  0.00000000E+00  0.00000000E+00
  0.00000000E+00  0.00000000E+00  0.00000000E+00
  0.00000000E+00  0.00000000E+00  0.00000000E+00
  0.00000000E+00  0.00000000E+00  0.00000000E+00
  0.00000000E+00  0.00000000E+00  0.00000000E+00
  0.00000000E+00  0.00000000E+00  0.00000000E+00
  0.00000000E+00  0.00000000E+00  0.00000000E+00
  0.00000000E+00  0.00000000E+00  0.00000000E+00
  0.00000000E+00  0.00000000E+00  0.00000000E+00
  0.00000000E+00  0.00000000E+00  0.00000000E+00
  0.00000000E+00  0.00000000E+00  0.00000000E+00
  0.00000000E+00  0.00000000E+00  0.00000000E+00
  0.00000000E+00  0.00000000E+00  0.00000000E+00
  0.00000000E+00  0.00000000E+00  0.00000000E+00
  0.00000000E+00  0.00000000E+00  0.00000000E+00
  0.00000000E+00  0.00000000E+00  0.00000000E+00
  0.00000000E+00  0.00000000E+00  0.00000000E+00
  0.00000000E+00  0.00000000E+00  0.00000000E+00
  0.00000000E+00  0.00000000E+00  0.00000000E+00
  0.00000000E+00  0.00000000E+00  0.00000000E+00
  0.00000000E+00  0.00000000E+00  0.00000000E+00
  0.00000000E+00  0.00000000E+00  0.00000000E+00
  0.00000000E+00  0.00000000E+00  0.00000000E+00
  0.00000000E+00  0.00000000E+00  0.00000000E+00
  0.00000000E+00  0.00000000E+00  0.00000000E+00
  0.00000000E+00  0.00000000E+00  0.00000000E+00
  0.00000000E+00  0.00000000E+00  0.00000000E+00
  0.00000000E+00  0.00000000E+00  0.00000000E+00
  0.00000000E+00  0.00000000E+00  0.00000000E+00
  0.00000000E+00  0.00000000E+00  0.00000000E+00
  0.00000000E+00  0.00000000E+00  0.00000000E+00
  0.00000000E+00  0.00000000E+00  0.00000000E+00
  0.00000000E+00  0.00000000E+00  0.00000000E+00
  0.00000000E+00  0.00000000E+00  0.00000000E+00
  0.00000000E+00  0.00000000E+00  0.00000000E+00
  0.00000000E+00  0.00000000E+00  0.00000000E+00
  0.00000000E+00  0.00000000E+00  0.00000000E+00
  0.00000000E+00  0.00000000E+00  0.00000000E+00
  0.00000000E+00  0.00000000E+00  0.00000000E+00
  0.00000000E+00  0.00000000E+00  0.00000000E+00
  0.00000000E+00  0.00000000E+00  0.00000000E+00
  0.00000000E+00  0.00000000E+00  0.00000000E+00
  0.00000000E+00  0.00000000E+00  0.00000000E+00
  0.00000000E+00  0.00000000E+00  0.00000000E+00
  0.00000000E+00  0.00000000E+00  0.00000000E+00
  0.00000000E+00  0.00000000E+00  0.00000000E+00
  0.00000000E+00  0.00000000E+00  0.00000000E+00
  0.00000000E+00  0.00000000E+00  0.00000000E+00
  0.00000000E+00  0.00000000E+00  0.00000000E+00
  0.00000000E+00  0.00000000E+00  0.00000000E+00
  0.00000000E+00  0.00000000E+00  0.00000000E+00
  0.00000000E+00  0.00000000E+00  0.00000000E+00
