 N B Se 
 1.0
 17.527899999999772   0.000000000000000   0.000000000000000
 -8.763949999999658  15.179606674993195   0.000000000000000
  0.000000000000001   0.000000000000002  15.000000000000000
 N B Se 
  48  48   1
Cartesian
  8.743085028417383  13.784576468470124   1.816146761039355 
 16.261043682576371   0.776275781718474   1.827552711452595 
 15.010955586460685   2.944653361033454   1.800981212961765 
 13.757706229620497   5.112890625970168   1.753159197080130 
 12.499842602229283   7.282719940901185   1.714609870651065 
 11.243829156879823   9.451886889025115   1.711707630294885 
  9.991201565651393  11.617595352573641   1.768301287709190 
 -6.282326407847993  13.795438742412204   1.810500584822175 
  1.237901327363624   0.787019794041546   1.811703572713680 
 -0.012246094657078   2.952390565062790   1.786793500764300 
 -1.269510140016196   5.117213759176826   1.750300708654920 
 -2.533656019989196   7.286150105501494   1.725002166968760 
 -3.786734909483709   9.457334108538385   1.732783838031015 
 -5.035755809063326  11.626592079080639   1.772565563533890 
 -3.781278069433727  13.800180237069453   1.768831240577835 
  3.738944370002003   0.791846295183477   1.759131057389055 
  2.499161941318389   2.968442732638439   1.738680807543195 
  1.235624741922905   5.123703940783644   1.703500858956855 
 -0.045673011029446   7.290034696386361   1.680844407376515 
 -1.291839779180592   9.462480156394909   1.709687412947595 
 -2.536104734711961  11.631144396541691   1.740832803560790 
 -1.278345136361471  13.799905502002932   1.729987973083110 
  6.240759921762546   0.788861826082545   1.700081071109475 
  4.998952267911312   2.961606693017316   1.623831166799295 
  3.768748360369685   5.152700426777955   1.611323912020920 
  2.344489582438619   7.239543988243629   1.517412083853435 
  1.197788150382255   9.471711961021043   1.674890950647510 
 -0.035446585584866  11.634262183113513   1.708860846888990 
  1.229357464416066  13.793521656184764   1.730992655553390 
  8.747237960173395   0.781108921704586   1.712682572481450 
  7.504430218132514   2.948119670882319   1.605982956975165 
  6.273047480696656   5.114598094659534   1.400128367784420 
  3.715694260639776   9.578629945718262   1.478348830822815 
  2.472626090882911  11.630185364002335   1.676407427347005 
  3.737714910533303  13.782638988043139   1.757391692156865 
 11.254094003291758   0.773557330190219   1.760756063277765 
 10.008843831445065   2.940302547429753   1.690564281634875 
  8.770983422701983   5.102786799351352   1.547047562391525 
  7.520167044755886   7.262635839639644   1.399174099405155 
  6.234331167305293   9.410038456545983   1.604288012704410 
  4.986884302947587  11.610482515979259   1.693906160314500 
  6.241318120123279  13.779557994621445   1.793224287957030 
 13.757739629003689   0.771834260946382   1.805906787438630 
 12.509166565889558   2.941219108009676   1.768289384749380 
 11.261217696623161   5.109007307949436   1.691057294332050 
 10.005808305495286   7.276568819281299   1.621481019533370 
  8.744112680498418   9.440804000295801   1.639820913576255 
  7.486472916333838  11.600371714666204   1.749350414084655 
  7.492994002442174  14.507823146525869   1.816661801737785 
 15.009206680764910   1.497957685875516   1.814818089257205 
 13.759375627009360   3.666630459892280   1.775818536325035 
 12.507504034223675   5.836230978013805   1.721068515479805 
 11.249806013705751   8.005673349570181   1.685625060925620 
  9.990895642194488  10.171074251425969   1.708832195876310 
  8.737882914325613  12.334494245534231   1.780764895444410 
 -7.533152010123748  14.516903826407079   1.816934758034460 
 -0.015175005594333   1.505306298958246   1.812224537493555 
 -1.266320576052417   3.671219094098899   1.781500600118400 
 -2.522327926278791   5.839202879189188   1.743468050142885 
 -3.783000652548957   8.010666169422604   1.725709375724685 
 -5.036853441897448  10.180101207450210   1.742152868681355 
 -6.286770163082792  12.347688329029488   1.788416903465745 
 -5.031323126096364  14.523705530277940   1.784093041895310 
  2.490458433499341   1.518194977276707   1.772214007943565 
  1.240560105723190   3.678355772394823   1.744343503566285 
 -0.020845690087040   5.843690924579906   1.710869751770445 
 -1.292054352627704   8.016352352896126   1.704933738050985 
 -2.540546891490893  10.185218009966530   1.729203624235845 
 -3.786165630115821  12.353813906959799   1.764453764217840 
 -2.529134220246193  14.523816249691787   1.735718388695640 
  4.991023665900966   1.515952094736747   1.695498864193815 
  3.755244367871563   3.698589636625008   1.666501976323155 
  2.509234232010819   5.836779314031421   1.633606307146425 
  1.192881188669549   8.040623344872031   1.637906639866440 
 -0.048255172723033  10.192502137356810   1.702847272444440 
 -1.285693059103151  12.356130191196176   1.727703325105650 
 -0.022665955170524  14.517355905632025   1.726502206225110 
  7.496521842622839   1.505809502481939   1.674852463612680 
  6.255890222118839   3.674331689878273   1.541127972226785 
  5.028674297831007   5.861906377306700   1.377693906896295 
  2.442307182890188  10.178080159120265   1.620717809521845 
  1.220008109221097  12.351059888915177   1.706467859776650 
  2.486623881188541  14.508651478232727   1.751415274502730 
 10.003336973409189   1.497157345014842   1.723137246262995 
  8.761059796161000   3.661827672721421   1.612200762225780 
  7.530534575226987   5.820871491967363   1.429737866071905 
  6.261014409701310   7.973377340694512   1.326972707266350 
  5.008740614312251  10.151448787600396   1.609965713325525 
  3.734407785589888  12.336779837554607   1.708165285845765 
  4.990801147480804  14.504825642427976   1.787907063402555 
 12.506948610305889   1.495493356514219   1.780735126047180 
 11.259395281222458   3.663763399603174   1.716984857647260 
 10.014103403920044   5.831088428531421   1.617419159295210 
  8.755428239274833   7.996196320568501   1.556259425084790 
  7.485121535941024  10.148393205902593   1.676620059424545 
  6.240752422303260  12.331518709311567   1.747371040597740 
  5.004926667360585   7.302623299662146  14.799583170063196 
