B N O                                   
   1.0000000000000000     
     8.7639499999999995  -15.1796066749929999    0.0000000000000000
     8.7639499999999995   15.1796066749929999    0.0000000000000000
     0.0000000000000000    0.0000000000000000   15.0000000000000000
   B    N    O 
    48    49     1
Selective dynamics
Direct
  0.9048469383829051  0.9523650574180511  0.1110130106419182   T   T   T
  0.9047958315998722  0.0952061895961350  0.1110217638112966   T   T   T
  0.9047959617756938  0.2381123277333613  0.1110567699244983   T   T   T
  0.9047958315998722  0.3810183356947454  0.1110217638112966   T   T   T
  0.9048469383829051  0.5239122862128742  0.1110130106419182   T   T   T
  0.9053083578851940  0.6668937272487357  0.1110581997785352   T   T   T
  0.9053083578851940  0.8098450358844647  0.1110581997785352   T   T   T
  0.0476773779978715  0.9523246431981116  0.1110206281782803   T   T   T
  0.0476369637779535  0.0951550828130872  0.1110130106419182   T   T   T
  0.0476549742292899  0.2380773530446364  0.1110169497207647   T   T   T
  0.0476549742292899  0.3810080264316362  0.1110169497207647   T   T   T
  0.0476369637779535  0.5239122862128742  0.1110130106419182   T   T   T
  0.0476773779978715  0.6667848516037473  0.1110206281782803   T   T   T
  0.0478009660703693  0.8096165414372009  0.1109978470774184   T   T   T
  0.1903854797588161  0.9522010551256384  0.1109978470774184   T   T   T
  0.1901569853115250  0.0946936633108070  0.1110581997785352   T   T   T
  0.1904915242318813  0.2378241536880297  0.1110440249366071   T   T   T
  0.1904059795322005  0.3809181923896031  0.1110090552012164   T   T   T
  0.1904915242318813  0.5240977757918645  0.1110440249366071   T   T   T
  0.1901569853115250  0.6668937272487357  0.1110581997785352   T   T   T
  0.1903854797588161  0.8096165414372009  0.1109978470774184   T   T   T
  0.3332171695932626  0.9523246431981078  0.1110206281782803   T   T   T
  0.3331082939482812  0.0946936633108070  0.1110581997785352   T   T   T
  0.3325483483623473  0.2365250807746911  0.1110721436303700   T   T   T
  0.3333799279875991  0.3789609833726801  0.1110286484106729   T   T   T
  0.3333799279875991  0.5258493498618888  0.1110286484106729   T   T   T
  0.3325483483623473  0.6674536728346240  0.1110721436303700   T   T   T
  0.3331082939482812  0.8098450358844647  0.1110581997785352   T   T   T
  0.4760897349841322  0.9523650574180511  0.1110130106419182   T   T   T
  0.4760897349841322  0.0951550828130872  0.1110130106419182   T   T   T
  0.4759042454051493  0.2378241536880297  0.1110440249366071   T   T   T
  0.4741526713351112  0.3789609833726801  0.1110286484106729   T   T   T
  0.4741526713351112  0.6666220932094051  0.1110286484106729   T   T   T
  0.4759042454051493  0.8095104969641397  0.1110440249366067   T   T   T
  0.6189939947643167  0.9523470469667089  0.1110169497207647   T   T   T
  0.6189836855012557  0.0952061895961350  0.1110217638112966   T   T   T
  0.6189939947643167  0.2380773530446364  0.1110169497207647   T   T   T
  0.6190838288063645  0.3809181923896031  0.1110090552012164   T   T   T
  0.6210410378233007  0.5258493498618888  0.1110286484106729   T   T   T
  0.6210410378233007  0.6666220932094051  0.1110286484106729   T   T   T
  0.6190838288063645  0.8095960416637972  0.1110090552012164   T   T   T
  0.7619246681513773  0.9523470469667089  0.1110169497207647   T   T   T
  0.7618896934626302  0.0952060594202827  0.1110567699244983   T   T   T
  0.7618896934626302  0.2381123277333613  0.1110567699244983   T   T   T
  0.7619246681513773  0.3810080264316362  0.1110169497207647   T   T   T
  0.7621778675079336  0.5240977757918645  0.1110440249366071   T   T   T
  0.7634769404213073  0.6674536728346240  0.1110721436303700   T   T   T
  0.7621778675079336  0.8095104969641397  0.1110440249366071   T   T   T
  0.9524178438491137  0.9047877846009050  0.1110177019594111   T   T   T
  0.9524193438659952  0.0475820580520153  0.1109843076242902   T   T   T
  0.9525685076445326  0.1905418570272280  0.1110201443174571   T   T   T
  0.9525685076445326  0.3334536327353411  0.1110201443174571   T   T   T
  0.9524193438659952  0.4762642679319707  0.1109843076242902   T   T   T
  0.9524178438491137  0.6190587529231395  0.1110177019594111   T   T   T
  0.9524659998548847  0.7619473467649504  0.1110279156472261   T   T   T
  0.0952425082109903  0.9047588937070042  0.1109787665387434   T   T   T
  0.0952136173170721  0.0475835580688981  0.1110177019594111   T   T   T
  0.0956485832971500  0.1907717275247832  0.1110073022398534   T   T   T
  0.0957204915027944  0.3335745925883997  0.1109945147168612   T   T   T
  0.0956485832971500  0.4763055494463694  0.1110073022398534   T   T   T
  0.0952136173170721  0.6190587529231395  0.1110177019594111   T   T   T
  0.0952425082109903  0.7619140197349754  0.1109787665387434   T   T   T
  0.2380873821830182  0.9047588937070042  0.1109787665387434   T   T   T
  0.2380540551530661  0.0475354020631244  0.1110279156472261   T   T   T
  0.2380025208587673  0.1903002233047026  0.1110467915158699   T   T   T
  0.2390339738439870  0.3341440164450936  0.1110125884503077   T   T   T
  0.2390339738439870  0.4763186510729012  0.1110125884503077   T   T   T
  0.2380025208587673  0.6191309912290701  0.1110467915158699   T   T   T
  0.2380540551530661  0.7619473467649504  0.1110279156472261   T   T   T
  0.3809426489948174  0.9047877846009050  0.1110177019594111   T   T   T
  0.3809426489948174  0.0475835580688981  0.1110177019594111   T   T   T
  0.3808704106889432  0.1903002233047026  0.1110467915158699   T   T   T
  0.3805395551373921  0.3325064020317706  0.1110430659938529   T   T   T
  0.3788363108470296  0.4751325022604966  0.1109571629804363   T   T   T
  0.3805395551373920  0.6194618467806338  0.1110430659938529   T   T   T
  0.3808704106889440  0.7619988810592482  0.1110467915158699   T   T   T
  0.5236958524706327  0.9043528186208534  0.1110073022398534   T   T   T
  0.5237371339849818  0.0475820580520153  0.1109843076242902   T   T   T
  0.5236958524706327  0.1907717275247832  0.1110073022398534   T   T   T
  0.5236827508440682  0.3341440164450936  0.1110125884503077   T   T   T
  0.5248688996565004  0.4751325022604966  0.1109571629804363   T   T   T
  0.5248688996565004  0.6211650910709992  0.1109571629804363   T   T   T
  0.5236827508440682  0.7609674280740040  0.1110125884503077   T   T   T
  0.6664268093286108  0.9042809104152002  0.1109945147168614   T   T   T
  0.6665477691816838  0.0474328942734550  0.1110201443174571   T   T   T
  0.6665477691816838  0.1905418570272280  0.1110201443174571   T   T   T
  0.6664268093286108  0.3335745925883997  0.1109945147168614   T   T   T
  0.6658573854718928  0.4763186510729012  0.1110125884503077   T   T   T
  0.6674949998852154  0.6194618467806338  0.1110430659938529   T   T   T
  0.6658573854718928  0.7609674280740040  0.1110125884503077   T   T   T
  0.8092296743932361  0.9043528186208534  0.1110073022398534   T   T   T
  0.8094595448907782  0.0474328942734550  0.1110201443174571   T   T   T
  0.8095252739059973  0.1904761280120013  0.1110497217252529   T   T   T
  0.8094595448907782  0.3334536327353411  0.1110201443174571   T   T   T
  0.8092296743932361  0.4763055494463694  0.1110073022398534   T   T   T
  0.8097011786133109  0.6191309912290681  0.1110467915158699   T   T   T
  0.8097011786133109  0.7619988810592482  0.1110467915158699   T   T   T
  0.4761912123819982  0.5238108088150000  0.1108262824728308   T   T   T

  0.00000000E+00  0.00000000E+00  0.00000000E+00
  0.00000000E+00  0.00000000E+00  0.00000000E+00
  0.00000000E+00  0.00000000E+00  0.00000000E+00
  0.00000000E+00  0.00000000E+00  0.00000000E+00
  0.00000000E+00  0.00000000E+00  0.00000000E+00
  0.00000000E+00  0.00000000E+00  0.00000000E+00
  0.00000000E+00  0.00000000E+00  0.00000000E+00
  0.00000000E+00  0.00000000E+00  0.00000000E+00
  0.00000000E+00  0.00000000E+00  0.00000000E+00
  0.00000000E+00  0.00000000E+00  0.00000000E+00
  0.00000000E+00  0.00000000E+00  0.00000000E+00
  0.00000000E+00  0.00000000E+00  0.00000000E+00
  0.00000000E+00  0.00000000E+00  0.00000000E+00
  0.00000000E+00  0.00000000E+00  0.00000000E+00
  0.00000000E+00  0.00000000E+00  0.00000000E+00
  0.00000000E+00  0.00000000E+00  0.00000000E+00
  0.00000000E+00  0.00000000E+00  0.00000000E+00
  0.00000000E+00  0.00000000E+00  0.00000000E+00
  0.00000000E+00  0.00000000E+00  0.00000000E+00
  0.00000000E+00  0.00000000E+00  0.00000000E+00
  0.00000000E+00  0.00000000E+00  0.00000000E+00
  0.00000000E+00  0.00000000E+00  0.00000000E+00
  0.00000000E+00  0.00000000E+00  0.00000000E+00
  0.00000000E+00  0.00000000E+00  0.00000000E+00
  0.00000000E+00  0.00000000E+00  0.00000000E+00
  0.00000000E+00  0.00000000E+00  0.00000000E+00
  0.00000000E+00  0.00000000E+00  0.00000000E+00
  0.00000000E+00  0.00000000E+00  0.00000000E+00
  0.00000000E+00  0.00000000E+00  0.00000000E+00
  0.00000000E+00  0.00000000E+00  0.00000000E+00
  0.00000000E+00  0.00000000E+00  0.00000000E+00
  0.00000000E+00  0.00000000E+00  0.00000000E+00
  0.00000000E+00  0.00000000E+00  0.00000000E+00
  0.00000000E+00  0.00000000E+00  0.00000000E+00
  0.00000000E+00  0.00000000E+00  0.00000000E+00
  0.00000000E+00  0.00000000E+00  0.00000000E+00
  0.00000000E+00  0.00000000E+00  0.00000000E+00
  0.00000000E+00  0.00000000E+00  0.00000000E+00
  0.00000000E+00  0.00000000E+00  0.00000000E+00
  0.00000000E+00  0.00000000E+00  0.00000000E+00
  0.00000000E+00  0.00000000E+00  0.00000000E+00
  0.00000000E+00  0.00000000E+00  0.00000000E+00
  0.00000000E+00  0.00000000E+00  0.00000000E+00
  0.00000000E+00  0.00000000E+00  0.00000000E+00
  0.00000000E+00  0.00000000E+00  0.00000000E+00
  0.00000000E+00  0.00000000E+00  0.00000000E+00
  0.00000000E+00  0.00000000E+00  0.00000000E+00
  0.00000000E+00  0.00000000E+00  0.00000000E+00
  0.00000000E+00  0.00000000E+00  0.00000000E+00
  0.00000000E+00  0.00000000E+00  0.00000000E+00
  0.00000000E+00  0.00000000E+00  0.00000000E+00
  0.00000000E+00  0.00000000E+00  0.00000000E+00
  0.00000000E+00  0.00000000E+00  0.00000000E+00
  0.00000000E+00  0.00000000E+00  0.00000000E+00
  0.00000000E+00  0.00000000E+00  0.00000000E+00
  0.00000000E+00  0.00000000E+00  0.00000000E+00
  0.00000000E+00  0.00000000E+00  0.00000000E+00
  0.00000000E+00  0.00000000E+00  0.00000000E+00
  0.00000000E+00  0.00000000E+00  0.00000000E+00
  0.00000000E+00  0.00000000E+00  0.00000000E+00
  0.00000000E+00  0.00000000E+00  0.00000000E+00
  0.00000000E+00  0.00000000E+00  0.00000000E+00
  0.00000000E+00  0.00000000E+00  0.00000000E+00
  0.00000000E+00  0.00000000E+00  0.00000000E+00
  0.00000000E+00  0.00000000E+00  0.00000000E+00
  0.00000000E+00  0.00000000E+00  0.00000000E+00
  0.00000000E+00  0.00000000E+00  0.00000000E+00
  0.00000000E+00  0.00000000E+00  0.00000000E+00
  0.00000000E+00  0.00000000E+00  0.00000000E+00
  0.00000000E+00  0.00000000E+00  0.00000000E+00
  0.00000000E+00  0.00000000E+00  0.00000000E+00
  0.00000000E+00  0.00000000E+00  0.00000000E+00
  0.00000000E+00  0.00000000E+00  0.00000000E+00
  0.00000000E+00  0.00000000E+00  0.00000000E+00
  0.00000000E+00  0.00000000E+00  0.00000000E+00
  0.00000000E+00  0.00000000E+00  0.00000000E+00
  0.00000000E+00  0.00000000E+00  0.00000000E+00
  0.00000000E+00  0.00000000E+00  0.00000000E+00
  0.00000000E+00  0.00000000E+00  0.00000000E+00
  0.00000000E+00  0.00000000E+00  0.00000000E+00
  0.00000000E+00  0.00000000E+00  0.00000000E+00
  0.00000000E+00  0.00000000E+00  0.00000000E+00
  0.00000000E+00  0.00000000E+00  0.00000000E+00
  0.00000000E+00  0.00000000E+00  0.00000000E+00
  0.00000000E+00  0.00000000E+00  0.00000000E+00
  0.00000000E+00  0.00000000E+00  0.00000000E+00
  0.00000000E+00  0.00000000E+00  0.00000000E+00
  0.00000000E+00  0.00000000E+00  0.00000000E+00
  0.00000000E+00  0.00000000E+00  0.00000000E+00
  0.00000000E+00  0.00000000E+00  0.00000000E+00
  0.00000000E+00  0.00000000E+00  0.00000000E+00
  0.00000000E+00  0.00000000E+00  0.00000000E+00
  0.00000000E+00  0.00000000E+00  0.00000000E+00
  0.00000000E+00  0.00000000E+00  0.00000000E+00
  0.00000000E+00  0.00000000E+00  0.00000000E+00
  0.00000000E+00  0.00000000E+00  0.00000000E+00
  0.00000000E+00  0.00000000E+00  0.00000000E+00
  0.00000000E+00  0.00000000E+00  0.00000000E+00
