Species order: X N B                    
   2.51242800000000     
     5.9449720136058266    0.0000000000000000    0.0000000000000000
    -2.9724860068029120    5.1484967885702053   -0.0000000000000001
     0.0000000000000000    0.0000000000000009    5.3101128803662583
   Al   N    B 
     1   143   143
Direct
  0.4697686333171059  0.4015509833252170  0.3750000000000000
  0.1111737471721526  0.0555791869416532  0.1249119173361941
  0.6111974230338059  0.5556177784088182  0.1263619716354767
  0.4444780475170107  0.0555451081201629  0.1249404531843855
  0.9445075175690648  0.5555878816892382  0.1251981034082343
  0.7778090050256214  0.0555711691794781  0.1251319915065149
  0.1111587476945236  0.7222460405139262  0.6248510135482732
  0.4444780475170107  0.7222662727301843  0.6250595468156149
  0.2778666227187494  0.2222535715292100  0.6244697643152772
  0.7778447725935854  0.7222564297899010  0.6247592862779416
  0.6111441500095625  0.2222236128359674  0.6248355096603324
  0.9445001882914558  0.2222524698864104  0.6249018079411429
  0.2778138363186025  0.7222497194773884  0.1251045598195749
  0.1111965870248495  0.2222649601790889  0.1249744209858944
  0.4445154689591393  0.2222236111055374  0.1257346232399358
  0.6111441500095625  0.7222538705069232  0.1251644903396673
  0.9445075175690648  0.7222529692131598  0.1251981034082343
  0.7778144942995727  0.2222452619058154  0.1251359924898602
  0.1111612802926105  0.8889075061470316  0.6249074426886989
  0.4444713098107848  0.8889023215720566  0.6249089183717255
  0.2778666227187494  0.3889463845228682  0.6244697643152772
  0.6111974230338059  0.3889129779583167  0.6236380283645234
  0.7778144942995727  0.8889025657270856  0.6248640075101395
  0.9445048142728741  0.3889197459903254  0.6248909705192127
  0.1111737471721526  0.3889278935638276  0.1249119173361941
  0.2778138363186025  0.8888974501745419  0.1251045598195749
  0.6111348310425092  0.8889096010183968  0.1250763258216253
  0.4446496423392181  0.3889914878362736  0.1308788742109665
  0.9445048142728741  0.8889184016158777  0.1251090294807876
  0.7778447725935854  0.3889216761370133  0.1252407137220583
  0.2778272363890830  0.5556015319919233  0.6250194556572510
  0.1111737471721526  0.0555791869416532  0.6250880826638050
  0.6111974230338059  0.5556177784088182  0.6236380283645234
  0.4444780475170107  0.0555451081201629  0.6250595468156149
  0.9445075175690648  0.5555878816892382  0.6248018965917654
  0.1111612802926105  0.5555871074789080  0.1250925573113011
  0.7778090050256214  0.0555711691794781  0.6248680084934839
  0.2778272363890830  0.0555590377304948  0.1249805443427484
  0.4445154689591393  0.5556251911869365  0.1257346232399358
  0.7778457022047284  0.5555895177690320  0.1255456069263609
  0.6111348310425092  0.0555585633574419  0.1250763258216253
  0.4445154689591393  0.5556251911869365  0.6242653767600644
  0.9445001882914558  0.0555810517383819  0.1250981920588578
  0.2778138363186025  0.7222497194773884  0.6248954401804253
  0.1111965870248495  0.2222649601790889  0.6250255790141046
  0.4445154689591393  0.2222236111055374  0.6242653767600644
  0.6111441500095625  0.7222538705069232  0.6248355096603324
  0.9445075175690648  0.7222529692131598  0.6248018965917654
  0.7778144942995727  0.2222452619058154  0.6248640075101395
  0.1111587476945236  0.7222460405139262  0.1251489864517283
  0.4444780475170107  0.7222662727301843  0.1249404531843855
  0.2778666227187494  0.2222535715292100  0.1255302356847227
  0.7778447725935854  0.7222564297899010  0.1252407137220583
  0.6111441500095625  0.2222236128359674  0.1251644903396672
  0.9445001882914558  0.2222524698864104  0.1250981920588578
  0.1111737471721526  0.3889278935638276  0.6250880826638050
  0.2778138363186025  0.8888974501745419  0.6248954401804253
  0.6111348310425092  0.8889096010183968  0.6249236741783745
  0.4446496423392181  0.3889914878362736  0.6191211257890336
  0.9445048142728741  0.8889184016158777  0.6248909705192127
  0.1111612802926105  0.8889075061470316  0.1250925573113011
  0.7778447725935854  0.3889216761370133  0.6247592862779416
  0.4444713098107848  0.8889023215720566  0.1250910816282749
  0.2778666227187494  0.3889463845228682  0.1255302356847227
  0.2778272363890830  0.5556015319919233  0.1249805443427484
  0.6111974230338059  0.3889129779583167  0.1263619716354767
  0.7778144942995727  0.8889025657270856  0.1251359924898602
  0.9445048142728741  0.3889197459903254  0.1251090294807876
  0.1111612802926105  0.5555871074789080  0.6249074426886989
  0.2778272363890830  0.0555590377304948  0.6250194556572510
  0.7778457022047284  0.5555895177690320  0.6244543930736391
  0.6111348310425092  0.0555585633574419  0.6249236741783745
  0.9445001882914558  0.0555810517383819  0.6249018079411429
  0.0568225146708951  0.1117085978832261  0.3750000000000000
  0.5563493829410510  0.6104040471331955  0.3750000000000000
  0.3893451380076516  0.1076664175861928  0.3750000000000000
  0.8902881797154196  0.6118107565243818  0.3750000000000000
  0.7238063643407346  0.1118911507213843  0.3750000000000000
  0.0555074602828231  0.7777555102999193  0.8750000000000000
  0.3888541305623701  0.7777577053917243  0.8750000000000000
  0.2221731122975435  0.2777532228154394  0.8750000000000000
  0.7221834478706578  0.7777590649316167  0.8750000000000000
  0.5555152117103923  0.2777618271171660  0.8750000000000000
  0.8888493050398493  0.2777580088615658  0.8750000000000000
  0.2229630450900599  0.7781481892116979  0.3750000000000000
  0.0568225146708951  0.2784472501210044  0.3750000000000000
  0.3874355635200450  0.2690122000781772  0.3750000000000000
  0.5571176445818423  0.7785929221295100  0.3750000000000000
  0.8900249512298675  0.7782714662460183  0.3750000000000000
  0.7235892944211273  0.2785669218590914  0.3750000000000000
  0.0555093553461728  0.9444233763517456  0.8750000000000000
  0.3888541305623701  0.9444297585039818  0.8750000000000000
  0.2221754550065964  0.4444149802608851  0.8750000000000000
  0.5554980565405112  0.4444156949369199  0.8750000000000000
  0.7221854001668836  0.9444260469281875  0.8750000000000000
  0.8888451779101442  0.4444209461712074  0.8750000000000000
  0.0561074056496462  0.4451714459652608  0.3750000000000000
  0.2226402354266004  0.9437643686162249  0.3750000000000000
  0.5572031664774985  0.9452682499054135  0.3750000000000000
  0.3874355635200451  0.4517566967752039  0.3750000000000000
  0.8901607597408877  0.9450946837110152  0.3750000000000000
  0.7240681544578480  0.4459223518519532  0.3750000000000000
  0.2221793950314858  0.6110842515127761  0.8750000000000000
  0.0555073843234810  0.1110874124452386  0.8750000000000000
  0.5555152117103923  0.6110867179265631  0.8750000000000000
  0.3888520117534691  0.1111020631251898  0.8750000000000000
  0.8888374314737378  0.6110853824035400  0.8750000000000000
  0.0563267716239260  0.6116765230145474  0.3750000000000000
  0.7221854001668836  0.1110926865720307  0.8750000000000000
  0.2219647526557415  0.1095850283845117  0.3750000000000000
  0.3893451380076516  0.6150120537548034  0.3750000000000000
  0.7240681544578480  0.6114791359392302  0.3750000000000000
  0.5571176445818423  0.1118580557856676  0.3750000000000000
  0.3888520117534691  0.6110832819616225  0.8750000000000000
  0.8902972153870367  0.1118152743601900  0.3750000000000000
  0.2221810414794721  0.7777571874064039  0.8750000000000000
  0.0555073843234810  0.2777533052115779  0.8750000000000000
  0.3888507977481929  0.2777722230730366  0.8750000000000000
  0.5555197699700580  0.7777586382268757  0.8750000000000000
  0.8888451779101446  0.7777575650722718  0.8750000000000000
  0.7221834478706578  0.2777577162723771  0.8750000000000000
  0.0563267716239260  0.7779835819427156  0.3750000000000000
  0.3899958924564022  0.7792878577990603  0.3750000000000000
  0.2240804858800292  0.2787069096066824  0.3750000000000000
  0.7235892944211273  0.7783557058953708  0.3750000000000000
  0.5563493829410510  0.2792786691411902  0.3750000000000000
  0.8901607597408877  0.2783994093632088  0.3750000000000000
  0.0555093553461728  0.4444193123277559  0.8750000000000000
  0.2221793950314858  0.9444284768520449  0.8750000000000000
  0.5555206473380768  0.9444269903357018  0.8750000000000000
  0.3888507977481929  0.4444119080084919  0.8750000000000000
  0.8888493050398493  0.9444246295116189  0.8750000000000000
  0.0561074056496462  0.9442692930177142  0.3750000000000000
  0.7221726359351194  0.4444192824615985  0.8750000000000000
  0.3899958924564022  0.9440413679906777  0.3750000000000000
  0.2219647526557415  0.4457130576045658  0.3750000000000000
  0.2226402354266004  0.6122092001437116  0.3750000000000000
  0.7238063643407346  0.9452485469526863  0.3750000000000000
  0.8900249512298675  0.4450868183171849  0.3750000000000000
  0.0555074602828231  0.6110852833162397  0.8750000000000000
  0.2221754550065964  0.1110938080790471  0.8750000000000000
  0.7221726359351194  0.6110866868068553  0.8750000000000000
  0.5555197699700580  0.1110944650765170  0.8750000000000000
  0.8888484689417007  0.1110909011375220  0.8750000000000000
  0.1113927359204167  0.0552054635990520  0.3750000000000000
  0.6172460303895922  0.5625578636602748  0.3750000000000000
  0.4457033795043262  0.0540408059916179  0.3750000000000000
  0.9460328531558559  0.5561387524316966  0.3750000000000000
  0.7795078195884847  0.0564205764609102  0.3750000000000000
  0.1110830054565198  0.7222081693949247  0.8750000000000000
  0.4443946970298076  0.7222209115970811  0.8750000000000000
  0.2776580424757938  0.2221580169228773  0.8750000000000000
  0.7777801227584620  0.7222667674389136  0.8750000000000000
  0.6110867637157327  0.2221579181067557  0.8750000000000000
  0.9444065578843289  0.2221919826207928  0.8750000000000000
  0.2786828125860906  0.7231273321563633  0.3750000000000000
  0.1127833153870235  0.2230583243601758  0.3750000000000000
  0.4426601336975015  0.2165765339468537  0.3750000000000000
  0.6131715129210652  0.7241185545477504  0.3750000000000000
  0.9460328531558559  0.7232274340574959  0.3750000000000000
  0.7795289058274220  0.2226279256930573  0.3750000000000000
  0.1110709208852701  0.8888781606364585  0.8750000000000000
  0.4444063509722375  0.8888698421527819  0.8750000000000000
  0.2776580424757938  0.3888333588862452  0.8750000000000000
  0.6110858463807801  0.3888333244599512  0.8750000000000000
  0.7777678717436491  0.8889200891502999  0.8750000000000000
  0.9444257607696240  0.3888529993298053  0.8750000000000000
  0.1113927359204167  0.3895206056546930  0.3750000000000000
  0.2786828125860906  0.8888888137630561  0.3750000000000000
  0.6129563803828472  0.8900367130658539  0.3750000000000000
  0.9456313212021679  0.8896674389021794  0.3750000000000000
  0.7801229975825638  0.3890195611128576  0.3750000000000000
  0.2777023861329613  0.5555244233695148  0.8750000000000000
  0.1110423088475911  0.0555292163762058  0.8750000000000000
  0.6110858463807801  0.5555858552541566  0.8750000000000000
  0.4443946970298076  0.0555071187660626  0.8750000000000000
  0.9444393629392673  0.5555384599057169  0.8750000000000000
  0.1118048709460921  0.5561858142470862  0.3750000000000000
  0.7777585429439655  0.0555459381386509  0.8750000000000000
  0.2777719722152689  0.0542425394072927  0.3750000000000000
  0.4426601336975010  0.5594169330839830  0.3750000000000000
  0.7811664397880433  0.5572498865606903  0.3750000000000000
  0.6129563803828472  0.0562530006503205  0.3750000000000000
  0.4443672186017983  0.5555501727195139  0.8750000000000000
  0.9459671970055435  0.0564594908744895  0.3750000000000000
  0.2777315844500458  0.7222017863007019  0.8750000000000000
  0.1110236646016196  0.2221784989674740  0.8750000000000000
  0.4443672186017983  0.2221503792156194  0.8750000000000000
  0.6110867637157327  0.7222621789423058  0.8750000000000000
  0.9444393629392673  0.7222342363668870  0.8750000000000000
  0.7777678717436491  0.2221811159266790  0.8750000000000000
  0.1120966888555016  0.7227150110944148  0.3750000000000000
  0.4457033795043262  0.7249959068460451  0.3750000000000000
  0.2776721869869899  0.2204696580401407  0.3750000000000000
  0.7801229975825638  0.7244367698030353  0.3750000000000000
  0.6131715129210652  0.2223862917066418  0.3750000000000000
  0.9459671970055435  0.2228410394643895  0.3750000000000000
  0.1110423088475911  0.3888464258047136  0.8750000000000000
  0.2777315844500458  0.8888631314826728  0.8750000000000000
  0.6110867925998177  0.8888972762376816  0.8750000000000000
  0.4443291237390488  0.3888312285361889  0.8750000000000000
  0.9444257607696240  0.8889060947731470  0.8750000000000000
  0.1118048709460921  0.8889523900323354  0.3750000000000000
  0.7777801227584620  0.3888466886528782  0.8750000000000000
  0.4460135204560169  0.8896734268946729  0.3750000000000000
  0.2776721869869899  0.3905358622801777  0.3750000000000000
  0.2777719722152689  0.5568627661413119  0.3750000000000000
  0.6172460303895922  0.3880215000626450  0.3750000000000000
  0.7795289058274220  0.8902343134676931  0.3750000000000000
  0.9456313212021679  0.3892972156333172  0.3750000000000000
  0.1110709208852701  0.5555260935821417  0.8750000000000000
  0.2777023861329613  0.0555112960967828  0.8750000000000000
  0.7777812865094909  0.5555573099214128  0.8750000000000000
  0.6110867925998177  0.0555228496954636  0.8750000000000000
  0.9444065578843289  0.0555479085968722  0.8750000000000000
  0.0556146693126741  0.1111394537689944  0.1248754385720221
  0.5555250602143910  0.6113310503526631  0.1251281812700045
  0.3888032899316768  0.1108913827076520  0.1248545392206388
  0.8891711479397927  0.6112522406365675  0.1249045357739742
  0.7222559971245618  0.1110808367037938  0.1249144930163848
  0.0557167554243450  0.7778613606112637  0.6250561920482592
  0.3888650389519587  0.7778282126036966  0.6251367773454176
  0.2221879710555953  0.2777606521944656  0.6247421544808993
  0.7223242751626107  0.7779434089989156  0.6251956310909542
  0.5555250602143910  0.2775273431950627  0.6248718187299949
  0.8889953412784086  0.2777901620558105  0.6250732846038647
  0.2222767852691384  0.7778050593012383  0.1249735215441545
  0.0556146693126741  0.2778085488770155  0.1248754385720221
  0.3886574402001425  0.2773704106199641  0.1270739585150285
  0.5555279612334467  0.7779002429592966  0.1247711033814128
  0.8891023407575599  0.7779370695519172  0.1248692189232046
  0.7223242751626107  0.2777141994970325  0.1248043689090463
  0.0556585162559397  0.9444988843201017  0.6251286692096656
  0.3888650389519586  0.9443701596815971  0.6251367773454176
  0.2222002750568620  0.4445088020044932  0.6251089211444234
  0.5558426598792416  0.4445879966062851  0.6235457605969853
  0.7222559971245618  0.9445084937541033  0.6250855069836155
  0.8891023407575599  0.4444986045389792  0.6251307810767942
  0.0556585162559397  0.4444929652691657  0.1248713307903335
  0.2222496319293519  0.9444062095328362  0.1248894539045152
  0.5555396602624990  0.9444364967979141  0.1248955698423437
  0.3886574402001425  0.4446203629135141  0.1270739585150285
  0.8889953412784086  0.9445385125559340  0.1249267153961362
  0.7225261299170420  0.4445187243921605  0.1249781167415145
  0.2222496319293519  0.6111767557298519  0.6251105460954857
  0.0556146693126741  0.1111394537689944  0.6251245614279780
  0.5555250602143910  0.6113310503526631  0.6248718187299949
  0.3888032899316768  0.1108913827076520  0.6251454607793627
  0.8891711479397927  0.6112522406365675  0.6250954642260259
  0.0557167554243450  0.6111887281464168  0.1249438079517407
  0.7222559971245618  0.1110808367037938  0.6250855069836155
  0.2222002750568620  0.1110248063857050  0.1248910788555756
  0.3888032899316768  0.6112452405573667  0.1248545392206388
  0.7225261299170420  0.6113407388582184  0.1249781167415145
  0.5555279612334467  0.1109610516074857  0.1247711033814128
  0.3888032899316768  0.6112452405573667  0.6251454607793627
  0.8889563397715813  0.1111448365524621  0.1249641813269147
  0.2222767852691384  0.7778050593012383  0.6250264784558454
  0.0556146693126741  0.2778085488770155  0.6251245614279780
  0.3886574402001425  0.2773704106199641  0.6229260414849729
  0.5555279612334467  0.7779002429592966  0.6252288966185879
  0.8891023407575599  0.7779370695519172  0.6251307810767942
  0.7223242751626107  0.2777141994970325  0.6251956310909542
  0.0557167554243450  0.7778613606112637  0.1249438079517407
  0.3888650389519587  0.7778282126036966  0.1248632226545821
  0.2221879710555953  0.2777606521944656  0.1252578455190997
  0.7223242751626107  0.7779434089989156  0.1248043689090463
  0.5555250602143910  0.2775273431950627  0.1251281812700045
  0.8889953412784086  0.2777901620558105  0.1249267153961362
  0.0556585162559397  0.4444929652691657  0.6251286692096656
  0.2222496319293519  0.9444062095328362  0.6251105460954857
  0.5555396602624990  0.9444364967979141  0.6251044301576557
  0.3886574402001425  0.4446203629135141  0.6229260414849729
  0.8889953412784086  0.9445385125559340  0.6250732846038647
  0.0556585162559397  0.9444988843201017  0.1248713307903335
  0.7225261299170420  0.4445187243921605  0.6250218832584860
  0.3888650389519586  0.9443701596815971  0.1248632226545821
  0.2222002750568620  0.4445088020044932  0.1248910788555756
  0.2222496319293519  0.6111767557298519  0.1248894539045152
  0.5558426598792416  0.4445879966062851  0.1264542394030149
  0.7222559971245618  0.9445084937541033  0.1249144930163848
  0.8891023407575599  0.4444986045389792  0.1248692189232046
  0.0557167554243450  0.6111887281464168  0.6250561920482592
  0.2222002750568620  0.1110248063857050  0.6251089211444234
  0.7225261299170420  0.6113407388582184  0.6250218832584860
  0.5555279612334467  0.1109610516074857  0.6252288966185879
  0.8889563397715813  0.1111448365524621  0.6250358186730851
 
  0.00000000E+00  0.00000000E+00  0.00000000E+00
  0.00000000E+00  0.00000000E+00  0.00000000E+00
  0.00000000E+00  0.00000000E+00  0.00000000E+00
  0.00000000E+00  0.00000000E+00  0.00000000E+00
  0.00000000E+00  0.00000000E+00  0.00000000E+00
  0.00000000E+00  0.00000000E+00  0.00000000E+00
  0.00000000E+00  0.00000000E+00  0.00000000E+00
  0.00000000E+00  0.00000000E+00  0.00000000E+00
  0.00000000E+00  0.00000000E+00  0.00000000E+00
  0.00000000E+00  0.00000000E+00  0.00000000E+00
  0.00000000E+00  0.00000000E+00  0.00000000E+00
  0.00000000E+00  0.00000000E+00  0.00000000E+00
  0.00000000E+00  0.00000000E+00  0.00000000E+00
  0.00000000E+00  0.00000000E+00  0.00000000E+00
  0.00000000E+00  0.00000000E+00  0.00000000E+00
  0.00000000E+00  0.00000000E+00  0.00000000E+00
  0.00000000E+00  0.00000000E+00  0.00000000E+00
  0.00000000E+00  0.00000000E+00  0.00000000E+00
  0.00000000E+00  0.00000000E+00  0.00000000E+00
  0.00000000E+00  0.00000000E+00  0.00000000E+00
  0.00000000E+00  0.00000000E+00  0.00000000E+00
  0.00000000E+00  0.00000000E+00  0.00000000E+00
  0.00000000E+00  0.00000000E+00  0.00000000E+00
  0.00000000E+00  0.00000000E+00  0.00000000E+00
  0.00000000E+00  0.00000000E+00  0.00000000E+00
  0.00000000E+00  0.00000000E+00  0.00000000E+00
  0.00000000E+00  0.00000000E+00  0.00000000E+00
  0.00000000E+00  0.00000000E+00  0.00000000E+00
  0.00000000E+00  0.00000000E+00  0.00000000E+00
  0.00000000E+00  0.00000000E+00  0.00000000E+00
  0.00000000E+00  0.00000000E+00  0.00000000E+00
  0.00000000E+00  0.00000000E+00  0.00000000E+00
  0.00000000E+00  0.00000000E+00  0.00000000E+00
  0.00000000E+00  0.00000000E+00  0.00000000E+00
  0.00000000E+00  0.00000000E+00  0.00000000E+00
  0.00000000E+00  0.00000000E+00  0.00000000E+00
  0.00000000E+00  0.00000000E+00  0.00000000E+00
  0.00000000E+00  0.00000000E+00  0.00000000E+00
  0.00000000E+00  0.00000000E+00  0.00000000E+00
  0.00000000E+00  0.00000000E+00  0.00000000E+00
  0.00000000E+00  0.00000000E+00  0.00000000E+00
  0.00000000E+00  0.00000000E+00  0.00000000E+00
  0.00000000E+00  0.00000000E+00  0.00000000E+00
  0.00000000E+00  0.00000000E+00  0.00000000E+00
  0.00000000E+00  0.00000000E+00  0.00000000E+00
  0.00000000E+00  0.00000000E+00  0.00000000E+00
  0.00000000E+00  0.00000000E+00  0.00000000E+00
  0.00000000E+00  0.00000000E+00  0.00000000E+00
  0.00000000E+00  0.00000000E+00  0.00000000E+00
  0.00000000E+00  0.00000000E+00  0.00000000E+00
  0.00000000E+00  0.00000000E+00  0.00000000E+00
  0.00000000E+00  0.00000000E+00  0.00000000E+00
  0.00000000E+00  0.00000000E+00  0.00000000E+00
  0.00000000E+00  0.00000000E+00  0.00000000E+00
  0.00000000E+00  0.00000000E+00  0.00000000E+00
  0.00000000E+00  0.00000000E+00  0.00000000E+00
  0.00000000E+00  0.00000000E+00  0.00000000E+00
  0.00000000E+00  0.00000000E+00  0.00000000E+00
  0.00000000E+00  0.00000000E+00  0.00000000E+00
  0.00000000E+00  0.00000000E+00  0.00000000E+00
  0.00000000E+00  0.00000000E+00  0.00000000E+00
  0.00000000E+00  0.00000000E+00  0.00000000E+00
  0.00000000E+00  0.00000000E+00  0.00000000E+00
  0.00000000E+00  0.00000000E+00  0.00000000E+00
  0.00000000E+00  0.00000000E+00  0.00000000E+00
  0.00000000E+00  0.00000000E+00  0.00000000E+00
  0.00000000E+00  0.00000000E+00  0.00000000E+00
  0.00000000E+00  0.00000000E+00  0.00000000E+00
  0.00000000E+00  0.00000000E+00  0.00000000E+00
  0.00000000E+00  0.00000000E+00  0.00000000E+00
  0.00000000E+00  0.00000000E+00  0.00000000E+00
  0.00000000E+00  0.00000000E+00  0.00000000E+00
  0.00000000E+00  0.00000000E+00  0.00000000E+00
  0.00000000E+00  0.00000000E+00  0.00000000E+00
  0.00000000E+00  0.00000000E+00  0.00000000E+00
  0.00000000E+00  0.00000000E+00  0.00000000E+00
  0.00000000E+00  0.00000000E+00  0.00000000E+00
  0.00000000E+00  0.00000000E+00  0.00000000E+00
  0.00000000E+00  0.00000000E+00  0.00000000E+00
  0.00000000E+00  0.00000000E+00  0.00000000E+00
  0.00000000E+00  0.00000000E+00  0.00000000E+00
  0.00000000E+00  0.00000000E+00  0.00000000E+00
  0.00000000E+00  0.00000000E+00  0.00000000E+00
  0.00000000E+00  0.00000000E+00  0.00000000E+00
  0.00000000E+00  0.00000000E+00  0.00000000E+00
  0.00000000E+00  0.00000000E+00  0.00000000E+00
  0.00000000E+00  0.00000000E+00  0.00000000E+00
  0.00000000E+00  0.00000000E+00  0.00000000E+00
  0.00000000E+00  0.00000000E+00  0.00000000E+00
  0.00000000E+00  0.00000000E+00  0.00000000E+00
  0.00000000E+00  0.00000000E+00  0.00000000E+00
  0.00000000E+00  0.00000000E+00  0.00000000E+00
  0.00000000E+00  0.00000000E+00  0.00000000E+00
  0.00000000E+00  0.00000000E+00  0.00000000E+00
  0.00000000E+00  0.00000000E+00  0.00000000E+00
  0.00000000E+00  0.00000000E+00  0.00000000E+00
  0.00000000E+00  0.00000000E+00  0.00000000E+00
  0.00000000E+00  0.00000000E+00  0.00000000E+00
  0.00000000E+00  0.00000000E+00  0.00000000E+00
  0.00000000E+00  0.00000000E+00  0.00000000E+00
  0.00000000E+00  0.00000000E+00  0.00000000E+00
  0.00000000E+00  0.00000000E+00  0.00000000E+00
  0.00000000E+00  0.00000000E+00  0.00000000E+00
  0.00000000E+00  0.00000000E+00  0.00000000E+00
  0.00000000E+00  0.00000000E+00  0.00000000E+00
  0.00000000E+00  0.00000000E+00  0.00000000E+00
  0.00000000E+00  0.00000000E+00  0.00000000E+00
  0.00000000E+00  0.00000000E+00  0.00000000E+00
  0.00000000E+00  0.00000000E+00  0.00000000E+00
  0.00000000E+00  0.00000000E+00  0.00000000E+00
  0.00000000E+00  0.00000000E+00  0.00000000E+00
  0.00000000E+00  0.00000000E+00  0.00000000E+00
  0.00000000E+00  0.00000000E+00  0.00000000E+00
  0.00000000E+00  0.00000000E+00  0.00000000E+00
  0.00000000E+00  0.00000000E+00  0.00000000E+00
  0.00000000E+00  0.00000000E+00  0.00000000E+00
  0.00000000E+00  0.00000000E+00  0.00000000E+00
  0.00000000E+00  0.00000000E+00  0.00000000E+00
  0.00000000E+00  0.00000000E+00  0.00000000E+00
  0.00000000E+00  0.00000000E+00  0.00000000E+00
  0.00000000E+00  0.00000000E+00  0.00000000E+00
  0.00000000E+00  0.00000000E+00  0.00000000E+00
  0.00000000E+00  0.00000000E+00  0.00000000E+00
  0.00000000E+00  0.00000000E+00  0.00000000E+00
  0.00000000E+00  0.00000000E+00  0.00000000E+00
  0.00000000E+00  0.00000000E+00  0.00000000E+00
  0.00000000E+00  0.00000000E+00  0.00000000E+00
  0.00000000E+00  0.00000000E+00  0.00000000E+00
  0.00000000E+00  0.00000000E+00  0.00000000E+00
  0.00000000E+00  0.00000000E+00  0.00000000E+00
  0.00000000E+00  0.00000000E+00  0.00000000E+00
  0.00000000E+00  0.00000000E+00  0.00000000E+00
  0.00000000E+00  0.00000000E+00  0.00000000E+00
  0.00000000E+00  0.00000000E+00  0.00000000E+00
  0.00000000E+00  0.00000000E+00  0.00000000E+00
  0.00000000E+00  0.00000000E+00  0.00000000E+00
  0.00000000E+00  0.00000000E+00  0.00000000E+00
  0.00000000E+00  0.00000000E+00  0.00000000E+00
  0.00000000E+00  0.00000000E+00  0.00000000E+00
  0.00000000E+00  0.00000000E+00  0.00000000E+00
  0.00000000E+00  0.00000000E+00  0.00000000E+00
  0.00000000E+00  0.00000000E+00  0.00000000E+00
  0.00000000E+00  0.00000000E+00  0.00000000E+00
  0.00000000E+00  0.00000000E+00  0.00000000E+00
  0.00000000E+00  0.00000000E+00  0.00000000E+00
  0.00000000E+00  0.00000000E+00  0.00000000E+00
  0.00000000E+00  0.00000000E+00  0.00000000E+00
  0.00000000E+00  0.00000000E+00  0.00000000E+00
  0.00000000E+00  0.00000000E+00  0.00000000E+00
  0.00000000E+00  0.00000000E+00  0.00000000E+00
  0.00000000E+00  0.00000000E+00  0.00000000E+00
  0.00000000E+00  0.00000000E+00  0.00000000E+00
  0.00000000E+00  0.00000000E+00  0.00000000E+00
  0.00000000E+00  0.00000000E+00  0.00000000E+00
  0.00000000E+00  0.00000000E+00  0.00000000E+00
  0.00000000E+00  0.00000000E+00  0.00000000E+00
  0.00000000E+00  0.00000000E+00  0.00000000E+00
  0.00000000E+00  0.00000000E+00  0.00000000E+00
  0.00000000E+00  0.00000000E+00  0.00000000E+00
  0.00000000E+00  0.00000000E+00  0.00000000E+00
  0.00000000E+00  0.00000000E+00  0.00000000E+00
  0.00000000E+00  0.00000000E+00  0.00000000E+00
  0.00000000E+00  0.00000000E+00  0.00000000E+00
  0.00000000E+00  0.00000000E+00  0.00000000E+00
  0.00000000E+00  0.00000000E+00  0.00000000E+00
  0.00000000E+00  0.00000000E+00  0.00000000E+00
  0.00000000E+00  0.00000000E+00  0.00000000E+00
  0.00000000E+00  0.00000000E+00  0.00000000E+00
  0.00000000E+00  0.00000000E+00  0.00000000E+00
  0.00000000E+00  0.00000000E+00  0.00000000E+00
  0.00000000E+00  0.00000000E+00  0.00000000E+00
  0.00000000E+00  0.00000000E+00  0.00000000E+00
  0.00000000E+00  0.00000000E+00  0.00000000E+00
  0.00000000E+00  0.00000000E+00  0.00000000E+00
  0.00000000E+00  0.00000000E+00  0.00000000E+00
  0.00000000E+00  0.00000000E+00  0.00000000E+00
  0.00000000E+00  0.00000000E+00  0.00000000E+00
  0.00000000E+00  0.00000000E+00  0.00000000E+00
  0.00000000E+00  0.00000000E+00  0.00000000E+00
  0.00000000E+00  0.00000000E+00  0.00000000E+00
  0.00000000E+00  0.00000000E+00  0.00000000E+00
  0.00000000E+00  0.00000000E+00  0.00000000E+00
  0.00000000E+00  0.00000000E+00  0.00000000E+00
  0.00000000E+00  0.00000000E+00  0.00000000E+00
  0.00000000E+00  0.00000000E+00  0.00000000E+00
  0.00000000E+00  0.00000000E+00  0.00000000E+00
  0.00000000E+00  0.00000000E+00  0.00000000E+00
  0.00000000E+00  0.00000000E+00  0.00000000E+00
  0.00000000E+00  0.00000000E+00  0.00000000E+00
  0.00000000E+00  0.00000000E+00  0.00000000E+00
  0.00000000E+00  0.00000000E+00  0.00000000E+00
  0.00000000E+00  0.00000000E+00  0.00000000E+00
  0.00000000E+00  0.00000000E+00  0.00000000E+00
  0.00000000E+00  0.00000000E+00  0.00000000E+00
  0.00000000E+00  0.00000000E+00  0.00000000E+00
  0.00000000E+00  0.00000000E+00  0.00000000E+00
  0.00000000E+00  0.00000000E+00  0.00000000E+00
  0.00000000E+00  0.00000000E+00  0.00000000E+00
  0.00000000E+00  0.00000000E+00  0.00000000E+00
  0.00000000E+00  0.00000000E+00  0.00000000E+00
  0.00000000E+00  0.00000000E+00  0.00000000E+00
  0.00000000E+00  0.00000000E+00  0.00000000E+00
  0.00000000E+00  0.00000000E+00  0.00000000E+00
  0.00000000E+00  0.00000000E+00  0.00000000E+00
  0.00000000E+00  0.00000000E+00  0.00000000E+00
  0.00000000E+00  0.00000000E+00  0.00000000E+00
  0.00000000E+00  0.00000000E+00  0.00000000E+00
  0.00000000E+00  0.00000000E+00  0.00000000E+00
  0.00000000E+00  0.00000000E+00  0.00000000E+00
  0.00000000E+00  0.00000000E+00  0.00000000E+00
  0.00000000E+00  0.00000000E+00  0.00000000E+00
  0.00000000E+00  0.00000000E+00  0.00000000E+00
  0.00000000E+00  0.00000000E+00  0.00000000E+00
  0.00000000E+00  0.00000000E+00  0.00000000E+00
  0.00000000E+00  0.00000000E+00  0.00000000E+00
  0.00000000E+00  0.00000000E+00  0.00000000E+00
  0.00000000E+00  0.00000000E+00  0.00000000E+00
  0.00000000E+00  0.00000000E+00  0.00000000E+00
  0.00000000E+00  0.00000000E+00  0.00000000E+00
  0.00000000E+00  0.00000000E+00  0.00000000E+00
  0.00000000E+00  0.00000000E+00  0.00000000E+00
  0.00000000E+00  0.00000000E+00  0.00000000E+00
  0.00000000E+00  0.00000000E+00  0.00000000E+00
  0.00000000E+00  0.00000000E+00  0.00000000E+00
  0.00000000E+00  0.00000000E+00  0.00000000E+00
  0.00000000E+00  0.00000000E+00  0.00000000E+00
  0.00000000E+00  0.00000000E+00  0.00000000E+00
  0.00000000E+00  0.00000000E+00  0.00000000E+00
  0.00000000E+00  0.00000000E+00  0.00000000E+00
  0.00000000E+00  0.00000000E+00  0.00000000E+00
  0.00000000E+00  0.00000000E+00  0.00000000E+00
  0.00000000E+00  0.00000000E+00  0.00000000E+00
  0.00000000E+00  0.00000000E+00  0.00000000E+00
  0.00000000E+00  0.00000000E+00  0.00000000E+00
  0.00000000E+00  0.00000000E+00  0.00000000E+00
  0.00000000E+00  0.00000000E+00  0.00000000E+00
  0.00000000E+00  0.00000000E+00  0.00000000E+00
  0.00000000E+00  0.00000000E+00  0.00000000E+00
  0.00000000E+00  0.00000000E+00  0.00000000E+00
  0.00000000E+00  0.00000000E+00  0.00000000E+00
  0.00000000E+00  0.00000000E+00  0.00000000E+00
  0.00000000E+00  0.00000000E+00  0.00000000E+00
  0.00000000E+00  0.00000000E+00  0.00000000E+00
  0.00000000E+00  0.00000000E+00  0.00000000E+00
  0.00000000E+00  0.00000000E+00  0.00000000E+00
  0.00000000E+00  0.00000000E+00  0.00000000E+00
  0.00000000E+00  0.00000000E+00  0.00000000E+00
  0.00000000E+00  0.00000000E+00  0.00000000E+00