B N Al                                  
   1.0000000000000000     
     8.7639499999999995  -15.1796066749929999    0.0000000000000000
     8.7639499999999995   15.1796066749929999    0.0000000000000000
     0.0000000000000000    0.0000000000000000   15.0000000000000000
   B    N    Al
    49    47     1
Selective dynamics
Direct
  0.9025956679075072  0.9490110452053149  0.1068490746589544   T   T   T
  0.9047689298235644  0.0926205223142097  0.1072261347152253   T   T   T
  0.9058080876098699  0.2356720039208340  0.1074702488000939   T   T   T
  0.9060200108061788  0.3787414422561632  0.1076027525029200   T   T   T
  0.9052698504154508  0.5220048197626821  0.1065586040620434   T   T   T
  0.9039228021994017  0.6648650086178275  0.1052093534343087   T   T   T
  0.9020447553433252  0.8065277456073560  0.1059995757588398   T   T   T
  0.0472998468760342  0.9526756152071389  0.1049808168350181   T   T   T
  0.0493681409514368  0.0961661828966170  0.1063208120239963   T   T   T
  0.0498215778392150  0.2381334904920901  0.1070863033394766   T   T   T
  0.0488571911881342  0.3802078999536320  0.1073185576401933   T   T   T
  0.0469905913512857  0.5231633732027515  0.1069117409743531   T   T   T
  0.0460392581947484  0.6664937120856330  0.1054407733007450   T   T   T
  0.0463021061923423  0.8095613041810671  0.1043626193915715   T   T   T
  0.1902685190957382  0.9540124823004998  0.1065746986129001   T   T   T
  0.1932876020307261  0.0988377131616101  0.1079297283985113   T   T   T
  0.1966333515870803  0.2438427469842692  0.1089821616851548   T   T   T
  0.1936221600194287  0.3832745991548046  0.1093022008513487   T   T   T
  0.1890245531970591  0.5248555974883615  0.1087205000608933   T   T   T
  0.1871182626468171  0.6676393766737602  0.1082600503964962   T   T   T
  0.1887660530969721  0.8106918977518647  0.1068670139672742   T   T   T
  0.3325661242527743  0.9537298494667419  0.1097614927679940   T   T   T
  0.3345548526287948  0.0974578144638560  0.1117768117033571   T   T   T
  0.3400130086660063  0.2450801784199794  0.1139160809130961   T   T   T
  0.3456513793404540  0.3943058665327365  0.1133946107127675   T   T   T
  0.3317749889926562  0.5288211553751676  0.1099641273625252   T   T   T
  0.3272054834002553  0.6695354981004058  0.1080838678605914   T   T   T
  0.3307785393288651  0.8112238675437367  0.1094796845892742   T   T   T
  0.4749963791329861  0.9514100203147381  0.1111193383970541   T   T   T
  0.4765347104255328  0.0942630522531222  0.1135273441223507   T   T   T
  0.4785039910286221  0.2375146292538746  0.1177037372316069   T   T   T
  0.4896961632573731  0.3874136126542718  0.1206506038127746   T   T   T
  0.4854229887478587  0.5790589059732429  0.1172309328197400   T   T   T
  0.4654619155082971  0.6643138019711723  0.1074656616930331   T   T   T
  0.4726465320265942  0.8083384940701244  0.1098603443210666   T   T   T
  0.6172365217384674  0.9480171786206260  0.1108907750193880   T   T   T
  0.6190729348529964  0.0917905523002396  0.1118951745577753   T   T   T
  0.6204027847864698  0.2343560609052254  0.1151931613698583   T   T   T
  0.6227621201718202  0.3760242225401439  0.1156947183664964   T   T   T
  0.6154376364965596  0.5101140610472216  0.1140550674633514   T   T   T
  0.6103584506141277  0.6507597130288633  0.1184867707687575   T   T   T
  0.6134544098434732  0.8018995533705996  0.1123983655315560   T   T   T
  0.7593590198209612  0.9470165782336794  0.1098517085940090   T   T   T
  0.7616813299187133  0.0913331029729489  0.1093225879611095   T   T   T
  0.7629605257479669  0.2346577972304389  0.1103739445573770   T   T   T
  0.7641380161884157  0.3777601313795366  0.1109013390356516   T   T   T
  0.7634180783712188  0.5204241622194015  0.1082211325665583   T   T   T
  0.7589669201600706  0.6599918742275656  0.1102457480720516   T   T   T
  0.7556532217938865  0.8011945395057610  0.1111151894566571   T   T   T
  0.9507409339147382  0.9023741170300822  0.1053824506946568   T   T   T
  0.9526010661951898  0.0455197773987669  0.1064329399597854   T   T   T
  0.9538487167516939  0.1885743975072590  0.1068626986423747   T   T   T
  0.9536364362871290  0.3313012195188560  0.1070914911276718   T   T   T
  0.9522873715968810  0.4742446701569790  0.1067283612781362   T   T   T
  0.9510756392882153  0.6174143338245585  0.1050420852098155   T   T   T
  0.9504268192380307  0.7601146610341860  0.1044409656080442   T   T   T
  0.0946593813261930  0.9052673094561555  0.1045953094174205   T   T   T
  0.0971196666278439  0.0491402281984136  0.1058782523070181   T   T   T
  0.0997406642191983  0.1929644008421915  0.1071194061918701   T   T   T
  0.0980926973463148  0.3338058567261528  0.1076988558085424   T   T   T
  0.0946662854982933  0.4755933763010202  0.1075817154583283   T   T   T
  0.0927721936814274  0.6186071091081169  0.1068255166825876   T   T   T
  0.0935086383237288  0.7620024342940335  0.1050457589509887   T   T   T
  0.2372831258024661  0.9061805541306801  0.1074550008110616   T   T   T
  0.2394307900020659  0.0501322023299686  0.1083950876814171   T   T   T
  0.2441913119544317  0.1963795246968662  0.1099856044549199   T   T   T
  0.2477983907219647  0.3415737070171910  0.1103726155789522   T   T   T
  0.2382441923654134  0.4781317196502221  0.1098791668501349   T   T   T
  0.2336091158443965  0.6198370726324978  0.1091257346985785   T   T   T
  0.2356965975575765  0.7629443272093426  0.1084136062163188   T   T   T
  0.3797356894638644  0.9058993590150290  0.1102442366149172   T   T   T
  0.3813256005369539  0.0490783654320820  0.1117666410240518   T   T   T
  0.3839726840750754  0.1939757844371656  0.1152035808701005   T   T   T
  0.3936727669650057  0.3457849205262892  0.1165230707785609   T   T   T
  0.3940917701128463  0.4944337607095554  0.1142924229377651   T   T   T
  0.3730479178310144  0.6222279437440295  0.1062312221309402   T   T   T
  0.3777166030735794  0.7635387281089924  0.1093424472672299   T   T   T
  0.5219999165145135  0.9029037955556974  0.1108962199713206   T   T   T
  0.5237346990982974  0.0462738136158803  0.1122652267570165   T   T   T
  0.5252154435498619  0.1894073627929073  0.1163355911046459   T   T   T
  0.5283723513468865  0.3331458775493222  0.1203918624563547   T   T   T
  0.5183309042624443  0.7580312252420403  0.1095922245239530   T   T   T
  0.6633148250007845  0.8978362162066302  0.1113380581980262   T   T   T
  0.6661103341003897  0.0434500594747150  0.1105562469487361   T   T   T
  0.6675743384398372  0.1869744017452313  0.1127297657645871   T   T   T
  0.6691508765022484  0.3294150089387505  0.1150128155000732   T   T   T
  0.6678390406598528  0.4705688856584014  0.1105009316207319   T   T   T
  0.6606880736262194  0.6065799813979456  0.1142877108945986   T   T   T
  0.6567982436521123  0.7479734817391771  0.1151878743933735   T   T   T
  0.8054358859345887  0.8978464339769374  0.1090958558615276   T   T   T
  0.8086481280089107  0.0430348970540184  0.1085484313124339   T   T   T
  0.8102340487348391  0.1869874581215359  0.1087361778483971   T   T   T
  0.8109303075323030  0.3301841753877910  0.1094981285472794   T   T   T
  0.8102654266342113  0.4730956253435800  0.1083924545819722   T   T   T
  0.8081675575509063  0.6150830288644585  0.1071703657045476   T   T   T
  0.8048048454885892  0.7553327845014427  0.1090883963403367   T   T   T
  0.5191267082641123  0.5130643487880213  0.2268095270578092   T   T   T

  0.00000000E+00  0.00000000E+00  0.00000000E+00
  0.00000000E+00  0.00000000E+00  0.00000000E+00
  0.00000000E+00  0.00000000E+00  0.00000000E+00
  0.00000000E+00  0.00000000E+00  0.00000000E+00
  0.00000000E+00  0.00000000E+00  0.00000000E+00
  0.00000000E+00  0.00000000E+00  0.00000000E+00
  0.00000000E+00  0.00000000E+00  0.00000000E+00
  0.00000000E+00  0.00000000E+00  0.00000000E+00
  0.00000000E+00  0.00000000E+00  0.00000000E+00
  0.00000000E+00  0.00000000E+00  0.00000000E+00
  0.00000000E+00  0.00000000E+00  0.00000000E+00
  0.00000000E+00  0.00000000E+00  0.00000000E+00
  0.00000000E+00  0.00000000E+00  0.00000000E+00
  0.00000000E+00  0.00000000E+00  0.00000000E+00
  0.00000000E+00  0.00000000E+00  0.00000000E+00
  0.00000000E+00  0.00000000E+00  0.00000000E+00
  0.00000000E+00  0.00000000E+00  0.00000000E+00
  0.00000000E+00  0.00000000E+00  0.00000000E+00
  0.00000000E+00  0.00000000E+00  0.00000000E+00
  0.00000000E+00  0.00000000E+00  0.00000000E+00
  0.00000000E+00  0.00000000E+00  0.00000000E+00
  0.00000000E+00  0.00000000E+00  0.00000000E+00
  0.00000000E+00  0.00000000E+00  0.00000000E+00
  0.00000000E+00  0.00000000E+00  0.00000000E+00
  0.00000000E+00  0.00000000E+00  0.00000000E+00
  0.00000000E+00  0.00000000E+00  0.00000000E+00
  0.00000000E+00  0.00000000E+00  0.00000000E+00
  0.00000000E+00  0.00000000E+00  0.00000000E+00
  0.00000000E+00  0.00000000E+00  0.00000000E+00
  0.00000000E+00  0.00000000E+00  0.00000000E+00
  0.00000000E+00  0.00000000E+00  0.00000000E+00
  0.00000000E+00  0.00000000E+00  0.00000000E+00
  0.00000000E+00  0.00000000E+00  0.00000000E+00
  0.00000000E+00  0.00000000E+00  0.00000000E+00
  0.00000000E+00  0.00000000E+00  0.00000000E+00
  0.00000000E+00  0.00000000E+00  0.00000000E+00
  0.00000000E+00  0.00000000E+00  0.00000000E+00
  0.00000000E+00  0.00000000E+00  0.00000000E+00
  0.00000000E+00  0.00000000E+00  0.00000000E+00
  0.00000000E+00  0.00000000E+00  0.00000000E+00
  0.00000000E+00  0.00000000E+00  0.00000000E+00
  0.00000000E+00  0.00000000E+00  0.00000000E+00
  0.00000000E+00  0.00000000E+00  0.00000000E+00
  0.00000000E+00  0.00000000E+00  0.00000000E+00
  0.00000000E+00  0.00000000E+00  0.00000000E+00
  0.00000000E+00  0.00000000E+00  0.00000000E+00
  0.00000000E+00  0.00000000E+00  0.00000000E+00
  0.00000000E+00  0.00000000E+00  0.00000000E+00
  0.00000000E+00  0.00000000E+00  0.00000000E+00
  0.00000000E+00  0.00000000E+00  0.00000000E+00
  0.00000000E+00  0.00000000E+00  0.00000000E+00
  0.00000000E+00  0.00000000E+00  0.00000000E+00
  0.00000000E+00  0.00000000E+00  0.00000000E+00
  0.00000000E+00  0.00000000E+00  0.00000000E+00
  0.00000000E+00  0.00000000E+00  0.00000000E+00
  0.00000000E+00  0.00000000E+00  0.00000000E+00
  0.00000000E+00  0.00000000E+00  0.00000000E+00
  0.00000000E+00  0.00000000E+00  0.00000000E+00
  0.00000000E+00  0.00000000E+00  0.00000000E+00
  0.00000000E+00  0.00000000E+00  0.00000000E+00
  0.00000000E+00  0.00000000E+00  0.00000000E+00
  0.00000000E+00  0.00000000E+00  0.00000000E+00
  0.00000000E+00  0.00000000E+00  0.00000000E+00
  0.00000000E+00  0.00000000E+00  0.00000000E+00
  0.00000000E+00  0.00000000E+00  0.00000000E+00
  0.00000000E+00  0.00000000E+00  0.00000000E+00
  0.00000000E+00  0.00000000E+00  0.00000000E+00
  0.00000000E+00  0.00000000E+00  0.00000000E+00
  0.00000000E+00  0.00000000E+00  0.00000000E+00
  0.00000000E+00  0.00000000E+00  0.00000000E+00
  0.00000000E+00  0.00000000E+00  0.00000000E+00
  0.00000000E+00  0.00000000E+00  0.00000000E+00
  0.00000000E+00  0.00000000E+00  0.00000000E+00
  0.00000000E+00  0.00000000E+00  0.00000000E+00
  0.00000000E+00  0.00000000E+00  0.00000000E+00
  0.00000000E+00  0.00000000E+00  0.00000000E+00
  0.00000000E+00  0.00000000E+00  0.00000000E+00
  0.00000000E+00  0.00000000E+00  0.00000000E+00
  0.00000000E+00  0.00000000E+00  0.00000000E+00
  0.00000000E+00  0.00000000E+00  0.00000000E+00
  0.00000000E+00  0.00000000E+00  0.00000000E+00
  0.00000000E+00  0.00000000E+00  0.00000000E+00
  0.00000000E+00  0.00000000E+00  0.00000000E+00
  0.00000000E+00  0.00000000E+00  0.00000000E+00
  0.00000000E+00  0.00000000E+00  0.00000000E+00
  0.00000000E+00  0.00000000E+00  0.00000000E+00
  0.00000000E+00  0.00000000E+00  0.00000000E+00
  0.00000000E+00  0.00000000E+00  0.00000000E+00
  0.00000000E+00  0.00000000E+00  0.00000000E+00
  0.00000000E+00  0.00000000E+00  0.00000000E+00
  0.00000000E+00  0.00000000E+00  0.00000000E+00
  0.00000000E+00  0.00000000E+00  0.00000000E+00
  0.00000000E+00  0.00000000E+00  0.00000000E+00
  0.00000000E+00  0.00000000E+00  0.00000000E+00
  0.00000000E+00  0.00000000E+00  0.00000000E+00
  0.00000000E+00  0.00000000E+00  0.00000000E+00
  0.00000000E+00  0.00000000E+00  0.00000000E+00
