Species order: X N B                    
   2.51242800000000     
     5.9449720136058266    0.0000000000000000    0.0000000000000000
    -2.9724860068029120    5.1484967885702053   -0.0000000000000001
     0.0000000000000000    0.0000000000000009    5.3101128803662583
   Sn   N    B 
     1   143   144
Direct
  0.5555555555555571  0.4444444444444429  0.3750000000000000
  0.1110837735760978  0.0555574548468042  0.1249628751417479
  0.6112529005206270  0.5558391343745824  0.1179232035635750
  0.4444709565988358  0.0555944201170203  0.1250090163486774
  0.9444055798829836  0.5555290434011725  0.1250090163486786
  0.7777990068775679  0.0555661701054529  0.1247395672897874
  0.1110933236296138  0.7222133284814628  0.6247976224710272
  0.4444709565988340  0.7222098698151569  0.6249909836513307
  0.2777065669974812  0.2222006553189291  0.6265568049261659
  0.7777993446810686  0.7222934330025321  0.6265568049261644
  0.6111607549881322  0.2222006553189279  0.6265568049261659
  0.9444338298945346  0.2222009931224293  0.6252604327102038
  0.2777866715185311  0.7222133284814628  0.1252023775289680
  0.1110455388191266  0.2221894360762265  0.1245697492605383
  0.4444728458164093  0.2222790249661570  0.1228000926508844
  0.6111607549881248  0.7222934330025322  0.1234431950738365
  0.9444055798829836  0.7222098698151569  0.1250090163486774
  0.7778105639237672  0.2221894360762265  0.1245697492605383
  0.1111006592163720  0.8888993407836294  0.6248274734783699
  0.4444653482339276  0.8888993407836294  0.6248274734783699
  0.2777065669974780  0.3888392450118710  0.6265568049261659
  0.6112529005206276  0.3887470994793730  0.6320767964364321
  0.7778105639237672  0.8889544611808700  0.6254302507394650
  0.9444425451531967  0.3888596520626147  0.6250371248582499
  0.1110837735760977  0.3888596520626147  0.1249628751417462
  0.2777866715185306  0.8889066763703899  0.1252023775289680
  0.6111403479373820  0.8889162264238943  0.1249628751417479
  0.4441608656254193  0.3887470994793750  0.1179232035635750
  0.9444425451531967  0.8889162264238943  0.1249628751417479
  0.7777993446810672  0.3888392450118690  0.1234431950738365
  0.2777901301848512  0.5555290434011725  0.6249909836513307
  0.1110837735760978  0.0555574548468042  0.6250371248582499
  0.6112529005206268  0.5558391343745824  0.6320767964364320
  0.4444709565988358  0.0555944201170205  0.6249909836513307
  0.9444055798829836  0.5555290434011725  0.6249909836513307
  0.1111006592163719  0.5555346517660693  0.1251725265216292
  0.7777990068775679  0.0555661701054529  0.6252604327102038
  0.2777901301848512  0.0555944201170202  0.1250090163486774
  0.4444728458164074  0.5555271541836023  0.1228000926508837
  0.7777209750338423  0.5555271541836009  0.1228000926508837
  0.6111403479373820  0.0555574548468048  0.1249628751417479
  0.4444728458164086  0.5555271541836009  0.6271999073491048
  0.9444338298945346  0.0555661701054529  0.1247395672897874
  0.2777866715185311  0.7222133284814628  0.6247976224710272
  0.1110455388191258  0.2221894360762265  0.6254302507394650
  0.4444728458164092  0.2222790249661571  0.6271999073491048
  0.6111607549881299  0.7222934330025322  0.6265568049261659
  0.9444055798829836  0.7222098698151569  0.6249909836513307
  0.7778105639237672  0.2221894360762268  0.6254302507394650
  0.1110933236296140  0.7222133284814628  0.1252023775289680
  0.4444709565988359  0.7222098698151569  0.1250090163486774
  0.2777065669974812  0.2222006553189275  0.1234431950738357
  0.7777993446810672  0.7222934330025321  0.1234431950738365
  0.6111607549881255  0.2222006553189279  0.1234431950738357
  0.9444338298945346  0.2222009931224293  0.1247395672897874
  0.1110837735760975  0.3888596520626147  0.6250371248582499
  0.2777866715185306  0.8889066763703899  0.6247976224710272
  0.6111403479373820  0.8889162264238948  0.6250371248582499
  0.4441608656254193  0.3887470994793750  0.6320767964364321
  0.9444425451531967  0.8889162264238948  0.6250371248582499
  0.1111006592163720  0.8888993407836294  0.1251725265216292
  0.7777993446810670  0.3888392450118690  0.6265568049261659
  0.4444653482339276  0.8888993407836294  0.1251725265216292
  0.2777065669974802  0.3888392450118709  0.1234431950738365
  0.2777901301848512  0.5555290434011725  0.1250090163486786
  0.6112529005206248  0.3887470994793749  0.1179232035635755
  0.7778105639237672  0.8889544611808700  0.1245697492605383
  0.9444425451531967  0.3888596520626147  0.1249628751417479
  0.1111006592163719  0.5555346517660693  0.6248274734783699
  0.2777901301848512  0.0555944201170200  0.6249909836513307
  0.7777209750338406  0.5555271541836009  0.6271999073491048
  0.6111403479373820  0.0555574548468042  0.6250371248582499
  0.9444338298945346  0.0555661701054529  0.6252604327102038
  0.0539588625620946  0.1100361478216440  0.3750000000000000
  0.5556201312109290  0.6246823117576119  0.3750000000000000
  0.3870099261342875  0.1073531856019176  0.3750000000000000
  0.8926468143980819  0.6129900738657108  0.3750000000000000
  0.7227439519262230  0.1100361478216440  0.3750000000000000
  0.0555713306123141  0.7777836132341669  0.8750000000000000
  0.3888789492885271  0.7777836132341669  0.8750000000000000
  0.2222280305413452  0.2777806819373432  0.8750000000000000
  0.7222193180626639  0.7777719694586455  0.8750000000000000
  0.5555299915265526  0.2777403806073460  0.8750000000000000
  0.8888915786426270  0.2777858940843244  0.8750000000000000
  0.2222222222222214  0.7777777777777786  0.3750000000000000
  0.0539588625620950  0.2772560480737901  0.3750000000000000
  0.3753176882423885  0.2642711527866477  0.3750000000000000
  0.5548870520272051  0.7832393436674697  0.3750000000000000
  0.8950189583069197  0.7832393436674697  0.3750000000000000
  0.7247923250213533  0.2752076749786545  0.3750000000000000
  0.0555607776751919  0.9444392223247901  0.8750000000000000
  0.3888789492885271  0.9444286693876938  0.8750000000000000
  0.2222183367883258  0.4444593620972315  0.8750000000000000
  0.5555555555555571  0.4444444444444429  0.8750000000000000
  0.7222141059156852  0.9444390178916415  0.8750000000000000
  0.8889076919755692  0.4444593620972314  0.8750000000000000
  0.0558669525669653  0.4450672384672622  0.3750000000000000
  0.2216458264542662  0.9428941789002366  0.3750000000000000
  0.5549327615327482  0.9441330474330392  0.3750000000000000
  0.3753176882423863  0.4443798687890643  0.3750000000000000
  0.8899638521783629  0.9460411374379059  0.3750000000000000
  0.7357288472133535  0.4443798687890625  0.3750000000000000
  0.2222163867658241  0.6111210507114890  0.8750000000000000
  0.0555609821083494  0.1111084213573657  0.8750000000000000
  0.5555299915265560  0.6111229442525541  0.8750000000000000
  0.3888690724840581  0.1110714783014595  0.8750000000000000
  0.8889285216985411  0.6111309275159527  0.8750000000000000
  0.0571058210997681  0.6120849808873645  0.3750000000000000
  0.7222141059156852  0.1111084213573657  0.8750000000000000
  0.2167606563325392  0.1049810416930786  0.3750000000000000
  0.3870099261342899  0.6129900738657089  0.3750000000000000
  0.7357288472133523  0.6246823117576191  0.3750000000000000
  0.5548870520272098  0.1049810416930800  0.3750000000000000
  0.3888690724840551  0.6111309275159527  0.8750000000000000
  0.8888888888888857  0.1111111111111147  0.3750000000000000
  0.2222222222222214  0.7777777777777786  0.8750000000000000
  0.0555609821083494  0.2777858940843244  0.8750000000000000
  0.3888770557474538  0.2777403806073444  0.8750000000000000
  0.5555406379027636  0.7777816632116676  0.8750000000000000
  0.8889076919755692  0.7777816632116676  0.8750000000000000
  0.7222193180626639  0.2777806819373442  0.8750000000000000
  0.0571058210997679  0.7783541735457242  0.3750000000000000
  0.3879150191126364  0.7783541735457242  0.3750000000000000
  0.2170820166239642  0.2752076749786543  0.3750000000000000
  0.7247923250213492  0.7829179833760271  0.3750000000000000
  0.5556201312109393  0.2642711527866475  0.3750000000000000
  0.8899638521783625  0.2772560480737900  0.3750000000000000
  0.0555607776751919  0.4444548886837135  0.8750000000000000
  0.2222163867658241  0.9444286693876938  0.8750000000000000
  0.5555451113162823  0.9444392223247901  0.8750000000000000
  0.3888770557474538  0.4444700084734446  0.8750000000000000
  0.8888915786426270  0.9444390178916415  0.8750000000000000
  0.0558669525669642  0.9441330474330392  0.3750000000000000
  0.7222596193926459  0.4444700084734446  0.8750000000000000
  0.3879150191126379  0.9428941789002407  0.3750000000000000
  0.2167606563325409  0.4451129479727932  0.3750000000000000
  0.2216458264542656  0.6120849808873650  0.3750000000000000
  0.7227439519262230  0.9460411374379087  0.3750000000000000
  0.8950189583069199  0.4451129479727958  0.3750000000000000
  0.0555713306123142  0.6111210507114890  0.8750000000000000
  0.2222183367883241  0.1110923080244327  0.8750000000000000
  0.7222596193926460  0.6111229442525541  0.8750000000000000
  0.5555406379027636  0.1110923080244306  0.8750000000000000
  0.8888888888888857  0.1111111111111147  0.8750000000000000
  0.1081790376308353  0.0532090720558807  0.3750000000000000
  0.6277732454332754  0.5888798241998741  0.3750000000000000
  0.4437425813788968  0.0531161258198650  0.3750000000000000
  0.9468838741801376  0.5562574186210858  0.3750000000000000
  0.7784272980817681  0.0558803157075533  0.3750000000000000
  0.1111021193708856  0.7222177263521130  0.8750000000000000
  0.4444409177481347  0.7221872800389717  0.8750000000000000
  0.2778818187263190  0.2222820032180575  0.8750000000000000
  0.7777179967819355  0.7221181812736933  0.8750000000000000
  0.6110668511584060  0.2222820032180578  0.8750000000000000
  0.9444539716513539  0.2222412766360374  0.8750000000000000
  0.2773840161143550  0.7226159838856320  0.3750000000000000
  0.1080442419228002  0.2206887876280629  0.3750000000000000
  0.4424131234945302  0.2181595803223990  0.3750000000000000
  0.6122958738732280  0.7318355560475504  0.3750000000000000
  0.9468838741801412  0.7239597888923688  0.3750000000000000
  0.7793112123719323  0.2206887876280662  0.3750000000000000
  0.1111152000980362  0.8888847999019660  0.8750000000000000
  0.4444362664705938  0.8888847999019660  0.8750000000000000
  0.2778818187263200  0.3889331488415954  0.8750000000000000
  0.6110601624970140  0.3889398375029777  0.8750000000000000
  0.7777427424191318  0.8888188181715834  0.8750000000000000
  0.9444284907323768  0.3889131722101410  0.8750000000000000
  0.1081790376308358  0.3883032989082835  0.3750000000000000
  0.2773840161143523  0.8881013655620333  0.3750000000000000
  0.6116967010917174  0.8918209623691699  0.3750000000000000
  0.4111201758001170  0.3722267545667290  0.3750000000000000
  0.9467909279441147  0.8918209623691700  0.3750000000000000
  0.7862063488410066  0.3877041261267735  0.3750000000000000
  0.2778127199610299  0.5555590822518600  0.8750000000000000
  0.1111513481444334  0.0555715092676206  0.8750000000000000
  0.6110601624970140  0.5554536583273687  0.8750000000000000
  0.4444409177481357  0.0555869710425004  0.8750000000000000
  0.9444130289574955  0.5555590822518600  0.8750000000000000
  0.1113420369520094  0.5560174072373396  0.3750000000000000
  0.7777587233639570  0.0555460283486479  0.8750000000000000
  0.2760402111076266  0.0531161258198651  0.3750000000000000
  0.4424131234945302  0.5575868765054766  0.3750000000000000
  0.7818404196776039  0.5575868765054733  0.3750000000000000
  0.6116967010917155  0.0532090720558808  0.3750000000000000
  0.4444758212999838  0.5555241787000244  0.8750000000000000
  0.9441196842924460  0.0558803157075534  0.3750000000000000
  0.2777822736478918  0.7222177263521130  0.8750000000000000
  0.1111811818284055  0.2222572575808668  0.8750000000000000
  0.4444758212999838  0.2222849759333064  0.8750000000000000
  0.6110668511584133  0.7221181812736933  0.8750000000000000
  0.9444130289574955  0.7221872800389717  0.8750000000000000
  0.7777427424191353  0.2222572575808668  0.8750000000000000
  0.1118986344379636  0.7226159838856320  0.3750000000000000
  0.4437425813788968  0.7239597888923688  0.3750000000000000
  0.2681644439524506  0.2137936511590046  0.3750000000000000
  0.7862063488409943  0.7318355560475507  0.3750000000000000
  0.6122958738732266  0.2137936511590041  0.3750000000000000
  0.9441196842924460  0.2215727019182291  0.3750000000000000
  0.1111513481444352  0.3889131722101410  0.8750000000000000
  0.2777822736478918  0.8888978806291137  0.8750000000000000
  0.6110868277898617  0.8888486518555536  0.8750000000000000
  0.4445463416726310  0.3889398375029777  0.8750000000000000
  0.9444284907323768  0.8888486518555536  0.8750000000000000
  0.1113420369520096  0.8886579630479835  0.3750000000000000
  0.7777179967819355  0.3889331488415954  0.8750000000000000
  0.4439825927626420  0.8886579630479835  0.3750000000000000
  0.2681644439524520  0.3877041261267736  0.3750000000000000
  0.2760402111076271  0.5562574186210855  0.3750000000000000
  0.6277732454332801  0.3722267545667235  0.3750000000000000
  0.7793112123719294  0.8919557580772001  0.3750000000000000
  0.9467909279441147  0.3883032989082828  0.3750000000000000
  0.1111152000980362  0.5555637335293812  0.8750000000000000
  0.2778127199610299  0.0555869710425003  0.8750000000000000
  0.7777150240666968  0.5555241787000244  0.8750000000000000
  0.6110868277898617  0.0555715092676206  0.8750000000000000
  0.9444539716513539  0.0555460283486478  0.8750000000000000
  0.0555621438639754  0.1111432149472971  0.1249175031145374
  0.5557156046837892  0.6109190518521270  0.1217873254436466
  0.3890467464212121  0.1114268261757742  0.1247006437388819
  0.8885731738242326  0.6109532535787734  0.1247006437388819
  0.7222477377499855  0.1111432149472964  0.1249175031145374
  0.0554399295928032  0.7777375243785272  0.6246931985126156
  0.3889642614524070  0.7777375243785272  0.6246931985126156
  0.2223004673514322  0.2778169003423862  0.6259740611054907
  0.7221830996576076  0.7776995326485642  0.6259740611054907
  0.5557156046837892  0.2781298861650062  0.6282126745563533
  0.8888567850527050  0.2777522622500106  0.6250824968854588
  0.2222222222222214  0.7777777777777786  0.1252929616778296
  0.0555621438639752  0.2777522622500107  0.1249175031145374
  0.3890809481478736  0.2781298861650060  0.1217873254436466
  0.5556362493496194  0.7776930163564884  0.1247670193371062
  0.8887234336735474  0.7776930163564884  0.1247670193371049
  0.7221830996576095  0.2778169003423862  0.1240259388944994
  0.0555251156504390  0.9444748843495613  0.6247891982818756
  0.3889642614524086  0.9445600704071857  0.6246931985126156
  0.2223069836435133  0.4443637506503799  0.6252329806628900
  0.5555555555555571  0.4444444444444429  0.6280236990873526
  0.7222477377499855  0.9444378561360210  0.6250824968854588
  0.8887234336735415  0.4443637506503799  0.6252329806628900
  0.0555251156504391  0.4443835646342084  0.1252108017181325
  0.2222624756214537  0.9445600704071867  0.1253068014873809
  0.5556164353657947  0.9444748843495613  0.1252108017181325
  0.3890809481478708  0.4442843953162001  0.1217873254436466
  0.8888567850527050  0.9444378561360210  0.1249175031145374
  0.7218701138349961  0.4442843953162001  0.1217873254436466
  0.2222624756214537  0.6110357385475744  0.6246931985126156
  0.0555621438639754  0.1111432149472973  0.6250824968854588
  0.5557156046837852  0.6109190518521302  0.6282126745563533
  0.3890467464212121  0.1114268261757723  0.6252993562611460
  0.8885731738242326  0.6109532535787733  0.6252993562611460
  0.0554399295928026  0.6110357385475819  0.1253068014873809
  0.7222477377499855  0.1111432149472973  0.6250824968854588
  0.2223069836435133  0.1112765663264646  0.1247670193371049
  0.3890467464212136  0.6109532535787734  0.1247006437388819
  0.7218701138350035  0.6109190518521301  0.1217873254436466
  0.5556362493496265  0.1112765663264630  0.1247670193371048
  0.3890467464212121  0.6109532535787734  0.6252993562611460
  0.8888888888888857  0.1111111111111147  0.1248503534676411
  0.2222222222222214  0.7777777777777786  0.6247070383221737
  0.0555621438639755  0.2777522622500107  0.6250824968854588
  0.3890809481478734  0.2781298861650039  0.6282126745563533
  0.5556362493496194  0.7776930163564884  0.6252329806628900
  0.8887234336735474  0.7776930163564885  0.6252329806628900
  0.7221830996576076  0.2778169003423859  0.6259740611054907
  0.0554399295928032  0.7777375243785272  0.1253068014873809
  0.3889642614524070  0.7777375243785272  0.1253068014873809
  0.2223004673514313  0.2778169003423862  0.1240259388944994
  0.7221830996576076  0.7776995326485643  0.1240259388944984
  0.5557156046837803  0.2781298861650036  0.1217873254436466
  0.8888567850527050  0.2777522622500107  0.1249175031145374
  0.0555251156504392  0.4443835646342084  0.6247891982818756
  0.2222624756214537  0.9445600704071867  0.6246931985126156
  0.5556164353657947  0.9444748843495613  0.6247891982818756
  0.3890809481478734  0.4442843953162001  0.6282126745563525
  0.8888567850527050  0.9444378561360210  0.6250824968854588
  0.0555251156504392  0.9444748843495613  0.1252108017181325
  0.7218701138350035  0.4442843953162001  0.6282126745563525
  0.3889642614524070  0.9445600704071857  0.1253068014873809
  0.2223069836435136  0.4443637506503808  0.1247670193371052
  0.2222624756214537  0.6110357385475819  0.1253068014873809
  0.5555555555555571  0.4444444444444429  0.1219763009126603
  0.7222477377499855  0.9444378561360210  0.1249175031145374
  0.8887234336735415  0.4443637506503799  0.1247670193371062
  0.0554399295928027  0.6110357385475819  0.6246931985126156
  0.2223069836435137  0.1112765663264632  0.6252329806628900
  0.7218701138350035  0.6109190518521301  0.6282126745563525
  0.5556362493496194  0.1112765663264630  0.6252329806628900
  0.8888888888888857  0.1111111111111147  0.6251496465323527
 
  0.00000000E+00  0.00000000E+00  0.00000000E+00
  0.00000000E+00  0.00000000E+00  0.00000000E+00
  0.00000000E+00  0.00000000E+00  0.00000000E+00
  0.00000000E+00  0.00000000E+00  0.00000000E+00
  0.00000000E+00  0.00000000E+00  0.00000000E+00
  0.00000000E+00  0.00000000E+00  0.00000000E+00
  0.00000000E+00  0.00000000E+00  0.00000000E+00
  0.00000000E+00  0.00000000E+00  0.00000000E+00
  0.00000000E+00  0.00000000E+00  0.00000000E+00
  0.00000000E+00  0.00000000E+00  0.00000000E+00
  0.00000000E+00  0.00000000E+00  0.00000000E+00
  0.00000000E+00  0.00000000E+00  0.00000000E+00
  0.00000000E+00  0.00000000E+00  0.00000000E+00
  0.00000000E+00  0.00000000E+00  0.00000000E+00
  0.00000000E+00  0.00000000E+00  0.00000000E+00
  0.00000000E+00  0.00000000E+00  0.00000000E+00
  0.00000000E+00  0.00000000E+00  0.00000000E+00
  0.00000000E+00  0.00000000E+00  0.00000000E+00
  0.00000000E+00  0.00000000E+00  0.00000000E+00
  0.00000000E+00  0.00000000E+00  0.00000000E+00
  0.00000000E+00  0.00000000E+00  0.00000000E+00
  0.00000000E+00  0.00000000E+00  0.00000000E+00
  0.00000000E+00  0.00000000E+00  0.00000000E+00
  0.00000000E+00  0.00000000E+00  0.00000000E+00
  0.00000000E+00  0.00000000E+00  0.00000000E+00
  0.00000000E+00  0.00000000E+00  0.00000000E+00
  0.00000000E+00  0.00000000E+00  0.00000000E+00
  0.00000000E+00  0.00000000E+00  0.00000000E+00
  0.00000000E+00  0.00000000E+00  0.00000000E+00
  0.00000000E+00  0.00000000E+00  0.00000000E+00
  0.00000000E+00  0.00000000E+00  0.00000000E+00
  0.00000000E+00  0.00000000E+00  0.00000000E+00
  0.00000000E+00  0.00000000E+00  0.00000000E+00
  0.00000000E+00  0.00000000E+00  0.00000000E+00
  0.00000000E+00  0.00000000E+00  0.00000000E+00
  0.00000000E+00  0.00000000E+00  0.00000000E+00
  0.00000000E+00  0.00000000E+00  0.00000000E+00
  0.00000000E+00  0.00000000E+00  0.00000000E+00
  0.00000000E+00  0.00000000E+00  0.00000000E+00
  0.00000000E+00  0.00000000E+00  0.00000000E+00
  0.00000000E+00  0.00000000E+00  0.00000000E+00
  0.00000000E+00  0.00000000E+00  0.00000000E+00
  0.00000000E+00  0.00000000E+00  0.00000000E+00
  0.00000000E+00  0.00000000E+00  0.00000000E+00
  0.00000000E+00  0.00000000E+00  0.00000000E+00
  0.00000000E+00  0.00000000E+00  0.00000000E+00
  0.00000000E+00  0.00000000E+00  0.00000000E+00
  0.00000000E+00  0.00000000E+00  0.00000000E+00
  0.00000000E+00  0.00000000E+00  0.00000000E+00
  0.00000000E+00  0.00000000E+00  0.00000000E+00
  0.00000000E+00  0.00000000E+00  0.00000000E+00
  0.00000000E+00  0.00000000E+00  0.00000000E+00
  0.00000000E+00  0.00000000E+00  0.00000000E+00
  0.00000000E+00  0.00000000E+00  0.00000000E+00
  0.00000000E+00  0.00000000E+00  0.00000000E+00
  0.00000000E+00  0.00000000E+00  0.00000000E+00
  0.00000000E+00  0.00000000E+00  0.00000000E+00
  0.00000000E+00  0.00000000E+00  0.00000000E+00
  0.00000000E+00  0.00000000E+00  0.00000000E+00
  0.00000000E+00  0.00000000E+00  0.00000000E+00
  0.00000000E+00  0.00000000E+00  0.00000000E+00
  0.00000000E+00  0.00000000E+00  0.00000000E+00
  0.00000000E+00  0.00000000E+00  0.00000000E+00
  0.00000000E+00  0.00000000E+00  0.00000000E+00
  0.00000000E+00  0.00000000E+00  0.00000000E+00
  0.00000000E+00  0.00000000E+00  0.00000000E+00
  0.00000000E+00  0.00000000E+00  0.00000000E+00
  0.00000000E+00  0.00000000E+00  0.00000000E+00
  0.00000000E+00  0.00000000E+00  0.00000000E+00
  0.00000000E+00  0.00000000E+00  0.00000000E+00
  0.00000000E+00  0.00000000E+00  0.00000000E+00
  0.00000000E+00  0.00000000E+00  0.00000000E+00
  0.00000000E+00  0.00000000E+00  0.00000000E+00
  0.00000000E+00  0.00000000E+00  0.00000000E+00
  0.00000000E+00  0.00000000E+00  0.00000000E+00
  0.00000000E+00  0.00000000E+00  0.00000000E+00
  0.00000000E+00  0.00000000E+00  0.00000000E+00
  0.00000000E+00  0.00000000E+00  0.00000000E+00
  0.00000000E+00  0.00000000E+00  0.00000000E+00
  0.00000000E+00  0.00000000E+00  0.00000000E+00
  0.00000000E+00  0.00000000E+00  0.00000000E+00
  0.00000000E+00  0.00000000E+00  0.00000000E+00
  0.00000000E+00  0.00000000E+00  0.00000000E+00
  0.00000000E+00  0.00000000E+00  0.00000000E+00
  0.00000000E+00  0.00000000E+00  0.00000000E+00
  0.00000000E+00  0.00000000E+00  0.00000000E+00
  0.00000000E+00  0.00000000E+00  0.00000000E+00
  0.00000000E+00  0.00000000E+00  0.00000000E+00
  0.00000000E+00  0.00000000E+00  0.00000000E+00
  0.00000000E+00  0.00000000E+00  0.00000000E+00
  0.00000000E+00  0.00000000E+00  0.00000000E+00
  0.00000000E+00  0.00000000E+00  0.00000000E+00
  0.00000000E+00  0.00000000E+00  0.00000000E+00
  0.00000000E+00  0.00000000E+00  0.00000000E+00
  0.00000000E+00  0.00000000E+00  0.00000000E+00
  0.00000000E+00  0.00000000E+00  0.00000000E+00
  0.00000000E+00  0.00000000E+00  0.00000000E+00
  0.00000000E+00  0.00000000E+00  0.00000000E+00
  0.00000000E+00  0.00000000E+00  0.00000000E+00
  0.00000000E+00  0.00000000E+00  0.00000000E+00
  0.00000000E+00  0.00000000E+00  0.00000000E+00
  0.00000000E+00  0.00000000E+00  0.00000000E+00
  0.00000000E+00  0.00000000E+00  0.00000000E+00
  0.00000000E+00  0.00000000E+00  0.00000000E+00
  0.00000000E+00  0.00000000E+00  0.00000000E+00
  0.00000000E+00  0.00000000E+00  0.00000000E+00
  0.00000000E+00  0.00000000E+00  0.00000000E+00
  0.00000000E+00  0.00000000E+00  0.00000000E+00
  0.00000000E+00  0.00000000E+00  0.00000000E+00
  0.00000000E+00  0.00000000E+00  0.00000000E+00
  0.00000000E+00  0.00000000E+00  0.00000000E+00
  0.00000000E+00  0.00000000E+00  0.00000000E+00
  0.00000000E+00  0.00000000E+00  0.00000000E+00
  0.00000000E+00  0.00000000E+00  0.00000000E+00
  0.00000000E+00  0.00000000E+00  0.00000000E+00
  0.00000000E+00  0.00000000E+00  0.00000000E+00
  0.00000000E+00  0.00000000E+00  0.00000000E+00
  0.00000000E+00  0.00000000E+00  0.00000000E+00
  0.00000000E+00  0.00000000E+00  0.00000000E+00
  0.00000000E+00  0.00000000E+00  0.00000000E+00
  0.00000000E+00  0.00000000E+00  0.00000000E+00
  0.00000000E+00  0.00000000E+00  0.00000000E+00
  0.00000000E+00  0.00000000E+00  0.00000000E+00
  0.00000000E+00  0.00000000E+00  0.00000000E+00
  0.00000000E+00  0.00000000E+00  0.00000000E+00
  0.00000000E+00  0.00000000E+00  0.00000000E+00
  0.00000000E+00  0.00000000E+00  0.00000000E+00
  0.00000000E+00  0.00000000E+00  0.00000000E+00
  0.00000000E+00  0.00000000E+00  0.00000000E+00
  0.00000000E+00  0.00000000E+00  0.00000000E+00
  0.00000000E+00  0.00000000E+00  0.00000000E+00
  0.00000000E+00  0.00000000E+00  0.00000000E+00
  0.00000000E+00  0.00000000E+00  0.00000000E+00
  0.00000000E+00  0.00000000E+00  0.00000000E+00
  0.00000000E+00  0.00000000E+00  0.00000000E+00
  0.00000000E+00  0.00000000E+00  0.00000000E+00
  0.00000000E+00  0.00000000E+00  0.00000000E+00
  0.00000000E+00  0.00000000E+00  0.00000000E+00
  0.00000000E+00  0.00000000E+00  0.00000000E+00
  0.00000000E+00  0.00000000E+00  0.00000000E+00
  0.00000000E+00  0.00000000E+00  0.00000000E+00
  0.00000000E+00  0.00000000E+00  0.00000000E+00
  0.00000000E+00  0.00000000E+00  0.00000000E+00
  0.00000000E+00  0.00000000E+00  0.00000000E+00
  0.00000000E+00  0.00000000E+00  0.00000000E+00
  0.00000000E+00  0.00000000E+00  0.00000000E+00
  0.00000000E+00  0.00000000E+00  0.00000000E+00
  0.00000000E+00  0.00000000E+00  0.00000000E+00
  0.00000000E+00  0.00000000E+00  0.00000000E+00
  0.00000000E+00  0.00000000E+00  0.00000000E+00
  0.00000000E+00  0.00000000E+00  0.00000000E+00
  0.00000000E+00  0.00000000E+00  0.00000000E+00
  0.00000000E+00  0.00000000E+00  0.00000000E+00
  0.00000000E+00  0.00000000E+00  0.00000000E+00
  0.00000000E+00  0.00000000E+00  0.00000000E+00
  0.00000000E+00  0.00000000E+00  0.00000000E+00
  0.00000000E+00  0.00000000E+00  0.00000000E+00
  0.00000000E+00  0.00000000E+00  0.00000000E+00
  0.00000000E+00  0.00000000E+00  0.00000000E+00
  0.00000000E+00  0.00000000E+00  0.00000000E+00
  0.00000000E+00  0.00000000E+00  0.00000000E+00
  0.00000000E+00  0.00000000E+00  0.00000000E+00
  0.00000000E+00  0.00000000E+00  0.00000000E+00
  0.00000000E+00  0.00000000E+00  0.00000000E+00
  0.00000000E+00  0.00000000E+00  0.00000000E+00
  0.00000000E+00  0.00000000E+00  0.00000000E+00
  0.00000000E+00  0.00000000E+00  0.00000000E+00
  0.00000000E+00  0.00000000E+00  0.00000000E+00
  0.00000000E+00  0.00000000E+00  0.00000000E+00
  0.00000000E+00  0.00000000E+00  0.00000000E+00
  0.00000000E+00  0.00000000E+00  0.00000000E+00
  0.00000000E+00  0.00000000E+00  0.00000000E+00
  0.00000000E+00  0.00000000E+00  0.00000000E+00
  0.00000000E+00  0.00000000E+00  0.00000000E+00
  0.00000000E+00  0.00000000E+00  0.00000000E+00
  0.00000000E+00  0.00000000E+00  0.00000000E+00
  0.00000000E+00  0.00000000E+00  0.00000000E+00
  0.00000000E+00  0.00000000E+00  0.00000000E+00
  0.00000000E+00  0.00000000E+00  0.00000000E+00
  0.00000000E+00  0.00000000E+00  0.00000000E+00
  0.00000000E+00  0.00000000E+00  0.00000000E+00
  0.00000000E+00  0.00000000E+00  0.00000000E+00
  0.00000000E+00  0.00000000E+00  0.00000000E+00
  0.00000000E+00  0.00000000E+00  0.00000000E+00
  0.00000000E+00  0.00000000E+00  0.00000000E+00
  0.00000000E+00  0.00000000E+00  0.00000000E+00
  0.00000000E+00  0.00000000E+00  0.00000000E+00
  0.00000000E+00  0.00000000E+00  0.00000000E+00
  0.00000000E+00  0.00000000E+00  0.00000000E+00
  0.00000000E+00  0.00000000E+00  0.00000000E+00
  0.00000000E+00  0.00000000E+00  0.00000000E+00
  0.00000000E+00  0.00000000E+00  0.00000000E+00
  0.00000000E+00  0.00000000E+00  0.00000000E+00
  0.00000000E+00  0.00000000E+00  0.00000000E+00
  0.00000000E+00  0.00000000E+00  0.00000000E+00
  0.00000000E+00  0.00000000E+00  0.00000000E+00
  0.00000000E+00  0.00000000E+00  0.00000000E+00
  0.00000000E+00  0.00000000E+00  0.00000000E+00
  0.00000000E+00  0.00000000E+00  0.00000000E+00
  0.00000000E+00  0.00000000E+00  0.00000000E+00
  0.00000000E+00  0.00000000E+00  0.00000000E+00
  0.00000000E+00  0.00000000E+00  0.00000000E+00
  0.00000000E+00  0.00000000E+00  0.00000000E+00
  0.00000000E+00  0.00000000E+00  0.00000000E+00
  0.00000000E+00  0.00000000E+00  0.00000000E+00
  0.00000000E+00  0.00000000E+00  0.00000000E+00
  0.00000000E+00  0.00000000E+00  0.00000000E+00
  0.00000000E+00  0.00000000E+00  0.00000000E+00
  0.00000000E+00  0.00000000E+00  0.00000000E+00
  0.00000000E+00  0.00000000E+00  0.00000000E+00
  0.00000000E+00  0.00000000E+00  0.00000000E+00
  0.00000000E+00  0.00000000E+00  0.00000000E+00
  0.00000000E+00  0.00000000E+00  0.00000000E+00
  0.00000000E+00  0.00000000E+00  0.00000000E+00
  0.00000000E+00  0.00000000E+00  0.00000000E+00
  0.00000000E+00  0.00000000E+00  0.00000000E+00
  0.00000000E+00  0.00000000E+00  0.00000000E+00
  0.00000000E+00  0.00000000E+00  0.00000000E+00
  0.00000000E+00  0.00000000E+00  0.00000000E+00
  0.00000000E+00  0.00000000E+00  0.00000000E+00
  0.00000000E+00  0.00000000E+00  0.00000000E+00
  0.00000000E+00  0.00000000E+00  0.00000000E+00
  0.00000000E+00  0.00000000E+00  0.00000000E+00
  0.00000000E+00  0.00000000E+00  0.00000000E+00
  0.00000000E+00  0.00000000E+00  0.00000000E+00
  0.00000000E+00  0.00000000E+00  0.00000000E+00
  0.00000000E+00  0.00000000E+00  0.00000000E+00
  0.00000000E+00  0.00000000E+00  0.00000000E+00
  0.00000000E+00  0.00000000E+00  0.00000000E+00
  0.00000000E+00  0.00000000E+00  0.00000000E+00
  0.00000000E+00  0.00000000E+00  0.00000000E+00
  0.00000000E+00  0.00000000E+00  0.00000000E+00
  0.00000000E+00  0.00000000E+00  0.00000000E+00
  0.00000000E+00  0.00000000E+00  0.00000000E+00
  0.00000000E+00  0.00000000E+00  0.00000000E+00
  0.00000000E+00  0.00000000E+00  0.00000000E+00
  0.00000000E+00  0.00000000E+00  0.00000000E+00
  0.00000000E+00  0.00000000E+00  0.00000000E+00
  0.00000000E+00  0.00000000E+00  0.00000000E+00
  0.00000000E+00  0.00000000E+00  0.00000000E+00
  0.00000000E+00  0.00000000E+00  0.00000000E+00
  0.00000000E+00  0.00000000E+00  0.00000000E+00
  0.00000000E+00  0.00000000E+00  0.00000000E+00
  0.00000000E+00  0.00000000E+00  0.00000000E+00
  0.00000000E+00  0.00000000E+00  0.00000000E+00
  0.00000000E+00  0.00000000E+00  0.00000000E+00
  0.00000000E+00  0.00000000E+00  0.00000000E+00