 N Sn B 
 1.0
 14.936314146199660   0.000000000000000   0.000000000000000
 -7.468157073099825  12.935227489513863   0.000000000000000
  0.000000000000001   0.000000000000001  13.341276283792837
 N Sn B 
 143   1 144
Cartesian
  1.244270339300329   0.718648317181805   1.667164242483168 
  4.978771382066595   7.189905650709683   1.573246039011598 
  6.223569974800283   0.719126471361260   1.667779825072875 
  9.957160267767264   7.185894553426181   1.667779825072902 
 11.202473423027358   0.718761051035059   1.664185030733816 
 -3.734277796108465   9.341993699866727   8.335597702842863 
  1.245181089099491   9.341948961231248   8.338177387771859 
  2.488483129469544   2.874216024869406   8.359067442010474 
  6.223254544333263   9.343029870069692   8.359067442010446 
  7.469059634663833   2.874216024869393   8.359067442010474 
 12.446928455166193   2.874220394434525   8.341772182110692 
 -1.244493585957853   9.341993699866727   1.670359510001698 
 -0.000734556264238   2.874070901412782   1.661919441487636 
  4.978771382066512   2.875229754084573   1.638309963730802 
  3.734288219799783   9.343029870069692   1.646889770834181 
  8.712361675033538   9.341948961231248   1.667779825072875 
  9.958277320397366   2.874070901412782   1.661919441487636 
 -4.979005551241424  11.498115188315149   8.335995953379175 
  0.000234169174948  11.498115188315149   8.335995953379175 
  1.243999967202774   5.029724091079371   8.359067442010474 
  6.226640944327909   5.028532167654367   8.432711173833123 
  4.978771382066538  11.498828183192774   8.344037771357032 
 11.202425586449953   5.029988060923135   8.338792970361434 
 -1.244882822316643   5.029988060923134   1.667164242483141 
 -2.489385691033233  11.498210075798672   1.670359510001698 
  2.489618220449692  11.498333607913283   1.667164242483168 
  3.730901819805297   5.028532167654392   1.573246039011598 
  7.467924543683699  11.498333607913283   1.667164242483168 
  8.713542796930462   5.029724091079345   1.646889770834181 
  0.000382496365794   7.185894553426182   8.338177387771859 
  1.244270339300329   0.718648317181805   8.338792970361434 
  4.978771382066596   7.189905650709684   8.432711173833123 
  6.223569974800276   0.719126471361274   8.338177387771859 
  9.957160267767264   7.185894553426182   8.338177387771859 
 -2.489385691033212   7.185967098901966   1.669961259465439 
 11.202473423027358   0.718761051035060   8.341772182110692 
  3.733972789332829   0.719126471361260   1.667779825072875 
  2.490022008753936   7.185870115967135   1.638309963730802 
  7.467520755378889   7.185870115967122   1.638309963730802 
  8.713272424832910   0.718648317181818   1.667164242483168 
  2.490022008753974   7.185870115967123   8.367647249113679 
 13.691383487305160   0.718761051035059   1.664185030733816 
 -1.244493585957853   9.341993699866727   8.335597702842863 
 -0.000734556264253   2.874070901412783   8.344037771357032 
  4.978771382066513   2.875229754084573   8.367647249113679 
  3.734288219799858   9.343029870069692   8.359067442010474 
  8.712361675033538   9.341948961231248   8.338177387771859 
  9.958277320397359   2.874070901412796   8.344037771357032 
 -3.734277796108465   9.341993699866727   1.670359510001698 
  1.245181089099520   9.341948961231248   1.667779825072875 
  2.488483129469558   2.874216024869379   1.646889770834181 
  6.223254544333233   9.343029870069692   1.646889770834181 
  7.469059634663729   2.874216024869392   1.646889770834181 
 12.446928455166193   2.874220394434524   1.664185030733816 
 -1.244882822316657   5.029988060923135   8.338792970361434 
 -2.489385691033232  11.498210075798672   8.335597702842863 
  2.489618220449686  11.498333607913297   8.338792970361434 
  3.730901819805297   5.028532167654393   8.432711173833123 
  7.467924543683693  11.498333607913297   8.338792970361434 
 -4.979005551241425  11.498115188315149   1.669961259465439 
  8.713542796930462   5.029724091079346   8.359067442010474 
  0.000234169174948  11.498115188315149   1.669961259465439 
  1.243999967202804   5.029724091079371   1.646889770834181 
  0.000382496365793   7.185894553426181   1.667779825072902 
  6.226640944327849   5.028532167654392   1.573246039011598 
  4.978771382066538  11.498828183192774   1.661919441487636 
 11.202425586449953   5.029988060923134   1.667164242483168 
 -2.489385691033211   7.185967098901967   8.335995953379175 
  3.733972789332829   0.719126471361261   8.338177387771859 
  7.467520755378875   7.185870115967123   8.367647249113679 
  8.713272424832919   0.718648317181805   8.338792970361434 
 13.691383487305160   0.718761051035060   8.341772182110692 
 -0.015820713451805   1.423342604142741   5.002978606422314 
  3.633691200726150   8.080407811260132   5.002978606422314 
  4.978771382066474   1.388637877484814   5.002978606422314 
  8.754947085573942   7.929166054266880   5.002978606422314 
  9.973363477585023   1.423342604142741   5.002978606422314 
 -4.978579340968039  10.060807974800017  11.673616748318732 
 -0.000192041098396  10.060807974800017  11.673616748318732 
  1.244757911675921   3.593156313051828  11.673616748318732 
  4.978771382066680  10.060657359914805  11.673616748318732 
  6.223361683158044   3.592635006180187  11.673616748318732 
 11.202215170804415   3.593223733358736  11.673616748318732 
 -2.489385691033300  10.060732491844131   5.002978606422314 
 -1.264645194282917   3.586370054678066   5.002978606422314 
  3.632244417313884   3.418407480211368   5.002978606422314 
  2.438612880396688  10.131379089076253   5.002978606422314 
  7.518929883736252  10.131379089076253   5.002978606422314 
  8.770431712810177   3.559873882709095   5.002978606422314 
 -6.223347228753954  12.216536190790722  11.673616748318732 
 -1.244723495908476  12.216399686148701  11.673616748318732 
 -0.000169441435445   5.749182958571913  11.673616748318732 
  4.978771382066590   5.748989995339477  11.673616748318732 
  3.733997835194468  12.216533546401445  11.673616748318732 
  9.957712205568509   5.749182958571899  11.673616748318732 
 -2.489385691033264   5.757045977703750   5.002978606422314 
 -3.731110138223488  12.196550702612948   5.002978606422314 
  1.237716160136884  12.212575748914343   5.002978606422314 
  2.287164235973484   5.748154694546865   5.002978606422314 
  6.227595862897726  12.237257327197764   5.002978606422314 
  7.670378528159782   5.748154694546839   5.002978606422314 
 -1.244854236223450   7.904989814583850  11.673616748318732 
  0.000101140200712   1.437212706258291  11.673616748318732 
  3.733608332422976   7.905014307968285  11.673616748318732 
  4.978771382066483   1.436734839425976  11.673616748318732 
  8.713293894687949   7.905117573296461  11.673616748318732 
 -3.718196295829333   7.917458470692812   5.002978606422314 
  9.957441623932416   1.437212706258291  11.673616748318732 
  2.453590348457670   1.357953656386117   5.002978606422314 
  1.202595678559103   7.929166054266854   5.002978606422314 
  6.323851563406945   8.080407811260223   5.002978606422314 
  7.503952415675480   1.357953656386130   5.002978606422314 
  1.244248869444812   7.905117573296461  11.673616748318732 
 12.446928455166312   1.437247498834924   5.002978606422314 
 -2.489385691033299  10.060732491844133  11.673616748318732 
 -1.244672406671523   3.593223733358736  11.673616748318732 
  3.734181080974998   3.592635006180161  11.673616748318732 
  2.489133859254273  10.060782750815383  11.673616748318732 
  7.468408904878816  10.060782750815383  11.673616748318732 
  8.712784852457171   3.593156313051840  11.673616748318732 
 -4.959920743019455  10.068188302226494   5.002978606422314 
 -0.018850639046890  10.068188302226494   5.002978606422314 
  1.187111051322871   3.559873882709082   5.002978606422314 
  4.978771382066590  10.127222220600343   5.002978606422314 
  6.325298346819418   3.418407480211355   5.002978606422314 
 11.222187958416033   3.586370054678066   5.002978606422314 
 -2.489385691033249   5.749125093950402  11.673616748318732 
 -3.734047886158210  12.216399686148701  11.673616748318732 
  1.244575846687670  12.216536190790722  11.673616748318732 
  2.489018031331474   5.749320671870167  11.673616748318732 
  6.223544928938700  12.216533546401445  11.673616748318732 
 -6.216487542203333  12.212575748914343   5.002978606422314 
  7.468524732801465   5.749320671870167  11.673616748318732 
 -1.247661243843080  12.196550702612999   5.002978606422314 
 -0.086568153212073   5.757637240556227   5.002978606422314 
 -1.260575086237177   7.917458470692812   5.002978606422314 
  3.729946901235569  12.237257327197803   5.002978606422314 
 10.044110917345181   5.757637240556265   5.002978606422314 
 -3.733917145843359   7.904989814583850  11.673616748318732 
  2.489468081376751   1.437004276631189  11.673616748318732 
  6.223934431709861   7.905014307968285  11.673616748318732 
  7.468074682756198   1.437004276631163  11.673616748318732 
 12.446928455166312   1.437247498834925  11.673616748318732 
  4.978771382066589   5.748989995339477   5.002978606422314 
  1.218422382260500   0.688271451548756   5.002978606422314 
  4.978771382066626   7.617294490010302   5.002978606422314 
  6.231199024783488   0.687069170841595   5.002978606422314 
  9.988737229385819   7.195316252593494   5.002978606422314 
 11.209511689128277   0.722824595863053   5.002978606422314 
 -3.734179264142477   9.342050587324055  11.673616748318732 
  1.244901123385656   9.341656757337359  11.673616748318732 
  2.490493225457879   2.875268278450421  11.673616748318732 
  6.223348313994982   9.340762949089230  11.673616748318732 
  7.467049538675245   2.875268278450434  11.673616748318732 
 12.446928455166418   2.874741470847122  11.673616748318732 
 -1.253514867371956   9.347202139119533   5.002978606422314 
 -0.034355791231407   2.854659672354008   5.002978606422314 
  4.978771382066513   2.821943800487103   5.002978606422314 
  3.679980638349925   9.466459402389933   5.002978606422314 
  8.736309586668778   9.364584562583225   5.002978606422314 
  9.991898555364529   2.854659672354047   5.002978606422314 
 -4.978679770476688  11.497927098702942  11.673616748318732 
 -0.000091611589895  11.497927098702942  11.673616748318732 
  1.245916293529279   5.030938758478988  11.673616748318732 
  6.222322750825053   5.031025277835577  11.673616748318732 
  4.978771382066665  11.497073610010286  11.673616748318732 
 11.201815968337142   5.030680356206656  11.673616748318732 
 -1.284113938162176   5.022791506307355   5.002978606422314 
 -2.489385691033239  11.487793197292810   5.002978606422314 
  2.476235061643870  11.535907028162397   5.002978606422314 
  3.360772227676870   4.814837748004083   5.002978606422314 
  7.481307702489179  11.535907028162397   5.002978606422314 
  8.847589698222263   5.015041070072998   5.002978606422314 
  0.000495569504062   7.186283112793354  11.673616748318732 
  1.245174693659042   0.718830114312307  11.673616748318732 
  4.978771382066499   7.184919430347226  11.673616748318732 
  6.223176935948203   0.719030115887758  11.673616748318732 
  9.957047194629025   7.186283112793354  11.673616748318732 
 -2.489385691033188   7.192211650744665   5.002978606422314 
 11.202022157616701   0.718500512828749  11.673616748318732 
  3.726343739349505   0.687069170841595   5.002978606422314 
  2.443875019273710   7.212513092765819   5.002978606422314 
  7.513667744859288   7.212513092765767   5.002978606422314 
  8.739120381872642   0.688271451548756   5.002978606422314 
  2.490088672890108   7.185831627410163  11.673616748318732 
 13.684345221204405   0.722824595863053   5.002978606422314 
 -1.244592117924091   9.342050587324055  11.673616748318732 
  0.000784948684496   2.874948188003996  11.673616748318732 
  4.978771382066520   2.875306731198429  11.673616748318732 
  3.734194450137974   9.340762949089230  11.673616748318732 
  8.712641640747329   9.341656757337359  11.673616748318732 
  9.956757815448723   2.874948188003996  11.673616748318732 
 -3.725256514694284   9.347202139119533   5.002978606422314 
  1.221233177464372   9.364584562583225   5.002978606422314 
  2.408743809627800   2.765469513555499   5.002978606422314 
  6.277562125783263   9.466459402389946   5.002978606422314 
  7.548798954505412   2.765469513555487   5.002978606422314 
 12.446928455166356   2.866093304778537   5.002978606422314 
 -1.244273204203966   5.030680356206656  11.673616748318732 
 -2.489385691033246  11.498096300884329  11.673616748318732 
  2.489323484203693  11.497459515499301  11.673616748318732 
  3.735220013308065   5.031025277835577  11.673616748318732 
  7.468219279929698  11.497459515499301  11.673616748318732 
 -4.973597610710291  11.494992912393677   5.002978606422314 
  8.711626470603747   5.030938758478988  11.673616748318732 
 -0.005173771356230  11.494992912393677   5.002978606422314 
  1.109953065911120   5.015041070072998   5.002978606422314 
 -0.031194465252516   7.195316252593480   5.002978606422314 
  6.596770536456306   4.814837748004006   5.002978606422314 
  4.978771382066494  11.537650641310375   5.002978606422314 
 11.241656702295298   5.022791506307342   5.002978606422314 
 -2.489385691033092   7.186343278126206  11.673616748318732 
  3.734365828184897   0.719030115887758  11.673616748318732 
  7.467454091242861   7.185831627410163  11.673616748318732 
  8.712368070474175   0.718830114312307  11.673616748318732 
 13.691834752716014   0.718500512828749  11.673616748318732 
 -0.000141351447040   1.437662769259225   1.666558921732590 
  3.737903409321476   7.902376913385379   1.624798356607888 
  4.978771382066430   1.441331345018155   1.663665740887246 
  8.709313204076755   7.902819320500078   1.663665740887246 
  9.957684115580115   1.437662769259211   1.666558921732590 
 -4.980197789061346  10.060211804967579   8.334204553963055 
  0.001426406995047  10.060211804967579   8.334204553963055 
  1.245569365889331   3.593624806360366   8.351292895696176 
  4.978771382066449  10.059720373297790   8.351292895696176 
  6.223225170898739   3.597673349176948   8.381158856236739 
 11.201946650636373   3.592788697931007   8.339398291111983 
 -2.489385691033300  10.060732491844131   1.671568018158598 
 -1.244403886503227   3.592788697931006   1.666558921732590 
  3.734317593234227   3.597673349176947   1.624798356607888 
  2.491223970498992  10.059636083577399   1.664551276081655 
  7.466318793634291  10.059636083577399   1.664551276081641 
  8.711973398243620   3.593624806360365   1.654664317148319 
 -6.224146217561287  12.216997487193868   8.335485313407933 
 -1.244430570081375  12.218099388228183   8.334204553963055 
  0.001868657144778   5.747946202756280   8.341405936762920 
  4.978771382066590   5.748989995339477   8.378637682293952 
  3.734508847010357  12.216518518828199   8.339398291111983 
  9.955674106988443   5.747946202756280   8.341405936762920 
 -2.489385691033249   5.748202501144568   1.670471899436815 
 -3.734340811985022  12.218099388228197   1.671752658881533 
  1.245374835494840  12.216997487193868   1.670471899436815 
  2.493449620489264   5.746919723456155   1.624798356607888 
  6.223033917122809  12.216518518828199   1.666558921732590 
  7.464093143643852   5.746919723456155   1.624798356607888 
 -1.243528713956759   7.903886282335986   8.334204553963055 
 -0.000141351447039   1.437662769259225   8.339398291111983 
  3.737903409321393   7.902376913385418   8.381158856236739 
  4.978771382066445   1.441331345018130   8.342291471957754 
  8.709313204076755   7.902819320500079   8.342291471957754 
 -3.735242668109603   7.903886282336088   1.671752658881533 
  9.957684115580108   1.437662769259225   8.339398291111983 
  2.489416068712329   1.439387699684803   1.664551276081641 
  1.248229560056466   7.902819320500078   1.663665740887246 
  6.219639354811606   7.902376913385417   1.624798356607888 
  7.468126695420919   1.439387699684777   1.664551276081641 
  1.248229560056437   7.902819320500079   8.342291471957754 
 12.446928455166312   1.437247498834924   1.665663059740992 
 -2.489385691033300  10.060732491844131   8.334389194686082 
 -1.244403886503226   3.592788697931007   8.339398291111983 
  3.734317593234228   3.597673349176922   8.381158856236739 
  2.491223970498992  10.059636083577399   8.341405936762920 
  7.466318793634292  10.059636083577399   8.341405936762920 
  8.711973398243590   3.593624806360366   8.351292895696176 
 -4.980197789061346  10.060211804967579   1.671752658881533 
  0.001426406995046  10.060211804967579   1.671752658881533 
  1.245569365889315   3.593624806360365   1.654664317148319 
  4.978771382066448  10.059720373297790   1.654664317148306 
  6.223225170898617   3.597673349176921   1.624798356607888 
 11.201946650636373   3.592788697931006   1.666558921732590 
 -2.489385691033249   5.748202501144569   8.335485313407933 
 -3.734340811985021  12.218099388228197   8.334204553963055 
  1.245374835494841  12.216997487193868   8.335485313407933 
  2.493449620489294   5.746919723456156   8.381158856236739 
  6.223033917122810  12.216518518828199   8.339398291111983 
 -6.224146217561288  12.216997487193868   1.670471899436815 
  7.464093143643972   5.746919723456156   8.381158856236739 
 -1.244430570081406  12.218099388228183   1.671752658881533 
  0.001868657144785   5.747946202756292   1.664551276081641 
 -1.243528713956819   7.903886282336088   1.671752658881533 
  4.978771382066589   5.748989995339476   1.627319530550849 
  3.734508847010357  12.216518518828199   1.666558921732590 
  9.955674106988443   5.747946202756279   1.664551276081655 
 -3.735242668109602   7.903886282336089   8.334204553963055 
  2.489416068712358   1.439387699684778   8.341405936762920 
  6.219639354811607   7.902376913385418   8.381158856236739 
  7.468126695420801   1.439387699684778   8.341405936762920 
 12.446928455166312   1.437247498834925   8.340294153103557 
Generated by cif2cell 2.0.0.  :  Failed to get author information, No journal information. Species order: N Sn B 
 1.0
 14.936314146199660   0.000000000000000   0.000000000000000
 -7.468157073099825  12.935227489513863   0.000000000000000
  0.000000000000001   0.000000000000001  13.341276283792837
 N Sn B 
 143   1 144
Cartesian
  1.244270339300329   0.718648317181805   1.667164242483168 
  4.978771382066595   7.189905650709683   1.573246039011598 
  6.223569974800283   0.719126471361260   1.667779825072875 
  9.957160267767264   7.185894553426181   1.667779825072902 
 11.202473423027358   0.718761051035059   1.664185030733816 
 -3.734277796108465   9.341993699866727   8.335597702842863 
  1.245181089099491   9.341948961231248   8.338177387771859 
  2.488483129469544   2.874216024869406   8.359067442010474 
  6.223254544333263   9.343029870069692   8.359067442010446 
  7.469059634663833   2.874216024869393   8.359067442010474 
 12.446928455166193   2.874220394434525   8.341772182110692 
 -1.244493585957853   9.341993699866727   1.670359510001698 
 -0.000734556264238   2.874070901412782   1.661919441487636 
  4.978771382066512   2.875229754084573   1.638309963730802 
  3.734288219799783   9.343029870069692   1.646889770834181 
  8.712361675033538   9.341948961231248   1.667779825072875 
  9.958277320397366   2.874070901412782   1.661919441487636 
 -4.979005551241424  11.498115188315149   8.335995953379175 
  0.000234169174948  11.498115188315149   8.335995953379175 
  1.243999967202774   5.029724091079371   8.359067442010474 
  6.226640944327909   5.028532167654367   8.432711173833123 
  4.978771382066538  11.498828183192774   8.344037771357032 
 11.202425586449953   5.029988060923135   8.338792970361434 
 -1.244882822316643   5.029988060923134   1.667164242483141 
 -2.489385691033233  11.498210075798672   1.670359510001698 
  2.489618220449692  11.498333607913283   1.667164242483168 
  3.730901819805297   5.028532167654392   1.573246039011598 
  7.467924543683699  11.498333607913283   1.667164242483168 
  8.713542796930462   5.029724091079345   1.646889770834181 
  0.000382496365794   7.185894553426182   8.338177387771859 
  1.244270339300329   0.718648317181805   8.338792970361434 
  4.978771382066596   7.189905650709684   8.432711173833123 
  6.223569974800276   0.719126471361274   8.338177387771859 
  9.957160267767264   7.185894553426182   8.338177387771859 
 -2.489385691033212   7.185967098901966   1.669961259465439 
 11.202473423027358   0.718761051035060   8.341772182110692 
  3.733972789332829   0.719126471361260   1.667779825072875 
  2.490022008753936   7.185870115967135   1.638309963730802 
  7.467520755378889   7.185870115967122   1.638309963730802 
  8.713272424832910   0.718648317181818   1.667164242483168 
  2.490022008753974   7.185870115967123   8.367647249113679 
 13.691383487305160   0.718761051035059   1.664185030733816 
 -1.244493585957853   9.341993699866727   8.335597702842863 
 -0.000734556264253   2.874070901412783   8.344037771357032 
  4.978771382066513   2.875229754084573   8.367647249113679 
  3.734288219799858   9.343029870069692   8.359067442010474 
  8.712361675033538   9.341948961231248   8.338177387771859 
  9.958277320397359   2.874070901412796   8.344037771357032 
 -3.734277796108465   9.341993699866727   1.670359510001698 
  1.245181089099520   9.341948961231248   1.667779825072875 
  2.488483129469558   2.874216024869379   1.646889770834181 
  6.223254544333233   9.343029870069692   1.646889770834181 
  7.469059634663729   2.874216024869392   1.646889770834181 
 12.446928455166193   2.874220394434524   1.664185030733816 
 -1.244882822316657   5.029988060923135   8.338792970361434 
 -2.489385691033232  11.498210075798672   8.335597702842863 
  2.489618220449686  11.498333607913297   8.338792970361434 
  3.730901819805297   5.028532167654393   8.432711173833123 
  7.467924543683693  11.498333607913297   8.338792970361434 
 -4.979005551241425  11.498115188315149   1.669961259465439 
  8.713542796930462   5.029724091079346   8.359067442010474 
  0.000234169174948  11.498115188315149   1.669961259465439 
  1.243999967202804   5.029724091079371   1.646889770834181 
  0.000382496365793   7.185894553426181   1.667779825072902 
  6.226640944327849   5.028532167654392   1.573246039011598 
  4.978771382066538  11.498828183192774   1.661919441487636 
 11.202425586449953   5.029988060923134   1.667164242483168 
 -2.489385691033211   7.185967098901967   8.335995953379175 
  3.733972789332829   0.719126471361261   8.338177387771859 
  7.467520755378875   7.185870115967123   8.367647249113679 
  8.713272424832919   0.718648317181805   8.338792970361434 
 13.691383487305160   0.718761051035060   8.341772182110692 
 -0.015820713451805   1.423342604142741   5.002978606422314 
  3.633691200726150   8.080407811260132   5.002978606422314 
  4.978771382066474   1.388637877484814   5.002978606422314 
  8.754947085573942   7.929166054266880   5.002978606422314 
  9.973363477585023   1.423342604142741   5.002978606422314 
 -4.978579340968039  10.060807974800017  11.673616748318732 
 -0.000192041098396  10.060807974800017  11.673616748318732 
  1.244757911675921   3.593156313051828  11.673616748318732 
  4.978771382066680  10.060657359914805  11.673616748318732 
  6.223361683158044   3.592635006180187  11.673616748318732 
 11.202215170804415   3.593223733358736  11.673616748318732 
 -2.489385691033300  10.060732491844131   5.002978606422314 
 -1.264645194282917   3.586370054678066   5.002978606422314 
  3.632244417313884   3.418407480211368   5.002978606422314 
  2.438612880396688  10.131379089076253   5.002978606422314 
  7.518929883736252  10.131379089076253   5.002978606422314 
  8.770431712810177   3.559873882709095   5.002978606422314 
 -6.223347228753954  12.216536190790722  11.673616748318732 
 -1.244723495908476  12.216399686148701  11.673616748318732 
 -0.000169441435445   5.749182958571913  11.673616748318732 
  4.978771382066590   5.748989995339477  11.673616748318732 
  3.733997835194468  12.216533546401445  11.673616748318732 
  9.957712205568509   5.749182958571899  11.673616748318732 
 -2.489385691033264   5.757045977703750   5.002978606422314 
 -3.731110138223488  12.196550702612948   5.002978606422314 
  1.237716160136884  12.212575748914343   5.002978606422314 
  2.287164235973484   5.748154694546865   5.002978606422314 
  6.227595862897726  12.237257327197764   5.002978606422314 
  7.670378528159782   5.748154694546839   5.002978606422314 
 -1.244854236223450   7.904989814583850  11.673616748318732 
  0.000101140200712   1.437212706258291  11.673616748318732 
  3.733608332422976   7.905014307968285  11.673616748318732 
  4.978771382066483   1.436734839425976  11.673616748318732 
  8.713293894687949   7.905117573296461  11.673616748318732 
 -3.718196295829333   7.917458470692812   5.002978606422314 
  9.957441623932416   1.437212706258291  11.673616748318732 
  2.453590348457670   1.357953656386117   5.002978606422314 
  1.202595678559103   7.929166054266854   5.002978606422314 
  6.323851563406945   8.080407811260223   5.002978606422314 
  7.503952415675480   1.357953656386130   5.002978606422314 
  1.244248869444812   7.905117573296461  11.673616748318732 
 12.446928455166312   1.437247498834924   5.002978606422314 
 -2.489385691033299  10.060732491844133  11.673616748318732 
 -1.244672406671523   3.593223733358736  11.673616748318732 
  3.734181080974998   3.592635006180161  11.673616748318732 
  2.489133859254273  10.060782750815383  11.673616748318732 
  7.468408904878816  10.060782750815383  11.673616748318732 
  8.712784852457171   3.593156313051840  11.673616748318732 
 -4.959920743019455  10.068188302226494   5.002978606422314 
 -0.018850639046890  10.068188302226494   5.002978606422314 
  1.187111051322871   3.559873882709082   5.002978606422314 
  4.978771382066590  10.127222220600343   5.002978606422314 
  6.325298346819418   3.418407480211355   5.002978606422314 
 11.222187958416033   3.586370054678066   5.002978606422314 
 -2.489385691033249   5.749125093950402  11.673616748318732 
 -3.734047886158210  12.216399686148701  11.673616748318732 
  1.244575846687670  12.216536190790722  11.673616748318732 
  2.489018031331474   5.749320671870167  11.673616748318732 
  6.223544928938700  12.216533546401445  11.673616748318732 
 -6.216487542203333  12.212575748914343   5.002978606422314 
  7.468524732801465   5.749320671870167  11.673616748318732 
 -1.247661243843080  12.196550702612999   5.002978606422314 
 -0.086568153212073   5.757637240556227   5.002978606422314 
 -1.260575086237177   7.917458470692812   5.002978606422314 
  3.729946901235569  12.237257327197803   5.002978606422314 
 10.044110917345181   5.757637240556265   5.002978606422314 
 -3.733917145843359   7.904989814583850  11.673616748318732 
  2.489468081376751   1.437004276631189  11.673616748318732 
  6.223934431709861   7.905014307968285  11.673616748318732 
  7.468074682756198   1.437004276631163  11.673616748318732 
 12.446928455166312   1.437247498834925  11.673616748318732 
  4.978771382066589   5.748989995339477   5.002978606422314 
  1.218422382260500   0.688271451548756   5.002978606422314 
  4.978771382066626   7.617294490010302   5.002978606422314 
  6.231199024783488   0.687069170841595   5.002978606422314 
  9.988737229385819   7.195316252593494   5.002978606422314 
 11.209511689128277   0.722824595863053   5.002978606422314 
 -3.734179264142477   9.342050587324055  11.673616748318732 
  1.244901123385656   9.341656757337359  11.673616748318732 
  2.490493225457879   2.875268278450421  11.673616748318732 
  6.223348313994982   9.340762949089230  11.673616748318732 
  7.467049538675245   2.875268278450434  11.673616748318732 
 12.446928455166418   2.874741470847122  11.673616748318732 
 -1.253514867371956   9.347202139119533   5.002978606422314 
 -0.034355791231407   2.854659672354008   5.002978606422314 
  4.978771382066513   2.821943800487103   5.002978606422314 
  3.679980638349925   9.466459402389933   5.002978606422314 
  8.736309586668778   9.364584562583225   5.002978606422314 
  9.991898555364529   2.854659672354047   5.002978606422314 
 -4.978679770476688  11.497927098702942  11.673616748318732 
 -0.000091611589895  11.497927098702942  11.673616748318732 
  1.245916293529279   5.030938758478988  11.673616748318732 
  6.222322750825053   5.031025277835577  11.673616748318732 
  4.978771382066665  11.497073610010286  11.673616748318732 
 11.201815968337142   5.030680356206656  11.673616748318732 
 -1.284113938162176   5.022791506307355   5.002978606422314 
 -2.489385691033239  11.487793197292810   5.002978606422314 
  2.476235061643870  11.535907028162397   5.002978606422314 
  3.360772227676870   4.814837748004083   5.002978606422314 
  7.481307702489179  11.535907028162397   5.002978606422314 
  8.847589698222263   5.015041070072998   5.002978606422314 
  0.000495569504062   7.186283112793354  11.673616748318732 
  1.245174693659042   0.718830114312307  11.673616748318732 
  4.978771382066499   7.184919430347226  11.673616748318732 
  6.223176935948203   0.719030115887758  11.673616748318732 
  9.957047194629025   7.186283112793354  11.673616748318732 
 -2.489385691033188   7.192211650744665   5.002978606422314 
 11.202022157616701   0.718500512828749  11.673616748318732 
  3.726343739349505   0.687069170841595   5.002978606422314 
  2.443875019273710   7.212513092765819   5.002978606422314 
  7.513667744859288   7.212513092765767   5.002978606422314 
  8.739120381872642   0.688271451548756   5.002978606422314 
  2.490088672890108   7.185831627410163  11.673616748318732 
 13.684345221204405   0.722824595863053   5.002978606422314 
 -1.244592117924091   9.342050587324055  11.673616748318732 
  0.000784948684496   2.874948188003996  11.673616748318732 
  4.978771382066520   2.875306731198429  11.673616748318732 
  3.734194450137974   9.340762949089230  11.673616748318732 
  8.712641640747329   9.341656757337359  11.673616748318732 
  9.956757815448723   2.874948188003996  11.673616748318732 
 -3.725256514694284   9.347202139119533   5.002978606422314 
  1.221233177464372   9.364584562583225   5.002978606422314 