 Pb B N 
 1.0
 14.936314146199660   0.000000000000000   0.000000000000000
 -7.468157073099825  12.935227489513863   0.000000000000000
  0.000000000000001   0.000000000000001  13.341276283792837
 Pb B N 
   1 143 144
Cartesian
  3.734078536549917   5.030366245922021   5.002978606422314 
  1.195140723211272   0.647102429002613   5.002978606422314 
  5.100328629190975   7.328409026166580   5.002978606422314 
  6.273016349888559   0.647102429002613   5.002978606422314 
  9.979063532912596   7.192685604209305   5.002978606422314 
 11.202235609649751   0.718623749417456   5.002978606422314 
 -3.734078536549858   9.342108742426666  11.673616748318732 
  1.244791142301336   9.341513671736198  11.673616748318732 
  2.489854183843513   2.875461029081178  11.673616748318732 
  6.223365930798473   9.341513671736198  11.673616748318732 
  7.466595870242845   2.875396358559495  11.673616748318732 
 12.446695759457320   2.875063817626723  11.673616748318732 
 -1.261037457002957   9.357522219881240   5.002978606422314 
 -0.014512585588493   2.866116152473547   5.002978606422314 
  5.041116916904569   2.698137567649841   5.002978606422314 
  3.734078536549978   9.358866432819047   5.002978606422314 
  8.729194530102854   9.357522219881240   5.002978606422314 
  9.966254805956703   2.864032589769257   5.002978606422314 
 -4.978177658388705  11.498465499950623  11.673616748318732 
  0.000454761529297  11.498242547370316  11.673616748318732 
  1.245763699664949   5.030288956891428  11.673616748318732 
  6.222393373435020   5.030288956891428  11.673616748318732 
  4.979380342453982  11.497897101095850  11.673616748318732 
 11.202235609649723   5.029841132539312  11.673616748318732 
 -1.331408187060731   5.023213509401534   5.002978606422314 
 -2.484209533740062  11.476118403189460   5.002978606422314 
  2.494090381148219  11.510756044167154   5.002978606422314 
  7.460976832502193  11.502125504520839   5.002978606422314 
  8.799565260160657   5.023213509401534   5.002978606422314 
 -0.000153383159231   7.186326049982632  11.673616748318732 
  1.245159043459318   0.719006412275394  11.673616748318732 
  4.978169020728520   7.185348751793601  11.673616748318732 
  6.222998029640499   0.719006412275394  11.673616748318732 
  9.956825438931201   7.186508919326247  11.673616748318732 
 -2.510906459812792   7.192685604209305   5.002978606422314 
 11.202235609649751   0.718623749417457  11.673616748318732 
  3.734078536549923   0.645800500929774   5.002978606422314 
  2.367828443908908   7.328409026166580   5.002978606422314 
  7.531223856276265   7.222649118418229   5.002978606422314 
  8.726266650554852   0.716310103829728   5.002978606422314 
  2.489988052371258   7.185348751793601  11.673616748318732 
 13.678204568744684   0.716310103829728   5.002978606422314 
 -1.244569243992390   9.341351808003035  11.673616748318732 
  0.001561202857062   2.875396358559495  11.673616748318732 
  4.978302889256322   2.875461029081178  11.673616748318732 
  3.734078536549948   9.340306020647155  11.673616748318732 
  8.712726317092319   9.341351808003035  11.673616748318732 
  9.957775459842111   2.875063817626723  11.673616748318732 
 -3.734078536549858   9.342108742426664   5.002978606422314 
  1.207529626277883   9.420782799361943   5.002978606422314 
  2.427040156195220   2.698137567649841   5.002978606422314 
  6.260627446821999   9.420782799361943   5.002978606422314 
  7.482669658688445   2.866116152473547   5.002978606422314 
 12.438216413342893   2.864032589769257   5.002978606422314 
 -1.244128350789189   5.030578653754577  11.673616748318732 
 -2.489979414710949  11.498465499950623  11.673616748318732 
  2.488776730645919  11.497897101095850  11.673616748318732 
  3.734078536549918   5.030366245922021  11.673616748318732 
  7.467702311570515  11.498242547370316  11.673616748318732 
 -4.983947539359640  11.476118403189460   5.002978606422314 
  8.712285423889128   5.030578653754577  11.673616748318732 
  0.007180240597587  11.502125504520839   5.002978606422314 
  1.060790063554246   5.064552143949708   5.002978606422314 
 -0.063066783176428   7.222649118418229   5.002978606422314 
  6.407367009545663   5.064552143949708   5.002978606422314 
  4.974066691951862  11.510756044167154   5.002978606422314 
 11.202235609649708   5.022075218238289   5.002978606422314 
 -2.488668365831262   7.186508919326247  11.673616748318732 
  3.734078536549895   0.718446637800918  11.673616748318732 
  7.468310456259115   7.186326049982632  11.673616748318732 
  8.712473653938110   0.718137819043597  11.673616748318732 
 13.691997565361383   0.718137819043597  11.673616748318732 
  0.001206681424376   1.438313367747797   1.665851940819346 
  3.734078536549984   7.901684895143360   1.628051354030502 
  4.978115760966880   1.441004575643568   1.651003042131444 
  8.711029484267556   7.903810215330507   1.668419573916804 
  9.957599171470964   1.437214932043167   1.667834615218419 
 -4.978917603256217  10.060816912687372   8.336724263716741 
  0.001554707646850  10.059797103575153   8.334787591922510 
  1.247443643964304   3.594706921311436   8.377905858814113 
  4.978451653223003  10.059154540619918   8.340105272025321 
  6.220713429135619   3.594706921311436   8.377905858814113 
 11.202235609649737   3.592959097558715   8.336372858606337 
 -2.489239469843651  10.060816912687372   1.669232949127941 
 -1.243166435248759   3.593630829398516   1.665851940819346 
  3.734078536549848   3.600524515011125   1.564904766591725 
  2.489705419876746  10.059154540619918   1.665851940819346 
  7.466602365452913  10.059797103575153   1.671169620922159 
  8.711323508348562   3.593630829398516   1.665851940819346 
 -6.223431511403303  12.218417850548530   8.334787591922510 
 -1.244725561696532  12.218417850548530   8.334787591922510 
  0.003581534510028   5.747679241462653   8.354954170713278 
  4.972357798909953   5.745287111377515   8.441052446252861 
  3.734078536549853  12.216668873679923   8.338122597626208 
  9.955955340306319   5.748111273156296   8.334787591922510 
 -2.487798267206515   5.748111273156295   1.671169620922159 
 -3.734078536549918  12.218705796619105   1.668419573916804 
  1.244831106064076  12.216683564860599   1.669584354238291 
  2.495799274189882   5.745287111377514   1.564904766591725 
  6.223325967035867  12.216683564860599   1.669584354238291 
  7.464575538589761   5.747679241462652   1.651003042131444 
 -1.242872411167836   7.903810215330508   8.337537638927797 
  0.001206681424377   1.438313367747797   8.340105272025321 
  3.734078536549985   7.901684895143361   8.377905858814113 
  4.978115760966881   1.441004575643569   8.354954170713278 
  8.711029484267556   7.903810215330508   8.337537638927797 
 -3.734078536549904   7.904692401905401   1.669232949127941 
  9.957599171470964   1.437214932043168   8.338122597626208 
  2.490041312132801   1.441004575643568   1.651003042131444 
  1.247618758926993   7.902414920660075   1.651003042131444 
  6.220538314172647   7.902414920660075   1.651003042131444 
  7.466950391675440   1.438313367747797   1.665851940819346 
  1.247618758926994   7.902414920660076   8.354954170713278 
 12.446872047828334   1.437214932043167   1.667834615218419 
 -2.489239469843651  10.060816912687372   8.336724263716741 
 -1.243166435248758   3.593630829398517   8.340105272025321 
  3.734078536549849   3.600524515011126   8.441052446252861 
  2.489705419876746  10.059154540619918   8.340105272025321 
  7.466602365452914  10.059797103575153   8.334787591922510 
  8.711323508348562   3.593630829398517   8.340105272025321 
 -4.978917603256217  10.060816912687372   1.669232949127941 
  0.001554707646849  10.059797103575153   1.671169620922159 
  1.247443643964303   3.594706921311436   1.628051354030502 
  4.978451653223003  10.059154540619918   1.665851940819346 
  6.220713429135618   3.594706921311436   1.628051354030502 
 11.202235609649737   3.592959097558714   1.669584354238291 
 -2.487798267206514   5.748111273156296   8.334787591922510 
 -3.734078536549917  12.218705796619105   8.337537638927797 
  1.244831106064077  12.216683564860599   8.336372858606337 
  2.495799274189882   5.745287111377515   8.441052446252861 
  6.223325967035868  12.216683564860599   8.336372858606337 
 -6.223431511403303  12.218417850548530   1.671169620922159 
  7.464575538589762   5.747679241462653   8.354954170713278 
 -1.244725561696533  12.218417850548530   1.671169620922159 
  0.003581534510028   5.747679241462652   1.651003042131444 
 -1.242872411167836   7.903810215330507   1.668419573916804 
  4.972357798909952   5.745287111377514   1.564904766591725 
  3.734078536549853  12.216668873679923   1.667834615218419 
  9.955955340306319   5.748111273156295   1.671169620922159 
 -3.734078536549903   7.904692401905402   8.336724263716741 
  2.490041312132801   1.441004575643569   8.354954170713278 
  6.220538314172648   7.902414920660076   8.354954170713278 
  7.466950391675441   1.438313367747797   8.340105272025321 
 12.446872047828334   1.437214932043168   8.338122597626208 
  1.244904211947117   0.719442653983285   1.666414004908872 
  4.978153732462513   7.185176970595598   1.610312263891948 
  6.223252861152699   0.719442653983285   1.666414004908872 
  9.957287182061075   7.185987345023059   1.669697116346992 
 11.202235609649751   0.718623749417456   1.666986591223500 
 -3.734078536549858   9.342108742426664   8.338686225201515 
  1.245296354458675   9.341516241445476   8.339543207935810 
  2.489995306591767   2.875560159706895   8.395644948952720 
  6.222860718641179   9.341516241445476   8.339543207935810 
  7.467674062684247   2.874773863863204   8.348741145829942 
 12.446940679880347   2.874431891693397   8.338241910427307 
 -1.244348418960783   9.342012476435210   1.669697116346992 
  0.000483010415630   2.874773863863203   1.657216067014685 
  4.978161766508066   2.875560159706894   1.610312263891948 
  3.734078536549903   9.341551010039783   1.657216067014685 
  8.712505492060679   9.342012476435210   1.669697116346992 
  9.957530539419192   2.874431891693396   1.667715302417307 
 -4.978860226550268  11.498326405821722   8.336260096497675 
  0.000271428012112  11.498136699714740   8.335099703022850 
  1.245920110679233   5.030361607463623   8.395644948952720 
  6.222236962420692   5.030361607463623   8.395644948952720 
  4.978710618331005  11.498000956754264   8.338241910427307 
 11.202235609649815   5.030052827850331   8.335099703022850 
 -1.243877970144073   5.030139842337392   1.666414004908872 
 -2.489296846549417  11.498326405821722   1.669697116346992 
  2.489446454769030  11.498000956754264   1.667715302417307 
  3.734078536549917   5.030366245922020   1.429852702809388 
  7.467885645087846  11.498136699714740   1.670857509821750 
  8.712035043244013   5.030139842337392   1.666414004908872 
  0.000586749784044   7.185898734028595   8.347363369162663 
  1.244904211947117   0.719442653983285   8.339543207935810 
  4.978153732462514   7.185176970595599   8.395644948952720 
  6.223252861152700   0.719442653983285   8.339543207935810 
  9.957287182061075   7.185987345023060   8.336260096497675 
 -2.489130108961240   7.185987345023059   1.669697116346992 
 11.202235609649751   0.718623749417456   8.338970621621156 
  3.734078536549938   0.719301269708939   1.658593843682004 
  2.490003340637354   7.185176970595598   1.610312263891948 
  7.467570323315836   7.185898734028594   1.658593843682004 
  8.712898457638218   0.718665889318466   1.667715302417307 
  2.490003340637354   7.185176970595599   8.395644948952720 
 13.691572761661348   0.718665889318466   1.667715302417307 
 -1.244348418960783   9.342012476435210   8.336260096497675 
  0.000483010415631   2.874773863863204   8.348741145829942 
  4.978161766508067   2.875560159706895   8.395644948952720 
  3.734078536549904   9.341551010039783   8.348741145829942 
  8.712505492060679   9.342012476435210   8.336260096497675 
  9.957530539419192   2.874431891693397   8.338241910427307 
 -3.734078536549859   9.342108742426664   1.667270987643179 
  1.245296354458675   9.341516241445476   1.666414004908872 
  2.489995306591767   2.875560159706894   1.610312263891948 
  6.222860718641178   9.341516241445476   1.666414004908872 
  7.467674062684246   2.874773863863203   1.657216067014685 
 12.446940679880347   2.874431891693396   1.667715302417307 
 -1.243877970144073   5.030139842337393   8.339543207935810 
 -2.489296846549416  11.498326405821722   8.336260096497675 
  2.489446454769030  11.498000956754264   8.338241910427307 
  3.734078536549917   5.030366245922021   8.576104510035226 
  7.467885645087847  11.498136699714740   8.335099703022850 
 -4.978860226550269  11.498326405821722   1.669697116346992 
  8.712035043244013   5.030139842337393   8.339543207935810 
  0.000271428012112  11.498136699714740   1.670857509821750 
  1.245920110679233   5.030361607463622   1.610312263891948 
  0.000586749784059   7.185898734028594   1.658593843682004 
  6.222236962420691   5.030361607463622   1.610312263891948 
  4.978710618331005  11.498000956754264   1.667715302417307 
 11.202235609649815   5.030052827850330   1.670857509821750 
 -2.489130108961240   7.185987345023060   8.336260096497675 
  3.734078536549938   0.719301269708940   8.347363369162663 
  7.467570323315837   7.185898734028595   8.347363369162663 
  8.712898457638218   0.718665889318467   8.338241910427307 
 13.691572761661348   0.718665889318467   8.338241910427307 
 -0.020490003737164   1.421494144842541   5.002978606422314 
  3.734078536549867   7.926216801430283   5.002978606422314 
  5.037565657912165   1.285932870607379   5.002978606422314 
  8.757958295672051   7.930904577227672   5.002978606422314 
  9.965761021724695   1.432502685602106   5.002978606422314 
 -4.978648555255267  10.060661577751594  11.673616748318732 
 -0.000008151483201  10.060785137719501  11.673616748318732 
  1.244635950342386   3.593085898643037  11.673616748318732 
  4.978914319399392  10.060686279381253  11.673616748318732 
  6.223521122757403   3.593085898643037  11.673616748318732 
 11.202235609649671   3.593121903983371  11.673616748318732 
 -2.498224052350623  10.055629661558344   5.002978606422314 
 -1.268580652137394   3.583250560323337   5.002978606422314 
  3.734078536549872   3.075926147116054   5.002978606422314 
  2.485987888149658  10.086354032600392   5.002978606422314 
  7.497881679699264  10.095517258989549   5.002978606422314 
  8.736737725237250   3.583250560323350   5.002978606422314 
 -6.223505744507071  12.216570357767171  11.673616748318732 
 -1.244651328592733  12.216570357767171  11.673616748318732 
 -0.000573586623956   5.749149475177957  11.673616748318732 
  4.979830607184101   5.749601539246204  11.673616748318732 
  3.734078536549943  12.216683059158516  11.673616748318732 
  9.957592432540208   5.748970731793271  11.673616748318732 
 -2.534372486345624   5.757339876199496   5.002978606422314 
 -3.734078536549925  12.164517072824816   5.002978606422314 
  1.251157807303529  12.220336287524271   5.002978606422314 
  2.041483760808926   6.007586295325043   5.002978606422314 
  6.216999265796447  12.220336287524271   5.002978606422314 
  7.628596523031844   5.773729972973778   5.002978606422314 
 -1.244942853841248   7.905005585965363  11.673616748318732 
  0.000111489833258   1.437146817704946  11.673616748318732 
  3.734078536549881   7.904926940480158  11.673616748318732 
  4.978920061786943   1.436671018328047  11.673616748318732 
  8.713099926941027   7.905005585965363  11.673616748318732 
 -3.734078536549911   7.915066904163392   5.002978606422314 
  9.957611456455886   1.437207839303859  11.673616748318732 
  2.430591415187563   1.285932870607379   5.002978606422314 
  1.143047671430196   8.031435894185035   5.002978606422314 
  6.325109401669520   8.031435894185035   5.002978606422314 
  7.488647076837009   1.421494144842541   5.002978606422314 
  1.244267938613049   7.905278244260255  11.673616748318732 
 12.438710197574643   1.432502685602106   5.002978606422314 
 -2.489508517844567  10.060661577751594  11.673616748318732 
 -1.244724293016213   3.593265640680023  11.673616748318732 
  3.734078536549880   3.591895659273720  11.673616748318732 
  2.489242753700433  10.060686279381253  11.673616748318732 
  7.468165224583012  10.060785137719501  11.673616748318732 
  8.712881366116061   3.593265640680023  11.673616748318732 
 -4.969933020749167  10.055629661558344   5.002978606422314 
 -0.029724606599633  10.095517258989549   5.002978606422314 
  1.226198389916555   3.582440968167974   5.002978606422314 
  4.982169184950135  10.086354032600392   5.002978606422314 
  6.241958683183235   3.582440968167974   5.002978606422314 
 11.202235609649755   3.585653652231372   5.002978606422314 
 -2.489435359440342   5.748970731793271  11.673616748318732 
 -3.734078536549872  12.216315055349373  11.673616748318732 
  1.244690111564498  12.216602161648330  11.673616748318732 
  2.488326465915736   5.749601539246204  11.673616748318732 
  6.223466961535419  12.216602161648330  11.673616748318732 
 -6.238726416296011  12.173469092091050   5.002978606422314 
  7.468730659723792   5.749149475177957  11.673616748318732 
 -1.229430656803854  12.173469092091050   5.002978606422314 
 -0.160439449932083   5.773729972973778   5.002978606422314 
 -1.289801222572367   7.930904577227672   5.002978606422314 
  5.426673312290911   6.007586295325043   5.002978606422314 
  3.734078536549883  12.226093366562043   5.002978606422314 
 10.002529559445430   5.757339876199496   5.002978606422314 
 -3.734078536549926   7.905003071776976  11.673616748318732 
  2.489237011312785   1.436671018328047  11.673616748318732 
  6.223889134486638   7.905278244260255  11.673616748318732 
  7.468045583266575   1.437146817704946  11.673616748318732 
 12.446859762843516   1.437207839303859  11.673616748318732 
Generated by cif2cell 2.0.0.  :  Failed to get author information, No journal information. Species order: Pb B N 
 1.0
 14.936314146199660   0.000000000000000   0.000000000000000
 -7.468157073099825  12.935227489513863   0.000000000000000
  0.000000000000001   0.000000000000001  13.341276283792837
 Pb B N 
   1 143 144
Cartesian
  3.734078536549917   5.030366245922021   5.002978606422314 
  1.195140723211272   0.647102429002613   5.002978606422314 
  5.100328629190975   7.328409026166580   5.002978606422314 
  6.273016349888559   0.647102429002613   5.002978606422314 
  9.979063532912596   7.192685604209305   5.002978606422314 
 11.202235609649751   0.718623749417456   5.002978606422314 
 -3.734078536549858   9.342108742426666  11.673616748318732 
  1.244791142301336   9.341513671736198  11.673616748318732 
  2.489854183843513   2.875461029081178  11.673616748318732 
  6.223365930798473   9.341513671736198  11.673616748318732 
  7.466595870242845   2.875396358559495  11.673616748318732 
 12.446695759457320   2.875063817626723  11.673616748318732 
 -1.261037457002957   9.357522219881240   5.002978606422314 
 -0.014512585588493   2.866116152473547   5.002978606422314 
  5.041116916904569   2.698137567649841   5.002978606422314 
  3.734078536549978   9.358866432819047   5.002978606422314 
  8.729194530102854   9.357522219881240   5.002978606422314 
  9.966254805956703   2.864032589769257   5.002978606422314 
 -4.978177658388705  11.498465499950623  11.673616748318732 
  0.000454761529297  11.498242547370316  11.673616748318732 
  1.245763699664949   5.030288956891428  11.673616748318732 
  6.222393373435020   5.030288956891428  11.673616748318732 
  4.979380342453982  11.497897101095850  11.673616748318732 
 11.202235609649723   5.029841132539312  11.673616748318732 
 -1.331408187060731   5.023213509401534   5.002978606422314 
 -2.484209533740062  11.476118403189460   5.002978606422314 
  2.494090381148219  11.510756044167154   5.002978606422314 
  7.460976832502193  11.502125504520839   5.002978606422314 
  8.799565260160657   5.023213509401534   5.002978606422314 
 -0.000153383159231   7.186326049982632  11.673616748318732 
  1.245159043459318   0.719006412275394  11.673616748318732 
  4.978169020728520   7.185348751793601  11.673616748318732 
  6.222998029640499   0.719006412275394  11.673616748318732 
  9.956825438931201   7.186508919326247  11.673616748318732 
 -2.510906459812792   7.192685604209305   5.002978606422314 
 11.202235609649751   0.718623749417457  11.673616748318732 
  3.734078536549923   0.645800500929774   5.002978606422314 
  2.367828443908908   7.328409026166580   5.002978606422314 
  7.531223856276265   7.222649118418229   5.002978606422314 
  8.726266650554852   0.716310103829728   5.002978606422314 
  2.489988052371258   7.185348751793601  11.673616748318732 
 13.678204568744684   0.716310103829728   5.002978606422314 
 -1.244569243992390   9.341351808003035  11.673616748318732 
  0.001561202857062   2.875396358559495  11.673616748318732 
  4.978302889256322   2.875461029081178  11.673616748318732 
  3.734078536549948   9.340306020647155  11.673616748318732 
  8.712726317092319   9.341351808003035  11.673616748318732 
  9.957775459842111   2.875063817626723  11.673616748318732 
 -3.734078536549858   9.342108742426664   5.002978606422314 
  1.207529626277883   9.420782799361943   5.002978606422314 
  2.427040156195220   2.698137567649841   5.002978606422314 
  6.260627446821999   9.420782799361943   5.002978606422314 
  7.482669658688445   2.866116152473547   5.002978606422314 
 12.438216413342893   2.864032589769257   5.002978606422314 
 -1.244128350789189   5.030578653754577  11.673616748318732 
 -2.489979414710949  11.498465499950623  11.673616748318732 
  2.488776730645919  11.497897101095850  11.673616748318732 
  3.734078536549918   5.030366245922021  11.673616748318732 
  7.467702311570515  11.498242547370316  11.673616748318732 
 -4.983947539359640  11.476118403189460   5.002978606422314 
  8.712285423889128   5.030578653754577  11.673616748318732 
  0.007180240597587  11.502125504520839   5.002978606422314 
  1.060790063554246   5.064552143949708   5.002978606422314 
 -0.063066783176428   7.222649118418229   5.002978606422314 
  6.407367009545663   5.064552143949708   5.002978606422314 
  4.974066691951862  11.510756044167154   5.002978606422314 
 11.202235609649708   5.022075218238289   5.002978606422314 
 -2.488668365831262   7.186508919326247  11.673616748318732 
  3.734078536549895   0.718446637800918  11.673616748318732 
  7.468310456259115   7.186326049982632  11.673616748318732 
  8.712473653938110   0.718137819043597  11.673616748318732 
 13.691997565361383   0.718137819043597  11.673616748318732 
  0.001206681424376   1.438313367747797   1.665851940819346 
  3.734078536549984   7.901684895143360   1.628051354030502 
  4.978115760966880   1.441004575643568   1.651003042131444 
  8.711029484267556   7.903810215330507   1.668419573916804 
  9.957599171470964   1.437214932043167   1.667834615218419 
 -4.978917603256217  10.060816912687372   8.336724263716741 
  0.001554707646850  10.059797103575153   8.334787591922510 
  1.247443643964304   3.594706921311436   8.377905858814113 
  4.978451653223003  10.059154540619918   8.340105272025321 
  6.220713429135619   3.594706921311436   8.377905858814113 
 11.202235609649737   3.592959097558715   8.336372858606337 
 -2.489239469843651  10.060816912687372   1.669232949127941 
 -1.243166435248759   3.593630829398516   1.665851940819346 
  3.734078536549848   3.600524515011125   1.564904766591725 
  2.489705419876746  10.059154540619918   1.665851940819346 
  7.466602365452913  10.059797103575153   1.671169620922159 
  8.711323508348562   3.593630829398516   1.665851940819346 
 -6.223431511403303  12.218417850548530   8.334787591922510 
 -1.244725561696532  12.218417850548530   8.334787591922510 
  0.003581534510028   5.747679241462653   8.354954170713278 
  4.972357798909953   5.745287111377515   8.441052446252861 
  3.734078536549853  12.216668873679923   8.338122597626208 
  9.955955340306319   5.748111273156296   8.334787591922510 
 -2.487798267206515   5.748111273156295   1.671169620922159 
 -3.734078536549918  12.218705796619105   1.668419573916804 
  1.244831106064076  12.216683564860599   1.669584354238291 
  2.495799274189882   5.745287111377514   1.564904766591725 
  6.223325967035867  12.216683564860599   1.669584354238291 
  7.464575538589761   5.747679241462652   1.651003042131444 
 -1.242872411167836   7.903810215330508   8.337537638927797 
  0.001206681424377   1.438313367747797   8.340105272025321 
  3.734078536549985   7.901684895143361   8.377905858814113 
  4.978115760966881   1.441004575643569   8.354954170713278 
  8.711029484267556   7.903810215330508   8.337537638927797 
 -3.734078536549904   7.904692401905401   1.669232949127941 
  9.957599171470964   1.437214932043168   8.338122597626208 
  2.490041312132801   1.441004575643568   1.651003042131444 
  1.247618758926993   7.902414920660075   1.651003042131444 
  6.220538314172647   7.902414920660075   1.651003042131444 
  7.466950391675440   1.438313367747797   1.665851940819346 
  1.247618758926994   7.902414920660076   8.354954170713278 
 12.446872047828334   1.437214932043167   1.667834615218419 
 -2.489239469843651  10.060816912687372   8.336724263716741 
 -1.243166435248758   3.593630829398517   8.340105272025321 
  3.734078536549849   3.600524515011126   8.441052446252861 
  2.489705419876746  10.059154540619918   8.340105272025321 
  7.466602365452914  10.059797103575153   8.334787591922510 
  8.711323508348562   3.593630829398517   8.340105272025321 
 -4.978917603256217  10.060816912687372   1.669232949127941 
  0.001554707646849  10.059797103575153   1.671169620922159 
  1.247443643964303   3.594706921311436   1.628051354030502 
  4.978451653223003  10.059154540619918   1.665851940819346 
  6.220713429135618   3.594706921311436   1.628051354030502 
 11.202235609649737   3.592959097558714   1.669584354238291 
 -2.487798267206514   5.748111273156296   8.334787591922510 
 -3.734078536549917  12.218705796619105   8.337537638927797 
  1.244831106064077  12.216683564860599   8.336372858606337 
  2.495799274189882   5.745287111377515   8.441052446252861 
  6.223325967035868  12.216683564860599   8.336372858606337 
 -6.223431511403303  12.218417850548530   1.671169620922159 
  7.464575538589762   5.747679241462653   8.354954170713278 
 -1.244725561696533  12.218417850548530   1.671169620922159 
  0.003581534510028   5.747679241462652   1.651003042131444 
 -1.242872411167836   7.903810215330507   1.668419573916804 
  4.972357798909952   5.745287111377514   1.564904766591725 
  3.734078536549853  12.216668873679923   1.667834615218419 
  9.955955340306319   5.748111273156295   1.671169620922159 
 -3.734078536549903   7.904692401905402   8.336724263716741 
  2.490041312132801   1.441004575643569   8.354954170713278 
  6.220538314172648   7.902414920660076   8.354954170713278 
  7.466950391675441   1.438313367747797   8.340105272025321 
 12.446872047828334   1.437214932043168   8.338122597626208 
  1.244904211947117   0.719442653983285   1.666414004908872 
  4.978153732462513   7.185176970595598   1.610312263891948 
  6.223252861152699   0.719442653983285   1.666414004908872 
  9.957287182061075   7.185987345023059   1.669697116346992 
 11.202235609649751   0.718623749417456   1.666986591223500 
 -3.734078536549858   9.342108742426664   8.338686225201515 
  1.245296354458675   9.341516241445476   8.339543207935810 
  2.489995306591767   2.875560159706895   8.395644948952720 
  6.222860718641179   9.341516241445476   8.339543207935810 
  7.467674062684247   2.874773863863204   8.348741145829942 
 12.446940679880347   2.874431891693397   8.338241910427307 
 -1.244348418960783   9.342012476435210   1.669697116346992 
  0.000483010415630   2.874773863863203   1.657216067014685 
  4.978161766508066   2.875560159706894   1.610312263891948 
  3.734078536549903   9.341551010039783   1.657216067014685 
  8.712505492060679   9.342012476435210   1.669697116346992 
  9.957530539419192   2.874431891693396   1.667715302417307 
 -4.978860226550268  11.498326405821722   8.336260096497675 
  0.000271428012112  11.498136699714740   8.335099703022850 
  1.245920110679233   5.030361607463623   8.395644948952720 
  6.222236962420692   5.030361607463623   8.395644948952720 
  4.978710618331005  11.498000956754264   8.338241910427307 
 11.202235609649815   5.030052827850331   8.335099703022850 
 -1.243877970144073   5.030139842337392   1.666414004908872 
 -2.489296846549417  11.498326405821722   1.669697116346992 
  2.489446454769030  11.498000956754264   1.667715302417307 
  3.734078536549917   5.030366245922020   1.429852702809388 
  7.467885645087846  11.498136699714740   1.670857509821750 
  8.712035043244013   5.030139842337392   1.666414004908872 
  0.000586749784044   7.185898734028595   8.347363369162663 
  1.244904211947117   0.719442653983285   8.339543207935810 
  4.978153732462514   7.185176970595599   8.395644948952720 
  6.223252861152700   0.719442653983285   8.339543207935810 
  9.957287182061075   7.185987345023060   8.336260096497675 
 -2.489130108961240   7.185987345023059   1.669697116346992 
 11.202235609649751   0.718623749417456   8.338970621621156 
  3.734078536549938   0.719301269708939   1.658593843682004 
  2.490003340637354   7.185176970595598   1.610312263891948 
  7.467570323315836   7.185898734028594   1.658593843682004 
  8.712898457638218   0.718665889318466   1.667715302417307 
  2.490003340637354   7.185176970595599   8.395644948952720 
 13.691572761661348   0.718665889318466   1.667715302417307 
 -1.244348418960783   9.342012476435210   8.336260096497675 
  0.000483010415631   2.874773863863204   8.348741145829942 
  4.978161766508067   2.875560159706895   8.395644948952720 
  3.734078536549904   9.341551010039783   8.348741145829942 
  8.712505492060679   9.342012476435210   8.336260096497675 
  9.957530539419192   2.874431891693397   8.338241910427307 
 -3.734078536549859   9.342108742426664   1.667270987643179 
  1.245296354458675   9.341516241445476   1.666414004908872 