Species order: X N B                    
   2.51242800000000     
     5.9449720136058266    0.0000000000000000    0.0000000000000000
    -2.9724860068029120    5.1484967885702053   -0.0000000000000001
     0.0000000000000000    0.0000000000000009    5.3101128803662583
   Pb   N    B 
     1   144   143
Direct
  0.4444444444444429  0.3888888888888857  0.3750000000000000
  0.1111569163342275  0.0556188636470841  0.1249066408236557
  0.6110287652816321  0.5554735683172457  0.1207015153301466
  0.4444619473128550  0.0556188636470841  0.1249066408236557
  0.9444176636906408  0.5555362169585718  0.1251527275823950
  0.7777777777777786  0.0555555555555571  0.1249495592298446
  0.1111111111111143  0.7222222222222214  0.6250291237376940
  0.4444619473128550  0.7221764169991066  0.6250933591763481
  0.2778597650160868  0.2223045680517033  0.6292984846698562
  0.7777144696862528  0.7221764169991066  0.6250933591763481
  0.6110895524494113  0.2222437808839216  0.6257827938075236
  0.9444428235935279  0.2222173436086531  0.6249958199693921
  0.2777971163747656  0.7222147800654032  0.1251527275823950
  0.1111542284345141  0.2222437808839216  0.1242172061924757
  0.4444448030356157  0.2223045680517033  0.1207015153301466
  0.6110895524494113  0.7221791048988236  0.1242172061924757
  0.9444176636906408  0.7222147800654032  0.1251527275823950
  0.7777745200151278  0.2222173436086531  0.1250041800306071
  0.1111185532679309  0.8889156696426878  0.6248472724176078
  0.4444686742519155  0.8889010037926176  0.6247602947214611
  0.2778597650160868  0.3888885302977129  0.6292984846698562
  0.6110287652816321  0.3888885302977129  0.6292984846698562
  0.7777745200151278  0.8888905097398007  0.6249958199693921
  0.9444323295407110  0.3888646590814131  0.6247602947214611
  0.1111569163342275  0.3888713860204736  0.1249066408236557
  0.2777971163747656  0.8889156696426878  0.1251527275823950
  0.6111159897246857  0.8888905097398007  0.1250041800306071
  0.4444444444444429  0.3888888888888857  0.1071751062187649
  0.9444323295407110  0.8889010037926176  0.1252397052785365
  0.7777144696862528  0.3888713860204736  0.1249066408236557
  0.2778039667370395  0.5555293665962927  0.6256795220786446
  0.1111569163342275  0.0556188636470841  0.6250933591763481
  0.6110287652816321  0.5554735683172457  0.6292984846698562
  0.4444619473128550  0.0556188636470841  0.6250933591763481
  0.9444176636906408  0.5555362169585718  0.6248472724176078
  0.1111185532679309  0.5555362169585718  0.1251527275823950
  0.7777777777777786  0.0555555555555571  0.6250504407701573
  0.2778039667370396  0.0556079334740774  0.1243204779213579
  0.4444448030356157  0.5554735683172457  0.1207015153301466
  0.7777253998592566  0.5555293665962927  0.1243204779213579
  0.6111159897246857  0.0555588133182093  0.1250041800306071
  0.4444448030356157  0.5554735683172457  0.6292984846698562
  0.9444428235935279  0.0555588133182095  0.1250041800306071
  0.2777971163747656  0.7222147800654032  0.6248472724176078
  0.1111542284345141  0.2222437808839216  0.6257827938075236
  0.4444448030356157  0.2223045680517033  0.6292984846698562
  0.6110895524494113  0.7221791048988236  0.6257827938075236
  0.9444176636906408  0.7222147800654032  0.6248472724176078
  0.7777745200151278  0.2222173436086531  0.6249958199693921
  0.1111111111111143  0.7222222222222214  0.1249708762623114
  0.4444619473128550  0.7221764169991067  0.1249066408236557
  0.2778597650160868  0.2223045680517033  0.1207015153301466
  0.7777144696862528  0.7221764169991067  0.1249066408236557
  0.6110895524494113  0.2222437808839216  0.1242172061924757
  0.9444428235935279  0.2222173436086531  0.1250041800306071
  0.1111569163342275  0.3888713860204736  0.6250933591763481
  0.2777971163747656  0.8889156696426878  0.6248472724176078
  0.6111159897246857  0.8888905097398007  0.6249958199693921
  0.4444444444444429  0.3888888888888857  0.6428248937812343
  0.9444323295407110  0.8889010037926176  0.6247602947214611
  0.1111185532679309  0.8889156696426878  0.1251527275823950
  0.7777144696862528  0.3888713860204736  0.6250933591763481
  0.4444686742519155  0.8889010037926176  0.1252397052785365
  0.2778597650160868  0.3888885302977129  0.1207015153301466
  0.2778039667370396  0.5555293665962927  0.1243204779213579
  0.6110287652816321  0.3888885302977129  0.1207015153301466
  0.7777745200151278  0.8888905097398007  0.1250041800306071
  0.9444323295407110  0.3888646590814131  0.1252397052785365
  0.1111185532679309  0.5555362169585718  0.6248472724176078
  0.2778039667370396  0.0556079334740774  0.6256795220786446
  0.7777253998592566  0.5555293665962927  0.6256795220786446
  0.6111159897246857  0.0555588133182093  0.6249958199693921
  0.9444428235935279  0.0555588133182093  0.6249958199693921
  0.0535747986823608  0.1098932466394497  0.3750000000000000
  0.5563810361223142  0.6127620722446350  0.3750000000000000
  0.3869762841315010  0.0994132396704917  0.3750000000000000
  0.8929156187870509  0.6131244760601989  0.3750000000000000
  0.7225890355029804  0.1107442978303536  0.3750000000000000
  0.0555610378010461  0.7777722955322908  0.8750000000000000
  0.3888903781202284  0.7777818477390849  0.8750000000000000
  0.2222171433097418  0.2777752383215392  0.8750000000000000
  0.7222300057057393  0.7777742051724327  0.8750000000000000
  0.5555580950117937  0.2777752383215392  0.8750000000000000
  0.8888890109159684  0.2777780218319462  0.8750000000000000
  0.2214332403059929  0.7773832868196628  0.3750000000000000
  0.0535747986823608  0.2770148853762454  0.3750000000000000
  0.3688972574935198  0.2377945149870461  0.3750000000000000
  0.5563184479570902  0.7797585346509791  0.3750000000000000
  0.8922235537055910  0.7804669277887557  0.3750000000000000
  0.7234400866938858  0.2770148853762455  0.3750000000000000
  0.0555514855942471  0.9444418637144739  0.8750000000000000
  0.3888903781202284  0.9444418637144739  0.8750000000000000
  0.2221899846238708  0.4444567735541251  0.8750000000000000
  0.5556501103528687  0.4444917218430987  0.8750000000000000
  0.7222252882317757  0.9444505764635492  0.8750000000000000
  0.8888914696188547  0.4444429552131002  0.8750000000000000
  0.0528664055445841  0.4450899592501772  0.3750000000000000
  0.2202088572731380  0.9404177145462776  0.3750000000000000
  0.5561326690900420  0.9447330012116810  0.3750000000000000
  0.3688972574935197  0.4644360758398089  0.3750000000000000
  0.8886003321216476  0.9447330012116810  0.3750000000000000
  0.7339200936628391  0.4463570492018275  0.3750000000000000
  0.2222110633637011  0.6111222699696368  0.8750000000000000
  0.0555591281609028  0.1111033276275955  0.8750000000000000
  0.5555580950117937  0.6111161900235930  0.8750000000000000
  0.3888765597792035  0.1110665444030805  0.8750000000000000
  0.8889112066059318  0.6111222699696368  0.8750000000000000
  0.0559500465136716  0.6119000930273445  0.3750000000000000
  0.7222252882317757  0.1111080451015606  0.8750000000000000
  0.2124369555389838  0.0994132396704917  0.3750000000000000
  0.3869762841315011  0.6208963777943484  0.3750000000000000
  0.7339200936628391  0.6208963777943484  0.3750000000000000
  0.5563184479570902  0.1098932466394497  0.3750000000000000
  0.3888765597792035  0.6111433487094668  0.8750000000000000
  0.8881552623273635  0.1107442978303536  0.3750000000000000
  0.2222112577312435  0.7777722955322908  0.8750000000000000
  0.0555591281609028  0.2777891338666406  0.8750000000000000
  0.3888416114902299  0.2776832229804649  0.8750000000000000
  0.5555441994666930  0.7777742051724327  0.8750000000000000
  0.8888914696188547  0.7777818477390849  0.8750000000000000
  0.7222300057057393  0.2777891338666406  0.8750000000000000
  0.0559500465136716  0.7773832868196628  0.3750000000000000
  0.3882433740831514  0.7804669277887557  0.3750000000000000
  0.2205712610887005  0.2769522972110182  0.3750000000000000
  0.7234400866938858  0.7797585346509791  0.3750000000000000
  0.5563810361223142  0.2769522972110182  0.3750000000000000
  0.8886003321216476  0.2772006642432948  0.3750000000000000
  0.0555514855942471  0.4444429552131002  0.8750000000000000
  0.2222110633637011  0.9444221267273968  0.8750000000000000
  0.5555553115013973  0.9444443224173602  0.8750000000000000
  0.3888416114902299  0.4444917218430987  0.8750000000000000
  0.8888890109159684  0.9444443224173602  0.8750000000000000
  0.0528664055445841  0.9411097796277376  0.3750000000000000
  0.7222667889302540  0.4444567735541251  0.8750000000000000
  0.3882433740831514  0.9411097796277376  0.3750000000000000
  0.2124369555389838  0.4463570492018275  0.3750000000000000
  0.2202088572731380  0.6131244760601989  0.3750000000000000
  0.5955388183462891  0.4644360758398089  0.3750000000000000
  0.7225890355029804  0.9451780710059651  0.3750000000000000
  0.8922235537055910  0.4450899592501772  0.3750000000000000
  0.0555610378010461  0.6111220756020944  0.8750000000000000
  0.2221899846238708  0.1110665444030805  0.8750000000000000
  0.7222667889302540  0.6111433487094668  0.8750000000000000
  0.5555441994666930  0.1111033276275955  0.8750000000000000
  0.8888827568697794  0.1111080451015606  0.8750000000000000
  0.1050289562360555  0.0500263663338888  0.3750000000000000
  0.6247449981195095  0.5665465900856759  0.3750000000000000
  0.4449974100978326  0.0500263663338888  0.3750000000000000
  0.9461345258525369  0.5560540477575796  0.3750000000000000
  0.7777777777777786  0.0555555555555571  0.3750000000000000
  0.1111111111111143  0.7222222222222214  0.8750000000000000
  0.4444280235633464  0.7221762183393396  0.8750000000000000
  0.2778464849096464  0.2222969044349789  0.8750000000000000
  0.7777481947759920  0.7221762183393396  0.8750000000000000
  0.6110414284642099  0.2222919048691240  0.8750000000000000
  0.9444508524943337  0.2222661967064314  0.8750000000000000
  0.2772792855757590  0.7234138114282923  0.3750000000000000
  0.1098156031344699  0.2215744682338987  0.3750000000000000
  0.4418015919661695  0.2085883352138284  0.3750000000000000
  0.6117588650994366  0.7235177301988663  0.3750000000000000
  0.9461345258525369  0.7234138114282923  0.3750000000000000
  0.7779566417049641  0.2214133916153406  0.3750000000000000
  0.1111696283984394  0.8889264227685225  0.8750000000000000
  0.4444850400492079  0.8889091866912694  0.8750000000000000
  0.2778464849096464  0.3888829138079951  0.8750000000000000
  0.6110364288983582  0.3888829138079951  0.8750000000000000
  0.7778153442120929  0.8888824808389949  0.8750000000000000
  0.9444241466420591  0.3888482932841207  0.8750000000000000
  0.1050289562360555  0.3883359232354960  0.3750000000000000
  0.2772792855757590  0.8871988074807917  0.3750000000000000
  0.6119199417179975  0.8898765834229446  0.3750000000000000
  0.9441239619600602  0.8892093713732684  0.3750000000000000
  0.7833069669994461  0.3883359232354961  0.3750000000000000
  0.2777709316818471  0.5555624016514845  0.8750000000000000
  0.1111571149939968  0.0555851385573444  0.8750000000000000
  0.6110364288983582  0.5554868484236952  0.8750000000000000
  0.4444280235633464  0.0555851385573444  0.8750000000000000
  0.9444069105648061  0.5555765389632379  0.8750000000000000
  0.1099195219050406  0.5560540477575796  0.3750000000000000
  0.7777777777777786  0.0555555555555571  0.8750000000000000
  0.2749628582664399  0.0499257165328795  0.3750000000000000
  0.4418015919661695  0.5665465900856759  0.3750000000000000
  0.7834076168004559  0.5583704750668960  0.3750000000000000
  0.6119199417179975  0.0553766916283775  0.3750000000000000
  0.4444504195253335  0.5554868484236952  0.8750000000000000
  0.9434567499103840  0.0553766916283775  0.3750000000000000
  0.2777567943700953  0.7221637049348946  0.8750000000000000
  0.1112504764049186  0.2222919048691240  0.8750000000000000
  0.4444504195253335  0.2222969044349790  0.8750000000000000
  0.6110414284642099  0.7220828569284157  0.8750000000000000
  0.9444069105648061  0.7221637049348946  0.8750000000000000
  0.7778153442120929  0.2222661967064314  0.8750000000000000
  0.1111111111111143  0.7222222222222214  0.3750000000000000
  0.4449974100978324  0.7283043770972754  0.3750000000000000
  0.2667867432476547  0.2085883352138284  0.3750000000000000
  0.7833069669994462  0.7283043770972754  0.3750000000000000
  0.6117588650994366  0.2215744682338987  0.3750000000000000
  0.9434567499103840  0.2214133916153407  0.3750000000000000
  0.1111571149939968  0.3889053097699822  0.8750000000000000
  0.2777567943700953  0.8889264227685225  0.8750000000000000
  0.6110671366269058  0.8888824808389949  0.8750000000000000
  0.4444444444444429  0.3888888888888857  0.8750000000000000
  0.9444241466420591  0.8889091866912694  0.8750000000000000
  0.1099195219050406  0.8871988074807917  0.3750000000000000
  0.7777481947759920  0.3889053097699822  0.8750000000000000
  0.4450854094132039  0.8892093713732684  0.3750000000000000
  0.2667867432476547  0.3915317413671591  0.3750000000000000
  0.2749628582664399  0.5583704750668960  0.3750000000000000
  0.6247449981195095  0.3915317413671591  0.3750000000000000
  0.7779566417049641  0.8898765834229446  0.3750000000000000
  0.9441239619600602  0.3882479239201247  0.3750000000000000
  0.1111696283984394  0.5555765389632379  0.8750000000000000
  0.2777709316818471  0.0555418633636972  0.8750000000000000
  0.7777914699696414  0.5555624016514845  0.8750000000000000
  0.6110671366269058  0.0555179891212401  0.8750000000000000
  0.9444508524943337  0.0555179891212401  0.8750000000000000
  0.0556775442276156  0.1111935115879316  0.1248645111145063
  0.5554327765611040  0.6108655531221994  0.1220311549958886
  0.3889902209974923  0.1114015642022325  0.1237515067533010
  0.8887263825453058  0.6110298579393247  0.1250569689455892
  0.7222247399043982  0.1111085934289336  0.1250131231630755
  0.0555490291266028  0.7777843042067347  0.6248820642328129
  0.3889568213766519  0.7777054645332122  0.6247369003254755
  0.2224677802111375  0.2779005567722360  0.6279688450041095
  0.7221398217454005  0.7776557891057211  0.6251354888854965
  0.5554327765611040  0.2779005567722360  0.6279688450041095
  0.8888827177748282  0.2777654355496570  0.6248557245406483
  0.2222352750801292  0.7777843042067347  0.1251179357671910
  0.0556775442276156  0.2778173659730181  0.1248645111145063
  0.3891751524250284  0.2783503048500645  0.1172979805907174
  0.5555159673603153  0.7776557891057211  0.1248645111145063
  0.8887486431565552  0.7777054645332122  0.1252630996745280
  0.7221398217454005  0.2778173659730181  0.1248645111145063
  0.0556278688001204  0.9445846901767734  0.6247369003254755
  0.3889568213766519  0.9445846901767734  0.6247369003254755
  0.2224113432047306  0.4443431123358363  0.6262484932467062
  0.5549830284832717  0.4441581809083002  0.6327020194092798
  0.7222247399043982  0.9444494798088052  0.6249868768369238
  0.8887486431565552  0.4443765119566767  0.6247369003254755
  0.0556278688001204  0.4443765119566767  0.1252630996745280
  0.2223034753940114  0.9446069507880228  0.1250569689455892
  0.5555678977836793  0.9444506155585004  0.1251442754593516
  0.3891751524250284  0.4441581809083002  0.1172979805907174
  0.8888827177748282  0.9444506155585004  0.1251442754593516
  0.7219317691311021  0.4443431123358363  0.1237515067533010
  0.2223034753940114  0.6110298579393247  0.6249430310544088
  0.0556775442276156  0.1111935115879316  0.6251354888854965
  0.5554327765611040  0.6108655531221994  0.6279688450041095
  0.3889902209974923  0.1114015642022325  0.6262484932467062
  0.8887263825453058  0.6110298579393247  0.6249430310544088
  0.0555490291266028  0.6110980582532046  0.1251179357671910
  0.7222247399043982  0.1111085934289336  0.6249868768369238
  0.2224113432047306  0.1114015642022325  0.1237515067533010
  0.3889902209974923  0.6109219901286075  0.1237515067533010
  0.7219317691311021  0.6109219901286075  0.1237515067533010
  0.5555159673603153  0.1111935115879316  0.1248645111145063
  0.3889902209974923  0.6109219901286075  0.6262484932467062
  0.8888838535245234  0.1111085934289336  0.1250131231630755
  0.2222352750801292  0.7777843042067347  0.6248820642328129
  0.0556775442276156  0.2778173659730181  0.6251354888854965
  0.3891751524250284  0.2783503048500645  0.6327020194092798
  0.5555159673603153  0.7776557891057211  0.6251354888854965
  0.8887486431565552  0.7777054645332122  0.6247369003254755
  0.7221398217454005  0.2778173659730181  0.6251354888854965
  0.0555490291266028  0.7777843042067347  0.1251179357671910
  0.3889568213766519  0.7777054645332122  0.1252630996745280
  0.2224677802111375  0.2779005567722360  0.1220311549958886
  0.7221398217454005  0.7776557891057211  0.1248645111145063
  0.5554327765611040  0.2779005567722360  0.1220311549958886
  0.8888827177748282  0.2777654355496570  0.1251442754593516
  0.0556278688001204  0.4443765119566767  0.6247369003254755
  0.2223034753940114  0.9446069507880228  0.6249430310544088
  0.5555678977836793  0.9444506155585004  0.6248557245406483
  0.3891751524250284  0.4441581809083002  0.6327020194092798
  0.8888827177748282  0.9444506155585004  0.6248557245406483
  0.0556278688001204  0.9445846901767734  0.1252630996745280
  0.7219317691311021  0.4443431123358363  0.6262484932467062
  0.3889568213766519  0.9445846901767734  0.1252630996745280
  0.2224113432047306  0.4443431123358363  0.1237515067533010
  0.2223034753940114  0.6110298579393247  0.1250569689455892
  0.5549830284832717  0.4441581809083002  0.1172979805907174
  0.7222247399043982  0.9444494798088052  0.1250131231630755
  0.8887486431565552  0.4443765119566767  0.1252630996745280
  0.0555490291266028  0.6110980582532046  0.6248820642328129
  0.2224113432047306  0.1114015642022325  0.6262484932467062
  0.7219317691311021  0.6109219901286075  0.6262484932467062
  0.5555159673603153  0.1111935115879316  0.6251354888854965
  0.8888838535245234  0.1111085934289336  0.6249868768369238
 
  0.00000000E+00  0.00000000E+00  0.00000000E+00
  0.00000000E+00  0.00000000E+00  0.00000000E+00
  0.00000000E+00  0.00000000E+00  0.00000000E+00
  0.00000000E+00  0.00000000E+00  0.00000000E+00
  0.00000000E+00  0.00000000E+00  0.00000000E+00
  0.00000000E+00  0.00000000E+00  0.00000000E+00
  0.00000000E+00  0.00000000E+00  0.00000000E+00
  0.00000000E+00  0.00000000E+00  0.00000000E+00
  0.00000000E+00  0.00000000E+00  0.00000000E+00
  0.00000000E+00  0.00000000E+00  0.00000000E+00
  0.00000000E+00  0.00000000E+00  0.00000000E+00
  0.00000000E+00  0.00000000E+00  0.00000000E+00
  0.00000000E+00  0.00000000E+00  0.00000000E+00
  0.00000000E+00  0.00000000E+00  0.00000000E+00
  0.00000000E+00  0.00000000E+00  0.00000000E+00
  0.00000000E+00  0.00000000E+00  0.00000000E+00
  0.00000000E+00  0.00000000E+00  0.00000000E+00
  0.00000000E+00  0.00000000E+00  0.00000000E+00
  0.00000000E+00  0.00000000E+00  0.00000000E+00
  0.00000000E+00  0.00000000E+00  0.00000000E+00
  0.00000000E+00  0.00000000E+00  0.00000000E+00
  0.00000000E+00  0.00000000E+00  0.00000000E+00
  0.00000000E+00  0.00000000E+00  0.00000000E+00
  0.00000000E+00  0.00000000E+00  0.00000000E+00
  0.00000000E+00  0.00000000E+00  0.00000000E+00
  0.00000000E+00  0.00000000E+00  0.00000000E+00
  0.00000000E+00  0.00000000E+00  0.00000000E+00
  0.00000000E+00  0.00000000E+00  0.00000000E+00
  0.00000000E+00  0.00000000E+00  0.00000000E+00
  0.00000000E+00  0.00000000E+00  0.00000000E+00
  0.00000000E+00  0.00000000E+00  0.00000000E+00
  0.00000000E+00  0.00000000E+00  0.00000000E+00
  0.00000000E+00  0.00000000E+00  0.00000000E+00
  0.00000000E+00  0.00000000E+00  0.00000000E+00
  0.00000000E+00  0.00000000E+00  0.00000000E+00
  0.00000000E+00  0.00000000E+00  0.00000000E+00
  0.00000000E+00  0.00000000E+00  0.00000000E+00
  0.00000000E+00  0.00000000E+00  0.00000000E+00
  0.00000000E+00  0.00000000E+00  0.00000000E+00
  0.00000000E+00  0.00000000E+00  0.00000000E+00
  0.00000000E+00  0.00000000E+00  0.00000000E+00
  0.00000000E+00  0.00000000E+00  0.00000000E+00
  0.00000000E+00  0.00000000E+00  0.00000000E+00
  0.00000000E+00  0.00000000E+00  0.00000000E+00
  0.00000000E+00  0.00000000E+00  0.00000000E+00
  0.00000000E+00  0.00000000E+00  0.00000000E+00
  0.00000000E+00  0.00000000E+00  0.00000000E+00
  0.00000000E+00  0.00000000E+00  0.00000000E+00
  0.00000000E+00  0.00000000E+00  0.00000000E+00
  0.00000000E+00  0.00000000E+00  0.00000000E+00
  0.00000000E+00  0.00000000E+00  0.00000000E+00
  0.00000000E+00  0.00000000E+00  0.00000000E+00
  0.00000000E+00  0.00000000E+00  0.00000000E+00
  0.00000000E+00  0.00000000E+00  0.00000000E+00
  0.00000000E+00  0.00000000E+00  0.00000000E+00
  0.00000000E+00  0.00000000E+00  0.00000000E+00
  0.00000000E+00  0.00000000E+00  0.00000000E+00
  0.00000000E+00  0.00000000E+00  0.00000000E+00
  0.00000000E+00  0.00000000E+00  0.00000000E+00
  0.00000000E+00  0.00000000E+00  0.00000000E+00
  0.00000000E+00  0.00000000E+00  0.00000000E+00
  0.00000000E+00  0.00000000E+00  0.00000000E+00
  0.00000000E+00  0.00000000E+00  0.00000000E+00
  0.00000000E+00  0.00000000E+00  0.00000000E+00
  0.00000000E+00  0.00000000E+00  0.00000000E+00
  0.00000000E+00  0.00000000E+00  0.00000000E+00
  0.00000000E+00  0.00000000E+00  0.00000000E+00
  0.00000000E+00  0.00000000E+00  0.00000000E+00
  0.00000000E+00  0.00000000E+00  0.00000000E+00
  0.00000000E+00  0.00000000E+00  0.00000000E+00
  0.00000000E+00  0.00000000E+00  0.00000000E+00
  0.00000000E+00  0.00000000E+00  0.00000000E+00
  0.00000000E+00  0.00000000E+00  0.00000000E+00
  0.00000000E+00  0.00000000E+00  0.00000000E+00
  0.00000000E+00  0.00000000E+00  0.00000000E+00
  0.00000000E+00  0.00000000E+00  0.00000000E+00
  0.00000000E+00  0.00000000E+00  0.00000000E+00
  0.00000000E+00  0.00000000E+00  0.00000000E+00
  0.00000000E+00  0.00000000E+00  0.00000000E+00
  0.00000000E+00  0.00000000E+00  0.00000000E+00
  0.00000000E+00  0.00000000E+00  0.00000000E+00
  0.00000000E+00  0.00000000E+00  0.00000000E+00
  0.00000000E+00  0.00000000E+00  0.00000000E+00
  0.00000000E+00  0.00000000E+00  0.00000000E+00
  0.00000000E+00  0.00000000E+00  0.00000000E+00
  0.00000000E+00  0.00000000E+00  0.00000000E+00
  0.00000000E+00  0.00000000E+00  0.00000000E+00
  0.00000000E+00  0.00000000E+00  0.00000000E+00
  0.00000000E+00  0.00000000E+00  0.00000000E+00
  0.00000000E+00  0.00000000E+00  0.00000000E+00
  0.00000000E+00  0.00000000E+00  0.00000000E+00
  0.00000000E+00  0.00000000E+00  0.00000000E+00
  0.00000000E+00  0.00000000E+00  0.00000000E+00
  0.00000000E+00  0.00000000E+00  0.00000000E+00
  0.00000000E+00  0.00000000E+00  0.00000000E+00
  0.00000000E+00  0.00000000E+00  0.00000000E+00
  0.00000000E+00  0.00000000E+00  0.00000000E+00
  0.00000000E+00  0.00000000E+00  0.00000000E+00
  0.00000000E+00  0.00000000E+00  0.00000000E+00
  0.00000000E+00  0.00000000E+00  0.00000000E+00
  0.00000000E+00  0.00000000E+00  0.00000000E+00
  0.00000000E+00  0.00000000E+00  0.00000000E+00
  0.00000000E+00  0.00000000E+00  0.00000000E+00
  0.00000000E+00  0.00000000E+00  0.00000000E+00
  0.00000000E+00  0.00000000E+00  0.00000000E+00
  0.00000000E+00  0.00000000E+00  0.00000000E+00
  0.00000000E+00  0.00000000E+00  0.00000000E+00
  0.00000000E+00  0.00000000E+00  0.00000000E+00
  0.00000000E+00  0.00000000E+00  0.00000000E+00
  0.00000000E+00  0.00000000E+00  0.00000000E+00
  0.00000000E+00  0.00000000E+00  0.00000000E+00
  0.00000000E+00  0.00000000E+00  0.00000000E+00
  0.00000000E+00  0.00000000E+00  0.00000000E+00
  0.00000000E+00  0.00000000E+00  0.00000000E+00
  0.00000000E+00  0.00000000E+00  0.00000000E+00
  0.00000000E+00  0.00000000E+00  0.00000000E+00
  0.00000000E+00  0.00000000E+00  0.00000000E+00
  0.00000000E+00  0.00000000E+00  0.00000000E+00
  0.00000000E+00  0.00000000E+00  0.00000000E+00
  0.00000000E+00  0.00000000E+00  0.00000000E+00
  0.00000000E+00  0.00000000E+00  0.00000000E+00
  0.00000000E+00  0.00000000E+00  0.00000000E+00
  0.00000000E+00  0.00000000E+00  0.00000000E+00
  0.00000000E+00  0.00000000E+00  0.00000000E+00
  0.00000000E+00  0.00000000E+00  0.00000000E+00
  0.00000000E+00  0.00000000E+00  0.00000000E+00
  0.00000000E+00  0.00000000E+00  0.00000000E+00
  0.00000000E+00  0.00000000E+00  0.00000000E+00
  0.00000000E+00  0.00000000E+00  0.00000000E+00
  0.00000000E+00  0.00000000E+00  0.00000000E+00
  0.00000000E+00  0.00000000E+00  0.00000000E+00
  0.00000000E+00  0.00000000E+00  0.00000000E+00
  0.00000000E+00  0.00000000E+00  0.00000000E+00
  0.00000000E+00  0.00000000E+00  0.00000000E+00
  0.00000000E+00  0.00000000E+00  0.00000000E+00
  0.00000000E+00  0.00000000E+00  0.00000000E+00
  0.00000000E+00  0.00000000E+00  0.00000000E+00
  0.00000000E+00  0.00000000E+00  0.00000000E+00
  0.00000000E+00  0.00000000E+00  0.00000000E+00
  0.00000000E+00  0.00000000E+00  0.00000000E+00
  0.00000000E+00  0.00000000E+00  0.00000000E+00
  0.00000000E+00  0.00000000E+00  0.00000000E+00
  0.00000000E+00  0.00000000E+00  0.00000000E+00
  0.00000000E+00  0.00000000E+00  0.00000000E+00
  0.00000000E+00  0.00000000E+00  0.00000000E+00
  0.00000000E+00  0.00000000E+00  0.00000000E+00
  0.00000000E+00  0.00000000E+00  0.00000000E+00
  0.00000000E+00  0.00000000E+00  0.00000000E+00
  0.00000000E+00  0.00000000E+00  0.00000000E+00
  0.00000000E+00  0.00000000E+00  0.00000000E+00
  0.00000000E+00  0.00000000E+00  0.00000000E+00
  0.00000000E+00  0.00000000E+00  0.00000000E+00
  0.00000000E+00  0.00000000E+00  0.00000000E+00
  0.00000000E+00  0.00000000E+00  0.00000000E+00
  0.00000000E+00  0.00000000E+00  0.00000000E+00
  0.00000000E+00  0.00000000E+00  0.00000000E+00
  0.00000000E+00  0.00000000E+00  0.00000000E+00
  0.00000000E+00  0.00000000E+00  0.00000000E+00
  0.00000000E+00  0.00000000E+00  0.00000000E+00
  0.00000000E+00  0.00000000E+00  0.00000000E+00
  0.00000000E+00  0.00000000E+00  0.00000000E+00
  0.00000000E+00  0.00000000E+00  0.00000000E+00
  0.00000000E+00  0.00000000E+00  0.00000000E+00
  0.00000000E+00  0.00000000E+00  0.00000000E+00
  0.00000000E+00  0.00000000E+00  0.00000000E+00
  0.00000000E+00  0.00000000E+00  0.00000000E+00
  0.00000000E+00  0.00000000E+00  0.00000000E+00
  0.00000000E+00  0.00000000E+00  0.00000000E+00
  0.00000000E+00  0.00000000E+00  0.00000000E+00
  0.00000000E+00  0.00000000E+00  0.00000000E+00
  0.00000000E+00  0.00000000E+00  0.00000000E+00
  0.00000000E+00  0.00000000E+00  0.00000000E+00
  0.00000000E+00  0.00000000E+00  0.00000000E+00
  0.00000000E+00  0.00000000E+00  0.00000000E+00
  0.00000000E+00  0.00000000E+00  0.00000000E+00
  0.00000000E+00  0.00000000E+00  0.00000000E+00
  0.00000000E+00  0.00000000E+00  0.00000000E+00
  0.00000000E+00  0.00000000E+00  0.00000000E+00
  0.00000000E+00  0.00000000E+00  0.00000000E+00
  0.00000000E+00  0.00000000E+00  0.00000000E+00
  0.00000000E+00  0.00000000E+00  0.00000000E+00
  0.00000000E+00  0.00000000E+00  0.00000000E+00
  0.00000000E+00  0.00000000E+00  0.00000000E+00
  0.00000000E+00  0.00000000E+00  0.00000000E+00
  0.00000000E+00  0.00000000E+00  0.00000000E+00
  0.00000000E+00  0.00000000E+00  0.00000000E+00
  0.00000000E+00  0.00000000E+00  0.00000000E+00
  0.00000000E+00  0.00000000E+00  0.00000000E+00
  0.00000000E+00  0.00000000E+00  0.00000000E+00
  0.00000000E+00  0.00000000E+00  0.00000000E+00
  0.00000000E+00  0.00000000E+00  0.00000000E+00
  0.00000000E+00  0.00000000E+00  0.00000000E+00
  0.00000000E+00  0.00000000E+00  0.00000000E+00
  0.00000000E+00  0.00000000E+00  0.00000000E+00
  0.00000000E+00  0.00000000E+00  0.00000000E+00
  0.00000000E+00  0.00000000E+00  0.00000000E+00
  0.00000000E+00  0.00000000E+00  0.00000000E+00
  0.00000000E+00  0.00000000E+00  0.00000000E+00
  0.00000000E+00  0.00000000E+00  0.00000000E+00
  0.00000000E+00  0.00000000E+00  0.00000000E+00
  0.00000000E+00  0.00000000E+00  0.00000000E+00
  0.00000000E+00  0.00000000E+00  0.00000000E+00
  0.00000000E+00  0.00000000E+00  0.00000000E+00
  0.00000000E+00  0.00000000E+00  0.00000000E+00
  0.00000000E+00  0.00000000E+00  0.00000000E+00
  0.00000000E+00  0.00000000E+00  0.00000000E+00
  0.00000000E+00  0.00000000E+00  0.00000000E+00
  0.00000000E+00  0.00000000E+00  0.00000000E+00
  0.00000000E+00  0.00000000E+00  0.00000000E+00
  0.00000000E+00  0.00000000E+00  0.00000000E+00
  0.00000000E+00  0.00000000E+00  0.00000000E+00
  0.00000000E+00  0.00000000E+00  0.00000000E+00
  0.00000000E+00  0.00000000E+00  0.00000000E+00
  0.00000000E+00  0.00000000E+00  0.00000000E+00
  0.00000000E+00  0.00000000E+00  0.00000000E+00
  0.00000000E+00  0.00000000E+00  0.00000000E+00
  0.00000000E+00  0.00000000E+00  0.00000000E+00
  0.00000000E+00  0.00000000E+00  0.00000000E+00
  0.00000000E+00  0.00000000E+00  0.00000000E+00
  0.00000000E+00  0.00000000E+00  0.00000000E+00
  0.00000000E+00  0.00000000E+00  0.00000000E+00
  0.00000000E+00  0.00000000E+00  0.00000000E+00
  0.00000000E+00  0.00000000E+00  0.00000000E+00
  0.00000000E+00  0.00000000E+00  0.00000000E+00
  0.00000000E+00  0.00000000E+00  0.00000000E+00
  0.00000000E+00  0.00000000E+00  0.00000000E+00
  0.00000000E+00  0.00000000E+00  0.00000000E+00
  0.00000000E+00  0.00000000E+00  0.00000000E+00
  0.00000000E+00  0.00000000E+00  0.00000000E+00
  0.00000000E+00  0.00000000E+00  0.00000000E+00
  0.00000000E+00  0.00000000E+00  0.00000000E+00
  0.00000000E+00  0.00000000E+00  0.00000000E+00
  0.00000000E+00  0.00000000E+00  0.00000000E+00
  0.00000000E+00  0.00000000E+00  0.00000000E+00
  0.00000000E+00  0.00000000E+00  0.00000000E+00
  0.00000000E+00  0.00000000E+00  0.00000000E+00
  0.00000000E+00  0.00000000E+00  0.00000000E+00
  0.00000000E+00  0.00000000E+00  0.00000000E+00
  0.00000000E+00  0.00000000E+00  0.00000000E+00
  0.00000000E+00  0.00000000E+00  0.00000000E+00
  0.00000000E+00  0.00000000E+00  0.00000000E+00
  0.00000000E+00  0.00000000E+00  0.00000000E+00
  0.00000000E+00  0.00000000E+00  0.00000000E+00
  0.00000000E+00  0.00000000E+00  0.00000000E+00
  0.00000000E+00  0.00000000E+00  0.00000000E+00
  0.00000000E+00  0.00000000E+00  0.00000000E+00
  0.00000000E+00  0.00000000E+00  0.00000000E+00