 Al N B 
 1.0
 17.527899999999772   0.000000000000000   0.000000000000000
 -8.763949999999658  15.179606674993195   0.000000000000000
  0.000000000000001   0.000000000000002  15.000000000000000
 Al N B 
   1  48  49
Cartesian
  5.007224104597663   7.227248228217893  14.593614891501300 
  8.763759783657019  13.734416531494061   1.738032444147510 
 16.276068853482784   0.723297775724574   1.740401322565140 
 15.024298997816240   2.891912434820834   1.732707147455010 
 13.772179439931953   5.059868891664398   1.735002379471860 
 12.519777636356388   7.228375507197775   1.732766264283960 
 11.267866099852439   9.396748738286158   1.714918133137125 
 10.015768567828527  11.565621770927638   1.716851564198220 
 -6.260348058349472  13.733808355802184   1.726668933308685 
  1.251803315955470   0.722813357197315   1.739156612667000 
  0.000620450979118   2.891884871061459   1.733911812446730 
 -1.250942158905117   5.059868891664398   1.730367645630120 
 -2.503859958390177   7.228362152347573   1.733369490455100 
 -3.756169924657836   9.396634847616616   1.723706679918840 
 -5.008317657497553  11.565193429684106   1.715118733361265 
 -3.756305574027119  13.733411712050982   1.718220850065600 
  3.755837398371794   0.722157024086030   1.720899669095100 
  2.503763108201877   2.890795024243645   1.713342304675080 
  1.254039687916485   5.059868891664398   1.683376398732120 
  0.000365455590544   7.228124490768340   1.710575124952020 
 -1.252014217518632   9.396760992789943   1.718641049145735 
 -2.504344046574880  11.565197247010865   1.717203903119955 
 -1.252129538108906  13.733647440424363   1.729439074221285 
  6.260023964295245   0.722056105817047   1.723080886187520 
  5.008107882212737   2.889902523026873   1.668124545275100 
  3.752865175001971   5.056405811008563   1.543811644444650 
  2.501244669516674   7.226655123514270   1.545769516640925 
  1.252053556491998   9.397208965481164   1.668252562786185 
 -0.000025906327032  11.565492482358142   1.721932443862410 
  1.251922561154911  13.734136129064071   1.735983237860970 
  8.763842919977753   0.722600970827700   1.737951580718505 
  7.512257659976059   2.890698135613600   1.711526283698910 
  6.263490303883589   5.056459824454372   1.542405158201340 
  3.755926653204629   9.401588487703050   1.544499230879715 
  2.504293474000795  11.566230002335258   1.711299943288575 
  3.755849570617073  13.734153284763373   1.726054228614045 
 11.267794066557183   0.723083754157271   1.730590705026300 
 10.015761718031255   2.891667394524037   1.725435248117160 
  8.763949999999962   5.059868891664398   1.676735681782935 
  7.512862806548709   7.226815475420795   1.542739616575980 
  6.257182157779086   9.401718157170908   1.543242412613985 
  5.008161868295312  11.565084758241268   1.678967468607105 
  6.259863460630413  13.734299951581113   1.730231821291665 
 13.771922044063473   0.723284022162390   1.728878664876240 
 12.519675485860285   2.891853551574639   1.727275870740000 
 11.267472295768208   5.059868891664398   1.725698966279040 
 10.015828647210895   7.228219089889276   1.706061011813325 
  8.764313415280828   9.397406747652735   1.663865839522605 
  7.511783342841051  11.566453421187994   1.709809196713320 
  7.512095744630377  14.457337499056178   1.737995293936215 
 15.024238189922851   1.446078947609674   1.733810185884075 
 13.772014773650602   3.614674397838032   1.731091397577945 
 12.519790965882358   5.783078883261226   1.732777060314855 
 11.268319869961800   7.951316957253018   1.720933715791215 
 10.016556952124386  10.119737783328796   1.701305637021855 
  8.764328635379453  12.289207568444077   1.724643459776835 
 -7.512096200131206  14.456865879294480   1.735751080613625 
  0.000233752533539   1.445876616800671   1.739558740564500 
 -1.251382644868039   3.614561564383057   1.732669621461120 
 -2.503755513883124   5.782962500709273   1.734002376373830 
 -3.756071670537086   7.951173025421017   1.730995736205690 
 -5.008034067656106  10.119737783328796   1.718392777677240 
 -6.259982779145435  12.288367747484203   1.720067306972850 
 -5.008311681855456  14.455930503881179   1.722572868777585 
  2.503815717674897   1.444628721596080   1.727475683958420 
  1.252213559776006   3.613893389609207   1.711774417022310 
  0.000305866772294   5.782758648684487   1.709773972612095 
 -1.252244115956259   7.951155145581493   1.723681487274330 
 -2.504536337016060  10.119737783328796   1.720278260217630 
 -3.756506842748623  12.287944596066829   1.716550475805375 
 -2.503496086238265  14.455920201243718   1.724298022653900 
  5.008787817787553   1.444262798588673   1.707146206160265 
  3.758233780645912   3.610285928528447   1.654345842614625 
  2.500660715915787   5.780215261059965   1.581996239849010 
  1.251822507795843   7.951517597768296   1.654223588434545 
  0.000000000000152  10.119737783328796   1.706202746010870 
 -1.251968130401340  12.288210194641273   1.723553617510395 
 -0.000313619581522  14.456587534460372   1.735921237840290 
  7.511972726684234   1.444552721044590   1.728081617125125 
  6.261208038075935   3.610389562340189   1.653342833168250 
  5.008014055624333   5.714108191704940   1.266983047901910 
  3.699002929947033   7.984952976415228   1.269751990963485 
  2.504159354157198  10.119737783328796   1.654238086147230 
  1.251637349946584  12.288912461873661   1.726422201649680 
  2.503697650346080  14.457032446132509   1.731807372520380 
 10.015463514298006   1.445621018488702   1.732708741421175 
  8.763722855125252   3.613722120188232   1.705882975829610 
  7.515755825628505   5.780260560945997   1.578344401736190 
  6.317282468171128   7.985176275448406   1.267907155383840 
  5.008179452227321  10.125237679905153   1.579903357431555 
  3.755879883908657  12.289200953326077   1.706949303007710 
  5.008018462361996  14.457264210806692   1.728121138655115 
 12.519676831232349   1.446031255253916   1.727753055766155 
 11.267527822985279   3.614532285253004   1.725543701324130 
 10.015894999180265   5.782920758608872   1.704099553109520 
  8.766715601152402   7.951859829048448   1.649938164670200 
  7.514102479609784  10.122915060776075   1.651649620922220 
  6.260153865040717  12.289457888552606   1.707666429410505 
