 N P B 
 1.0
 17.527899999999772   0.000000000000000   0.000000000000000
 -8.763949999999658  15.179606674993195   0.000000000000000
  0.000000000000001   0.000000000000002  15.000000000000000
 N P B 
  47   1  49
Cartesian
  8.769970084803148  13.739072118214210   1.573445503663605 
 16.278277410290837   0.722209938691754   1.613331764257230 
 15.022074983662925   2.885010542478011   1.629810224532315 
 13.767096801584714   5.053424801971449   1.619681594677380 
 12.517451170939779   7.224331701910336   1.602637861570020 
 11.272543728081075   9.397294672983353   1.573875709574865 
 10.023463519451038  11.570101837184476   1.548317383500705 
 -6.254771903595329  13.735622233100282   1.597159182502440 
  1.254315428476679   0.724024864997638   1.593628929987405 
  0.003130139165875   2.896094648723699   1.600358557788720 
 -1.255306330900640   5.055573904682162   1.597722471657420 
 -2.514003418118054   7.224161571799523   1.602467297371095 
 -3.756566902938225   9.394840150687923   1.616030642645685 
 -5.003424284495726  11.565687741426281   1.609597442044620 
 -3.751179809396510  13.731063660544537   1.633947261834690 
  3.758727793359811   0.720924966913421   1.614637939356150 
  2.501097717448434   2.888791156449949   1.600813840368585 
  1.260115700848278   5.078149718263845   1.615324796944335 
 -0.023089856016440   7.224133815478397   1.569073634445900 
 -1.255582769480090   9.393869431870117   1.609993516182810 
 -2.500719902362206  11.562021988875093   1.642288207404060 
 -1.246189275259876  13.724484608956516   1.653280767516975 
  6.263802407091839   0.715607583003248   1.646150167749735 
  5.006700409096650   2.885941020851547   1.687694585975055 
  3.738667783967490   5.046707830064131   1.802083173820095 
  2.481219731011471   7.289808667309225   1.693833445105215 
  1.247983621801087   9.390113459962441   1.613751481571775 
  0.004611546082695  11.554837800787828   1.656368190213495 
  1.263473053012292  13.702148848071380   1.672773245208420 
  8.769796602728924   0.705343187327425   1.654444391120745 
  7.513767199162775   2.880307863381888   1.691126870719350 
  6.257264879391867   5.042934678704848   1.917967271883690 
  2.528884272723300  11.497907538269542   1.713128699633580 
  3.756476966686118  13.710294796528119   1.668799821212820 
 11.268486071783656   0.706232113345066   1.661824660881945 
 10.013577558909374   2.882001135731798   1.664512034584155 
  8.755504450593863   5.059868891664398   1.728480652706115 
  7.538202545128141   7.238466099963868   1.798397301647355 
  6.278637944991289   9.417323811718406   1.659171375886320 
  5.000284477632007  11.550266018781354   1.638763547764470 
  6.262014160136219  13.728402931876161   1.611270880406340 
 13.771192333183500   0.710473553038178   1.649898947857290 
 12.516927799673512   2.881361293232286   1.646931914395245 
 11.262555664895789   5.053500269465685   1.635588670323075 
 10.022035050218557   7.225892966503566   1.602771339293100 
  8.774269206418435   9.402038507714165   1.552404711579885 
  7.521816361271541  11.577139993155052   1.528609703343405 
  4.929457989414211   7.370875277871632   2.990380003028940 
  7.521025713823230  14.461641366923992   1.597425320973585 
 15.024153086058005   1.441264131231753   1.632857977395105 
 13.768146595358910   3.607280752469569   1.633788200518905 
 12.515225909002268   5.777273561227729   1.617103981469535 
 11.273754936066792   7.950376371413328   1.587001631964675 
 10.032201982999073  10.126366433177818   1.550089657754145 
  8.784125923700998  12.302523300306964   1.543600387384635 
 -7.502663755813769  14.461426032040160   1.588059046706835 
  0.004557361126200   1.448517855233323   1.601000313604110 
 -1.254631021864366   3.608914245744165   1.609871812013505 
 -2.511694957331293   5.776838698310868   1.605232778581410 
 -3.763308724211711   7.949220946299655   1.607518573976730 
 -5.003071517172729  10.119737783328796   1.600583152069380 
 -6.249727671753829  12.292948125155911   1.585308516799515 
 -5.002060948255404  14.455882685559825   1.615714238594505 
  2.506389860432338   1.441385297773305   1.598866689840870 
  1.254904662843818   3.618681017622007   1.603948255112820 
 -0.009572615019741   5.775497263557879   1.588724863643730 
 -1.274866441593426   7.949314451094663   1.590292920759540 
 -2.509952410286225  10.119737783328796   1.626265278530595 
 -3.752888486807100  12.287980694529107   1.631455676902785 
 -2.500781570734770  14.451218522473733   1.643749469815410 
  5.012266787906814   1.438237045584100   1.644525753395070 
  3.748872448987641   3.596942082530441   1.675454340277710 
  2.506545149530573   5.799710082001341   1.716928787062410 
  1.197594113085946   7.945687736596668   1.595108867362110 
 -0.014651218926613  10.119737783328796   1.621003766471160 
 -1.253963003478491  12.285159295116964   1.652147999565210 
  0.006126961948283  14.439417807631333   1.658703085173840 
  7.516614201865052   1.432229288796679   1.659294599431620 
  6.263160738341918   3.596424135138605   1.751754217854765 
  4.980332468607244   5.673564127981600   2.129375475619005 
  3.539564871526214   8.185414063668196   2.028762363846270 
  2.496871064851711  10.063176285442765   1.712857061411535 
  1.256455783321923  12.258176003331052   1.681476424403715 
  2.501829777109414  14.444388710365562   1.671212818116870 
 10.015661117057100   1.434980007544349   1.659730526466225 
  8.762935027341612   3.605664409752714   1.698445027368615 
  7.513091394167959   5.776157922886910   1.841912471115465 
  6.379054698378433   8.023594539430380   2.039573818041960 
  5.113029484660080  10.172301372227952   1.684637209053090 
  3.745199658088159  12.281574485208420   1.678124304656475 
  5.009016743055962  14.451277707428318   1.645718411574705 
 12.517871323716097   1.436999463827962   1.655420010033750 
 11.264829181262986   3.606275540550260   1.650784290821505 
 10.014289031437848   5.777224347872423   1.655252050795440 
  8.787497245630265   7.951896513800506   1.624699006729950 
  7.552985898917490  10.146926611876777   1.548863588836965 
  6.282473195219196  12.299728300245468   1.589385667533075 
