As B N                                  
   1.0000000000000000     
     8.7639499999999995  -15.1796066749929999    0.0000000000000000
     8.7639499999999995   15.1796066749929999    0.0000000000000000
     0.0000000000000000    0.0000000000000000   15.0000000000000000
   As   B    N 
     1    48    49
Selective dynamics
Direct
  0.4492987124556383  0.5135741565931181  0.2612400191368472   T   T   T
  0.9055967608808404  0.9529195133202850  0.1042812362760382   T   T   T
  0.9051378734361041  0.0953999604421189  0.1030604951634001   T   T   T
  0.9049058796959765  0.2380455842232854  0.1033838204250557   T   T   T
  0.9048693234648232  0.3807753197335841  0.1037514659018259   T   T   T
  0.9051083356626597  0.5236643175810194  0.1042669247357054   T   T   T
  0.9051982808833020  0.6667531034855370  0.1049174356780511   T   T   T
  0.9055391622838835  0.8098905440230042  0.1056476361440080   T   T   T
  0.0481176356761447  0.9525198160271358  0.1050300593856638   T   T   T
  0.0480613856667660  0.0954006492150207  0.1054655585669204   T   T   T
  0.0478383594068437  0.2380779788562770  0.1069407398140051   T   T   T
  0.0477964097356722  0.3808301069934306  0.1070099475105644   T   T   T
  0.0478661085321587  0.5235778220863152  0.1059040546566254   T   T   T
  0.0478982375383026  0.6664513420622317  0.1055644461743720   T   T   T
  0.0480178300231817  0.8094878641971958  0.1052350142009819   T   T   T
  0.1906825430624114  0.9522824750009730  0.1056226189270537   T   T   T
  0.1906964144874224  0.0952239094435727  0.1089148783681413   T   T   T
  0.1904436783238865  0.2379265639000670  0.1143353261554309   T   T   T
  0.1902222279046479  0.3806583022412955  0.1191105304492426   T   T   T
  0.1906238844366962  0.5236782517765229  0.1138622720421139   T   T   T
  0.1907566851530374  0.6663975989895717  0.1089813711909700   T   T   T
  0.1906415769203662  0.8092975878227373  0.1060101708404227   T   T   T
  0.3333521747974671  0.9522271470947732  0.1052863014466023   T   T   T
  0.3333475758465796  0.0952440813320589  0.1072908065036011   T   T   T
  0.3332037855033719  0.2381054142281619  0.1172953589192233   T   T   T
  0.3316136629699525  0.3795877588572862  0.1383447461323005   T   T   T
  0.3319838958875662  0.5234199776357925  0.1385450917234161   T   T   T
  0.3337505060869567  0.6663906584424079  0.1184393046678496   T   T   T
  0.3333873744147925  0.8092724011223192  0.1084464880125554   T   T   T
  0.4761462224704609  0.9524705177103637  0.1054835711262897   T   T   T
  0.4761130400202062  0.0951055488018067  0.1046352959422930   T   T   T
  0.4760043235925641  0.2376734342489540  0.1078663677115132   T   T   T
  0.4745157417619153  0.3794670925157596  0.1136662283170238   T   T   T
  0.4774857093193460  0.6684132404604695  0.1277707135540379   T   T   T
  0.4762542067142384  0.8102122374562685  0.1122805542630306   T   T   T
  0.6191629156725587  0.9526929023719406  0.1055938944912208   T   T   T
  0.6190007169585766  0.0952373853522880  0.1035434526360201   T   T   T
  0.6190165726875259  0.2380319003179663  0.1037037079909251   T   T   T
  0.6191074237379831  0.3810231176133610  0.1041409356195445   T   T   T
  0.6210899140090361  0.5257688877019865  0.1047551558278678   T   T   T
  0.6207484194604805  0.6690027137078884  0.1192998085280380   T   T   T
  0.6198148408945570  0.8105724997877929  0.1127422932749345   T   T   T
  0.7624590935772447  0.9528603414640893  0.1048238611969258   T   T   T
  0.7620354156685225  0.0953277151948390  0.1029602584299718   T   T   T
  0.7619090266667761  0.2380013691010601  0.1030908553535745   T   T   T
  0.7619760267361190  0.3808364909049940  0.1031856698078940   T   T   T
  0.7627202006130893  0.5240851417739788  0.1035699911021566   T   T   T
  0.7626533753830189  0.6674216613878715  0.1064424846985501   T   T   T
  0.7634459350301406  0.8108567034617569  0.1083595764192708   T   T   T
  0.9529983578818096  0.9050677500905623  0.1047871079587691   T   T   T
  0.9529483963439567  0.0479734002385081  0.1034760266370970   T   T   T
  0.9526626113338169  0.1905568743750511  0.1035925583970309   T   T   T
  0.9525748985262262  0.3332395745066955  0.1040291963481673   T   T   T
  0.9526481649773939  0.4759998894436220  0.1043269462147557   T   T   T
  0.9526818689384025  0.6189326981309903  0.1049400143146628   T   T   T
  0.9528703401706375  0.7620037620818504  0.1053649856194451   T   T   T
  0.0955471659387233  0.9047188178628223  0.1051200173181901   T   T   T
  0.0955973425391495  0.0477124615540012  0.1059564231860160   T   T   T
  0.0954926724965768  0.1905298399832568  0.1078280326458099   T   T   T
  0.0954413556349774  0.3332818197935754  0.1100245107612208   T   T   T
  0.0955517524073589  0.4760502236686746  0.1077082263657869   T   T   T
  0.0955272491249639  0.6188064952092933  0.1064260473113590   T   T   T
  0.0954756654964207  0.7617075771870523  0.1055825351987740   T   T   T
  0.2381800573734607  0.9045487201584168  0.1053763628891448   T   T   T
  0.2381944793612450  0.0475227096638816  0.1071420292652300   T   T   T
  0.2380859444975363  0.1903327191486982  0.1143943778114196   T   T   T
  0.2375935927522935  0.3328097141937953  0.1225769903514946   T   T   T
  0.2380159786537071  0.4761100383122384  0.1221624435238429   T   T   T
  0.2384682857996422  0.6188998602053279  0.1137420323728958   T   T   T
  0.2382236904023638  0.7616343807926050  0.1076550031217599   T   T   T
  0.3809364983070270  0.9045483891671439  0.1059513085834707   T   T   T
  0.3809037825786456  0.0475209377931466  0.1051641144593475   T   T   T
  0.3808079780517380  0.1905219194412278  0.1101880912716584   T   T   T
  0.3802959470688271  0.3332782813040213  0.1268629186200988   T   T   T
  0.3735127262376993  0.4721917593323573  0.1647477270241598   T   T   T
  0.3814213732382490  0.6191017872899912  0.1297333355436991   T   T   T
  0.3810857414226294  0.7617204684941328  0.1126243154019357   T   T   T
  0.5239075026755360  0.9051223867134633  0.1069964220988826   T   T   T
  0.5237646291439380  0.0475959969617925  0.1040483094231257   T   T   T
  0.5237479020705942  0.1902824850516941  0.1049125214071983   T   T   T
  0.5236830879584964  0.3327325175950821  0.1079725071840507   T   T   T
  0.5288733188084677  0.4710212163833429  0.1000796741278102   T   T   T
  0.5294176948674864  0.6272896246738016  0.1395829755484901   T   T   T
  0.5241741937085864  0.7632447730002211  0.1170657552051283   T   T   T
  0.6670922226285056  0.9053129740297274  0.1068088012483841   T   T   T
  0.6667596095169305  0.0477503030146350  0.1034770175547607   T   T   T
  0.6666537254621658  0.1904181300442880  0.1032708376497709   T   T   T
  0.6666915467454789  0.3332744329193289  0.1031425202566058   T   T   T
  0.6677207972618171  0.4764627739395729  0.1031121388348305   T   T   T
  0.6674803318460496  0.6206178015712874  0.1088500385032887   T   T   T
  0.6687286333273114  0.7640669016450667  0.1133932811860318   T   T   T
  0.8105397982220234  0.9057037988472100  0.1053566455971297   T   T   T
  0.8098691465104682  0.0478986201939750  0.1029106127947297   T   T   T
  0.8096365805637329  0.1904757396722520  0.1028906829068587   T   T   T
  0.8096014515273828  0.3332030164759110  0.1032737463582681   T   T   T
  0.8099315255292101  0.4761244995843688  0.1035926392477599   T   T   T
  0.8100158701546760  0.6193946578270959  0.1044491092167016   T   T   T
  0.8104349780937375  0.7626272386643904  0.1071912896972679   T   T   T

  0.00000000E+00  0.00000000E+00  0.00000000E+00
  0.00000000E+00  0.00000000E+00  0.00000000E+00
  0.00000000E+00  0.00000000E+00  0.00000000E+00
  0.00000000E+00  0.00000000E+00  0.00000000E+00
  0.00000000E+00  0.00000000E+00  0.00000000E+00
  0.00000000E+00  0.00000000E+00  0.00000000E+00
  0.00000000E+00  0.00000000E+00  0.00000000E+00
  0.00000000E+00  0.00000000E+00  0.00000000E+00
  0.00000000E+00  0.00000000E+00  0.00000000E+00
  0.00000000E+00  0.00000000E+00  0.00000000E+00
  0.00000000E+00  0.00000000E+00  0.00000000E+00
  0.00000000E+00  0.00000000E+00  0.00000000E+00
  0.00000000E+00  0.00000000E+00  0.00000000E+00
  0.00000000E+00  0.00000000E+00  0.00000000E+00
  0.00000000E+00  0.00000000E+00  0.00000000E+00
  0.00000000E+00  0.00000000E+00  0.00000000E+00
  0.00000000E+00  0.00000000E+00  0.00000000E+00
  0.00000000E+00  0.00000000E+00  0.00000000E+00
  0.00000000E+00  0.00000000E+00  0.00000000E+00
  0.00000000E+00  0.00000000E+00  0.00000000E+00
  0.00000000E+00  0.00000000E+00  0.00000000E+00
  0.00000000E+00  0.00000000E+00  0.00000000E+00
  0.00000000E+00  0.00000000E+00  0.00000000E+00
  0.00000000E+00  0.00000000E+00  0.00000000E+00
  0.00000000E+00  0.00000000E+00  0.00000000E+00
  0.00000000E+00  0.00000000E+00  0.00000000E+00
  0.00000000E+00  0.00000000E+00  0.00000000E+00
  0.00000000E+00  0.00000000E+00  0.00000000E+00
  0.00000000E+00  0.00000000E+00  0.00000000E+00
  0.00000000E+00  0.00000000E+00  0.00000000E+00
  0.00000000E+00  0.00000000E+00  0.00000000E+00
  0.00000000E+00  0.00000000E+00  0.00000000E+00
  0.00000000E+00  0.00000000E+00  0.00000000E+00
  0.00000000E+00  0.00000000E+00  0.00000000E+00
  0.00000000E+00  0.00000000E+00  0.00000000E+00
  0.00000000E+00  0.00000000E+00  0.00000000E+00
  0.00000000E+00  0.00000000E+00  0.00000000E+00
  0.00000000E+00  0.00000000E+00  0.00000000E+00
  0.00000000E+00  0.00000000E+00  0.00000000E+00
  0.00000000E+00  0.00000000E+00  0.00000000E+00
  0.00000000E+00  0.00000000E+00  0.00000000E+00
  0.00000000E+00  0.00000000E+00  0.00000000E+00
  0.00000000E+00  0.00000000E+00  0.00000000E+00
  0.00000000E+00  0.00000000E+00  0.00000000E+00
  0.00000000E+00  0.00000000E+00  0.00000000E+00
  0.00000000E+00  0.00000000E+00  0.00000000E+00
  0.00000000E+00  0.00000000E+00  0.00000000E+00
  0.00000000E+00  0.00000000E+00  0.00000000E+00
  0.00000000E+00  0.00000000E+00  0.00000000E+00
  0.00000000E+00  0.00000000E+00  0.00000000E+00
  0.00000000E+00  0.00000000E+00  0.00000000E+00
  0.00000000E+00  0.00000000E+00  0.00000000E+00
  0.00000000E+00  0.00000000E+00  0.00000000E+00
  0.00000000E+00  0.00000000E+00  0.00000000E+00
  0.00000000E+00  0.00000000E+00  0.00000000E+00
  0.00000000E+00  0.00000000E+00  0.00000000E+00
  0.00000000E+00  0.00000000E+00  0.00000000E+00
  0.00000000E+00  0.00000000E+00  0.00000000E+00
  0.00000000E+00  0.00000000E+00  0.00000000E+00
  0.00000000E+00  0.00000000E+00  0.00000000E+00
  0.00000000E+00  0.00000000E+00  0.00000000E+00
  0.00000000E+00  0.00000000E+00  0.00000000E+00
  0.00000000E+00  0.00000000E+00  0.00000000E+00
  0.00000000E+00  0.00000000E+00  0.00000000E+00
  0.00000000E+00  0.00000000E+00  0.00000000E+00
  0.00000000E+00  0.00000000E+00  0.00000000E+00
  0.00000000E+00  0.00000000E+00  0.00000000E+00
  0.00000000E+00  0.00000000E+00  0.00000000E+00
  0.00000000E+00  0.00000000E+00  0.00000000E+00
  0.00000000E+00  0.00000000E+00  0.00000000E+00
  0.00000000E+00  0.00000000E+00  0.00000000E+00
  0.00000000E+00  0.00000000E+00  0.00000000E+00
  0.00000000E+00  0.00000000E+00  0.00000000E+00
  0.00000000E+00  0.00000000E+00  0.00000000E+00
  0.00000000E+00  0.00000000E+00  0.00000000E+00
  0.00000000E+00  0.00000000E+00  0.00000000E+00
  0.00000000E+00  0.00000000E+00  0.00000000E+00
  0.00000000E+00  0.00000000E+00  0.00000000E+00
  0.00000000E+00  0.00000000E+00  0.00000000E+00
  0.00000000E+00  0.00000000E+00  0.00000000E+00
  0.00000000E+00  0.00000000E+00  0.00000000E+00
  0.00000000E+00  0.00000000E+00  0.00000000E+00
  0.00000000E+00  0.00000000E+00  0.00000000E+00
  0.00000000E+00  0.00000000E+00  0.00000000E+00
  0.00000000E+00  0.00000000E+00  0.00000000E+00
  0.00000000E+00  0.00000000E+00  0.00000000E+00
  0.00000000E+00  0.00000000E+00  0.00000000E+00
  0.00000000E+00  0.00000000E+00  0.00000000E+00
  0.00000000E+00  0.00000000E+00  0.00000000E+00
  0.00000000E+00  0.00000000E+00  0.00000000E+00
  0.00000000E+00  0.00000000E+00  0.00000000E+00
  0.00000000E+00  0.00000000E+00  0.00000000E+00
  0.00000000E+00  0.00000000E+00  0.00000000E+00
  0.00000000E+00  0.00000000E+00  0.00000000E+00
  0.00000000E+00  0.00000000E+00  0.00000000E+00
  0.00000000E+00  0.00000000E+00  0.00000000E+00
  0.00000000E+00  0.00000000E+00  0.00000000E+00
  0.00000000E+00  0.00000000E+00  0.00000000E+00
