 N As B 
 1.0
 17.527899999999772   0.000000000000000   0.000000000000000
 -8.763949999999658  15.179606674993195   0.000000000000000
  0.000000000000001   0.000000000000002  15.000000000000000
 N As B 
  49   1  48
Cartesian
  8.772091408710489  13.738572460595767   1.571806619381535 
 16.282747715256768   0.728217346482576   1.552140399556455 
 15.028144066018632   2.892578402229364   1.553888375955465 
 13.775320897211067   5.059868891664398   1.560437945222505 
 12.526282539817778   7.225491099094428   1.564904193221340 
 11.274217310780321   9.395154915920726   1.574100214719945 
 10.023653164779738  11.566917393267577   1.580474784291675 
 -6.254169313951249  13.733275806622446   1.576800259772850 
  1.257471032855775   0.724256399885470   1.589346347790240 
  0.003992023131530   2.892168030795233   1.617420489687150 
 -1.248430129232261   5.059868891664398   1.650367661418315 
 -2.497258796699995   7.226255152833023   1.615623395486805 
 -3.748797113751837   9.393239205208129   1.596390709670385 
 -5.002079203833508  11.562421423061469   1.583738027981610 
 -3.752623528395817  13.730693790373259   1.580645443337175 
  3.758562363437149   0.721376040827627   1.607130438978450 
  2.505080192575139   2.889175814059182   1.715915667171300 
  1.247789039694266   5.051920559078709   1.838654855272425 
 -0.000684298022119   7.227163115595714   1.832436652857645 
 -1.244159163178782   9.394656449125151   1.706130485593440 
 -2.499364608543550  11.561310330583737   1.614825046826400 
 -1.250400006565431  13.730688766055922   1.589269628752065 
  6.259972287887927   0.721349144526791   1.577461716890205 
  5.005039582606086   2.892047800082580   1.652821369074870 
  3.744472663961054   5.059868891664398   1.902943779301485 
  2.408628745021030   7.167685181838227   2.471215905362400 
  1.259738579262712   9.397721622847365   1.946000033155485 
  0.003952667222715  11.562617108032486   1.689364731029040 
  1.250550975109263  13.739401823041455   1.604946331483245 
  8.763365105598620   0.722488513184189   1.560724641346890 
  7.512574667834315   2.888413280224987   1.573687821107970 
  6.263013649850299   5.050748745073597   1.619587607760765 
  5.142032255420188   7.149916800276007   1.501195111917150 
  3.782045507707935   9.522009773852421   2.093744633227350 
  2.498633821569578  11.585755450887820   1.755986328076920 
  3.758608130262520  13.742294863539586   1.602132018725760 
 11.266785398561421   0.724830818373901   1.552155263321415 
 10.016451695864941   2.890472317859996   1.549062564746565 
  8.763949999999962   5.059868891664398   1.547137803849090 
  7.528047434657692   7.232517503678916   1.546682082522465 
  6.260465126483759   9.420734123351110   1.632750577549335 
  5.025164489425599  11.598235040352828   1.700899217790480 
  6.269517721348915  13.748227430547804   1.580349683956950 
 13.775524300671677   0.727082214819427   1.543659191920950 
 12.521909161762302   2.891346809353183   1.543360243602885 
 11.269296615560080   5.059868891664398   1.549106195374020 
 10.023667478190987   7.227382632018682   1.553889588716400 
  8.769533359020395   9.402167282407312   1.566736638250530 
  7.521596264236525  11.576381522561602   1.607869345459020 
  3.374324672376994   7.795853695524895   3.918600287052705 
  7.521870496280082  14.464943405127865   1.564218544140570 
 15.029085648483804   1.448133876321277   1.545907427451000 
 13.774880170869313   3.613438339228432   1.550757306375840 
 12.523363151379851   5.780019585100580   1.556271988527390 
 11.275280500597340   7.949018370608592   1.564003871035575 
 10.023591614161116  10.119737783328796   1.573761535170765 
  8.774359649305353  12.293819908065462   1.584714542160120 
 -7.504434935302802  14.458876157428804   1.575450890784960 
  0.006328642140546   1.448144331623017   1.581983378503800 
 -1.247997522950177   3.613930077015631   1.604111097210075 
 -2.499805325979075   5.780851234155858   1.605149212658460 
 -3.749617490132362   7.947705403019826   1.588560819849375 
 -5.001190721518460  10.116469240526030   1.583466692615580 
 -6.252659444567418  12.287707386693741   1.578525213014730 
 -5.003491450240861  14.455273414003809   1.584339283905810 
  2.507970102326071   1.445461491408608   1.633723175522115 
  1.252901239601305   3.611631657535652   1.715029892331465 
 -0.001874139437631   5.778243305593539   1.786657956738645 
 -1.248253630638759   7.949229886215677   1.707934080631710 
 -2.496711135970557  10.115653441821545   1.634720567864550 
 -3.751097098696360  12.284819066169909   1.590152562606345 
 -2.502637772447653  14.454433558149542   1.579294521699030 
  5.007918966743191   1.445767692741718   1.609362097554015 
  3.755889388308438   3.614346535169828   1.759430383788345 
  2.485802983933764   5.761992878095766   2.075171191984500 
  1.231754015726564   7.945309386345071   2.078176375851240 
  0.009731084585384  10.115548087045486   1.776589570017750 
 -1.249789526482414  12.284436741964125   1.626697320188325 
 -0.001560620847533  14.458127828370465   1.582253566894350 
  7.511761479748497   1.443664823420801   1.569529439134395 
  6.260398089411954   3.607789248993979   1.617995515672695 
  4.991633844575196   5.760161210492491   1.704993424755360 
  2.511381545645156  10.146250086547568   1.916560703310570 
  1.247076571411800  12.298703087852338   1.684208313945465 
  2.503272707874659  14.461503540063756   1.583908417368315 
 10.015126983419947   1.445666050402490   1.553151789540300 
  8.763960911617989   3.613230622927912   1.555555619863875 
  7.512385460929366   5.783781059450492   1.562114034293175 
  6.278589660383201   7.980964917264815   1.571327337418020 
  5.017309888661207  10.155198058588818   1.789497127920570 
  3.760235690200611  12.304171728344704   1.691134399124010 
  5.013486356738539  14.464045199624582   1.572357917953890 
 12.521433232714353   1.447037221883429   1.544403876449580 
 11.268833129779255   3.612767171063970   1.546362830303610 
 10.018207634561154   5.780948139422432   1.547785047118410 
  8.775827426076104   7.955406316337047   1.553549866532355 
  7.518462029055833  10.131198306238389   1.596637270478250 
  6.275296398311247  12.308485828331063   1.625393646289065 
