 N B 
 1.0
 17.527899999999772   0.000000000000000   0.000000000000000
 -8.763949999999658  15.179606674993195   0.000000000000000
  0.000000000000001   0.000000000000002  15.000000000000000
 N B 
  49  47
Cartesian
  8.775216064308676  13.736490909016361   1.665425542367925 
 16.279248218427032   0.718908931702543   1.665363506417100 
 15.021342739860927   2.887551766714539   1.665329795087130 
 13.764613164613042   5.059868891664398   1.664809862643405 
 12.510302166781695   7.229920897235386   1.664670402499305 
 11.254882126494952   9.397750771193540   1.665652253778330 
 10.023325003718536  11.565130803044230   1.666466799572730 
 -6.249174777393124  13.727343130286176   1.665353434386030 
  1.257568696036061   0.715144841220025   1.664769111798165 
 -0.001901128290086   2.880152965808157   1.664429702827680 
 -1.255785754248715   5.050063914696032   1.664427516960390 
 -2.500035519641199   7.222757931963187   1.664946401361270 
 -3.751729129272488   9.391798751864307   1.664965644551505 
 -4.997991821108378  11.558695876285025   1.665068619615495 
 -3.742072879738723  13.723643374707697   1.665118309097835 
  3.765165820667299   0.710970786462459   1.665593804668935 
  2.504416581488302   2.872726692178555   1.665261102744960 
  1.248891075277215   5.037849628012146   1.664453097584160 
  0.012824952709508   7.212432576267068   1.665260673239550 
 -1.233217071539605   9.386006523672004   1.666483505648820 
 -2.486717875233656  11.555500952804699   1.665674620423020 
 -1.234551471097513  13.723432455280317   1.665491845878630 
  6.271514277811306   0.712497975368915   1.665287939251485 
  5.014309066913008   2.876360080088568   1.666297691098020 
  3.751980786218449   5.024704293036754   1.665316608572070 
  2.520194224162760   7.181915272752036   1.664957119456935 
  1.294416668876482   9.366288000663333   1.666335026400015 
  0.027921797007826  11.553452931915658   1.667306380603560 
  1.271508787111941  13.729471840856274   1.665263273186115 
  8.772990477985724   0.718167332331500   1.664259106834320 
  7.513187307740759   2.890049638195806   1.665592829572125 
  6.249282992449601   5.059868891664398   1.665553859837580 
  4.997662988235735   7.196140520066036   1.663774616849700 
  2.555658460235159  11.569030814547489   1.665360578505660 
  3.782768625987168  13.721130026993785   1.664324710579605 
 11.276742707852177   0.716055579597704   1.664569882715475 
 10.014348594559152   2.894114996175087   1.665544070657940 
  8.743657544678296   5.076420582650617   1.665835005434010 
  7.456364962658651   7.269663206893703   1.665213867635355 
  4.965647749436949  10.163257783719295   1.660868608204785 
  6.171568372395276   9.485788132327819   1.663283072845335 
  5.058250355180903  11.543880143708966   1.662229793466180 
  6.269618842714252  13.733490196382570   1.664263889509020 
 13.776944892663122   0.721996412362276   1.665240190820265 
 12.516239600516283   2.891458636358006   1.665711135625395 
 11.255196880260623   5.065409197550732   1.665569528380500 
  9.988039289802320   7.239691748601342   1.665795966878055 
  8.725047736642834   9.410841860571075   1.666331934670995 
  7.530837287953506  11.582786753569874   1.664999023727955 
  7.526260588765057  14.459759899105544   1.665295563818865 
 15.030667613459686   1.447283412996482   1.665796770764850 
 13.770426250438376   3.614297474873016   1.665652631309175 
 12.510753677216302   5.782892789743349   1.665113020366815 
 11.249160637298289   7.950425769523545   1.665504299802390 
  9.996169634803643  10.119737783328796   1.666706614927395 
  8.785454773538060  12.297373081746553   1.666222007490120 
 -7.498724388564067  14.457026898544363   1.665385419540870 
  0.006834343331463   1.442153764643626   1.665054283934235 
 -1.249533787382985   3.608329627205910   1.664728209625725 
 -2.502857750112451   5.773991325278291   1.664991778158165 
 -3.756295612041024   7.942759402806846   1.664971762366785 
 -5.010972474008999  10.112797393389904   1.665457374475230 
 -6.249116110603111  12.284416649007726   1.665863357796030 
 -4.996954884256805  14.451196112728775   1.665579070112715 
  2.511007478289390   1.438981078755642   1.665497514046755 
  1.255379421748658   3.604631316732088   1.664805271067235 
  0.009781408185563   5.763708139018784   1.664705598539565 
 -1.232449360157502   7.926017063338120   1.665872617046415 
 -2.496087406710926  10.108213575559244   1.665989237989605 
 -3.745501930629700  12.280553996044050   1.665265028806995 
 -2.493813597643127  14.451441623787936   1.665557890836660 
  5.015463436814838   1.440207424843355   1.666422610893735 
  3.757403418371561   3.602507365883466   1.666016807445765 
  2.518035125455020   5.782083141936228   1.665067652399235 
  1.326930740740999   7.867362291507339   1.665651012911505 
  0.002519897891762  10.105510051203872   1.667515176401415 
 -1.241509463378650  12.281918779801595   1.666593412950210 
  0.008005586519625  14.458750855999629   1.665164687962590 
  7.515901940733713   1.447876137109308   1.665096804182475 
  6.255299465846251   3.618976786282085   1.666256045461785 
  4.974842662058276   5.790039467034160   1.665234995412540 
  2.335083083712162  10.225962097334698   1.665785333468925 
  1.255647040013300  12.303308943540557   1.666549030613895 
  2.524785528605783  14.455984630394990   1.664848432220820 
 10.019662059675088   1.449604225575007   1.664822408583600 
  8.753662183503749   3.627569419139696   1.665907006319445 
  7.475562777173629   5.809615596526362   1.665638527399800 
  6.142972781255679   7.982336897962327   1.664357775443955 
  3.818168494053879  12.287991293584241   1.664178283262880 
  5.027595294969489  14.464055725900636   1.664684617899630 
 12.525170245753161   1.449677948671788   1.665482892096465 
 11.261416342551005   3.620062097999154   1.666065796596075 
  9.994859938089455   5.791743643644915   1.666030692160665 
  8.719205276805635   7.959624243581239   1.666132639389855 
  7.478775967751962  10.148110395699359   1.665459976626405 
  6.301080082047608  12.295977212487719   1.663774060427355 
