B In N                                  
   1.0000000000000000     
     8.7639499999999995  -15.1796066749929999    0.0000000000000000
     8.7639499999999995   15.1796066749929999    0.0000000000000000
     0.0000000000000000    0.0000000000000000   15.0000000000000000
   B    In   N 
    49     1    47
Selective dynamics
Direct
  0.9045344081737674  0.9511376256045156  0.1171247074657298   T   T   T
  0.9044324791730620  0.0938738302206269  0.1170247796560501   T   T   T
  0.9045092615762635  0.2367421161021324  0.1171344524435907   T   T   T
  0.9045191899786114  0.3795304025732678  0.1176289552313780   T   T   T
  0.9045148363799962  0.5223156887396408  0.1179651802514291   T   T   T
  0.9045181215117661  0.6651560070021187  0.1180754170094591   T   T   T
  0.9042864988055028  0.8079850381197212  0.1165918409338546   T   T   T
  0.0474318998433434  0.9511182977824864  0.1199628076673152   T   T   T
  0.0473736238440029  0.0939748610971261  0.1205820816113841   T   T   T
  0.0474415032351231  0.2369236555557505  0.1201170605813979   T   T   T
  0.0474383576233203  0.3796271858097606  0.1183860479534457   T   T   T
  0.0474954857728038  0.5223312150987591  0.1182521117745099   T   T   T
  0.0475251910711383  0.6651470078436257  0.1191939929507555   T   T   T
  0.0474142462582956  0.8080863141933029  0.1196446301707419   T   T   T
  0.1903741680762348  0.9510775995204584  0.1203645733991798   T   T   T
  0.1906536270112921  0.0943892600067803  0.1223075493218946   T   T   T
  0.1901386690341144  0.2369004436352700  0.1233924199602700   T   T   T
  0.1905969622090700  0.3800722754464545  0.1184182120841006   T   T   T
  0.1905550324168484  0.5223080926821230  0.1140232930570498   T   T   T
  0.1905429650769741  0.6650681855101618  0.1157653132614338   T   T   T
  0.1904049928708935  0.8079988575125630  0.1183411662859791   T   T   T
  0.3332482647442627  0.9508940744114512  0.1187203987794309   T   T   T
  0.3333453708459385  0.0940741928139309  0.1196469636896325   T   T   T
  0.3340423445952467  0.2378595960907115  0.1192005082574947   T   T   T
  0.3322289084012831  0.3805537992990831  0.1105536802782351   T   T   T
  0.3338255561116530  0.5214931365666887  0.0964553562790173   T   T   T
  0.3333251485396223  0.6647275253088036  0.1032512290204463   T   T   T
  0.3332992526988647  0.8078426004475275  0.1134379879739352   T   T   T
  0.4760424571160247  0.9509369757922586  0.1169745106045851   T   T   T
  0.4760560393372089  0.0938137587865372  0.1187540002613755   T   T   T
  0.4760644396664470  0.2365764043934783  0.1121684644021690   T   T   T
  0.4750722666359668  0.3769117127322939  0.0889959660197330   T   T   T
  0.5343163151601968  0.6347393520991732  0.0145978331533651   T   T   T
  0.4734101393356507  0.6684737130440189  0.0641877221188206   T   T   T
  0.4761078278461285  0.8084499070928745  0.1049584735405446   T   T   T
  0.6187024428623615  0.9507608231407138  0.1134618132290221   T   T   T
  0.6188350665904614  0.0937145568270601  0.1179486548704411   T   T   T
  0.6188395411251694  0.2365259900618863  0.1153907710450517   T   T   T
  0.6185681820445770  0.3788654137378986  0.1066302268288552   T   T   T
  0.6201906728720519  0.5224976301836789  0.0994077376735191   T   T   T
  0.6244318140026156  0.6691464455276281  0.0719436719174999   T   T   T
  0.6183333047870389  0.8078445221142758  0.0987691848528656   T   T   T
  0.7613582189876302  0.9507986687222486  0.1134550198250751   T   T   T
  0.7615984449585266  0.0937903060246611  0.1161395677925173   T   T   T
  0.7616677657254929  0.2366501815956648  0.1168551755105681   T   T   T
  0.7616152514430498  0.3794285345459044  0.1152219075078847   T   T   T
  0.7616826809690018  0.5223262115617385  0.1129742133895251   T   T   T
  0.7615345110624456  0.6649288351395368  0.1093439481973955   T   T   T
  0.7617225117950442  0.8086033125928901  0.1096793008307205   T   T   T
  0.4853592845877847  0.4944057065893979  0.0030145796600572   T   T   T
  0.9522722162076497  0.9034445035409477  0.1181659865486751   T   T   T
  0.9522005662880456  0.0463795022927511  0.1180788164678976   T   T   T
  0.9519988133407852  0.1891116929009434  0.1177319502484549   T   T   T
  0.9519339760103630  0.3319082394256534  0.1176684396460354   T   T   T
  0.9520274868658023  0.4747148842897007  0.1184196436502621   T   T   T
  0.9521663106140132  0.6175318782877278  0.1192012501980693   T   T   T
  0.9522028500586667  0.7604191687999570  0.1187816250004498   T   T   T
  0.0950887308791525  0.9033863826623206  0.1201749427606218   T   T   T
  0.0951506038169865  0.0463606653299680  0.1213441039711419   T   T   T
  0.0946210296738092  0.1888537630998594  0.1221481343392977   T   T   T
  0.0946522884810927  0.3319233918645143  0.1200212296568718   T   T   T
  0.0947571787701812  0.4747334464270592  0.1177069330424987   T   T   T
  0.0949710764418579  0.6175841679353339  0.1183542591573534   T   T   T
  0.0950269830246675  0.7604521453173311  0.1194990904465222   T   T   T
  0.2379028744770918  0.9033602428910336  0.1191400120427787   T   T   T
  0.2380176970954567  0.0462959821916787  0.1213474700235562   T   T   T
  0.2382533379641003  0.1893705922987588  0.1234815497717782   T   T   T
  0.2366812526253884  0.3310584044250423  0.1220615872468084   T   T   T
  0.2375748616014308  0.4749178077398252  0.1119575160108953   T   T   T
  0.2377005305967522  0.6176432396557781  0.1122538040041551   T   T   T
  0.2378101120771088  0.7605007440084208  0.1159341371423234   T   T   T
  0.3807329571816302  0.9034144404569873  0.1168319824987220   T   T   T
  0.3808211870486515  0.0462187531863491  0.1194724179107112   T   T   T
  0.3810135767014883  0.1891115986604177  0.1170966028904462   T   T   T
  0.3817199226412865  0.3325338075459650  0.1125711738957777   T   T   T
  0.3761879042172062  0.4708913484892079  0.0928354396153313   T   T   T
  0.3795720008027096  0.6179015638623859  0.0884357819703975   T   T   T
  0.3804850834394777  0.7607353710522136  0.1067259757417692   T   T   T
  0.5236296706139074  0.9038741626980518  0.1137383134179508   T   T   T
  0.5236735804156740  0.0463479064693691  0.1190589848266629   T   T   T
  0.5237483536907261  0.1889897263837861  0.1164636182403713   T   T   T
  0.5238478371951826  0.3312150639333010  0.1014059158236920   T   T   T
  0.5231703650777241  0.7623833134988133  0.0917160520857587   T   T   T
  0.6663630929869241  0.9034416238247680  0.1098820695459945   T   T   T
  0.6664897703632034  0.0463240164849719  0.1166872747933197   T   T   T
  0.6665065110689288  0.1890611887643607  0.1173789343123325   T   T   T
  0.6664774294551418  0.3317241280566179  0.1127080460597206   T   T   T
  0.6662009032998975  0.4743117680301617  0.1075481284398876   T   T   T
  0.6669754682787508  0.6170681605939596  0.0973551473653137   T   T   T
  0.6684439073339719  0.7622857830635611  0.0986348357688309   T   T   T
  0.8097969800542814  0.9039969362343979  0.1146784488805594   T   T   T
  0.8092520438714841  0.0463450886840849  0.1155588125396274   T   T   T
  0.8092469179242068  0.1891395111147838  0.1165578778091100   T   T   T
  0.8092262630524356  0.3318982490061891  0.1168855126080263   T   T   T
  0.8092576678536938  0.4746318449207338  0.1157225678050600   T   T   T
  0.8093605302924164  0.6173674050191216  0.1151463107078811   T   T   T
  0.8095371205561798  0.7604741234672796  0.1119399861646331   T   T   T

  0.00000000E+00  0.00000000E+00  0.00000000E+00
  0.00000000E+00  0.00000000E+00  0.00000000E+00
  0.00000000E+00  0.00000000E+00  0.00000000E+00
  0.00000000E+00  0.00000000E+00  0.00000000E+00
  0.00000000E+00  0.00000000E+00  0.00000000E+00
  0.00000000E+00  0.00000000E+00  0.00000000E+00
  0.00000000E+00  0.00000000E+00  0.00000000E+00
  0.00000000E+00  0.00000000E+00  0.00000000E+00
  0.00000000E+00  0.00000000E+00  0.00000000E+00
  0.00000000E+00  0.00000000E+00  0.00000000E+00
  0.00000000E+00  0.00000000E+00  0.00000000E+00
  0.00000000E+00  0.00000000E+00  0.00000000E+00
  0.00000000E+00  0.00000000E+00  0.00000000E+00
  0.00000000E+00  0.00000000E+00  0.00000000E+00
  0.00000000E+00  0.00000000E+00  0.00000000E+00
  0.00000000E+00  0.00000000E+00  0.00000000E+00
  0.00000000E+00  0.00000000E+00  0.00000000E+00
  0.00000000E+00  0.00000000E+00  0.00000000E+00
  0.00000000E+00  0.00000000E+00  0.00000000E+00
  0.00000000E+00  0.00000000E+00  0.00000000E+00
  0.00000000E+00  0.00000000E+00  0.00000000E+00
  0.00000000E+00  0.00000000E+00  0.00000000E+00
  0.00000000E+00  0.00000000E+00  0.00000000E+00
  0.00000000E+00  0.00000000E+00  0.00000000E+00
  0.00000000E+00  0.00000000E+00  0.00000000E+00
  0.00000000E+00  0.00000000E+00  0.00000000E+00
  0.00000000E+00  0.00000000E+00  0.00000000E+00
  0.00000000E+00  0.00000000E+00  0.00000000E+00
  0.00000000E+00  0.00000000E+00  0.00000000E+00
  0.00000000E+00  0.00000000E+00  0.00000000E+00
  0.00000000E+00  0.00000000E+00  0.00000000E+00
  0.00000000E+00  0.00000000E+00  0.00000000E+00
  0.00000000E+00  0.00000000E+00  0.00000000E+00
  0.00000000E+00  0.00000000E+00  0.00000000E+00
  0.00000000E+00  0.00000000E+00  0.00000000E+00
  0.00000000E+00  0.00000000E+00  0.00000000E+00
  0.00000000E+00  0.00000000E+00  0.00000000E+00
  0.00000000E+00  0.00000000E+00  0.00000000E+00
  0.00000000E+00  0.00000000E+00  0.00000000E+00
  0.00000000E+00  0.00000000E+00  0.00000000E+00
  0.00000000E+00  0.00000000E+00  0.00000000E+00
  0.00000000E+00  0.00000000E+00  0.00000000E+00
  0.00000000E+00  0.00000000E+00  0.00000000E+00
  0.00000000E+00  0.00000000E+00  0.00000000E+00
  0.00000000E+00  0.00000000E+00  0.00000000E+00
  0.00000000E+00  0.00000000E+00  0.00000000E+00
  0.00000000E+00  0.00000000E+00  0.00000000E+00
  0.00000000E+00  0.00000000E+00  0.00000000E+00
  0.00000000E+00  0.00000000E+00  0.00000000E+00
  0.00000000E+00  0.00000000E+00  0.00000000E+00
  0.00000000E+00  0.00000000E+00  0.00000000E+00
  0.00000000E+00  0.00000000E+00  0.00000000E+00
  0.00000000E+00  0.00000000E+00  0.00000000E+00
  0.00000000E+00  0.00000000E+00  0.00000000E+00
  0.00000000E+00  0.00000000E+00  0.00000000E+00
  0.00000000E+00  0.00000000E+00  0.00000000E+00
  0.00000000E+00  0.00000000E+00  0.00000000E+00
  0.00000000E+00  0.00000000E+00  0.00000000E+00
  0.00000000E+00  0.00000000E+00  0.00000000E+00
  0.00000000E+00  0.00000000E+00  0.00000000E+00
  0.00000000E+00  0.00000000E+00  0.00000000E+00
  0.00000000E+00  0.00000000E+00  0.00000000E+00
  0.00000000E+00  0.00000000E+00  0.00000000E+00
  0.00000000E+00  0.00000000E+00  0.00000000E+00
  0.00000000E+00  0.00000000E+00  0.00000000E+00
  0.00000000E+00  0.00000000E+00  0.00000000E+00
  0.00000000E+00  0.00000000E+00  0.00000000E+00
  0.00000000E+00  0.00000000E+00  0.00000000E+00
  0.00000000E+00  0.00000000E+00  0.00000000E+00
  0.00000000E+00  0.00000000E+00  0.00000000E+00
  0.00000000E+00  0.00000000E+00  0.00000000E+00
  0.00000000E+00  0.00000000E+00  0.00000000E+00
  0.00000000E+00  0.00000000E+00  0.00000000E+00
  0.00000000E+00  0.00000000E+00  0.00000000E+00
  0.00000000E+00  0.00000000E+00  0.00000000E+00
  0.00000000E+00  0.00000000E+00  0.00000000E+00
  0.00000000E+00  0.00000000E+00  0.00000000E+00
  0.00000000E+00  0.00000000E+00  0.00000000E+00
  0.00000000E+00  0.00000000E+00  0.00000000E+00
  0.00000000E+00  0.00000000E+00  0.00000000E+00
  0.00000000E+00  0.00000000E+00  0.00000000E+00
  0.00000000E+00  0.00000000E+00  0.00000000E+00
  0.00000000E+00  0.00000000E+00  0.00000000E+00
  0.00000000E+00  0.00000000E+00  0.00000000E+00
  0.00000000E+00  0.00000000E+00  0.00000000E+00
  0.00000000E+00  0.00000000E+00  0.00000000E+00
  0.00000000E+00  0.00000000E+00  0.00000000E+00
  0.00000000E+00  0.00000000E+00  0.00000000E+00
  0.00000000E+00  0.00000000E+00  0.00000000E+00
  0.00000000E+00  0.00000000E+00  0.00000000E+00
  0.00000000E+00  0.00000000E+00  0.00000000E+00
  0.00000000E+00  0.00000000E+00  0.00000000E+00
  0.00000000E+00  0.00000000E+00  0.00000000E+00
  0.00000000E+00  0.00000000E+00  0.00000000E+00
  0.00000000E+00  0.00000000E+00  0.00000000E+00
  0.00000000E+00  0.00000000E+00  0.00000000E+00
  0.00000000E+00  0.00000000E+00  0.00000000E+00
