 In N B 
 1.0
 17.527899999999772   0.000000000000000   0.000000000000000
 -8.763949999999658  15.179606674993195   0.000000000000000
  0.000000000000001   0.000000000000002  15.000000000000000
 In N B 
   1  47  49
Cartesian
  4.174382112062140   7.504884163899153   0.045218694900855 
  8.773589721658471  13.713932216436087   1.772489798230125 
 16.283608666721484   0.704022602585906   1.771182247018470 
 15.029174579356573   2.870641115878418   1.765979253726825 
 13.776576323197485   5.038236526670882   1.765026594690525 
 12.526665076864312   7.205985226282568   1.776294654753930 
 11.277457371091618   9.373891021677482   1.788018752971035 
 10.025840761138969  11.542863890508604   1.781724375006750 
 -6.250527322356473  13.713049964358925   1.802624141409330 
  1.261487715725188   0.703736664899908   1.820161559567130 
  0.003403008900591   2.866725842948203   1.832222015089470 
 -1.249904162863166   5.038466534732958   1.800318444853080 
 -2.499645834048427   7.206266992226709   1.765603995637485 
 -3.747833237811438   9.374684757961314   1.775313887360295 
 -4.998941123195523  11.543364461071853   1.792486356697830 
 -3.747066207137603  13.712653172912214   1.787100180641685 
  3.766214719790657   0.702754800302177   1.820212050353340 
  2.516446280124249   2.874571106905657   1.852223246576670 
  1.247146024431751   5.025336365622964   1.830923808702120 
  0.002032495522391   7.209065524440582   1.679362740163425 
 -1.246603339934290   9.375581443443270   1.683807060062325 
 -2.496678631976037  11.544102170087520   1.739012057134845 
 -1.244029785258896  13.713475870646123   1.752479737480830 
  6.269936842482475   0.701582494377367   1.792086268660665 
  5.021003275986019   2.870639685344315   1.756449043356690 
  3.776438969421781   5.047732404685633   1.688567608436670 
  2.466915732736845   7.147945456723328   1.392531594229965 
  1.237841662258186   9.379502703294209   1.326536729555970 
  0.002057738885949  11.547663716327612   1.600889636126535 
  1.256620535376097  13.720454273445235   1.706074701269265 
  8.772707415265563   0.703542990414394   1.785884772399945 
  7.523912256114441   2.868789712120456   1.746954273605565 
  6.279200246015188   5.027714395340234   1.521088737355380 
  2.488588601708055  11.572678834490013   1.375740781286385 
  3.762228438446586  13.713888503477140   1.648231043189910 
 11.279285302393060   0.703180349847776   1.750309121899800 
 10.028343861395157   2.869874482949643   1.760684014684980 
  8.778052994584829   5.035441788504536   1.690620690895815 
  7.520258193522336   7.199866080018471   1.613221926598320 
  6.282724804405742   9.366851969477848   1.460327210479710 
  5.035783474879340  11.571198360844045   1.479522536532465 
  6.271456537382103  13.722317927437066   1.720176733208385 
 13.778322859801929   0.703500217542088   1.733382188094405 
 12.526789834249175   2.871063385422925   1.748368167136650 
 11.275297356778930   5.038084876032900   1.753282689120390 
 10.024937719079674   7.204724721323109   1.735838517075900 
  8.775813369695129   9.371394382151491   1.727194660618215 
  7.524728501035674  11.543698080743523   1.679099792469495 
  7.518866059112391  14.437895050463489   1.756870611985950 
 15.030096497335276   1.424967819824208   1.755371694840750 
 13.779351817569193   3.593652205835937   1.757016786653865 
 12.528136438394029   5.761122232264033   1.764434328470670 
 11.276697020255126   7.928546715245922   1.769477703771435 
 10.024909194479884  10.096806563801186   1.771131255141885 
  8.769102847583717  12.264895077936748   1.748877614007825 
 -7.504171608586372  14.437601661727191   1.799442115009725 
  0.006769157463164   1.426501428791492   1.808731224170760 
 -1.244837146552842   3.596407903337867   1.801755908720970 
 -2.495538886491546   5.762591363726730   1.775790719301690 
 -3.745188527487470   7.928782399270429   1.773781676617650 
 -4.996298322815130  10.096669960114857   1.787909894261340 
 -6.250955886283347  12.266432408899311   1.794669452561130 
 -4.998337147693597  14.436983878117250   1.805468600987700 
  2.514534953654794   1.432791841246586   1.834613239828425 
  1.256547933965760   3.596055555514794   1.850886299404050 
  0.009830075505494   5.769347649346845   1.776273181261515 
 -1.237452456162087   7.928431410080519   1.710349395855750 
 -2.488806286828908  10.095473468095667   1.736479698921510 
 -3.743861912755269  12.265104850884576   1.775117494289685 
 -2.490954790104654  14.434198039147539   1.780805981691465 
  5.018171811221639   1.428009245182944   1.794704455344480 
  3.770471204671839   3.610615112529757   1.788007623862425 
  2.488120614199703   5.776656992034381   1.658305204173525 
  1.280921190755910   7.916060696790851   1.446830344185255 
  0.016994537903392  10.090302380229229   1.548768435306690 
 -1.237258824858579  12.262732930097156   1.701569819609025 
  0.010060475089622  14.434849265234018   1.754617659068775 
  7.522083560581319   1.424055959082319   1.781310003920640 
  6.271066112745267   3.591136767277128   1.682526966032535 
  5.023783777568399   5.721371550474248   1.334939490295995 
  3.802618995666964   9.635093706005462   0.218967497300475 
  2.439415383829347  10.147168036580478   0.962815831782315 
  1.259955832437721  12.271951606104619   1.574377103108175 
  2.512134232283318  14.432175337268806   1.701927198435330 
 10.025569473386319   1.422550112356069   1.769229823056615 
  8.774055642284925   3.590371497552779   1.730861565675780 
  7.521843695330869   5.751027963299871   1.599453402432825 
  6.291496988985823   7.931308514804300   1.491116065102785 
  5.080612401374685  10.157379851079153   1.079155078762500 
  3.758175333393466  12.262762100242552   1.481537772792990 
  5.012258733845076  14.432749818310896   1.701825297376125 
 12.527247830903596   1.423699955381599   1.742093516887755 
 11.276446071864447   3.592256676187908   1.752827632658520 
 10.024223260435015   5.759575915675891   1.728328612618275 
  8.773057061940072   7.928706447546481   1.694613200842875 
  7.520697691730353  10.093358184279566   1.640159222960925 
  6.264837013093995  12.274280241256642   1.645189512460800 
