Species order: X N B                    
   2.51242800000000     
     5.9449720136058266    0.0000000000000000    0.0000000000000000
    -2.9724860068029120    5.1484967885702053   -0.0000000000000001
     0.0000000000000000    0.0000000000000009    5.3101128803662583
   Si   N    B 
     1   143   144
Direct
  0.5555555555555571  0.4444444444444430  0.3750000000000000
  0.1111159645001489  0.0555383710699776  0.1230982996035159
  0.6111226483759464  0.5555786300850609  0.1238586573408886
  0.4444266688198276  0.0555364147208163  0.1230228934949301
  0.9444635852791388  0.5555733311800748  0.1230228934949303
  0.7777633806508526  0.0555483569920738  0.1235424677660489
  0.1111222891140923  0.7222278112234927  0.6260603035609464
  0.4444266688198276  0.7222235874321755  0.6269771065051045
  0.2777763061211844  0.2222010978021899  0.6275951404002449
  0.7777989021975981  0.7222236938785320  0.6275951404002449
  0.6110914583477692  0.2222010978021899  0.6275951404002449
  0.9444516430080638  0.2222366193491599  0.6264575322343400
  0.2777721887763333  0.7222278112234927  0.1239396964391219
  0.1111326055905769  0.2222329694618757  0.1230231573736080
  0.4444411844647015  0.2222157022623888  0.1225326826298702
  0.6110914583477692  0.7222236938785320  0.1224048595993237
  0.9444635852791388  0.7222235874321755  0.1230228934949303
  0.7777670305382697  0.2222329694618757  0.1230231573736080
  0.1111218234141085  0.8888781765860383  0.6263566693079539
  0.4444230198386290  0.8888781765860383  0.6263566693079557
  0.2777763061211945  0.3889085416523172  0.6275951404002449
  0.6111226483759464  0.3888773516241339  0.6261413426593678
  0.7777670305382697  0.8888673944094966  0.6269768426265102
  0.9444616289298040  0.3889109267636511  0.6269017003967445
  0.1111159645001489  0.3889109267636511  0.1230982996035172
  0.2777721887763333  0.8888777108859949  0.1239396964391219
  0.6110890732370327  0.8888840354993972  0.1230982996035159
  0.4444213699148578  0.3888773516241338  0.1238586573408468
  0.9444616289298040  0.8888840354993972  0.1230982996035159
  0.7777989021975981  0.3889085416523172  0.1224048595993094
  0.2777764125677546  0.5555733311800748  0.6269771065051045
  0.1111159645001489  0.0555383710699773  0.6269017003967445
  0.6111226483759464  0.5555786300850609  0.6261413426593054
  0.4444266688198276  0.0555364147208100  0.6269771065051045
  0.9444635852791388  0.5555733311800748  0.6269771065051045
  0.1111218234141138  0.5555769801615111  0.1236433306916228
  0.7777633806508526  0.0555483569920738  0.6264575322343916
  0.2777764125677543  0.0555364147208164  0.1230228934949305
  0.4444411844646482  0.5555588155353988  0.1225326826298402
  0.7777842977372613  0.5555588155353989  0.1225326826298186
  0.6110890732370327  0.0555383710699708  0.1230982996035144
  0.4444411844647015  0.5555588155353988  0.6274673173699395
  0.9444516430080638  0.0555483569920721  0.1235424677660670
  0.2777721887763333  0.7222278112234927  0.6260603035609464
  0.1111326055905770  0.2222329694618757  0.6269768426265102
  0.4444411844646641  0.2222157022623882  0.6274673173699395
  0.6110914583477692  0.7222236938785320  0.6275951404002449
  0.9444635852791388  0.7222235874321634  0.6269771065051045
  0.7777670305382697  0.2222329694618757  0.6269768426265102
  0.1111222891140938  0.7222278112234927  0.1239396964391219
  0.4444266688198276  0.7222235874321755  0.1230228934949326
  0.2777763061211844  0.2222010978021899  0.1224048595993208
  0.7777989021975981  0.7222236938785320  0.1224048595993303
  0.6110914583477692  0.2222010978021892  0.1224048595993748
  0.9444516430080638  0.2222366193491839  0.1235424677660807
  0.1111159645001487  0.3889109267636511  0.6269017003967445
  0.2777721887763333  0.8888777108859949  0.6260603035609464
  0.6110890732370327  0.8888840354993972  0.6269017003967445
  0.4444213699148578  0.3888773516241338  0.6261413426593678
  0.9444616289298040  0.8888840354993972  0.6269017003967445
  0.1111218234141145  0.8888781765860383  0.1236433306916228
  0.7777989021975981  0.3889085416523172  0.6275951404002449
  0.4444230198386297  0.8888781765860383  0.1236433306916228
  0.2777763061211844  0.3889085416523965  0.1224048595993614
  0.2777764125677546  0.5555733311800748  0.1230228934949332
  0.6111226483759464  0.3888773516241338  0.1238586573408531
  0.7777670305382697  0.8888673944094966  0.1230231573736080
  0.9444616289298040  0.3889109267636511  0.1230982996035166
  0.1111218234141078  0.5555769801614853  0.6263566693079539
  0.2777764125677580  0.0555364147208100  0.6269771065051045
  0.7777842977373678  0.5555588155353988  0.6274673173699395
  0.6110890732370327  0.0555383710699764  0.6269017003967445
  0.9444516430080638  0.0555483569920723  0.6264575322343916
  0.0545334417537565  0.1104720456469885  0.3750000000000000
  0.5554336679802110  0.6192389070212245  0.3750000000000000
  0.3878192033317331  0.1089717399970519  0.3750000000000000
  0.8910282600031900  0.6121807966682957  0.3750000000000000
  0.7226052705598429  0.1104720456469543  0.3750000000000000
  0.0555475313112701  0.7777763302357000  0.8750000000000000
  0.3888954655911960  0.7777763302357000  0.8750000000000000
  0.2222186915825929  0.2777760124579199  0.8750000000000000
  0.7222239875416901  0.7777813084174959  0.8750000000000000
  0.5555610859537193  0.2777861245139529  0.8750000000000000
  0.8888900122646775  0.2777753641524794  0.8750000000000000
  0.2222222222222214  0.7777777777777786  0.3750000000000000
  0.0545334417537558  0.2773947294401097  0.3750000000000000
  0.3807610929788470  0.2695280942924484  0.3750000000000000
  0.5552366151738837  0.7811376827158507  0.3750000000000000
  0.8925677342086721  0.7811376827158507  0.3750000000000000
  0.7238019714991123  0.2761980285004428  0.3750000000000000
  0.0555535874330728  0.9444464125668128  0.8750000000000000
  0.3888954655911960  0.9444524686889619  0.8750000000000000
  0.2222202899433343  0.4444389310803613  0.8750000000000000
  0.5555555555555571  0.4444444444444429  0.8750000000000000
  0.7222246358474685  0.9444479814454905  0.8750000000000000
  0.8888853078034534  0.4444389310803613  0.8750000000000000
  0.0557029208958121  0.4447391751251137  0.3750000000000000
  0.2218809565676563  0.9435967534838127  0.3750000000000000
  0.5552608248753357  0.9442970791040676  0.3750000000000000
  0.3807610929788298  0.4445663320200409  0.3750000000000000
  0.8895279543530182  0.9454665582459034  0.3750000000000000
  0.7304719057077446  0.4445663320200380  0.3750000000000000
  0.2222236697642666  0.6111045344091046  0.8750000000000000
  0.0555520185545333  0.1111099877353251  0.8750000000000000
  0.5555610859537193  0.6111082947728866  0.8750000000000000
  0.3888968629620214  0.1111270592573676  0.8750000000000000
  0.8888729407426148  0.6111031370379911  0.8750000000000000
  0.0564032465164262  0.6116175364173646  0.3750000000000000
  0.7222246358474685  0.1111099877353251  0.8750000000000000
  0.2188623172842275  0.1074322657914168  0.3750000000000000
  0.3878192033317336  0.6121807966682957  0.3750000000000000
  0.7304719057077469  0.6192389070212243  0.3750000000000000
  0.5552366151738899  0.1074322657913843  0.3750000000000000
  0.3888968629620227  0.6111031370379911  0.8750000000000000
  0.8888888888888857  0.1111111111111143  0.3750000000000000
  0.2222222222222214  0.7777777777777786  0.8750000000000000
  0.0555520185545300  0.2777753641524794  0.8750000000000000
  0.3888917052270845  0.2777861245139529  0.8750000000000000
  0.5555610689197236  0.7777797100564263  0.8750000000000000
  0.8888853078034534  0.7777797100564263  0.8750000000000000
  0.7222239875416901  0.2777760124579199  0.8750000000000000
  0.0564032465164260  0.7781190434322621  0.3750000000000000
  0.3883824635827177  0.7781190434320865  0.3750000000000000
  0.2190627236680379  0.2761980285004428  0.3750000000000000
  0.7238019714991479  0.7809372763324501  0.3750000000000000
  0.5554336679802415  0.2695280942923812  0.3750000000000000
  0.8895279543527996  0.2773947294401098  0.3750000000000000
  0.0555535874330728  0.4444405081992131  0.8750000000000000
  0.2222236697642666  0.9444524686889619  0.8750000000000000
  0.5555594918005109  0.9444464125668128  0.8750000000000000
  0.3888917052270847  0.4444389140461493  0.8750000000000000
  0.8888900122646775  0.9444479814454905  0.8750000000000000
  0.0557029208958109  0.9442970791040576  0.3750000000000000
  0.7222138754859936  0.4444389140461493  0.8750000000000000
  0.3883824635827216  0.9435967534838127  0.3750000000000000
  0.2188623172842289  0.4447633848261727  0.3750000000000000
  0.2218809565676548  0.6116175364173646  0.3750000000000000
  0.7226052705598429  0.9454665582459034  0.3750000000000000
  0.8925677342086847  0.4447633848261134  0.3750000000000000
  0.0555475313112701  0.6111045344091046  0.8750000000000000
  0.2222202899433343  0.1111146921963691  0.8750000000000000
  0.7222138754859936  0.6111082947728866  0.8750000000000000
  0.5555610689197236  0.1111146921963687  0.8750000000000000
  0.8888888888888857  0.1111111111111143  0.8750000000000000
  0.1086755946869157  0.0538784326508490  0.3750000000000000
  0.6257585558603669  0.5848504450543350  0.3750000000000000
  0.4440531987123290  0.0533486772236463  0.3750000000000000
  0.9466513227765133  0.5559468012879045  0.3750000000000000
  0.7784292695689344  0.0558813014512870  0.3750000000000000
  0.1111224917674346  0.7222279125503567  0.8750000000000000
  0.4444437652657247  0.7222687181839017  0.8750000000000000
  0.2776710799812837  0.2221519570711410  0.8750000000000000
  0.7778480429288996  0.7223289200190773  0.8750000000000000
  0.6111475437568997  0.2221519570711410  0.8750000000000000
  0.9444333240815618  0.2221999814967348  0.8750000000000000
  0.2774710804678440  0.7225289195321132  0.3750000000000000
  0.1081302995377879  0.2207318164355901  0.3750000000000000
  0.4420707876071541  0.2174749085477477  0.3750000000000000
  0.6129766732782123  0.7306281459654902  0.3750000000000000
  0.9466513227764569  0.7240378548219386  0.3750000000000000
  0.7792681835646399  0.2207318164355876  0.3750000000000000
  0.1111064037479889  0.8888935962521000  0.8750000000000000
  0.4444538591705283  0.8888935962521000  0.8750000000000000
  0.2776710799812837  0.3888524562432552  0.8750000000000000
  0.6111644221057021  0.3888355778940351  0.8750000000000000
  0.7778172101647087  0.8889677536624516  0.8750000000000000
  0.9444657257141224  0.3888600089597975  0.8750000000000000
  0.1086755946868988  0.3881304953693793  0.3750000000000000
  0.2774710804678440  0.8882754942690788  0.3750000000000000
  0.6118695046306378  0.8913244053135819  0.3750000000000000
  0.4151495549459511  0.3742414441397515  0.3750000000000000
  0.9461215673491248  0.8913244053135813  0.3750000000000000
  0.7843181393534090  0.3870233267215095  0.3750000000000000
  0.2777312818157867  0.5555562347350779  0.8750000000000000
  0.1110609499124807  0.0555342742858972  0.8750000000000000
  0.6111644221057071  0.5556621775452585  0.8750000000000000
  0.4444437652657247  0.0555083804148521  0.8750000000000000
  0.9444916195850771  0.5555562347350779  0.8750000000000000
  0.1111753316062848  0.5556839965454945  0.3750000000000000
  0.7778000185031474  0.0555666759182824  0.8750000000000000
  0.2759621451778825  0.0533486772236356  0.3750000000000000
  0.4420707876069932  0.5579292123928445  0.3750000000000000
  0.7825250914525564  0.5579292123928481  0.3750000000000000
  0.6118695046306378  0.0538784326508530  0.3750000000000000
  0.4444061757264625  0.5555938242735281  0.8750000000000000
  0.9441186985482416  0.0558813014512895  0.3750000000000000
  0.2777720874496329  0.7222279125503567  0.8750000000000000
  0.1110322463378208  0.2221827898356314  0.8750000000000000
  0.4444061757264625  0.2221456847863876  0.8750000000000000
  0.6111475437568997  0.7223289200190773  0.8750000000000000
  0.9444916195850764  0.7222687181839017  0.8750000000000000
  0.7778172101647087  0.2221827898356404  0.8750000000000000
  0.1117245057312558  0.7225289195321073  0.3750000000000000
  0.4440531987123293  0.7240378548219386  0.3750000000000000
  0.2693718540343119  0.2156818606461615  0.3750000000000000
  0.7843181393534127  0.7306281459654479  0.3750000000000000
  0.6129766732782123  0.2156818606461684  0.3750000000000000
  0.9441186985482413  0.2215707304308048  0.3750000000000000
  0.1110609499124807  0.3888600089597975  0.8750000000000000
  0.2777720874496329  0.8888775082325944  0.8750000000000000
  0.6111399910401605  0.8889390500873584  0.8750000000000000
  0.4443378224550192  0.3888355778940351  0.8750000000000000
  0.9444657257141224  0.8889390500873584  0.8750000000000000
  0.1111753316062961  0.8888246683937919  0.3750000000000000
  0.7778480429288996  0.3888524562432552  0.8750000000000000
  0.4443160034541785  0.8888246683937919  0.3750000000000000
  0.2693718540343117  0.3870233267215122  0.3750000000000000
  0.2759621451778820  0.5559468012879047  0.3750000000000000
  0.6257585558600185  0.3742414441396657  0.3750000000000000
  0.7792681835646402  0.8918697004623298  0.3750000000000000
  0.9461215673491250  0.3881304953693793  0.3750000000000000
  0.1111064037479889  0.5555461408290965  0.8750000000000000
  0.2777312818157867  0.0555083804148520  0.8750000000000000
  0.7778543152137399  0.5555938242735281  0.8750000000000000
  0.6111399910401605  0.0555342742858973  0.8750000000000000
  0.9444333240815618  0.0555666759182824  0.8750000000000000
  0.0554899464582650  0.1110482736400250  0.1228412365297567
  0.5554596363210332  0.6114443940470621  0.1218679304365194
  0.3887101112750161  0.1107535558831713  0.1221582572941180
  0.8892464441166451  0.6112898887250943  0.1221582572941174
  0.7222249938484876  0.1110482736400250  0.1228412365297532
  0.0556980210122309  0.7778325083089344  0.6268174241047002
  0.3888011539635996  0.7778325083089344  0.6268174241047002
  0.2219989062777077  0.2776661198055579  0.6280442369366896
  0.7223338801944793  0.7780010937222199  0.6280442369366896
  0.5554596363210305  0.2773485756069964  0.6281320695634877
  0.8889517263596354  0.2777750061516447  0.6271587634708742
  0.2222222222222214  0.7777777777777786  0.1236882184048734
  0.0554899464582667  0.2777750061516960  0.1228412365297570
  0.3885556059526631  0.2773485756069964  0.1218679304365122
  0.5554934866458229  0.7779497332916415  0.1222642340638602
  0.8891229133124868  0.7779497332916415  0.1222642340638601
  0.7223338801944793  0.2776661198055579  0.1219557630631904
  0.0555819062232628  0.9444180937767749  0.6270929565863675
  0.3888011539635996  0.9443019789875492  0.6268174241047002
  0.2220502667082107  0.4445065133535843  0.6277357659366524
  0.5555555555555571  0.4444444444444429  0.6279507050426784
  0.7222249938484876  0.9445100535417135  0.6271587634708742
  0.8891229133124868  0.4445065133535843  0.6277357659366524
  0.0555819062232623  0.4444971457798995  0.1229070434134537
  0.2221674916907919  0.9443019789875492  0.1231825758952593
  0.5555028542200657  0.9444180937767749  0.1229070434134536
  0.3885556059526654  0.4445403636789274  0.1218679304365152
  0.8889517263596354  0.9445100535417135  0.1228412365297572
  0.7226514243929207  0.4445403636789274  0.1218679304365135
  0.2221674916908082  0.6111988460364342  0.6268174241047002
  0.0554899464582729  0.1110482736400250  0.6271587634708742
  0.5554596363210305  0.6114443940470621  0.6281320695635013
  0.3887101112750060  0.1107535558831701  0.6278417427062997
  0.8892464441166249  0.6112898887250943  0.6278417427062997
  0.0556980210122284  0.6111988460364342  0.1231825758952593
  0.7222249938484876  0.1110482736400250  0.6271587634708742
  0.2220502667082118  0.1108770866876192  0.1222642340638602
  0.3887101112750161  0.6112898887250943  0.1221582572941162
  0.7226514243929207  0.6114443940470621  0.1218679304365148
  0.5554934866458229  0.1108770866876391  0.1222642340638601
  0.3887101112750060  0.6112898887250943  0.6278417427062997
  0.8888888888888857  0.1111111111111143  0.1232590083140643
  0.2222222222222214  0.7777777777777786  0.6263117815951299
  0.0554899464582647  0.2777750061516447  0.6271587634708742
  0.3885556059526631  0.2773485756070170  0.6281320695634925
  0.5554934866458309  0.7779497332916415  0.6277357659366524
  0.8891229133124868  0.7779497332916415  0.6277357659366524
  0.7223338801944748  0.2776661198055579  0.6280442369366896
  0.0556980210122305  0.7778325083089344  0.1231825758952593
  0.3888011539635996  0.7778325083089344  0.1231825758952643
  0.2219989062777071  0.2776661198055579  0.1219557630631902
  0.7223338801944793  0.7780010937222199  0.1219557630631904
  0.5554596363210305  0.2773485756069963  0.1218679304365154
  0.8889517263596354  0.2777750061516960  0.1228412365297567
  0.0555819062232549  0.4444971457798984  0.6270929565863675
  0.2221674916908082  0.9443019789875492  0.6268174241047002
  0.5555028542200657  0.9444180937767749  0.6270929565863675
  0.3885556059526654  0.4445403636789274  0.6281320695633869
  0.8889517263596354  0.9445100535417135  0.6271587634708742
  0.0555819062232549  0.9444180937767749  0.1229070434134536
  0.7226514243929207  0.4445403636789274  0.6281320695634925
  0.3888011539635996  0.9443019789875492  0.1231825758952630
  0.2220502667082118  0.4445065133535843  0.1222642340638600
  0.2221674916907919  0.6111988460364342  0.1231825758952630
  0.5555555555555571  0.4444444444444429  0.1220492949573154
  0.7222249938484876  0.9445100535417135  0.1228412365297566
  0.8891229133124868  0.4445065133535843  0.1222642340638602
  0.0556980210122313  0.6111988460364342  0.6268174241047002
  0.2220502667082118  0.1108770866876188  0.6277357659366524
  0.7226514243929207  0.6114443940470621  0.6281320695633869
  0.5554934866458229  0.1108770866876192  0.6277357659366524
  0.8888888888888857  0.1111111111111143  0.6267409916860033
 
  0.00000000E+00  0.00000000E+00  0.00000000E+00
  0.00000000E+00  0.00000000E+00  0.00000000E+00
  0.00000000E+00  0.00000000E+00  0.00000000E+00
  0.00000000E+00  0.00000000E+00  0.00000000E+00
  0.00000000E+00  0.00000000E+00  0.00000000E+00
  0.00000000E+00  0.00000000E+00  0.00000000E+00
  0.00000000E+00  0.00000000E+00  0.00000000E+00
  0.00000000E+00  0.00000000E+00  0.00000000E+00
  0.00000000E+00  0.00000000E+00  0.00000000E+00
  0.00000000E+00  0.00000000E+00  0.00000000E+00
  0.00000000E+00  0.00000000E+00  0.00000000E+00
  0.00000000E+00  0.00000000E+00  0.00000000E+00
  0.00000000E+00  0.00000000E+00  0.00000000E+00
  0.00000000E+00  0.00000000E+00  0.00000000E+00
  0.00000000E+00  0.00000000E+00  0.00000000E+00
  0.00000000E+00  0.00000000E+00  0.00000000E+00
  0.00000000E+00  0.00000000E+00  0.00000000E+00
  0.00000000E+00  0.00000000E+00  0.00000000E+00
  0.00000000E+00  0.00000000E+00  0.00000000E+00
  0.00000000E+00  0.00000000E+00  0.00000000E+00
  0.00000000E+00  0.00000000E+00  0.00000000E+00
  0.00000000E+00  0.00000000E+00  0.00000000E+00
  0.00000000E+00  0.00000000E+00  0.00000000E+00
  0.00000000E+00  0.00000000E+00  0.00000000E+00
  0.00000000E+00  0.00000000E+00  0.00000000E+00
  0.00000000E+00  0.00000000E+00  0.00000000E+00
  0.00000000E+00  0.00000000E+00  0.00000000E+00
  0.00000000E+00  0.00000000E+00  0.00000000E+00
  0.00000000E+00  0.00000000E+00  0.00000000E+00
  0.00000000E+00  0.00000000E+00  0.00000000E+00
  0.00000000E+00  0.00000000E+00  0.00000000E+00
  0.00000000E+00  0.00000000E+00  0.00000000E+00
  0.00000000E+00  0.00000000E+00  0.00000000E+00
  0.00000000E+00  0.00000000E+00  0.00000000E+00
  0.00000000E+00  0.00000000E+00  0.00000000E+00
  0.00000000E+00  0.00000000E+00  0.00000000E+00
  0.00000000E+00  0.00000000E+00  0.00000000E+00
  0.00000000E+00  0.00000000E+00  0.00000000E+00
  0.00000000E+00  0.00000000E+00  0.00000000E+00
  0.00000000E+00  0.00000000E+00  0.00000000E+00
  0.00000000E+00  0.00000000E+00  0.00000000E+00
  0.00000000E+00  0.00000000E+00  0.00000000E+00
  0.00000000E+00  0.00000000E+00  0.00000000E+00
  0.00000000E+00  0.00000000E+00  0.00000000E+00
  0.00000000E+00  0.00000000E+00  0.00000000E+00
  0.00000000E+00  0.00000000E+00  0.00000000E+00
  0.00000000E+00  0.00000000E+00  0.00000000E+00
  0.00000000E+00  0.00000000E+00  0.00000000E+00
  0.00000000E+00  0.00000000E+00  0.00000000E+00
  0.00000000E+00  0.00000000E+00  0.00000000E+00
  0.00000000E+00  0.00000000E+00  0.00000000E+00
  0.00000000E+00  0.00000000E+00  0.00000000E+00
  0.00000000E+00  0.00000000E+00  0.00000000E+00
  0.00000000E+00  0.00000000E+00  0.00000000E+00
  0.00000000E+00  0.00000000E+00  0.00000000E+00
  0.00000000E+00  0.00000000E+00  0.00000000E+00
  0.00000000E+00  0.00000000E+00  0.00000000E+00
  0.00000000E+00  0.00000000E+00  0.00000000E+00
  0.00000000E+00  0.00000000E+00  0.00000000E+00
  0.00000000E+00  0.00000000E+00  0.00000000E+00
  0.00000000E+00  0.00000000E+00  0.00000000E+00
  0.00000000E+00  0.00000000E+00  0.00000000E+00
  0.00000000E+00  0.00000000E+00  0.00000000E+00
  0.00000000E+00  0.00000000E+00  0.00000000E+00
  0.00000000E+00  0.00000000E+00  0.00000000E+00
  0.00000000E+00  0.00000000E+00  0.00000000E+00
  0.00000000E+00  0.00000000E+00  0.00000000E+00
  0.00000000E+00  0.00000000E+00  0.00000000E+00
  0.00000000E+00  0.00000000E+00  0.00000000E+00
  0.00000000E+00  0.00000000E+00  0.00000000E+00
  0.00000000E+00  0.00000000E+00  0.00000000E+00
  0.00000000E+00  0.00000000E+00  0.00000000E+00
  0.00000000E+00  0.00000000E+00  0.00000000E+00
  0.00000000E+00  0.00000000E+00  0.00000000E+00
  0.00000000E+00  0.00000000E+00  0.00000000E+00
  0.00000000E+00  0.00000000E+00  0.00000000E+00
  0.00000000E+00  0.00000000E+00  0.00000000E+00
  0.00000000E+00  0.00000000E+00  0.00000000E+00
  0.00000000E+00  0.00000000E+00  0.00000000E+00
  0.00000000E+00  0.00000000E+00  0.00000000E+00
  0.00000000E+00  0.00000000E+00  0.00000000E+00
  0.00000000E+00  0.00000000E+00  0.00000000E+00
  0.00000000E+00  0.00000000E+00  0.00000000E+00
  0.00000000E+00  0.00000000E+00  0.00000000E+00
  0.00000000E+00  0.00000000E+00  0.00000000E+00
  0.00000000E+00  0.00000000E+00  0.00000000E+00
  0.00000000E+00  0.00000000E+00  0.00000000E+00
  0.00000000E+00  0.00000000E+00  0.00000000E+00
  0.00000000E+00  0.00000000E+00  0.00000000E+00
  0.00000000E+00  0.00000000E+00  0.00000000E+00
  0.00000000E+00  0.00000000E+00  0.00000000E+00
  0.00000000E+00  0.00000000E+00  0.00000000E+00
  0.00000000E+00  0.00000000E+00  0.00000000E+00
  0.00000000E+00  0.00000000E+00  0.00000000E+00
  0.00000000E+00  0.00000000E+00  0.00000000E+00
  0.00000000E+00  0.00000000E+00  0.00000000E+00
  0.00000000E+00  0.00000000E+00  0.00000000E+00
  0.00000000E+00  0.00000000E+00  0.00000000E+00
  0.00000000E+00  0.00000000E+00  0.00000000E+00
  0.00000000E+00  0.00000000E+00  0.00000000E+00
  0.00000000E+00  0.00000000E+00  0.00000000E+00
  0.00000000E+00  0.00000000E+00  0.00000000E+00
  0.00000000E+00  0.00000000E+00  0.00000000E+00
  0.00000000E+00  0.00000000E+00  0.00000000E+00
  0.00000000E+00  0.00000000E+00  0.00000000E+00
  0.00000000E+00  0.00000000E+00  0.00000000E+00
  0.00000000E+00  0.00000000E+00  0.00000000E+00
  0.00000000E+00  0.00000000E+00  0.00000000E+00
  0.00000000E+00  0.00000000E+00  0.00000000E+00
  0.00000000E+00  0.00000000E+00  0.00000000E+00
  0.00000000E+00  0.00000000E+00  0.00000000E+00
  0.00000000E+00  0.00000000E+00  0.00000000E+00
  0.00000000E+00  0.00000000E+00  0.00000000E+00
  0.00000000E+00  0.00000000E+00  0.00000000E+00
  0.00000000E+00  0.00000000E+00  0.00000000E+00
  0.00000000E+00  0.00000000E+00  0.00000000E+00
  0.00000000E+00  0.00000000E+00  0.00000000E+00
  0.00000000E+00  0.00000000E+00  0.00000000E+00
  0.00000000E+00  0.00000000E+00  0.00000000E+00
  0.00000000E+00  0.00000000E+00  0.00000000E+00
  0.00000000E+00  0.00000000E+00  0.00000000E+00
  0.00000000E+00  0.00000000E+00  0.00000000E+00
  0.00000000E+00  0.00000000E+00  0.00000000E+00
  0.00000000E+00  0.00000000E+00  0.00000000E+00
  0.00000000E+00  0.00000000E+00  0.00000000E+00
  0.00000000E+00  0.00000000E+00  0.00000000E+00
  0.00000000E+00  0.00000000E+00  0.00000000E+00
  0.00000000E+00  0.00000000E+00  0.00000000E+00
  0.00000000E+00  0.00000000E+00  0.00000000E+00
  0.00000000E+00  0.00000000E+00  0.00000000E+00
  0.00000000E+00  0.00000000E+00  0.00000000E+00
  0.00000000E+00  0.00000000E+00  0.00000000E+00
  0.00000000E+00  0.00000000E+00  0.00000000E+00
  0.00000000E+00  0.00000000E+00  0.00000000E+00
  0.00000000E+00  0.00000000E+00  0.00000000E+00
  0.00000000E+00  0.00000000E+00  0.00000000E+00
  0.00000000E+00  0.00000000E+00  0.00000000E+00
  0.00000000E+00  0.00000000E+00  0.00000000E+00
  0.00000000E+00  0.00000000E+00  0.00000000E+00
  0.00000000E+00  0.00000000E+00  0.00000000E+00
  0.00000000E+00  0.00000000E+00  0.00000000E+00
  0.00000000E+00  0.00000000E+00  0.00000000E+00
  0.00000000E+00  0.00000000E+00  0.00000000E+00
  0.00000000E+00  0.00000000E+00  0.00000000E+00
  0.00000000E+00  0.00000000E+00  0.00000000E+00
  0.00000000E+00  0.00000000E+00  0.00000000E+00
  0.00000000E+00  0.00000000E+00  0.00000000E+00
  0.00000000E+00  0.00000000E+00  0.00000000E+00
  0.00000000E+00  0.00000000E+00  0.00000000E+00
  0.00000000E+00  0.00000000E+00  0.00000000E+00
  0.00000000E+00  0.00000000E+00  0.00000000E+00
  0.00000000E+00  0.00000000E+00  0.00000000E+00
  0.00000000E+00  0.00000000E+00  0.00000000E+00
  0.00000000E+00  0.00000000E+00  0.00000000E+00
  0.00000000E+00  0.00000000E+00  0.00000000E+00
  0.00000000E+00  0.00000000E+00  0.00000000E+00
  0.00000000E+00  0.00000000E+00  0.00000000E+00
  0.00000000E+00  0.00000000E+00  0.00000000E+00
  0.00000000E+00  0.00000000E+00  0.00000000E+00
  0.00000000E+00  0.00000000E+00  0.00000000E+00
  0.00000000E+00  0.00000000E+00  0.00000000E+00
  0.00000000E+00  0.00000000E+00  0.00000000E+00
  0.00000000E+00  0.00000000E+00  0.00000000E+00
  0.00000000E+00  0.00000000E+00  0.00000000E+00
  0.00000000E+00  0.00000000E+00  0.00000000E+00
  0.00000000E+00  0.00000000E+00  0.00000000E+00
  0.00000000E+00  0.00000000E+00  0.00000000E+00
  0.00000000E+00  0.00000000E+00  0.00000000E+00
  0.00000000E+00  0.00000000E+00  0.00000000E+00
  0.00000000E+00  0.00000000E+00  0.00000000E+00
  0.00000000E+00  0.00000000E+00  0.00000000E+00
  0.00000000E+00  0.00000000E+00  0.00000000E+00
  0.00000000E+00  0.00000000E+00  0.00000000E+00
  0.00000000E+00  0.00000000E+00  0.00000000E+00
  0.00000000E+00  0.00000000E+00  0.00000000E+00
  0.00000000E+00  0.00000000E+00  0.00000000E+00
  0.00000000E+00  0.00000000E+00  0.00000000E+00
  0.00000000E+00  0.00000000E+00  0.00000000E+00
  0.00000000E+00  0.00000000E+00  0.00000000E+00
  0.00000000E+00  0.00000000E+00  0.00000000E+00
  0.00000000E+00  0.00000000E+00  0.00000000E+00
  0.00000000E+00  0.00000000E+00  0.00000000E+00
  0.00000000E+00  0.00000000E+00  0.00000000E+00
  0.00000000E+00  0.00000000E+00  0.00000000E+00
  0.00000000E+00  0.00000000E+00  0.00000000E+00
  0.00000000E+00  0.00000000E+00  0.00000000E+00
  0.00000000E+00  0.00000000E+00  0.00000000E+00
  0.00000000E+00  0.00000000E+00  0.00000000E+00
  0.00000000E+00  0.00000000E+00  0.00000000E+00
  0.00000000E+00  0.00000000E+00  0.00000000E+00
  0.00000000E+00  0.00000000E+00  0.00000000E+00
  0.00000000E+00  0.00000000E+00  0.00000000E+00
  0.00000000E+00  0.00000000E+00  0.00000000E+00
  0.00000000E+00  0.00000000E+00  0.00000000E+00
  0.00000000E+00  0.00000000E+00  0.00000000E+00
  0.00000000E+00  0.00000000E+00  0.00000000E+00
  0.00000000E+00  0.00000000E+00  0.00000000E+00
  0.00000000E+00  0.00000000E+00  0.00000000E+00
  0.00000000E+00  0.00000000E+00  0.00000000E+00
  0.00000000E+00  0.00000000E+00  0.00000000E+00
  0.00000000E+00  0.00000000E+00  0.00000000E+00
  0.00000000E+00  0.00000000E+00  0.00000000E+00
  0.00000000E+00  0.00000000E+00  0.00000000E+00
  0.00000000E+00  0.00000000E+00  0.00000000E+00
  0.00000000E+00  0.00000000E+00  0.00000000E+00
  0.00000000E+00  0.00000000E+00  0.00000000E+00
  0.00000000E+00  0.00000000E+00  0.00000000E+00
  0.00000000E+00  0.00000000E+00  0.00000000E+00
  0.00000000E+00  0.00000000E+00  0.00000000E+00
  0.00000000E+00  0.00000000E+00  0.00000000E+00
  0.00000000E+00  0.00000000E+00  0.00000000E+00
  0.00000000E+00  0.00000000E+00  0.00000000E+00
  0.00000000E+00  0.00000000E+00  0.00000000E+00
  0.00000000E+00  0.00000000E+00  0.00000000E+00
  0.00000000E+00  0.00000000E+00  0.00000000E+00
  0.00000000E+00  0.00000000E+00  0.00000000E+00
  0.00000000E+00  0.00000000E+00  0.00000000E+00
  0.00000000E+00  0.00000000E+00  0.00000000E+00
  0.00000000E+00  0.00000000E+00  0.00000000E+00
  0.00000000E+00  0.00000000E+00  0.00000000E+00
  0.00000000E+00  0.00000000E+00  0.00000000E+00
  0.00000000E+00  0.00000000E+00  0.00000000E+00
  0.00000000E+00  0.00000000E+00  0.00000000E+00
  0.00000000E+00  0.00000000E+00  0.00000000E+00
  0.00000000E+00  0.00000000E+00  0.00000000E+00
  0.00000000E+00  0.00000000E+00  0.00000000E+00
  0.00000000E+00  0.00000000E+00  0.00000000E+00
  0.00000000E+00  0.00000000E+00  0.00000000E+00
  0.00000000E+00  0.00000000E+00  0.00000000E+00
  0.00000000E+00  0.00000000E+00  0.00000000E+00
  0.00000000E+00  0.00000000E+00  0.00000000E+00
  0.00000000E+00  0.00000000E+00  0.00000000E+00
  0.00000000E+00  0.00000000E+00  0.00000000E+00
  0.00000000E+00  0.00000000E+00  0.00000000E+00
  0.00000000E+00  0.00000000E+00  0.00000000E+00
  0.00000000E+00  0.00000000E+00  0.00000000E+00
  0.00000000E+00  0.00000000E+00  0.00000000E+00
  0.00000000E+00  0.00000000E+00  0.00000000E+00
  0.00000000E+00  0.00000000E+00  0.00000000E+00
  0.00000000E+00  0.00000000E+00  0.00000000E+00
  0.00000000E+00  0.00000000E+00  0.00000000E+00
  0.00000000E+00  0.00000000E+00  0.00000000E+00
  0.00000000E+00  0.00000000E+00  0.00000000E+00
  0.00000000E+00  0.00000000E+00  0.00000000E+00
  0.00000000E+00  0.00000000E+00  0.00000000E+00
  0.00000000E+00  0.00000000E+00  0.00000000E+00
  0.00000000E+00  0.00000000E+00  0.00000000E+00