 B Si N 
 1.0
 14.936314146199660   0.000000000000000   0.000000000000000
 -7.468157073099825  12.935227489513863   0.000000000000000
  0.000000000000001   0.000000000000001  13.341276283792837
 B Si N 
 144   1 143
Cartesian
  1.220840224379874   0.696929783117184   5.002978606422314 
  4.978771382064557   7.565173554121253   5.002978606422314 
  6.234101772443877   0.690077276152508   5.002978606422314 
  9.987583507599961   7.191298346726611   5.002978606422314 
 11.209533774190884   0.722837346682499   5.002978606422314 
 -3.733951047756174   9.342182348115594  11.673616748318732 
  1.244335461944838   9.342710178268353  11.673616748318732 
  2.488316770411179   2.873586101955928  11.673616748318732 
  6.223716894047622   9.343488902701628  11.673616748318732 
  7.469225993727551   2.873586101955928  11.673616748318732 
 12.446928455164311   2.874207308826040  11.673616748318732 
 -1.251564236569760   9.346075941900537   5.002978606422314 
 -0.033391753552554   2.855216259767972   5.002978606422314 
  4.978771382065758   2.813087415326344   5.002978606422314 
  3.699166400277781   9.450841278305353   5.002978606422314 
  8.732253117224127   9.365594363141394   5.002978606422314 
  9.990934517688236   2.855216259767946   5.002978606422314 
 -4.978876848048800  11.498040881493003  11.673616748318732 
  0.000105465978530  11.498040881493003  11.673616748318732 
  1.243371258429685   5.029894981362739  11.673616748318732 
  6.224658632229142   5.029676656075932  11.673616748318732 
  4.978771382068794  11.499000124465939  11.673616748318732 
 11.202769153225800   5.029992677469374  11.673616748318732 
 -1.275406682009976   5.020556253220625   5.002978606422314 
 -2.489385691033702  11.490045591730905   5.002978606422314 
  2.482524475673655  11.529483949686844   5.002978606422314 
  3.405910282228319   4.840898215951889   5.002978606422314 
  7.475018288452215  11.529483949686830   5.002978606422314 
  8.824471125035450   5.006234774891182   5.002978606422314 
 -0.000699550514175   7.186246279515998  11.673616748318732 
  1.244102553960475   0.718348471353139  11.673616748318732 
  4.978771382062742   7.187616673866556  11.673616748318732 
  6.223806394517197   0.718013528240588  11.673616748318732 
  9.958242314634134   7.186246279515998  11.673616748318732 
 -2.489385691030217   7.187898907598202   5.002978606422314 
 11.202484755495147   0.718767593839071  11.673616748318732 
  3.723440991687787   0.690077276152379   5.002978606422314 
  2.436205164735315   7.216941285346748   5.002978606422314 
  7.521337599398333   7.216941285346787   5.002978606422314 
  8.736702539753777   0.696929783117236   5.002978606422314 
  2.488528300642733   7.186732508747075  11.673616748318732 
 13.684323136130246   0.722837346682538   5.002978606422314 
 -1.244820334309707   9.342182348115594  11.673616748318732 
 -0.000883461772098   2.873984930778737  11.673616748318732 
  4.978771382065595   2.873504968525769  11.673616748318732 
  3.733825870086334   9.343488902701628  11.673616748318732 
  8.713207302191746   9.342710178268353  11.673616748318732 
  9.958426225908608   2.873984930778853  11.673616748318732 
 -3.727207145491954   9.346075941900461   5.002978606422314 
  1.225289646911680   9.365594363141394   5.002978606422314 
  2.412676620876768   2.789893932819720   5.002978606422314 
  6.258376363847706   9.450841278304811   5.002978606422314 
  7.544866143251755   2.789893932819811   5.002978606422314 
 12.446928455158995   2.866067803140215   5.002978606422314 
 -1.245226389090607   5.029992677469374  11.673616748318732 
 -2.489385691033231  11.497832779300838  11.673616748318732 
  2.489442439016935  11.498628837192335  11.673616748318732 
  3.732884131904258   5.029676656075932  11.673616748318732 
  7.468100325120028  11.498628837192335  11.673616748318732 
 -4.977332555831147  11.497149283965422   5.002978606422314 
  8.714171505707343   5.029894981362739  11.673616748318732 
 -0.001438826235168  11.497149283965422   5.002978606422314 
  1.133071639090841   5.006234774891208   5.002978606422314 
 -0.030040743469487   7.191298346726611   5.002978606422314 
  6.551632481898718   4.840898215950776   5.002978606422314 
  4.978771382068674  11.536537466484827   5.002978606422314 
 11.232949446142765   5.020556253220625   5.002978606422314 
 -2.489385691031664   7.186115712545864  11.673616748318732 
  3.733736369615811   0.718013528240588  11.673616748318732 
  7.469014463490506   7.186732508747075  11.673616748318732 
  8.713440210173788   0.718348471353139  11.673616748318732 
 13.691372154834038   0.718767593839071  11.673616748318732 
 -0.000510677983832   1.436434681851509   1.638858875586233 
  3.730156847414962   7.909172334186703   1.625873730087646 
  4.978771382068004   1.432622440621404   1.629747060907480 
  8.716855336520474   7.907173772698707   1.629747060907466 
  9.958053442117858   1.436434681851509   1.638858875586180 
 -4.977052209454031  10.061440443715243   8.362544434476151 
 -0.001719172609073  10.061440443715243   8.362544434476151 
  1.242191207690522   3.591674425815504   8.378911683416231 
  4.978771382067091  10.063621134387514   8.378911683416231 
  6.225236896991173   3.587566919369130   8.380083482757074 
 11.203194868792272   3.593082895472642   8.367098337266812 
 -2.489385691033300  10.060732491844131   1.650158694789521 
 -1.245652104665660   3.593082895473300   1.638858875586233 
  3.732305867142392   3.587566919369129   1.625873730087553 
  2.487174419511679  10.062956775534026   1.631160926272272 
  7.470368344621456  10.062956775534026   1.631160926272272 
  8.715351556442027   3.591674425815504   1.627045529426795 
 -6.222873854807208  12.216262888215622   8.366220389439242 
 -1.244939327512755  12.214760917002087   8.362544434476151 
 -0.003031921939250   5.749792870799242   8.374796286579187 
  4.978771382066590   5.748989995339477   8.377663848576871 
  3.733629955386697  12.217452408694978   8.367098337266812 
  9.960574686079045   5.749792870799242   8.374796286579187 
 -2.489385691033593   5.749671699102614   1.639736823403011 
 -3.733832054551154  12.214760917002087   1.643412778367930 
  1.244102472738984  12.216262888215622   1.639736823403011 
  2.483691332488823   5.750230732458147   1.625873730087593 
  6.223912808742588  12.217452408694978   1.638858875586233 
  7.473851431644171   5.750230732458147   1.625873730087580 
 -1.246165536130334   7.905996114809634   8.362544434476151 
 -0.000510677983712   1.436434681851510   8.367098337266812 
  3.730156847414918   7.909172334186704   8.380083482757248 
  4.978771382067864   1.432622440621391   8.376210151942724 
  8.716855336520176   7.907173772698708   8.376210151942724 
 -3.732605845937178   7.905996114809633   1.643412778367930 
  9.958053442117858   1.436434681851510   8.367098337266812 
  2.488565040610430   1.434220339678901   1.631160926272272 
  1.240687427611149   7.907173772698707   1.629747060907453 
  6.227385916721516   7.909172334186703   1.625873730087593 
  7.468977723518783   1.434220339679160   1.631160926272272 
  1.240687427611000   7.907173772698708   8.376210151942724 
 12.446928455166319   1.437247498834911   1.644432484384246 
 -2.489385691033300  10.060732491844131   8.355798518055147 
 -1.245652104665309   3.593082895472642   8.367098337266812 
  3.732305867142236   3.587566919369401   8.380083482757142 
  2.487174419511799  10.062956775534028   8.374796286579187 
  7.470368344621457  10.062956775534028   8.374796286579187 
  8.715351556441966   3.591674425815504   8.378911683416231 
 -4.977052209454032  10.061440443715243   1.643412778367930 
 -0.001719172609073  10.061440443715243   1.643412778367997 
  1.242191207690506   3.591674425815504   1.627045529426795 
  4.978771382067090  10.063621134387512   1.627045529426795 
  6.225236896991172   3.587566919369129   1.625873730087593 
 11.203194868791890   3.593082895473300   1.638858875586233 
 -2.489385691033682   5.749671699102589   8.366220389439242 
 -3.733832054550914  12.214760917002087   8.362544434476151 
  1.244102472738984  12.216262888215622   8.366220389439242 
  2.483691332488823   5.750230732458148   8.380083482755728 
  6.223912808742589  12.217452408694978   8.367098337266812 
 -6.222873854807329  12.216262888215622   1.639736823403011 
  7.473851431644172   5.750230732458148   8.380083482757142 
 -1.244939327512755  12.214760917002087   1.643412778367983 
 -0.003031921939236   5.749792870799241   1.631160926272272 
 -1.246165536130574   7.905996114809633   1.643412778367983 
  4.978771382066589   5.748989995339476   1.628293364267663 
  3.733629955386697  12.217452408694978   1.638858875586233 
  9.960574686079045   5.749792870799241   1.631160926272272 
 -3.732605845937133   7.905996114809634   8.362544434476151 
  2.488565040610430   1.434220339678902   8.374796286579187 
  6.227385916721517   7.909172334186704   8.380083482755728 
  7.468977723518934   1.434220339678902   8.374796286579187 
 12.446928455166319   1.437247498834912   8.361524728461275 
  4.978771382066589   5.748989995339477   5.002978606422314 
  1.244893673697496   0.718401464187201   1.642288425075613 
  4.978771382067784   7.186535968462735   1.652432567724426 
  6.223341672030121   0.718376158365742   1.641282411347482 
  9.957695906497143   7.186467425921296   1.641282411347482 
 11.202074329641976   0.718530634361205   1.648214195248431 
 -3.733953317925233   9.342181037429556   8.352443480121792 
  1.244417147600854   9.342126401728002   8.364674801497612 
  2.489521470394957   2.874221748491047   8.372920162445425 
  6.223768757993307   9.342127778635833   8.372920162445425 
  7.468021293739593   2.874221748491047   8.372920162445425 
 12.446928455168635   2.874681227781884   8.357743017601386 
 -1.244818064137349   9.342181037429556   1.653513732723742 
  0.000240786223876   2.874634015659554   1.641285931825830 
  4.978771382069141   2.874410660506082   1.634742372759399 
  3.733774006142322   9.342127778635833   1.633037050393453 
  8.713125616534118   9.342126401728002   1.641282411347482 
  9.957301977913778   2.874634015659554   1.641285931825830 
 -4.978531378583436  11.497841424604676   8.356397377433678 
 -0.000240003482607  11.497841424604676   8.356397377433705 
  1.244524094467404   5.030620458887799   8.372920162445425 
  6.223722713900540   5.030217008777848   8.353524645123631 
  4.978771382069369  11.497701954698288   8.364671281020371 
 11.202327700211237   5.030651310845492   8.363668787772497 
 -1.244784936083573   5.030651310845491   1.642288425075626 
 -2.489385691033240  11.497835400668679   1.653513732723742 
  2.489092772297999  11.497917210981816   1.642288425075613 
  3.733820050232622   5.030217008777847   1.652432567723866 
  7.468449991846668  11.497917210981816   1.642288425075613 
  8.713018669662858   5.030620458887798   1.633037050393253 
 -0.000153142361756   7.186467425921297   8.364674801497612 
  1.244893673697504   0.718401464187189   8.363668787772497 
  4.978771382067785   7.186535968462736   8.353524645122789 
  6.223341672030167   0.718376158365665   8.364674801497612 
  9.957695906497143   7.186467425921297   8.364674801497612 
 -2.489385691032898   7.186514626326276   1.649559835405305 
 11.202074329641976   0.718530634361206   8.357743017602081 
  3.734201092104469   0.718376158365742   1.641282411347482 
  2.489312652909403   7.186279662755255   1.634742372758999 
  7.468230111221369   7.186279662755255   1.634742372758719 
  8.712649090443691   0.718401464187111   1.642288425075586 
  2.489312652910196   7.186279662755256   8.371214840082693 
 13.691782580693440   0.718530634361180   1.648214195248671 
 -1.244818064137349   9.342181037429556   8.352443480121792 
  0.000240786223877   2.874634015659554   8.364671281020371 
  4.978771382068596   2.874410660506070   8.371214840082693 
  3.733774006142322   9.342127778635833   8.372920162445425 
  8.713125616534214   9.342126401727834   8.364674801497612 
  9.957301977913778   2.874634015659554   8.364671281020371 
 -3.733953317925203   9.342181037429556   1.653513732723742 
  1.244417147600854   9.342126401728002   1.641282411347522 
  2.489521470394957   2.874221748491046   1.633037050393413 
  6.223768757993306   9.342127778635833   1.633037050393533 
  7.468021293739599   2.874221748491034   1.633037050394134 
 12.446928455168456   2.874681227782194   1.648214195248857 
 -1.244784936083573   5.030651310845492   8.363668787772497 
 -2.489385691033239  11.497835400668679   8.352443480121792 
  2.489092772298000  11.497917210981816   8.363668787772497 
  3.733820050232622   5.030217008777848   8.353524645123631 
  7.468449991846669  11.497917210981816   8.363668787772497 
 -4.978531378583348  11.497841424604676   1.649559835405305 
  8.713018669662858   5.030620458887799   8.372920162445425 
 -0.000240003482593  11.497841424604676   1.649559835405305 
  1.244524094466641   5.030620458888833   1.633037050393947 
 -0.000153142361756   7.186467425921296   1.641282411347522 
  6.223722713900539   5.030217008777847   1.652432567723946 
  4.978771382069368  11.497701954698288   1.641285931825830 
 11.202327700211237   5.030651310845491   1.642288425075626 
 -2.489385691032793   7.186514626325940   8.356397377433678 
  3.734201092104575   0.718376158365665   8.364674801497612 
  7.468230111222969   7.186279662755256   8.371214840082693 
  8.712649090443652   0.718401464187176   8.363668787772497 
 13.691782580693440   0.718530634361180   8.357743017602081 
 -0.010493971570779   1.428981041675750   5.002978606422314 
  3.671558328919225   8.009996132677468   5.002978606422314 
  4.978771382064666   1.409574246790025   5.002978606422314 
  8.736815657895097   7.918697869616239   5.002978606422314 
  9.968036735703310   1.428981041675310   5.002978606422314 
 -4.978880424228377  10.060713767558042  11.673616748318732 
  0.000109042163315  10.060713767558042  11.673616748318732 
  1.244653294459983   3.593095912273233  11.673616748318732 
  4.978771382060713  10.060778161472058  11.673616748318732 
  6.223484496610712   3.593226714018407  11.673616748318732 
 11.202270414076269   3.593087526294871  11.673616748318732 
 -2.489385691033300  10.060732491844131   5.002978606422314 
 -1.257098793201189   3.588163929699972   5.002978606422314 
  3.674289155593135   3.486407214487959   5.002978606422314 
  2.459529599470512  10.104193626561235   5.002978606422314 
  7.498013164663175  10.104193626561235   5.002978606422314 
  8.748243365827578   3.572684330808464   5.002978606422314 
 -6.223508322325851  12.216629198206993  11.673616748318732 
 -1.244654540143379  12.216707535524694  11.673616748318732 
  0.000012313544487   5.748918678720844  11.673616748318732 
  4.978771382066590   5.748989995339477  11.673616748318732 
  3.734088172335462  12.216649492009584  11.673616748318732 
  9.957530450585031   5.748918678720844  11.673616748318732 
 -2.489385691034444   5.752802403742096   5.002978606422314 
 -3.732845098330377  12.205638664679855   5.002978606422314 
  1.241391202997424  12.214697535894588   5.002978606422314 
  2.367076102444628   5.750566638857983   5.002978606422314 
  6.225376203699541  12.229825014638465   5.002978606422314 
  7.590466661686524   5.750566638857944   5.002978606422314 
 -1.244622108730309   7.904776172455226  11.673616748318732 
 -0.000044440211584   1.437232967713526  11.673616748318732 
  3.734182173170471   7.904824813616190  11.673616748318732 
  4.978771382066609   1.437453791734744  11.673616748318732 
  8.712671263724250   7.904758097141980  11.673616748318732 
 -3.725199221792353   7.911411970134647   5.002978606422314 
  9.957587204344847   1.437232967713526  11.673616748318732 
  2.466675290073142   1.389660797725897   5.002978606422314 
  1.220727106237441   7.918697869616239   5.002978606422314 
  6.285984435214887   8.009996132677456   5.002978606422314 
  7.490867474060725   1.389660797725471   5.002978606422314 
  1.244871500408572   7.904758097141980  11.673616748318732 
 12.446928455166319   1.437247498834912   5.002978606422314 
 -2.489385691033299  10.060732491844133  11.673616748318732 
 -1.244727649942243   3.593087526294871  11.673616748318732 
  3.734058267525137   3.593226714018407  11.673616748318732 
  2.489453609812051  10.060757486308006  11.673616748318732 
  7.468089154322326  10.060757486308006  11.673616748318732 
  8.712889469668591   3.593095912273233  11.673616748318732 
 -4.968658629087437  10.065146840719228   5.002978606422314 
 -0.010112752974578  10.065146840716951   5.002978606422314 
  1.209299398306133   3.572684330808464   5.002978606422314 
  4.978771382060430  10.101601324401592   5.002978606422314 
  6.283253608540091   3.486407214487092   5.002978606422314 
 11.214641557331001   3.588163929699972   5.002978606422314 
 -2.489385691031284   5.748939079111972  11.673616748318732 
 -3.734116841925639  12.216707535524694  11.673616748318732 
  1.244736940260868  12.216629198206993  11.673616748318732 
  2.489469058628466   5.748918458379436  11.673616748318732 
  6.223454591797497  12.216649492009584  11.673616748318732 
 -6.220162585057733  12.214697535894459   5.002978606422314 
  7.468073705508580   5.748918458379436  11.673616748318732 
 -1.245926283737685  12.205638664679855   5.002978606422314 
 -0.052566492522935   5.753115561732747   5.002978606422314 
 -1.253572160273456   7.911411970134647   5.002978606422314 
  3.732166560437928  12.229825014638465   5.002978606422314 
 10.010109256657605   5.753115561731970   5.002978606422314 
 -3.734149273339741   7.904776172455226  11.673616748318732 
  2.489330085801588   1.437293820987345  11.673616748318732 
  6.223360590965024   7.904824813616190  11.673616748318732 
  7.468212678331856   1.437293820987345  11.673616748318732 
 12.446928455166319   1.437247498834912  11.673616748318732 
Generated by cif2cell 2.0.0.  :  Failed to get author information, No journal information. Species order: B Si N 
 1.0
 14.936314146199660   0.000000000000000   0.000000000000000
 -7.468157073099825  12.935227489513863   0.000000000000000
  0.000000000000001   0.000000000000001  13.341276283792837
 B Si N 
 144   1 143
Cartesian
  1.220840224379874   0.696929783117184   5.002978606422314 
  4.978771382064557   7.565173554121253   5.002978606422314 
  6.234101772443877   0.690077276152508   5.002978606422314 
  9.987583507599961   7.191298346726611   5.002978606422314 
 11.209533774190884   0.722837346682499   5.002978606422314 
 -3.733951047756174   9.342182348115594  11.673616748318732 
  1.244335461944838   9.342710178268353  11.673616748318732 
  2.488316770411179   2.873586101955928  11.673616748318732 
  6.223716894047622   9.343488902701628  11.673616748318732 
  7.469225993727551   2.873586101955928  11.673616748318732 
 12.446928455164311   2.874207308826040  11.673616748318732 
 -1.251564236569760   9.346075941900537   5.002978606422314 
 -0.033391753552554   2.855216259767972   5.002978606422314 
  4.978771382065758   2.813087415326344   5.002978606422314 
  3.699166400277781   9.450841278305353   5.002978606422314 
  8.732253117224127   9.365594363141394   5.002978606422314 
  9.990934517688236   2.855216259767946   5.002978606422314 
 -4.978876848048800  11.498040881493003  11.673616748318732 
  0.000105465978530  11.498040881493003  11.673616748318732 
  1.243371258429685   5.029894981362739  11.673616748318732 
  6.224658632229142   5.029676656075932  11.673616748318732 
  4.978771382068794  11.499000124465939  11.673616748318732 
 11.202769153225800   5.029992677469374  11.673616748318732 
 -1.275406682009976   5.020556253220625   5.002978606422314 
 -2.489385691033702  11.490045591730905   5.002978606422314 
  2.482524475673655  11.529483949686844   5.002978606422314 
  3.405910282228319   4.840898215951889   5.002978606422314 
  7.475018288452215  11.529483949686830   5.002978606422314 
  8.824471125035450   5.006234774891182   5.002978606422314 
 -0.000699550514175   7.186246279515998  11.673616748318732 
  1.244102553960475   0.718348471353139  11.673616748318732 
  4.978771382062742   7.187616673866556  11.673616748318732 
  6.223806394517197   0.718013528240588  11.673616748318732 
  9.958242314634134   7.186246279515998  11.673616748318732 
 -2.489385691030217   7.187898907598202   5.002978606422314 
 11.202484755495147   0.718767593839071  11.673616748318732 
  3.723440991687787   0.690077276152379   5.002978606422314 
  2.436205164735315   7.216941285346748   5.002978606422314 
  7.521337599398333   7.216941285346787   5.002978606422314 
  8.736702539753777   0.696929783117236   5.002978606422314 
  2.488528300642733   7.186732508747075  11.673616748318732 
 13.684323136130246   0.722837346682538   5.002978606422314 
 -1.244820334309707   9.342182348115594  11.673616748318732 
 -0.000883461772098   2.873984930778737  11.673616748318732 
  4.978771382065595   2.873504968525769  11.673616748318732 
  3.733825870086334   9.343488902701628  11.673616748318732 
  8.713207302191746   9.342710178268353  11.673616748318732 
  9.958426225908608   2.873984930778853  11.673616748318732 
 -3.727207145491954   9.346075941900461   5.002978606422314 
  1.225289646911680   9.365594363141394   5.002978606422314 
  2.412676620876768   2.789893932819720   5.002978606422314 
  6.258376363847706   9.450841278304811   5.002978606422314 
  7.544866143251755   2.789893932819811   5.002978606422314 
 12.446928455158995   2.866067803140215   5.002978606422314 
 -1.245226389090607   5.029992677469374  11.673616748318732 
 -2.489385691033231  11.497832779300838  11.673616748318732 
  2.489442439016935  11.498628837192335  11.673616748318732 
  3.732884131904258   5.029676656075932  11.673616748318732 
  7.468100325120028  11.498628837192335  11.673616748318732 
 -4.977332555831147  11.497149283965422   5.002978606422314 
  8.714171505707343   5.029894981362739  11.673616748318732 
 -0.001438826235168  11.497149283965422   5.002978606422314 
  1.133071639090841   5.006234774891208   5.002978606422314 
 -0.030040743469487   7.191298346726611   5.002978606422314 
  6.551632481898718   4.840898215950776   5.002978606422314 
  4.978771382068674  11.536537466484827   5.002978606422314 
 11.232949446142765   5.020556253220625   5.002978606422314 
 -2.489385691031664   7.186115712545864  11.673616748318732 
  3.733736369615811   0.718013528240588  11.673616748318732 
  7.469014463490506   7.186732508747075  11.673616748318732 
  8.713440210173788   0.718348471353139  11.673616748318732 
 13.691372154834038   0.718767593839071  11.673616748318732 
 -0.000510677983832   1.436434681851509   1.638858875586233 
  3.730156847414962   7.909172334186703   1.625873730087646 
  4.978771382068004   1.432622440621404   1.629747060907480 
  8.716855336520474   7.907173772698707   1.629747060907466 
  9.958053442117858   1.436434681851509   1.638858875586180 
 -4.977052209454031  10.061440443715243   8.362544434476151 
 -0.001719172609073  10.061440443715243   8.362544434476151 
  1.242191207690522   3.591674425815504   8.378911683416231 
  4.978771382067091  10.063621134387514   8.378911683416231 
  6.225236896991173   3.587566919369130   8.380083482757074 
 11.203194868792272   3.593082895472642   8.367098337266812 
 -2.489385691033300  10.060732491844131   1.650158694789521 
 -1.245652104665660   3.593082895473300   1.638858875586233 
  3.732305867142392   3.587566919369129   1.625873730087553 
  2.487174419511679  10.062956775534026   1.631160926272272 
  7.470368344621456  10.062956775534026   1.631160926272272 
  8.715351556442027   3.591674425815504   1.627045529426795 
 -6.222873854807208  12.216262888215622   8.366220389439242 
 -1.244939327512755  12.214760917002087   8.362544434476151 
 -0.003031921939250   5.749792870799242   8.374796286579187 
  4.978771382066590   5.748989995339477   8.377663848576871 
  3.733629955386697  12.217452408694978   8.367098337266812 
  9.960574686079045   5.749792870799242   8.374796286579187 
 -2.489385691033593   5.749671699102614   1.639736823403011 
 -3.733832054551154  12.214760917002087   1.643412778367930 
  1.244102472738984  12.216262888215622   1.639736823403011 
  2.483691332488823   5.750230732458147   1.625873730087593 
  6.223912808742588  12.217452408694978   1.638858875586233 
  7.473851431644171   5.750230732458147   1.625873730087580 
 -1.246165536130334   7.905996114809634   8.362544434476151 
 -0.000510677983712   1.436434681851510   8.367098337266812 
  3.730156847414918   7.909172334186704   8.380083482757248 
  4.978771382067864   1.432622440621391   8.376210151942724 
  8.716855336520176   7.907173772698708   8.376210151942724 
 -3.732605845937178   7.905996114809633   1.643412778367930 
  9.958053442117858   1.436434681851510   8.367098337266812 
  2.488565040610430   1.434220339678901   1.631160926272272 
  1.240687427611149   7.907173772698707   1.629747060907453 
  6.227385916721516   7.909172334186703   1.625873730087593 
  7.468977723518783   1.434220339679160   1.631160926272272 
  1.240687427611000   7.907173772698708   8.376210151942724 
 12.446928455166319   1.437247498834911   1.644432484384246 
 -2.489385691033300  10.060732491844131   8.355798518055147 
 -1.245652104665309   3.593082895472642   8.367098337266812 
  3.732305867142236   3.587566919369401   8.380083482757142 
  2.487174419511799  10.062956775534028   8.374796286579187 
  7.470368344621457  10.062956775534028   8.374796286579187 
  8.715351556441966   3.591674425815504   8.378911683416231 
 -4.977052209454032  10.061440443715243   1.643412778367930 
 -0.001719172609073  10.061440443715243   1.643412778367997 
  1.242191207690506   3.591674425815504   1.627045529426795 
  4.978771382067090  10.063621134387512   1.627045529426795 
  6.225236896991172   3.587566919369129   1.625873730087593 
 11.203194868791890   3.593082895473300   1.638858875586233 
 -2.489385691033682   5.749671699102589   8.366220389439242 
 -3.733832054550914  12.214760917002087   8.362544434476151 
  1.244102472738984  12.216262888215622   8.366220389439242 
  2.483691332488823   5.750230732458148   8.380083482755728 
  6.223912808742589  12.217452408694978   8.367098337266812 
 -6.222873854807329  12.216262888215622   1.639736823403011 
  7.473851431644172   5.750230732458148   8.380083482757142 
 -1.244939327512755  12.214760917002087   1.643412778367983 
 -0.003031921939236   5.749792870799241   1.631160926272272 
 -1.246165536130574   7.905996114809633   1.643412778367983 
  4.978771382066589   5.748989995339476   1.628293364267663 
  3.733629955386697  12.217452408694978   1.638858875586233 
  9.960574686079045   5.749792870799241   1.631160926272272 
 -3.732605845937133   7.905996114809634   8.362544434476151 
  2.488565040610430   1.434220339678902   8.374796286579187 
  6.227385916721517   7.909172334186704   8.380083482755728 
  7.468977723518934   1.434220339678902   8.374796286579187 
 12.446928455166319   1.437247498834912   8.361524728461275 
  4.978771382066589   5.748989995339477   5.002978606422314 
  1.244893673697496   0.718401464187201   1.642288425075613 
  4.978771382067784   7.186535968462735   1.652432567724426 
  6.223341672030121   0.718376158365742   1.641282411347482 
  9.957695906497143   7.186467425921296   1.641282411347482 
 11.202074329641976   0.718530634361205   1.648214195248431 
 -3.733953317925233   9.342181037429556   8.352443480121792 
  1.244417147600854   9.342126401728002   8.364674801497612 
  2.489521470394957   2.874221748491047   8.372920162445425 
  6.223768757993307   9.342127778635833   8.372920162445425 
  7.468021293739593   2.874221748491047   8.372920162445425 
 12.446928455168635   2.874681227781884   8.357743017601386 
 -1.244818064137349   9.342181037429556   1.653513732723742 
  0.000240786223876   2.874634015659554   1.641285931825830 
  4.978771382069141   2.874410660506082   1.634742372759399 
  3.733774006142322   9.342127778635833   1.633037050393453 
  8.713125616534118   9.342126401728002   1.641282411347482 
  9.957301977913778   2.874634015659554   1.641285931825830 
 -4.978531378583436  11.497841424604676   8.356397377433678 
 -0.000240003482607  11.497841424604676   8.356397377433705 
  1.244524094467404   5.030620458887799   8.372920162445425 
  6.223722713900540   5.030217008777848   8.353524645123631 
  4.978771382069369  11.497701954698288   8.364671281020371 
 11.202327700211237   5.030651310845492   8.363668787772497 
 -1.244784936083573   5.030651310845491   1.642288425075626 
 -2.489385691033240  11.497835400668679   1.653513732723742 
  2.489092772297999  11.497917210981816   1.642288425075613 
  3.733820050232622   5.030217008777847   1.652432567723866 
  7.468449991846668  11.497917210981816   1.642288425075613 
  8.713018669662858   5.030620458887798   1.633037050393253 
 -0.000153142361756   7.186467425921297   8.364674801497612 
  1.244893673697504   0.718401464187189   8.363668787772497 
  4.978771382067785   7.186535968462736   8.353524645122789 
  6.223341672030167   0.718376158365665   8.364674801497612 
  9.957695906497143   7.186467425921297   8.364674801497612 
 -2.489385691032898   7.186514626326276   1.649559835405305 
 11.202074329641976   0.718530634361206   8.357743017602081 
  3.734201092104469   0.718376158365742   1.641282411347482 
  2.489312652909403   7.186279662755255   1.634742372758999 
  7.468230111221369   7.186279662755255   1.634742372758719 
  8.712649090443691   0.718401464187111   1.642288425075586 
  2.489312652910196   7.186279662755256   8.371214840082693 
 13.691782580693440   0.718530634361180   1.648214195248671 
 -1.244818064137349   9.342181037429556   8.352443480121792 
  0.000240786223877   2.874634015659554   8.364671281020371 
  4.978771382068596   2.874410660506070   8.371214840082693 
  3.733774006142322   9.342127778635833   8.372920162445425 
  8.713125616534214   9.342126401727834   8.364674801497612 
  9.957301977913778   2.874634015659554   8.364671281020371 
 -3.733953317925203   9.342181037429556   1.653513732723742 