B N O                                   
   1.0000000000000000     
     8.7639499999999995  -15.1796066749929999    0.0000000000000000
     8.7639499999999995   15.1796066749929999    0.0000000000000000
     0.0000000000000000    0.0000000000000000   15.0000000000000000
   B    N    O 
    48    48     1
Selective dynamics
Direct
  0.9049412219510610  0.9524236204576462  0.1110038335402563   T   T   T
  0.9047921345809320  0.0952098866150644  0.1110380757414458   T   T   T
  0.9047697912451865  0.2380403278592107  0.1110368624592358   T   T   T
  0.9048724735854879  0.3809042276721213  0.1109988179147510   T   T   T
  0.9049082379805783  0.5237900855233231  0.1109985303276910   T   T   T
  0.9048179779779477  0.6665870163676065  0.1110402976039024   T   T   T
  0.9046039843368916  0.8092108615539342  0.1110288967912938   T   T   T
  0.0476339098805926  0.9523681113154109  0.1110046682077144   T   T   T
  0.0475784007383573  0.0950607992449354  0.1110038335402563   T   T   T
  0.0475112994165341  0.2378880649042830  0.1109948115192992   T   T   T
  0.0474524988480872  0.3808263268592811  0.1110133338749052   T   T   T
  0.0473551657799203  0.5238456189660242  0.1110047177331055   T   T   T
  0.0475657308509975  0.6667403070708442  0.1110118423916018   T   T   T
  0.0476056723415729  0.8095529629144281  0.1109942773117959   T   T   T
  0.1904490582815753  0.9523963488544306  0.1109942773117959   T   T   T
  0.1907911596420693  0.0953980368591048  0.1110288967912938   T   T   T
  0.1902259129733591  0.2375107932046618  0.1109931577932812   T   T   T
  0.1900812043580812  0.3806216988624176  0.1109936959600416   T   T   T
  0.1896314115546616  0.5239344422680531  0.1110356918277666   T   T   T
  0.1901545636243260  0.6668562888247010  0.1110438701731384   T   T   T
  0.1903676907956065  0.8096343304003970  0.1109949730306387   T   T   T
  0.3332617141261541  0.9524362903450060  0.1110118423916018   T   T   T
  0.3334150048293917  0.0951840432180486  0.1110402976039024   T   T   T
  0.3343424600960546  0.2385946273784610  0.1110477821456152   T   T   T
  0.3332777843566319  0.3792689973438335  0.1110507992583164   T   T   T
  0.3321705020526404  0.5254091559377992  0.1110441467184085   T   T   T
  0.3327024102097214  0.6672996109872769  0.1110842456863870   T   T   T
  0.3331457323722972  0.8098474575716774  0.1110438701731384   T   T   T
  0.4761564022309739  0.9526468554160832  0.1110047177331055   T   T   T
  0.4762119356736751  0.0950937832154252  0.1109985303276910   T   T   T
  0.4764631852957148  0.2376543765561126  0.1110285464468830   T   T   T
  0.4786060437906229  0.3816586582524298  0.1111828134588156   T   T   T
  0.4745928652591990  0.6678315191443578  0.1110441467184085   T   T   T
  0.4760675789289451  0.8103706096413419  0.1110356918277666   T   T   T
  0.6191756943367223  0.9525495223479162  0.1110133338749052   T   T   T
  0.6190977935238821  0.0951295476105084  0.1109988179147510   T   T   T
  0.6192454479691440  0.2377232345871488  0.1110101741462557   T   T   T
  0.6197420956926630  0.3802599255033404  0.1110229030478911   T   T   T
  0.6183433629435736  0.5213959774063753  0.1111828134588156   T   T   T
  0.6207330238521700  0.6667242368403663  0.1110507992583164   T   T   T
  0.6193803223335859  0.8099208168379223  0.1109936959600416   T   T   T
  0.7621139562917205  0.9524907217794694  0.1109948115192992   T   T   T
  0.7619616933367928  0.0952322299508098  0.1110368624592358   T   T   T
  0.7620100637534911  0.2379919574425123  0.1110460672689049   T   T   T
  0.7622787866088546  0.3807565732268594  0.1110101741462557   T   T   T
  0.7623476446398838  0.5235388359012835  0.1110285464468830   T   T   T
  0.7614073938175424  0.6656595611009437  0.1110477821456152   T   T   T
  0.7624912279913416  0.8097761082226443  0.1109931577932812   T   T   T
  0.9523526915300757  0.9045885117207315  0.1109993124775399   T   T   T
  0.9524273029793333  0.0475740989386724  0.1110032047881838   T   T   T
  0.9522927297027608  0.1903650315156858  0.1110132608789705   T   T   T
  0.9522802379727393  0.3332174959213329  0.1110017646450345   T   T   T
  0.9522697710774630  0.4761259344056461  0.1109683658071118   T   T   T
  0.9523691940111848  0.6190006707010044  0.1110006326882852   T   T   T
  0.9523656732782952  0.7617778994870337  0.1110117957814275   T   T   T
  0.0952337876814905  0.9047676142365081  0.1109725459974994   T   T   T
  0.0954128901972670  0.0476487103879299  0.1109993124775399   T   T   T
  0.0950611221342511  0.1901395971247027  0.1109758203000462   T   T   T
  0.0948861850541341  0.3330381278347147  0.1109803356473157   T   T   T
  0.0946231180276113  0.4760744577575496  0.1110042923959364   T   T   T
  0.0949671720242935  0.6190890208422776  0.1110072201986400   T   T   T
  0.0951540499012454  0.7619588855059926  0.1109795895975415   T   T   T
  0.2380425164120132  0.9048473520167533  0.1109795895975415   T   T   T
  0.2382235024309720  0.0476357286397104  0.1110117957814275   T   T   T
  0.2387763478898151  0.1907368691214358  0.1110071280169629   T   T   T
  0.2372401559388157  0.3323101880201793  0.1109617584057638   T   T   T
  0.2364870915395622  0.4759148115396839  0.1109872211073542   T   T   T
  0.2375234854619292  0.6192443458184788  0.1110440395862343   T   T   T
  0.2378959555193632  0.7621054463986424  0.1110141969952211   T   T   T
  0.3809123810757210  0.9050342298937051  0.1110072201986400   T   T   T
  0.3810007312169942  0.0476322079068208  0.1110006326882852   T   T   T
  0.3813526538230185  0.1904551722373534  0.1110296115853407   T   T   T
  0.3831653411433418  0.3342266189011373  0.1110746148013954   T   T   T
  0.3690448461424637  0.4705598698894750  0.1109678094895771   T   T   T
  0.3800673124707064  0.6199340894472922  0.1110661693561759   T   T   T
  0.3807570560995198  0.7624779164560764  0.1110440395862343   T   T   T
  0.5239269441594471  0.9053782838903873  0.1110042923959364   T   T   T
  0.5238754675113506  0.0477316308405427  0.1109683658071118   T   T   T
  0.5240294992797877  0.1902218310642459  0.1109987277863282   T   T   T
  0.5246126124085058  0.3328274759199233  0.1110055265640963   T   T   T
  0.5294415320275218  0.6309565557755349  0.1109678094895771   T   T   T
  0.5240865903773128  0.7635143103784435  0.1109872211073542   T   T   T
  0.6669632740822820  0.9051152168638645  0.1109803356473157   T   T   T
  0.6667839059956638  0.0477211639452664  0.1110017646450345   T   T   T
  0.6668182571565848  0.1902788453040600  0.1110097019032391   T   T   T
  0.6671312754721171  0.3328701264448795  0.1109898484079519   T   T   T
  0.6671739259970735  0.4753887895084909  0.1110055265640963   T   T   T
  0.6657747830158595  0.6168360607746568  0.1110746148013954   T   T   T
  0.6676912138968174  0.7627612459791900  0.1109617584057638   T   T   T
  0.8098618047932958  0.9049402797837475  0.1109758203000462   T   T   T
  0.8096363704023127  0.0477086722152449  0.1110132608789705   T   T   T
  0.8095636587011943  0.1904377432167972  0.1110274764584457   T   T   T
  0.8097225566139385  0.3331831447604119  0.1110097019032391   T   T   T
  0.8097795708537527  0.4759719026372090  0.1109987277863282   T   T   T
  0.8095462296806452  0.6186487480949800  0.1110296115853407   T   T   T
  0.8092645327965627  0.7612250540281906  0.1110071280169629   T   T   T
  0.5271717188953968  0.4728296830215998  0.1115006132145324   T   T   T

  0.00000000E+00  0.00000000E+00  0.00000000E+00
  0.00000000E+00  0.00000000E+00  0.00000000E+00
  0.00000000E+00  0.00000000E+00  0.00000000E+00
  0.00000000E+00  0.00000000E+00  0.00000000E+00
  0.00000000E+00  0.00000000E+00  0.00000000E+00
  0.00000000E+00  0.00000000E+00  0.00000000E+00
  0.00000000E+00  0.00000000E+00  0.00000000E+00
  0.00000000E+00  0.00000000E+00  0.00000000E+00
  0.00000000E+00  0.00000000E+00  0.00000000E+00
  0.00000000E+00  0.00000000E+00  0.00000000E+00
  0.00000000E+00  0.00000000E+00  0.00000000E+00
  0.00000000E+00  0.00000000E+00  0.00000000E+00
  0.00000000E+00  0.00000000E+00  0.00000000E+00
  0.00000000E+00  0.00000000E+00  0.00000000E+00
  0.00000000E+00  0.00000000E+00  0.00000000E+00
  0.00000000E+00  0.00000000E+00  0.00000000E+00
  0.00000000E+00  0.00000000E+00  0.00000000E+00
  0.00000000E+00  0.00000000E+00  0.00000000E+00
  0.00000000E+00  0.00000000E+00  0.00000000E+00
  0.00000000E+00  0.00000000E+00  0.00000000E+00
  0.00000000E+00  0.00000000E+00  0.00000000E+00
  0.00000000E+00  0.00000000E+00  0.00000000E+00
  0.00000000E+00  0.00000000E+00  0.00000000E+00
  0.00000000E+00  0.00000000E+00  0.00000000E+00
  0.00000000E+00  0.00000000E+00  0.00000000E+00
  0.00000000E+00  0.00000000E+00  0.00000000E+00
  0.00000000E+00  0.00000000E+00  0.00000000E+00
  0.00000000E+00  0.00000000E+00  0.00000000E+00
  0.00000000E+00  0.00000000E+00  0.00000000E+00
  0.00000000E+00  0.00000000E+00  0.00000000E+00
  0.00000000E+00  0.00000000E+00  0.00000000E+00
  0.00000000E+00  0.00000000E+00  0.00000000E+00
  0.00000000E+00  0.00000000E+00  0.00000000E+00
  0.00000000E+00  0.00000000E+00  0.00000000E+00
  0.00000000E+00  0.00000000E+00  0.00000000E+00
  0.00000000E+00  0.00000000E+00  0.00000000E+00
  0.00000000E+00  0.00000000E+00  0.00000000E+00
  0.00000000E+00  0.00000000E+00  0.00000000E+00
  0.00000000E+00  0.00000000E+00  0.00000000E+00
  0.00000000E+00  0.00000000E+00  0.00000000E+00
  0.00000000E+00  0.00000000E+00  0.00000000E+00
  0.00000000E+00  0.00000000E+00  0.00000000E+00
  0.00000000E+00  0.00000000E+00  0.00000000E+00
  0.00000000E+00  0.00000000E+00  0.00000000E+00
  0.00000000E+00  0.00000000E+00  0.00000000E+00
  0.00000000E+00  0.00000000E+00  0.00000000E+00
  0.00000000E+00  0.00000000E+00  0.00000000E+00
  0.00000000E+00  0.00000000E+00  0.00000000E+00
  0.00000000E+00  0.00000000E+00  0.00000000E+00
  0.00000000E+00  0.00000000E+00  0.00000000E+00
  0.00000000E+00  0.00000000E+00  0.00000000E+00
  0.00000000E+00  0.00000000E+00  0.00000000E+00
  0.00000000E+00  0.00000000E+00  0.00000000E+00
  0.00000000E+00  0.00000000E+00  0.00000000E+00
  0.00000000E+00  0.00000000E+00  0.00000000E+00
  0.00000000E+00  0.00000000E+00  0.00000000E+00
  0.00000000E+00  0.00000000E+00  0.00000000E+00
  0.00000000E+00  0.00000000E+00  0.00000000E+00
  0.00000000E+00  0.00000000E+00  0.00000000E+00
  0.00000000E+00  0.00000000E+00  0.00000000E+00
  0.00000000E+00  0.00000000E+00  0.00000000E+00
  0.00000000E+00  0.00000000E+00  0.00000000E+00
  0.00000000E+00  0.00000000E+00  0.00000000E+00
  0.00000000E+00  0.00000000E+00  0.00000000E+00
  0.00000000E+00  0.00000000E+00  0.00000000E+00
  0.00000000E+00  0.00000000E+00  0.00000000E+00
  0.00000000E+00  0.00000000E+00  0.00000000E+00
  0.00000000E+00  0.00000000E+00  0.00000000E+00
  0.00000000E+00  0.00000000E+00  0.00000000E+00
  0.00000000E+00  0.00000000E+00  0.00000000E+00
  0.00000000E+00  0.00000000E+00  0.00000000E+00
  0.00000000E+00  0.00000000E+00  0.00000000E+00
  0.00000000E+00  0.00000000E+00  0.00000000E+00
  0.00000000E+00  0.00000000E+00  0.00000000E+00
  0.00000000E+00  0.00000000E+00  0.00000000E+00
  0.00000000E+00  0.00000000E+00  0.00000000E+00
  0.00000000E+00  0.00000000E+00  0.00000000E+00
  0.00000000E+00  0.00000000E+00  0.00000000E+00
  0.00000000E+00  0.00000000E+00  0.00000000E+00
  0.00000000E+00  0.00000000E+00  0.00000000E+00
  0.00000000E+00  0.00000000E+00  0.00000000E+00
  0.00000000E+00  0.00000000E+00  0.00000000E+00
  0.00000000E+00  0.00000000E+00  0.00000000E+00
  0.00000000E+00  0.00000000E+00  0.00000000E+00
  0.00000000E+00  0.00000000E+00  0.00000000E+00
  0.00000000E+00  0.00000000E+00  0.00000000E+00
  0.00000000E+00  0.00000000E+00  0.00000000E+00
  0.00000000E+00  0.00000000E+00  0.00000000E+00
  0.00000000E+00  0.00000000E+00  0.00000000E+00
  0.00000000E+00  0.00000000E+00  0.00000000E+00
  0.00000000E+00  0.00000000E+00  0.00000000E+00
  0.00000000E+00  0.00000000E+00  0.00000000E+00
  0.00000000E+00  0.00000000E+00  0.00000000E+00
  0.00000000E+00  0.00000000E+00  0.00000000E+00
  0.00000000E+00  0.00000000E+00  0.00000000E+00
  0.00000000E+00  0.00000000E+00  0.00000000E+00
  0.00000000E+00  0.00000000E+00  0.00000000E+00
