 B N O 
 1.0
 17.527899999999772   0.000000000000000   0.000000000000000
 -8.763949999999658  15.179606674993195   0.000000000000000
  0.000000000000001   0.000000000000002  15.000000000000000
 B N O 
  48  48   1
Cartesian
  7.514726255726334  14.457415946520069   1.665057503103840 
 15.024691369920854   1.445248630387371   1.665571136121690 
 13.772540892624654   3.613358549689248   1.665552936888540 
 12.522288623651914   5.781976356904856   1.664982268721265 
 11.270670984477619   7.950927478505090   1.664977954915365 
 10.016925702866363  10.119737783328796   1.665604464058530 
  8.763924646943080  12.283502595521091   1.665433451869410 
 -7.511584100166336  14.456573339574074   1.665070023115710 
  0.000841358759221   1.442985542748604   1.665057503103840 
 -1.252065801374754   3.611047257922269   1.664922172789485 
 -2.505800232718892   5.780793853206282   1.665200008123575 
 -3.760920202063258   7.951770454322600   1.665070765996575 
 -5.008905959549908  10.119737783328796   1.665177635874030 
 -6.260454225097778  12.288695559616370   1.664914159676940 
 -5.008581932888890  14.457001974309868   1.664914159676940 
  2.508104741958857   1.448104677087717   1.665433451869410 
  1.252728063899779   3.605320421912416   1.664897366899215 
 -0.004025195877193   5.777687680699210   1.664905439400630 
 -1.267894836726007   7.953118757110974   1.665535377416505 
 -2.509623157582325  10.119737783328796   1.665658052597070 
 -3.758848942416006  12.289930686049512   1.664924595459585 
 -2.504470693435533  14.457608270426810   1.665177635874030 
  5.008445137772469   1.444856337785538   1.665604464058530 
  3.769289821704185   3.621772598371601   1.665716732184225 
  2.518738804061893   5.757154203698439   1.665761988874740 
  1.217591770747498   7.975504330575955   1.665662200776120 
 -0.016605849796825  10.129345629162833   1.666263685295805 
 -1.254829292451765  12.293165872681296   1.665658052597070 
 -0.002927605859273  14.460804565385251   1.665070765996575 
  7.513598025883709   1.443486226447221   1.664977954915365 
  6.268607992125790   3.607499960712519   1.665428196703245 
  5.044121476966296   5.793428316377534   1.667742201882240 
  2.465774240771638  10.137419785774544   1.665662200776120 
  1.242417412342584  12.301107115330019   1.665535377416505 
  2.504753266383796  14.459327087694005   1.665200008123575 
 10.017773616326028   1.444029115897550   1.664982268721265 
  8.770677745698254   3.608545198540060   1.665152612193840 
  7.530198504976420   5.772196103402915   1.665343545718365 
  6.268772355148106   7.914585858952411   1.667742201882240 
  5.037513035445204  10.119737783328796   1.665761988874740 
  3.758330809104289  12.294279437488862   1.664905439400630 
  5.010676153346630  14.458434518192714   1.664922172789485 
 12.520977862960430   1.445587793435803   1.665552936888540 
 11.270686581036419   3.612624305789052   1.665691009033575 
 10.024214773869772   5.779735020501964   1.665152612193840 
  8.774085099586379   7.947113608065283   1.665428196703245 
  7.512065547583929  10.104450316960930   1.665716732184225 
  6.268032671451704  12.292082817626460   1.664897366899215 
  8.764974254575201  13.731297810638184   1.664989687163100 
 16.277113499497673   0.722156109806252   1.665048071822760 
 15.023342119004978   2.889666303080797   1.665198913184550 
 13.770156116495603   5.059868891664398   1.665026469675525 
 12.518545437634248   7.227404412041316   1.664525487106680 
 11.268141067718577   9.396186712798224   1.665009490324275 
 10.016786862445279  11.563488887915677   1.665176936721420 
 -6.260089825685350  13.734016516382164   1.664588189962485 
  1.254796682684372   0.723288682259440   1.664989687163100 
 -0.000152079564059   2.886244297694658   1.664637304500690 
 -1.255573937426603   5.055387788307077   1.664705034709740 
 -2.513748193587976   7.226623016770271   1.665064385939040 
 -3.761090129685870   9.397527833192445   1.665108302979600 
 -5.009918903365977  11.566236184497146   1.664693843963130 
 -3.757651527288846  13.735226904523422   1.664693843963130 
  3.758080584247810   0.723091624427507   1.665176936721420 
  2.513639564041090   2.895310651683054   1.665106920254445 
  1.245971856980585   5.044337948239352   1.664426376086460 
 -0.025771520796817   7.224199649975916   1.664808316610310 
 -1.263738583707557   9.399885605237978   1.665660593793510 
 -2.509237508217330  11.568460921201494   1.665212954928315 
 -1.255080614819583  13.738063637191811   1.665108302979600 
  6.260696428213295   0.723038181087044   1.665009490324275 
  5.015171574214905   2.891034603781102   1.665444173780115 
  3.786938406307791   5.073428615232106   1.666119222020925 
  2.344617986982707   7.142913741958204   1.664517142343655 
  1.228710483043819   9.410355642229943   1.665992540342640 
 -0.008446732318277  11.574114870171554   1.665660593793510 
  1.248649073431404  13.743286241536403   1.665064385939040 
  8.764119180887128   0.724547382115418   1.664525487106680 
  7.518042044070643   2.887492576552257   1.664980916794920 
  6.278474051446636   5.052190175095200   1.665082898461440 
  3.750326522236296   9.577672345681027   1.664517142343655 
  2.494736107033480  11.589846922273454   1.664808316610310 
  3.758081066952918  13.739292987544639   1.664705034709740 
 11.267040771908416   0.724388498762005   1.665026469675525 
 10.017672380364063   2.888358030287507   1.665145528548585 
  8.776153138691075   5.052837593288530   1.664847726119280 
  7.527874275671167   7.216214842440025   1.665082898461440 
  6.263713424397679   9.363328785511492   1.666119222020925 
  5.018423406362803  11.578415700891840   1.664426376086460 
  6.264325363225766  13.736637511475577   1.664637304500690 
 13.773108918913737   0.724198879213596   1.665198913184550 
 12.520963993683690   2.890770038104332   1.665412146876690 
 11.271419333406724   5.059868891664398   1.665145528548585 
 10.022341383850106   7.225066270380989   1.664980916794920 
  8.767838663352403   9.390844666058744   1.665444173780115 
  7.513369492154587  11.555096911298383   1.665106920254445 
  5.096357471109520   7.177368612529596   1.672509198217980 
