 N B P 
 1.0
 14.936314146199660   0.000000000000000   0.000000000000000
 -7.468157073099825  12.935227489513863   0.000000000000000
  0.000000000000001   0.000000000000001  13.341276283792837
 N B P 
 144 143   1
Cartesian
  1.244825829058839   0.718593721903070   1.672347149132566 
  4.978762785567763   7.185940747103411   1.658801757409963 
  6.223331244040991   0.718593721903070   1.672347149132566 
  9.957582439400783   7.186318235821108   1.670738832139141 
 11.202235609649751   0.718623749417456   1.668216972340817 
 -3.734078536549858   9.342108742426664   8.336480115409485 
  1.244600349155275   9.342008589058052   8.333610063712062 
  2.489638383285848   2.874650815991601   8.347155455434651 
  6.223556723944577   9.342008589058052   8.333610063712062 
  7.467950202098689   2.874614434697961   8.334986613000588 
 12.446976799822334   2.874608040672130   8.336196144560867 
 -1.244782607467648   9.342102731393064   1.670738832139141 
  0.000206871001145   2.874614434697960   1.670970599844041 
  4.978518689813865   2.874650815991600   1.658801757409963 
  3.734078536549905   9.341869868370322   1.670970599844041 
  8.712939680567501   9.342102731393064   1.670738832139141 
  9.957494419477143   2.874608040672129   1.669761068283747 
 -4.978721295383147  11.497905260065858   8.335218380705475 
 -0.000111025787952  11.497915889910448   8.335507199563352 
  1.244954134267998   5.030507174671246   8.347155455434651 
  6.223202938831823   5.030507174671246   8.347155455434651 
  4.978845107850391  11.497881601477541   8.336196144560867 
 11.202235609649701   5.030494447459107   8.335507199563352 
 -1.244652358335758   5.030496426805017   1.672347149132566 
 -2.489435777716554  11.497905260065858   1.670738832139141 
  2.489311965249553  11.497881601477541   1.669761068283747 
  3.734078536549917   5.030366245922020   1.599468259663597 
  7.468268098887688  11.497915889910448   1.670450013281302 
  8.712809431435696   5.030496426805017   1.672347149132566 
 -0.000049822634601   7.186266259285893   8.334503500766294 
  1.244825829058840   0.718593721903070   8.333610063712062 
  4.978762785567763   7.185940747103412   8.347155455434651 
  6.223331244040992   0.718593721903070   8.333610063712062 
  9.957582439400783   7.186318235821109   8.335218380705475 
 -2.489425366300962   7.186318235821108   1.670738832139141 
 11.202235609649751   0.718623749417456   8.337740240503798 
  3.734078536549967   0.718566219194368   1.671453712078335 
  2.489394287531955   7.185940747103411   1.658801757409963 
  7.468206895734541   7.186266259285892   1.671453712078335 
  8.712727848176732   0.718609095616470   1.669761068283747 
  2.489394287531956   7.185940747103412   8.347155455434651 
 13.691743371122760   0.718609095616470   1.669761068283747 
 -1.244782607467648   9.342102731393064   8.335218380705475 
  0.000206871001146   2.874614434697961   8.334986613000588 
  4.978518689813866   2.874650815991601   8.347155455434651 
  3.734078536549906   9.341869868370322   8.334986613000588 
  8.712939680567501   9.342102731393064   8.335218380705475 
  9.957494419477143   2.874608040672130   8.336196144560867 
 -3.734078536549859   9.342108742426664   1.669477097435024 
  1.244600349155275   9.342008589058052   1.672347149132566 
  2.489638383285848   2.874650815991600   1.658801757409963 
  6.223556723944577   9.342008589058052   1.672347149132566 
  7.467950202098688   2.874614434697960   1.670970599844041 
 12.446976799822334   2.874608040672129   1.669761068283747 
 -1.244652358335758   5.030496426805017   8.333610063712062 
 -2.489435777716553  11.497905260065858   8.335218380705475 
  2.489311965249553  11.497881601477541   8.336196144560867 
  3.734078536549917   5.030366245922021   8.406488953181031 
  7.468268098887688  11.497915889910448   8.335507199563352 
 -4.978721295383147  11.497905260065858   1.670738832139141 
  8.712809431435696   5.030496426805017   8.333610063712062 
 -0.000111025787953  11.497915889910448   1.670450013281302 
  1.244954134267998   5.030507174671245   1.658801757409963 
 -0.000049822634602   7.186266259285892   1.671453712078335 
  6.223202938831822   5.030507174671245   1.658801757409963 
  4.978845107850391  11.497881601477541   1.669761068283747 
 11.202235609649701   5.030494447459106   1.670450013281302 
 -2.489425366300961   7.186318235821109   8.335218380705475 
  3.734078536549968   0.718566219194369   8.334503500766294 
  7.468206895734542   7.186266259285893   8.334503500766294 
  8.712727848176732   0.718609095616470   8.336196144560867 
 13.691743371122760   0.718609095616470   8.336196144560867 
 -0.007087795778585   1.430862314389888   5.002978606422314 
  3.734078536549875   7.918361203775462   5.002978606422314 
  4.993857561826203   1.397470332150575   5.002978606422314 
  8.723805976374869   7.911186726487931   5.002978606422314 
  9.960269951125531   1.435672956690692   5.002978606422314 
 -4.978808398433784  10.060753863253737  11.673616748318732 
  0.000054081861666  10.060763327050138  11.673616748318732 
  1.244667624371381   3.593104185652264  11.673616748318732 
  4.978755359406573  10.060747457573150  11.673616748318732 
  6.223489448728350   3.593104185652264  11.673616748318732 
 11.202235609649673   3.593096686789382  11.673616748318732 
 -2.491425626048112  10.059554734814183   5.002978606422314 
 -1.253766475343157   3.590173128108621   5.002978606422314 
  3.734078536549908   3.449969110386771   5.002978606422314 
  2.487399856985332  10.070063295267710   5.002978606422314 
  7.475615385592037  10.070103323926524   5.002978606422314 
  8.721923548442989   3.590173128108621   5.002978606422314 
 -6.223517972585704  12.216635158759445  11.673616748318732 
 -1.244639100514025  12.216635158759445  11.673616748318732 
 -0.000010987680906   5.748961201513733  11.673616748318732 
  4.978890580735114   5.749058814722776  11.673616748318732 
  3.734078536549912  12.216598187661523  11.673616748318732 
  9.957542427274049   5.748927741470333  11.673616748318732 
 -2.501230225917304   5.750763667385963   5.002978606422314 
 -3.734078536549911  12.203952774304195   5.002978606422314 
  1.246535248290758  12.217667451834066   5.002978606422314 
  2.365414469108229   5.820564813689654   5.002978606422314 
  6.221621824808934  12.217667451834066   5.002978606422314 
  7.510148199818877   5.755813563763662   5.002978606422314 
 -1.244660724093025   7.904842698279253  11.673616748318732 
 -0.000020972031537   1.437253892000990  11.673616748318732 
  3.734078536549869   7.904890366461808  11.673616748318732 
  4.978801812091514   1.437252380136982  11.673616748318732 
  8.712817797192743   7.904842698279253  11.673616748318732 
 -3.734078536549904   7.907216757651727   5.002978606422314 
  9.957537955583401   1.437250275052356  11.673616748318732 
  2.474299511273510   1.397470332150575   5.002978606422314 
  1.217787898557223   7.937814841851996   5.002978606422314 
  6.250369174542480   7.937814841851996   5.002978606422314 
  7.475244868878386   1.430862314389888   5.002978606422314 
  1.244712287860686   7.904885156115517  11.673616748318732 
 12.444201268173842   1.435672956690692   5.002978606422314 
 -2.489348674666066  10.060753863253737  11.673616748318732 
 -1.244697794888159   3.593097388192081  11.673616748318732 
  3.734078536549924   3.592981108320499  11.673616748318732 
  2.489401713693312  10.060747457573150  11.673616748318732 
  7.468102991238159  10.060763327050138  11.673616748318732 
  8.712854867988007   3.593097388192081  11.673616748318732 
 -4.976731447051695  10.059554734814183   5.002978606422314 
 -0.007458312492333  10.070103323926524   5.002978606422314 
  1.233001537047513   3.586368766995431   5.002978606422314 
  4.980757216114506  10.070063295267710   5.002978606422314 
  6.235155536052231   3.586368766995431   5.002978606422314 
 11.202235609649629   3.590991323612000   5.002978606422314 
 -2.489385354174122   5.748927741470333  11.673616748318732 
 -3.734078536549916  12.216640830721591  11.673616748318732 
  1.244711950294969  12.216614770245325  11.673616748318732 
  2.489266492364827   5.749058814722776  11.673616748318732 
  6.223445122804812  12.216614770245325  11.673616748318732 
 -6.227850449974947  12.205459235967556   5.002978606422314 
  7.468168060780772   5.748961201513733  11.673616748318732 
 -1.240306623124873  12.205459235967556   5.002978606422314 
 -0.041991126719073   5.755813563763662   5.002978606422314 
 -1.255648903275121   7.911186726487931   5.002978606422314 
  5.102742603991710   5.820564813689654   5.002978606422314 
  3.734078536549914  12.219752824384873   5.002978606422314 
  9.969387299017139   5.750763667385963   5.002978606422314 
 -3.734078536549911   7.904818500772662  11.673616748318732 
  2.489355261008229   1.437252380136982  11.673616748318732 
  6.223444785239078   7.904885156115517  11.673616748318732 
  7.468178045131370   1.437253892000990  11.673616748318732 
 12.446933263715984   1.437250275052356  11.673616748318732 
  1.224232329071879   0.692693472306357   5.002978606422314 
  5.015045480320897   7.268762782078681   5.002978606422314 
  6.243924744027952   0.692693472306357   5.002978606422314 
  9.965511475659120   7.187891493078967   5.002978606422314 
 11.202235609649751   0.718623749417456   5.002978606422314 
 -3.734078536549858   9.342108742426666  11.673616748318732 
  1.244626518699294   9.342436928036507  11.673616748318732 
  2.489243416327477   2.874272235788530  11.673616748318732 
  6.223530554400574   9.342436928036507  11.673616748318732 
  7.468514408242694   2.874288690128841  11.673616748318732 
 12.446739798303152   2.874339574598266  11.673616748318732 
 -1.250109606348841   9.348182849591360   5.002978606422314 
 -0.022124185369848   2.861721593290766   5.002978606422314 
  5.032103328719113   2.801818063129981   5.002978606422314 
  3.734078536550009   9.367655551184530   5.002978606422314 
  8.718266679448679   9.348182849591360   5.002978606422314 
  9.964579200515102   2.868651390825198   5.002978606422314 
 -4.978847145434702  11.497878134629003  11.673616748318732 
  0.000122994218484  11.498051001424031  11.673616748318732 
  1.244428790715650   5.030354413353058  11.673616748318732 
  6.223728282384291   5.030354413353058  11.673616748318732 
  4.978731110170101  11.498221083850831  11.673616748318732 
 11.202235609649815   5.030224224431749  11.673616748318732 
 -1.277379382444349   5.025612057461831   5.002978606422314 
 -2.486833740339420  11.490251884609677   5.002978606422314 
  2.490928184819466  11.506995526760102   5.002978606422314 
  7.464584529569352  11.500042599647969   5.002978606422314 
  8.745536455544286   5.025612057461831   5.002978606422314 
 -0.000243923194386   7.186378323296335  11.673616748318732 
  1.244441791850067   0.718402215903758  11.673616748318732 
  4.978893162161784   7.186472088624567  11.673616748318732 
  6.223715281249779   0.718402215903758  11.673616748318732 
  9.957668855743975   7.186222809197809  11.673616748318732 
 -2.497354402559272   7.187891493078967   5.002978606422314 
 11.202235609649751   0.718623749417457  11.673616748318732 
  3.734078536549856   0.690545127132329   5.002978606422314 
  2.453111592778923   7.268762782078681   5.002978606422314 
  7.492473873302001   7.200276805316996   5.002978606422314 
  8.721428848784578   0.715451820180828   5.002978606422314 
  2.489263910938024   7.186472088624567  11.673616748318732 
 13.683042370514910   0.715451820180828   5.002978606422314 
 -1.244743173759283   9.342225283453194  11.673616748318732 
 -0.000357335142875   2.874288690128841  11.673616748318732 
  4.978913656772358   2.874272235788530  11.673616748318732 
  3.734078536549911   9.342521357508554  11.673616748318732 
  8.712900246859139   9.342225283453194  11.673616748318732 
  9.957731420996470   2.874339574598266  11.673616748318732 
 -3.734078536549858   9.342108742426664   5.002978606422314 
  1.232466825033638   9.372793207997965   5.002978606422314 
  2.436053744380720   2.801818063129981   5.002978606422314 
  6.235690248066200   9.372793207997965   5.002978606422314 
  7.490281258469874   2.861721593290766   5.002978606422314 
 12.439892018784406   2.868651390825198   5.002978606422314 
 -1.245010226000518   5.030259593825866  11.673616748318732 
 -2.489309927665012  11.497878134629003  11.673616748318732 
  2.489425962929977  11.498221083850831  11.673616748318732 
  3.734078536549918   5.030366245922021  11.673616748318732 
  7.468034078881478  11.498051001424031  11.673616748318732 
 -4.981323332760295  11.490251884609677   5.002978606422314 
  8.713167299100473   5.030259593825866  11.673616748318732 
  0.003572543530518  11.500042599647969   5.002978606422314 
  1.155086800609785   5.020517892557480   5.002978606422314 
 -0.024316800202270   7.200276805316996   5.002978606422314 
  6.313070272490155   5.020517892557480   5.002978606422314 
  4.977228888280494  11.506995526760102   5.002978606422314 
 11.202235609649771   5.026241027983950   5.002978606422314 
 -2.489511782644136   7.186222809197809  11.673616748318732 
  3.734078536549908   0.718342091173590  11.673616748318732 
  7.468400996294208   7.186378323296335  11.673616748318732 
  8.713078847376401   0.718538079316955  11.673616748318732 
 13.691392371923207   0.718538079316955  11.673616748318732 
 -0.000552017663506   1.436539004584045   1.667334875722368 
  3.734078536549991   7.906074235608507   1.655367116885551 
  4.979055289668262   1.435678070139892   1.663232863760071 
  8.713901958201205   7.905468638929316   1.667699661964824 
  9.957765500937294   1.437118901681033   1.666327493465100 
 -4.978467222104867  10.060556885008387   8.338765372003945 
 -0.000661977763630  10.061097542831078   8.338011708201828 
  1.243642363615609   3.592512251078817   8.350590095959078 
  4.979108947254478  10.061564800289499   8.338622337122260 
  6.224514709484328   3.592512251078817   8.350590095959078 
 11.202235609649755   3.593191553355400   8.338912021774055 
 -2.489689850994847  10.060556885008387   1.667191840840695 
 -1.245582428368003   3.592994932892596   1.667334875722368 
  3.734078536549872   3.592260536188296   1.627844327188859 
  2.489048125845465  10.061564800289499   1.667334875722368 
  7.468819050863380  10.061097542831078   1.667945504642813 
  8.713739501467956   3.592994932892596   1.667334875722368 
 -6.223449382129743  12.215847925042919   8.338011708201828 
 -1.244707690970076  12.215847925042919   8.338011708201828 
 -0.001501118920192   5.749528838491523   8.342724349084557 
  4.979514614506832   5.749419100788923   8.378112885655781 
  3.734078536549957  12.216860934404087   8.339629719379529 
  9.958189896443264   5.749380759405993   8.338011708201828 
 -2.490032823343414   5.749380759405992   1.667945504642813 
 -3.734078536549910  12.215388949421449   1.667699661964824 
  1.244629793438906  12.216567336962257   1.667045191070572 
  2.488642458593003   5.749419100788922   1.627844327188859 
  6.223527279661069  12.216567336962257   1.667045191070572 
  7.469658192020027   5.749528838491522   1.663232863760071 
 -1.245744885101459   7.905468638929317   8.338257550879803 
 -0.000552017663505   1.436539004584046   8.338622337122260 
  3.734078536549992   7.906074235608508   8.350590095959078 
  4.979055289668263   1.435678070139893   8.342724349084557 
  8.713901958201205   7.905468638929317   8.338257550879803 
 -3.734078536549859   7.905212457263244   1.667191840840695 
  9.957765500937294   1.437118901681034   8.339629719379529 
  2.489101783431479   1.435678070139892   1.663232863760071 
  1.243475634198140   7.905891829134830   1.663232863760071 
  6.224681438901576   7.905891829134830   1.663232863760071 
  7.468709090763442   1.436539004584045   1.667334875722368 
  1.243475634198141   7.905891829134831   8.342724349084557 
 12.446705718362169   1.437118901681033   1.666327493465100 
 -2.489689850994846  10.060556885008387   8.338765372003945 
 -1.245582428368003   3.592994932892597   8.338622337122260 
  3.734078536549873   3.592260536188297   8.378112885655781 
  2.489048125845466  10.061564800289499   8.338622337122260 
  7.468819050863381  10.061097542831078   8.338011708201828 
  8.713739501467956   3.592994932892597   8.338622337122260 
 -4.978467222104868  10.060556885008387   1.667191840840695 
 -0.000661977763630  10.061097542831078   1.667945504642813 
  1.243642363615609   3.592512251078817   1.655367116885551 
  4.979108947254477  10.061564800289499   1.667334875722368 
  6.224514709484327   3.592512251078817   1.655367116885551 
 11.202235609649755   3.593191553355399   1.667045191070572 
 -2.490032823343414   5.749380759405993   8.338011708201828 
 -3.734078536549910  12.215388949421449   8.338257550879803 
  1.244629793438907  12.216567336962257   8.338912021774055 
  2.488642458593003   5.749419100788923   8.378112885655781 
  6.223527279661070  12.216567336962257   8.338912021774055 
 -6.223449382129744  12.215847925042919   1.667945504642813 
  7.469658192020028   5.749528838491523   8.342724349084557 
 -1.244707690970077  12.215847925042919   1.667945504642813 
 -0.001501118920192   5.749528838491522   1.663232863760071 
 -1.245744885101459   7.905468638929316   1.667699661964824 
  4.979514614506831   5.749419100788922   1.627844327188859 
  3.734078536549957  12.216860934404087   1.666327493465100 
  9.958189896443264   5.749380759405992   1.667945504642813 
 -3.734078536549859   7.905212457263245   8.338765372003945 
  2.489101783431479   1.435678070139893   8.342724349084557 
  6.224681438901577   7.905891829134831   8.342724349084557 
  7.468709090763443   1.436539004584046   8.338622337122260 
 12.446705718362169   1.437118901681034   8.339629719379529 
  3.734078536549917   5.030366245922021   5.002978606422314 
Generated by cif2cell 2.0.0.  :  Failed to get author information, No journal information. Species order: N B P 
 1.0
 14.936314146199660   0.000000000000000   0.000000000000000
 -7.468157073099825  12.935227489513863   0.000000000000000
  0.000000000000001   0.000000000000001  13.341276283792837
 N B P 
 144 143   1
Cartesian
  1.244825829058839   0.718593721903070   1.672347149132566 
  4.978762785567763   7.185940747103411   1.658801757409963 
  6.223331244040991   0.718593721903070   1.672347149132566 
  9.957582439400783   7.186318235821108   1.670738832139141 
 11.202235609649751   0.718623749417456   1.668216972340817 
 -3.734078536549858   9.342108742426664   8.336480115409485 
  1.244600349155275   9.342008589058052   8.333610063712062 
  2.489638383285848   2.874650815991601   8.347155455434651 
  6.223556723944577   9.342008589058052   8.333610063712062 
  7.467950202098689   2.874614434697961   8.334986613000588 
 12.446976799822334   2.874608040672130   8.336196144560867 
 -1.244782607467648   9.342102731393064   1.670738832139141 
  0.000206871001145   2.874614434697960   1.670970599844041 
  4.978518689813865   2.874650815991600   1.658801757409963 
  3.734078536549905   9.341869868370322   1.670970599844041 
  8.712939680567501   9.342102731393064   1.670738832139141 
  9.957494419477143   2.874608040672129   1.669761068283747 
 -4.978721295383147  11.497905260065858   8.335218380705475 
 -0.000111025787952  11.497915889910448   8.335507199563352 
  1.244954134267998   5.030507174671246   8.347155455434651 
  6.223202938831823   5.030507174671246   8.347155455434651 
  4.978845107850391  11.497881601477541   8.336196144560867 
 11.202235609649701   5.030494447459107   8.335507199563352 
 -1.244652358335758   5.030496426805017   1.672347149132566 
 -2.489435777716554  11.497905260065858   1.670738832139141 
  2.489311965249553  11.497881601477541   1.669761068283747 
  3.734078536549917   5.030366245922020   1.599468259663597 
  7.468268098887688  11.497915889910448   1.670450013281302 
  8.712809431435696   5.030496426805017   1.672347149132566 
 -0.000049822634601   7.186266259285893   8.334503500766294 
  1.244825829058840   0.718593721903070   8.333610063712062 
  4.978762785567763   7.185940747103412   8.347155455434651 
  6.223331244040992   0.718593721903070   8.333610063712062 
  9.957582439400783   7.186318235821109   8.335218380705475 
 -2.489425366300962   7.186318235821108   1.670738832139141 
 11.202235609649751   0.718623749417456   8.337740240503798 
  3.734078536549967   0.718566219194368   1.671453712078335 
  2.489394287531955   7.185940747103411   1.658801757409963 
  7.468206895734541   7.186266259285892   1.671453712078335 
  8.712727848176732   0.718609095616470   1.669761068283747 
  2.489394287531956   7.185940747103412   8.347155455434651 
 13.691743371122760   0.718609095616470   1.669761068283747 
 -1.244782607467648   9.342102731393064   8.335218380705475 
  0.000206871001146   2.874614434697961   8.334986613000588 
  4.978518689813866   2.874650815991601   8.347155455434651 
  3.734078536549906   9.341869868370322   8.334986613000588 
  8.712939680567501   9.342102731393064   8.335218380705475 
  9.957494419477143   2.874608040672130   8.336196144560867 
 -3.734078536549859   9.342108742426664   1.669477097435024 
  1.244600349155275   9.342008589058052   1.672347149132566 
  2.489638383285848   2.874650815991600   1.658801757409963 
  6.223556723944577   9.342008589058052   1.672347149132566 
  7.467950202098688   2.874614434697960   1.670970599844041 
 12.446976799822334   2.874608040672129   1.669761068283747 
 -1.244652358335758   5.030496426805017   8.333610063712062 
 -2.489435777716553  11.497905260065858   8.335218380705475 
  2.489311965249553  11.497881601477541   8.336196144560867 
  3.734078536549917   5.030366245922021   8.406488953181031 
  7.468268098887688  11.497915889910448   8.335507199563352 
 -4.978721295383147  11.497905260065858   1.670738832139141 
  8.712809431435696   5.030496426805017   8.333610063712062 
 -0.000111025787953  11.497915889910448   1.670450013281302 
  1.244954134267998   5.030507174671245   1.658801757409963 
 -0.000049822634602   7.186266259285892   1.671453712078335 
  6.223202938831822   5.030507174671245   1.658801757409963 
  4.978845107850391  11.497881601477541   1.669761068283747 
 11.202235609649701   5.030494447459106   1.670450013281302 
 -2.489425366300961   7.186318235821109   8.335218380705475 
  3.734078536549968   0.718566219194369   8.334503500766294 
  7.468206895734542   7.186266259285893   8.334503500766294 
  8.712727848176732   0.718609095616470   8.336196144560867 
 13.691743371122760   0.718609095616470   8.336196144560867 
 -0.007087795778585   1.430862314389888   5.002978606422314 
  3.734078536549875   7.918361203775462   5.002978606422314 
  4.993857561826203   1.397470332150575   5.002978606422314 
  8.723805976374869   7.911186726487931   5.002978606422314 
  9.960269951125531   1.435672956690692   5.002978606422314 
 -4.978808398433784  10.060753863253737  11.673616748318732 
  0.000054081861666  10.060763327050138  11.673616748318732 
  1.244667624371381   3.593104185652264  11.673616748318732 
  4.978755359406573  10.060747457573150  11.673616748318732 
  6.223489448728350   3.593104185652264  11.673616748318732 
 11.202235609649673   3.593096686789382  11.673616748318732 
 -2.491425626048112  10.059554734814183   5.002978606422314 
 -1.253766475343157   3.590173128108621   5.002978606422314 
  3.734078536549908   3.449969110386771   5.002978606422314 
  2.487399856985332  10.070063295267710   5.002978606422314 
  7.475615385592037  10.070103323926524   5.002978606422314 
  8.721923548442989   3.590173128108621   5.002978606422314 
 -6.223517972585704  12.216635158759445  11.673616748318732 
 -1.244639100514025  12.216635158759445  11.673616748318732 
 -0.000010987680906   5.748961201513733  11.673616748318732 
  4.978890580735114   5.749058814722776  11.673616748318732 
  3.734078536549912  12.216598187661523  11.673616748318732 
  9.957542427274049   5.748927741470333  11.673616748318732 
 -2.501230225917304   5.750763667385963   5.002978606422314 
 -3.734078536549911  12.203952774304195   5.002978606422314 
  1.246535248290758  12.217667451834066   5.002978606422314 
  2.365414469108229   5.820564813689654   5.002978606422314 
  6.221621824808934  12.217667451834066   5.002978606422314 
  7.510148199818877   5.755813563763662   5.002978606422314 
 -1.244660724093025   7.904842698279253  11.673616748318732 
 -0.000020972031537   1.437253892000990  11.673616748318732 
  3.734078536549869   7.904890366461808  11.673616748318732 
  4.978801812091514   1.437252380136982  11.673616748318732 
  8.712817797192743   7.904842698279253  11.673616748318732 
 -3.734078536549904   7.907216757651727   5.002978606422314 
  9.957537955583401   1.437250275052356  11.673616748318732 
  2.474299511273510   1.397470332150575   5.002978606422314 
  1.217787898557223   7.937814841851996   5.002978606422314 
  6.250369174542480   7.937814841851996   5.002978606422314 
  7.475244868878386   1.430862314389888   5.002978606422314 
  1.244712287860686   7.904885156115517  11.673616748318732 
 12.444201268173842   1.435672956690692   5.002978606422314 
 -2.489348674666066  10.060753863253737  11.673616748318732 
 -1.244697794888159   3.593097388192081  11.673616748318732 
  3.734078536549924   3.592981108320499  11.673616748318732 
  2.489401713693312  10.060747457573150  11.673616748318732 
  7.468102991238159  10.060763327050138  11.673616748318732 
  8.712854867988007   3.593097388192081  11.673616748318732 
 -4.976731447051695  10.059554734814183   5.002978606422314 
 -0.007458312492333  10.070103323926524   5.002978606422314 
  1.233001537047513   3.586368766995431   5.002978606422314 
  4.980757216114506  10.070063295267710   5.002978606422314 
  6.235155536052231   3.586368766995431   5.002978606422314 
 11.202235609649629   3.590991323612000   5.002978606422314 
 -2.489385354174122   5.748927741470333  11.673616748318732 
 -3.734078536549916  12.216640830721591  11.673616748318732 
  1.244711950294969  12.216614770245325  11.673616748318732 
  2.489266492364827   5.749058814722776  11.673616748318732 
  6.223445122804812  12.216614770245325  11.673616748318732 
 -6.227850449974947  12.205459235967556   5.002978606422314 
  7.468168060780772   5.748961201513733  11.673616748318732 
 -1.240306623124873  12.205459235967556   5.002978606422314 
 -0.041991126719073   5.755813563763662   5.002978606422314 
 -1.255648903275121   7.911186726487931   5.002978606422314 
  5.102742603991710   5.820564813689654   5.002978606422314 
  3.734078536549914  12.219752824384873   5.002978606422314 
  9.969387299017139   5.750763667385963   5.002978606422314 
 -3.734078536549911   7.904818500772662  11.673616748318732 
  2.489355261008229   1.437252380136982  11.673616748318732 
  6.223444785239078   7.904885156115517  11.673616748318732 
  7.468178045131370   1.437253892000990  11.673616748318732 
 12.446933263715984   1.437250275052356  11.673616748318732 
  1.224232329071879   0.692693472306357   5.002978606422314 
  5.015045480320897   7.268762782078681   5.002978606422314 
  6.243924744027952   0.692693472306357   5.002978606422314 
  9.965511475659120   7.187891493078967   5.002978606422314 
 11.202235609649751   0.718623749417456   5.002978606422314 
 -3.734078536549858   9.342108742426666  11.673616748318732 
  1.244626518699294   9.342436928036507  11.673616748318732 
  2.489243416327477   2.874272235788530  11.673616748318732 
  6.223530554400574   9.342436928036507  11.673616748318732 
  7.468514408242694   2.874288690128841  11.673616748318732 
 12.446739798303152   2.874339574598266  11.673616748318732 
 -1.250109606348841   9.348182849591360   5.002978606422314 
 -0.022124185369848   2.861721593290766   5.002978606422314 
  5.032103328719113   2.801818063129981   5.002978606422314 
  3.734078536550009   9.367655551184530   5.002978606422314 
  8.718266679448679   9.348182849591360   5.002978606422314 
  9.964579200515102   2.868651390825198   5.002978606422314 
 -4.978847145434702  11.497878134629003  11.673616748318732 
  0.000122994218484  11.498051001424031  11.673616748318732 
  1.244428790715650   5.030354413353058  11.673616748318732 
  6.223728282384291   5.030354413353058  11.673616748318732 
  4.978731110170101  11.498221083850831  11.673616748318732 
 11.202235609649815   5.030224224431749  11.673616748318732 
 -1.277379382444349   5.025612057461831   5.002978606422314 
 -2.486833740339420  11.490251884609677   5.002978606422314 
  2.490928184819466  11.506995526760102   5.002978606422314 
  7.464584529569352  11.500042599647969   5.002978606422314 
  8.745536455544286   5.025612057461831   5.002978606422314 
 -0.000243923194386   7.186378323296335  11.673616748318732 
  1.244441791850067   0.718402215903758  11.673616748318732 
  4.978893162161784   7.186472088624567  11.673616748318732 
  6.223715281249779   0.718402215903758  11.673616748318732 
  9.957668855743975   7.186222809197809  11.673616748318732 
 -2.497354402559272   7.187891493078967   5.002978606422314 
 11.202235609649751   0.718623749417457  11.673616748318732 
  3.734078536549856   0.690545127132329   5.002978606422314 
  2.453111592778923   7.268762782078681   5.002978606422314 
  7.492473873302001   7.200276805316996   5.002978606422314 
  8.721428848784578   0.715451820180828   5.002978606422314 
  2.489263910938024   7.186472088624567  11.673616748318732 
 13.683042370514910   0.715451820180828   5.002978606422314 
 -1.244743173759283   9.342225283453194  11.673616748318732 
 -0.000357335142875   2.874288690128841  11.673616748318732 
  4.978913656772358   2.874272235788530  11.673616748318732 
  3.734078536549911   9.342521357508554  11.673616748318732 
  8.712900246859139   9.342225283453194  11.673616748318732 
  9.957731420996470   2.874339574598266  11.673616748318732 
 -3.734078536549858   9.342108742426664   5.002978606422314 
  1.232466825033638   9.372793207997965   5.002978606422314 
  2.436053744380720   2.801818063129981   5.002978606422314 