Species order: X N B                    
   2.51242800000000     
     5.9449720136058266    0.0000000000000000    0.0000000000000000
    -2.9724860068029120    5.1484967885702053   -0.0000000000000001
     0.0000000000000000    0.0000000000000009    5.3101128803662583
   P    N    B 
     1   144   143
Direct
  0.4444444444444429  0.3888888888888857  0.3750000000000000
  0.1111188537943172  0.0555532341805051  0.1253513617107349
  0.6110990650669311  0.5555326145542320  0.1243360621670883
  0.4444343803861876  0.0555532341805051  0.1253513617107349
  0.9444502217385148  0.5555617975522116  0.1252308097515961
  0.7777777777777786  0.0555555555555571  0.1250417828740561
  0.1111111111111143  0.7222222222222214  0.6248637640116003
  0.4444343803861876  0.7222144795390184  0.6246486382892649
  0.2778007187791040  0.2222342682664046  0.6256639378329114
  0.7777800991528306  0.7222144795390184  0.6246486382892649
  0.6111018776416346  0.2222314556916999  0.6247518180195435
  0.9444520507429393  0.2222309613806542  0.6248424788779607
  0.2777715357811256  0.7222217575196404  0.1252308097515961
  0.1111295780500647  0.2222314556916999  0.1252481819804571
  0.4444335494872927  0.2222342682664046  0.1243360621670883
  0.6111018776416346  0.7222037552832719  0.1252481819804571
  0.9444502217385148  0.7222217575196404  0.1252308097515961
  0.7777789106377142  0.2222309613806542  0.1251575211220381
  0.1111115758136957  0.8888831115948138  0.6247691902484029
  0.4444345334059865  0.8888839333696611  0.6247908387662607
  0.2778007187791040  0.3888997838460359  0.6256639378329114
  0.6110990650669311  0.3888997838460359  0.6256639378329114
  0.7777789106377142  0.8888812825903893  0.6248424788779607
  0.9444493999636675  0.3888987999273421  0.6247908387662607
  0.1111188537943172  0.3888989529471410  0.1253513617107349
  0.2777715357811256  0.8888831115948138  0.1252308097515961
  0.6111023719526817  0.8888812825903893  0.1251575211220381
  0.4444444444444429  0.3888888888888857  0.1198886992248751
  0.9444493999636675  0.8888839333696611  0.1252091612337408
  0.7777800991528306  0.3888989529471410  0.1253513617107349
  0.2777755539969041  0.5555577793364321  0.6247156061741381
  0.1111188537943172  0.0555532341805051  0.6246486382892649
  0.6110990650669311  0.5555326145542320  0.6256639378329114
  0.4444343803861876  0.0555532341805051  0.6246486382892649
  0.9444502217385148  0.5555617975522116  0.6247691902484029
  0.1111115758136957  0.5555617975522116  0.1252308097515961
  0.7777777777777786  0.0555555555555571  0.6249582171259431
  0.2777755539969041  0.0555511079938008  0.1252843938258620
  0.4444335494872927  0.5555326145542320  0.1243360621670883
  0.7777822253395347  0.5555577793364321  0.1252843938258620
  0.6111023719526817  0.0555544226956214  0.1251575211220381
  0.4444335494872927  0.5555326145542320  0.6256639378329114
  0.9444520507429393  0.0555544226956214  0.1251575211220381
  0.2777715357811256  0.7222217575196404  0.6247691902484029
  0.1111295780500647  0.2222314556916999  0.6247518180195435
  0.4444335494872927  0.2222342682664046  0.6256639378329114
  0.6111018776416346  0.7222037552832719  0.6247518180195435
  0.9444502217385148  0.7222217575196404  0.6247691902484029
  0.7777789106377142  0.2222309613806542  0.6248424788779607
  0.1111111111111143  0.7222222222222214  0.1251362359883914
  0.4444343803861876  0.7222144795390184  0.1253513617107349
  0.2778007187791040  0.2222342682664046  0.1243360621670883
  0.7777800991528306  0.7222144795390184  0.1253513617107349
  0.6111018776416346  0.2222314556916999  0.1252481819804571
  0.9444520507429393  0.2222309613806542  0.1251575211220381
  0.1111188537943172  0.3888989529471410  0.6246486382892649
  0.2777715357811256  0.8888831115948138  0.6247691902484029
  0.6111023719526817  0.8888812825903893  0.6248424788779607
  0.4444444444444429  0.3888888888888857  0.6301113007751247
  0.9444493999636675  0.8888839333696611  0.6247908387662607
  0.1111115758136957  0.8888831115948138  0.1252308097515961
  0.7777800991528306  0.3888989529471410  0.6246486382892649
  0.4444345334059865  0.8888839333696611  0.1252091612337408
  0.2778007187791040  0.3888997838460359  0.1243360621670883
  0.2777755539969041  0.5555577793364321  0.1252843938258620
  0.6110990650669311  0.3888997838460359  0.1243360621670883
  0.7777789106377142  0.8888812825903893  0.1251575211220381
  0.9444493999636675  0.3888987999273421  0.1252091612337408
  0.1111115758136957  0.5555617975522116  0.6247691902484029
  0.2777755539969041  0.0555511079938008  0.6247156061741381
  0.7777822253395347  0.5555577793364321  0.6247156061741381
  0.6111023719526817  0.0555544226956214  0.6248424788779607
  0.9444520507429393  0.0555544226956214  0.6248424788779607
  0.0548342073279235  0.1106174835772957  0.3750000000000000
  0.5560773848080567  0.6121547696161200  0.3750000000000000
  0.3883613706500512  0.1080360073515095  0.3750000000000000
  0.8898669131101424  0.6116001232217410  0.3750000000000000
  0.7223439473442194  0.1109893859891168  0.3750000000000000
  0.0555539033689520  0.7777794299643848  0.8750000000000000
  0.3888937016275243  0.7777801615940692  0.8750000000000000
  0.2222199707836610  0.2777766520585019  0.8750000000000000
  0.7222217279776427  0.7777789347523304  0.8750000000000000
  0.5555566812748343  0.2777766520585019  0.8750000000000000
  0.8888880361672051  0.2777760723344198  0.8750000000000000
  0.2220401215160846  0.7776867274247099  0.3750000000000000
  0.0548342073279235  0.2775500570839630  0.3750000000000000
  0.3833555638346338  0.2667111276692694  0.3750000000000000
  0.5557832762493710  0.7784991260054109  0.3750000000000000
  0.8897504511720298  0.7785022205515906  0.3750000000000000
  0.7227158497560404  0.2775500570839630  0.3750000000000000
  0.0555531717392657  0.9444468733667843  0.8750000000000000
  0.3888937016275243  0.9444468733667843  0.8750000000000000
  0.2222203735864948  0.4444422184437198  0.8750000000000000
  0.5555661961698641  0.4444497647515928  0.8750000000000000
  0.7222220075976664  0.9444440151953331  0.8750000000000000
  0.8888864599665443  0.4444396317058043  0.8750000000000000
  0.0548311127817469  0.4445815639537771  0.3750000000000000
  0.2217332101115934  0.9434664202231862  0.3750000000000000
  0.5557200229742330  0.9445266781537855  0.3750000000000000
  0.3833555638346338  0.4499777694986948  0.3750000000000000
  0.8888066551795430  0.9445266781537855  0.3750000000000000
  0.7252973259818242  0.4449719626832774  0.3750000000000000
  0.2222236559281694  0.6111096774051656  0.8750000000000000
  0.0555543985810044  0.1111116053556942  0.8750000000000000
  0.5555566812748343  0.6111133625496747  0.8750000000000000
  0.3888911148896088  0.1111114884761099  0.8750000000000000
  0.8888860214769893  0.6111096774051656  0.8750000000000000
  0.0556466059086255  0.6112932118172515  0.3750000000000000
  0.7222220075976664  0.1111113257356690  0.8750000000000000
  0.2196746367014510  0.1080360073515095  0.3750000000000000
  0.3883613706500512  0.6136586966318840  0.3750000000000000
  0.7252973259818242  0.6136586966318840  0.3750000000000000
  0.5557832762493710  0.1106174835772957  0.3750000000000000
  0.3888911148896088  0.6111129597468413  0.8750000000000000
  0.8886454386448901  0.1109893859891168  0.3750000000000000
  0.2222255265954315  0.7777794299643848  0.8750000000000000
  0.0555543985810044  0.2777761265586465  0.8750000000000000
  0.3888835685817358  0.2777671371634707  0.8750000000000000
  0.5555572067746899  0.7777789347523304  0.8750000000000000
  0.8888864599665443  0.7777801615940692  0.8750000000000000
  0.7222217279776427  0.2777761265586465  0.8750000000000000
  0.0556466059086255  0.7776867274247099  0.3750000000000000
  0.3887517693795515  0.7785022205515906  0.3750000000000000
  0.2211785637172157  0.2772559485252792  0.3750000000000000
  0.7227158497560404  0.7784991260054109  0.3750000000000000
  0.5560773848080567  0.2772559485252792  0.3750000000000000
  0.8888066551795430  0.2776133103591019  0.3750000000000000
  0.0555531717392657  0.4444396317058043  0.8750000000000000
  0.2222236559281694  0.9444473118563393  0.8750000000000000
  0.5555572609989141  0.9444452971661235  0.8750000000000000
  0.3888835685817358  0.4444497647515928  0.8750000000000000
  0.8888880361672051  0.9444452971661235  0.8750000000000000
  0.0548311127817469  0.9435828821612988  0.3750000000000000
  0.7222218448572267  0.4444422184437198  0.8750000000000000
  0.3887517693795515  0.9435828821612988  0.3750000000000000
  0.2196746367014510  0.4449719626832774  0.3750000000000000
  0.2217332101115934  0.6116001232217410  0.3750000000000000
  0.5666222056640682  0.4499777694986948  0.3750000000000000
  0.7223439473442194  0.9446878946884385  0.3750000000000000
  0.8897504511720298  0.4445815639537771  0.3750000000000000
  0.0555539033689520  0.6111078067379035  0.8750000000000000
  0.2222203735864948  0.1111114884761099  0.8750000000000000
  0.7222218448572267  0.6111129597468413  0.8750000000000000
  0.5555572067746899  0.1111116053556942  0.8750000000000000
  0.8888893181379955  0.1111113257356690  0.8750000000000000
  0.1087389483025233  0.0535509308102928  0.3750000000000000
  0.6167296388562710  0.5619354424165488  0.3750000000000000
  0.4448119825077698  0.0535509308102928  0.3750000000000000
  0.9450418909196239  0.5556834233418734  0.3750000000000000
  0.7777777777777786  0.0555555555555571  0.3750000000000000
  0.1111111111111143  0.7222222222222214  0.8750000000000000
  0.4444526895329996  0.7222475936824525  0.8750000000000000
  0.2777596416877600  0.2222050008875843  0.8750000000000000
  0.7777949041494548  0.7222475936824525  0.8750000000000000
  0.6111270603892434  0.2222062729440918  0.8750000000000000
  0.9444258059495210  0.2222102067341603  0.8750000000000000
  0.2776499099914618  0.7226918009110859  0.3750000000000000
  0.1091361316390819  0.2212347324862017  0.3750000000000000
  0.4452058035602774  0.2166036944770641  0.3750000000000000
  0.6120986008471333  0.7241972016942543  0.3750000000000000
  0.9450418909196239  0.7226918009110859  0.3750000000000000
  0.7780229941250910  0.2217704631132863  0.3750000000000000
  0.1111021015265025  0.8888810145743417  0.8750000000000000
  0.4444554238795075  0.8888943786064141  0.8750000000000000
  0.2777596416877600  0.3888879741335041  0.8750000000000000
  0.6111283324457507  0.3888879741335041  0.8750000000000000
  0.7777844007846481  0.8889075273838076  0.8750000000000000
  0.9444389547269145  0.3888779094538211  0.8750000000000000
  0.1087389483025233  0.3885213508255588  0.3750000000000000
  0.2776499099914618  0.8882914424137047  0.3750000000000000
  0.6115628702200485  0.8895858643451324  0.3750000000000000
  0.9442849877228127  0.8890483456105159  0.3750000000000000
  0.7797824025230434  0.3885213508255588  0.3750000000000000
  0.2777668905226415  0.5555664428106951  0.8750000000000000
  0.1110857396508817  0.0555384291838811  0.8750000000000000
  0.6111283324457507  0.5555736916455767  0.8750000000000000
  0.4444526895329996  0.0555384291838811  0.8750000000000000
  0.9444523187589869  0.5555544202854898  0.8750000000000000
  0.1106415324222497  0.5556834233418734  0.3750000000000000
  0.7777777777777786  0.0555555555555571  0.8750000000000000
  0.2766924229856812  0.0533848459713696  0.3750000000000000
  0.4452058035602774  0.5619354424165488  0.3750000000000000
  0.7799484873619662  0.5566409103476539  0.3750000000000000
  0.6115628702200485  0.0553103392082453  0.3750000000000000
  0.4444453591998245  0.5555736916455767  0.8750000000000000
  0.9437474689881962  0.0553103392082453  0.3750000000000000
  0.2777789130478464  0.7222312318068321  0.8750000000000000
  0.1110792125548482  0.2222062729440918  0.8750000000000000
  0.4444453591998245  0.2222050008875843  0.8750000000000000
  0.6111270603892434  0.7222541207784875  0.8750000000000000
  0.9444523187589869  0.7222312318068321  0.8750000000000000
  0.7777844007846481  0.2222102067341603  0.8750000000000000
  0.1111111111111143  0.7222222222222214  0.3750000000000000
  0.4448119825077698  0.7245943850308127  0.3750000000000000
  0.2713978909167871  0.2166036944770641  0.3750000000000000
  0.7797824025230434  0.7245943850308127  0.3750000000000000
  0.6120986008471333  0.2212347324862017  0.3750000000000000
  0.9437474689881962  0.2217704631132863  0.3750000000000000
  0.1110857396508817  0.3888806438003290  0.8750000000000000
  0.2777789130478464  0.8888810145743417  0.8750000000000000
  0.6111231265991761  0.8889075273838076  0.8750000000000000
  0.4444444444444429  0.3888888888888857  0.8750000000000000
  0.9444389547269145  0.8888943786064141  0.8750000000000000
  0.1106415324222497  0.8882914424137047  0.3750000000000000
  0.7777949041494548  0.3888806438003290  0.8750000000000000
  0.4447633578877053  0.8890483456105159  0.3750000000000000
  0.2713978909167871  0.3881275297730511  0.3750000000000000
  0.2766924229856812  0.5566409103476539  0.3750000000000000
  0.6167296388562710  0.3881275297730511  0.3750000000000000
  0.7780229941250910  0.8895858643451324  0.3750000000000000
  0.9442849877228127  0.3885699754456233  0.3750000000000000
  0.1111021015265025  0.5555544202854898  0.8750000000000000
  0.2777668905226415  0.0555337810452830  0.8750000000000000
  0.7777995522880528  0.5555664428106951  0.8750000000000000
  0.6111231265991761  0.0555489325486886  0.8750000000000000
  0.9444258059495210  0.0555489325486886  0.8750000000000000
  0.0554912112333527  0.1110563386495206  0.1249756650154880
  0.5556024427099489  0.6112048854198885  0.1240786174930292
  0.3888472318594686  0.1109897813010050  0.1246681972833883
  0.8889828022488130  0.6111580677910770  0.1250030076950564
  0.7222321638451252  0.1111011694882098  0.1249001563283249
  0.0555691314154238  0.7777642019179118  0.6250350562137742
  0.3888586795967154  0.7778059992363690  0.6249785650815848
  0.2221284479134461  0.2777308906233879  0.6259213825069710
  0.7222769946838152  0.7778421220999828  0.6250243349845117
  0.5556024427099489  0.2777308906233879  0.6259213825069710
  0.8888917031520430  0.2777834063040849  0.6250460483982544
  0.2221950705024953  0.7777642019179118  0.1249649437862270
  0.0554912112333527  0.2777682059171601  0.1249756650154880
  0.3888557154909078  0.2777114309818224  0.1220156372270310
  0.5555651274161755  0.7778421220999828  0.1249756650154880
  0.8889473196396477  0.7778059992363690  0.1250214349184157
  0.7222769946838152  0.2777682059171601  0.1249756650154880
  0.0555273340969662  0.9443860136936809  0.6249785650815848
  0.3888586795967154  0.9443860136936809  0.6249785650815848
  0.2221425494415296  0.4444861014738600  0.6253318027166120
  0.5556219023515130  0.4444776178424208  0.6279843627729700
  0.7222321638451252  0.9444643276902455  0.6250998436716748
  0.8889473196396477  0.4444746537366132  0.6249785650815848
  0.0555273340969662  0.4444746537366132  0.1250214349184157
  0.2221752655422576  0.9443505310845156  0.1250030076950564
  0.5555499270292523  0.9444416301812856  0.1249539516017456
  0.3888557154909078  0.4444776178424208  0.1220156372270310
  0.8888917031520430  0.9444416301812856  0.1249539516017456
  0.7223435520323301  0.4444861014738600  0.1246681972833883
  0.2221752655422576  0.6111580677910770  0.6249969923049439
  0.0554912112333527  0.1110563386495206  0.6250243349845117
  0.5556024427099489  0.6112048854198885  0.6259213825069710
  0.3888472318594686  0.1109897813010050  0.6253318027166120
  0.8889828022488130  0.6111580677910770  0.6249969923049439
  0.0555691314154238  0.6111382628308408  0.1249649437862270
  0.7222321638451252  0.1111011694882098  0.6250998436716748
  0.2221425494415296  0.1109897813010050  0.1246681972833883
  0.3888472318594686  0.6111907838918067  0.1246681972833883
  0.7223435520323301  0.6111907838918067  0.1246681972833883
  0.5555651274161755  0.1110563386495206  0.1249756650154880
  0.3888472318594686  0.6111907838918067  0.6253318027166120
  0.8888690056430831  0.1111011694882098  0.1249001563283249
  0.2221950705024953  0.7777642019179118  0.6250350562137742
  0.0554912112333527  0.2777682059171601  0.6250243349845117
  0.3888557154909078  0.2777114309818224  0.6279843627729700
  0.5555651274161755  0.7778421220999828  0.6250243349845117
  0.8889473196396477  0.7778059992363690  0.6249785650815848
  0.7222769946838152  0.2777682059171601  0.6250243349845117
  0.0555691314154238  0.7777642019179118  0.1249649437862270
  0.3888586795967154  0.7778059992363690  0.1250214349184157
  0.2221284479134461  0.2777308906233879  0.1240786174930292
  0.7222769946838152  0.7778421220999828  0.1249756650154880
  0.5556024427099489  0.2777308906233879  0.1240786174930292
  0.8888917031520430  0.2777834063040849  0.1249539516017456
  0.0555273340969662  0.4444746537366132  0.6249785650815848
  0.2221752655422576  0.9443505310845156  0.6249969923049439
  0.5555499270292523  0.9444416301812856  0.6250460483982544
  0.3888557154909078  0.4444776178424208  0.6279843627729700
  0.8888917031520430  0.9444416301812856  0.6250460483982544
  0.0555273340969662  0.9443860136936809  0.1250214349184157
  0.7223435520323301  0.4444861014738600  0.6253318027166120
  0.3888586795967154  0.9443860136936809  0.1250214349184157
  0.2221425494415296  0.4444861014738600  0.1246681972833883
  0.2221752655422576  0.6111580677910770  0.1250030076950564
  0.5556219023515130  0.4444776178424208  0.1220156372270310
  0.7222321638451252  0.9444643276902455  0.1249001563283249
  0.8889473196396477  0.4444746537366132  0.1250214349184157
  0.0555691314154238  0.6111382628308408  0.6250350562137742
  0.2221425494415296  0.1109897813010050  0.6253318027166120
  0.7223435520323301  0.6111907838918067  0.6253318027166120
  0.5555651274161755  0.1110563386495206  0.6250243349845117
  0.8888690056430831  0.1111011694882098  0.6250998436716748
 
  0.00000000E+00  0.00000000E+00  0.00000000E+00
  0.00000000E+00  0.00000000E+00  0.00000000E+00
  0.00000000E+00  0.00000000E+00  0.00000000E+00
  0.00000000E+00  0.00000000E+00  0.00000000E+00
  0.00000000E+00  0.00000000E+00  0.00000000E+00
  0.00000000E+00  0.00000000E+00  0.00000000E+00
  0.00000000E+00  0.00000000E+00  0.00000000E+00
  0.00000000E+00  0.00000000E+00  0.00000000E+00
  0.00000000E+00  0.00000000E+00  0.00000000E+00
  0.00000000E+00  0.00000000E+00  0.00000000E+00
  0.00000000E+00  0.00000000E+00  0.00000000E+00
  0.00000000E+00  0.00000000E+00  0.00000000E+00
  0.00000000E+00  0.00000000E+00  0.00000000E+00
  0.00000000E+00  0.00000000E+00  0.00000000E+00
  0.00000000E+00  0.00000000E+00  0.00000000E+00
  0.00000000E+00  0.00000000E+00  0.00000000E+00
  0.00000000E+00  0.00000000E+00  0.00000000E+00
  0.00000000E+00  0.00000000E+00  0.00000000E+00
  0.00000000E+00  0.00000000E+00  0.00000000E+00
  0.00000000E+00  0.00000000E+00  0.00000000E+00
  0.00000000E+00  0.00000000E+00  0.00000000E+00
  0.00000000E+00  0.00000000E+00  0.00000000E+00
  0.00000000E+00  0.00000000E+00  0.00000000E+00
  0.00000000E+00  0.00000000E+00  0.00000000E+00
  0.00000000E+00  0.00000000E+00  0.00000000E+00
  0.00000000E+00  0.00000000E+00  0.00000000E+00
  0.00000000E+00  0.00000000E+00  0.00000000E+00
  0.00000000E+00  0.00000000E+00  0.00000000E+00
  0.00000000E+00  0.00000000E+00  0.00000000E+00
  0.00000000E+00  0.00000000E+00  0.00000000E+00
  0.00000000E+00  0.00000000E+00  0.00000000E+00
  0.00000000E+00  0.00000000E+00  0.00000000E+00
  0.00000000E+00  0.00000000E+00  0.00000000E+00
  0.00000000E+00  0.00000000E+00  0.00000000E+00
  0.00000000E+00  0.00000000E+00  0.00000000E+00
  0.00000000E+00  0.00000000E+00  0.00000000E+00
  0.00000000E+00  0.00000000E+00  0.00000000E+00
  0.00000000E+00  0.00000000E+00  0.00000000E+00
  0.00000000E+00  0.00000000E+00  0.00000000E+00
  0.00000000E+00  0.00000000E+00  0.00000000E+00
  0.00000000E+00  0.00000000E+00  0.00000000E+00
  0.00000000E+00  0.00000000E+00  0.00000000E+00
  0.00000000E+00  0.00000000E+00  0.00000000E+00
  0.00000000E+00  0.00000000E+00  0.00000000E+00
  0.00000000E+00  0.00000000E+00  0.00000000E+00
  0.00000000E+00  0.00000000E+00  0.00000000E+00
  0.00000000E+00  0.00000000E+00  0.00000000E+00
  0.00000000E+00  0.00000000E+00  0.00000000E+00
  0.00000000E+00  0.00000000E+00  0.00000000E+00
  0.00000000E+00  0.00000000E+00  0.00000000E+00
  0.00000000E+00  0.00000000E+00  0.00000000E+00
  0.00000000E+00  0.00000000E+00  0.00000000E+00
  0.00000000E+00  0.00000000E+00  0.00000000E+00
  0.00000000E+00  0.00000000E+00  0.00000000E+00
  0.00000000E+00  0.00000000E+00  0.00000000E+00
  0.00000000E+00  0.00000000E+00  0.00000000E+00
  0.00000000E+00  0.00000000E+00  0.00000000E+00
  0.00000000E+00  0.00000000E+00  0.00000000E+00
  0.00000000E+00  0.00000000E+00  0.00000000E+00
  0.00000000E+00  0.00000000E+00  0.00000000E+00
  0.00000000E+00  0.00000000E+00  0.00000000E+00
  0.00000000E+00  0.00000000E+00  0.00000000E+00
  0.00000000E+00  0.00000000E+00  0.00000000E+00
  0.00000000E+00  0.00000000E+00  0.00000000E+00
  0.00000000E+00  0.00000000E+00  0.00000000E+00
  0.00000000E+00  0.00000000E+00  0.00000000E+00
  0.00000000E+00  0.00000000E+00  0.00000000E+00
  0.00000000E+00  0.00000000E+00  0.00000000E+00
  0.00000000E+00  0.00000000E+00  0.00000000E+00
  0.00000000E+00  0.00000000E+00  0.00000000E+00
  0.00000000E+00  0.00000000E+00  0.00000000E+00
  0.00000000E+00  0.00000000E+00  0.00000000E+00
  0.00000000E+00  0.00000000E+00  0.00000000E+00
  0.00000000E+00  0.00000000E+00  0.00000000E+00
  0.00000000E+00  0.00000000E+00  0.00000000E+00
  0.00000000E+00  0.00000000E+00  0.00000000E+00
  0.00000000E+00  0.00000000E+00  0.00000000E+00
  0.00000000E+00  0.00000000E+00  0.00000000E+00
  0.00000000E+00  0.00000000E+00  0.00000000E+00
  0.00000000E+00  0.00000000E+00  0.00000000E+00
  0.00000000E+00  0.00000000E+00  0.00000000E+00
  0.00000000E+00  0.00000000E+00  0.00000000E+00
  0.00000000E+00  0.00000000E+00  0.00000000E+00
  0.00000000E+00  0.00000000E+00  0.00000000E+00
  0.00000000E+00  0.00000000E+00  0.00000000E+00
  0.00000000E+00  0.00000000E+00  0.00000000E+00
  0.00000000E+00  0.00000000E+00  0.00000000E+00
  0.00000000E+00  0.00000000E+00  0.00000000E+00
  0.00000000E+00  0.00000000E+00  0.00000000E+00
  0.00000000E+00  0.00000000E+00  0.00000000E+00
  0.00000000E+00  0.00000000E+00  0.00000000E+00
  0.00000000E+00  0.00000000E+00  0.00000000E+00
  0.00000000E+00  0.00000000E+00  0.00000000E+00
  0.00000000E+00  0.00000000E+00  0.00000000E+00
  0.00000000E+00  0.00000000E+00  0.00000000E+00
  0.00000000E+00  0.00000000E+00  0.00000000E+00
  0.00000000E+00  0.00000000E+00  0.00000000E+00
  0.00000000E+00  0.00000000E+00  0.00000000E+00
  0.00000000E+00  0.00000000E+00  0.00000000E+00
  0.00000000E+00  0.00000000E+00  0.00000000E+00
  0.00000000E+00  0.00000000E+00  0.00000000E+00
  0.00000000E+00  0.00000000E+00  0.00000000E+00
  0.00000000E+00  0.00000000E+00  0.00000000E+00
  0.00000000E+00  0.00000000E+00  0.00000000E+00
  0.00000000E+00  0.00000000E+00  0.00000000E+00
  0.00000000E+00  0.00000000E+00  0.00000000E+00
  0.00000000E+00  0.00000000E+00  0.00000000E+00
  0.00000000E+00  0.00000000E+00  0.00000000E+00
  0.00000000E+00  0.00000000E+00  0.00000000E+00
  0.00000000E+00  0.00000000E+00  0.00000000E+00
  0.00000000E+00  0.00000000E+00  0.00000000E+00
  0.00000000E+00  0.00000000E+00  0.00000000E+00
  0.00000000E+00  0.00000000E+00  0.00000000E+00
  0.00000000E+00  0.00000000E+00  0.00000000E+00
  0.00000000E+00  0.00000000E+00  0.00000000E+00
  0.00000000E+00  0.00000000E+00  0.00000000E+00
  0.00000000E+00  0.00000000E+00  0.00000000E+00
  0.00000000E+00  0.00000000E+00  0.00000000E+00
  0.00000000E+00  0.00000000E+00  0.00000000E+00
  0.00000000E+00  0.00000000E+00  0.00000000E+00
  0.00000000E+00  0.00000000E+00  0.00000000E+00
  0.00000000E+00  0.00000000E+00  0.00000000E+00
  0.00000000E+00  0.00000000E+00  0.00000000E+00
  0.00000000E+00  0.00000000E+00  0.00000000E+00
  0.00000000E+00  0.00000000E+00  0.00000000E+00
  0.00000000E+00  0.00000000E+00  0.00000000E+00
  0.00000000E+00  0.00000000E+00  0.00000000E+00
  0.00000000E+00  0.00000000E+00  0.00000000E+00
  0.00000000E+00  0.00000000E+00  0.00000000E+00
  0.00000000E+00  0.00000000E+00  0.00000000E+00
  0.00000000E+00  0.00000000E+00  0.00000000E+00
  0.00000000E+00  0.00000000E+00  0.00000000E+00
  0.00000000E+00  0.00000000E+00  0.00000000E+00
  0.00000000E+00  0.00000000E+00  0.00000000E+00
  0.00000000E+00  0.00000000E+00  0.00000000E+00
  0.00000000E+00  0.00000000E+00  0.00000000E+00
  0.00000000E+00  0.00000000E+00  0.00000000E+00
  0.00000000E+00  0.00000000E+00  0.00000000E+00
  0.00000000E+00  0.00000000E+00  0.00000000E+00
  0.00000000E+00  0.00000000E+00  0.00000000E+00
  0.00000000E+00  0.00000000E+00  0.00000000E+00
  0.00000000E+00  0.00000000E+00  0.00000000E+00
  0.00000000E+00  0.00000000E+00  0.00000000E+00
  0.00000000E+00  0.00000000E+00  0.00000000E+00
  0.00000000E+00  0.00000000E+00  0.00000000E+00
  0.00000000E+00  0.00000000E+00  0.00000000E+00
  0.00000000E+00  0.00000000E+00  0.00000000E+00
  0.00000000E+00  0.00000000E+00  0.00000000E+00
  0.00000000E+00  0.00000000E+00  0.00000000E+00
  0.00000000E+00  0.00000000E+00  0.00000000E+00
  0.00000000E+00  0.00000000E+00  0.00000000E+00
  0.00000000E+00  0.00000000E+00  0.00000000E+00
  0.00000000E+00  0.00000000E+00  0.00000000E+00
  0.00000000E+00  0.00000000E+00  0.00000000E+00
  0.00000000E+00  0.00000000E+00  0.00000000E+00
  0.00000000E+00  0.00000000E+00  0.00000000E+00
  0.00000000E+00  0.00000000E+00  0.00000000E+00
  0.00000000E+00  0.00000000E+00  0.00000000E+00
  0.00000000E+00  0.00000000E+00  0.00000000E+00
  0.00000000E+00  0.00000000E+00  0.00000000E+00
  0.00000000E+00  0.00000000E+00  0.00000000E+00
  0.00000000E+00  0.00000000E+00  0.00000000E+00
  0.00000000E+00  0.00000000E+00  0.00000000E+00
  0.00000000E+00  0.00000000E+00  0.00000000E+00
  0.00000000E+00  0.00000000E+00  0.00000000E+00
  0.00000000E+00  0.00000000E+00  0.00000000E+00
  0.00000000E+00  0.00000000E+00  0.00000000E+00
  0.00000000E+00  0.00000000E+00  0.00000000E+00
  0.00000000E+00  0.00000000E+00  0.00000000E+00
  0.00000000E+00  0.00000000E+00  0.00000000E+00
  0.00000000E+00  0.00000000E+00  0.00000000E+00
  0.00000000E+00  0.00000000E+00  0.00000000E+00
  0.00000000E+00  0.00000000E+00  0.00000000E+00
  0.00000000E+00  0.00000000E+00  0.00000000E+00
  0.00000000E+00  0.00000000E+00  0.00000000E+00
  0.00000000E+00  0.00000000E+00  0.00000000E+00
  0.00000000E+00  0.00000000E+00  0.00000000E+00
  0.00000000E+00  0.00000000E+00  0.00000000E+00
  0.00000000E+00  0.00000000E+00  0.00000000E+00
  0.00000000E+00  0.00000000E+00  0.00000000E+00
  0.00000000E+00  0.00000000E+00  0.00000000E+00
  0.00000000E+00  0.00000000E+00  0.00000000E+00
  0.00000000E+00  0.00000000E+00  0.00000000E+00
  0.00000000E+00  0.00000000E+00  0.00000000E+00
  0.00000000E+00  0.00000000E+00  0.00000000E+00
  0.00000000E+00  0.00000000E+00  0.00000000E+00
  0.00000000E+00  0.00000000E+00  0.00000000E+00
  0.00000000E+00  0.00000000E+00  0.00000000E+00
  0.00000000E+00  0.00000000E+00  0.00000000E+00
  0.00000000E+00  0.00000000E+00  0.00000000E+00
  0.00000000E+00  0.00000000E+00  0.00000000E+00
  0.00000000E+00  0.00000000E+00  0.00000000E+00
  0.00000000E+00  0.00000000E+00  0.00000000E+00
  0.00000000E+00  0.00000000E+00  0.00000000E+00
  0.00000000E+00  0.00000000E+00  0.00000000E+00
  0.00000000E+00  0.00000000E+00  0.00000000E+00
  0.00000000E+00  0.00000000E+00  0.00000000E+00
  0.00000000E+00  0.00000000E+00  0.00000000E+00
  0.00000000E+00  0.00000000E+00  0.00000000E+00
  0.00000000E+00  0.00000000E+00  0.00000000E+00
  0.00000000E+00  0.00000000E+00  0.00000000E+00
  0.00000000E+00  0.00000000E+00  0.00000000E+00
  0.00000000E+00  0.00000000E+00  0.00000000E+00
  0.00000000E+00  0.00000000E+00  0.00000000E+00
  0.00000000E+00  0.00000000E+00  0.00000000E+00
  0.00000000E+00  0.00000000E+00  0.00000000E+00
  0.00000000E+00  0.00000000E+00  0.00000000E+00
  0.00000000E+00  0.00000000E+00  0.00000000E+00
  0.00000000E+00  0.00000000E+00  0.00000000E+00
  0.00000000E+00  0.00000000E+00  0.00000000E+00
  0.00000000E+00  0.00000000E+00  0.00000000E+00
  0.00000000E+00  0.00000000E+00  0.00000000E+00
  0.00000000E+00  0.00000000E+00  0.00000000E+00
  0.00000000E+00  0.00000000E+00  0.00000000E+00
  0.00000000E+00  0.00000000E+00  0.00000000E+00
  0.00000000E+00  0.00000000E+00  0.00000000E+00
  0.00000000E+00  0.00000000E+00  0.00000000E+00
  0.00000000E+00  0.00000000E+00  0.00000000E+00
  0.00000000E+00  0.00000000E+00  0.00000000E+00
  0.00000000E+00  0.00000000E+00  0.00000000E+00
  0.00000000E+00  0.00000000E+00  0.00000000E+00
  0.00000000E+00  0.00000000E+00  0.00000000E+00
  0.00000000E+00  0.00000000E+00  0.00000000E+00
  0.00000000E+00  0.00000000E+00  0.00000000E+00
  0.00000000E+00  0.00000000E+00  0.00000000E+00
  0.00000000E+00  0.00000000E+00  0.00000000E+00
  0.00000000E+00  0.00000000E+00  0.00000000E+00
  0.00000000E+00  0.00000000E+00  0.00000000E+00
  0.00000000E+00  0.00000000E+00  0.00000000E+00
  0.00000000E+00  0.00000000E+00  0.00000000E+00
  0.00000000E+00  0.00000000E+00  0.00000000E+00
  0.00000000E+00  0.00000000E+00  0.00000000E+00
  0.00000000E+00  0.00000000E+00  0.00000000E+00
  0.00000000E+00  0.00000000E+00  0.00000000E+00
  0.00000000E+00  0.00000000E+00  0.00000000E+00
  0.00000000E+00  0.00000000E+00  0.00000000E+00
  0.00000000E+00  0.00000000E+00  0.00000000E+00
  0.00000000E+00  0.00000000E+00  0.00000000E+00
  0.00000000E+00  0.00000000E+00  0.00000000E+00
  0.00000000E+00  0.00000000E+00  0.00000000E+00
  0.00000000E+00  0.00000000E+00  0.00000000E+00
  0.00000000E+00  0.00000000E+00  0.00000000E+00
  0.00000000E+00  0.00000000E+00  0.00000000E+00
  0.00000000E+00  0.00000000E+00  0.00000000E+00
  0.00000000E+00  0.00000000E+00  0.00000000E+00
  0.00000000E+00  0.00000000E+00  0.00000000E+00
  0.00000000E+00  0.00000000E+00  0.00000000E+00