 B Sb N 
 1.0
 17.527899999999772   0.000000000000000   0.000000000000000
 -8.763949999999658  15.179606674993195   0.000000000000000
  0.000000000000001   0.000000000000002  15.000000000000000
 B Sb N 
  48   1  48
Cartesian
  7.554627860085240  14.495960309417081   1.658008602548910 
 15.048457426953700   1.484749823269826   1.660331395008360 
 13.786443379777154   3.649567442253685   1.661622837394005 
 12.520808875829783   5.804172049926916   1.660793957231625 
 11.247840603777986   7.954656649096512   1.662010648701630 
 10.038957304420801  10.119737783328796   1.663510507549860 
  8.816979729476579  12.321610940360742   1.660306121840565 
 -7.475762606429730  14.421548904968800   1.659605229527820 
  0.018554613338489   1.406647357174301   1.662765794409315 
 -1.227889981874357   3.617424394226017   1.663010383827165 
 -2.473853751221852   5.794007396221571   1.660635738707070 
 -3.736377910297654   7.949835072746343   1.659956355553140 
 -4.978022191141898  10.101073018517868   1.661202947030775 
 -6.222239104400286  12.258790517965091   1.660138719264960 
 -4.967528274204088  14.387712785048313   1.660017783352545 
  2.525554004392874   1.328544943331249   1.664832163528320 
  1.250648995151349   3.477118799459197   1.662679300562775 
  0.059303683352096   5.765570773690767   1.658306075955030 
 -1.205006634790453   7.952737933733999   1.660411148096880 
 -2.458604040544857  10.108145618789880   1.660318760466495 
 -3.713129442986105  12.251601886979513   1.658925822321060 
 -2.455608606057320  14.407412719904665   1.659247930179750 
  5.065594314707456   1.320278095088223   1.665162611068860 
  3.808042687474852   3.341818388902578   1.662972780821250 
  2.566546091052406   5.333628253950454   1.649986289114145 
  1.233068431423550   8.123621223702399   1.662188963029965 
  0.037249747387485  10.191644333497035   1.664478653952300 
 -1.211385279311655  12.295573576199622   1.660068255273525 
  0.042071599539625  14.467719362948399   1.659324285468405 
  7.551147091698279   1.416757192421272   1.660985554086945 
  6.285321448640531   3.531812483322235   1.666605379453620 
  4.967040452127312   5.591196077042554   1.656678552450165 
  2.613068491391427  10.199736003372896   1.665759096013815 
  1.305994609713125  12.335947119770879   1.663161173553975 
  2.533576250699745  14.524422514355461   1.660008683546265 
 10.034717202990469   1.486368455655934   1.659109738514550 
  8.758621390130626   3.641376644545831   1.662073688048010 
  7.435666635324964   5.813211322535222   1.664147369765700 
  6.116341010508855   8.158455168137312   1.661653328411115 
  5.127112284879744  10.355035591049942   1.662445593365160 
  3.804886225589419  12.402314342276053   1.661771564138670 
  5.043079597089260  14.534964654284181   1.658431506526395 
 12.538368401920344   1.502915053296470   1.659491337624225 
 11.269240990288278   3.655822186971318   1.660466016628785 
  9.982887101549759   5.811270361723768   1.662309725559420 
  8.682009478035356   7.974878723841875   1.662899164220400 
  7.581802610720224  10.221643305949556   1.661764426920855 
  6.333031018006179  12.407938907444656   1.658910080058675 
  3.038199761963715   7.223673197819447   1.657220958558915 
  8.798446015689812  13.751365970494533   1.658281962303990 
 16.290739519198894   0.741300371140724   1.659627786187740 
 15.038157518039041   2.923211402897747   1.662004350093540 
 13.785383989209890   5.088361336933588   1.660988430385320 
 12.519662157479296   7.242271287285161   1.660251459909285 
 11.288633994699200   9.394360681185317   1.662880411041750 
 10.051791698003116  11.564354804458022   1.661949077646090 
 -6.225444807443731  13.692081251501051   1.658823400484340 
  1.263968406464879   0.662572214423636   1.661955139141335 
 -0.009828696382411   2.828948711100504   1.664771139555825 
 -1.219893316481717   5.065536683800945   1.660881549535935 
 -2.473944320289981   7.236701431202358   1.659463769502555 
 -3.721509536509661   9.389827719574049   1.659835548351660 
 -4.969756870545847  11.539537386773056   1.659767373709365 
 -3.709284751299198  13.685212922774342   1.658444330205465 
  3.794316997496375   0.629289666297627   1.662869054203245 
  2.504850857270810   2.732445988210215   1.666309566079020 
  1.230580195388996   4.894851197786683   1.655089786234635 
  0.054310085338826   7.237804932270827   1.659332045386380 
 -1.202317732800108   9.408720346619395   1.661752476246900 
 -2.457521983394107  11.551309152246164   1.659054925536360 
 -1.201649487895769  13.726458928479902   1.658454573703905 
  6.322715100175643   0.650367484464984   1.660652909088990 
  5.082341958632353   2.722751661636337   1.669823042798835 
  3.823582826836262   4.702684876899513   1.649375522440635 
  1.288764009320892   9.543186635266464   1.666518529122165 
  0.042102612483237  11.622006769513964   1.662965941404960 
  1.298129325651273  13.778212236192081   1.660579884984780 
  8.806618622176471   0.727347695928047   1.658643814374705 
  7.548409238145332   2.853597223748062   1.662879714315780 
  6.257388963075124   4.968642390227312   1.665532109485770 
  4.679708678106955   8.150384761885478   1.661779707172710 
  3.941215255225640   9.640023373399986   1.664799926888520 
  2.571364998459623  11.655192921871297   1.664367010418580 
  3.789175254393194  13.834913173060563   1.659562579284150 
 11.290416385219192   0.783495586339959   1.658911693332135 
 10.022607013620881   2.930391420740702   1.659755193842910 
  8.726778754709521   5.094812951332444   1.663095628738410 
  7.381177173363210   7.284414223493703   1.662549446198190 
  6.344391155325247   9.596190344834701   1.661438183872065 
  5.081410479629382  11.761441263912566   1.660527473733300 
  6.303060276239758  13.830033552125567   1.656918234504780 
 13.792902930612019   0.789681420137179   1.658797670724855 
 12.529345595476670   2.941316774407853   1.660159688029425 
 11.256608910294140   5.096069129099126   1.660882496772555 
  9.970095624672798   7.252972518171122   1.662300686039700 
  8.785204790270868   9.426154433941125   1.662964137400275 
  7.570616213260608  11.658773819016419   1.659939573474360 
