Sb B N                                  
   1.0000000000000000     
     8.7639499999999995  -15.1796066749929999    0.0000000000000000
     8.7639499999999995   15.1796066749929999    0.0000000000000000
     0.0000000000000000    0.0000000000000000   15.0000000000000000
   Sb   B    N 
     1    48    48
Selective dynamics
Direct
  0.4112751343436810  0.4758801299983409  0.1104813972372608   T   T   T
  0.9084872943643703  0.9549628405917555  0.1105339068365941   T   T   T
  0.9074491603157228  0.0978121406607848  0.1106887596672242   T   T   T
  0.9067556367270554  0.2404256922062395  0.1107748558262672   T   T   T
  0.9055191535368230  0.3823664324246739  0.1107195971487753   T   T   T
  0.9037285562700011  0.5240357553006277  0.1108007099134418   T   T   T
  0.9060749227091729  0.6666315978922552  0.1109007005033245   T   T   T
  0.9088861257049416  0.8117213577516014  0.1106870747893710   T   T   T
  0.0485239267673303  0.9500607765237281  0.1106403486351880   T   T   T
  0.0473920346223978  0.0926669173511332  0.1108510529606211   T   T   T
  0.0491006319014312  0.2383081769954779  0.1108673589218113   T   T   T
  0.0497103462863919  0.3816968067931947  0.1107090492471377   T   T   T
  0.0486916007602408  0.5237181201699287  0.1106637570368760   T   T   T
  0.0487129111418524  0.6654370719076881  0.1107468631353853   T   T   T
  0.0488008775201739  0.8075828827739104  0.1106759146176637   T   T   T
  0.1905089357690503  0.9478317253602203  0.1106678522235031   T   T   T
  0.1878485035318385  0.0875216974837625  0.1109888109018884   T   T   T
  0.1858844738972381  0.2290651446975492  0.1108452867041854   T   T   T
  0.1932951192997577  0.3798234629615889  0.1105537383970022   T   T   T
  0.1932067590552954  0.5239093544390246  0.1106940765397922   T   T   T
  0.1926834676984267  0.6659029996766642  0.1106879173644330   T   T   T
  0.1917135654850515  0.8071093111498564  0.1105950548214037   T   T   T
  0.3344676205424193  0.9491295149062956  0.1106165286786501   T   T   T
  0.3324903284655812  0.0869770952144130  0.1110108407379239   T   T   T
  0.3273319926454744  0.2201518432231761  0.1108648520547497   T   T   T
  0.3221103383307792  0.3513680142145609  0.1099990859409426   T   T   T
  0.3379322869095896  0.5351667798537372  0.1108125975353314   T   T   T
  0.3378270270150327  0.6714037162956726  0.1109652435968196   T   T   T
  0.3358912040089159  0.8100060719264409  0.1106712170182346   T   T   T
  0.4789514584347055  0.9531023874803322  0.1106216190312274   T   T   T
  0.4774737554481214  0.0933329316598982  0.1107323702724632   T   T   T
  0.4749236552361629  0.2326682475337473  0.1111070252969080   T   T   T
  0.4675471113082464  0.3683360311472006  0.1104452368300111   T   T   T
  0.4850489116552348  0.6719367781891136  0.1110506064009205   T   T   T
  0.4808423713064143  0.8126657945685147  0.1108774115702646   T   T   T
  0.6229642740537418  0.9568378697376211  0.1106672455697511   T   T   T
  0.6214590698816463  0.0979187726981475  0.1106073159009699   T   T   T
  0.6196390426736829  0.2398860999833819  0.1108049125365341   T   T   T
  0.6156998703351159  0.3829619203580467  0.1109431579843803   T   T   T
  0.6176796591722004  0.5374615655606878  0.1107768885607407   T   T   T
  0.6335952892725607  0.6821675826494746  0.1108297062243440   T   T   T
  0.6255949514589167  0.8170379251464769  0.1107847709425781   T   T   T
  0.7664834551145209  0.9575323633535908  0.1105621004350928   T   T   T
  0.7648421552216947  0.0990088271372906  0.1106327558416155   T   T   T
  0.7633504820341104  0.2408377414016856  0.1106977344419194   T   T   T
  0.7609597047692384  0.3828340540138779  0.1108206483706284   T   T   T
  0.7580091086781698  0.5253679423050960  0.1108599442813597   T   T   T
  0.7692462374255054  0.6733799843963436  0.1107842951280566   T   T   T
  0.7700156827861697  0.8174084594619593  0.1105940053372452   T   T   T
  0.9549233428123074  0.9059105591417241  0.1105521308202656   T   T   T
  0.9538352847761317  0.0488352819023917  0.1106418524125158   T   T   T
  0.9542429160595619  0.1925749108976215  0.1108002900062364   T   T   T
  0.9540875277028449  0.3352103546474707  0.1107325620256876   T   T   T
  0.9528231810278331  0.4771053323282771  0.1106834306606189   T   T   T
  0.9534782069070462  0.6188803756464609  0.1108586940694496   T   T   T
  0.9543912880243087  0.7618349442155888  0.1107966051764062   T   T   T
  0.0958290490518764  0.9020050087369731  0.1105882266989556   T   T   T
  0.0939362189891509  0.0436488394337092  0.1107970092760889   T   T   T
  0.0926217974483579  0.1863650865052320  0.1109847426370547   T   T   T
  0.0972561260333870  0.3337067153489475  0.1107254366357291   T   T   T
  0.0972259768175041  0.4767384021302778  0.1106309179668375   T   T   T
  0.0969716865700093  0.6185817538370614  0.1106557032234437   T   T   T
  0.0965659403597189  0.7602000258533198  0.1106511582472906   T   T   T
  0.2391545258463192  0.9015525379402153  0.1105629553470307   T   T   T
  0.2372011225378741  0.0414562563952540  0.1108579369468826   T   T   T
  0.2329103477376122  0.1800076936585998  0.1110873044052681   T   T   T
  0.2314380988067173  0.3224623208353903  0.1103393190823089   T   T   T
  0.2415040427733672  0.4768110984189302  0.1106221363590919   T   T   T
  0.2413186686397330  0.6198263596723669  0.1107834984164599   T   T   T
  0.2402814635608161  0.7609755245684814  0.1106036617024241   T   T   T
  0.3835784817052964  0.9042697365204331  0.1105636382469271   T   T   T
  0.3821453193139938  0.0428448179448809  0.1107101939392664   T   T   T
  0.3796417918526816  0.1793690521719371  0.1113215361865889   T   T   T
  0.3730440729595768  0.3098028148941887  0.1099583681627086   T   T   T
  0.3878687910199577  0.6286847109805457  0.1111012352748107   T   T   T
  0.3852185001845992  0.7656329322853934  0.1108643960936644   T   T   T
  0.5279003114559305  0.9076791336688742  0.1107053256656517   T   T   T
  0.5263923807310106  0.0479161095212218  0.1105762542916474   T   T   T
  0.5246455287533084  0.1879888777651313  0.1108586476210515   T   T   T
  0.5206576934247609  0.3273235266637459  0.1110354739657175   T   T   T
  0.5354512242984343  0.5369299044692893  0.1107853138115136   T   T   T
  0.5423858730853294  0.6350641080365349  0.1109866617925683   T   T   T
  0.5306108415360045  0.7678191649769162  0.1109578006945722   T   T   T
  0.6718868831448540  0.9114144700371010  0.1106375052856099   T   T   T
  0.6699472140359992  0.0516150123725327  0.1105941128888089   T   T   T
  0.6683327317714385  0.1930479151062726  0.1106503462561938   T   T   T
  0.6656969964246799  0.3356353731961720  0.1108730419158941   T   T   T
  0.6610509922002090  0.4798816187704003  0.1108366297465461   T   T   T
  0.6780478114383589  0.6321764819271251  0.1107625455914707   T   T   T
  0.6773134122973772  0.7748185783554135  0.1107018315822199   T   T   T
  0.8151480708162944  0.9110930110533817  0.1104612156336522   T   T   T
  0.8129225812049606  0.0520225218640278  0.1105865113816573   T   T   T
  0.8117068004126640  0.1937676540231676  0.1106773125352949   T   T   T
  0.8100699909166843  0.3357181274989396  0.1107254997848369   T   T   T
  0.8077180529592188  0.4778103065160203  0.1108200457359799   T   T   T
  0.8117000661876070  0.6209748800322823  0.1108642758266851   T   T   T
  0.8159455734052939  0.7680550668169174  0.1106626382316237   T   T   T

  0.00000000E+00  0.00000000E+00  0.00000000E+00
  0.00000000E+00  0.00000000E+00  0.00000000E+00
  0.00000000E+00  0.00000000E+00  0.00000000E+00
  0.00000000E+00  0.00000000E+00  0.00000000E+00
  0.00000000E+00  0.00000000E+00  0.00000000E+00
  0.00000000E+00  0.00000000E+00  0.00000000E+00
  0.00000000E+00  0.00000000E+00  0.00000000E+00
  0.00000000E+00  0.00000000E+00  0.00000000E+00
  0.00000000E+00  0.00000000E+00  0.00000000E+00
  0.00000000E+00  0.00000000E+00  0.00000000E+00
  0.00000000E+00  0.00000000E+00  0.00000000E+00
  0.00000000E+00  0.00000000E+00  0.00000000E+00
  0.00000000E+00  0.00000000E+00  0.00000000E+00
  0.00000000E+00  0.00000000E+00  0.00000000E+00
  0.00000000E+00  0.00000000E+00  0.00000000E+00
  0.00000000E+00  0.00000000E+00  0.00000000E+00
  0.00000000E+00  0.00000000E+00  0.00000000E+00
  0.00000000E+00  0.00000000E+00  0.00000000E+00
  0.00000000E+00  0.00000000E+00  0.00000000E+00
  0.00000000E+00  0.00000000E+00  0.00000000E+00
  0.00000000E+00  0.00000000E+00  0.00000000E+00
  0.00000000E+00  0.00000000E+00  0.00000000E+00
  0.00000000E+00  0.00000000E+00  0.00000000E+00
  0.00000000E+00  0.00000000E+00  0.00000000E+00
  0.00000000E+00  0.00000000E+00  0.00000000E+00
  0.00000000E+00  0.00000000E+00  0.00000000E+00
  0.00000000E+00  0.00000000E+00  0.00000000E+00
  0.00000000E+00  0.00000000E+00  0.00000000E+00
  0.00000000E+00  0.00000000E+00  0.00000000E+00
  0.00000000E+00  0.00000000E+00  0.00000000E+00
  0.00000000E+00  0.00000000E+00  0.00000000E+00
  0.00000000E+00  0.00000000E+00  0.00000000E+00
  0.00000000E+00  0.00000000E+00  0.00000000E+00
  0.00000000E+00  0.00000000E+00  0.00000000E+00
  0.00000000E+00  0.00000000E+00  0.00000000E+00
  0.00000000E+00  0.00000000E+00  0.00000000E+00
  0.00000000E+00  0.00000000E+00  0.00000000E+00
  0.00000000E+00  0.00000000E+00  0.00000000E+00
  0.00000000E+00  0.00000000E+00  0.00000000E+00
  0.00000000E+00  0.00000000E+00  0.00000000E+00
  0.00000000E+00  0.00000000E+00  0.00000000E+00
  0.00000000E+00  0.00000000E+00  0.00000000E+00
  0.00000000E+00  0.00000000E+00  0.00000000E+00
  0.00000000E+00  0.00000000E+00  0.00000000E+00
  0.00000000E+00  0.00000000E+00  0.00000000E+00
  0.00000000E+00  0.00000000E+00  0.00000000E+00
  0.00000000E+00  0.00000000E+00  0.00000000E+00
  0.00000000E+00  0.00000000E+00  0.00000000E+00
  0.00000000E+00  0.00000000E+00  0.00000000E+00
  0.00000000E+00  0.00000000E+00  0.00000000E+00
  0.00000000E+00  0.00000000E+00  0.00000000E+00
  0.00000000E+00  0.00000000E+00  0.00000000E+00
  0.00000000E+00  0.00000000E+00  0.00000000E+00
  0.00000000E+00  0.00000000E+00  0.00000000E+00
  0.00000000E+00  0.00000000E+00  0.00000000E+00
  0.00000000E+00  0.00000000E+00  0.00000000E+00
  0.00000000E+00  0.00000000E+00  0.00000000E+00
  0.00000000E+00  0.00000000E+00  0.00000000E+00
  0.00000000E+00  0.00000000E+00  0.00000000E+00
  0.00000000E+00  0.00000000E+00  0.00000000E+00
  0.00000000E+00  0.00000000E+00  0.00000000E+00
  0.00000000E+00  0.00000000E+00  0.00000000E+00
  0.00000000E+00  0.00000000E+00  0.00000000E+00
  0.00000000E+00  0.00000000E+00  0.00000000E+00
  0.00000000E+00  0.00000000E+00  0.00000000E+00
  0.00000000E+00  0.00000000E+00  0.00000000E+00
  0.00000000E+00  0.00000000E+00  0.00000000E+00
  0.00000000E+00  0.00000000E+00  0.00000000E+00
  0.00000000E+00  0.00000000E+00  0.00000000E+00
  0.00000000E+00  0.00000000E+00  0.00000000E+00
  0.00000000E+00  0.00000000E+00  0.00000000E+00
  0.00000000E+00  0.00000000E+00  0.00000000E+00
  0.00000000E+00  0.00000000E+00  0.00000000E+00
  0.00000000E+00  0.00000000E+00  0.00000000E+00
  0.00000000E+00  0.00000000E+00  0.00000000E+00
  0.00000000E+00  0.00000000E+00  0.00000000E+00
  0.00000000E+00  0.00000000E+00  0.00000000E+00
  0.00000000E+00  0.00000000E+00  0.00000000E+00
  0.00000000E+00  0.00000000E+00  0.00000000E+00
  0.00000000E+00  0.00000000E+00  0.00000000E+00
  0.00000000E+00  0.00000000E+00  0.00000000E+00
  0.00000000E+00  0.00000000E+00  0.00000000E+00
  0.00000000E+00  0.00000000E+00  0.00000000E+00
  0.00000000E+00  0.00000000E+00  0.00000000E+00
  0.00000000E+00  0.00000000E+00  0.00000000E+00
  0.00000000E+00  0.00000000E+00  0.00000000E+00
  0.00000000E+00  0.00000000E+00  0.00000000E+00
  0.00000000E+00  0.00000000E+00  0.00000000E+00
  0.00000000E+00  0.00000000E+00  0.00000000E+00
  0.00000000E+00  0.00000000E+00  0.00000000E+00
  0.00000000E+00  0.00000000E+00  0.00000000E+00
  0.00000000E+00  0.00000000E+00  0.00000000E+00
  0.00000000E+00  0.00000000E+00  0.00000000E+00
  0.00000000E+00  0.00000000E+00  0.00000000E+00
  0.00000000E+00  0.00000000E+00  0.00000000E+00
  0.00000000E+00  0.00000000E+00  0.00000000E+00
  0.00000000E+00  0.00000000E+00  0.00000000E+00
