 N B Al 
 1.0
 17.527899999999772   0.000000000000000   0.000000000000000
 -8.763949999999658  15.179606674993195   0.000000000000000
  0.000000000000001   0.000000000000002  15.000000000000000
 N B Al 
  47  49   1
Cartesian
  8.763861239927746  13.726943482007176   1.541911390632300 
 16.279194139403430   0.702933301487581   1.597391325938955 
 15.035363897806961   2.867064611134338   1.618553415302115 
 13.784235094552679   5.033241832476390   1.606295466526065 
 12.532020153496708   7.203435988468052   1.571003468607300 
 11.281756625996579   9.381523067665732   1.528471873066605 
 10.022109684914593  11.561238610164068   1.498706082703785 
 -6.265116676342318  13.740647278341902   1.564183220677335 
  1.251940822301689   0.729766704762885   1.563574652660760 
  0.018261058993131   2.908687336219552   1.582003539916095 
 -1.238368971558996   5.054192477905312   1.595717213973465 
 -2.510668132960253   7.213134023780310   1.604222861333085 
 -3.777393171446539   9.386583878142124   1.599274944774840 
 -5.018162555007290  11.566209520967247   1.581204672717375 
 -3.768533905786519  13.743981399894357   1.616157986408805 
  3.752391564579068   0.737487013028702   1.583719024794600 
  2.506578250308966   2.910972239108888   1.556399483261865 
  1.297883110596098   5.132181198566613   1.599447544749150 
 -0.014949783246140   7.234943804873504   1.621979682190605 
 -1.315982066509997   9.395061939570768   1.627869970122990 
 -2.532826571488524  11.570711931662744   1.634362167700350 
 -1.268507344053686  13.739880068053084   1.644410210703510 
  6.257278562481813   0.729879724736792   1.627426675909965 
  5.012891484771240   2.903896150844995   1.677074703759225 
  3.757524121106843   5.068112294664250   1.828392226098105 
  2.563822736737098   7.425715972674033   1.735555230660975 
  1.118000146488355   9.416790018169403   1.614389644911270 
 -0.045881635001279  11.574607259845278   1.638041788461285 
  1.244318784545849  13.704431063885139   1.651001334756300 
  8.768621564338780   0.705923759086915   1.639866674051655 
  7.526357587855362   2.881391754300842   1.668748006224930 
  6.284790293682694   5.036251058510131   2.022423029519955 
  2.467973205312616  11.500781302086425   1.624528534460805 
  3.754876511108349  13.656787068694571   1.647629718436440 
 11.277715685280747   0.678427294496472   1.647470325797760 
 10.033167757404087   2.861519249971749   1.644113398408050 
  8.784108538369924   5.037974983201112   1.738357611402150 
  7.607335941893981   7.217673363352996   1.976075090628720 
  6.377457457474477   9.386103864891494   1.793491557050955 
  4.988614106246372  11.425569355794543   1.669763626164345 
  6.250579971772844  13.673354786466463   1.600269380591520 
 13.777038625795958   0.675425312797879   1.640485762586145 
 12.534534424923866   2.854180461780935   1.634441752233405 
 11.286183067101234   5.027115170974357   1.611494508273750 
 10.052923416905999   7.198632765485281   1.567941333364470 
  8.813600665978671   9.377427370592214   1.543290911932860 
  7.525194677430317  11.550320309366736   1.490617842383805 
  7.501048960570278  14.424880057811668   1.578224379217695 
 15.026208607383676   1.415986654775618   1.621284772067430 
 13.783494813358486   3.585693695075046   1.621398546486120 
 12.532489139694865   5.755633648829162   1.593895774942020 
 11.287077844116503   7.930949633897738   1.544675369890410 
 10.036467895655868  10.108588709872848   1.510651861652520 
  8.765466192993481  12.280244619388782   1.501434076029720 
 -7.516977071249721  14.461655991955409   1.555916218396965 
  0.003714430767916   1.453343103880208   1.579625168052975 
 -1.240909475640285   3.609215714046480   1.598795531290620 
 -2.494145762397653   5.767051460159510   1.601673023721225 
 -3.757231376988350   7.937118369753605   1.591102198883445 
 -5.015120173580224  10.115497513691475   1.568682727547640 
 -6.265548603418800  12.291627118076006   1.546929644330850 
 -5.016272287484309  14.471520080765201   1.588545075368775 
  2.502118436013843   1.465945700461893   1.562651351830050 
  1.276816252158790   3.669503580145104   1.576842937337925 
  0.018123826675138   5.797068647963396   1.601179832808060 
 -1.268029066532645   7.949283162321076   1.617329614442070 
 -2.543043193834662  10.119737783328796   1.623189057493395 
 -3.774359140974934  12.296932534754401   1.613830290940125 
 -2.515143210375848  14.467761829591494   1.629595522910865 
  5.007624300275074   1.466497178879318   1.623689958896640 
  3.755574115939972   3.641335867261215   1.656043215995820 
  2.578198029715923   5.917670716689790   1.732018222705605 
  1.227092579933079   7.983553815954818   1.651485104316390 
 -0.087434749092782  10.133959336916659   1.627369362267225 
 -1.281797037138587  12.297572340954904   1.642094334355665 
 -0.002588026870153  14.440681634750341   1.646164817697390 
  7.517870287813126   1.441887000524200   1.639457153135025 
  6.277611194811470   3.621816379279857   1.766269951234290 
  4.979704477141400   5.615547242324497   2.407704197151270 
  3.544997263365405   8.835238417149245   1.809126388880850 
  2.396164414016323  10.041829241047823   1.616692747368600 
  1.232810598336356  12.253353416998282   1.638173296110855 
  2.509128136632933  14.403091550760857   1.649560255676445 
 10.027884796735080   1.415197492974533   1.643100253162380 
  8.780622016075892   3.596895149474198   1.686144717649215 
  7.533307487402772   5.768707926140340   1.937022928532685 
  6.513324215554065   8.065815974135438   2.377967319627930 
  5.046447056616188   9.926337977966460   1.816702435373340 
  3.743823342309776  12.184341914560646   1.649244506087835 
  5.002352019439838  14.396407707097039   1.634677602982740 
 12.528718105762637   1.403905131980747   1.643789517287565 
 11.283705926280449   3.581465307092143   1.632398720654970 
 10.032821358242465   5.753870039219698   1.640768885071725 
  8.813249536008339   7.927794306532935   1.662705978047775 
  7.565566679820006  10.107953690491604   1.562747712690090 
  6.237902777080286  12.203868946559563   1.587526021842495 
  4.754486154186914   7.492657657896215   3.256312857906405 
