Al B N Se                               
   1.0000000000000000     
     8.7639499999999995  -15.1796066749929999    0.0000000000000000
     8.7639499999999995   15.1796066749929999    0.0000000000000000
     0.0000000000000000    0.0000000000000000   15.0000000000000000
   Al   B    N    Se
     1    49    47     1
Selective dynamics
Direct
  0.5316850743008436  0.6289015991285762  0.1109942665724526   T   T   T
  0.9094333883684750  0.9555820938921457  0.1109202226374734   T   T   T
  0.9041544641180056  0.0947916657668131  0.1110190066894605   T   T   T
  0.9026272897101806  0.2366663490153351  0.1110392590859549   T   T   T
  0.9034790743849234  0.3798291166932469  0.1109849802127510   T   T   T
  0.9076009129167437  0.5241626382170029  0.1110093063053122   T   T   T
  0.9134610196503739  0.6694080637449918  0.1109981505633001   T   T   T
  0.9141880059422404  0.8151391066648240  0.1109552221258259   T   T   T
  0.0511440128315441  0.9540902422776094  0.1110265900658352   T   T   T
  0.0468959515366133  0.0941092130584073  0.1110218937443464   T   T   T
  0.0437335695141849  0.2354038184805141  0.1109814604946439   T   T   T
  0.0433322645048896  0.3788519523892829  0.1109758143003283   T   T   T
  0.0455109407743424  0.5233226801306005  0.1109920229519291   T   T   T
  0.0499218752910582  0.6678275533621751  0.1110321686930238   T   T   T
  0.0519941320279413  0.8116026733224218  0.1110802797365205   T   T   T
  0.1920325490271066  0.9527218527681998  0.1110816137491824   T   T   T
  0.1894683942147419  0.0931044862149302  0.1110886043360175   T   T   T
  0.1841727020769653  0.2324115762959702  0.1110306718173035   T   T   T
  0.1824138117513408  0.3762994688454373  0.1110200098269621   T   T   T
  0.1829668282143006  0.5224017500314931  0.1110968848333242   T   T   T
  0.1874236625785566  0.6673453000751249  0.1111224223885112   T   T   T
  0.1915598129474762  0.8106187738501947  0.1110491698356703   T   T   T
  0.3335395853057391  0.9524817812263554  0.1110343531482043   T   T   T
  0.3328401041798344  0.0934107761892660  0.1111012254959972   T   T   T
  0.3277357162945991  0.2313749475157077  0.1110113986796105   T   T   T
  0.3196017040935609  0.3701149683594389  0.1108914473950871   T   T   T
  0.3184246616970024  0.5194012900688963  0.1110075793797078   T   T   T
  0.3241093356824308  0.6671915190030404  0.1112030180945315   T   T   T
  0.3320705769177787  0.8106766483714664  0.1110851575771715   T   T   T
  0.4757499391226261  0.9532944336519532  0.1109735917971395   T   T   T
  0.4759432523468717  0.0935800073194846  0.1110440806137978   T   T   T
  0.4751352986928941  0.2324770274345101  0.1110036599066170   T   T   T
  0.4646230372679425  0.3593919016295705  0.1109486241260402   T   T   T
  0.4426986104622516  0.5119003474778819  0.1109896423258882   T   T   T
  0.4573482377928582  0.6761784999420798  0.1111323866015567   T   T   T
  0.4745075503601875  0.8136332595776455  0.1111009429142134   T   T   T
  0.6192345568301859  0.9530178285014772  0.1110253487259829   T   T   T
  0.6188070052857840  0.0947173519621635  0.1110089170827191   T   T   T
  0.6191752422420902  0.2368442916863892  0.1109753909174204   T   T   T
  0.6214539289002686  0.3803052340782490  0.1109426655280143   T   T   T
  0.6464110601772394  0.5387242635092284  0.1111705814135085   T   T   T
  0.6511414697890935  0.6810058271984626  0.1112276345930645   T   T   T
  0.6226182667685266  0.8121610970989124  0.1111252808067765   T   T   T
  0.7639807142225249  0.9539170532351278  0.1109685010097704   T   T   T
  0.7613782144819687  0.0948401057974686  0.1111016310180933   T   T   T
  0.7611969923910197  0.2370886294546621  0.1110350199246300   T   T   T
  0.7630850136522070  0.3803199214486088  0.1109638722523754   T   T   T
  0.7706657321481133  0.5256559905558181  0.1109769698555443   T   T   T
  0.7829151338255952  0.6764222471624064  0.1110184666116931   T   T   T
  0.7738193543044777  0.8178449734127541  0.1109683148520589   T   T   T
  0.9576635108413372  0.9087010269557737  0.1109276290604836   T   T   T
  0.9531984640562901  0.0488074025941277  0.1109668179805362   T   T   T
  0.9497555365426974  0.1890115224213581  0.1109983873034098   T   T   T
  0.9494267959477170  0.3314158144017775  0.1109731141364788   T   T   T
  0.9517772367314603  0.4748631788415459  0.1109698590262170   T   T   T
  0.9566000495694700  0.6193261332844229  0.1110115221404542   T   T   T
  0.9584716323510872  0.7645743203992074  0.1109949929998412   T   T   T
  0.0980628902183609  0.9061618342240210  0.1110677233734980   T   T   T
  0.0957703140324257  0.0478104814560033  0.1110377061828661   T   T   T
  0.0910869192702092  0.1876352332499870  0.1109966573519817   T   T   T
  0.0893435212659692  0.3300824811796862  0.1109565748527614   T   T   T
  0.0900606797669576  0.4740212514124598  0.1109775979680852   T   T   T
  0.0940616374435428  0.6185344472635207  0.1110086944141208   T   T   T
  0.0975797115234066  0.7628454394211486  0.1110452584412968   T   T   T
  0.2392022905404056  0.9052931279989090  0.1110292641862921   T   T   T
  0.2384730344055976  0.0471669713439094  0.1110845620995180   T   T   T
  0.2343104149810065  0.1869489894605982  0.1110391685999126   T   T   T
  0.2274394833227970  0.3256927553556247  0.1109902419402437   T   T   T
  0.2268891018841358  0.4722254672278871  0.1110736945474026   T   T   T
  0.2313291687895200  0.6179155144979943  0.1111737253947197   T   T   T
  0.2375963908268312  0.7623819214622690  0.1110721547342786   T   T   T
  0.3809425377947389  0.9052812716929183  0.1109788697311861   T   T   T
  0.3811905676215289  0.0470750352429467  0.1110574127974723   T   T   T
  0.3797743178207355  0.1880918547491962  0.1110392409602651   T   T   T
  0.3727461283121100  0.3259067060871579  0.1109102879763428   T   T   T
  0.3554833521271450  0.4623668215954320  0.1108052969091401   T   T   T
  0.3671524786333985  0.6168495818475138  0.1111087983385568   T   T   T
  0.3786869741181808  0.7626760567648087  0.1111461350405410   T   T   T
  0.5238412714942192  0.9068202547211800  0.1109835636935957   T   T   T
  0.5239053501563535  0.0473569838177824  0.1109681544268638   T   T   T
  0.5239794671785486  0.1879562673886105  0.1110047551135581   T   T   T
  0.5235824134044381  0.3271591760075729  0.1109290407388108   T   T   T
  0.5231448772266623  0.7667846198922860  0.1111557365271519   T   T   T
  0.6678200462698497  0.9057236370023545  0.1110114541380817   T   T   T
  0.6664246063132629  0.0473327196818931  0.1110374016687534   T   T   T
  0.6663505976273144  0.1896190143536707  0.1109848990511721   T   T   T
  0.6674148008718184  0.3324966661352433  0.1109338054861372   T   T   T
  0.6752255435977860  0.4769142226977244  0.1109627352521087   T   T   T
  0.6929787560139452  0.6313807974859927  0.1110837960834519   T   T   T
  0.6793715987568402  0.7715814540927806  0.1110955131523657   T   T   T
  0.8154534698604186  0.9101986006201901  0.1108732617966515   T   T   T
  0.8093325549048496  0.0478233606511232  0.1110298511433639   T   T   T
  0.8081037048589436  0.1893815946689940  0.1110816655941939   T   T   T
  0.8088253591671865  0.3320103193632677  0.1109773416381032   T   T   T
  0.8132625462285323  0.4755241297416095  0.1109682094223335   T   T   T
  0.8208228677851226  0.6213471198990790  0.1109667334468348   T   T   T
  0.8214719594648565  0.7700109875343243  0.1109528899451318   T   T   T
  0.5252869024546488  0.4804351010107912  0.1109620795801172   T   T   T

  0.00000000E+00  0.00000000E+00  0.00000000E+00
  0.00000000E+00  0.00000000E+00  0.00000000E+00
  0.00000000E+00  0.00000000E+00  0.00000000E+00
  0.00000000E+00  0.00000000E+00  0.00000000E+00
  0.00000000E+00  0.00000000E+00  0.00000000E+00
  0.00000000E+00  0.00000000E+00  0.00000000E+00
  0.00000000E+00  0.00000000E+00  0.00000000E+00
  0.00000000E+00  0.00000000E+00  0.00000000E+00
  0.00000000E+00  0.00000000E+00  0.00000000E+00
  0.00000000E+00  0.00000000E+00  0.00000000E+00
  0.00000000E+00  0.00000000E+00  0.00000000E+00
  0.00000000E+00  0.00000000E+00  0.00000000E+00
  0.00000000E+00  0.00000000E+00  0.00000000E+00
  0.00000000E+00  0.00000000E+00  0.00000000E+00
  0.00000000E+00  0.00000000E+00  0.00000000E+00
  0.00000000E+00  0.00000000E+00  0.00000000E+00
  0.00000000E+00  0.00000000E+00  0.00000000E+00
  0.00000000E+00  0.00000000E+00  0.00000000E+00
  0.00000000E+00  0.00000000E+00  0.00000000E+00
  0.00000000E+00  0.00000000E+00  0.00000000E+00
  0.00000000E+00  0.00000000E+00  0.00000000E+00
  0.00000000E+00  0.00000000E+00  0.00000000E+00
  0.00000000E+00  0.00000000E+00  0.00000000E+00
  0.00000000E+00  0.00000000E+00  0.00000000E+00
  0.00000000E+00  0.00000000E+00  0.00000000E+00
  0.00000000E+00  0.00000000E+00  0.00000000E+00
  0.00000000E+00  0.00000000E+00  0.00000000E+00
  0.00000000E+00  0.00000000E+00  0.00000000E+00
  0.00000000E+00  0.00000000E+00  0.00000000E+00
  0.00000000E+00  0.00000000E+00  0.00000000E+00
  0.00000000E+00  0.00000000E+00  0.00000000E+00
  0.00000000E+00  0.00000000E+00  0.00000000E+00
  0.00000000E+00  0.00000000E+00  0.00000000E+00
  0.00000000E+00  0.00000000E+00  0.00000000E+00
  0.00000000E+00  0.00000000E+00  0.00000000E+00
  0.00000000E+00  0.00000000E+00  0.00000000E+00
  0.00000000E+00  0.00000000E+00  0.00000000E+00
  0.00000000E+00  0.00000000E+00  0.00000000E+00
  0.00000000E+00  0.00000000E+00  0.00000000E+00
  0.00000000E+00  0.00000000E+00  0.00000000E+00
  0.00000000E+00  0.00000000E+00  0.00000000E+00
  0.00000000E+00  0.00000000E+00  0.00000000E+00
  0.00000000E+00  0.00000000E+00  0.00000000E+00
  0.00000000E+00  0.00000000E+00  0.00000000E+00
  0.00000000E+00  0.00000000E+00  0.00000000E+00
  0.00000000E+00  0.00000000E+00  0.00000000E+00
  0.00000000E+00  0.00000000E+00  0.00000000E+00
  0.00000000E+00  0.00000000E+00  0.00000000E+00
  0.00000000E+00  0.00000000E+00  0.00000000E+00
  0.00000000E+00  0.00000000E+00  0.00000000E+00
  0.00000000E+00  0.00000000E+00  0.00000000E+00
  0.00000000E+00  0.00000000E+00  0.00000000E+00
  0.00000000E+00  0.00000000E+00  0.00000000E+00
  0.00000000E+00  0.00000000E+00  0.00000000E+00
  0.00000000E+00  0.00000000E+00  0.00000000E+00
  0.00000000E+00  0.00000000E+00  0.00000000E+00
  0.00000000E+00  0.00000000E+00  0.00000000E+00
  0.00000000E+00  0.00000000E+00  0.00000000E+00
  0.00000000E+00  0.00000000E+00  0.00000000E+00
  0.00000000E+00  0.00000000E+00  0.00000000E+00
  0.00000000E+00  0.00000000E+00  0.00000000E+00
  0.00000000E+00  0.00000000E+00  0.00000000E+00
  0.00000000E+00  0.00000000E+00  0.00000000E+00
  0.00000000E+00  0.00000000E+00  0.00000000E+00
  0.00000000E+00  0.00000000E+00  0.00000000E+00
  0.00000000E+00  0.00000000E+00  0.00000000E+00
  0.00000000E+00  0.00000000E+00  0.00000000E+00
  0.00000000E+00  0.00000000E+00  0.00000000E+00
  0.00000000E+00  0.00000000E+00  0.00000000E+00
  0.00000000E+00  0.00000000E+00  0.00000000E+00
  0.00000000E+00  0.00000000E+00  0.00000000E+00
  0.00000000E+00  0.00000000E+00  0.00000000E+00
  0.00000000E+00  0.00000000E+00  0.00000000E+00
  0.00000000E+00  0.00000000E+00  0.00000000E+00
  0.00000000E+00  0.00000000E+00  0.00000000E+00
  0.00000000E+00  0.00000000E+00  0.00000000E+00
  0.00000000E+00  0.00000000E+00  0.00000000E+00
  0.00000000E+00  0.00000000E+00  0.00000000E+00
  0.00000000E+00  0.00000000E+00  0.00000000E+00
  0.00000000E+00  0.00000000E+00  0.00000000E+00
  0.00000000E+00  0.00000000E+00  0.00000000E+00
  0.00000000E+00  0.00000000E+00  0.00000000E+00
  0.00000000E+00  0.00000000E+00  0.00000000E+00
  0.00000000E+00  0.00000000E+00  0.00000000E+00
  0.00000000E+00  0.00000000E+00  0.00000000E+00
  0.00000000E+00  0.00000000E+00  0.00000000E+00
  0.00000000E+00  0.00000000E+00  0.00000000E+00
  0.00000000E+00  0.00000000E+00  0.00000000E+00
  0.00000000E+00  0.00000000E+00  0.00000000E+00
  0.00000000E+00  0.00000000E+00  0.00000000E+00
  0.00000000E+00  0.00000000E+00  0.00000000E+00
  0.00000000E+00  0.00000000E+00  0.00000000E+00
  0.00000000E+00  0.00000000E+00  0.00000000E+00
  0.00000000E+00  0.00000000E+00  0.00000000E+00
  0.00000000E+00  0.00000000E+00  0.00000000E+00
  0.00000000E+00  0.00000000E+00  0.00000000E+00
  0.00000000E+00  0.00000000E+00  0.00000000E+00
  0.00000000E+00  0.00000000E+00  0.00000000E+00
