Species order: X N B                    
   2.51242800000000     
     5.9449720136058266    0.0000000000000000    0.0000000000000000
    -2.9724860068029120    5.1484967885702053   -0.0000000000000001
     0.0000000000000000    0.0000000000000009    5.3101128803662583
   O    N    B 
     1   143   143
Direct
  0.4302442060483060  0.3817887696908173  0.3750000000000000
  0.1110787178414386  0.0555516555801302  0.1250950920165617
  0.6111405315582742  0.5556764595977718  0.1238431443197719
  0.4444097974630573  0.0555666765578325  0.1250710664549700
  0.9444151991215519  0.5555383915230545  0.1250111697494251
  0.7777563043373579  0.0555448188353505  0.1250241643677417
  0.1110742841141847  0.7222038087237569  0.6249877789969794
  0.4444097974630573  0.7221764542385606  0.6249289335450297
  0.2777626910770905  0.2222371720070980  0.6244796537231753
  0.7777904273549341  0.7222535488085596  0.6250943746655606
  0.6111181900258122  0.2222180444864321  0.6250597639468340
  0.9444238565389920  0.2222055867182186  0.6249682796028484
  0.2777388352479759  0.7221916998771295  0.1250407801152930
  0.1110793733154288  0.2222063533243822  0.1251615499685937
  0.4444028893931340  0.2222381455500720  0.1252381595364129
  0.6111181900258122  0.7222334788727022  0.1249402360531663
  0.9444151991215519  0.7222101409318397  0.1250111697494251
  0.7777771324753284  0.2222059150454093  0.1250117017061350
  0.1110735387693988  0.8888787932067551  0.6249572404331460
  0.4444026146514318  0.8888679739923762  0.6249759966218650
  0.2777626910770905  0.3888588524033212  0.6244796537231753
  0.6111405315582742  0.3887974052938316  0.6261568556802276
  0.7777771324753284  0.8889045507632547  0.6249882982938652
  0.9444313102659132  0.3888673993549925  0.6249772386465158
  0.1110787178414386  0.3888603955946370  0.1250950920165617
  0.2777388352479759  0.8888804687041746  0.1250407801152930
  0.6110779985852945  0.8888666181547421  0.1250674294697046
  0.4444562142878555  0.3888947738105918  0.1263111014970180
  0.9444313102659132  0.8888972442442493  0.1250227613534844
  0.7777904273549341  0.3888702118797043  0.1249056253344392
  0.2777372442782374  0.5555107166901370  0.6248147135170252
  0.1110787178414386  0.0555516555801302  0.6249049079834386
  0.6111405315582742  0.5556764595977718  0.6261568556802276
  0.4444097974630573  0.0555666765578325  0.6249289335450297
  0.9444151991215519  0.5555383915230545  0.6249888302505751
  0.1110735387693988  0.5555280788959653  0.1250427595668542
  0.7777563043373579  0.0555448188353505  0.6249758356322587
  0.2777372442782374  0.0555598609214365  0.1251852864829749
  0.4444028893931340  0.5554980771763973  0.1252381595364129
  0.7777516333387020  0.5555424833360187  0.1248713920624801
  0.6110779985852945  0.0555447137638803  0.1250674294697046
  0.4444028893931340  0.5554980771763973  0.6247618404635862
  0.9444238565389920  0.0555516031541092  0.1250317203971517
  0.2777388352479759  0.7221916998771295  0.6249592198847070
  0.1110793733154288  0.2222063533243822  0.6248384500314060
  0.4444028893931340  0.2222381455500720  0.6247618404635862
  0.6111181900258122  0.7222334788727022  0.6250597639468340
  0.9444151991215519  0.7222101409318397  0.6249888302505751
  0.7777771324753284  0.2222059150454093  0.6249882982938652
  0.1110742841141847  0.7222038087237569  0.1250122210030273
  0.4444097974630573  0.7221764542385606  0.1250710664549700
  0.2777626910770905  0.2222371720070980  0.1255203462768250
  0.7777904273549341  0.7222535488085596  0.1249056253344392
  0.6111181900258122  0.2222180444864321  0.1249402360531663
  0.9444238565389920  0.2222055867182186  0.1250317203971517
  0.1110787178414386  0.3888603955946370  0.6249049079834386
  0.2777388352479759  0.8888804687041746  0.6249592198847070
  0.6110779985852945  0.8888666181547421  0.6249325705302954
  0.4444562142878555  0.3888947738105918  0.6236888985029818
  0.9444313102659132  0.8888972442442493  0.6249772386465158
  0.1110735387693988  0.8888787932067551  0.1250427595668542
  0.7777904273549341  0.3888702118797043  0.6250943746655606
  0.4444026146514318  0.8888679739923762  0.1250240033781350
  0.2777626910770905  0.3888588524033212  0.1255203462768250
  0.2777372442782374  0.5555107166901370  0.1251852864829749
  0.6111405315582742  0.3887974052938316  0.1238431443197719
  0.7777771324753284  0.8889045507632547  0.1250117017061350
  0.9444313102659132  0.3888673993549925  0.1250227613534844
  0.1110735387693988  0.5555280788959653  0.6249572404331460
  0.2777372442782374  0.0555598609214365  0.6248147135170252
  0.7777516333387020  0.5555424833360187  0.6251286079375197
  0.6110779985852945  0.0555447137638803  0.6249325705302954
  0.9444238565389920  0.0555516031541092  0.6249682796028484
  0.0514530514970445  0.1085484915612446  0.3750000000000000
  0.5566183791427256  0.5970150330080227  0.3750000000000000
  0.3906484114392944  0.1179670604163582  0.3750000000000000
  0.8967604662557730  0.6150468997945613  0.3750000000000000
  0.7205432578496180  0.1116816105420659  0.3750000000000000
  0.0555634852493942  0.7777837517695404  0.8750000000000000
  0.3888909511869476  0.7777840373937399  0.8750000000000000
  0.2222292894281940  0.2777813113807684  0.8750000000000000
  0.7222189238870649  0.7777794021288943  0.8750000000000000
  0.5555446511462853  0.2777597545962885  0.8750000000000000
  0.8888906346775129  0.2777778257346051  0.8750000000000000
  0.2262086905618596  0.7797710119475973  0.3750000000000000
  0.0514530514970445  0.2762378932691427  0.3750000000000000
  0.3800165178734000  0.2780077612691687  0.3750000000000000
  0.5560396139589004  0.7721031732417247  0.3750000000000000
  0.8912081172358930  0.7779490154977815  0.3750000000000000
  0.7214586316018393  0.2810923176157724  0.3750000000000000
  0.0555613025369383  0.9444493026147326  0.8750000000000000
  0.3888909511869476  0.9444402471265435  0.8750000000000000
  0.2222298102032217  0.4444486123915045  0.8750000000000000
  0.5555475201501745  0.4444404267417480  0.8750000000000000
  0.7222168191342222  0.9444436784933505  0.8750000000000000
  0.8888940102491997  0.4444448513587888  0.8750000000000000
  0.0556022681434917  0.4446668092012502  0.3750000000000000
  0.2252089468158718  0.9475400821476514  0.3750000000000000
  0.5560108837585198  0.9446721085459265  0.3750000000000000
  0.3800165178734000  0.4353420899375743  0.3750000000000000
  0.8866811402182434  0.9420469344129357  0.3750000000000000
  0.7281530379432869  0.4505261430870388  0.3750000000000000
  0.2222278837143679  0.6111153877798864  0.8750000000000000
  0.0555590503548305  0.1111127416930609  0.8750000000000000
  0.5555446511462853  0.6111182298833322  0.8750000000000000
  0.3888901162408815  0.1111027669433415  0.8750000000000000
  0.8888965003052997  0.6111149168193212  0.8750000000000000
  0.0603001210400675  0.6130736121345205  0.3750000000000000
  0.7222168191342222  0.1111064739742070  0.8750000000000000
  0.2198205119147090  0.1105897974309244  0.3750000000000000
  0.3906484114392944  0.6060146843562791  0.3750000000000000
  0.7281530379432869  0.6109602281895838  0.3750000000000000
  0.5560396139589004  0.1172697740505036  0.3750000000000000
  0.3888901162408815  0.6111206826308899  0.8750000000000000
  0.8857098515939278  0.1095215924636355  0.3750000000000000
  0.2222280676443188  0.7777807004888238  0.8750000000000000
  0.0555590503548305  0.2777796419951052  0.8750000000000000
  0.3888952672400812  0.2777796377957610  0.8750000000000000
  0.5555493711800336  0.7777825801729646  0.8750000000000000
  0.8888940102491997  0.7777824922237463  0.8750000000000000
  0.7222189238870649  0.2777728550915060  0.8750000000000000
  0.0603001210400675  0.7805598422388826  0.3750000000000000
  0.3914020592378661  0.7770692833636773  0.3750000000000000
  0.2147143285600379  0.2740238309466831  0.3750000000000000
  0.7214586316018393  0.7736996473194028  0.3750000000000000
  0.5566183791427256  0.2929366794680452  0.3750000000000000
  0.8866811402182434  0.2779675391386494  0.3750000000000000
  0.0555613025369383  0.4444453332555334  0.8750000000000000
  0.2222278837143679  0.9444458292678101  0.8750000000000000
  0.5555512942514357  0.9444423137923854  0.8750000000000000
  0.3888952672400812  0.4444489627776562  0.8750000000000000
  0.8888906346775129  0.9444461422762428  0.8750000000000000
  0.0556022681434917  0.9442687922755696  0.3750000000000000
  0.7222232579794996  0.4444438335552678  0.8750000000000000
  0.3914020592378661  0.9476661092075239  0.3750000000000000
  0.2198205119147090  0.4425640478171202  0.3750000000000000
  0.2252089468158718  0.6110021980015494  0.3750000000000000
  0.7205432578496180  0.9421949806408886  0.3750000000000000
  0.8912081172358930  0.4465924350714542  0.3750000000000000
  0.0555634852493942  0.6111130668131899  0.8750000000000000
  0.2222298102032217  0.1111145311450528  0.8750000000000000
  0.7222232579794996  0.6111127577575607  0.8750000000000000
  0.5555493711800336  0.1111001243403973  0.8750000000000000
  0.8888888137694221  0.1111110735513824  0.8750000000000000
  0.1082776100621013  0.0540967440827964  0.3750000000000000
  0.6174852535495285  0.5353480418610909  0.3750000000000000
  0.4457621646802177  0.0601338910992013  0.3750000000000000
  0.9492695405182336  0.5577126567176476  0.3750000000000000
  0.7746288130053226  0.0539810731693289  0.3750000000000000
  0.1110922776985943  0.7222128055159609  0.8750000000000000
  0.4444710580875298  0.7222462021090962  0.8750000000000000
  0.2778222674570520  0.2222307639561812  0.8750000000000000
  0.7777507928154579  0.7221748144592439  0.8750000000000000
  0.6111217180350857  0.2222459960331773  0.8750000000000000
  0.9444049980931752  0.2222167781787703  0.8750000000000000
  0.2806422452154766  0.7227166324124492  0.3750000000000000
  0.1036292126878240  0.2184812730105799  0.3750000000000000
  0.4481588908261361  0.2305164723415056  0.3750000000000000
  0.6104397131971262  0.7121643613789090  0.3750000000000000
  0.9492695405182336  0.7248902171339209  0.3750000000000000
  0.7752114019227824  0.2234802273275811  0.3750000000000000
  0.1110951909125587  0.8888602022835638  0.8750000000000000
  0.4444566932118197  0.8888950132725738  0.8750000000000000
  0.2778222674570520  0.3889248368341990  0.8750000000000000
  0.6111372595165984  0.3889188693349671  0.8750000000000000
  0.7777501690349056  0.8888494338619488  0.8750000000000000
  0.9444081008997560  0.3888998954584632  0.8750000000000000
  0.1082776100621013  0.3875141993126333  0.3750000000000000
  0.2806422452154766  0.8912589461363484  0.3750000000000000
  0.6099366120553641  0.8855001279445788  0.3750000000000000
  0.9441113921233273  0.8879326137725435  0.3750000000000000
  0.7793904174995212  0.3927528783341493  0.3750000000000000
  0.2778029782162638  0.5555927235971304  0.8750000000000000
  0.1110971020118695  0.0555260116540239  0.8750000000000000
  0.6111372595165984  0.5555517235149595  0.8750000000000000
  0.4444710580875298  0.0555581893117698  0.8750000000000000
  0.9444085327543837  0.5555528119926918  0.8750000000000000
  0.1137712881536705  0.5561371046847920  0.3750000000000000
  0.7777477526608526  0.0555405429970940  0.8750000000000000
  0.2791970764528637  0.0584245358139278  0.3750000000000000
  0.4481588908261361  0.5509757518179662  0.3750000000000000
  0.7867551568663431  0.5600442450998396  0.3750000000000000
  0.6099366120553641  0.0577698174441212  0.3750000000000000
  0.4445122436370887  0.5556018574561784  0.8750000000000000
  0.9401808339654748  0.0526988977558596  0.3750000000000000
  0.2777879161864497  0.7222385729516436  0.8750000000000000
  0.1110945804794904  0.2222139569064058  0.8750000000000000
  0.4445122436370887  0.2222437195142470  0.8750000000000000
  0.6111217180350857  0.7222090553352375  0.8750000000000000
  0.9444085327543837  0.7221890540950276  0.8750000000000000
  0.7777501690349056  0.2222340685062862  0.8750000000000000
  0.1151604548122297  0.7242468940727794  0.3750000000000000
  0.4457621646802177  0.7189616069143528  0.3750000000000000
  0.2688243711493269  0.2192156704048700  0.3750000000000000
  0.7793904174995212  0.7199708724987005  0.3750000000000000
  0.6104397131971262  0.2316086851515393  0.3750000000000000
  0.9401808339654748  0.2208152695429431  0.3750000000000000
  0.1110971020118695  0.3889044236911741  0.8750000000000000
  0.2777879161864497  0.8888826765681349  0.8750000000000000
  0.6111086224326576  0.8888818171601319  0.8750000000000000
  0.4445483186815469  0.3889408260074380  0.8750000000000000
  0.9444081008997560  0.8888415387746216  0.8750000000000000
  0.1137712881536705  0.8909675168022074  0.3750000000000000
  0.7777507928154579  0.3889093116895433  0.8750000000000000
  0.4456255567959002  0.8894794450646147  0.3750000000000000
  0.2688243711493269  0.3829420340777853  0.3750000000000000
  0.2791970764528637  0.5541058739722712  0.3750000000000000
  0.6174852535495285  0.4154705450217650  0.3750000000000000
  0.7752114019227824  0.8850645079285305  0.3750000000000000
  0.9441113921233273  0.3895121116841118  0.3750000000000000
  0.1110951909125587  0.5555683219623229  0.8750000000000000
  0.2778029782162638  0.0555435879524689  0.8750000000000000
  0.7777504885466450  0.5555419109399935  0.8750000000000000
  0.6111086224326576  0.0555601386058541  0.8750000000000000
  0.9444049980931752  0.0555215532477408  0.8750000000000000
  0.0554225990547536  0.1110021875759533  0.1249166000515018
  0.5558000885134489  0.6110791529334164  0.1248891412697591
  0.3889393965171511  0.1111660867810317  0.1249984767913479
  0.8886848596764155  0.6110090965048786  0.1251815791817269
  0.7222074747372763  0.1111428296218942  0.1250253810058660
  0.0553937174204977  0.7776663564395301  0.6249709846438305
  0.3888783620017038  0.7777593086599842  0.6250008247231194
  0.2221398178486454  0.2777365755909909  0.6251323319483664
  0.7222398752857064  0.7776951644335032  0.6249387396130737
  0.5558000885134489  0.2780542689133615  0.6251108587302477
  0.8888052337498603  0.2777904139068396  0.6249928257446177
  0.2221273737605471  0.7777303535469443  0.1249866132391050
  0.0554225990547536  0.2777537448121359  0.1249166000515018
  0.3890919151385299  0.2779225950254750  0.1251267821896307
  0.5556250938839935  0.7777326094476210  0.1250496741644010
  0.8887616592188837  0.7776570473015629  0.1251074537585079
  0.7222398752857064  0.2778780441855394  0.1250612603869258
  0.0554232149631937  0.9443143689803156  0.6250178254448440
  0.3888783620017038  0.9444523866750564  0.6250008247231194
  0.2221449909575971  0.4444680794284127  0.6250524145985946
  0.5559955730018283  0.4446644531675820  0.6236534626036243
  0.7222074747372763  0.9443979784487176  0.6249746189941343
  0.8887616592188837  0.4444379452506565  0.6248925462414916
  0.0554232149631937  0.4444421793162067  0.1249821745551555
  0.2221321867576876  0.9443592117798563  0.1249933225894692
  0.5555625807210727  0.9444479570271975  0.1250300964982814
  0.3890919151385299  0.4445026534463969  0.1251267821896307
  0.8888052337498603  0.9443481531763496  0.1250071742553826
  0.7221559031103177  0.4444629148704524  0.1251092412470606
  0.2221321867576876  0.6111063083111672  0.6250066774105310
  0.0554225990547536  0.1110021875759533  0.6250833999484987
  0.5558000885134489  0.6110791529334164  0.6251108587302477
  0.3889393965171511  0.1111660867810317  0.6250015232086518
  0.8886848596764155  0.6110090965048786  0.6248184208182732
  0.0553937174204977  0.6110606943143032  0.1250290153561697
  0.7222074747372763  0.1111428296218942  0.6249746189941343
  0.2221449909575971  0.1110102448625200  0.1249475854014053
  0.3889393965171511  0.6111066430694623  0.1249984767913479
  0.7221559031103177  0.6110263215732009  0.1251092412470606
  0.5556250938839935  0.1112258177697087  0.1250496741644010
  0.3889393965171511  0.6111066430694623  0.6250015232086518
  0.8888044793130448  0.1110689063231937  0.1249679874031447
  0.2221273737605471  0.7777303535469443  0.6250133867608954
  0.0554225990547536  0.2777537448121359  0.6250833999484987
  0.3890919151385299  0.2779225950254750  0.6248732178103692
  0.5556250938839935  0.7777326094476210  0.6249503258355988
  0.8887616592188837  0.7776570473015629  0.6248925462414916
  0.7222398752857064  0.2778780441855394  0.6249387396130737
  0.0553937174204977  0.7776663564395301  0.1250290153561697
  0.3888783620017038  0.7777593086599842  0.1249991752768812
  0.2221398178486454  0.2777365755909909  0.1248676680516342
  0.7222398752857064  0.7776951644335032  0.1250612603869258
  0.5558000885134489  0.2780542689133615  0.1248891412697591
  0.8888052337498603  0.2777904139068396  0.1250071742553826
  0.0554232149631938  0.4444421793162067  0.6250178254448440
  0.2221321867576876  0.9443592117798563  0.6250066774105310
  0.5555625807210727  0.9444479570271975  0.6249699035017183
  0.3890919151385299  0.4445026534463969  0.6248732178103692
  0.8888052337498603  0.9443481531763496  0.6249928257446177
  0.0554232149631937  0.9443143689803156  0.1249821745551555
  0.7221559031103177  0.4444629148704524  0.6248907587529394
  0.3888783620017038  0.9444523866750564  0.1249991752768812
  0.2221449909575971  0.4444680794284127  0.1249475854014053
  0.2221321867576876  0.6111063083111672  0.1249933225894692
  0.5559955730018283  0.4446644531675820  0.1263465373963757
  0.7222074747372763  0.9443979784487176  0.1250253810058660
  0.8887616592188837  0.4444379452506565  0.1251074537585079
  0.0553937174204977  0.6110606943143032  0.6249709846438305
  0.2221449909575971  0.1110102448625200  0.6250524145985946
  0.7221559031103177  0.6110263215732009  0.6248907587529394
  0.5556250938839935  0.1112258177697087  0.6249503258355988
  0.8888044793130448  0.1110689063231937  0.6250320125968550
 
  0.00000000E+00  0.00000000E+00  0.00000000E+00
  0.00000000E+00  0.00000000E+00  0.00000000E+00
  0.00000000E+00  0.00000000E+00  0.00000000E+00
  0.00000000E+00  0.00000000E+00  0.00000000E+00
  0.00000000E+00  0.00000000E+00  0.00000000E+00
  0.00000000E+00  0.00000000E+00  0.00000000E+00
  0.00000000E+00  0.00000000E+00  0.00000000E+00
  0.00000000E+00  0.00000000E+00  0.00000000E+00
  0.00000000E+00  0.00000000E+00  0.00000000E+00
  0.00000000E+00  0.00000000E+00  0.00000000E+00
  0.00000000E+00  0.00000000E+00  0.00000000E+00
  0.00000000E+00  0.00000000E+00  0.00000000E+00
  0.00000000E+00  0.00000000E+00  0.00000000E+00
  0.00000000E+00  0.00000000E+00  0.00000000E+00
  0.00000000E+00  0.00000000E+00  0.00000000E+00
  0.00000000E+00  0.00000000E+00  0.00000000E+00
  0.00000000E+00  0.00000000E+00  0.00000000E+00
  0.00000000E+00  0.00000000E+00  0.00000000E+00
  0.00000000E+00  0.00000000E+00  0.00000000E+00
  0.00000000E+00  0.00000000E+00  0.00000000E+00
  0.00000000E+00  0.00000000E+00  0.00000000E+00
  0.00000000E+00  0.00000000E+00  0.00000000E+00
  0.00000000E+00  0.00000000E+00  0.00000000E+00
  0.00000000E+00  0.00000000E+00  0.00000000E+00
  0.00000000E+00  0.00000000E+00  0.00000000E+00
  0.00000000E+00  0.00000000E+00  0.00000000E+00
  0.00000000E+00  0.00000000E+00  0.00000000E+00
  0.00000000E+00  0.00000000E+00  0.00000000E+00
  0.00000000E+00  0.00000000E+00  0.00000000E+00
  0.00000000E+00  0.00000000E+00  0.00000000E+00
  0.00000000E+00  0.00000000E+00  0.00000000E+00
  0.00000000E+00  0.00000000E+00  0.00000000E+00
  0.00000000E+00  0.00000000E+00  0.00000000E+00
  0.00000000E+00  0.00000000E+00  0.00000000E+00
  0.00000000E+00  0.00000000E+00  0.00000000E+00
  0.00000000E+00  0.00000000E+00  0.00000000E+00
  0.00000000E+00  0.00000000E+00  0.00000000E+00
  0.00000000E+00  0.00000000E+00  0.00000000E+00
  0.00000000E+00  0.00000000E+00  0.00000000E+00
  0.00000000E+00  0.00000000E+00  0.00000000E+00
  0.00000000E+00  0.00000000E+00  0.00000000E+00
  0.00000000E+00  0.00000000E+00  0.00000000E+00
  0.00000000E+00  0.00000000E+00  0.00000000E+00
  0.00000000E+00  0.00000000E+00  0.00000000E+00
  0.00000000E+00  0.00000000E+00  0.00000000E+00
  0.00000000E+00  0.00000000E+00  0.00000000E+00
  0.00000000E+00  0.00000000E+00  0.00000000E+00
  0.00000000E+00  0.00000000E+00  0.00000000E+00
  0.00000000E+00  0.00000000E+00  0.00000000E+00
  0.00000000E+00  0.00000000E+00  0.00000000E+00
  0.00000000E+00  0.00000000E+00  0.00000000E+00
  0.00000000E+00  0.00000000E+00  0.00000000E+00
  0.00000000E+00  0.00000000E+00  0.00000000E+00
  0.00000000E+00  0.00000000E+00  0.00000000E+00
  0.00000000E+00  0.00000000E+00  0.00000000E+00
  0.00000000E+00  0.00000000E+00  0.00000000E+00
  0.00000000E+00  0.00000000E+00  0.00000000E+00
  0.00000000E+00  0.00000000E+00  0.00000000E+00
  0.00000000E+00  0.00000000E+00  0.00000000E+00
  0.00000000E+00  0.00000000E+00  0.00000000E+00
  0.00000000E+00  0.00000000E+00  0.00000000E+00
  0.00000000E+00  0.00000000E+00  0.00000000E+00
  0.00000000E+00  0.00000000E+00  0.00000000E+00
  0.00000000E+00  0.00000000E+00  0.00000000E+00
  0.00000000E+00  0.00000000E+00  0.00000000E+00
  0.00000000E+00  0.00000000E+00  0.00000000E+00
  0.00000000E+00  0.00000000E+00  0.00000000E+00
  0.00000000E+00  0.00000000E+00  0.00000000E+00
  0.00000000E+00  0.00000000E+00  0.00000000E+00
  0.00000000E+00  0.00000000E+00  0.00000000E+00
  0.00000000E+00  0.00000000E+00  0.00000000E+00
  0.00000000E+00  0.00000000E+00  0.00000000E+00
  0.00000000E+00  0.00000000E+00  0.00000000E+00
  0.00000000E+00  0.00000000E+00  0.00000000E+00
  0.00000000E+00  0.00000000E+00  0.00000000E+00
  0.00000000E+00  0.00000000E+00  0.00000000E+00
  0.00000000E+00  0.00000000E+00  0.00000000E+00
  0.00000000E+00  0.00000000E+00  0.00000000E+00
  0.00000000E+00  0.00000000E+00  0.00000000E+00
  0.00000000E+00  0.00000000E+00  0.00000000E+00
  0.00000000E+00  0.00000000E+00  0.00000000E+00
  0.00000000E+00  0.00000000E+00  0.00000000E+00
  0.00000000E+00  0.00000000E+00  0.00000000E+00
  0.00000000E+00  0.00000000E+00  0.00000000E+00
  0.00000000E+00  0.00000000E+00  0.00000000E+00
  0.00000000E+00  0.00000000E+00  0.00000000E+00
  0.00000000E+00  0.00000000E+00  0.00000000E+00
  0.00000000E+00  0.00000000E+00  0.00000000E+00
  0.00000000E+00  0.00000000E+00  0.00000000E+00
  0.00000000E+00  0.00000000E+00  0.00000000E+00
  0.00000000E+00  0.00000000E+00  0.00000000E+00
  0.00000000E+00  0.00000000E+00  0.00000000E+00
  0.00000000E+00  0.00000000E+00  0.00000000E+00
  0.00000000E+00  0.00000000E+00  0.00000000E+00
  0.00000000E+00  0.00000000E+00  0.00000000E+00
  0.00000000E+00  0.00000000E+00  0.00000000E+00
  0.00000000E+00  0.00000000E+00  0.00000000E+00
  0.00000000E+00  0.00000000E+00  0.00000000E+00
  0.00000000E+00  0.00000000E+00  0.00000000E+00
  0.00000000E+00  0.00000000E+00  0.00000000E+00
  0.00000000E+00  0.00000000E+00  0.00000000E+00
  0.00000000E+00  0.00000000E+00  0.00000000E+00
  0.00000000E+00  0.00000000E+00  0.00000000E+00
  0.00000000E+00  0.00000000E+00  0.00000000E+00
  0.00000000E+00  0.00000000E+00  0.00000000E+00
  0.00000000E+00  0.00000000E+00  0.00000000E+00
  0.00000000E+00  0.00000000E+00  0.00000000E+00
  0.00000000E+00  0.00000000E+00  0.00000000E+00
  0.00000000E+00  0.00000000E+00  0.00000000E+00
  0.00000000E+00  0.00000000E+00  0.00000000E+00
  0.00000000E+00  0.00000000E+00  0.00000000E+00
  0.00000000E+00  0.00000000E+00  0.00000000E+00
  0.00000000E+00  0.00000000E+00  0.00000000E+00
  0.00000000E+00  0.00000000E+00  0.00000000E+00
  0.00000000E+00  0.00000000E+00  0.00000000E+00
  0.00000000E+00  0.00000000E+00  0.00000000E+00
  0.00000000E+00  0.00000000E+00  0.00000000E+00
  0.00000000E+00  0.00000000E+00  0.00000000E+00
  0.00000000E+00  0.00000000E+00  0.00000000E+00
  0.00000000E+00  0.00000000E+00  0.00000000E+00
  0.00000000E+00  0.00000000E+00  0.00000000E+00
  0.00000000E+00  0.00000000E+00  0.00000000E+00
  0.00000000E+00  0.00000000E+00  0.00000000E+00
  0.00000000E+00  0.00000000E+00  0.00000000E+00
  0.00000000E+00  0.00000000E+00  0.00000000E+00
  0.00000000E+00  0.00000000E+00  0.00000000E+00
  0.00000000E+00  0.00000000E+00  0.00000000E+00
  0.00000000E+00  0.00000000E+00  0.00000000E+00
  0.00000000E+00  0.00000000E+00  0.00000000E+00
  0.00000000E+00  0.00000000E+00  0.00000000E+00
  0.00000000E+00  0.00000000E+00  0.00000000E+00
  0.00000000E+00  0.00000000E+00  0.00000000E+00
  0.00000000E+00  0.00000000E+00  0.00000000E+00
  0.00000000E+00  0.00000000E+00  0.00000000E+00
  0.00000000E+00  0.00000000E+00  0.00000000E+00
  0.00000000E+00  0.00000000E+00  0.00000000E+00
  0.00000000E+00  0.00000000E+00  0.00000000E+00
  0.00000000E+00  0.00000000E+00  0.00000000E+00
  0.00000000E+00  0.00000000E+00  0.00000000E+00
  0.00000000E+00  0.00000000E+00  0.00000000E+00
  0.00000000E+00  0.00000000E+00  0.00000000E+00
  0.00000000E+00  0.00000000E+00  0.00000000E+00
  0.00000000E+00  0.00000000E+00  0.00000000E+00
  0.00000000E+00  0.00000000E+00  0.00000000E+00
  0.00000000E+00  0.00000000E+00  0.00000000E+00
  0.00000000E+00  0.00000000E+00  0.00000000E+00
  0.00000000E+00  0.00000000E+00  0.00000000E+00
  0.00000000E+00  0.00000000E+00  0.00000000E+00
  0.00000000E+00  0.00000000E+00  0.00000000E+00
  0.00000000E+00  0.00000000E+00  0.00000000E+00
  0.00000000E+00  0.00000000E+00  0.00000000E+00
  0.00000000E+00  0.00000000E+00  0.00000000E+00
  0.00000000E+00  0.00000000E+00  0.00000000E+00
  0.00000000E+00  0.00000000E+00  0.00000000E+00
  0.00000000E+00  0.00000000E+00  0.00000000E+00
  0.00000000E+00  0.00000000E+00  0.00000000E+00
  0.00000000E+00  0.00000000E+00  0.00000000E+00
  0.00000000E+00  0.00000000E+00  0.00000000E+00
  0.00000000E+00  0.00000000E+00  0.00000000E+00
  0.00000000E+00  0.00000000E+00  0.00000000E+00
  0.00000000E+00  0.00000000E+00  0.00000000E+00
  0.00000000E+00  0.00000000E+00  0.00000000E+00
  0.00000000E+00  0.00000000E+00  0.00000000E+00
  0.00000000E+00  0.00000000E+00  0.00000000E+00
  0.00000000E+00  0.00000000E+00  0.00000000E+00
  0.00000000E+00  0.00000000E+00  0.00000000E+00
  0.00000000E+00  0.00000000E+00  0.00000000E+00
  0.00000000E+00  0.00000000E+00  0.00000000E+00
  0.00000000E+00  0.00000000E+00  0.00000000E+00
  0.00000000E+00  0.00000000E+00  0.00000000E+00
  0.00000000E+00  0.00000000E+00  0.00000000E+00
  0.00000000E+00  0.00000000E+00  0.00000000E+00
  0.00000000E+00  0.00000000E+00  0.00000000E+00
  0.00000000E+00  0.00000000E+00  0.00000000E+00
  0.00000000E+00  0.00000000E+00  0.00000000E+00
  0.00000000E+00  0.00000000E+00  0.00000000E+00
  0.00000000E+00  0.00000000E+00  0.00000000E+00
  0.00000000E+00  0.00000000E+00  0.00000000E+00
  0.00000000E+00  0.00000000E+00  0.00000000E+00
  0.00000000E+00  0.00000000E+00  0.00000000E+00
  0.00000000E+00  0.00000000E+00  0.00000000E+00
  0.00000000E+00  0.00000000E+00  0.00000000E+00
  0.00000000E+00  0.00000000E+00  0.00000000E+00
  0.00000000E+00  0.00000000E+00  0.00000000E+00
  0.00000000E+00  0.00000000E+00  0.00000000E+00
  0.00000000E+00  0.00000000E+00  0.00000000E+00
  0.00000000E+00  0.00000000E+00  0.00000000E+00
  0.00000000E+00  0.00000000E+00  0.00000000E+00
  0.00000000E+00  0.00000000E+00  0.00000000E+00
  0.00000000E+00  0.00000000E+00  0.00000000E+00
  0.00000000E+00  0.00000000E+00  0.00000000E+00
  0.00000000E+00  0.00000000E+00  0.00000000E+00
  0.00000000E+00  0.00000000E+00  0.00000000E+00
  0.00000000E+00  0.00000000E+00  0.00000000E+00
  0.00000000E+00  0.00000000E+00  0.00000000E+00
  0.00000000E+00  0.00000000E+00  0.00000000E+00
  0.00000000E+00  0.00000000E+00  0.00000000E+00
  0.00000000E+00  0.00000000E+00  0.00000000E+00
  0.00000000E+00  0.00000000E+00  0.00000000E+00
  0.00000000E+00  0.00000000E+00  0.00000000E+00
  0.00000000E+00  0.00000000E+00  0.00000000E+00
  0.00000000E+00  0.00000000E+00  0.00000000E+00
  0.00000000E+00  0.00000000E+00  0.00000000E+00
  0.00000000E+00  0.00000000E+00  0.00000000E+00
  0.00000000E+00  0.00000000E+00  0.00000000E+00
  0.00000000E+00  0.00000000E+00  0.00000000E+00
  0.00000000E+00  0.00000000E+00  0.00000000E+00
  0.00000000E+00  0.00000000E+00  0.00000000E+00
  0.00000000E+00  0.00000000E+00  0.00000000E+00
  0.00000000E+00  0.00000000E+00  0.00000000E+00
  0.00000000E+00  0.00000000E+00  0.00000000E+00
  0.00000000E+00  0.00000000E+00  0.00000000E+00
  0.00000000E+00  0.00000000E+00  0.00000000E+00
  0.00000000E+00  0.00000000E+00  0.00000000E+00
  0.00000000E+00  0.00000000E+00  0.00000000E+00
  0.00000000E+00  0.00000000E+00  0.00000000E+00
  0.00000000E+00  0.00000000E+00  0.00000000E+00
  0.00000000E+00  0.00000000E+00  0.00000000E+00
  0.00000000E+00  0.00000000E+00  0.00000000E+00
  0.00000000E+00  0.00000000E+00  0.00000000E+00
  0.00000000E+00  0.00000000E+00  0.00000000E+00
  0.00000000E+00  0.00000000E+00  0.00000000E+00
  0.00000000E+00  0.00000000E+00  0.00000000E+00
  0.00000000E+00  0.00000000E+00  0.00000000E+00
  0.00000000E+00  0.00000000E+00  0.00000000E+00
  0.00000000E+00  0.00000000E+00  0.00000000E+00
  0.00000000E+00  0.00000000E+00  0.00000000E+00
  0.00000000E+00  0.00000000E+00  0.00000000E+00
  0.00000000E+00  0.00000000E+00  0.00000000E+00
  0.00000000E+00  0.00000000E+00  0.00000000E+00
  0.00000000E+00  0.00000000E+00  0.00000000E+00
  0.00000000E+00  0.00000000E+00  0.00000000E+00
  0.00000000E+00  0.00000000E+00  0.00000000E+00
  0.00000000E+00  0.00000000E+00  0.00000000E+00
  0.00000000E+00  0.00000000E+00  0.00000000E+00
  0.00000000E+00  0.00000000E+00  0.00000000E+00
  0.00000000E+00  0.00000000E+00  0.00000000E+00
  0.00000000E+00  0.00000000E+00  0.00000000E+00
  0.00000000E+00  0.00000000E+00  0.00000000E+00
  0.00000000E+00  0.00000000E+00  0.00000000E+00
  0.00000000E+00  0.00000000E+00  0.00000000E+00
  0.00000000E+00  0.00000000E+00  0.00000000E+00
  0.00000000E+00  0.00000000E+00  0.00000000E+00
  0.00000000E+00  0.00000000E+00  0.00000000E+00
  0.00000000E+00  0.00000000E+00  0.00000000E+00
  0.00000000E+00  0.00000000E+00  0.00000000E+00
  0.00000000E+00  0.00000000E+00  0.00000000E+00
  0.00000000E+00  0.00000000E+00  0.00000000E+00