 B N O 
 1.0
 14.936314146199660   0.000000000000000   0.000000000000000
 -7.468157073099825  12.935227489513863   0.000000000000000
  0.000000000000001   0.000000000000001  13.341276283792837
 B N O 
 143 143   1
Cartesian
  1.213265416933646   0.699753691152980   5.002978606422314 
  5.224890462266466   6.924848707539003   5.002978606422314 
  6.208954382008209   0.777845561197818   5.002978606422314 
 10.013502344575752   7.214140088423930   5.002978606422314 
 11.166960164342214   0.698257461573364   5.002978606422314 
 -3.734289512874241   9.341986935188990  11.673616748318732 
  1.244911269688575   9.342418927718565  11.673616748318732 
  2.489986411848302   2.874605486941660  11.673616748318732 
  6.223415220329171   9.341495512227789  11.673616748318732 
  7.468137954894009   2.874802517322741  11.673616748318732 
 12.446379929043516   2.874424577729231  11.673616748318732 
 -1.205600592964754   9.348504050710396   5.002978606422314 
 -0.083813988945138   2.826104968590438   5.002978606422314 
  4.972308757408326   2.981783009817611   5.002978606422314 
  3.799164010986778   9.212008024360550   5.002978606422314 
  8.764994064289390   9.376619863550369   5.002978606422314 
  9.909815588420088   2.890767579890533   5.002978606422314 
 -4.978794935078931  11.497608922913212  11.673616748318732 
  0.000137213578094  11.498059210975192  11.673616748318732 
  1.245088892440514   5.030831240772425  11.673616748318732 
  6.223630889701536   5.030754049812316  11.673616748318732 
  4.978653665548356  11.497469630929920  11.673616748318732 
 11.201610572258678   5.030508618403379  11.673616748318732 
 -1.276748509636005   5.012584323525726   5.002978606422314 
 -2.464301065318500  11.528637220338045   5.002978606422314 
  2.497150803187519  11.454145596956762   5.002978606422314 
  7.470324111778464  11.485610354506507   5.002978606422314 
  8.708079931999066   5.080347828413579   5.002978606422314 
  0.000098824893278   7.186718271247474  11.673616748318732 
  1.244704239706643   0.718241592330200  11.673616748318732 
  4.979190561146410   7.186187925857516  11.673616748318732 
  6.223842068011791   0.718657817653224  11.673616748318732 
  9.957026865207249   7.186202005564597  11.673616748318732 
 -2.453995551283953   7.193759964457373   5.002978606422314 
 11.201899261215742   0.718429558558538  11.673616748318732 
  3.733851632219141   0.755734661722409   5.002978606422314 
  2.579068522745728   7.126996690971323   5.002978606422314 
  7.568723788807071   7.244299714559491   5.002978606422314 
  8.678770776170628   0.747265730667392   5.002978606422314 
  2.490052571206848   7.186836419792117  11.673616748318732 
 13.649272644324329   0.681672230918681   5.002978606422314 
 -1.244663524875344   9.342320242831370  11.673616748318732 
 -0.000185180030152   2.874388083929393  11.673616748318732 
  4.979623506953266   2.874773070032498  11.673616748318732 
  3.734335297278702   9.341938425748198  11.673616748318732 
  8.712561235115913   9.341679705156022  11.673616748318732 
  9.957041921366272   2.874648232049019  11.673616748318732 
 -3.688716834345505   9.368298333405246   5.002978606422314 
  1.288725516189081   9.299931941663599   5.002978606422314 
  2.378108198172471   2.835604565953286   5.002978606422314 
  6.264364554433529   9.312987021594477   5.002978606422314 
  7.388029283422481   2.995911030982349   5.002978606422314 
 12.393753173258744   2.856295744696290   5.002978606422314 
 -1.245018106167386   5.030567192123621  11.673616748318732 
 -2.489187865989222  11.497899632896802  11.673616748318732 
  2.489401332131232  11.497888516258778  11.673616748318732 
  3.735242160227729   5.031038064365641  11.673616748318732 
  7.467967852589957  11.497367506179295  11.673616748318732 
 -4.954561661827555  11.524867515603813   5.002978606422314 
  8.712294342058883   5.030630419494493  11.673616748318732 
  0.013231098842490  11.505618969157343   5.002978606422314 
  1.155373997255676   4.953442326093320   5.002978606422314 
  0.032025540648326   7.167485533107224   5.002978606422314 
  6.120154438192580   5.374206015048843   5.002978606422314 
  4.969000263798445  11.448510752950195   5.002978606422314 
 11.192606709828153   5.038427774554920   5.002978606422314 
 -2.489718821651115   7.186402630550130  11.673616748318732 
  3.734544314155407   0.718468945749009  11.673616748318732 
  7.467851372703049   7.186060997968061  11.673616748318732 
  8.712778519993782   0.718683032215644  11.673616748318732 
 13.691286052164148   0.718183921830688  11.673616748318732 
 -0.001172421994233   1.435838548128642   1.666546873719139 
  3.737969626318910   7.904447857293168   1.666180538525489 
  4.979115212930887   1.437958621631689   1.667639213926640 
  8.710564335307065   7.903541661452940   1.670082033504910 
  9.957085612244432   1.437657784987479   1.667998150485723 
 -4.980356535237273  10.059291231486695   8.337910575487387 
 -0.000019302621285  10.060493589603922   8.338308680229511 
  1.243769732308549   3.592585787428033   8.340063154454848 
  4.979652023199773  10.059663869442252   8.337480385623291 
  6.225051769431533   3.596695222824788   8.339776674319232 
 11.200891741616633   3.593282198291192   8.338201963647341 
 -2.490448205848200  10.060119048629765   1.667480938998459 
 -1.246499243618043   3.592807875209360   1.666546873719139 
  3.736029482441783   3.594991991130553   1.669350971693836 
  2.490761661536379  10.060148229218218   1.668322252225545 
  7.467158364939805  10.059170815669361   1.669093105754092 
  8.712364785035989   3.594415715881132   1.668476827221336 
 -6.224469484247524  12.214921184377120   8.338535491555067 
 -1.244909392236326  12.216706474656162   8.338308680229511 
 -0.001330060203045   5.749295719233840   8.338996955011682 
  4.983700561172047   5.751835858222957   8.320333149939012 
  3.734205278836540  12.216002691871179   8.337959062358903 
  9.955690958813259   5.748905926789344   8.336864107090536 
 -2.491345455361613   5.748960695390450   1.667421721289559 
 -3.734786803605587  12.215501236190438   1.667570450295350 
  1.244771543076006  12.216649176153419   1.668061061172846 
  2.491983440908192   5.749742942021689   1.669350971693836 
  6.222933846461613  12.215358190638371   1.667755249197300 
  7.467028569967901   5.749228914501731   1.669116953132731 
 -1.246001775434843   7.904799118281942   8.338386762549277 
 -0.001172421994232   1.435838548128642   8.339410339125504 
  3.737969626318911   7.904447857293169   8.339776674319232 
  4.979115212930888   1.437958621631690   8.338317998917987 
  8.710564335307065   7.903541661452941   8.335875179339718 
 -3.736119281218281   7.904209090855800   1.668046637357241 
  9.957085612244432   1.437657784987480   8.337959062358903 
  2.488985425590779   1.435942770963334   1.666960257832945 
  1.245480611355988   7.904803448456642   1.667639213926640 
  6.223106886081164   7.903764471630208   1.669116953132731 
  7.468339072074849   1.438731255558400   1.668322252225545 
  1.245480611355988   7.904803448456643   8.338317998917987 
 12.445982879210034   1.436701570302019   1.667232446574900 
 -2.490448205848200  10.060119048629765   8.338476273846169 
 -1.246499243618043   3.592807875209361   8.339410339125504 
  3.736029482441784   3.594991991130554   8.336606241150792 
  2.490761661536379  10.060148229218218   8.337634960619082 
  7.467158364939806  10.059170815669361   8.336864107090536 
  8.712364785035989   3.594415715881133   8.337480385623291 
 -4.980356535237274  10.059291231486695   1.668046637357241 
 -0.000019302621285  10.060493589603922   1.667648532615116 
  1.243769732308548   3.592585787428032   1.665894058389781 
  4.979652023199772  10.059663869442252   1.668476827221336 
  6.225051769431532   3.596695222824787   1.666180538525489 
 11.200891741616633   3.593282198291191   1.667755249197300 
 -2.491345455361612   5.748960695390451   8.338535491555067 
 -3.734786803605586  12.215501236190438   8.338386762549277 
  1.244771543076006  12.216649176153419   8.337896151671767 
  2.491983440908193   5.749742942021689   8.336606241150792 
  6.222933846461614  12.215358190638371   8.338201963647341 
 -6.224469484247525  12.214921184377120   1.667421721289559 
  7.467028569967902   5.749228914501732   8.336840259711895 
 -1.244909392236327  12.216706474656162   1.667648532615116 
 -0.001330060203046   5.749295719233839   1.666960257832945 
 -1.246001775434844   7.904799118281941   1.667570450295350 
  4.983700561172046   5.751835858222957   1.685624062905616 
  3.734205278836540  12.216002691871179   1.667998150485723 
  9.955690958813259   5.748905926789343   1.669093105754092 
 -3.736119281218280   7.904209090855801   8.337910575487387 
  2.488985425590780   1.435942770963335   8.338996955011682 
  6.223106886081164   7.903764471630208   8.336840259711895 
  7.468339072074849   1.438731255558400   8.337634960619082 
 12.445982879210034   1.436701570302020   8.338724766269728 
  1.244238135093653   0.718573302348104   1.668928184339441 
  4.978307884729657   7.187801415464841   1.652225604223708 
  6.222863675993160   0.718767602111794   1.668607652684369 
  9.957234130493804   7.186015473509336   1.667808554187204 
 11.201995059110780   0.718484867499087   1.667981918980374 
 -3.734491081246257   9.341870559635154   8.338134633592755 
  1.244517149809323   9.341516723146285   8.337349560160259 
  2.489048703990730   2.874688376538036   8.331355593928158 
  6.223419213774083   9.342513958947428   8.339556755857963 
  7.468294005980710   2.874440957706911   8.339095004697047 
 12.446745184299822   2.874279813641064   8.337874486788285 
 -1.245046557708013   9.341713928949398   1.668203594259113 
 -0.000355534264967   2.874289729866176   1.669814818238755 
  4.978031784852312   2.874700969537875   1.670836887649011 
  3.734100203009806   9.342254349761404   1.666862208147582 
  8.712503326260665   9.341952468187218   1.667808554187204 
  9.957654910250858   2.874284060627957   1.667815651168643 
 -4.979257178225632  11.497849400733926   8.337727210175348 
 -0.000468587196774  11.497709451734677   8.337977441671079 
  1.244691823007898   5.029977717148253   8.331355593928158 
  6.224586874481837   5.029182884808439   8.353731608620921 
  4.978644778288623  11.498182580586828   8.338141561675984 
 11.202199920647718   5.030088273912459   8.337994011865099 
 -1.244963889171678   5.029997678678984   1.668928184339441 
 -2.489904465630011  11.497871073674212   1.668203594259113 
  2.489057433286260  11.497691913666442   1.668559130659109 
  3.734210385108907   5.030442368723046   1.685151302781916 
  7.467898497777004  11.498088069101328   1.667963200979528 
  8.713178339512940   5.030124654559428   1.666400456986665 
 -0.000270557392657   7.185657493249808   8.335825719209501 
  1.244238135093653   0.718573302348105   8.337029028505199 
  4.978307884729658   7.187801415464842   8.353731608620921 
  6.222863675993161   0.718767602111795   8.337349560160259 
  9.957234130493804   7.186015473509337   8.338148658657422 
 -2.489741683322627   7.185882077331913   1.668230002669279 
 11.201995059110780   0.718484867499088   8.337975293864266 
  3.733440962318677   0.718679440304526   1.670131493635126 
  2.489194269296409   7.185493998264224   1.670836887649011 
  7.467864196933415   7.186068402040870   1.665943741447362 
  8.712436307731892   0.718483508375720   1.668559130659109 
  2.489194269296409   7.185493998264225   8.335120325195604 
 13.691343310414391   0.718572624205596   1.668082726056341 
 -1.245046557708013   9.341713928949398   8.337753618585515 
 -0.000355534264967   2.874289729866177   8.336142394605872 
  4.978031784852313   2.874700969537876   8.335120325195604 
  3.734100203009806   9.342254349761404   8.339095004697047 
  8.712503326260665   9.341952468187218   8.338148658657422 
  9.957654910250858   2.874284060627958   8.338141561675984 
 -3.734491081246257   9.341870559635154   1.667822579251953 
  1.244517149809322   9.341516723146285   1.668607652684369 
  2.489048703990729   2.874688376538035   1.674601618916470 
  6.223419213774082   9.342513958947428   1.666400456986665 
  7.468294005980709   2.874440957706910   1.666862208147582 
 12.446745184299822   2.874279813641063   1.668082726056341 
 -1.244963889171678   5.029997678678985   8.337029028505199 
 -2.489904465630011  11.497871073674212   8.337753618585515 
  2.489057433286261  11.497691913666442   8.337398082185519 
  3.734210385108907   5.030442368723047   8.320805910062711 
  7.467898497777005  11.498088069101328   8.337994011865099 
 -4.979257178225633  11.497849400733926   1.668230002669279 
  8.713178339512940   5.030124654559429   8.339556755857963 
 -0.000468587196774  11.497709451734677   1.667979771173548 
  1.244691823007897   5.029977717148252   1.674601618916470 
 -0.000270557392658   7.185657493249807   1.670131493635126 
  6.224586874481836   5.029182884808439   1.652225604223708 
  4.978644778288622  11.498182580586828   1.667815651168643 
 11.202199920647718   5.030088273912458   1.667963200979528 
 -2.489741683322627   7.185882077331914   8.337727210175348 
  3.733440962318678   0.718679440304527   8.335825719209501 
  7.467864196933416   7.186068402040870   8.340013471397267 
  8.712436307731892   0.718483508375721   8.337398082185519 
 13.691343310414391   0.718572624205597   8.337874486788285 
 -0.042138244086975   1.404099431988280   5.002978606422314 
  3.855224928918433   7.722525266618407   5.002978606422314 
  4.953850857329934   1.525930762754817   5.002978606422314 
  8.801029182899835   7.955771565562884   5.002978606422314 
  9.928204645463129   1.444627038756914   5.002978606422314 
 -4.978697556377128  10.060809766786582  11.673616748318732 
 -0.000015944663545  10.060813461400587  11.673616748318732 
  1.244772014023006   3.593164455045722  11.673616748318732 
  4.978709986187213  10.060753503195329  11.673616748318732 
  6.223435955851073   3.592885613134531  11.673616748318732 
 11.202261327147950   3.593119367419656  11.673616748318732 
 -2.444728333442243  10.086515429270600   5.002978606422314 
 -1.294469035535691   3.573199990660416   5.002978606422314 
  3.599840463003009   3.596093635867163   5.002978606422314 
  2.538994577413708   9.987330191257245   5.002978606422314 
  7.501518966077628  10.062947490707156   5.002978606422314 
  8.676691185096146   3.635993073914697   5.002978606422314 
 -6.223414670442668  12.216666581634295  11.673616748318732 
 -1.244630696155592  12.216549446834540  11.673616748318732 
  0.000082209584631   5.749043908682888  11.673616748318732 
  4.978681367562310   5.748938025441132  11.673616748318732 
  3.734003554573266  12.216593832344788  11.673616748318732 
  9.957616219479332   5.748995258869111  11.673616748318732 
 -2.490348632076619   5.751866334054426   5.002978606422314 
 -3.712586588359932  12.256646518012518   5.002978606422314 
  1.249793539325968  12.219548627040298   5.002978606422314 
  2.424842983516647   5.631248969102925   5.002978606422314 
  6.208393581382213  12.185591402430473   5.002978606422314 
  7.511322519118723   5.827658150804123   5.002978606422314 
 -1.244640222525570   7.904916563275307  11.673616748318732 
  0.000040021977720   1.437268590783337  11.673616748318732 
  3.733862500758362   7.904953326529929  11.673616748318732 
  4.978852029737028   1.437139565126558  11.673616748318732 
  8.712935183496398   7.904910471293260  11.673616748318732 
 -3.677868481884955   7.930246640778004   5.002978606422314 
  9.957496692780145   1.437187516414120  11.673616748318732 
  2.457406243840087   1.430504187788258   5.002978606422314 
  1.309034542593450   7.838937804134408   5.002978606422314 
  6.313175571693852   7.902909538677570   5.002978606422314 
  7.429393259285625   1.516911204987159   5.002978606422314 
  1.244639696018427   7.904985053377567  11.673616748318732 
 12.411316130376330   1.416686713530959   5.002978606422314 
 -2.489320209237690  10.060770297776386  11.673616748318732 
 -1.244654568364614   3.593142861162403  11.673616748318732 
  3.734159914700600   3.593142806842933  11.673616748318732 
  2.489257454216109  10.060794611918359  11.673616748318732 
  7.468198359123295  10.060793474275203  11.673616748318732 
  8.712837417040701   3.593055071020401  11.673616748318732 
 -4.928681955885677  10.096719128539004   5.002978606422314 
  0.042828649405158  10.051567955422673   5.002978606422314 
  1.160587651780676   3.544560590843434   5.002978606422314 
  4.997822271509157  10.007980946633122   5.002978606422314 
  6.126129835684568   3.789202588941968   5.002978606422314 
 11.167842814299732   3.595573353458774   5.002978606422314 
 -2.489306490094770   5.749001492313122  11.673616748318732 
 -3.734004316803096  12.216621653101694  11.673616748318732 
  1.244645109383891  12.216576179627339  11.673616748318732 
  2.489447216468287   5.749048441007461  11.673616748318732 
  6.223477623555964  12.216625701936982  11.673616748318732 
 -6.221454715707801  12.214331639333009   5.002978606422314 
  7.468177105712238   5.748982093349028  11.673616748318732 
 -1.231215242168947  12.258276706701812   5.002978606422314 
 -0.021829602268595   5.724666637194540   5.002978606422314 
 -1.199268808508172   7.903452427743030   5.002978606422314 
  3.725800346255632  12.187506414068011   5.002978606422314 
  9.976141955906680   5.776774742745208   5.002978606422314 
 -3.733974701641970   7.904886541043099  11.673616748318732 
  2.489473486150553   1.437291737751935  11.673616748318732 
  6.223467400564945   7.904882543338231  11.673616748318732 
  7.468146752253664   1.437105382456313  11.673616748318732 
 12.446927613660385   1.437247012991234  11.673616748318732 
  3.575004120323200   4.938524588892334   5.002978606422314 
Generated by cif2cell 2.0.0.  :  Failed to get author information, No journal information. Species order: B N O 
 1.0
 14.936314146199660   0.000000000000000   0.000000000000000
 -7.468157073099825  12.935227489513863   0.000000000000000
  0.000000000000001   0.000000000000001  13.341276283792837
 B N O 
 143 143   1
Cartesian
  1.213265416933646   0.699753691152980   5.002978606422314 
  5.224890462266466   6.924848707539003   5.002978606422314 
  6.208954382008209   0.777845561197818   5.002978606422314 
 10.013502344575752   7.214140088423930   5.002978606422314 
 11.166960164342214   0.698257461573364   5.002978606422314 
 -3.734289512874241   9.341986935188990  11.673616748318732 
  1.244911269688575   9.342418927718565  11.673616748318732 
  2.489986411848302   2.874605486941660  11.673616748318732 
  6.223415220329171   9.341495512227789  11.673616748318732 
  7.468137954894009   2.874802517322741  11.673616748318732 
 12.446379929043516   2.874424577729231  11.673616748318732 
 -1.205600592964754   9.348504050710396   5.002978606422314 
 -0.083813988945138   2.826104968590438   5.002978606422314 
  4.972308757408326   2.981783009817611   5.002978606422314 
  3.799164010986778   9.212008024360550   5.002978606422314 
  8.764994064289390   9.376619863550369   5.002978606422314 
  9.909815588420088   2.890767579890533   5.002978606422314 
 -4.978794935078931  11.497608922913212  11.673616748318732 
  0.000137213578094  11.498059210975192  11.673616748318732 
  1.245088892440514   5.030831240772425  11.673616748318732 
  6.223630889701536   5.030754049812316  11.673616748318732 
  4.978653665548356  11.497469630929920  11.673616748318732 
 11.201610572258678   5.030508618403379  11.673616748318732 
 -1.276748509636005   5.012584323525726   5.002978606422314 
 -2.464301065318500  11.528637220338045   5.002978606422314 
  2.497150803187519  11.454145596956762   5.002978606422314 
  7.470324111778464  11.485610354506507   5.002978606422314 
  8.708079931999066   5.080347828413579   5.002978606422314 
  0.000098824893278   7.186718271247474  11.673616748318732 
  1.244704239706643   0.718241592330200  11.673616748318732 
  4.979190561146410   7.186187925857516  11.673616748318732 
  6.223842068011791   0.718657817653224  11.673616748318732 
  9.957026865207249   7.186202005564597  11.673616748318732 
 -2.453995551283953   7.193759964457373   5.002978606422314 
 11.201899261215742   0.718429558558538  11.673616748318732 
  3.733851632219141   0.755734661722409   5.002978606422314 
  2.579068522745728   7.126996690971323   5.002978606422314 
  7.568723788807071   7.244299714559491   5.002978606422314 
  8.678770776170628   0.747265730667392   5.002978606422314 
  2.490052571206848   7.186836419792117  11.673616748318732 
 13.649272644324329   0.681672230918681   5.002978606422314 
 -1.244663524875344   9.342320242831370  11.673616748318732 
 -0.000185180030152   2.874388083929393  11.673616748318732 
  4.979623506953266   2.874773070032498  11.673616748318732 
  3.734335297278702   9.341938425748198  11.673616748318732 
  8.712561235115913   9.341679705156022  11.673616748318732 
  9.957041921366272   2.874648232049019  11.673616748318732 
 -3.688716834345505   9.368298333405246   5.002978606422314 
  1.288725516189081   9.299931941663599   5.002978606422314 
  2.378108198172471   2.835604565953286   5.002978606422314 
  6.264364554433529   9.312987021594477   5.002978606422314 
  7.388029283422481   2.995911030982349   5.002978606422314 
 12.393753173258744   2.856295744696290   5.002978606422314 
 -1.245018106167386   5.030567192123621  11.673616748318732 
 -2.489187865989222  11.497899632896802  11.673616748318732 
  2.489401332131232  11.497888516258778  11.673616748318732 
  3.735242160227729   5.031038064365641  11.673616748318732 
  7.467967852589957  11.497367506179295  11.673616748318732 
 -4.954561661827555  11.524867515603813   5.002978606422314 
  8.712294342058883   5.030630419494493  11.673616748318732 
  0.013231098842490  11.505618969157343   5.002978606422314 
  1.155373997255676   4.953442326093320   5.002978606422314 
  0.032025540648326   7.167485533107224   5.002978606422314 
  6.120154438192580   5.374206015048843   5.002978606422314 
  4.969000263798445  11.448510752950195   5.002978606422314 
 11.192606709828153   5.038427774554920   5.002978606422314 
 -2.489718821651115   7.186402630550130  11.673616748318732 
  3.734544314155407   0.718468945749009  11.673616748318732 
  7.467851372703049   7.186060997968061  11.673616748318732 
  8.712778519993782   0.718683032215644  11.673616748318732 
 13.691286052164148   0.718183921830688  11.673616748318732 
 -0.001172421994233   1.435838548128642   1.666546873719139 
  3.737969626318910   7.904447857293168   1.666180538525489 
  4.979115212930887   1.437958621631689   1.667639213926640 
  8.710564335307065   7.903541661452940   1.670082033504910 
  9.957085612244432   1.437657784987479   1.667998150485723 
 -4.980356535237273  10.059291231486695   8.337910575487387 
 -0.000019302621285  10.060493589603922   8.338308680229511 
  1.243769732308549   3.592585787428033   8.340063154454848 
  4.979652023199773  10.059663869442252   8.337480385623291 
  6.225051769431533   3.596695222824788   8.339776674319232 
 11.200891741616633   3.593282198291192   8.338201963647341 
 -2.490448205848200  10.060119048629765   1.667480938998459 
 -1.246499243618043   3.592807875209360   1.666546873719139 
  3.736029482441783   3.594991991130553   1.669350971693836 
  2.490761661536379  10.060148229218218   1.668322252225545 
  7.467158364939805  10.059170815669361   1.669093105754092 
  8.712364785035989   3.594415715881132   1.668476827221336 
 -6.224469484247524  12.214921184377120   8.338535491555067 
 -1.244909392236326  12.216706474656162   8.338308680229511 
 -0.001330060203045   5.749295719233840   8.338996955011682 
  4.983700561172047   5.751835858222957   8.320333149939012 
  3.734205278836540  12.216002691871179   8.337959062358903 
  9.955690958813259   5.748905926789344   8.336864107090536 
 -2.491345455361613   5.748960695390450   1.667421721289559 
 -3.734786803605587  12.215501236190438   1.667570450295350 
  1.244771543076006  12.216649176153419   1.668061061172846 
  2.491983440908192   5.749742942021689   1.669350971693836 
  6.222933846461613  12.215358190638371   1.667755249197300 
  7.467028569967901   5.749228914501731   1.669116953132731 
 -1.246001775434843   7.904799118281942   8.338386762549277 
 -0.001172421994232   1.435838548128642   8.339410339125504 
  3.737969626318911   7.904447857293169   8.339776674319232 
  4.979115212930888   1.437958621631690   8.338317998917987 
  8.710564335307065   7.903541661452941   8.335875179339718 
 -3.736119281218281   7.904209090855800   1.668046637357241 
  9.957085612244432   1.437657784987480   8.337959062358903 
  2.488985425590779   1.435942770963334   1.666960257832945 
  1.245480611355988   7.904803448456642   1.667639213926640 
  6.223106886081164   7.903764471630208   1.669116953132731 
  7.468339072074849   1.438731255558400   1.668322252225545 
  1.245480611355988   7.904803448456643   8.338317998917987 
 12.445982879210034   1.436701570302019   1.667232446574900 
 -2.490448205848200  10.060119048629765   8.338476273846169 
 -1.246499243618043   3.592807875209361   8.339410339125504 
  3.736029482441784   3.594991991130554   8.336606241150792 
  2.490761661536379  10.060148229218218   8.337634960619082 
  7.467158364939806  10.059170815669361   8.336864107090536 
  8.712364785035989   3.594415715881133   8.337480385623291 
 -4.980356535237274  10.059291231486695   1.668046637357241 
 -0.000019302621285  10.060493589603922   1.667648532615116 
  1.243769732308548   3.592585787428032   1.665894058389781 
  4.979652023199772  10.059663869442252   1.668476827221336 
  6.225051769431532   3.596695222824787   1.666180538525489 
 11.200891741616633   3.593282198291191   1.667755249197300 
 -2.491345455361612   5.748960695390451   8.338535491555067 
 -3.734786803605586  12.215501236190438   8.338386762549277 
  1.244771543076006  12.216649176153419   8.337896151671767 
  2.491983440908193   5.749742942021689   8.336606241150792 
  6.222933846461614  12.215358190638371   8.338201963647341 
 -6.224469484247525  12.214921184377120   1.667421721289559 
  7.467028569967902   5.749228914501732   8.336840259711895 
 -1.244909392236327  12.216706474656162   1.667648532615116 
 -0.001330060203046   5.749295719233839   1.666960257832945 
 -1.246001775434844   7.904799118281941   1.667570450295350 
  4.983700561172046   5.751835858222957   1.685624062905616 
  3.734205278836540  12.216002691871179   1.667998150485723 
  9.955690958813259   5.748905926789343   1.669093105754092 
 -3.736119281218280   7.904209090855801   8.337910575487387 
  2.488985425590780   1.435942770963335   8.338996955011682 
  6.223106886081164   7.903764471630208   8.336840259711895 
  7.468339072074849   1.438731255558400   8.337634960619082 
 12.445982879210034   1.436701570302020   8.338724766269728 
  1.244238135093653   0.718573302348104   1.668928184339441 
  4.978307884729657   7.187801415464841   1.652225604223708 
  6.222863675993160   0.718767602111794   1.668607652684369 
  9.957234130493804   7.186015473509336   1.667808554187204 
 11.201995059110780   0.718484867499087   1.667981918980374 
 -3.734491081246257   9.341870559635154   8.338134633592755 
  1.244517149809323   9.341516723146285   8.337349560160259 
  2.489048703990730   2.874688376538036   8.331355593928158 
  6.223419213774083   9.342513958947428   8.339556755857963 
  7.468294005980710   2.874440957706911   8.339095004697047 
 12.446745184299822   2.874279813641064   8.337874486788285 
 -1.245046557708013   9.341713928949398   1.668203594259113 
 -0.000355534264967   2.874289729866176   1.669814818238755 
  4.978031784852312   2.874700969537875   1.670836887649011 
  3.734100203009806   9.342254349761404   1.666862208147582 
  8.712503326260665   9.341952468187218   1.667808554187204 
  9.957654910250858   2.874284060627957   1.667815651168643 
 -4.979257178225632  11.497849400733926   8.337727210175348 
 -0.000468587196774  11.497709451734677   8.337977441671079 
  1.244691823007898   5.029977717148253   8.331355593928158 
  6.224586874481837   5.029182884808439   8.353731608620921 
  4.978644778288623  11.498182580586828   8.338141561675984 
 11.202199920647718   5.030088273912459   8.337994011865099 
 -1.244963889171678   5.029997678678984   1.668928184339441 
 -2.489904465630011  11.497871073674212   1.668203594259113 
  2.489057433286260  11.497691913666442   1.668559130659109 
  3.734210385108907   5.030442368723046   1.685151302781916 
  7.467898497777004  11.498088069101328   1.667963200979528 
  8.713178339512940   5.030124654559428   1.666400456986665 
 -0.000270557392657   7.185657493249808   8.335825719209501 
  1.244238135093653   0.718573302348105   8.337029028505199 
  4.978307884729658   7.187801415464842   8.353731608620921 
  6.222863675993161   0.718767602111795   8.337349560160259 
  9.957234130493804   7.186015473509337   8.338148658657422 
 -2.489741683322627   7.185882077331913   1.668230002669279 
 11.201995059110780   0.718484867499088   8.337975293864266 
  3.733440962318677   0.718679440304526   1.670131493635126 
  2.489194269296409   7.185493998264224   1.670836887649011 
  7.467864196933415   7.186068402040870   1.665943741447362 
  8.712436307731892   0.718483508375720   1.668559130659109 
  2.489194269296409   7.185493998264225   8.335120325195604 
 13.691343310414391   0.718572624205596   1.668082726056341 
 -1.245046557708013   9.341713928949398   8.337753618585515 
 -0.000355534264967   2.874289729866177   8.336142394605872 
  4.978031784852313   2.874700969537876   8.335120325195604 
  3.734100203009806   9.342254349761404   8.339095004697047 
  8.712503326260665   9.341952468187218   8.338148658657422 
  9.957654910250858   2.874284060627958   8.338141561675984 
 -3.734491081246257   9.341870559635154   1.667822579251953 
  1.244517149809322   9.341516723146285   1.668607652684369 
  2.489048703990729   2.874688376538035   1.674601618916470 
  6.223419213774082   9.342513958947428   1.666400456986665 