B N Sn                                  
   1.0000000000000000     
     8.7639499999999995  -15.1796066749929999    0.0000000000000000
     8.7639499999999995   15.1796066749929999    0.0000000000000000
     0.0000000000000000    0.0000000000000000   15.0000000000000000
   B    N    Sn
    49    47     1
Selective dynamics
Direct
  0.9026505546292473  0.9496028125842825  0.1069065086763531   T   T   T
  0.9042899663327436  0.0930231201611235  0.1088317115718288   T   T   T
  0.9051510895562038  0.2360589632615086  0.1089096013496986   T   T   T
  0.9053893363708155  0.3790726151782891  0.1077581825385630   T   T   T
  0.9054573304953197  0.5223716075488610  0.1057685858487147   T   T   T
  0.9046675032566358  0.6654656420216164  0.1036357080773008   T   T   T
  0.9031101790609107  0.8077445458329967  0.1036657325172997   T   T   T
  0.0472951168621807  0.9526202144844892  0.1059928846468282   T   T   T
  0.0486360784942323  0.0959374328090809  0.1069439436051931   T   T   T
  0.0489042515311502  0.2380064677514555  0.1075601224922289   T   T   T
  0.0483092024464987  0.3801343438520704  0.1073886115811083   T   T   T
  0.0472352127640088  0.5230536930068458  0.1073688942735300   T   T   T
  0.0466654499988656  0.6664127204067513  0.1070005448233541   T   T   T
  0.0467939316737603  0.8095581976460343  0.1058994222107433   T   T   T
  0.1903023469097294  0.9535218286036586  0.1078167775974605   T   T   T
  0.1920906688514856  0.0976758037873149  0.1070951742222276   T   T   T
  0.1951180226657617  0.2428839172028404  0.1070141629994717   T   T   T
  0.1927438315522156  0.3826992184853721  0.1064357572274848   T   T   T
  0.1895149387844784  0.5242110848643092  0.1063297863008963   T   T   T
  0.1880279415597723  0.6670805525074629  0.1082510791039301   T   T   T
  0.1892880639414480  0.8102238595545020  0.1087907787842648   T   T   T
  0.3327751768324178  0.9531739453714093  0.1096275463162947   T   T   T
  0.3341132677079914  0.0968115043433596  0.1098805570441175   T   T   T
  0.3370259874750341  0.2425424082487058  0.1105723220399983   T   T   T
  0.3437708987048282  0.3931151627613025  0.1106827969781077   T   T   T
  0.3327795784452841  0.5270768251807902  0.1064421819770467   T   T   T
  0.3287108671283530  0.6683275909886167  0.1067537319139945   T   T   T
  0.3315012450105326  0.8104177329094290  0.1098637864285984   T   T   T
  0.4752613085875028  0.9511891964080413  0.1104067802143321   T   T   T
  0.4763372381409580  0.0944056914504011  0.1106045524954961   T   T   T
  0.4775817834713837  0.2376322401895346  0.1166379492159178   T   T   T
  0.4801837333265643  0.3805699532247891  0.1345066326555880   T   T   T
  0.4894868192450623  0.5795061164234055  0.1249920278011502   T   T   T
  0.4671825477736194  0.6626160980668132  0.1163545353681439   T   T   T
  0.4734848891230577  0.8075879424407967  0.1120835368654442   T   T   T
  0.6174310975024562  0.9484856607468747  0.1114600716997551   T   T   T
  0.6188330324119196  0.0924731787241431  0.1103953301113824   T   T   T
  0.6198085048188207  0.2355382164315147  0.1124953811254663   T   T   T
  0.6214539627280892  0.3780561526286016  0.1206984929279051   T   T   T
  0.6251942992614201  0.5207971560838205  0.1289395429306598   T   T   T
  0.6101954271825945  0.6517071271889711  0.1114416664039265   T   T   T
  0.6142410637757736  0.8024737539436702  0.1134155028300107   T   T   T
  0.7594055483529751  0.9478197175573593  0.1101122291790533   T   T   T
  0.7613374870274895  0.0920126892439355  0.1102111171908697   T   T   T
  0.7623380264296111  0.2353981156555444  0.1096921167753815   T   T   T
  0.7631673390684258  0.3785509151240549  0.1094769177974119   T   T   T
  0.7639814519172199  0.5215634062779240  0.1078053374067914   T   T   T
  0.7613420076452436  0.6631289191535616  0.1024795383366225   T   T   T
  0.7561605930929524  0.8024488203917894  0.1074984903170171   T   T   T
  0.9513523054626636  0.9033147789797119  0.1052190447246800   T   T   T
  0.9521787734253948  0.0459204730126100  0.1076417501390132   T   T   T
  0.9529867513551015  0.1887905951668838  0.1086931609061946   T   T   T
  0.9529109785693306  0.3315364953106877  0.1081464752661150   T   T   T
  0.9523916829920538  0.4745007191450335  0.1069434432672624   T   T   T
  0.9518596368767941  0.6178058967142795  0.1052148308328549   T   T   T
  0.9513926810419054  0.7608504912429579  0.1036408718097292   T   T   T
  0.0948334639020117  0.9051400970809812  0.1065298477732670   T   T   T
  0.0962425162524976  0.0485566134958557  0.1064715572001685   T   T   T
  0.0982311740868307  0.1922652931618390  0.1069662486322507   T   T   T
  0.0968200870291245  0.3333545129498600  0.1070106957773253   T   T   T
  0.0946224807248109  0.4754279619596946  0.1071508541919929   T   T   T
  0.0934250814346270  0.6184999990301304  0.1080033473534446   T   T   T
  0.0940930754077201  0.7619211602367206  0.1075579505170666   T   T   T
  0.2374617073809331  0.9056666838683389  0.1090268282747877   T   T   T
  0.2388275533401002  0.0492594096546390  0.1079625629282671   T   T   T
  0.2415060037324655  0.1940395940444050  0.1071866014189418   T   T   T
  0.2452339497519559  0.3397670328853555  0.1071391510534529   T   T   T
  0.2378442632979324  0.4772918945741582  0.1056578170256072   T   T   T
  0.2344724279639561  0.6193470857932660  0.1068288909463104   T   T   T
  0.2362782560287621  0.7624779360956364  0.1093451971689392   T   T   T
  0.3799814037602976  0.9053694915723067  0.1101147952300398   T   T   T
  0.3810876841862864  0.0484711119275143  0.1098715550109996   T   T   T
  0.3827217109251034  0.1926179654063077  0.1124331760924076   T   T   T
  0.3875460833244052  0.3399369248725421  0.1148928905220234   T   T   T
  0.3918423988533307  0.4911195480614751  0.1100969625212194   T   T   T
  0.3743876831100758  0.6211169395979356  0.1056121871713021   T   T   T
  0.3783776135446622  0.7628433085018336  0.1098757465978395   T   T   T
  0.5222433714601135  0.9028285089680843  0.1113702081408420   T   T   T
  0.5235563124160179  0.0463376026513197  0.1101040342200567   T   T   T
  0.5246019607215325  0.1895535536099031  0.1126558760001893   T   T   T
  0.5263786203000225  0.3327602953891085  0.1263182206588233   T   T   T
  0.5191848282688125  0.7578793048738561  0.1153810753193471   T   T   T
  0.6637836088417352  0.8990833155999799  0.1118014468394694   T   T   T
  0.6659244695129231  0.0442161240068612  0.1106565324155799   T   T   T
  0.6670184766680574  0.1877986339333837  0.1104927560522017   T   T   T
  0.6680317661258617  0.3306407639484539  0.1137388560303425   T   T   T
  0.6694938409496669  0.4727212536355302  0.1178928871344191   T   T   T
  0.6657401581611426  0.6124403902909112  0.1062395752494263   T   T   T
  0.6586009384004392  0.7505384290915529  0.1113975781277887   T   T   T
  0.8060714893681524  0.8993282681500635  0.1082386081797861   T   T   T
  0.8084637010723527  0.0439463339898998  0.1098937984916083   T   T   T
  0.8096474232500879  0.1876530811458892  0.1096969306706815   T   T   T
  0.8102058298886500  0.3308029149220291  0.1086091786928535   T   T   T
  0.8106383480019234  0.4737824073110969  0.1063685626557601   T   T   T
  0.8096705233026177  0.6165357449828895  0.1032410484689403   T   T   T
  0.8070925062163611  0.7581538391730384  0.1029383847866435   T   T   T
  0.5222895665053805  0.5040399174581792  0.2397795123947455   T   T   T

  0.00000000E+00  0.00000000E+00  0.00000000E+00
  0.00000000E+00  0.00000000E+00  0.00000000E+00
  0.00000000E+00  0.00000000E+00  0.00000000E+00
  0.00000000E+00  0.00000000E+00  0.00000000E+00
  0.00000000E+00  0.00000000E+00  0.00000000E+00
  0.00000000E+00  0.00000000E+00  0.00000000E+00
  0.00000000E+00  0.00000000E+00  0.00000000E+00
  0.00000000E+00  0.00000000E+00  0.00000000E+00
  0.00000000E+00  0.00000000E+00  0.00000000E+00
  0.00000000E+00  0.00000000E+00  0.00000000E+00
  0.00000000E+00  0.00000000E+00  0.00000000E+00
  0.00000000E+00  0.00000000E+00  0.00000000E+00
  0.00000000E+00  0.00000000E+00  0.00000000E+00
  0.00000000E+00  0.00000000E+00  0.00000000E+00
  0.00000000E+00  0.00000000E+00  0.00000000E+00
  0.00000000E+00  0.00000000E+00  0.00000000E+00
  0.00000000E+00  0.00000000E+00  0.00000000E+00
  0.00000000E+00  0.00000000E+00  0.00000000E+00
  0.00000000E+00  0.00000000E+00  0.00000000E+00
  0.00000000E+00  0.00000000E+00  0.00000000E+00
  0.00000000E+00  0.00000000E+00  0.00000000E+00
  0.00000000E+00  0.00000000E+00  0.00000000E+00
  0.00000000E+00  0.00000000E+00  0.00000000E+00
  0.00000000E+00  0.00000000E+00  0.00000000E+00
  0.00000000E+00  0.00000000E+00  0.00000000E+00
  0.00000000E+00  0.00000000E+00  0.00000000E+00
  0.00000000E+00  0.00000000E+00  0.00000000E+00
  0.00000000E+00  0.00000000E+00  0.00000000E+00
  0.00000000E+00  0.00000000E+00  0.00000000E+00
  0.00000000E+00  0.00000000E+00  0.00000000E+00
  0.00000000E+00  0.00000000E+00  0.00000000E+00
  0.00000000E+00  0.00000000E+00  0.00000000E+00
  0.00000000E+00  0.00000000E+00  0.00000000E+00
  0.00000000E+00  0.00000000E+00  0.00000000E+00
  0.00000000E+00  0.00000000E+00  0.00000000E+00
  0.00000000E+00  0.00000000E+00  0.00000000E+00
  0.00000000E+00  0.00000000E+00  0.00000000E+00
  0.00000000E+00  0.00000000E+00  0.00000000E+00
  0.00000000E+00  0.00000000E+00  0.00000000E+00
  0.00000000E+00  0.00000000E+00  0.00000000E+00
  0.00000000E+00  0.00000000E+00  0.00000000E+00
  0.00000000E+00  0.00000000E+00  0.00000000E+00
  0.00000000E+00  0.00000000E+00  0.00000000E+00
  0.00000000E+00  0.00000000E+00  0.00000000E+00
  0.00000000E+00  0.00000000E+00  0.00000000E+00
  0.00000000E+00  0.00000000E+00  0.00000000E+00
  0.00000000E+00  0.00000000E+00  0.00000000E+00
  0.00000000E+00  0.00000000E+00  0.00000000E+00
  0.00000000E+00  0.00000000E+00  0.00000000E+00
  0.00000000E+00  0.00000000E+00  0.00000000E+00
  0.00000000E+00  0.00000000E+00  0.00000000E+00
  0.00000000E+00  0.00000000E+00  0.00000000E+00
  0.00000000E+00  0.00000000E+00  0.00000000E+00
  0.00000000E+00  0.00000000E+00  0.00000000E+00
  0.00000000E+00  0.00000000E+00  0.00000000E+00
  0.00000000E+00  0.00000000E+00  0.00000000E+00
  0.00000000E+00  0.00000000E+00  0.00000000E+00
  0.00000000E+00  0.00000000E+00  0.00000000E+00
  0.00000000E+00  0.00000000E+00  0.00000000E+00
  0.00000000E+00  0.00000000E+00  0.00000000E+00
  0.00000000E+00  0.00000000E+00  0.00000000E+00
  0.00000000E+00  0.00000000E+00  0.00000000E+00
  0.00000000E+00  0.00000000E+00  0.00000000E+00
  0.00000000E+00  0.00000000E+00  0.00000000E+00
  0.00000000E+00  0.00000000E+00  0.00000000E+00
  0.00000000E+00  0.00000000E+00  0.00000000E+00
  0.00000000E+00  0.00000000E+00  0.00000000E+00
  0.00000000E+00  0.00000000E+00  0.00000000E+00
  0.00000000E+00  0.00000000E+00  0.00000000E+00
  0.00000000E+00  0.00000000E+00  0.00000000E+00
  0.00000000E+00  0.00000000E+00  0.00000000E+00
  0.00000000E+00  0.00000000E+00  0.00000000E+00
  0.00000000E+00  0.00000000E+00  0.00000000E+00
  0.00000000E+00  0.00000000E+00  0.00000000E+00
  0.00000000E+00  0.00000000E+00  0.00000000E+00
  0.00000000E+00  0.00000000E+00  0.00000000E+00
  0.00000000E+00  0.00000000E+00  0.00000000E+00
  0.00000000E+00  0.00000000E+00  0.00000000E+00
  0.00000000E+00  0.00000000E+00  0.00000000E+00
  0.00000000E+00  0.00000000E+00  0.00000000E+00
  0.00000000E+00  0.00000000E+00  0.00000000E+00
  0.00000000E+00  0.00000000E+00  0.00000000E+00
  0.00000000E+00  0.00000000E+00  0.00000000E+00
  0.00000000E+00  0.00000000E+00  0.00000000E+00
  0.00000000E+00  0.00000000E+00  0.00000000E+00
  0.00000000E+00  0.00000000E+00  0.00000000E+00
  0.00000000E+00  0.00000000E+00  0.00000000E+00
  0.00000000E+00  0.00000000E+00  0.00000000E+00
  0.00000000E+00  0.00000000E+00  0.00000000E+00
  0.00000000E+00  0.00000000E+00  0.00000000E+00
  0.00000000E+00  0.00000000E+00  0.00000000E+00
  0.00000000E+00  0.00000000E+00  0.00000000E+00
  0.00000000E+00  0.00000000E+00  0.00000000E+00
  0.00000000E+00  0.00000000E+00  0.00000000E+00
  0.00000000E+00  0.00000000E+00  0.00000000E+00
  0.00000000E+00  0.00000000E+00  0.00000000E+00
  0.00000000E+00  0.00000000E+00  0.00000000E+00
