B In N                                  
   1.0000000000000000     
     8.7639499999999995  -15.1796066749929999    0.0000000000000000
     8.7639499999999995   15.1796066749929999    0.0000000000000000
     0.0000000000000000    0.0000000000000000   15.0000000000000000
   B    In   N 
    49     1    48
Selective dynamics
Direct
  0.9040759161455139  0.9515422384968922  0.1142367952315134   T   T   T
  0.9036316140766907  0.0944118645519280  0.1151532766759162   T   T   T
  0.9036140198905390  0.2376903242427221  0.1136384031590858   T   T   T
  0.9040900862839909  0.3810375457217183  0.1110733624550779   T   T   T
  0.9052000178766473  0.5242400052394809  0.1080436802517454   T   T   T
  0.9059581130191563  0.6672409324337838  0.1051193252887166   T   T   T
  0.9052285030237284  0.8094772250707707  0.1102432383411043   T   T   T
  0.0477632896178975  0.9524297687804194  0.1144388385240014   T   T   T
  0.0465862379670694  0.0944897945795230  0.1145556693728033   T   T   T
  0.0462189498272314  0.2373600939938390  0.1128305544085455   T   T   T
  0.0466083199502628  0.3805893609389288  0.1113669921128018   T   T   T
  0.0477872665790386  0.5238355966828100  0.1108662188280764   T   T   T
  0.0485870674720375  0.6670389285179465  0.1106969727067767   T   T   T
  0.0485907946865594  0.8100383335559592  0.1121322530669927   T   T   T
  0.1913102441695035  0.9531965235183580  0.1164351508526546   T   T   T
  0.1903982649186373  0.0956125115922458  0.1155517750517833   T   T   T
  0.1887642551772797  0.2371099209913458  0.1127479447168121   T   T   T
  0.1887874690284601  0.3801854631371128  0.1110707908539984   T   T   T
  0.1904419085076421  0.5233270402161275  0.1120531367406253   T   T   T
  0.1913154805781784  0.6666252592514392  0.1138064711604895   T   T   T
  0.1915073830051631  0.8100075269815630  0.1152290391106292   T   T   T
  0.3342409083521245  0.9533469931629468  0.1187528159070362   T   T   T
  0.3341861472701461  0.0971110893249987  0.1186351904622128   T   T   T
  0.3331379030867569  0.2393518141418009  0.1149737627046128   T   T   T
  0.3297765941457889  0.3791388030198508  0.1121914969607588   T   T   T
  0.3331919609915451  0.5223232643887878  0.1129409788931658   T   T   T
  0.3341678831760204  0.6656049707362766  0.1162983127846159   T   T   T
  0.3342273106674999  0.8094248058774972  0.1177673373794871   T   T   T
  0.4766292923651274  0.9525974499316937  0.1197334482405147   T   T   T
  0.4766821657940951  0.0978475995183465  0.1196746978281689   T   T   T
  0.4768762750367589  0.2441983570756265  0.1188640774869497   T   T   T
  0.4746231849088518  0.3919480088831828  0.1208954658957362   T   T   T
  0.4746500293010261  0.5112241458921394  0.1205312721939949   T   T   T
  0.4768292022060700  0.6612448357270442  0.1181110191901945   T   T   T
  0.4766386295348746  0.8073863027215813  0.1190430948531811   T   T   T
  0.6186956086586310  0.9514273375746303  0.1191641738031864   T   T   T
  0.6187241746778618  0.0958332953214031  0.1188185860058027   T   T   T
  0.6187933157084715  0.2402604346001340  0.1165792669743725   T   T   T
  0.6192284164926964  0.3847162960003024  0.1061475495553532   T   T   T
  0.6247985158105147  0.5268404260767372  0.0619616532572532   T   T   T
  0.6192796227064196  0.6631461294334884  0.1068400560991302   T   T   T
  0.6187651239556911  0.8070965227280377  0.1173860283754953   T   T   T
  0.7610612189539226  0.9511660637786055  0.1164648013271462   T   T   T
  0.7609909041419892  0.0947508127408826  0.1169027444680957   T   T   T
  0.7610721656074300  0.2384267763162828  0.1147588102893276   T   T   T
  0.7613817759592559  0.3818090625229167  0.1094901153268135   T   T   T
  0.7628939832521849  0.5247229657080631  0.0985676754566356   T   T   T
  0.7629491438150247  0.6667864746029031  0.0994319001494963   T   T   T
  0.7613902252521807  0.8081128656910936  0.1114586983079170   T   T   T
  0.5285181332537792  0.4804842010364769  0.9273156840376110   T   T   T
  0.9524665269702679  0.9046274828772346  0.1132818159903658   T   T   T
  0.9513933604748285  0.0468227172791639  0.1149831985496407   T   T   T
  0.9510775737443279  0.1897814773058262  0.1139810592661719   T   T   T
  0.9513994229863635  0.3330500560788643  0.1118990037527990   T   T   T
  0.9524838479369975  0.4763368618519523  0.1099743783213256   T   T   T
  0.9534081313774281  0.6195126640819061  0.1076545178601964   T   T   T
  0.9534133747762903  0.7623999997562819  0.1089270629890756   T   T   T
  0.0960104117930343  0.9053256348432670  0.1145461678605547   T   T   T
  0.0950642314342734  0.0476477320373602  0.1151492246590398   T   T   T
  0.0937897957581104  0.1896268267231627  0.1133699468080437   T   T   T
  0.0938062644521892  0.3326580402688370  0.1114301229132520   T   T   T
  0.0950986956490084  0.4759192843625508  0.1111289610156758   T   T   T
  0.0960250515222500  0.6191789450415784  0.1116602488689288   T   T   T
  0.0962945955793078  0.7623913685483249  0.1125272569182664   T   T   T
  0.2390044672857830  0.9054954216393548  0.1171107371648478   T   T   T
  0.2387872305656997  0.0487115829312712  0.1171808541405826   T   T   T
  0.2376900505182095  0.1908706644830481  0.1140788221288941   T   T   T
  0.2355877205803215  0.3320439485038001  0.1112747415351922   T   T   T
  0.2377431613399028  0.4753524878284762  0.1113119303135472   T   T   T
  0.2388031677268181  0.6186040992273000  0.1139221133286706   T   T   T
  0.2390028534298165  0.7620206755571449  0.1157363183421842   T   T   T
  0.3814874392090529  0.9050117410822913  0.1191147725061102   T   T   T
  0.3815162285025594  0.0491451960424926  0.1196472488546161   T   T   T
  0.3815937440899283  0.1930976019904676  0.1185618773319662   T   T   T
  0.3800341547717690  0.3348390349583555  0.1135488468605281   T   T   T
  0.3800977916898782  0.4737204995812088  0.1124571318132153   T   T   T
  0.3815793480324109  0.6170323923553489  0.1165662649660484   T   T   T
  0.3814915144451921  0.7609019134015934  0.1181381812693553   T   T   T
  0.5235799215343055  0.9034938531380864  0.1197280763268261   T   T   T
  0.5236006282800874  0.0486529049224191  0.1198815007155816   T   T   T
  0.5236054564771999  0.1942841987395102  0.1188940954149433   T   T   T
  0.5238796500743909  0.3424283137760604  0.1176121569049939   T   T   T
  0.5238512606779749  0.6100259067040028  0.1174678362713163   T   T   T
  0.5235677196646915  0.7578778964522809  0.1186777924714894   T   T   T
  0.6658212838188750  0.9029708368770922  0.1183109957824532   T   T   T
  0.6658075411689661  0.0471697294885411  0.1186476817646138   T   T   T
  0.6658419109570826  0.1914151867473833  0.1172410490564515   T   T   T
  0.6659463730046289  0.3353785884528289  0.1116199313420958   T   T   T
  0.6680580339814534  0.4776966894742342  0.0887895431118100   T   T   T
  0.6681506398840279  0.6190627116419215  0.0894632205331621   T   T   T
  0.6659603103567202  0.7591446724834380  0.1129236271682347   T   T   T
  0.8087530779735004  0.9035735206176222  0.1142447293817483   T   T   T
  0.8084065366630112  0.0466988504463871  0.1164337619683838   T   T   T
  0.8083978661041459  0.1902086646441793  0.1152144814736478   T   T   T
  0.8087611875023416  0.3336986050131774  0.1117086896187036   T   T   T
  0.8099618727006970  0.4768945985297398  0.1063226562884363   T   T   T
  0.8111311736916151  0.6198569666817122  0.0985242394434541   T   T   T
  0.8099862482512676  0.7616104577973033  0.1081005255091642   T   T   T

  0.00000000E+00  0.00000000E+00  0.00000000E+00
  0.00000000E+00  0.00000000E+00  0.00000000E+00
  0.00000000E+00  0.00000000E+00  0.00000000E+00
  0.00000000E+00  0.00000000E+00  0.00000000E+00
  0.00000000E+00  0.00000000E+00  0.00000000E+00
  0.00000000E+00  0.00000000E+00  0.00000000E+00
  0.00000000E+00  0.00000000E+00  0.00000000E+00
  0.00000000E+00  0.00000000E+00  0.00000000E+00
  0.00000000E+00  0.00000000E+00  0.00000000E+00
  0.00000000E+00  0.00000000E+00  0.00000000E+00
  0.00000000E+00  0.00000000E+00  0.00000000E+00
  0.00000000E+00  0.00000000E+00  0.00000000E+00
  0.00000000E+00  0.00000000E+00  0.00000000E+00
  0.00000000E+00  0.00000000E+00  0.00000000E+00
  0.00000000E+00  0.00000000E+00  0.00000000E+00
  0.00000000E+00  0.00000000E+00  0.00000000E+00
  0.00000000E+00  0.00000000E+00  0.00000000E+00
  0.00000000E+00  0.00000000E+00  0.00000000E+00
  0.00000000E+00  0.00000000E+00  0.00000000E+00
  0.00000000E+00  0.00000000E+00  0.00000000E+00
  0.00000000E+00  0.00000000E+00  0.00000000E+00
  0.00000000E+00  0.00000000E+00  0.00000000E+00
  0.00000000E+00  0.00000000E+00  0.00000000E+00
  0.00000000E+00  0.00000000E+00  0.00000000E+00
  0.00000000E+00  0.00000000E+00  0.00000000E+00
  0.00000000E+00  0.00000000E+00  0.00000000E+00
  0.00000000E+00  0.00000000E+00  0.00000000E+00
  0.00000000E+00  0.00000000E+00  0.00000000E+00
  0.00000000E+00  0.00000000E+00  0.00000000E+00
  0.00000000E+00  0.00000000E+00  0.00000000E+00
  0.00000000E+00  0.00000000E+00  0.00000000E+00
  0.00000000E+00  0.00000000E+00  0.00000000E+00
  0.00000000E+00  0.00000000E+00  0.00000000E+00
  0.00000000E+00  0.00000000E+00  0.00000000E+00
  0.00000000E+00  0.00000000E+00  0.00000000E+00
  0.00000000E+00  0.00000000E+00  0.00000000E+00
  0.00000000E+00  0.00000000E+00  0.00000000E+00
  0.00000000E+00  0.00000000E+00  0.00000000E+00
  0.00000000E+00  0.00000000E+00  0.00000000E+00
  0.00000000E+00  0.00000000E+00  0.00000000E+00
  0.00000000E+00  0.00000000E+00  0.00000000E+00
  0.00000000E+00  0.00000000E+00  0.00000000E+00
  0.00000000E+00  0.00000000E+00  0.00000000E+00
  0.00000000E+00  0.00000000E+00  0.00000000E+00
  0.00000000E+00  0.00000000E+00  0.00000000E+00
  0.00000000E+00  0.00000000E+00  0.00000000E+00
  0.00000000E+00  0.00000000E+00  0.00000000E+00
  0.00000000E+00  0.00000000E+00  0.00000000E+00
  0.00000000E+00  0.00000000E+00  0.00000000E+00
  0.00000000E+00  0.00000000E+00  0.00000000E+00
  0.00000000E+00  0.00000000E+00  0.00000000E+00
  0.00000000E+00  0.00000000E+00  0.00000000E+00
  0.00000000E+00  0.00000000E+00  0.00000000E+00
  0.00000000E+00  0.00000000E+00  0.00000000E+00
  0.00000000E+00  0.00000000E+00  0.00000000E+00
  0.00000000E+00  0.00000000E+00  0.00000000E+00
  0.00000000E+00  0.00000000E+00  0.00000000E+00
  0.00000000E+00  0.00000000E+00  0.00000000E+00
  0.00000000E+00  0.00000000E+00  0.00000000E+00
  0.00000000E+00  0.00000000E+00  0.00000000E+00
  0.00000000E+00  0.00000000E+00  0.00000000E+00
  0.00000000E+00  0.00000000E+00  0.00000000E+00
  0.00000000E+00  0.00000000E+00  0.00000000E+00
  0.00000000E+00  0.00000000E+00  0.00000000E+00
  0.00000000E+00  0.00000000E+00  0.00000000E+00
  0.00000000E+00  0.00000000E+00  0.00000000E+00
  0.00000000E+00  0.00000000E+00  0.00000000E+00
  0.00000000E+00  0.00000000E+00  0.00000000E+00
  0.00000000E+00  0.00000000E+00  0.00000000E+00
  0.00000000E+00  0.00000000E+00  0.00000000E+00
  0.00000000E+00  0.00000000E+00  0.00000000E+00
  0.00000000E+00  0.00000000E+00  0.00000000E+00
  0.00000000E+00  0.00000000E+00  0.00000000E+00
  0.00000000E+00  0.00000000E+00  0.00000000E+00
  0.00000000E+00  0.00000000E+00  0.00000000E+00
  0.00000000E+00  0.00000000E+00  0.00000000E+00
  0.00000000E+00  0.00000000E+00  0.00000000E+00
  0.00000000E+00  0.00000000E+00  0.00000000E+00
  0.00000000E+00  0.00000000E+00  0.00000000E+00
  0.00000000E+00  0.00000000E+00  0.00000000E+00
  0.00000000E+00  0.00000000E+00  0.00000000E+00
  0.00000000E+00  0.00000000E+00  0.00000000E+00
  0.00000000E+00  0.00000000E+00  0.00000000E+00
  0.00000000E+00  0.00000000E+00  0.00000000E+00
  0.00000000E+00  0.00000000E+00  0.00000000E+00
  0.00000000E+00  0.00000000E+00  0.00000000E+00
  0.00000000E+00  0.00000000E+00  0.00000000E+00
  0.00000000E+00  0.00000000E+00  0.00000000E+00
  0.00000000E+00  0.00000000E+00  0.00000000E+00
  0.00000000E+00  0.00000000E+00  0.00000000E+00
  0.00000000E+00  0.00000000E+00  0.00000000E+00
  0.00000000E+00  0.00000000E+00  0.00000000E+00
  0.00000000E+00  0.00000000E+00  0.00000000E+00
  0.00000000E+00  0.00000000E+00  0.00000000E+00
  0.00000000E+00  0.00000000E+00  0.00000000E+00
  0.00000000E+00  0.00000000E+00  0.00000000E+00
  0.00000000E+00  0.00000000E+00  0.00000000E+00
  0.00000000E+00  0.00000000E+00  0.00000000E+00
