B N Se                                  
   1.0000000000000000     
     8.7639499999999995  -15.1796066749929999    0.0000000000000000
     8.7639499999999995   15.1796066749929999    0.0000000000000000
     0.0000000000000000    0.0000000000000000   15.0000000000000000
   B    N    Se
    48    49     1
Selective dynamics
Direct
  0.9060210071513478  0.9533414572819003  0.1110175680399839   T   T   T
  0.9046813957806406  0.0953206254153560  0.1109969938454788   T   T   T
  0.9042120694796715  0.2378203815853410  0.1110321797024424   T   T   T
  0.9046813957806406  0.3807894640562743  0.1109969938454788   T   T   T
  0.9060210071513478  0.5241099551174462  0.1110175680399839   T   T   T
  0.9057831359556937  0.6672220279697283  0.1110532500456944   T   T   T
  0.9057831359556937  0.8099915132339640  0.1110532500456944   T   T   T
  0.0478578241305384  0.9521441970654586  0.1110167439450040   T   T   T
  0.0466605639141008  0.0939810140446499  0.1110175680399839   T   T   T
  0.0458168321596945  0.2368199880945799  0.1110013877043095   T   T   T
  0.0458168321596945  0.3804272493121144  0.1110013877043095   T   T   T
  0.0466605639141008  0.5241099551174462  0.1110175680399839   T   T   T
  0.0478578241305384  0.6671457438690781  0.1110167439450040   T   T   T
  0.0480186381618959  0.8097253774829460  0.1109902474629198   T   T   T
  0.1902766437130570  0.9519833830341069  0.1109902474629198   T   T   T
  0.1900105079620383  0.0942188852403024  0.1110532500456944   T   T   T
  0.1867159041252389  0.2342188070674469  0.1110632710389549   T   T   T
  0.1863163806010429  0.3788733929240208  0.1110623938489051   T   T   T
  0.1867159041252389  0.5239275023057933  0.1110632710389549   T   T   T
  0.1900105079620383  0.6672220279697283  0.1110532500456944   T   T   T
  0.1902766437130570  0.8097253774829460  0.1109902474629198   T   T   T
  0.3328562773279194  0.9521441970654586  0.1110167439450040   T   T   T
  0.3327799932272676  0.0942188852403024  0.1110532500456944   T   T   T
  0.3326481400626121  0.2367246641752332  0.1110940433854392   T   T   T
  0.3248265793395964  0.3735331679099153  0.1110477406872513   T   T   T
  0.3248265793395964  0.5227238166766810  0.1110477406872513   T   T   T
  0.3326481400626121  0.6673538811343862  0.1110940433854392   T   T   T
  0.3327799932272676  0.8099915132339640  0.1110532500456944   T   T   T
  0.4758920660795535  0.9533414572819003  0.1110175680399839   T   T   T
  0.4758920660795535  0.0939810140446499  0.1110175680399839   T   T   T
  0.4760745188912034  0.2342188070674469  0.1110632710389549   T   T   T
  0.4772782045203164  0.3735331679099153  0.1110477406872513   T   T   T
  0.4772782045203164  0.6751754418573940  0.1110477406872513   T   T   T
  0.4760745188912034  0.8132861170707638  0.1110632710389549   T   T   T
  0.6195747718838867  0.9541851890363094  0.1110013877043095   T   T   T
  0.6192125571397290  0.0953206254153560  0.1109969938454788   T   T   T
  0.6195747718838867  0.2368199880945799  0.1110013877043095   T   T   T
  0.6211286282719827  0.3788733929240208  0.1110623938489051   T   T   T
  0.6264688532860890  0.5227238166766810  0.1110477406872513   T   T   T
  0.6264688532860890  0.6751754418573940  0.1110477406872513   T   T   T
  0.6211286282719827  0.8136856405949617  0.1110623938489051   T   T   T
  0.7631820331014249  0.9541851890363094  0.1110013877043095   T   T   T
  0.7621816396106614  0.0957899517163258  0.1110321797024424   T   T   T
  0.7621816396106614  0.2378203815853410  0.1110321797024424   T   T   T
  0.7631820331014249  0.3804272493121144  0.1110013877043095   T   T   T
  0.7657832141285584  0.5239275023057933  0.1110632710389549   T   T   T
  0.7632773570207706  0.6673538811343862  0.1110940433854392   T   T   T
  0.7657832141285584  0.8132861170707638  0.1110632710389549   T   T   T
  0.9529081145999678  0.9050455083180465  0.1110112899633898   T   T   T
  0.9523070476006984  0.0476943543173063  0.1109850112653301   T   T   T
  0.9514454781261853  0.1900146078634304  0.1109536293481775   T   T   T
  0.9514454781261853  0.3328578523807550  0.1109536293481775   T   T   T
  0.9523070476006984  0.4760396754013987  0.1109850112653301   T   T   T
  0.9529081145999678  0.6192912999569171  0.1110112899633898   T   T   T
  0.9530068692717434  0.7622177814733708  0.1109861382034211   T   T   T
  0.0953376104261125  0.9046637914918861  0.1109855780500471   T   T   T
  0.0949558935999516  0.0470932873180364  0.1110112899633898   T   T   T
  0.0926811625102785  0.1883307939110210  0.1110046099911257   T   T   T
  0.0922813721774298  0.3318550329257148  0.1109860484674467   T   T   T
  0.0926811625102785  0.4757790622732577  0.1110046099911257   T   T   T
  0.0949558935999516  0.6192912999569171  0.1110112899633898   T   T   T
  0.0953376104261125  0.7621042241652305  0.1109855780500471   T   T   T
  0.2378971777527737  0.9046637914918861  0.1109855780500471   T   T   T
  0.2377836204446326  0.0469945326462623  0.1109861382034211   T   T   T
  0.2371708249265360  0.1892316098560086  0.1110617139158366   T   T   T
  0.2312439951231284  0.3279342943365680  0.1110787123826417   T   T   T
  0.2312439951231284  0.4747383944605472  0.1110787123826417   T   T   T
  0.2371708249265360  0.6193679087455234  0.1110617139158366   T   T   T
  0.2377836204446326  0.7622177814733708  0.1109861382034211   T   T   T
  0.3807101019610807  0.9050455083180465  0.1110112899633898   T   T   T
  0.3807101019610807  0.0470932873180364  0.1110112899633898   T   T   T
  0.3806334931724760  0.1892316098560086  0.1110617139158366   T   T   T
  0.3804535695234793  0.3323344308039535  0.1110622589053744   T   T   T
  0.3572468084751003  0.4643377510745442  0.1108845608489370   T   T   T
  0.3804535695234793  0.6195478323945178  0.1110622589053744   T   T   T
  0.3806334931724760  0.7628305769914689  0.1110617139158366   T   T   T
  0.5242223396437374  0.9073202394077194  0.1110046099911257   T   T   T
  0.5239617265155974  0.0476943543173063  0.1109850112653301   T   T   T
  0.5242223396437374  0.1883307939110210  0.1110046099911257   T   T   T
  0.5252630074564502  0.3279342943365680  0.1110787123826417   T   T   T
  0.5356636508424548  0.4643377510745442  0.1108845608489370   T   T   T
  0.5356636508424548  0.6427545934428969  0.1108845608489370   T   T   T
  0.5252630074564502  0.7687574067948842  0.1110787123826417   T   T   T
  0.6681463689912794  0.9077200297405699  0.1109860484674467   T   T   T
  0.6671435495362448  0.0485559237918193  0.1109536293481775   T   T   T
  0.6671435495362448  0.1900146078634304  0.1109536293481775   T   T   T
  0.6681463689912794  0.3318550329257148  0.1109860484674467   T   T   T
  0.6720671075804295  0.4747383944605472  0.1110787123826417   T   T   T
  0.6676669711130410  0.6195478323945178  0.1110622589053744   T   T   T
  0.6720671075804295  0.7687574067948842  0.1110787123826417   T   T   T
  0.8116706080069777  0.9073202394077194  0.1110046099911257   T   T   T
  0.8099867940545671  0.0485559237918193  0.1109536293481775   T   T   T
  0.8095252739059973  0.1904761280120013  0.1110618108671650   T   T   T
  0.8099867940545671  0.3328578523807550  0.1109536293481775   T   T   T
  0.8116706080069777  0.4757790622732577  0.1110046099911257   T   T   T
  0.8107697920619896  0.6193679087455234  0.1110617139158366   T   T   T
  0.8107697920619896  0.7628305769914689  0.1110617139158366   T   T   T
  0.4761912123819982  0.5238108088150000  0.1108925566364123   T   T   T

  0.00000000E+00  0.00000000E+00  0.00000000E+00
  0.00000000E+00  0.00000000E+00  0.00000000E+00
  0.00000000E+00  0.00000000E+00  0.00000000E+00
  0.00000000E+00  0.00000000E+00  0.00000000E+00
  0.00000000E+00  0.00000000E+00  0.00000000E+00
  0.00000000E+00  0.00000000E+00  0.00000000E+00
  0.00000000E+00  0.00000000E+00  0.00000000E+00
  0.00000000E+00  0.00000000E+00  0.00000000E+00
  0.00000000E+00  0.00000000E+00  0.00000000E+00
  0.00000000E+00  0.00000000E+00  0.00000000E+00
  0.00000000E+00  0.00000000E+00  0.00000000E+00
  0.00000000E+00  0.00000000E+00  0.00000000E+00
  0.00000000E+00  0.00000000E+00  0.00000000E+00
  0.00000000E+00  0.00000000E+00  0.00000000E+00
  0.00000000E+00  0.00000000E+00  0.00000000E+00
  0.00000000E+00  0.00000000E+00  0.00000000E+00
  0.00000000E+00  0.00000000E+00  0.00000000E+00
  0.00000000E+00  0.00000000E+00  0.00000000E+00
  0.00000000E+00  0.00000000E+00  0.00000000E+00
  0.00000000E+00  0.00000000E+00  0.00000000E+00
  0.00000000E+00  0.00000000E+00  0.00000000E+00
  0.00000000E+00  0.00000000E+00  0.00000000E+00
  0.00000000E+00  0.00000000E+00  0.00000000E+00
  0.00000000E+00  0.00000000E+00  0.00000000E+00
  0.00000000E+00  0.00000000E+00  0.00000000E+00
  0.00000000E+00  0.00000000E+00  0.00000000E+00
  0.00000000E+00  0.00000000E+00  0.00000000E+00
  0.00000000E+00  0.00000000E+00  0.00000000E+00
  0.00000000E+00  0.00000000E+00  0.00000000E+00
  0.00000000E+00  0.00000000E+00  0.00000000E+00
  0.00000000E+00  0.00000000E+00  0.00000000E+00
  0.00000000E+00  0.00000000E+00  0.00000000E+00
  0.00000000E+00  0.00000000E+00  0.00000000E+00
  0.00000000E+00  0.00000000E+00  0.00000000E+00
  0.00000000E+00  0.00000000E+00  0.00000000E+00
  0.00000000E+00  0.00000000E+00  0.00000000E+00
  0.00000000E+00  0.00000000E+00  0.00000000E+00
  0.00000000E+00  0.00000000E+00  0.00000000E+00
  0.00000000E+00  0.00000000E+00  0.00000000E+00
  0.00000000E+00  0.00000000E+00  0.00000000E+00
  0.00000000E+00  0.00000000E+00  0.00000000E+00
  0.00000000E+00  0.00000000E+00  0.00000000E+00
  0.00000000E+00  0.00000000E+00  0.00000000E+00
  0.00000000E+00  0.00000000E+00  0.00000000E+00
  0.00000000E+00  0.00000000E+00  0.00000000E+00
  0.00000000E+00  0.00000000E+00  0.00000000E+00
  0.00000000E+00  0.00000000E+00  0.00000000E+00
  0.00000000E+00  0.00000000E+00  0.00000000E+00
  0.00000000E+00  0.00000000E+00  0.00000000E+00
  0.00000000E+00  0.00000000E+00  0.00000000E+00
  0.00000000E+00  0.00000000E+00  0.00000000E+00
  0.00000000E+00  0.00000000E+00  0.00000000E+00
  0.00000000E+00  0.00000000E+00  0.00000000E+00
  0.00000000E+00  0.00000000E+00  0.00000000E+00
  0.00000000E+00  0.00000000E+00  0.00000000E+00
  0.00000000E+00  0.00000000E+00  0.00000000E+00
  0.00000000E+00  0.00000000E+00  0.00000000E+00
  0.00000000E+00  0.00000000E+00  0.00000000E+00
  0.00000000E+00  0.00000000E+00  0.00000000E+00
  0.00000000E+00  0.00000000E+00  0.00000000E+00
  0.00000000E+00  0.00000000E+00  0.00000000E+00
  0.00000000E+00  0.00000000E+00  0.00000000E+00
  0.00000000E+00  0.00000000E+00  0.00000000E+00
  0.00000000E+00  0.00000000E+00  0.00000000E+00
  0.00000000E+00  0.00000000E+00  0.00000000E+00
  0.00000000E+00  0.00000000E+00  0.00000000E+00
  0.00000000E+00  0.00000000E+00  0.00000000E+00
  0.00000000E+00  0.00000000E+00  0.00000000E+00
  0.00000000E+00  0.00000000E+00  0.00000000E+00
  0.00000000E+00  0.00000000E+00  0.00000000E+00
  0.00000000E+00  0.00000000E+00  0.00000000E+00
  0.00000000E+00  0.00000000E+00  0.00000000E+00
  0.00000000E+00  0.00000000E+00  0.00000000E+00
  0.00000000E+00  0.00000000E+00  0.00000000E+00
  0.00000000E+00  0.00000000E+00  0.00000000E+00
  0.00000000E+00  0.00000000E+00  0.00000000E+00
  0.00000000E+00  0.00000000E+00  0.00000000E+00
  0.00000000E+00  0.00000000E+00  0.00000000E+00
  0.00000000E+00  0.00000000E+00  0.00000000E+00
  0.00000000E+00  0.00000000E+00  0.00000000E+00
  0.00000000E+00  0.00000000E+00  0.00000000E+00
  0.00000000E+00  0.00000000E+00  0.00000000E+00
  0.00000000E+00  0.00000000E+00  0.00000000E+00
  0.00000000E+00  0.00000000E+00  0.00000000E+00
  0.00000000E+00  0.00000000E+00  0.00000000E+00
  0.00000000E+00  0.00000000E+00  0.00000000E+00
  0.00000000E+00  0.00000000E+00  0.00000000E+00
  0.00000000E+00  0.00000000E+00  0.00000000E+00
  0.00000000E+00  0.00000000E+00  0.00000000E+00
  0.00000000E+00  0.00000000E+00  0.00000000E+00
  0.00000000E+00  0.00000000E+00  0.00000000E+00
  0.00000000E+00  0.00000000E+00  0.00000000E+00
  0.00000000E+00  0.00000000E+00  0.00000000E+00
  0.00000000E+00  0.00000000E+00  0.00000000E+00
  0.00000000E+00  0.00000000E+00  0.00000000E+00
  0.00000000E+00  0.00000000E+00  0.00000000E+00
  0.00000000E+00  0.00000000E+00  0.00000000E+00
  0.00000000E+00  0.00000000E+00  0.00000000E+00
