B C N                                   
   1.0000000000000000     
     8.7639499999999995  -15.1796066749929999    0.0000000000000000
     8.7639499999999995   15.1796066749929999    0.0000000000000000
     0.0000000000000000    0.0000000000000000   15.0000000000000000
   B    C    N 
    47     3    47
Selective dynamics
Direct
  0.9046437095954518  0.9527866797641396  0.1109880635698941   T   T   T
  0.9055801546931078  0.0965729861580824  0.1110280700125799   T   T   T
  0.9055356809191151  0.2395376902538625  0.1110714577594636   T   T   T
  0.9050114775872317  0.3820680086273733  0.1109942860289383   T   T   T
  0.9044061841578001  0.5243836896108243  0.1109752795306405   T   T   T
  0.9024637800104509  0.6664330083618155  0.1110390675056702   T   T   T
  0.9032849556912780  0.8090335062916557  0.1110274867705598   T   T   T
  0.0468549751394039  0.9514316091700745  0.1109705054684047   T   T   T
  0.0474152941810868  0.0948339937702656  0.1109758676666913   T   T   T
  0.0483350180842500  0.2387213150014105  0.1109949854186354   T   T   T
  0.0488190530662614  0.3818545366511136  0.1110084083480273   T   T   T
  0.0486915213143056  0.5242365984700221  0.1109961265754173   T   T   T
  0.0476822290910051  0.6662089069639430  0.1110038139027127   T   T   T
  0.0468321531150686  0.8085389655691773  0.1109811185319423   T   T   T
  0.1899132647957210  0.9508644789196221  0.1109928624060316   T   T   T
  0.1897845601099556  0.0937202590136999  0.1110256778647458   T   T   T
  0.1898969951803693  0.2366169065799054  0.1109704204783526   T   T   T
  0.1919270763690491  0.3811816547793353  0.1109568605068353   T   T   T
  0.1929299918309507  0.5240769667032557  0.1109892316041165   T   T   T
  0.1930225286776950  0.6660959994408333  0.1110220479192188   T   T   T
  0.1908059445051828  0.8083914229806365  0.1109737548411086   T   T   T
  0.3334709874067592  0.9511538281173605  0.1110154598737958   T   T   T
  0.3325312081453577  0.0932172690925805  0.1110556522379085   T   T   T
  0.3324810043640410  0.2353679066827059  0.1110635859041478   T   T   T
  0.3324233422198405  0.3774161619071183  0.1110708634153169   T   T   T
  0.3366423627877168  0.5239127766667971  0.1110635891536658   T   T   T
  0.3395673321125325  0.6661963412928309  0.1110553654954976   T   T   T
  0.3347304118702533  0.8086047496016192  0.1110220263891988   T   T   T
  0.4769371374617319  0.9527865707618073  0.1109785339821106   T   T   T
  0.4760633969348019  0.0952618119288466  0.1109641373235891   T   T   T
  0.4747509063078069  0.2371832246744093  0.1110276606381807   T   T   T
  0.4901954418218309  0.6692243464346459  0.1111000312593563   T   T   T
  0.4782644676654672  0.8102760801997171  0.1110409547002460   T   T   T
  0.6201430850036447  0.9547400219125561  0.1109836324009916   T   T   T
  0.6194554637184587  0.0967836708631731  0.1109763414872431   T   T   T
  0.6186795430393689  0.2392355767936584  0.1109862051934602   T   T   T
  0.6171817197042114  0.3822996301896215  0.1110366036956038   T   T   T
  0.6166849292429267  0.5247245518074650  0.1112536800478057   T   T   T
  0.6091496866004861  0.6698205625582926  0.1110658195091537   T   T   T
  0.6214359860654081  0.8139337873098029  0.1109877879578282   T   T   T
  0.7632245235651115  0.9547302187938130  0.1109771681789386   T   T   T
  0.7627616980037762  0.0972182271392376  0.1110412033830951   T   T   T
  0.7621126634400155  0.2396830476210797  0.1110332951207829   T   T   T
  0.7609221580721515  0.3820973854451516  0.1110001934588130   T   T   T
  0.7604914524462588  0.5247083059716487  0.1110275075652094   T   T   T
  0.7563135952415795  0.6668629905636068  0.1110517746753931   T   T   T
  0.7613395036817641  0.8106160473815356  0.1110102438344403   T   T   T
  0.4737240100271576  0.3781285614665627  0.1113443379979796   T   T   T
  0.4688169184610180  0.5123979115502044  0.1111878669441108   T   T   T
  0.5165916770459961  0.4693680982676048  0.1115220190946050   T   T   T
  0.9515865416064010  0.9043871236471609  0.1109778022359822   T   T   T
  0.9524462074445060  0.0480646407885478  0.1109826052978450   T   T   T
  0.9531699237148895  0.1917469983268882  0.1110232980039926   T   T   T
  0.9532346488490995  0.3346930066204180  0.1110069658761793   T   T   T
  0.9529091848902415  0.4772100363844715  0.1109480816778103   T   T   T
  0.9516112296759588  0.6194125878316417  0.1109896650634942   T   T   T
  0.9511801877827334  0.7615322764308502  0.1110103407688656   T   T   T
  0.0945829234851567  0.9037268490140777  0.1109433171443673   T   T   T
  0.0946660020975096  0.0467048709612920  0.1109719805016476   T   T   T
  0.0950712640155633  0.1900296341597774  0.1109528535161286   T   T   T
  0.0964949416148170  0.3340124277488335  0.1109641259121437   T   T   T
  0.0970641031766550  0.4770313194667283  0.1109790652453798   T   T   T
  0.0968065165931147  0.6192664779156793  0.1109963039705587   T   T   T
  0.0952338658417238  0.7612962830598383  0.1109599441673859   T   T   T
  0.2381141483829235  0.9036073789793361  0.1109645818970868   T   T   T
  0.2373790030266278  0.0460033693217203  0.1110168015094228   T   T   T
  0.2375167256826732  0.1889876341230585  0.1109966715936390   T   T   T
  0.2380001193282372  0.3315870741465088  0.1109452181593752   T   T   T
  0.2406981909095833  0.4765754202039464  0.1109628092083498   T   T   T
  0.2426048648702234  0.6192417963338266  0.1110093563181073   T   T   T
  0.2393873467668038  0.7612216951302008  0.1109954929989170   T   T   T
  0.3816459574570900  0.9040444913233833  0.1109943125602410   T   T   T
  0.3807746925630699  0.0464548175385403  0.1110016742353010   T   T   T
  0.3798963014959025  0.1882064920434111  0.1110366011232513   T   T   T
  0.3811893808916940  0.3302544294961775  0.1111250504026597   T   T   T
  0.3791596144170623  0.4719767956027340  0.1110866517054541   T   T   T
  0.3910510176536737  0.6194908659136049  0.1110625216901594   T   T   T
  0.3833914533149528  0.7614450800516146  0.1110332659644530   T   T   T
  0.5250313011699264  0.9058159483079057  0.1109788438817496   T   T   T
  0.5241577538040241  0.0482792656959704  0.1109396099220722   T   T   T
  0.5233657767976724  0.1908731853682341  0.1109439920195489   T   T   T
  0.5206356134779078  0.3328756377456935  0.1111075391294532   T   T   T
  0.5269706590603598  0.7639585264229770  0.1110358732016072   T   T   T
  0.6684157085216996  0.9081611891953957  0.1109501196221664   T   T   T
  0.6675209459096902  0.0497750657035197  0.1109835036953185   T   T   T
  0.6667504397185942  0.1920229255674441  0.1109901734514561   T   T   T
  0.6651398450543035  0.3344556152863846  0.1109692049844791   T   T   T
  0.6650653811614983  0.4774862716223427  0.1110441231503427   T   T   T
  0.6587143153651446  0.6204250248087549  0.1110814915163638   T   T   T
  0.6663454948415006  0.7643408154936631  0.1109824753393014   T   T   T
  0.8096593202082253  0.9059913462125382  0.1109672282137535   T   T   T
  0.8105758566240377  0.0497116163961274  0.1110110416186405   T   T   T
  0.8101994825716221  0.1923587221553875  0.1110575430593172   T   T   T
  0.8093391166704128  0.3348473726268876  0.1109962717307562   T   T   T
  0.8087409294820551  0.4773086856076846  0.1109739487060383   T   T   T
  0.8061497875036826  0.6197266192348995  0.1110350573232256   T   T   T
  0.8076279624375331  0.7620707762923942  0.1110184002297929   T   T   T

  0.00000000E+00  0.00000000E+00  0.00000000E+00
  0.00000000E+00  0.00000000E+00  0.00000000E+00
  0.00000000E+00  0.00000000E+00  0.00000000E+00
  0.00000000E+00  0.00000000E+00  0.00000000E+00
  0.00000000E+00  0.00000000E+00  0.00000000E+00
  0.00000000E+00  0.00000000E+00  0.00000000E+00
  0.00000000E+00  0.00000000E+00  0.00000000E+00
  0.00000000E+00  0.00000000E+00  0.00000000E+00
  0.00000000E+00  0.00000000E+00  0.00000000E+00
  0.00000000E+00  0.00000000E+00  0.00000000E+00
  0.00000000E+00  0.00000000E+00  0.00000000E+00
  0.00000000E+00  0.00000000E+00  0.00000000E+00
  0.00000000E+00  0.00000000E+00  0.00000000E+00
  0.00000000E+00  0.00000000E+00  0.00000000E+00
  0.00000000E+00  0.00000000E+00  0.00000000E+00
  0.00000000E+00  0.00000000E+00  0.00000000E+00
  0.00000000E+00  0.00000000E+00  0.00000000E+00
  0.00000000E+00  0.00000000E+00  0.00000000E+00
  0.00000000E+00  0.00000000E+00  0.00000000E+00
  0.00000000E+00  0.00000000E+00  0.00000000E+00
  0.00000000E+00  0.00000000E+00  0.00000000E+00
  0.00000000E+00  0.00000000E+00  0.00000000E+00
  0.00000000E+00  0.00000000E+00  0.00000000E+00
  0.00000000E+00  0.00000000E+00  0.00000000E+00
  0.00000000E+00  0.00000000E+00  0.00000000E+00
  0.00000000E+00  0.00000000E+00  0.00000000E+00
  0.00000000E+00  0.00000000E+00  0.00000000E+00
  0.00000000E+00  0.00000000E+00  0.00000000E+00
  0.00000000E+00  0.00000000E+00  0.00000000E+00
  0.00000000E+00  0.00000000E+00  0.00000000E+00
  0.00000000E+00  0.00000000E+00  0.00000000E+00
  0.00000000E+00  0.00000000E+00  0.00000000E+00
  0.00000000E+00  0.00000000E+00  0.00000000E+00
  0.00000000E+00  0.00000000E+00  0.00000000E+00
  0.00000000E+00  0.00000000E+00  0.00000000E+00
  0.00000000E+00  0.00000000E+00  0.00000000E+00
  0.00000000E+00  0.00000000E+00  0.00000000E+00
  0.00000000E+00  0.00000000E+00  0.00000000E+00
  0.00000000E+00  0.00000000E+00  0.00000000E+00
  0.00000000E+00  0.00000000E+00  0.00000000E+00
  0.00000000E+00  0.00000000E+00  0.00000000E+00
  0.00000000E+00  0.00000000E+00  0.00000000E+00
  0.00000000E+00  0.00000000E+00  0.00000000E+00
  0.00000000E+00  0.00000000E+00  0.00000000E+00
  0.00000000E+00  0.00000000E+00  0.00000000E+00
  0.00000000E+00  0.00000000E+00  0.00000000E+00
  0.00000000E+00  0.00000000E+00  0.00000000E+00
  0.00000000E+00  0.00000000E+00  0.00000000E+00
  0.00000000E+00  0.00000000E+00  0.00000000E+00
  0.00000000E+00  0.00000000E+00  0.00000000E+00
  0.00000000E+00  0.00000000E+00  0.00000000E+00
  0.00000000E+00  0.00000000E+00  0.00000000E+00
  0.00000000E+00  0.00000000E+00  0.00000000E+00
  0.00000000E+00  0.00000000E+00  0.00000000E+00
  0.00000000E+00  0.00000000E+00  0.00000000E+00
  0.00000000E+00  0.00000000E+00  0.00000000E+00
  0.00000000E+00  0.00000000E+00  0.00000000E+00
  0.00000000E+00  0.00000000E+00  0.00000000E+00
  0.00000000E+00  0.00000000E+00  0.00000000E+00
  0.00000000E+00  0.00000000E+00  0.00000000E+00
  0.00000000E+00  0.00000000E+00  0.00000000E+00
  0.00000000E+00  0.00000000E+00  0.00000000E+00
  0.00000000E+00  0.00000000E+00  0.00000000E+00
  0.00000000E+00  0.00000000E+00  0.00000000E+00
  0.00000000E+00  0.00000000E+00  0.00000000E+00
  0.00000000E+00  0.00000000E+00  0.00000000E+00
  0.00000000E+00  0.00000000E+00  0.00000000E+00
  0.00000000E+00  0.00000000E+00  0.00000000E+00
  0.00000000E+00  0.00000000E+00  0.00000000E+00
  0.00000000E+00  0.00000000E+00  0.00000000E+00
  0.00000000E+00  0.00000000E+00  0.00000000E+00
  0.00000000E+00  0.00000000E+00  0.00000000E+00
  0.00000000E+00  0.00000000E+00  0.00000000E+00
  0.00000000E+00  0.00000000E+00  0.00000000E+00
  0.00000000E+00  0.00000000E+00  0.00000000E+00
  0.00000000E+00  0.00000000E+00  0.00000000E+00
  0.00000000E+00  0.00000000E+00  0.00000000E+00
  0.00000000E+00  0.00000000E+00  0.00000000E+00
  0.00000000E+00  0.00000000E+00  0.00000000E+00
  0.00000000E+00  0.00000000E+00  0.00000000E+00
  0.00000000E+00  0.00000000E+00  0.00000000E+00
  0.00000000E+00  0.00000000E+00  0.00000000E+00
  0.00000000E+00  0.00000000E+00  0.00000000E+00
  0.00000000E+00  0.00000000E+00  0.00000000E+00
  0.00000000E+00  0.00000000E+00  0.00000000E+00
  0.00000000E+00  0.00000000E+00  0.00000000E+00
  0.00000000E+00  0.00000000E+00  0.00000000E+00
  0.00000000E+00  0.00000000E+00  0.00000000E+00
  0.00000000E+00  0.00000000E+00  0.00000000E+00
  0.00000000E+00  0.00000000E+00  0.00000000E+00
  0.00000000E+00  0.00000000E+00  0.00000000E+00
  0.00000000E+00  0.00000000E+00  0.00000000E+00
  0.00000000E+00  0.00000000E+00  0.00000000E+00
  0.00000000E+00  0.00000000E+00  0.00000000E+00
  0.00000000E+00  0.00000000E+00  0.00000000E+00
  0.00000000E+00  0.00000000E+00  0.00000000E+00
  0.00000000E+00  0.00000000E+00  0.00000000E+00
