 B N C 
 1.0
 17.527899999999772   0.000000000000000   0.000000000000000
 -8.763949999999658  15.179606674993195   0.000000000000000
  0.000000000000001   0.000000000000002  15.000000000000000
 B N C 
  48  48   1
Cartesian
  7.518469387847158  14.433100164966863   1.762295480853240 
 15.051790646089795   1.431051991966182   1.785637724079615 
 13.807393168880996   3.601371532249076   1.775853989179785 
 12.551657036949914   5.770293684548130   1.753899967083630 
 11.271664082127185   7.936140193892617   1.725982196054460 
  9.990247047656883  10.094093678791307   1.707878122108695 
  8.738583831952887  12.245709621139580   1.723973926150710 
 -7.512242228641475  14.458637729517831   1.783188667015935 
  0.025090889639978   1.454372987757493   1.763237925028590 
 -1.217276458083834   3.617392984952644   1.722012749865135 
 -2.480160781505435   5.782356924923898   1.698565069186800 
 -3.760289053404803   7.951546625573397   1.718813446755525 
 -5.029372788822593  10.119737783328796   1.750247454810195 
 -6.278873642175514  12.285302038677152   1.775767787484195 
 -5.013376178195534  14.477003643102210   1.772788209472035 
  2.529676420730202   1.491408168749006   1.723223774958975 
  1.296042736318233   3.650835244147191   1.641978638679885 
  0.024720901730079   5.800118094755643   1.573442266656690 
 -1.274324824066806   7.965127875231405   1.583847776976555 
 -2.532971143287646  10.133110168311505   1.673244371857065 
 -3.776556701590005  12.301708884741085   1.753283748133035 
 -2.512057796732715  14.477647990178891   1.739989159527450 
  5.018953638964053   1.483054513379073   1.700349391701360 
  3.820650918285110   3.720401568127618   1.599609821857290 
  2.568890520870812   5.831614665490371   1.501961069295645 
  1.188794100943479   7.998872730972570   1.439614816073970 
 -0.050871537304887  10.150420457847552   1.526854251902205 
 -1.276912566872451  12.308781880741375   1.669559710052685 
 -0.001127758966074  14.462531458664520   1.706873765648070 
  7.528431313740307   1.452219499579477   1.711527517038885 
  6.300495554228142   3.634385782609098   1.617081714374010 
  5.201754647118245   5.973973819097335   1.504233946776435 
  2.432489571077912  10.152405192262851   1.442706386397915 
  1.229986463452133  12.302562001514787   1.583403477109965 
  2.517470728424694  14.438525165075543   1.692481658577510 
 10.043992168445333   1.426568291145809   1.741954768728300 
  8.811839034550417   3.586929539532137   1.686392965899885 
  7.600332869189712   5.733272936390337   1.585568504685885 
  6.192924319023022   7.690331687370338   1.505307695249295 
  4.999465161203688  10.041009057566649   1.504737277427085 
  3.754588087355590  12.260211464117962   1.576029623667285 
  5.023989247784240  14.427350843128659   1.719863183354475 
 12.550074443664982   1.423645382877966   1.771347926373345 
 11.308110001043801   3.592440798725193   1.758192158417040 
 10.064861072488309   5.757160361396600   1.693097364833295 
  8.768251781961936   7.908530865549221   1.623275796730230 
  7.453796544828684  10.013088284505320   1.601363924240400 
  6.251723896472196  12.234151621566410   1.642374479488785 
  8.762218854295718  13.707787580996740   1.768442535044445 
 16.300914136462112   0.709973006886242   1.788584240431650 
 15.061685737369686   2.882340620460261   1.777495173005370 
 13.806904604902936   5.049880384944232   1.757012097808260 
 12.530448701071085   7.218390339616374   1.748325970942470 
 11.254513442135675   9.384753163922918   1.737262423278165 
  9.998764580516776  11.544933282327726   1.743446744161050 
 -6.264196186661511  13.738073648483544   1.791608854864755 
  1.275246073252071   0.740032498583432   1.769016176866365 
  0.041478155979079   2.910033739936547   1.714690801641285 
 -1.218310406574320   5.067269873841455   1.664501986780080 
 -2.505025655344707   7.230383428393522   1.671167885182500 
 -3.772926831564407   9.399501346168925   1.723823214998295 
 -5.024935475285845  11.567971336241747   1.771290744090750 
 -3.765334556162454  13.749745360450733   1.766155781553960 
  3.766541146746587   0.750471309715554   1.739573844530475 
  2.555713365692135   2.956575990163556   1.651852471043520 
  1.306006330679736   5.110257573167360   1.559086193115210 
 -0.019168634854203   7.246223207108325   1.507678002570735 
 -1.284029144250217   9.411821986762954   1.585279897321950 
 -2.525502287396873  11.579242758406469   1.701813687765795 
 -1.261503077998834  13.749604896326346   1.713524079683715 
  6.265159649693741   0.742805694450820   1.724070891914580 
  5.035800003465254   2.932416126288001   1.633530754181100 
  3.860818849627018   5.203520749522097   1.523804662780470 
  2.475132662872813   7.315157195319235   1.435474196408580 
  1.194299500456934   9.431499387346637   1.430652260450820 
 -0.027639037300723  11.587605875241135   1.584831063187425 
  1.251089261537242  13.735921833093903   1.664789177010255 
  8.779331107174883   0.721004373196483   1.732094030316915 
  7.545743957037642   2.889846349190222   1.671052343047770 
  6.334694381183729   5.067283593509399   1.557161879469045 
  3.667677339151988   9.380356195772769   1.438568412256920 
  2.480385010682472  11.574672837712388   1.512164485749555 
  3.767760537574018  13.703081696677092   1.663087073154285 
 11.295390475253104   0.699938781893687   1.747428278048025 
 10.059764339568618   2.864702494400651   1.738398782964300 
  8.836404041920677   5.019606964636280   1.650430525090140 
  7.544515957340830   7.162423638295508   1.559466784249860 
  6.189483414192215   9.236670938392063   1.525096974064125 
  4.992591136159706  11.495449740774557   1.561935903938460 
  6.265854228698020  13.690991463588185   1.713392072399940 
 13.799825655880547   0.696872717734198   1.774638207263175 
 12.559888769780345   2.869722521159476   1.784042645983005 
 11.314054462713445   5.037520636074240   1.746389192626050 
 10.035299796186266   7.202241437537317   1.681781276734905 
  8.743786502246834   9.354553430727261   1.638502959253515 
  7.482743141389014  11.490516999776052   1.652028858442050 
  3.587130273485275   8.049911881869537   1.467320630424705 
