 B O Se N 
 1.0
 17.527899999999772   0.000000000000000   0.000000000000000
 -8.763949999999658  15.179606674993195   0.000000000000000
  0.000000000000001   0.000000000000002  15.000000000000000
 B O Se N 
  49   1   1  47
Cartesian
  7.514028883179517  14.472003101656892   1.665185179827840 
 15.028034412922672   1.446708175755147   1.665424268291400 
 13.786298536059764   3.606328092288367   1.665433362553005 
 12.552765161299483   5.773560920892476   1.665332960594700 
 11.360341214314758   7.962758369307377   1.665156336284355 
 10.074861280609088  10.196538176012670   1.665186246600300 
  8.774584877315691  12.319881231536437   1.665997639202325 
 -7.507796171525801  14.467432250871031   1.665144451128750 
 -0.002969817586848   1.446012227533902   1.664916104456400 
 -1.252929792725146   3.609642230329557   1.664805294904695 
 -2.494349098373394   5.780149051846068   1.665123951139245 
 -3.719624799836591   7.957303553869181   1.665170931833520 
 -4.977652892752693  10.137206067610872   1.665104043480165 
 -6.234409155628329  12.319432643847991   1.665418981493610 
 -5.003255366417305  14.457853813727850   1.664942609659410 
  2.495496045971580   1.438380845451721   1.665336518051085 
  1.234423624887655   3.603530151894418   1.664983855487370 
 -0.013879413880480   5.777342546325324   1.664726251378710 
 -1.253504147245032   7.955285704508946   1.665766771624320 
 -2.494058066663825  10.127802808879393   1.665678296178150 
 -3.744278726984323  12.295521344925387   1.664862200136840 
 -2.499546292625176  14.449078958026437   1.665387153338190 
  4.995443132554998   1.416379001270247   1.665639623228010 
  3.723733455384144   3.593224653699855   1.665592204787880 
  2.466524970840111   5.758480229412893   1.664992188835245 
  1.208991529072952   7.958136684534599   1.664664343290330 
 -0.009812025366374  10.128435321173148   1.666194603296775 
 -1.253459284842449  12.290792949895206   1.665814188648990 
  0.000428452350978  14.446821709862197   1.665361358529270 
  7.515243707778634   1.415991473935212   1.665382313457510 
  6.228121563326907   3.528993749125852   1.665392410696800 
  4.964795051035884   5.701750240143443   1.666977181896075 
  3.623635258346688   7.982623951398886   1.666357145706615 
  2.474837159288384  10.138637635213595   1.665242642469315 
  1.242811888496669  12.294004707984573   1.665644326161600 
  2.502700909127254  14.454679023053728   1.665218989748685 
 10.035904314179705   1.406949795235640   1.665049484257635 
  8.818499012709898   3.519756817050948   1.664427816410580 
  7.528088290393395   5.424615312296360   1.666186058592945 
  5.973502022395840   8.120922875828628   1.668461748299490 
  4.966872190784263  10.212555308712888   1.665003370251330 
  3.734245208740735  12.322681207675924   1.665122418465015 
  5.007370311203562  14.468481677306579   1.664990660703315 
 12.530778481392845   1.437249021166509   1.665551892921825 
 11.297647099467051   3.588492480279136   1.665071981469360 
 10.065505855071621   5.744345115822621   1.665132304760175 
  9.035860464154265   8.109797839954851   1.665541882150020 
  7.502142262684245  10.177166601639891   1.665167700098700 
  6.254528805446570  12.325630896995609   1.665430032108210 
  4.812330428242818   7.243991207426254   1.670633851579140 
  7.493088792294246   7.210496599342767   1.669087967155110 
  8.767034481755699  13.754948321644161   1.665205272686145 
 16.276718874260450   0.729068182113956   1.664887621554480 
 15.030690491285771   2.887034643741077   1.664994810586095 
 13.792540511449330   5.050616933734546   1.665054996339045 
 12.579259659220433   7.224179814561067   1.664922854454600 
 11.308384017669319   9.419736024574451   1.664944226433570 
 10.044663437533401  11.621796677305293   1.665420806376570 
 -6.252011427840576  13.752045750015009   1.664934010442970 
  1.246768291413161   0.725031904020079   1.664850431052015 
 -0.009529847795140   2.885427635295919   1.664599049982315 
 -1.253964629935480   5.053515363306428   1.664578530413625 
 -2.487335201249014   7.226057186609237   1.665125148267990 
 -3.734794003428330   9.403845912074836   1.664952109641600 
 -4.990689230768179  11.580954247044385   1.664816604672195 
 -3.752024164939631  13.735067109397020   1.664597612404950 
  3.745956092969685   0.712172745137489   1.665057800156550 
  2.480660931596012   2.877878850864777   1.665139897189545 
  1.224781573044262   5.046815490760533   1.664444164768425 
 -0.019133473333097   7.225633310394579   1.664856256513785 
 -1.250874690405038   9.400733905600930   1.665916365147015 
 -2.497300542745527  11.570019968619796   1.665253594546440 
 -1.250888632179469  13.729818545690742   1.665206284058490 
  6.256989128412252   0.706689069902475   1.665338469682635 
  4.974295053422913   2.847734090573510   1.665440894581260 
  3.699550669246282   5.036679665186740   1.665550680950160 
  2.440010079297185   7.223844554009785   1.664357253973830 
  1.233888818774426   9.404129756556113   1.665150765439770 
 -0.003951774531269  11.569491938745482   1.665836642761125 
  1.251357022911860  13.732153054622202   1.665058141603545 
  8.771548004106322   0.703254140299477   1.664945037171750 
  7.518172764849812   2.850910816922082   1.664693410947465 
  6.197847048768756   4.961124108853840   1.665295922150055 
  3.724507129125089   9.416893909212783   1.665017444848860 
  2.491451519240751  11.578664492259341   1.665103339890735 
  3.751490409220436  13.751878743269172   1.664839944567225 
 11.283893614605013   0.706286778805726   1.665085691732820 
 10.063191797397069   2.833552787442545   1.664576449474245 
  8.859124273591021   4.936647915383370   1.664340918742455 
  6.199404321914534   9.533251638583710   1.664746895631255 
  4.983456454611872  11.631148572156077   1.664836782600765 
  6.260607659402145  13.758754919906417   1.664875295859285 
 13.779369299810968   0.725239330342721   1.665177928437015 
 12.543190969448810   2.877228618537494   1.665191233312350 
 11.311203575691831   5.036437928325479   1.664984279614035 
 10.140108818930655   7.224401098338825   1.664750493051120 
  8.829071962614549   9.511047183350779   1.664611793630490 
  7.512973794691015  11.610320143380175   1.665419744036895 
