Species order: X N B                    
   2.51242800000000     
     5.9449720136058266    0.0000000000000000    0.0000000000000000
    -2.9724860068029120    5.1484967885702053   -0.0000000000000001
     0.0000000000000000    0.0000000000000009    5.3101128803662583
   Sn   N    B 
     1   143   143
Direct
  0.4974326099713225  0.4153829716521298  0.3750000000000000
  0.1112282758402659  0.0556107452711036  0.1260895449012165
  0.6114516092303737  0.5559211744899135  0.1244561172183159
  0.4446385633737961  0.0556467509698604  0.1262218905559080
  0.9446049766040758  0.5556219359043344  0.1272838818472003
  0.7779756408168486  0.0556544870746537  0.1251354564534688
  0.1112679220550805  0.7223006276942755  0.6237596994493073
  0.4446385633737961  0.7223251457368902  0.6237781094444322
  0.2778013059768011  0.2222187235772416  0.6243258438019001
  0.7779854869503575  0.7223973452764055  0.6232896299489249
  0.6113297162441139  0.2222557876458849  0.6238170249076715
  0.9445987594527347  0.2222900924785214  0.6246189360105645
  0.2779494657040588  0.7223026149721479  0.1256317606898757
  0.1111966925021688  0.2222650129176627  0.1258070465940948
  0.4446415208939103  0.2223266642895030  0.1261010109258239
  0.6113297162441134  0.7224072619319546  0.1261829750923394
  0.9446049766040758  0.7223163740326154  0.1272838818472003
  0.7779765321184486  0.2222695239171976  0.1258593412104299
  0.1112688476863660  0.8889759417841944  0.6237464376963220
  0.4446309296834215  0.8889821315086204  0.6243918156043206
  0.2778013059768012  0.3889159157325691  0.6243258438019034
  0.6114516092303737  0.3888637680743783  0.6255438827820029
  0.7779765321184486  0.8890403415349244  0.6241406587899847
  0.9446099058990348  0.3889483288830501  0.6235751888144547
  0.1112282758402605  0.3889508639023371  0.1260895449012165
  0.2779494657040588  0.8889801840650258  0.1256317606898746
  0.6113077040004667  0.8890129000326920  0.1257887758247616
  0.4442076951481735  0.3887705142406048  0.1237393714989977
  0.9446099058990348  0.8889949103486319  0.1264248111856251
  0.7779854869503575  0.3889214750078387  0.1267103700510374
  0.2779526855898699  0.5556362765882629  0.6237181435743304
  0.1112282758402605  0.0556107452711018  0.6239104550990797
  0.6114516092303737  0.5559211744899066  0.6255438827820029
  0.4446385633737961  0.0556467509698573  0.6237781094444322
  0.9446049766040758  0.5556219359043344  0.6227161181525089
  0.1112688476863631  0.5556262392350273  0.1262535623035806
  0.7779756408168486  0.0556544870746535  0.6248645435466997
  0.2779526855898699  0.0556497423349504  0.1262818564258180
  0.4446415208939104  0.5556481899376743  0.1261010109258310
  0.7779626831053587  0.5556480082189196  0.1270662317145610
  0.6113077040004667  0.0556281373012430  0.1257887758247590
  0.4446415208939104  0.5556481899376743  0.6238989890743399
  0.9445987594527347  0.0556420003065999  0.1253810639893224
  0.2779494657040588  0.7223026149721479  0.6243682393100392
  0.1111966925021688  0.2222650129176627  0.6241929534058555
  0.4446415208939153  0.2223266642894954  0.6238989890743366
  0.6113297162441139  0.7224072619319546  0.6238170249076677
  0.9446049766040758  0.7223163740326154  0.6227161181525089
  0.7779765321184486  0.2222695239171971  0.6241406587899847
  0.1112679220550805  0.7223006276942755  0.1262403005503386
  0.4446385633737961  0.7223251457368902  0.1262218905559001
  0.2778013059767999  0.2222187235772416  0.1256741561981793
  0.7779854869503575  0.7223973452764055  0.1267103700510176
  0.6113297162441139  0.2222557876459052  0.1261829750923391
  0.9445987594527347  0.2222900924785214  0.1253810639893224
  0.1112282758402605  0.3889508639023371  0.6239104550990797
  0.2779494657040527  0.8889801840650261  0.6243682393100317
  0.6113077040004667  0.8890129000326920  0.6242112241756570
  0.4442076951481703  0.3887705142406053  0.6262606285013381
  0.9446099058990348  0.8889949103486319  0.6235751888144547
  0.1112688476863558  0.8889759417841944  0.1262535623035806
  0.7779854869503575  0.3889214750078387  0.6232896299489218
  0.4446309296834215  0.8889821315086204  0.1256081843958876
  0.2778013059768012  0.3889159157325839  0.1256741561981773
  0.2779526855898699  0.5556362765882629  0.1262818564258189
  0.6114516092303737  0.3888637680744005  0.1244561172183314
  0.7779765321184486  0.8890403415349220  0.1258593412104305
  0.9446099058990348  0.3889483288830501  0.1264248111856248
  0.1112688476863660  0.5556262392350273  0.6237464376963220
  0.2779526855898699  0.0556497423349506  0.6237181435743324
  0.7779626831053496  0.5556480082189236  0.6229337682854245
  0.6113077040004667  0.0556281373012437  0.6242112241756570
  0.9445987594527347  0.0556420003066002  0.6246189360105645
  0.0586304285459150  0.1127670222141074  0.3750000000000000
  0.5559799965288836  0.6211301023325174  0.3750000000000000
  0.3879229920347217  0.1036727709201411  0.3750000000000000
  0.8880999786094266  0.6107166559719834  0.3750000000000000
  0.7247211582183642  0.1114325141194203  0.3750000000000000
  0.0549947473637512  0.7774955442073813  0.8750000000000000
  0.3883140248625041  0.7774971708057825  0.8750000000000000
  0.2216684091671383  0.2775008712500614  0.8750000000000000
  0.7216483553236419  0.7774751494756224  0.8750000000000000
  0.5549695525039006  0.2774803802464266  0.8750000000000000
  0.8883231453596563  0.2775060404223896  0.8750000000000000
  0.2211445082915568  0.7772389208128114  0.3750000000000000
  0.0586304285459155  0.2791967396651512  0.3750000000000000
  0.3884743243811128  0.2656316876918950  0.3750000000000000
  0.5565361065002025  0.7826637423507778  0.3750000000000000
  0.8900214821607006  0.7789960888558727  0.3750000000000000
  0.7245044138522090  0.2765698078128691  0.3750000000000000
  0.0549898718549534  0.9441540665688756  0.8750000000000000
  0.3883140248625013  0.9441501873899107  0.8750000000000000
  0.2216562634973719  0.4441694840303733  0.8750000000000000
  0.5549856927081417  0.4441595130207351  0.8750000000000000
  0.7216455403953239  0.9441488815760652  0.8750000000000000
  0.8883308563012686  0.4441755900321133  0.8750000000000000
  0.0563074820193903  0.4452296118197547  0.3750000000000000
  0.2212163138885888  0.9421554464901021  0.3750000000000000
  0.5566812528831248  0.9450072931080740  0.3750000000000000
  0.3884743243810862  0.4561759700226211  0.3750000000000000
  0.8914913512699375  0.9464929879735628  0.3750000000000000
  0.7238277309459628  0.4433703230205864  0.3750000000000000
  0.2216454385594283  0.6108311237874071  0.8750000000000000
  0.0549967526304590  0.1108263227527352  0.8750000000000000
  0.5549695525039006  0.6108225055911706  0.8750000000000000
  0.3883086706682240  0.1108046828360435  0.8750000000000000
  0.8883476772803928  0.6108405053065529  0.8750000000000000
  0.0547596757696193  0.6110596694498924  0.3750000000000000
  0.7216455403953239  0.1108299921524911  0.8750000000000000
  0.2226147159595523  0.1091401907406601  0.3750000000000000
  0.3879229920347219  0.6175835544482478  0.3750000000000000
  0.7238277309459678  0.6137907412585502  0.3750000000000000
  0.5565361065001908  0.1072056974826174  0.3750000000000000
  0.3883086706682240  0.6108373211657580  0.8750000000000000
  0.8919382174393038  0.1126357753863574  0.3750000000000000
  0.2216509620646414  0.7774921476987177  0.8750000000000000
  0.0549967526304604  0.2775037632110937  0.8750000000000000
  0.3883235946495225  0.2774756162105224  0.8750000000000000
  0.5549772488426475  0.7774858859844658  0.8750000000000000
  0.8883308563012686  0.7774885996019563  0.8750000000000000
  0.7216483553236419  0.2775065391817897  0.8750000000000000
  0.0547596757696198  0.7770333396530670  0.3750000000000000
  0.3884045658004213  0.7796863288189722  0.3750000000000000
  0.2267548398163112  0.2800440865750273  0.3750000000000000
  0.7245044138522091  0.7812679393733621  0.3750000000000000
  0.5559799965288909  0.2681832275300479  0.3750000000000000
  0.8914913512699375  0.2783316966292870  0.3750000000000000
  0.0549898718549529  0.4441691386194655  0.8750000000000000
  0.2216454385594286  0.9441476481053372  0.8750000000000000
  0.5549776315332313  0.9441554824325732  0.8750000000000000
  0.3883235946495225  0.4441813117722322  0.8750000000000000
  0.8883231453596563  0.9441504382708948  0.8750000000000000
  0.0563074820193904  0.9444112035328665  0.3750000000000000
  0.7216713436226796  0.4441790292823746  0.8750000000000000
  0.3884045658004213  0.9420515703147700  0.3750000000000000
  0.2226147159595520  0.4468078585524731  0.3750000000000000
  0.2212163138885892  0.6123942007313283  0.3750000000000000
  0.7247211582183642  0.9466219774318109  0.3750000000000000
  0.8900214821607004  0.4443587266383484  0.3750000000000000
  0.0549947473637513  0.6108325364894237  0.8750000000000000
  0.2216562634973719  0.1108201128003744  0.8750000000000000
  0.7216713436226796  0.6108256476732487  0.8750000000000000
  0.5549772488426541  0.1108246961914885  0.8750000000000000
  0.8883234935934367  0.1108284134633656  0.8750000000000000
  0.1126046273619642  0.0555543052839731  0.3750000000000000
  0.6142690236994521  0.5691319978577999  0.3750000000000000
  0.4451147517455534  0.0517061446476871  0.3750000000000000
  0.9438230564242920  0.5554063421315500  0.3750000000000000
  0.7808929049374367  0.0571131191353784  0.3750000000000000
  0.1105388383851578  0.7219360858590655  0.8750000000000000
  0.4438649376560362  0.7218964663885722  0.8750000000000000
  0.2772981958543525  0.2219896590436688  0.8750000000000000
  0.7771581219646766  0.7218427353987643  0.8750000000000000
  0.6105021969134936  0.2219904128645517  0.8750000000000000
  0.9438999407727368  0.2219630844291592  0.8750000000000000
  0.2773077811651877  0.7229710740940952  0.3750000000000000
  0.1158046509766987  0.2245689921550319  0.3750000000000000
  0.4437139642489654  0.2130478499466676  0.3750000000000000
  0.6130634293031706  0.7292175079292968  0.3750000000000000
  0.9438230564242959  0.7217500476256296  0.3750000000000000
  0.7805128366212325  0.2223330305000555  0.3750000000000000
  0.1105535512895999  0.8886069952893049  0.8750000000000000
  0.4438602515918530  0.8885967924622989  0.8750000000000000
  0.2772981958543526  0.3886418701441565  0.8750000000000000
  0.6104867200473671  0.3886487686083174  0.8750000000000000
  0.7771833055985600  0.8885417213438074  0.8750000000000000
  0.9438705009549641  0.3886339769982693  0.8750000000000000
  0.1126046273619629  0.3903836554115401  0.3750000000000000
  0.2773077811651877  0.8876700404037595  0.3750000000000000
  0.6134151040206743  0.8919345788658346  0.3750000000000000
  0.9457890179289752  0.8898506737436412  0.3750000000000000
  0.7793440066800881  0.3881482445841458  0.3750000000000000
  0.2772401160353139  0.5552690456051408  0.8750000000000000
  0.1105929430351989  0.0552956391365488  0.8750000000000000
  0.6104867200473671  0.5551712847724016  0.8750000000000000
  0.4438649376560366  0.0553018046006017  0.8750000000000000
  0.9438530356960957  0.5552795985014761  0.8750000000000000
  0.1106428843900912  0.5561165583268045  0.3750000000000000
  0.7771967316717991  0.0552650325024045  0.8750000000000000
  0.2774095962767986  0.0527837165545832  0.3750000000000000
  0.4437139642489679  0.5639994476356837  0.3750000000000000
  0.7763871957406199  0.5548602645374083  0.3750000000000000
  0.6134151040206746  0.0548138584884058  0.3750000000000000
  0.4438969041299460  0.5552319398778945  0.8750000000000000
  0.9477798402779758  0.0575467485547649  0.3750000000000000
  0.2772132726006605  0.7219294759009478  0.8750000000000000
  0.1106200379874181  0.2219766856604195  0.8750000000000000
  0.4438969041299460  0.2219982975854350  0.8750000000000000
  0.6105021969134955  0.7218451173826668  0.8750000000000000
  0.9438530356960783  0.7219067705278298  0.8750000000000000
  0.7771833055985600  0.2219749175882032  0.8750000000000000
  0.1102529915292534  0.7217931624311750  0.3750000000000000
  0.4451147517455539  0.7267419404313575  0.3750000000000000
  0.2808737440733167  0.2212118016268221  0.3750000000000000
  0.7793440066800965  0.7245290954286376  0.3750000000000000
  0.6130634293031746  0.2171792547066951  0.3750000000000000
  0.9477798402779758  0.2235664250563976  0.3750000000000000
  0.1105929430351989  0.3886306372320121  0.8750000000000000
  0.2772132726006605  0.8886171300335738  0.8750000000000000
  0.6105132819119105  0.8885600585217849  0.8750000000000000
  0.4439526902068626  0.3886430117700738  0.8750000000000000
  0.9438705009549641  0.8885698572903096  0.8750000000000000
  0.1106428843900915  0.8878596593966958  0.3750000000000000
  0.7771581219646766  0.3886487198992614  0.8750000000000000
  0.4452537599228378  0.8892935466277602  0.3750000000000000
  0.2808737440733164  0.3929952757798035  0.3750000000000000
  0.2774095962768421  0.5579592130556517  0.3750000000000000
  0.6142690236994518  0.3784703591755744  0.3750000000000000
  0.7805128366212326  0.8915131394538501  0.3750000000000000
  0.9457890179289752  0.3892716775183616  0.3750000000000000
  0.1105535512895999  0.5552798893332638  0.8750000000000000
  0.2772401160353139  0.0553044037635721  0.8750000000000000
  0.7771548604772772  0.5552440969054212  0.8750000000000000
  0.6105132819119105  0.0552865567225994  0.8750000000000000
  0.9438999407727368  0.0552701896770308  0.8750000000000000
  0.0557512587418732  0.1112339539338191  0.1259501143864677
  0.5558433458242800  0.6110433960252897  0.1260780377758419
  0.3891817982967749  0.1114452616996688  0.1266567030797377
  0.8888297539850795  0.6110815436588793  0.1276058774605230
  0.7224027631059283  0.1112055303369906  0.1256856916464674
  0.0556582364891351  0.7778494479919739  0.6232200716965409
  0.3891157356911192  0.7778290591443282  0.6240460732465664
  0.2224464948047595  0.2778899140692928  0.6238664487508643
  0.7223473232976496  0.7778155561139293  0.6235188227061487
  0.5558433458242800  0.2781332831326957  0.6239219622243876
  0.8890426435197983  0.2778390200236080  0.6239971012330492
  0.2223917906208351  0.7778625619776394  0.1258715627390062
  0.0557512587418733  0.2778506381412957  0.1259501143864677
  0.3890685208037278  0.2780150294979041  0.1257298163022314
  0.5557740427063135  0.7778099463038479  0.1263380516658971
  0.8889509249690005  0.7778210755653155  0.1270792080274522
  0.7223473232976496  0.2778651005165926  0.1264811772940567
  0.0557169462229226  0.9445702272582384  0.6235387155502280
  0.3891157356911231  0.9446200098798463  0.6240460732465664
  0.2224431983652879  0.4444609832236123  0.6235802483800477
  0.5556826575754452  0.4445079954543844  0.6209355018043804
  0.7224027631059325  0.9445305661024662  0.6243143083535676
  0.8889509249690005  0.4444631827369737  0.6229207919724958
  0.0557169462229225  0.4444800522977641  0.1264612844495615
  0.2224462286178783  0.9446470469403883  0.1262287552835029
  0.5557595586758324  0.9445464460052005  0.1258745095095478
  0.3890685208037278  0.4443868246388230  0.1257298163022305
  0.8890426435197920  0.9445369568292571  0.1260028987671857
  0.7221071246716407  0.4443919534941968  0.1264910700597959
  0.2224462286178783  0.6111325150112182  0.6237712447159288
  0.0557512587418733  0.1112339539338192  0.6240498856131643
  0.5558433458242800  0.6110433960252897  0.6239219622243876
  0.3891817982967660  0.1114452616996685  0.6233432969205568
  0.8888297539850796  0.6110815436588793  0.6223941225391255
  0.0556582364891352  0.6111421218296801  0.1267799283030680
  0.7224027631059325  0.1112055303369906  0.6243143083535676
  0.2224431983652893  0.1113155484749129  0.1264197516199245
  0.3891817982967660  0.6110698699304118  0.1266567030797364
  0.7221071246716430  0.6110485045106331  0.1264910700597958
  0.5557740427063219  0.1112974297357868  0.1263380516658996
  0.3891817982967662  0.6110698699304118  0.6233432969205515
  0.8890761386552928  0.1112047359941204  0.1253446361989091
  0.2223917906208351  0.7778625619776394  0.6241284372612131
  0.0557512587418733  0.2778506381412955  0.6240498856131643
  0.3890685208037278  0.2780150294979041  0.6242701836974935
  0.5557740427063219  0.7778099463038479  0.6236619483339435
  0.8889509249690005  0.7778210755653155  0.6229207919724958
  0.7223473232976494  0.2778651005165926  0.6235188227061482
  0.0556582364891352  0.7778494479919739  0.1267799283030680
  0.3891157356911231  0.7778290591443274  0.1259539267531282
  0.2224464948047595  0.2778899140692928  0.1261335512490951
  0.7223473232976494  0.7778155561139293  0.1264811772940567
  0.5558433458242800  0.2781332831326957  0.1260780377758476
  0.8890426435197983  0.2778390200236079  0.1260028987671857
  0.0557169462229225  0.4444800522977641  0.6235387155502280
  0.2224462286178783  0.9446470469403883  0.6237712447159288
  0.5557595586758324  0.9445464460052005  0.6241254904906286
  0.3890685208037284  0.4443868246388230  0.6242701836974935
  0.8890426435197920  0.9445369568292571  0.6239971012330492
  0.0557169462229226  0.9445702272582384  0.1264612844495615
  0.7221071246716430  0.4443919534941964  0.6235089299399217
  0.3891157356911192  0.9446200098798463  0.1259539267531305
  0.2224431983652879  0.4444609832236123  0.1264197516199245
  0.2224462286178783  0.6111325150112182  0.1262287552835029
  0.5556826575754401  0.4445079954543864  0.1290644981957028
  0.7224027631059325  0.9445305661024662  0.1256856916464674
  0.8889509249690005  0.4444631827369737  0.1270792080274527
  0.0556582364891352  0.6111421218296933  0.6232200716965409
  0.2224431983652879  0.1113155484749128  0.6235802483800477
  0.7221071246716430  0.6110485045106309  0.6235089299399179
  0.5557740427063219  0.1112974297357868  0.6236619483339435
  0.8890761386552928  0.1112047359941204  0.6246553638012721
 
  0.00000000E+00  0.00000000E+00  0.00000000E+00
  0.00000000E+00  0.00000000E+00  0.00000000E+00
  0.00000000E+00  0.00000000E+00  0.00000000E+00
  0.00000000E+00  0.00000000E+00  0.00000000E+00
  0.00000000E+00  0.00000000E+00  0.00000000E+00
  0.00000000E+00  0.00000000E+00  0.00000000E+00
  0.00000000E+00  0.00000000E+00  0.00000000E+00
  0.00000000E+00  0.00000000E+00  0.00000000E+00
  0.00000000E+00  0.00000000E+00  0.00000000E+00
  0.00000000E+00  0.00000000E+00  0.00000000E+00
  0.00000000E+00  0.00000000E+00  0.00000000E+00
  0.00000000E+00  0.00000000E+00  0.00000000E+00
  0.00000000E+00  0.00000000E+00  0.00000000E+00
  0.00000000E+00  0.00000000E+00  0.00000000E+00
  0.00000000E+00  0.00000000E+00  0.00000000E+00
  0.00000000E+00  0.00000000E+00  0.00000000E+00
  0.00000000E+00  0.00000000E+00  0.00000000E+00
  0.00000000E+00  0.00000000E+00  0.00000000E+00
  0.00000000E+00  0.00000000E+00  0.00000000E+00
  0.00000000E+00  0.00000000E+00  0.00000000E+00
  0.00000000E+00  0.00000000E+00  0.00000000E+00
  0.00000000E+00  0.00000000E+00  0.00000000E+00
  0.00000000E+00  0.00000000E+00  0.00000000E+00
  0.00000000E+00  0.00000000E+00  0.00000000E+00
  0.00000000E+00  0.00000000E+00  0.00000000E+00
  0.00000000E+00  0.00000000E+00  0.00000000E+00
  0.00000000E+00  0.00000000E+00  0.00000000E+00
  0.00000000E+00  0.00000000E+00  0.00000000E+00
  0.00000000E+00  0.00000000E+00  0.00000000E+00
  0.00000000E+00  0.00000000E+00  0.00000000E+00
  0.00000000E+00  0.00000000E+00  0.00000000E+00
  0.00000000E+00  0.00000000E+00  0.00000000E+00
  0.00000000E+00  0.00000000E+00  0.00000000E+00
  0.00000000E+00  0.00000000E+00  0.00000000E+00
  0.00000000E+00  0.00000000E+00  0.00000000E+00
  0.00000000E+00  0.00000000E+00  0.00000000E+00
  0.00000000E+00  0.00000000E+00  0.00000000E+00
  0.00000000E+00  0.00000000E+00  0.00000000E+00
  0.00000000E+00  0.00000000E+00  0.00000000E+00
  0.00000000E+00  0.00000000E+00  0.00000000E+00
  0.00000000E+00  0.00000000E+00  0.00000000E+00
  0.00000000E+00  0.00000000E+00  0.00000000E+00
  0.00000000E+00  0.00000000E+00  0.00000000E+00
  0.00000000E+00  0.00000000E+00  0.00000000E+00
  0.00000000E+00  0.00000000E+00  0.00000000E+00
  0.00000000E+00  0.00000000E+00  0.00000000E+00
  0.00000000E+00  0.00000000E+00  0.00000000E+00
  0.00000000E+00  0.00000000E+00  0.00000000E+00
  0.00000000E+00  0.00000000E+00  0.00000000E+00
  0.00000000E+00  0.00000000E+00  0.00000000E+00
  0.00000000E+00  0.00000000E+00  0.00000000E+00
  0.00000000E+00  0.00000000E+00  0.00000000E+00
  0.00000000E+00  0.00000000E+00  0.00000000E+00
  0.00000000E+00  0.00000000E+00  0.00000000E+00
  0.00000000E+00  0.00000000E+00  0.00000000E+00
  0.00000000E+00  0.00000000E+00  0.00000000E+00
  0.00000000E+00  0.00000000E+00  0.00000000E+00
  0.00000000E+00  0.00000000E+00  0.00000000E+00
  0.00000000E+00  0.00000000E+00  0.00000000E+00
  0.00000000E+00  0.00000000E+00  0.00000000E+00
  0.00000000E+00  0.00000000E+00  0.00000000E+00
  0.00000000E+00  0.00000000E+00  0.00000000E+00
  0.00000000E+00  0.00000000E+00  0.00000000E+00
  0.00000000E+00  0.00000000E+00  0.00000000E+00
  0.00000000E+00  0.00000000E+00  0.00000000E+00
  0.00000000E+00  0.00000000E+00  0.00000000E+00
  0.00000000E+00  0.00000000E+00  0.00000000E+00
  0.00000000E+00  0.00000000E+00  0.00000000E+00
  0.00000000E+00  0.00000000E+00  0.00000000E+00
  0.00000000E+00  0.00000000E+00  0.00000000E+00
  0.00000000E+00  0.00000000E+00  0.00000000E+00
  0.00000000E+00  0.00000000E+00  0.00000000E+00
  0.00000000E+00  0.00000000E+00  0.00000000E+00
  0.00000000E+00  0.00000000E+00  0.00000000E+00
  0.00000000E+00  0.00000000E+00  0.00000000E+00
  0.00000000E+00  0.00000000E+00  0.00000000E+00
  0.00000000E+00  0.00000000E+00  0.00000000E+00
  0.00000000E+00  0.00000000E+00  0.00000000E+00
  0.00000000E+00  0.00000000E+00  0.00000000E+00
  0.00000000E+00  0.00000000E+00  0.00000000E+00
  0.00000000E+00  0.00000000E+00  0.00000000E+00
  0.00000000E+00  0.00000000E+00  0.00000000E+00
  0.00000000E+00  0.00000000E+00  0.00000000E+00
  0.00000000E+00  0.00000000E+00  0.00000000E+00
  0.00000000E+00  0.00000000E+00  0.00000000E+00
  0.00000000E+00  0.00000000E+00  0.00000000E+00
  0.00000000E+00  0.00000000E+00  0.00000000E+00
  0.00000000E+00  0.00000000E+00  0.00000000E+00
  0.00000000E+00  0.00000000E+00  0.00000000E+00
  0.00000000E+00  0.00000000E+00  0.00000000E+00
  0.00000000E+00  0.00000000E+00  0.00000000E+00
  0.00000000E+00  0.00000000E+00  0.00000000E+00
  0.00000000E+00  0.00000000E+00  0.00000000E+00
  0.00000000E+00  0.00000000E+00  0.00000000E+00
  0.00000000E+00  0.00000000E+00  0.00000000E+00
  0.00000000E+00  0.00000000E+00  0.00000000E+00
  0.00000000E+00  0.00000000E+00  0.00000000E+00
  0.00000000E+00  0.00000000E+00  0.00000000E+00
  0.00000000E+00  0.00000000E+00  0.00000000E+00
  0.00000000E+00  0.00000000E+00  0.00000000E+00
  0.00000000E+00  0.00000000E+00  0.00000000E+00
  0.00000000E+00  0.00000000E+00  0.00000000E+00
  0.00000000E+00  0.00000000E+00  0.00000000E+00
  0.00000000E+00  0.00000000E+00  0.00000000E+00
  0.00000000E+00  0.00000000E+00  0.00000000E+00
  0.00000000E+00  0.00000000E+00  0.00000000E+00
  0.00000000E+00  0.00000000E+00  0.00000000E+00
  0.00000000E+00  0.00000000E+00  0.00000000E+00
  0.00000000E+00  0.00000000E+00  0.00000000E+00
  0.00000000E+00  0.00000000E+00  0.00000000E+00
  0.00000000E+00  0.00000000E+00  0.00000000E+00
  0.00000000E+00  0.00000000E+00  0.00000000E+00
  0.00000000E+00  0.00000000E+00  0.00000000E+00
  0.00000000E+00  0.00000000E+00  0.00000000E+00
  0.00000000E+00  0.00000000E+00  0.00000000E+00
  0.00000000E+00  0.00000000E+00  0.00000000E+00
  0.00000000E+00  0.00000000E+00  0.00000000E+00
  0.00000000E+00  0.00000000E+00  0.00000000E+00
  0.00000000E+00  0.00000000E+00  0.00000000E+00
  0.00000000E+00  0.00000000E+00  0.00000000E+00
  0.00000000E+00  0.00000000E+00  0.00000000E+00
  0.00000000E+00  0.00000000E+00  0.00000000E+00
  0.00000000E+00  0.00000000E+00  0.00000000E+00
  0.00000000E+00  0.00000000E+00  0.00000000E+00
  0.00000000E+00  0.00000000E+00  0.00000000E+00
  0.00000000E+00  0.00000000E+00  0.00000000E+00
  0.00000000E+00  0.00000000E+00  0.00000000E+00
  0.00000000E+00  0.00000000E+00  0.00000000E+00
  0.00000000E+00  0.00000000E+00  0.00000000E+00
  0.00000000E+00  0.00000000E+00  0.00000000E+00
  0.00000000E+00  0.00000000E+00  0.00000000E+00
  0.00000000E+00  0.00000000E+00  0.00000000E+00
  0.00000000E+00  0.00000000E+00  0.00000000E+00
  0.00000000E+00  0.00000000E+00  0.00000000E+00
  0.00000000E+00  0.00000000E+00  0.00000000E+00
  0.00000000E+00  0.00000000E+00  0.00000000E+00
  0.00000000E+00  0.00000000E+00  0.00000000E+00
  0.00000000E+00  0.00000000E+00  0.00000000E+00
  0.00000000E+00  0.00000000E+00  0.00000000E+00
  0.00000000E+00  0.00000000E+00  0.00000000E+00
  0.00000000E+00  0.00000000E+00  0.00000000E+00
  0.00000000E+00  0.00000000E+00  0.00000000E+00
  0.00000000E+00  0.00000000E+00  0.00000000E+00
  0.00000000E+00  0.00000000E+00  0.00000000E+00
  0.00000000E+00  0.00000000E+00  0.00000000E+00
  0.00000000E+00  0.00000000E+00  0.00000000E+00
  0.00000000E+00  0.00000000E+00  0.00000000E+00
  0.00000000E+00  0.00000000E+00  0.00000000E+00
  0.00000000E+00  0.00000000E+00  0.00000000E+00
  0.00000000E+00  0.00000000E+00  0.00000000E+00
  0.00000000E+00  0.00000000E+00  0.00000000E+00
  0.00000000E+00  0.00000000E+00  0.00000000E+00
  0.00000000E+00  0.00000000E+00  0.00000000E+00
  0.00000000E+00  0.00000000E+00  0.00000000E+00
  0.00000000E+00  0.00000000E+00  0.00000000E+00
  0.00000000E+00  0.00000000E+00  0.00000000E+00
  0.00000000E+00  0.00000000E+00  0.00000000E+00
  0.00000000E+00  0.00000000E+00  0.00000000E+00
  0.00000000E+00  0.00000000E+00  0.00000000E+00
  0.00000000E+00  0.00000000E+00  0.00000000E+00
  0.00000000E+00  0.00000000E+00  0.00000000E+00
  0.00000000E+00  0.00000000E+00  0.00000000E+00
  0.00000000E+00  0.00000000E+00  0.00000000E+00
  0.00000000E+00  0.00000000E+00  0.00000000E+00
  0.00000000E+00  0.00000000E+00  0.00000000E+00
  0.00000000E+00  0.00000000E+00  0.00000000E+00
  0.00000000E+00  0.00000000E+00  0.00000000E+00
  0.00000000E+00  0.00000000E+00  0.00000000E+00
  0.00000000E+00  0.00000000E+00  0.00000000E+00
  0.00000000E+00  0.00000000E+00  0.00000000E+00
  0.00000000E+00  0.00000000E+00  0.00000000E+00
  0.00000000E+00  0.00000000E+00  0.00000000E+00
  0.00000000E+00  0.00000000E+00  0.00000000E+00
  0.00000000E+00  0.00000000E+00  0.00000000E+00
  0.00000000E+00  0.00000000E+00  0.00000000E+00
  0.00000000E+00  0.00000000E+00  0.00000000E+00
  0.00000000E+00  0.00000000E+00  0.00000000E+00
  0.00000000E+00  0.00000000E+00  0.00000000E+00
  0.00000000E+00  0.00000000E+00  0.00000000E+00
  0.00000000E+00  0.00000000E+00  0.00000000E+00
  0.00000000E+00  0.00000000E+00  0.00000000E+00
  0.00000000E+00  0.00000000E+00  0.00000000E+00
  0.00000000E+00  0.00000000E+00  0.00000000E+00
  0.00000000E+00  0.00000000E+00  0.00000000E+00
  0.00000000E+00  0.00000000E+00  0.00000000E+00
  0.00000000E+00  0.00000000E+00  0.00000000E+00
  0.00000000E+00  0.00000000E+00  0.00000000E+00
  0.00000000E+00  0.00000000E+00  0.00000000E+00
  0.00000000E+00  0.00000000E+00  0.00000000E+00
  0.00000000E+00  0.00000000E+00  0.00000000E+00
  0.00000000E+00  0.00000000E+00  0.00000000E+00
  0.00000000E+00  0.00000000E+00  0.00000000E+00
  0.00000000E+00  0.00000000E+00  0.00000000E+00
  0.00000000E+00  0.00000000E+00  0.00000000E+00
  0.00000000E+00  0.00000000E+00  0.00000000E+00
  0.00000000E+00  0.00000000E+00  0.00000000E+00
  0.00000000E+00  0.00000000E+00  0.00000000E+00
  0.00000000E+00  0.00000000E+00  0.00000000E+00
  0.00000000E+00  0.00000000E+00  0.00000000E+00
  0.00000000E+00  0.00000000E+00  0.00000000E+00
  0.00000000E+00  0.00000000E+00  0.00000000E+00
  0.00000000E+00  0.00000000E+00  0.00000000E+00
  0.00000000E+00  0.00000000E+00  0.00000000E+00
  0.00000000E+00  0.00000000E+00  0.00000000E+00
  0.00000000E+00  0.00000000E+00  0.00000000E+00
  0.00000000E+00  0.00000000E+00  0.00000000E+00
  0.00000000E+00  0.00000000E+00  0.00000000E+00
  0.00000000E+00  0.00000000E+00  0.00000000E+00
  0.00000000E+00  0.00000000E+00  0.00000000E+00
  0.00000000E+00  0.00000000E+00  0.00000000E+00
  0.00000000E+00  0.00000000E+00  0.00000000E+00
  0.00000000E+00  0.00000000E+00  0.00000000E+00
  0.00000000E+00  0.00000000E+00  0.00000000E+00
  0.00000000E+00  0.00000000E+00  0.00000000E+00
  0.00000000E+00  0.00000000E+00  0.00000000E+00
  0.00000000E+00  0.00000000E+00  0.00000000E+00
  0.00000000E+00  0.00000000E+00  0.00000000E+00
  0.00000000E+00  0.00000000E+00  0.00000000E+00
  0.00000000E+00  0.00000000E+00  0.00000000E+00
  0.00000000E+00  0.00000000E+00  0.00000000E+00
  0.00000000E+00  0.00000000E+00  0.00000000E+00
  0.00000000E+00  0.00000000E+00  0.00000000E+00
  0.00000000E+00  0.00000000E+00  0.00000000E+00
  0.00000000E+00  0.00000000E+00  0.00000000E+00
  0.00000000E+00  0.00000000E+00  0.00000000E+00
  0.00000000E+00  0.00000000E+00  0.00000000E+00
  0.00000000E+00  0.00000000E+00  0.00000000E+00
  0.00000000E+00  0.00000000E+00  0.00000000E+00
  0.00000000E+00  0.00000000E+00  0.00000000E+00
  0.00000000E+00  0.00000000E+00  0.00000000E+00
  0.00000000E+00  0.00000000E+00  0.00000000E+00
  0.00000000E+00  0.00000000E+00  0.00000000E+00
  0.00000000E+00  0.00000000E+00  0.00000000E+00
  0.00000000E+00  0.00000000E+00  0.00000000E+00
  0.00000000E+00  0.00000000E+00  0.00000000E+00
  0.00000000E+00  0.00000000E+00  0.00000000E+00
  0.00000000E+00  0.00000000E+00  0.00000000E+00
  0.00000000E+00  0.00000000E+00  0.00000000E+00
  0.00000000E+00  0.00000000E+00  0.00000000E+00
  0.00000000E+00  0.00000000E+00  0.00000000E+00
  0.00000000E+00  0.00000000E+00  0.00000000E+00
  0.00000000E+00  0.00000000E+00  0.00000000E+00
  0.00000000E+00  0.00000000E+00  0.00000000E+00
  0.00000000E+00  0.00000000E+00  0.00000000E+00
  0.00000000E+00  0.00000000E+00  0.00000000E+00
  0.00000000E+00  0.00000000E+00  0.00000000E+00
  0.00000000E+00  0.00000000E+00  0.00000000E+00
  0.00000000E+00  0.00000000E+00  0.00000000E+00