B As N                                  
   1.0000000000000000     
     8.7639499999999995  -15.1796066749929999    0.0000000000000000
     8.7639499999999995   15.1796066749929999    0.0000000000000000
     0.0000000000000000    0.0000000000000000   15.0000000000000000
   B    As   N 
    47     1    49
Selective dynamics
Direct
  0.9095751841767182  0.9543104032694938  0.1107356259143455   T   T   T
  0.9091719673330972  0.0962057803559956  0.1107610012217834   T   T   T
  0.9089536561073288  0.2381348800948868  0.1107374314465267   T   T   T
  0.9089182152370632  0.3805025250581374  0.1107173389935371   T   T   T
  0.9083142410933032  0.5231782176307628  0.1107479701051044   T   T   T
  0.9078176480567037  0.6659514329448459  0.1107584576519993   T   T   T
  0.9056648256279221  0.8080545924691962  0.1107400451888989   T   T   T
  0.0508915306308148  0.9538982057936468  0.1107096818938484   T   T   T
  0.0528351554588065  0.0974990350083908  0.1107604786643845   T   T   T
  0.0521614303124382  0.2390843546864833  0.1107954832884330   T   T   T
  0.0509940514297720  0.3813690271894440  0.1107557361264102   T   T   T
  0.0496681742675017  0.5245261619781023  0.1107339911916985   T   T   T
  0.0495462907559219  0.6677238283539011  0.1107369180319439   T   T   T
  0.0495774616802175  0.8106651434337896  0.1107410372774892   T   T   T
  0.1932896297343354  0.9547527505431539  0.1107177943671320   T   T   T
  0.1963512311885242  0.0994531689300344  0.1107149687161701   T   T   T
  0.1966335292731134  0.2413406153801931  0.1107593460781925   T   T   T
  0.1937754284924042  0.3821163700832904  0.1107558276657439   T   T   T
  0.1903296458666445  0.5251844275194354  0.1107194161308175   T   T   T
  0.1905257457096932  0.6687187426159563  0.1107421872424622   T   T   T
  0.1919603410842184  0.8116459475542112  0.1107392343546670   T   T   T
  0.3353804950473870  0.9545879980764218  0.1107308863362043   T   T   T
  0.3371142247829539  0.0979798087769653  0.1107529334781220   T   T   T
  0.3434026447097859  0.2460907629199094  0.1107610876369109   T   T   T
  0.3399591948386857  0.3850354436708741  0.1107628592600928   T   T   T
  0.3298919965202735  0.5265342112887788  0.1107035089384659   T   T   T
  0.3304354930516449  0.6698971629857007  0.1107418510046780   T   T   T
  0.3340448981913875  0.8122236716070592  0.1107861827415322   T   T   T
  0.4778641852901113  0.9536159279187878  0.1107530188067582   T   T   T
  0.4790167023650638  0.0953682260700796  0.1107668969806392   T   T   T
  0.4806613797594931  0.2375414029026779  0.1107612768694291   T   T   T
  0.4965590308372785  0.3912800138269186  0.1107540819058293   T   T   T
  0.4680427689904260  0.6691006157884648  0.1107077752589457   T   T   T
  0.4763953371746132  0.8117837951840005  0.1107552547519273   T   T   T
  0.6211630668967436  0.9545811503714090  0.1107718444817941   T   T   T
  0.6219495902580354  0.0949374670339485  0.1107446778689489   T   T   T
  0.6228553086986067  0.2352318880737147  0.1107440923794537   T   T   T
  0.6249607041884956  0.3744807104860619  0.1107814301830672   T   T   T
  0.6100110912736846  0.4979612790931666  0.1107135672397863   T   T   T
  0.6198577611088608  0.8150174302187007  0.1106889545549865   T   T   T
  0.7655750444218071  0.9541814758950364  0.1107465416973443   T   T   T
  0.7655370744398250  0.0955806938588950  0.1107322155917518   T   T   T
  0.7659961106071720  0.2370559641130675  0.1107218462034312   T   T   T
  0.7669689093042231  0.3787050535407275  0.1107157693070650   T   T   T
  0.7658716253874942  0.5198125168900593  0.1107377249646033   T   T   T
  0.7632661049717306  0.6591559433468147  0.1107255717306028   T   T   T
  0.7680931083113162  0.8130450714250474  0.1107275971091649   T   T   T
  0.6158115250383084  0.6604020100903768  0.1106666983596493   T   T   T
  0.9543502192629160  0.9041828023386961  0.1107041665500710   T   T   T
  0.9571673783169895  0.0490639079764939  0.1107467861530304   T   T   T
  0.9568689337848528  0.1910243706678947  0.1107478902878822   T   T   T
  0.9563226979491934  0.3331646898611484  0.1107265345836738   T   T   T
  0.9553485756593747  0.4758105272708795  0.1107172988428307   T   T   T
  0.9547444699036081  0.6187096682236771  0.1107373100905292   T   T   T
  0.9535753201890095  0.7613195416297109  0.1107283636361063   T   T   T
  0.0977019774587644  0.9060531035722743  0.1107014128670694   T   T   T
  0.1000568275792843  0.0499294092211465  0.1107100546304587   T   T   T
  0.1009578474968410  0.1927610897521323  0.1107616784405678   T   T   T
  0.0990878198872673  0.3341545662920622  0.1107686696117433   T   T   T
  0.0965844189024132  0.4766734989912403  0.1107329768461548   T   T   T
  0.0962718631959850  0.6199423145688601  0.1107166585722013   T   T   T
  0.0967460072713041  0.7630706675217331  0.1107237519118119   T   T   T
  0.2402058617843046  0.9068009023011898  0.1107105765454778   T   T   T
  0.2420008940592858  0.0503168067693990  0.1107010352019853   T   T   T
  0.2463719183576155  0.1961415872473314  0.1107245951864651   T   T   T
  0.2443128253211914  0.3368127667293618  0.1107373540982801   T   T   T
  0.2372828844076616  0.4772638704536547  0.1106904825451840   T   T   T
  0.2369591576157224  0.6206577498697218  0.1107162877043350   T   T   T
  0.2390965751845653  0.7639007957250877  0.1107451381368190   T   T   T
  0.3827439411506849  0.9068236684362917  0.1107392947184401   T   T   T
  0.3838859223600703  0.0495301064425822  0.1107387131534752   T   T   T
  0.3861862981264157  0.1937137154281567  0.1107368657157984   T   T   T
  0.3962178788468976  0.3453394128925891  0.1107483617027366   T   T   T
  0.3778602950964553  0.4802565358059615  0.1107304316777559   T   T   T
  0.3761152523136757  0.6215045708107166  0.1107163142092424   T   T   T
  0.3814049993328019  0.7644716795273426  0.1107521974527566   T   T   T
  0.5256827194038639  0.9060708481122898  0.1107487033498349   T   T   T
  0.5266346665617253  0.0479892289813522  0.1107449012495806   T   T   T
  0.5277749613201923  0.1897717304319525  0.1107439651936147   T   T   T
  0.5305072558161628  0.3318627127318924  0.1107592870261617   T   T   T
  0.4659787861027921  0.5235540490373720  0.1109075232763606   T   T   T
  0.5030316151307501  0.6099427271219201  0.1106710817777862   T   T   T
  0.5241705995241153  0.7631073366286095  0.1106946712197770   T   T   T
  0.6694646878878588  0.9079655051249967  0.1107313229337741   T   T   T
  0.6700162186084686  0.0483554930027651  0.1107358637887180   T   T   T
  0.6707449700883878  0.1890601134439496  0.1107238964258235   T   T   T
  0.6723180404727125  0.3293264506822414  0.1107272745101019   T   T   T
  0.6714474422955253  0.4684794599325928  0.1107314687645780   T   T   T
  0.6652969903250708  0.5970977303499644  0.1106139147595110   T   T   T
  0.6734312796841049  0.7741624125290084  0.1106118743571884   T   T   T
  0.8140416265627538  0.9067913707084309  0.1107436234875065   T   T   T
  0.8135232365040684  0.0483845803093643  0.1107285890513621   T   T   T
  0.8137404478825369  0.1901415143707854  0.1107134232321399   T   T   T
  0.8142214351955585  0.3319560785751898  0.1106898607862308   T   T   T
  0.8137445079343587  0.4739350785202075  0.1107167977246910   T   T   T
  0.8123573485149038  0.6155392986916823  0.1107356009767780   T   T   T
  0.8074523252979937  0.7570106471490833  0.1107271680508235   T   T   T

  0.00000000E+00  0.00000000E+00  0.00000000E+00
  0.00000000E+00  0.00000000E+00  0.00000000E+00
  0.00000000E+00  0.00000000E+00  0.00000000E+00
  0.00000000E+00  0.00000000E+00  0.00000000E+00
  0.00000000E+00  0.00000000E+00  0.00000000E+00
  0.00000000E+00  0.00000000E+00  0.00000000E+00
  0.00000000E+00  0.00000000E+00  0.00000000E+00
  0.00000000E+00  0.00000000E+00  0.00000000E+00
  0.00000000E+00  0.00000000E+00  0.00000000E+00
  0.00000000E+00  0.00000000E+00  0.00000000E+00
  0.00000000E+00  0.00000000E+00  0.00000000E+00
  0.00000000E+00  0.00000000E+00  0.00000000E+00
  0.00000000E+00  0.00000000E+00  0.00000000E+00
  0.00000000E+00  0.00000000E+00  0.00000000E+00
  0.00000000E+00  0.00000000E+00  0.00000000E+00
  0.00000000E+00  0.00000000E+00  0.00000000E+00
  0.00000000E+00  0.00000000E+00  0.00000000E+00
  0.00000000E+00  0.00000000E+00  0.00000000E+00
  0.00000000E+00  0.00000000E+00  0.00000000E+00
  0.00000000E+00  0.00000000E+00  0.00000000E+00
  0.00000000E+00  0.00000000E+00  0.00000000E+00
  0.00000000E+00  0.00000000E+00  0.00000000E+00
  0.00000000E+00  0.00000000E+00  0.00000000E+00
  0.00000000E+00  0.00000000E+00  0.00000000E+00
  0.00000000E+00  0.00000000E+00  0.00000000E+00
  0.00000000E+00  0.00000000E+00  0.00000000E+00
  0.00000000E+00  0.00000000E+00  0.00000000E+00
  0.00000000E+00  0.00000000E+00  0.00000000E+00
  0.00000000E+00  0.00000000E+00  0.00000000E+00
  0.00000000E+00  0.00000000E+00  0.00000000E+00
  0.00000000E+00  0.00000000E+00  0.00000000E+00
  0.00000000E+00  0.00000000E+00  0.00000000E+00
  0.00000000E+00  0.00000000E+00  0.00000000E+00
  0.00000000E+00  0.00000000E+00  0.00000000E+00
  0.00000000E+00  0.00000000E+00  0.00000000E+00
  0.00000000E+00  0.00000000E+00  0.00000000E+00
  0.00000000E+00  0.00000000E+00  0.00000000E+00
  0.00000000E+00  0.00000000E+00  0.00000000E+00
  0.00000000E+00  0.00000000E+00  0.00000000E+00
  0.00000000E+00  0.00000000E+00  0.00000000E+00
  0.00000000E+00  0.00000000E+00  0.00000000E+00
  0.00000000E+00  0.00000000E+00  0.00000000E+00
  0.00000000E+00  0.00000000E+00  0.00000000E+00
  0.00000000E+00  0.00000000E+00  0.00000000E+00
  0.00000000E+00  0.00000000E+00  0.00000000E+00
  0.00000000E+00  0.00000000E+00  0.00000000E+00
  0.00000000E+00  0.00000000E+00  0.00000000E+00
  0.00000000E+00  0.00000000E+00  0.00000000E+00
  0.00000000E+00  0.00000000E+00  0.00000000E+00
  0.00000000E+00  0.00000000E+00  0.00000000E+00
  0.00000000E+00  0.00000000E+00  0.00000000E+00
  0.00000000E+00  0.00000000E+00  0.00000000E+00
  0.00000000E+00  0.00000000E+00  0.00000000E+00
  0.00000000E+00  0.00000000E+00  0.00000000E+00
  0.00000000E+00  0.00000000E+00  0.00000000E+00
  0.00000000E+00  0.00000000E+00  0.00000000E+00
  0.00000000E+00  0.00000000E+00  0.00000000E+00
  0.00000000E+00  0.00000000E+00  0.00000000E+00
  0.00000000E+00  0.00000000E+00  0.00000000E+00
  0.00000000E+00  0.00000000E+00  0.00000000E+00
  0.00000000E+00  0.00000000E+00  0.00000000E+00
  0.00000000E+00  0.00000000E+00  0.00000000E+00
  0.00000000E+00  0.00000000E+00  0.00000000E+00
  0.00000000E+00  0.00000000E+00  0.00000000E+00
  0.00000000E+00  0.00000000E+00  0.00000000E+00
  0.00000000E+00  0.00000000E+00  0.00000000E+00
  0.00000000E+00  0.00000000E+00  0.00000000E+00
  0.00000000E+00  0.00000000E+00  0.00000000E+00
  0.00000000E+00  0.00000000E+00  0.00000000E+00
  0.00000000E+00  0.00000000E+00  0.00000000E+00
  0.00000000E+00  0.00000000E+00  0.00000000E+00
  0.00000000E+00  0.00000000E+00  0.00000000E+00
  0.00000000E+00  0.00000000E+00  0.00000000E+00
  0.00000000E+00  0.00000000E+00  0.00000000E+00
  0.00000000E+00  0.00000000E+00  0.00000000E+00
  0.00000000E+00  0.00000000E+00  0.00000000E+00
  0.00000000E+00  0.00000000E+00  0.00000000E+00
  0.00000000E+00  0.00000000E+00  0.00000000E+00
  0.00000000E+00  0.00000000E+00  0.00000000E+00
  0.00000000E+00  0.00000000E+00  0.00000000E+00
  0.00000000E+00  0.00000000E+00  0.00000000E+00
  0.00000000E+00  0.00000000E+00  0.00000000E+00
  0.00000000E+00  0.00000000E+00  0.00000000E+00
  0.00000000E+00  0.00000000E+00  0.00000000E+00
  0.00000000E+00  0.00000000E+00  0.00000000E+00
  0.00000000E+00  0.00000000E+00  0.00000000E+00
  0.00000000E+00  0.00000000E+00  0.00000000E+00
  0.00000000E+00  0.00000000E+00  0.00000000E+00
  0.00000000E+00  0.00000000E+00  0.00000000E+00
  0.00000000E+00  0.00000000E+00  0.00000000E+00
  0.00000000E+00  0.00000000E+00  0.00000000E+00
  0.00000000E+00  0.00000000E+00  0.00000000E+00
  0.00000000E+00  0.00000000E+00  0.00000000E+00
  0.00000000E+00  0.00000000E+00  0.00000000E+00
  0.00000000E+00  0.00000000E+00  0.00000000E+00
  0.00000000E+00  0.00000000E+00  0.00000000E+00
  0.00000000E+00  0.00000000E+00  0.00000000E+00
