Species order:X N B                     
   2.51242800000000     
     5.9449720136058266    0.0000000000000000    0.0000000000000000
    -2.9724860068029120    5.1484967885702053   -0.0000000000000001
     0.0000000000000000    0.0000000000000009    5.3101128803662583
   C    N    B 
     4   142   142
Direct
  0.7155888451163661  0.4407268559766374  0.3750000000000000
  0.6092782061358336  0.3863759938274028  0.3750000000000000
  0.4449394044616342  0.3878707838662211  0.3750000000000000
  0.5513201379588888  0.4394240603175710  0.3750000000000000
  0.1111026887611446  0.0555565440899442  0.1250757398956429
  0.6111089161141390  0.5555477721250820  0.1246036994937926
  0.4444381556355718  0.0555689674850126  0.1250990957399741
  0.9444362029557560  0.5555531086925840  0.1249580039245533
  0.7777791309717415  0.0555623657191682  0.1250283041768888
  0.1110996379967226  0.7222175062260718  0.6249911591575812
  0.4444390424483542  0.7222109092382447  0.6249392731334007
  0.2777499263952997  0.2222187453102573  0.6248512146784577
  0.7777776233491071  0.7222208548337338  0.6250349174550455
  0.6111052118859498  0.2222386795690133  0.6249824065446419
  0.9444451744113351  0.2222230809070936  0.6249853454821662
  0.2777703376296857  0.7222186313382069  0.1250218953210336
  0.1110943097482039  0.2222140967769331  0.1250755219463996
  0.4444226948189210  0.2222358819686361  0.1251326208690894
  0.6111070540842778  0.7222041583691086  0.1250553989908161
  0.9444393861161796  0.7222258981950387  0.1249576011150267
  0.7777788255905446  0.2222311162836244  0.1249997769580762
  0.1111048023096367  0.8888926954445434  0.6249804877800861
  0.4444396412909118  0.8888927606905395  0.6249617797394774
  0.2777641579179805  0.3888753071949619  0.6248423512418350
  0.6110538220568968  0.3888566925378272  0.6260048081889743
  0.7777817317032752  0.8888926052940701  0.6249799092941754
  0.9444440613870323  0.3888897622762894  0.6250389386487132
  0.1111055062771726  0.3888875780184156  0.1250682079517547
  0.2777720889199157  0.8888920348579581  0.1250311712270913
  0.6111071424721818  0.8888867893275471  0.1250385800622763
  0.4443823994046754  0.3888555714682376  0.1243802999037329
  0.9444464003742096  0.8888983397039385  0.1250050507953943
  0.7777860704913969  0.3888850909770586  0.1245424694448859
  0.2777710333692870  0.5555464557537872  0.6249340448803997
  0.1111026887611446  0.0555565440899442  0.6249242601043582
  0.6111089161141390  0.5555477721250820  0.6253963005062078
  0.4444381556355718  0.0555689674850126  0.6249009042600253
  0.9444362029557560  0.5555531086925840  0.6250419960754476
  0.1111001267100713  0.5555515175839340  0.1250050658601222
  0.7777791309717415  0.0555623657191682  0.6249716958231113
  0.2777682400763964  0.0555610358000597  0.1251157101796244
  0.4444386195220932  0.5555329543523583  0.1250564736147783
  0.7777817088369466  0.5555705633747895  0.1245522721100287
  0.6111054041987436  0.0555651277376196  0.1250536663902458
  0.4444386195220932  0.5555329543523583  0.6249435263852213
  0.9444460748716728  0.0555591696845548  0.1250280688987822
  0.2777703376296857  0.7222186313382069  0.6249781046789661
  0.1110943097482039  0.2222140967769331  0.6249244780536003
  0.4444226948189210  0.2222358819686361  0.6248673791309105
  0.6111070540842778  0.7222041583691086  0.6249446010091843
  0.9444393861161796  0.7222258981950387  0.6250423988849726
  0.7777788255905446  0.2222311162836244  0.6250002230419237
  0.1110996379967226  0.7222175062260718  0.1250088408424185
  0.4444390424483542  0.7222109092382447  0.1250607268665998
  0.2777499263952997  0.2222187453102573  0.1251487853215423
  0.7777776233491071  0.7222208548337338  0.1249650825449551
  0.6111052118859498  0.2222386795690133  0.1250175934553580
  0.9444451744113351  0.2222230809070936  0.1250146545178341
  0.1111055062771726  0.3888875780184156  0.6249317920482449
  0.2777720889199157  0.8888920348579581  0.6249688287729087
  0.6111071424721818  0.8888867893275471  0.6249614199377233
  0.4443823994046754  0.3888555714682376  0.6256197000962671
  0.9444464003742096  0.8888983397039385  0.6249949492046054
  0.1111048023096367  0.8888926954445434  0.1250195122199135
  0.7777860704913969  0.3888850909770586  0.6254575305551143
  0.4444396412909118  0.8888927606905395  0.1250382202605225
  0.2777641579179805  0.3888753071949619  0.1251576487581643
  0.2777710333692870  0.5555464557537872  0.1250659551196005
  0.6110538220568968  0.3888566925378272  0.1239951918110262
  0.7777817317032752  0.8888926052940701  0.1250200907058239
  0.9444440613870323  0.3888897622762894  0.1249610613512862
  0.1111001267100713  0.5555515175839340  0.6249949341398774
  0.2777682400763964  0.0555610358000597  0.6248842898203766
  0.7777817088369466  0.5555705633747895  0.6254477278899711
  0.6111054041987436  0.0555651277376196  0.6249463336097539
  0.9444460748716728  0.0555591696845548  0.6249719311012182
  0.0559046964397430  0.1113474845194195  0.3750000000000000
  0.5557836399456493  0.6121713621897520  0.3750000000000000
  0.3894836203594911  0.1127550120245805  0.3750000000000000
  0.8883116200198117  0.6115279819856411  0.3750000000000000
  0.7220472663494948  0.1102881568319256  0.3750000000000000
  0.0555600535230356  0.7777837209570428  0.8750000000000000
  0.3888927567559251  0.7777850103100191  0.8750000000000000
  0.2222237105708614  0.2777816567858556  0.8750000000000000
  0.7222195082343071  0.7777802718584080  0.8750000000000000
  0.5555522497977302  0.2777743004504378  0.8750000000000000
  0.8888893129445239  0.2777811291985176  0.8750000000000000
  0.2222328688786513  0.7777087001547732  0.3750000000000000
  0.0559577896976858  0.2778508958541240  0.3750000000000000
  0.3894366061721793  0.2807730285181880  0.3750000000000000
  0.5553499283877321  0.7781222848237769  0.3750000000000000
  0.8894889845967702  0.7789054565350033  0.3750000000000000
  0.7221925642596081  0.2754686375755522  0.3750000000000000
  0.0555558550632176  0.9444498619587546  0.8750000000000000
  0.3888929710239765  0.9444472157950013  0.8750000000000000
  0.2222256164847702  0.4444497484541101  0.8750000000000000
  0.5555531050739659  0.4444505777327696  0.8750000000000000
  0.7222199147642993  0.9444463483777733  0.8750000000000000
  0.8888952989843183  0.4444498129041947  0.8750000000000000
  0.0562717831157541  0.4442832113864134  0.3750000000000000
  0.2227381941509287  0.9450965450357773  0.3750000000000000
  0.5552611958689454  0.9445170973696884  0.3750000000000000
  0.3909322115496124  0.4414732583944187  0.3750000000000000
  0.8892432452480784  0.9450102601052056  0.3750000000000000
  0.2222252150744300  0.6111157183347420  0.8750000000000000
  0.0555536019563558  0.1111112473498788  0.8750000000000000
  0.5555509423621090  0.6111145419456118  0.8750000000000000
  0.3888910560682406  0.1111103439135624  0.8750000000000000
  0.8888955499004164  0.6111156385263564  0.8750000000000000
  0.0551430938553042  0.6107858618381329  0.3750000000000000
  0.7222174262305514  0.1111103946027462  0.8750000000000000
  0.2232178834249300  0.1121975793382980  0.3750000000000000
  0.3892007440633315  0.6097799670226911  0.3750000000000000
  0.7224013336798518  0.6142046849700712  0.3750000000000000
  0.5552751640070301  0.1112905849320062  0.3750000000000000
  0.3888911383027571  0.6111173335209920  0.8750000000000000
  0.8891123618558556  0.1111687864084091  0.3750000000000000
  0.2222270686691683  0.7777828902586423  0.8750000000000000
  0.0555560046967698  0.2777804132848879  0.8750000000000000
  0.3888895647443228  0.2777797229970289  0.8750000000000000
  0.5555549282363170  0.7777820330520883  0.8750000000000000
  0.8888907117424584  0.7777841556851866  0.8750000000000000
  0.7222195616701881  0.2777763905325730  0.8750000000000000
  0.0558183817803667  0.7781482548093221  0.3750000000000000
  0.3888209719118139  0.7773675826935524  0.3750000000000000
  0.2221044943309350  0.2776358728627034  0.3750000000000000
  0.7223442721329981  0.7791825638500136  0.3750000000000000
  0.5558265277268288  0.2787574173786940  0.3750000000000000
  0.8892196212677291  0.2774400110443563  0.3750000000000000
  0.0555580856500696  0.4444490269345715  0.8750000000000000
  0.2222257808901589  0.9444481683200787  0.8750000000000000
  0.5555543342223650  0.9444473115681137  0.8750000000000000
  0.3888910766004908  0.4444525379987929  0.8750000000000000
  0.8888887310500920  0.9444476806492909  0.8750000000000000
  0.0562956982217315  0.9452270639630220  0.3750000000000000
  0.7222239458635972  0.4444480730339644  0.8750000000000000
  0.3888835156040050  0.9447660539339819  0.3750000000000000
  0.2236886505181906  0.4441435010564101  0.3750000000000000
  0.2224490625423160  0.6107591239943664  0.3750000000000000
  0.7221267129642631  0.9446653880182636  0.3750000000000000
  0.8888715731534127  0.4436297281618459  0.3750000000000000
  0.0555610308398233  0.6111144125665554  0.8750000000000000
  0.2222221740133236  0.1111125847164964  0.8750000000000000
  0.7222194957726830  0.6111148054445616  0.8750000000000000
  0.5555522648007220  0.1111074175725682  0.8750000000000000
  0.8888871934953150  0.1111110685159404  0.8750000000000000
  0.1116183573239195  0.0560723331715040  0.3750000000000000
  0.6118485431187755  0.5573925369419778  0.3750000000000000
  0.4444896538739146  0.0560013569808507  0.3750000000000000
  0.9432072470519084  0.5549983160538789  0.3750000000000000
  0.7778907518563178  0.0553898579320578  0.3750000000000000
  0.1110957103752808  0.7222115152814855  0.8750000000000000
  0.4444527776006674  0.7222323622477693  0.8750000000000000
  0.2777909989394596  0.2222289704369483  0.8750000000000000
  0.7777713002208064  0.7222000823814401  0.8750000000000000
  0.6111273628146389  0.2222442882855548  0.8750000000000000
  0.9444276007565026  0.2222281781350980  0.8750000000000000
  0.2777101709777631  0.7219765373991489  0.3750000000000000
  0.1107709146767106  0.2220609972739490  0.3750000000000000
  0.4450878774990610  0.2237206581142810  0.3750000000000000
  0.6113976585941583  0.7233831151024471  0.3750000000000000
  0.9443413350386369  0.7223350892007520  0.3750000000000000
  0.7780757329572761  0.2209864862644553  0.3750000000000000
  0.1110985233658037  0.8888730498187829  0.8750000000000000
  0.4444506276124505  0.8888938607113708  0.8750000000000000
  0.2777910988893902  0.3889065888947165  0.8750000000000000
  0.6111449725790257  0.3889191897068229  0.8750000000000000
  0.7777697156071967  0.8888767966362819  0.8750000000000000
  0.9444274097822098  0.3889043133073108  0.8750000000000000
  0.1118953669076025  0.3888978024018369  0.3750000000000000
  0.2777739763759831  0.8888952434922982  0.3750000000000000
  0.6109972623104479  0.8892159096916205  0.3750000000000000
  0.9450033754626660  0.8896056659344609  0.3750000000000000
  0.7769567828395628  0.3863747733747988  0.3750000000000000
  0.2777812078176865  0.5555711169099560  0.8750000000000000
  0.1110989223890805  0.0555430685780283  0.8750000000000000
  0.6111297439518383  0.5555550770229006  0.8750000000000000
  0.4444579123440573  0.0555594876224411  0.8750000000000000
  0.9444269554916330  0.5555521247025924  0.8750000000000000
  0.1110131679226749  0.5554260780799384  0.3750000000000000
  0.7777685314494982  0.0555578309928281  0.8750000000000000
  0.2782525648983367  0.0561218954410407  0.3750000000000000
  0.4459274555575850  0.5550789595061929  0.3750000000000000
  0.7760455376643791  0.5570192516603345  0.3750000000000000
  0.6109740344616532  0.0555485528701825  0.3750000000000000
  0.4444661407422343  0.5555727117063698  0.8750000000000000
  0.9446466141481824  0.0557711929352083  0.3750000000000000
  0.2777750992065419  0.7222261542675157  0.8750000000000000
  0.1111001122810506  0.2222227629699069  0.8750000000000000
  0.4444761038073679  0.2222397933982658  0.8750000000000000
  0.6111177717575047  0.7222178210218155  0.8750000000000000
  0.9444266718196679  0.7221993641983029  0.8750000000000000
  0.7777714428756520  0.2222401817711755  0.8750000000000000
  0.1108381724417284  0.7219764549026009  0.3750000000000000
  0.4444040182074521  0.7216278142368607  0.3750000000000000
  0.2773348053305454  0.2227847992578499  0.3750000000000000
  0.7783340374104969  0.7242639271673947  0.3750000000000000
  0.6120628849864590  0.2222904315801476  0.3750000000000000
  0.9446753647199001  0.2222190599515953  0.3750000000000000
  0.1110996985048322  0.3889002098277917  0.8750000000000000
  0.2777773256774279  0.8888830699539538  0.8750000000000000
  0.6111128187616179  0.8888912362358233  0.8750000000000000
  0.4444884621372255  0.3889168289222740  0.8750000000000000
  0.9444285008206541  0.8888688023789587  0.8750000000000000
  0.1114120104727476  0.8891641403786513  0.3750000000000000
  0.7777749810891130  0.3889126375469747  0.8750000000000000
  0.4442412346575997  0.8887415318516785  0.3750000000000000
  0.2783674973619696  0.3879092364784501  0.3750000000000000
  0.2781992273411494  0.5553256119797952  0.3750000000000000
  0.7780562219562661  0.8897524526399992  0.3750000000000000
  0.9447477061392556  0.3888348186449833  0.3750000000000000
  0.1110971912821752  0.5555608737999549  0.8750000000000000
  0.2777838331784337  0.0555505894133339  0.8750000000000000
  0.7777734609154601  0.5555440716440659  0.8750000000000000
  0.6111150942165550  0.0555648009341877  0.8750000000000000
  0.9444275284930019  0.0555458038878613  0.8750000000000000
  0.0555144542047992  0.1110829279853708  0.1249852303221432
  0.5556438415974824  0.6110672641685505  0.1249000682385469
  0.3889019008446148  0.1111306931021823  0.1250058008974507
  0.8887831586688162  0.6110374034687820  0.1250180887638052
  0.7222461046245005  0.1111638108556980  0.1250071754570746
  0.0554794987170028  0.7777169051034513  0.6249813941952070
  0.3888739473152917  0.7777689997709163  0.6249991661545864
  0.2221722999996879  0.2777640770537326  0.6250641445523971
  0.7222522817336015  0.7777391489410593  0.6249869635025389
  0.5556804607247999  0.2779533618996429  0.6253689041953845
  0.8888769982634637  0.2778226023736988  0.6250038156353427
  0.2221633342109993  0.7777431675693026  0.1250028836032629
  0.0555108556962373  0.2777837816232743  0.1249910230956539
  0.3889324746991767  0.2778511949296505  0.1245945985557720
  0.5555797074897081  0.7777619277541294  0.1250129731051103
  0.8888608499696850  0.7777194263615372  0.1250112999109337
  0.7222896193199547  0.2779162867514414  0.1249205487471729
  0.0555110070032688  0.9443933173999930  0.6250000867682095
  0.3888783781389747  0.9444428270078620  0.6249983204323730
  0.2221817116079627  0.4444529560416389  0.6249985057310165
  0.5556449910671875  0.4444348102223321  0.6253212060504399
  0.7222372555946807  0.9444458328068133  0.6249979735873585
  0.8888019030021901  0.4444448123350480  0.6250107357366350
  0.0554879796145659  0.4444496368217073  0.1250120652827078
  0.2221787937692506  0.9444010463261459  0.1250006490483025
  0.5555684178701520  0.9444616756116557  0.1250026896787775
  0.3889433664879526  0.4444318197761415  0.1246369777004809
  0.8888793860141364  0.9444176441644011  0.1250003136568517
  0.7221953997866596  0.4444537416153677  0.1251431278913503
  0.2221663955144810  0.6111006629437132  0.6250017837999661
  0.0555144542047992  0.1110829279853708  0.6250147696778571
  0.5556438415974824  0.6110672641685505  0.6250999317614534
  0.3889019008446148  0.1111306931021823  0.6249941991025501
  0.8887831586688162  0.6110374034687820  0.6249819112361954
  0.0554540122888512  0.6110695972460163  0.1250393031989377
  0.7222461046245005  0.1111638108556980  0.6249928245429258
  0.2221810819588844  0.1110730757045381  0.1249896843570710
  0.3888991933256213  0.6111035926638068  0.1249983844586314
  0.7222446446533463  0.6110325213153279  0.1248969383081271
  0.5556044087838417  0.1111870053396586  0.1250159434852198
  0.3888991933256213  0.6111035926638068  0.6250016155413692
  0.8888808943726220  0.1111204936789691  0.1249991173040118
  0.2221633342109993  0.7777431675693026  0.6249971163967366
  0.0555108556962373  0.2777837816232743  0.6250089769043463
  0.3889324746991767  0.2778511949296505  0.6254054014442277
  0.5555797074897081  0.7777619277541294  0.6249870268948895
  0.8888608499696850  0.7777194263615372  0.6249887000890674
  0.7222896193199547  0.2779162867514414  0.6250794512528268
  0.0554794987170028  0.7777169051034513  0.1250186058047935
  0.3888739473152917  0.7777689997709163  0.1250008338454135
  0.2221722999996879  0.2777640770537326  0.1249358554476017
  0.7222522817336015  0.7777391489410593  0.1250130364974608
  0.5556804607247999  0.2779533618996429  0.1246310958046157
  0.8888769982634637  0.2778226023736988  0.1249961843646570
  0.0554879796145659  0.4444496368217073  0.6249879347172920
  0.2221787937692506  0.9444010463261459  0.6249993509516977
  0.5555684178701520  0.9444616756116557  0.6249973103212222
  0.3889433664879526  0.4444318197761415  0.6253630222995187
  0.8888793860141364  0.9444176441644011  0.6249996863431494
  0.0555110070032688  0.9443933173999930  0.1249999132317904
  0.7221953997866596  0.4444537416153677  0.6248568721086503
  0.3888783781389747  0.9444428270078620  0.1250016795676268
  0.2221817116079627  0.4444529560416389  0.1250014942689843
  0.2221663955144810  0.6111006629437132  0.1249982162000342
  0.5556449910671875  0.4444348102223321  0.1246787939495594
  0.7222372555946807  0.9444458328068133  0.1250020264126405
  0.8888019030021901  0.4444448123350480  0.1249892642633644
  0.0554540122888512  0.6110695972460163  0.6249606968010615
  0.2221810819588844  0.1110730757045381  0.6250103156429289
  0.7222446446533463  0.6110325213153279  0.6251030616918731
  0.5556044087838417  0.1111870053396586  0.6249840565147806
  0.8888808943726220  0.1111204936789691  0.6250008826959889
 
  0.00000000E+00  0.00000000E+00  0.00000000E+00
  0.00000000E+00  0.00000000E+00  0.00000000E+00
  0.00000000E+00  0.00000000E+00  0.00000000E+00
  0.00000000E+00  0.00000000E+00  0.00000000E+00
  0.00000000E+00  0.00000000E+00  0.00000000E+00
  0.00000000E+00  0.00000000E+00  0.00000000E+00
  0.00000000E+00  0.00000000E+00  0.00000000E+00
  0.00000000E+00  0.00000000E+00  0.00000000E+00
  0.00000000E+00  0.00000000E+00  0.00000000E+00
  0.00000000E+00  0.00000000E+00  0.00000000E+00
  0.00000000E+00  0.00000000E+00  0.00000000E+00
  0.00000000E+00  0.00000000E+00  0.00000000E+00
  0.00000000E+00  0.00000000E+00  0.00000000E+00
  0.00000000E+00  0.00000000E+00  0.00000000E+00
  0.00000000E+00  0.00000000E+00  0.00000000E+00
  0.00000000E+00  0.00000000E+00  0.00000000E+00
  0.00000000E+00  0.00000000E+00  0.00000000E+00
  0.00000000E+00  0.00000000E+00  0.00000000E+00
  0.00000000E+00  0.00000000E+00  0.00000000E+00
  0.00000000E+00  0.00000000E+00  0.00000000E+00
  0.00000000E+00  0.00000000E+00  0.00000000E+00
  0.00000000E+00  0.00000000E+00  0.00000000E+00
  0.00000000E+00  0.00000000E+00  0.00000000E+00
  0.00000000E+00  0.00000000E+00  0.00000000E+00
  0.00000000E+00  0.00000000E+00  0.00000000E+00
  0.00000000E+00  0.00000000E+00  0.00000000E+00
  0.00000000E+00  0.00000000E+00  0.00000000E+00
  0.00000000E+00  0.00000000E+00  0.00000000E+00
  0.00000000E+00  0.00000000E+00  0.00000000E+00
  0.00000000E+00  0.00000000E+00  0.00000000E+00
  0.00000000E+00  0.00000000E+00  0.00000000E+00
  0.00000000E+00  0.00000000E+00  0.00000000E+00
  0.00000000E+00  0.00000000E+00  0.00000000E+00
  0.00000000E+00  0.00000000E+00  0.00000000E+00
  0.00000000E+00  0.00000000E+00  0.00000000E+00
  0.00000000E+00  0.00000000E+00  0.00000000E+00
  0.00000000E+00  0.00000000E+00  0.00000000E+00
  0.00000000E+00  0.00000000E+00  0.00000000E+00
  0.00000000E+00  0.00000000E+00  0.00000000E+00
  0.00000000E+00  0.00000000E+00  0.00000000E+00
  0.00000000E+00  0.00000000E+00  0.00000000E+00
  0.00000000E+00  0.00000000E+00  0.00000000E+00
  0.00000000E+00  0.00000000E+00  0.00000000E+00
  0.00000000E+00  0.00000000E+00  0.00000000E+00
  0.00000000E+00  0.00000000E+00  0.00000000E+00
  0.00000000E+00  0.00000000E+00  0.00000000E+00
  0.00000000E+00  0.00000000E+00  0.00000000E+00
  0.00000000E+00  0.00000000E+00  0.00000000E+00
  0.00000000E+00  0.00000000E+00  0.00000000E+00
  0.00000000E+00  0.00000000E+00  0.00000000E+00
  0.00000000E+00  0.00000000E+00  0.00000000E+00
  0.00000000E+00  0.00000000E+00  0.00000000E+00
  0.00000000E+00  0.00000000E+00  0.00000000E+00
  0.00000000E+00  0.00000000E+00  0.00000000E+00
  0.00000000E+00  0.00000000E+00  0.00000000E+00
  0.00000000E+00  0.00000000E+00  0.00000000E+00
  0.00000000E+00  0.00000000E+00  0.00000000E+00
  0.00000000E+00  0.00000000E+00  0.00000000E+00
  0.00000000E+00  0.00000000E+00  0.00000000E+00
  0.00000000E+00  0.00000000E+00  0.00000000E+00
  0.00000000E+00  0.00000000E+00  0.00000000E+00
  0.00000000E+00  0.00000000E+00  0.00000000E+00
  0.00000000E+00  0.00000000E+00  0.00000000E+00
  0.00000000E+00  0.00000000E+00  0.00000000E+00
  0.00000000E+00  0.00000000E+00  0.00000000E+00
  0.00000000E+00  0.00000000E+00  0.00000000E+00
  0.00000000E+00  0.00000000E+00  0.00000000E+00
  0.00000000E+00  0.00000000E+00  0.00000000E+00
  0.00000000E+00  0.00000000E+00  0.00000000E+00
  0.00000000E+00  0.00000000E+00  0.00000000E+00
  0.00000000E+00  0.00000000E+00  0.00000000E+00
  0.00000000E+00  0.00000000E+00  0.00000000E+00
  0.00000000E+00  0.00000000E+00  0.00000000E+00
  0.00000000E+00  0.00000000E+00  0.00000000E+00
  0.00000000E+00  0.00000000E+00  0.00000000E+00
  0.00000000E+00  0.00000000E+00  0.00000000E+00
  0.00000000E+00  0.00000000E+00  0.00000000E+00
  0.00000000E+00  0.00000000E+00  0.00000000E+00
  0.00000000E+00  0.00000000E+00  0.00000000E+00
  0.00000000E+00  0.00000000E+00  0.00000000E+00
  0.00000000E+00  0.00000000E+00  0.00000000E+00
  0.00000000E+00  0.00000000E+00  0.00000000E+00
  0.00000000E+00  0.00000000E+00  0.00000000E+00
  0.00000000E+00  0.00000000E+00  0.00000000E+00
  0.00000000E+00  0.00000000E+00  0.00000000E+00
  0.00000000E+00  0.00000000E+00  0.00000000E+00
  0.00000000E+00  0.00000000E+00  0.00000000E+00
  0.00000000E+00  0.00000000E+00  0.00000000E+00
  0.00000000E+00  0.00000000E+00  0.00000000E+00
  0.00000000E+00  0.00000000E+00  0.00000000E+00
  0.00000000E+00  0.00000000E+00  0.00000000E+00
  0.00000000E+00  0.00000000E+00  0.00000000E+00
  0.00000000E+00  0.00000000E+00  0.00000000E+00
  0.00000000E+00  0.00000000E+00  0.00000000E+00
  0.00000000E+00  0.00000000E+00  0.00000000E+00
  0.00000000E+00  0.00000000E+00  0.00000000E+00
  0.00000000E+00  0.00000000E+00  0.00000000E+00
  0.00000000E+00  0.00000000E+00  0.00000000E+00
  0.00000000E+00  0.00000000E+00  0.00000000E+00
  0.00000000E+00  0.00000000E+00  0.00000000E+00
  0.00000000E+00  0.00000000E+00  0.00000000E+00
  0.00000000E+00  0.00000000E+00  0.00000000E+00
  0.00000000E+00  0.00000000E+00  0.00000000E+00
  0.00000000E+00  0.00000000E+00  0.00000000E+00
  0.00000000E+00  0.00000000E+00  0.00000000E+00
  0.00000000E+00  0.00000000E+00  0.00000000E+00
  0.00000000E+00  0.00000000E+00  0.00000000E+00
  0.00000000E+00  0.00000000E+00  0.00000000E+00
  0.00000000E+00  0.00000000E+00  0.00000000E+00
  0.00000000E+00  0.00000000E+00  0.00000000E+00
  0.00000000E+00  0.00000000E+00  0.00000000E+00
  0.00000000E+00  0.00000000E+00  0.00000000E+00
  0.00000000E+00  0.00000000E+00  0.00000000E+00
  0.00000000E+00  0.00000000E+00  0.00000000E+00
  0.00000000E+00  0.00000000E+00  0.00000000E+00
  0.00000000E+00  0.00000000E+00  0.00000000E+00
  0.00000000E+00  0.00000000E+00  0.00000000E+00
  0.00000000E+00  0.00000000E+00  0.00000000E+00
  0.00000000E+00  0.00000000E+00  0.00000000E+00
  0.00000000E+00  0.00000000E+00  0.00000000E+00
  0.00000000E+00  0.00000000E+00  0.00000000E+00
  0.00000000E+00  0.00000000E+00  0.00000000E+00
  0.00000000E+00  0.00000000E+00  0.00000000E+00
  0.00000000E+00  0.00000000E+00  0.00000000E+00
  0.00000000E+00  0.00000000E+00  0.00000000E+00
  0.00000000E+00  0.00000000E+00  0.00000000E+00
  0.00000000E+00  0.00000000E+00  0.00000000E+00
  0.00000000E+00  0.00000000E+00  0.00000000E+00
  0.00000000E+00  0.00000000E+00  0.00000000E+00
  0.00000000E+00  0.00000000E+00  0.00000000E+00
  0.00000000E+00  0.00000000E+00  0.00000000E+00
  0.00000000E+00  0.00000000E+00  0.00000000E+00
  0.00000000E+00  0.00000000E+00  0.00000000E+00
  0.00000000E+00  0.00000000E+00  0.00000000E+00
  0.00000000E+00  0.00000000E+00  0.00000000E+00
  0.00000000E+00  0.00000000E+00  0.00000000E+00
  0.00000000E+00  0.00000000E+00  0.00000000E+00
  0.00000000E+00  0.00000000E+00  0.00000000E+00
  0.00000000E+00  0.00000000E+00  0.00000000E+00
  0.00000000E+00  0.00000000E+00  0.00000000E+00
  0.00000000E+00  0.00000000E+00  0.00000000E+00
  0.00000000E+00  0.00000000E+00  0.00000000E+00
  0.00000000E+00  0.00000000E+00  0.00000000E+00
  0.00000000E+00  0.00000000E+00  0.00000000E+00
  0.00000000E+00  0.00000000E+00  0.00000000E+00
  0.00000000E+00  0.00000000E+00  0.00000000E+00
  0.00000000E+00  0.00000000E+00  0.00000000E+00
  0.00000000E+00  0.00000000E+00  0.00000000E+00
  0.00000000E+00  0.00000000E+00  0.00000000E+00
  0.00000000E+00  0.00000000E+00  0.00000000E+00
  0.00000000E+00  0.00000000E+00  0.00000000E+00
  0.00000000E+00  0.00000000E+00  0.00000000E+00
  0.00000000E+00  0.00000000E+00  0.00000000E+00
  0.00000000E+00  0.00000000E+00  0.00000000E+00
  0.00000000E+00  0.00000000E+00  0.00000000E+00
  0.00000000E+00  0.00000000E+00  0.00000000E+00
  0.00000000E+00  0.00000000E+00  0.00000000E+00
  0.00000000E+00  0.00000000E+00  0.00000000E+00
  0.00000000E+00  0.00000000E+00  0.00000000E+00
  0.00000000E+00  0.00000000E+00  0.00000000E+00
  0.00000000E+00  0.00000000E+00  0.00000000E+00
  0.00000000E+00  0.00000000E+00  0.00000000E+00
  0.00000000E+00  0.00000000E+00  0.00000000E+00
  0.00000000E+00  0.00000000E+00  0.00000000E+00
  0.00000000E+00  0.00000000E+00  0.00000000E+00
  0.00000000E+00  0.00000000E+00  0.00000000E+00
  0.00000000E+00  0.00000000E+00  0.00000000E+00
  0.00000000E+00  0.00000000E+00  0.00000000E+00
  0.00000000E+00  0.00000000E+00  0.00000000E+00
  0.00000000E+00  0.00000000E+00  0.00000000E+00
  0.00000000E+00  0.00000000E+00  0.00000000E+00
  0.00000000E+00  0.00000000E+00  0.00000000E+00
  0.00000000E+00  0.00000000E+00  0.00000000E+00
  0.00000000E+00  0.00000000E+00  0.00000000E+00
  0.00000000E+00  0.00000000E+00  0.00000000E+00
  0.00000000E+00  0.00000000E+00  0.00000000E+00
  0.00000000E+00  0.00000000E+00  0.00000000E+00
  0.00000000E+00  0.00000000E+00  0.00000000E+00
  0.00000000E+00  0.00000000E+00  0.00000000E+00
  0.00000000E+00  0.00000000E+00  0.00000000E+00
  0.00000000E+00  0.00000000E+00  0.00000000E+00
  0.00000000E+00  0.00000000E+00  0.00000000E+00
  0.00000000E+00  0.00000000E+00  0.00000000E+00
  0.00000000E+00  0.00000000E+00  0.00000000E+00
  0.00000000E+00  0.00000000E+00  0.00000000E+00
  0.00000000E+00  0.00000000E+00  0.00000000E+00
  0.00000000E+00  0.00000000E+00  0.00000000E+00
  0.00000000E+00  0.00000000E+00  0.00000000E+00
  0.00000000E+00  0.00000000E+00  0.00000000E+00
  0.00000000E+00  0.00000000E+00  0.00000000E+00
  0.00000000E+00  0.00000000E+00  0.00000000E+00
  0.00000000E+00  0.00000000E+00  0.00000000E+00
  0.00000000E+00  0.00000000E+00  0.00000000E+00
  0.00000000E+00  0.00000000E+00  0.00000000E+00
  0.00000000E+00  0.00000000E+00  0.00000000E+00
  0.00000000E+00  0.00000000E+00  0.00000000E+00
  0.00000000E+00  0.00000000E+00  0.00000000E+00
  0.00000000E+00  0.00000000E+00  0.00000000E+00
  0.00000000E+00  0.00000000E+00  0.00000000E+00
  0.00000000E+00  0.00000000E+00  0.00000000E+00
  0.00000000E+00  0.00000000E+00  0.00000000E+00
  0.00000000E+00  0.00000000E+00  0.00000000E+00
  0.00000000E+00  0.00000000E+00  0.00000000E+00
  0.00000000E+00  0.00000000E+00  0.00000000E+00
  0.00000000E+00  0.00000000E+00  0.00000000E+00
  0.00000000E+00  0.00000000E+00  0.00000000E+00
  0.00000000E+00  0.00000000E+00  0.00000000E+00
  0.00000000E+00  0.00000000E+00  0.00000000E+00
  0.00000000E+00  0.00000000E+00  0.00000000E+00
  0.00000000E+00  0.00000000E+00  0.00000000E+00
  0.00000000E+00  0.00000000E+00  0.00000000E+00
  0.00000000E+00  0.00000000E+00  0.00000000E+00
  0.00000000E+00  0.00000000E+00  0.00000000E+00
  0.00000000E+00  0.00000000E+00  0.00000000E+00
  0.00000000E+00  0.00000000E+00  0.00000000E+00
  0.00000000E+00  0.00000000E+00  0.00000000E+00
  0.00000000E+00  0.00000000E+00  0.00000000E+00
  0.00000000E+00  0.00000000E+00  0.00000000E+00
  0.00000000E+00  0.00000000E+00  0.00000000E+00
  0.00000000E+00  0.00000000E+00  0.00000000E+00
  0.00000000E+00  0.00000000E+00  0.00000000E+00
  0.00000000E+00  0.00000000E+00  0.00000000E+00
  0.00000000E+00  0.00000000E+00  0.00000000E+00
  0.00000000E+00  0.00000000E+00  0.00000000E+00
  0.00000000E+00  0.00000000E+00  0.00000000E+00
  0.00000000E+00  0.00000000E+00  0.00000000E+00
  0.00000000E+00  0.00000000E+00  0.00000000E+00
  0.00000000E+00  0.00000000E+00  0.00000000E+00
  0.00000000E+00  0.00000000E+00  0.00000000E+00
  0.00000000E+00  0.00000000E+00  0.00000000E+00
  0.00000000E+00  0.00000000E+00  0.00000000E+00
  0.00000000E+00  0.00000000E+00  0.00000000E+00
  0.00000000E+00  0.00000000E+00  0.00000000E+00
  0.00000000E+00  0.00000000E+00  0.00000000E+00
  0.00000000E+00  0.00000000E+00  0.00000000E+00
  0.00000000E+00  0.00000000E+00  0.00000000E+00
  0.00000000E+00  0.00000000E+00  0.00000000E+00
  0.00000000E+00  0.00000000E+00  0.00000000E+00
  0.00000000E+00  0.00000000E+00  0.00000000E+00
  0.00000000E+00  0.00000000E+00  0.00000000E+00
  0.00000000E+00  0.00000000E+00  0.00000000E+00
  0.00000000E+00  0.00000000E+00  0.00000000E+00
  0.00000000E+00  0.00000000E+00  0.00000000E+00
  0.00000000E+00  0.00000000E+00  0.00000000E+00
  0.00000000E+00  0.00000000E+00  0.00000000E+00
  0.00000000E+00  0.00000000E+00  0.00000000E+00
  0.00000000E+00  0.00000000E+00  0.00000000E+00