 C N B 
 1.0
 14.936314146199660   0.000000000000000   0.000000000000000
 -7.468157073099825  12.935227489513863   0.000000000000000
  0.000000000000001   0.000000000000001  13.341276283792837
 C N B 
   4 142 142
Cartesian
  7.396842403407286   5.700902142796013   5.002978606422314 
  6.214854078099716   4.997861376644464   5.002978606422314 
  3.749074783082665   5.017196825845633   5.002978606422314 
  4.953002871529190   5.684050184573643   5.002978606422314 
  1.244559664121610   0.718636536334633   1.668670002347584 
  4.978796724783574   7.186136813730545   1.662372380929390 
  6.223270133562426   0.718797235776042   1.668981599119645 
  9.957437940226034   7.186205843445196   1.667099254228731 
 11.202204962008329   0.718711840433005   1.668037149317966 
 -3.734214682790640   9.342047739943636   8.338179729249230 
  1.244696646747327   9.341962406405349   8.337487503465377 
  2.488995660159870   2.874450023022517   8.336312691288857 
  6.223472132860067   9.342091054945518   8.338763520785406 
  7.467946054368767   2.874707877194361   8.338062958221805 
 12.446932945387680   2.874506104953907   8.338102167399294 
 -1.244777156619970   9.342062293525053   1.667951647001342 
 -0.000190268332755   2.874389893186478   1.668667094626517 
  4.978344509695377   2.874671689597059   1.669428867129618 
  3.734152843215035   9.341875082377323   1.668398628716424 
  8.712746913094067   9.342156291971310   1.667093880235555 
  9.957491992346199   2.874610044377285   1.667656559810174 
 -4.978894040262784  11.498029229342327   8.338037359453740 
 -0.000100656632927  11.498030073314128   8.337787770315247 
  1.244590845235638   5.030190563621422   8.336194441732047 
  6.222848987679225   5.029949778796741   8.351703101031843 
  4.978802684442257  11.498028063225451   8.338029641713376 
 11.202223365589608   5.030377543386766   8.338817168641119 
 -1.244766771290479   5.030349289514282   1.668569516603220 
 -2.489494156192584  11.498020684504574   1.668075399426831 
  2.489342094049389  11.497952832375404   1.668174242743975 
  3.733400632075398   5.029935277506575   1.659391945276714 
  7.468115707309997  11.498102239121625   1.667726919530909 
  8.713002144594309   5.030317119068553   1.661555493930052 
 -0.000032777855004   7.186119786168384   8.337417751897609 
  1.244559664121611   0.718636536334634   8.337287210497058 
  4.978796724783574   7.186136813730545   8.343584831915251 
  6.223270133562427   0.718797235776043   8.336975613724970 
  9.957437940226034   7.186205843445197   8.338857958615909 
 -2.489519601291590   7.186185262092847   1.667727120513607 
 11.202204962008329   0.718711840433006   8.337920063526662 
  3.733895151119087   0.718694637626800   1.669203256949316 
  2.489467477498681   7.185945142469472   1.668412965571602 
  7.468103707883150   7.186431623730275   1.661686273994042 
  8.712693191821360   0.718747567770012   1.668375513613531 
  2.489467477498681   7.185945142469473   8.337544247273012 
 13.691618662373250   0.718670498998221   1.668034010407737 
 -1.244777156619970   9.342062293525053   8.338005565843286 
 -0.000190268332754   2.874389893186478   8.337290118218110 
  4.978344509695378   2.874671689597060   8.336528345715010 
  3.734152843215035   9.341875082377323   8.337558584128203 
  8.712746913094067   9.342156291971310   8.338863332609073 
  9.957491992346199   2.874610044377286   8.338300653034455 
 -3.734214682790641   9.342047739943636   1.667777483595398 
  1.244696646747326   9.341962406405349   1.668469709379264 
  2.488995660159869   2.874450023022516   1.669644521555769 
  6.223472132860066   9.342091054945518   1.667193692059222 
  7.467946054368766   2.874707877194360   1.667894254622822 
 12.446932945387680   2.874506104953906   1.667855045445334 
 -1.244766771290479   5.030349289514283   8.337387696241407 
 -2.489494156192583  11.498020684504574   8.337881813417798 
  2.489342094049390  11.497952832375404   8.337782970100641 
  3.733400632075399   5.029935277506576   8.346565267567915 
  7.468115707309998  11.498102239121625   8.338230293313705 
 -4.978894040262785  11.498029229342327   1.667919853390887 
  8.713002144594309   5.030317119068554   8.344401718914575 
 -0.000100656632927  11.498030073314128   1.668169442529367 
  1.244590845235638   5.030190563621421   1.669762771112567 
 -0.000032777855004   7.186119786168383   1.668539460947032 
  6.222848987679224   5.029949778796740   1.654254111812785 
  4.978802684442257  11.498028063225451   1.667927571131239 
 11.202223365589608   5.030377543386765   1.667140044203494 
 -2.489519601291590   7.186185262092848   8.338230092331006 
  3.733895151119087   0.718694637626801   8.336753955895325 
  7.468103707883151   7.186431623730276   8.344270938850586 
  8.712693191821360   0.718747567770012   8.337581699231098 
 13.691618662373250   0.718670498998222   8.337923202436890 
  0.003449604186352   1.440305042643822   5.002978606422314 
  3.729567155059986   7.918575832490029   5.002978606422314 
  4.975377567909693   1.458511731120827   5.002978606422314 
  8.701114392270927   7.910253563187602   5.002978606422314 
  9.961075520077266   1.426602398020146   5.002978606422314 
 -4.978748583607508  10.060809368219925  11.673616748318732 
  0.000003757990319  10.060826046293984  11.673616748318732 
  1.244686106917852   3.593168922939111  11.673616748318732 
  4.978712218904568  10.060764753344447  11.673616748318732 
  6.223440820972587   3.593073767066990  11.673616748318732 
 11.202216914541420   3.593162098476873  11.673616748318732 
 -2.488710786689409  10.059838957076114   5.002978606422314 
 -1.239231007288485   3.594064546038318   5.002978606422314 
  3.719890410953739   3.631862996802525   5.002978606422314 
  2.483741546325364  10.065188768855856   5.002978606422314 
  7.468698609023576  10.075319273103917   5.002978606422314 
  8.729651959703958   3.563249493266212   5.002978606422314 
 -6.223500212890467  12.216673816876463  11.673616748318732 
 -1.244652570345831  12.216639588146331  11.673616748318732 
  0.000011086594412   5.749058603911126  11.673616748318732 
  4.978688976543137   5.749069330819246  11.673616748318732 
  3.734029852760347  12.216628367907157  11.673616748318732 
  9.957598414831487   5.749059437587637  11.673616748318732 
 -2.477483777391229   5.746904409055030   5.002978606422314 
 -3.731241807375657  12.225038809591359   5.002978606422314 
  1.239753613307911  12.217543522212232   5.002978606422314 
  2.542094684310881   5.710557027868746   5.002978606422314 
  6.224531405254761  12.223922694385505   5.002978606422314 
 -1.244682550805613   7.904920839077567  11.673616748318732 
 -0.000030197023877   1.437249261114331  11.673616748318732 
  3.733984010432440   7.904905622216554  11.673616748318732 
  4.978809481289971   1.437237574960048  11.673616748318732 
  8.712915598128987   7.904919806737938  11.673616748318732 
 -3.737810181419631   7.900654070255035   5.002978606422314 
  9.957476480691877   1.437238230636174  11.673616748318732 
  2.496143284164540   1.451301212513666   5.002978606422314 
  1.259292005509477   7.887642591986770   5.002978606422314 
  6.203036197085591   7.944877325213065   5.002978606422314 
  7.462628718162162   1.439569033536562   5.002978606422314 
  1.244679973534459   7.904941731879148  11.673616748318732 
 12.449835589424730   1.437993541925948   5.002978606422314 
 -2.489351483789324  10.060798622947132  11.673616748318732 
 -1.244705819383428   3.593152837971207  11.673616748318732 
  3.734074104136089   3.593143908940717  11.673616748318732 
  2.489344542139127  10.060787534785351  11.673616748318732 
  7.468136668599056  10.060814991527364  11.673616748318732 
  8.712820539940573   3.593100802754878  11.673616748318732 
 -4.977612507670454  10.065524696526781   5.002978606422314 
  0.002048972014165  10.055426525114575   5.002978606422314 
  1.243994192943827   3.591283174728813   5.002978606422314 
  4.970103194833856  10.078903719262593   5.002978606422314 
  6.220195450643539   3.605790608182772   5.002978606422314 
 11.209698027377684   3.588749657551984   5.002978606422314 
 -2.489382123502845   5.749049270891764  11.673616748318732 
 -3.734053193655823  12.216651909274905  11.673616748318732 
  1.244653191170521  12.216640826993334  11.673616748318732 
  2.489357923445876   5.749094687306193  11.673616748318732 
  6.223437701567229  12.216645601142321  11.673616748318732 
 -6.218253949701396  12.226727101606961   5.002978606422314 
  7.468155719072395   5.749036931970397  11.673616748318732 
 -1.247174932771721  12.220763832006382   5.002978606422314 
  0.024150526193421   5.745097224153805   5.002978606422314 
 -1.238675992159130   7.900308210163331   5.002978606422314 
  3.731001938955594  12.219461695486130   5.002978606422314 
  9.963368560036827   5.738451454884673   5.002978606422314 
 -3.734021411771877   7.904903948669019  11.673616748318732 
  2.489373965853551   1.437266560255758  11.673616748318732 
  6.223395914613882   7.904909030635415  11.673616748318732 
  7.468135505277854   1.437199722073579  11.673616748318732 
 12.446903450342791   1.437246947856647  11.673616748318732 
  1.248409857892857   0.725308385441219   5.002978606422314 
  4.976067032660323   7.209999266301746   5.002978606422314 
  6.220810174756616   0.724390292268783   5.002978606422314 
  9.943225147343183   7.179029474454039   5.002978606422314 
 11.205160481856117   0.716480412963025   5.002978606422314 
 -3.734228605663160   9.341970245712540  11.673616748318732 
  1.244741584852304   9.342239905963877  11.673616748318732 
  2.489532769730007   2.874582287362375  11.673616748318732 
  6.223532820565900   9.341822358549580  11.673616748318732 
  7.468235020822180   2.874780427218756  11.673616748318732 
 12.446632392859041   2.874572038757705  11.673616748318732 
 -1.243867829070887   9.338930753349507   5.002978606422314 
 -0.003877227577809   2.872409516286849   5.002978606422314 
  4.977191345696490   2.893877606811980   5.002978606422314 
  3.729688769399948   9.357125155923343   5.002978606422314 
  8.710466935815878   9.343568702470016   5.002978606422314 
  9.971221786529062   2.858510471939057   5.002978606422314 
 -4.978841107921405  11.497775108703950  11.673616748318732 
  0.000055223388534  11.498044302333835  11.673616748318732 
  1.244759627400739   5.030595199524011  11.673616748318732 
  6.223743701837647   5.030758193895155  11.673616748318732 
  4.978741269795900  11.497823574640661  11.673616748318732 
 11.201865982603701   5.030565764283242  11.673616748318732 
 -1.233045522084025   5.030481544239774   5.002978606422314 
 -2.489489927141071  11.498062188919691   5.002978606422314 
  2.485242966860442  11.502210079156120   5.002978606422314 
  7.471152438811323  11.507251664822727   5.002978606422314 
  8.719363089865997   4.997845589812390   5.002978606422314 
 -0.000064982485311   7.186438783833584  11.673616748318732 
  1.244604045644901   0.718462227522463  11.673616748318732 
  4.979053261786119   7.186231304245621  11.673616748318732 
  6.223636023069573   0.718674611597105  11.673616748318732 
  9.957307165788656   7.186193115310802  11.673616748318732 
 -2.489881643138895   7.184562673572489   5.002978606422314 
 11.202080510262897   0.718653182716195  11.673616748318732 
  3.736940590913591   0.725949484672577   5.002978606422314 
  2.515095705058511   7.180072615855261   5.002978606422314 
  7.431352678171683   7.205170736265206   5.002978606422314 
  8.710854795872358   0.718533168089093   5.002978606422314 
  2.489581628923823   7.186459412887999  11.673616748318732 
 13.693030557066814   0.721413067978484   5.002978606422314 
 -1.244762218629947   9.342159604327055  11.673616748318732 
 -0.000168320369663   2.874501992364066  11.673616748318732 
  4.979113031954197   2.874722284829133  11.673616748318732 
  3.734210890912821   9.342051811898200  11.673616748318732 
  8.712755168422618   9.341813068687324  11.673616748318732 
  9.957314019312332   2.874727308521062  11.673616748318732 
 -3.736319805312097   9.338929686237890   5.002978606422314 
  1.248528158741357   9.334419939914447   5.002978606422314 
  2.478567901735511   2.881772059605970   5.002978606422314 
  6.216524922976865   9.368518660358953   5.002978606422314 
  7.481863668499328   2.875377301231432   5.002978606422314 
 12.450401169277068   2.874454092979801   5.002978606422314 
 -1.244947854339191   5.030512684842165  11.673616748318732 
 -2.489348987026029  11.497904721431862  11.673616748318732 
  2.489393666682098  11.498010354145581  11.673616748318732 
  3.734527338079331   5.030727656609960  11.673616748318732 
  7.468068943337480  11.497720167103578  11.673616748318732 
 -4.976332676034898  11.501540431315890   5.002978606422314 
  8.712630787687143   5.030673440216974  11.673616748318732 
 -0.001934719714168  11.496073893880487   5.002978606422314 
  1.260817280562500   5.017694219132381   5.002978606422314 
  0.008012157817025   7.183263121712154   5.002978606422314 
  4.976481082052713  11.509150384251297   5.002978606422314 
 11.207169026666431   5.029666835016722   5.002978606422314 
 -2.489633319455652   7.186306286875521  11.673616748318732 
  3.734206069846557   0.718559511238057  11.673616748318732 
  7.468178358742946   7.186088947166783  11.673616748318732 
  8.712840365590829   0.718743340493275  11.673616748318732 
 13.691441465704264   0.718497609377407  11.673616748318732 
 -0.000403426676894   1.436882943692060   1.667462489121192 
  3.735724660461071   7.904294073415070   1.666326318235034 
  4.978819491339815   1.437500796344074   1.667736926849692 
  8.711821159085117   7.903907818470563   1.667900862669659 
  9.957505909225807   1.437929182019745   1.667755265229405 
 -4.979452784206804  10.059945089953805   8.338049452188297 
 -0.000157616503044  10.060618946328454   8.338286552808476 
  1.244049510677174   3.592941525104895   8.339153447566153 
  4.979508846591759  10.060232819053503   8.338123753856124 
  6.224018560627883   3.595389967647058   8.343219330163391 
 11.201723250409929   3.593698563432552   8.338348582815833 
 -2.490006786395125  10.060284800924034   1.667698006421929 
 -1.245405334318918   3.593196408194490   1.667539772113052 
  3.734181257082656   3.594068414648284   1.662250962800810 
  2.489864802375242  10.060527468182505   1.667832613253636 
  7.468174052536208  10.059977703000706   1.667810290707857 
  8.712822176069396   3.594910392170857   1.666599554359046 
 -6.223747793956249  12.215942400145581   8.338298834969185 
 -1.244837758108805  12.216582818186282   8.338275269794774 
 -0.000668645205620   5.749100094785506   8.338277741915165 
  4.980179168848122   5.748865374484787   8.342582976033468 
  3.734292711215398  12.216621698879502   8.338270642439614 
  9.956240768138276   5.748994754088145   8.338440905799080 
 -2.490433804005599   5.749057159920597   1.667820501744154 
 -3.734403093602241  12.216042375563619   1.667668194606823 
  1.244756276024814  12.216826629164217   1.667695419221797 
  2.490293668572718   5.748826692383010   1.662816354679044 
  6.223522438361562  12.216257072377282   1.667663720056825 
  7.467687012043317   5.749110256360400   1.669569044216521 
 -1.245448662205951   7.904726094169663   8.338321475538704 
 -0.000403426676894   1.436882943692061   8.338494723723436 
  3.735724660461071   7.904294073415071   8.339630894609593 
  4.978819491339816   1.437500796344074   8.338220285994950 
  8.711821159085117   7.903907818470564   8.338056350174968 
 -3.735285186615600   7.904324252302831   1.668183890309973 
  9.957505909225807   1.437929182019745   8.338201947615238 
  2.489055261526627   1.436755502198195   1.667521911631744 
  1.244902904766185   7.904763990765558   1.667637982090353 
  6.224386056997633   7.903844666704997   1.666284560968552 
  7.468319970244836   1.438229207946282   1.667872241915351 
  1.244902904766186   7.904763990765559   8.338319230754275 
 12.446738976069462   1.437368864484552   1.667647759183054 
 -2.490006786395125  10.060284800924034   8.338259206422698 
 -1.245405334318918   3.593196408194490   8.338417440731575 
  3.734181257082656   3.594068414648285   8.343706250043818 
  2.489864802375242  10.060527468182505   8.338124599590980 
  7.468174052536209  10.059977703000706   8.338146922136785 
  8.712822176069396   3.594910392170858   8.339357658485582 
 -4.979452784206805  10.059945089953805   1.667907760656330 
 -0.000157616503045  10.060618946328454   1.667670660036137 
  1.244049510677173   3.592941525104894   1.666803765278463 
  4.979508846591759  10.060232819053503   1.667833458988505 
  6.224018560627882   3.595389967647057   1.662737882681236 
 11.201723250409929   3.593698563432551   1.667608630028795 
 -2.490433804005598   5.749057159920598   8.338136711100473 
 -3.734403093602241  12.216042375563619   8.338289018237806 
  1.244756276024815  12.216826629164217   8.338261793622831 
  2.490293668572718   5.748826692383011   8.343140858165585 
  6.223522438361563  12.216257072377282   8.338293492787814 
 -6.223747793956250  12.215942400145581   1.667658377875442 
  7.467687012043318   5.749110256360400   8.336388168628106 
 -1.244837758108805  12.216582818186282   1.667681943049854 
 -0.000668645205620   5.749100094785505   1.667679470929462 
 -1.245448662205951   7.904726094169662   1.667635737305923 
  4.980179168848121   5.748865374484786   1.663374236811145 
  3.734292711215398  12.216621698879502   1.667686570405000 
  9.956240768138276   5.748994754088144   1.667516307045534 
 -3.735285186615599   7.904324252302832   8.337773322534641 
  2.489055261526628   1.436755502198195   8.338435301212883 
  6.224386056997634   7.903844666704998   8.339672651876077 
  7.468319970244837   1.438229207946283   8.338084970929289 
 12.446738976069462   1.437368864484552   8.338309453661587 
Generated by cif2cell 2.0.0.  :  Failed to get author information, No journal information. Species order: C N B 
 1.0
 14.936314146199660   0.000000000000000   0.000000000000000
 -7.468157073099825  12.935227489513863   0.000000000000000
  0.000000000000001   0.000000000000001  13.341276283792837
 C N B 
   4 142 142
Cartesian
  7.396842403407286   5.700902142796013   5.002978606422314 
  6.214854078099716   4.997861376644464   5.002978606422314 
  3.749074783082665   5.017196825845633   5.002978606422314 
  4.953002871529190   5.684050184573643   5.002978606422314 
  1.244559664121610   0.718636536334633   1.668670002347584 
  4.978796724783574   7.186136813730545   1.662372380929390 
  6.223270133562426   0.718797235776042   1.668981599119645 
  9.957437940226034   7.186205843445196   1.667099254228731 
 11.202204962008329   0.718711840433005   1.668037149317966 
 -3.734214682790640   9.342047739943636   8.338179729249230 
  1.244696646747327   9.341962406405349   8.337487503465377 
  2.488995660159870   2.874450023022517   8.336312691288857 
  6.223472132860067   9.342091054945518   8.338763520785406 
  7.467946054368767   2.874707877194361   8.338062958221805 
 12.446932945387680   2.874506104953907   8.338102167399294 
 -1.244777156619970   9.342062293525053   1.667951647001342 
 -0.000190268332755   2.874389893186478   1.668667094626517 
  4.978344509695377   2.874671689597059   1.669428867129618 
  3.734152843215035   9.341875082377323   1.668398628716424 
  8.712746913094067   9.342156291971310   1.667093880235555 
  9.957491992346199   2.874610044377285   1.667656559810174 
 -4.978894040262784  11.498029229342327   8.338037359453740 
 -0.000100656632927  11.498030073314128   8.337787770315247 
  1.244590845235638   5.030190563621422   8.336194441732047 
  6.222848987679225   5.029949778796741   8.351703101031843 
  4.978802684442257  11.498028063225451   8.338029641713376 
 11.202223365589608   5.030377543386766   8.338817168641119 
 -1.244766771290479   5.030349289514282   1.668569516603220 
 -2.489494156192584  11.498020684504574   1.668075399426831 
  2.489342094049389  11.497952832375404   1.668174242743975 
  3.733400632075398   5.029935277506575   1.659391945276714 
  7.468115707309997  11.498102239121625   1.667726919530909 
  8.713002144594309   5.030317119068553   1.661555493930052 
 -0.000032777855004   7.186119786168384   8.337417751897609 
  1.244559664121611   0.718636536334634   8.337287210497058 
  4.978796724783574   7.186136813730545   8.343584831915251 
  6.223270133562427   0.718797235776043   8.336975613724970 
  9.957437940226034   7.186205843445197   8.338857958615909 
 -2.489519601291590   7.186185262092847   1.667727120513607 
 11.202204962008329   0.718711840433006   8.337920063526662 
  3.733895151119087   0.718694637626800   1.669203256949316 
  2.489467477498681   7.185945142469472   1.668412965571602 
  7.468103707883150   7.186431623730275   1.661686273994042 
  8.712693191821360   0.718747567770012   1.668375513613531 
  2.489467477498681   7.185945142469473   8.337544247273012 
 13.691618662373250   0.718670498998221   1.668034010407737 
 -1.244777156619970   9.342062293525053   8.338005565843286 
 -0.000190268332754   2.874389893186478   8.337290118218110 
  4.978344509695378   2.874671689597060   8.336528345715010 
  3.734152843215035   9.341875082377323   8.337558584128203 
  8.712746913094067   9.342156291971310   8.338863332609073 
  9.957491992346199   2.874610044377286   8.338300653034455 
 -3.734214682790641   9.342047739943636   1.667777483595398 
  1.244696646747326   9.341962406405349   1.668469709379264 
  2.488995660159869   2.874450023022516   1.669644521555769 
  6.223472132860066   9.342091054945518   1.667193692059222 
  7.467946054368766   2.874707877194360   1.667894254622822 
 12.446932945387680   2.874506104953906   1.667855045445334 
 -1.244766771290479   5.030349289514283   8.337387696241407 
 -2.489494156192583  11.498020684504574   8.337881813417798 
  2.489342094049390  11.497952832375404   8.337782970100641 
  3.733400632075399   5.029935277506576   8.346565267567915 
  7.468115707309998  11.498102239121625   8.338230293313705 
 -4.978894040262785  11.498029229342327   1.667919853390887 
  8.713002144594309   5.030317119068554   8.344401718914575 
 -0.000100656632927  11.498030073314128   1.668169442529367 
  1.244590845235638   5.030190563621421   1.669762771112567 
 -0.000032777855004   7.186119786168383   1.668539460947032 
  6.222848987679224   5.029949778796740   1.654254111812785 
  4.978802684442257  11.498028063225451   1.667927571131239 
 11.202223365589608   5.030377543386765   1.667140044203494 
 -2.489519601291590   7.186185262092848   8.338230092331006 
  3.733895151119087   0.718694637626801   8.336753955895325 
  7.468103707883151   7.186431623730276   8.344270938850586 
  8.712693191821360   0.718747567770012   8.337581699231098 
 13.691618662373250   0.718670498998222   8.337923202436890 
  0.003449604186352   1.440305042643822   5.002978606422314 
  3.729567155059986   7.918575832490029   5.002978606422314 
  4.975377567909693   1.458511731120827   5.002978606422314 
  8.701114392270927   7.910253563187602   5.002978606422314 
  9.961075520077266   1.426602398020146   5.002978606422314 
 -4.978748583607508  10.060809368219925  11.673616748318732 
  0.000003757990319  10.060826046293984  11.673616748318732 
  1.244686106917852   3.593168922939111  11.673616748318732 
  4.978712218904568  10.060764753344447  11.673616748318732 
  6.223440820972587   3.593073767066990  11.673616748318732 
 11.202216914541420   3.593162098476873  11.673616748318732 
 -2.488710786689409  10.059838957076114   5.002978606422314 
 -1.239231007288485   3.594064546038318   5.002978606422314 
  3.719890410953739   3.631862996802525   5.002978606422314 
  2.483741546325364  10.065188768855856   5.002978606422314 
  7.468698609023576  10.075319273103917   5.002978606422314 
  8.729651959703958   3.563249493266212   5.002978606422314 
 -6.223500212890467  12.216673816876463  11.673616748318732 
 -1.244652570345831  12.216639588146331  11.673616748318732 
  0.000011086594412   5.749058603911126  11.673616748318732 
  4.978688976543137   5.749069330819246  11.673616748318732 
  3.734029852760347  12.216628367907157  11.673616748318732 
  9.957598414831487   5.749059437587637  11.673616748318732 
 -2.477483777391229   5.746904409055030   5.002978606422314 
 -3.731241807375657  12.225038809591359   5.002978606422314 
  1.239753613307911  12.217543522212232   5.002978606422314 
  2.542094684310881   5.710557027868746   5.002978606422314 
  6.224531405254761  12.223922694385505   5.002978606422314 
 -1.244682550805613   7.904920839077567  11.673616748318732 
 -0.000030197023877   1.437249261114331  11.673616748318732 
  3.733984010432440   7.904905622216554  11.673616748318732 
  4.978809481289971   1.437237574960048  11.673616748318732 
  8.712915598128987   7.904919806737938  11.673616748318732 
 -3.737810181419631   7.900654070255035   5.002978606422314 
  9.957476480691877   1.437238230636174  11.673616748318732 
  2.496143284164540   1.451301212513666   5.002978606422314 
  1.259292005509477   7.887642591986770   5.002978606422314 
  6.203036197085591   7.944877325213065   5.002978606422314 
  7.462628718162162   1.439569033536562   5.002978606422314 
  1.244679973534459   7.904941731879148  11.673616748318732 
 12.449835589424730   1.437993541925948   5.002978606422314 
 -2.489351483789324  10.060798622947132  11.673616748318732 
 -1.244705819383428   3.593152837971207  11.673616748318732 
  3.734074104136089   3.593143908940717  11.673616748318732 
  2.489344542139127  10.060787534785351  11.673616748318732 
  7.468136668599056  10.060814991527364  11.673616748318732 
  8.712820539940573   3.593100802754878  11.673616748318732 
 -4.977612507670454  10.065524696526781   5.002978606422314 
  0.002048972014165  10.055426525114575   5.002978606422314 
  1.243994192943827   3.591283174728813   5.002978606422314 
  4.970103194833856  10.078903719262593   5.002978606422314 
  6.220195450643539   3.605790608182772   5.002978606422314 
 11.209698027377684   3.588749657551984   5.002978606422314 
 -2.489382123502845   5.749049270891764  11.673616748318732 
 -3.734053193655823  12.216651909274905  11.673616748318732 
  1.244653191170521  12.216640826993334  11.673616748318732 
  2.489357923445876   5.749094687306193  11.673616748318732 
  6.223437701567229  12.216645601142321  11.673616748318732 
 -6.218253949701396  12.226727101606961   5.002978606422314 
  7.468155719072395   5.749036931970397  11.673616748318732 
 -1.247174932771721  12.220763832006382   5.002978606422314 
  0.024150526193421   5.745097224153805   5.002978606422314 
 -1.238675992159130   7.900308210163331   5.002978606422314 
  3.731001938955594  12.219461695486130   5.002978606422314 
  9.963368560036827   5.738451454884673   5.002978606422314 
 -3.734021411771877   7.904903948669019  11.673616748318732 
  2.489373965853551   1.437266560255758  11.673616748318732 
  6.223395914613882   7.904909030635415  11.673616748318732 
  7.468135505277854   1.437199722073579  11.673616748318732 
 12.446903450342791   1.437246947856647  11.673616748318732 
  1.248409857892857   0.725308385441219   5.002978606422314 
  4.976067032660323   7.209999266301746   5.002978606422314 
  6.220810174756616   0.724390292268783   5.002978606422314 
  9.943225147343183   7.179029474454039   5.002978606422314 
 11.205160481856117   0.716480412963025   5.002978606422314 
 -3.734228605663160   9.341970245712540  11.673616748318732 
  1.244741584852304   9.342239905963877  11.673616748318732 
  2.489532769730007   2.874582287362375  11.673616748318732 
  6.223532820565900   9.341822358549580  11.673616748318732 
  7.468235020822180   2.874780427218756  11.673616748318732 
 12.446632392859041   2.874572038757705  11.673616748318732 
 -1.243867829070887   9.338930753349507   5.002978606422314 
 -0.003877227577809   2.872409516286849   5.002978606422314 
  4.977191345696490   2.893877606811980   5.002978606422314 
  3.729688769399948   9.357125155923343   5.002978606422314 
  8.710466935815878   9.343568702470016   5.002978606422314 
  9.971221786529062   2.858510471939057   5.002978606422314 
 -4.978841107921405  11.497775108703950  11.673616748318732 
  0.000055223388534  11.498044302333835  11.673616748318732 
  1.244759627400739   5.030595199524011  11.673616748318732 
  6.223743701837647   5.030758193895155  11.673616748318732 
  4.978741269795900  11.497823574640661  11.673616748318732 
 11.201865982603701   5.030565764283242  11.673616748318732 
 -1.233045522084025   5.030481544239774   5.002978606422314 
 -2.489489927141071  11.498062188919691   5.002978606422314 
  2.485242966860442  11.502210079156120   5.002978606422314 
  7.471152438811323  11.507251664822727   5.002978606422314 
  8.719363089865997   4.997845589812390   5.002978606422314 
 -0.000064982485311   7.186438783833584  11.673616748318732 
  1.244604045644901   0.718462227522463  11.673616748318732 
  4.979053261786119   7.186231304245621  11.673616748318732 
  6.223636023069573   0.718674611597105  11.673616748318732 
  9.957307165788656   7.186193115310802  11.673616748318732 
 -2.489881643138895   7.184562673572489   5.002978606422314 
 11.202080510262897   0.718653182716195  11.673616748318732 
  3.736940590913591   0.725949484672577   5.002978606422314 
  2.515095705058511   7.180072615855261   5.002978606422314 
  7.431352678171683   7.205170736265206   5.002978606422314 
  8.710854795872358   0.718533168089093   5.002978606422314 
  2.489581628923823   7.186459412887999  11.673616748318732 
 13.693030557066814   0.721413067978484   5.002978606422314 
 -1.244762218629947   9.342159604327055  11.673616748318732 
 -0.000168320369663   2.874501992364066  11.673616748318732 
  4.979113031954197   2.874722284829133  11.673616748318732 
  3.734210890912821   9.342051811898200  11.673616748318732 
  8.712755168422618   9.341813068687324  11.673616748318732 
  9.957314019312332   2.874727308521062  11.673616748318732 
 -3.736319805312097   9.338929686237890   5.002978606422314 