 N B Se 
 1.0
 17.527899999999772   0.000000000000000   0.000000000000000
 -8.763949999999658  15.179606674993195   0.000000000000000
  0.000000000000001   0.000000000000002  15.000000000000000
 N B Se 
  48  48   1
Cartesian
  8.773884699580588  13.752693664067783   1.665197224619055 
 16.266400312014291   0.730917554813874   1.664964320988765 
 15.006167068666835   2.894704896404842   1.665152936703765 
 13.757921480320221   5.063991665591473   1.664779225381635 
 12.517655827963289   7.232648817845942   1.664275761177975 
 11.280012993031256   9.401107950521689   1.665610756400640 
 10.033723207258451  11.576337797914341   1.665873463441155 
 -6.249006955589469  13.728592000442234   1.665648356452485 
  1.242706376967562   0.707483127513383   1.665240379766070 
 -0.028269604879215   2.869227356211790   1.664741648877060 
 -1.273790945275216   5.050599693054493   1.664793418137840 
 -2.498001729867158   7.225144384158173   1.665035676372750 
 -3.739823553703124   9.393258082506271   1.665580512884130 
 -4.990305990144721  11.561105851528366   1.665565522061610 
 -3.742365246902179  13.722142765468611   1.665697456874535 
  3.756577255924952   0.702862081084430   1.665880560171150 
  2.469183787030880   2.839575173676115   1.663941459191355 
  1.199055748025064   5.002894926413264   1.663448618952450 
  0.015185180591104   7.208463632235456   1.664759678881230 
 -1.226893203145853   9.385509209419903   1.665856398099975 
 -2.483683657773589  11.554868998368137   1.665804698457780 
 -1.239569260995715  13.723423723477405   1.665649333309095 
  6.263504162053153   0.711216686419939   1.665429780570945 
  4.995790952157345   2.866080401231424   1.664085945152310 
  3.676108642305039   4.960510495636713   1.661871760106805 
  2.471843977630791   7.111158856239599   1.660708380070425 
  1.292465007839972   9.374759776603248   1.665011580699060 
  0.023413616961374  11.551233105160936   1.666028736883230 
  1.258810116745559  13.733185637943071   1.664904718602945 
  8.759874875150462   0.725138086491743   1.664117647895115 
  7.496557467420281   2.899035255003560   1.663903694995290 
  6.219948216082647   5.078624044753243   1.662817968906600 
  3.840305151052742   9.488262823472411   1.663672346709990 
  2.529459703403667  11.566001656665605   1.664740916707785 
  3.754349556635220  13.761271603716123   1.664602097118810 
 11.260360664661690   0.735958783913346   1.664859974454435 
 10.003770222939563   2.901167578224036   1.665090177063855 
  8.749908615027124   5.069148228244627   1.664149369333335 
  7.481100518193500   7.248188855228726   1.662957228206715 
  6.304449491914321   9.523272508954685   1.662662848792515 
  5.031811914262322  11.644939578365191   1.663353334032795 
  6.266395713109549  13.774217004869048   1.664629975200075 
 13.761689259104134   0.740201331792323   1.665255528472440 
 12.506405179314420   2.900852524524107   1.665939136002015 
 11.255526974139654   5.067277741057766   1.665113207060220 
 10.003973855116470   7.238404058052186   1.664457878801910 
  8.778921711797640   9.420636977111590   1.664568105792945 
  7.539732686892694  11.625948801298064   1.664199785791575 
  7.518814608251184  14.476053403692685   1.665209484515910 
 15.012576741355229   1.454088681087976   1.665326047331985 
 13.755581526356160   3.620040990404299   1.665621242948835 
 12.506287640897808   5.786565189857108   1.664737121674710 
 11.264773149194202   7.955086900812979   1.664820836186820 
 10.035571731745602  10.131242717504358   1.666017768879720 
  8.791563176172065  12.318885484102573   1.665461648843535 
 -7.502702885776734  14.452388670647313   1.665573326051370 
 -0.011330504647670   1.432686693111363   1.665245104643025 
 -1.272734129795279   3.606636707329671   1.665019448855715 
 -2.518316007625513   5.780551992273671   1.665038273974275 
 -3.751776802404248   7.948754916128775   1.665186886345260 
 -4.993031228042515  10.119737783328796   1.665991990989990 
 -6.240860560191860  12.286829638340606   1.666089904215825 
 -4.996539215051234  14.440839605724994   1.666147981013835 
  2.493078229219378   1.407118253372571   1.665406645013175 
  1.218325246787008   3.567254292712047   1.664333390471355 
 -0.024609321592490   5.761663811354641   1.664577895621545 
 -1.237550287915190   7.939877499370432   1.665539101400955 
 -2.482185340685532  10.109673418049438   1.666082530237020 
 -3.736647597123801  12.277757315345138   1.665680916693630 
 -2.491757910771067  14.444283970512956   1.666041449217030 
  5.009200302729672   1.421012370626079   1.665821243780100 
  3.717146472158288   3.529203291861951   1.663193804857110 
  2.439001108388437   5.690920556978845   1.662231422612055 
  1.282567264895696   7.927166211496387   1.664055051834330 
  0.032544536198054  10.102267663434063   1.666120615436250 
 -1.231080310921898  12.275904762917984   1.666196066051340 
  0.005672425348347  14.456450218232481   1.665063507843405 
  7.508047289972734   1.448449944315283   1.664491545653925 
  6.242362544966419   3.606481139480036   1.663555307169615 
  4.921155518700283   5.599233358200094   1.665332155937655 
  2.542112957839158  10.108639228575433   1.665147321832980 
  1.270567769145293  12.283860909371770   1.665531361048530 
  2.500146713394360  14.472952263896984   1.664956811063595 
 10.006830476361515   1.458143637843351   1.664762387779230 
  8.755130430465654   3.632266482618232   1.664719666894755 
  7.492700862238461   5.800664821387323   1.663255166379600 
  6.382362710612356   8.121079382447178   1.659574723338780 
  5.059102364346157  10.225680185189677   1.663626555887085 
  3.764028152451089  12.323420570292059   1.664424809157885 
  5.005830543388759  14.481859849632668   1.664940377250900 
 12.508070578435987   1.459435571154930   1.665799414252035 
 11.254232818818107   3.623801500085593   1.665894299865390 
  9.998161668525896   5.783536600644338   1.664861461468845 
  8.762940032024428   7.969644326589748   1.664291284880205 
  7.561964841017616  10.198658904400654   1.664009478840165 
  6.284923302210493  12.344736174965265   1.664162856459555 
  4.292784840353719   7.638220122695595   1.660885552627215 
