 B N As 
 1.0
 14.936314146199660   0.000000000000000   0.000000000000000
 -7.468157073099825  12.935227489513863   0.000000000000000
  0.000000000000001   0.000000000000001  13.341276283792837
 B N As 
 144 143   1
Cartesian
  1.225319175448680   0.697470583063296   5.002978606422314 
  4.978771382066574   7.511018168907324   5.002978606422314 
  6.229877336869277   0.695702495973045   5.002978606422314 
  9.980599706544904   7.192144205337156   5.002978606422314 
 11.207762856285543   0.721814906751636   5.002978606422314 
 -3.734087180131771   9.342103752052649  11.673616748318732 
  1.244695819326321   9.342045467305104  11.673616748318732 
  2.489571302241989   2.874603724434233  11.673616748318732 
  6.223462873048355   9.341893635021473  11.673616748318732 
  7.467971461891186   2.874603724434233  11.673616748318732 
 12.446928455166379   2.874560892820548  11.673616748318732 
 -1.250911954040542   9.345699346406775   5.002978606422314 
 -0.025797617539561   2.859600736238500   5.002978606422314 
  4.978771382066810   2.833070428674431   5.002978606422314 
  3.697025420946003   9.434608343200555   5.002978606422314 
  8.729493751741607   9.359123284708449   5.002978606422314 
  9.983340381673781   2.859600736238500   5.002978606422314 
 -4.978755082938337  11.497970580373975  11.673616748318732 
 -0.000016299130053  11.497970580373975  11.673616748318732 
  1.244879811260799   5.030472626562326  11.673616748318732 
  6.223189747600581   5.030524717013590  11.673616748318732 
  4.978771382066569  11.497790761031297  11.673616748318732 
 11.202167235068984   5.030443391757124  11.673616748318732 
 -1.272698859983375   5.024164738655037   5.002978606422314 
 -2.489385691033231  11.490798782717823   5.002978606422314 
  2.480753346634684  11.525334664298779   5.002978606422314 
  3.452810221572633   4.867975908555554   5.002978606422314 
  7.476789417498585  11.525334664298779   5.002978606422314 
  8.811483480529255   5.016205384938549   5.002978606422314 
  0.000056284767145   7.186266556341530  11.673616748318732 
  1.244793843061034   0.718644390624543  11.673616748318732 
  4.978771382066038   7.185920551991252  11.673616748318732 
  6.223410916625321   0.718657962372950  11.673616748318732 
  9.957486479363208   7.186266556341530  11.673616748318732 
 -2.489385691032831   7.189651094991358   5.002978606422314 
 11.202178542774664   0.718590801842004  11.673616748318732 
  3.727665427264284   0.695702495973045   5.002978606422314 
  2.453510961942780   7.206949778672013   5.002978606422314 
  7.504031802190068   7.206949778672013   5.002978606422314 
  8.732223588684628   0.697470583063296   5.002978606422314 
  2.489486501733445   7.186179291089794  11.673616748318732 
 13.686094054044393   0.721814906751636   5.002978606422314 
 -1.244684201934932   9.342103752052649  11.673616748318732 
  0.000163877681126   2.874589612492824  11.673616748318732 
  4.978771382066946   2.874611403839129  11.673616748318732 
  3.734079891086319   9.341893635021473  11.673616748318732 
  8.712846944805081   9.342045467305104  11.673616748318732 
  9.957378886451510   2.874589612492824  11.673616748318732 
 -3.727859428024578   9.345699346406775   5.002978606422314 
  1.228049012389925   9.359123284708449   5.002978606422314 
  2.427805244726317   2.796156257880050   5.002978606422314 
  6.260517343188464   9.434608343200555   5.002978606422314 
  7.529737519408202   2.796156257880050   5.002978606422314 
 12.446928455165223   2.868112683001889   5.002978606422314 
 -1.244624470934404   5.030443391757124  11.673616748318732 
 -2.489385691033238  11.497989971427570  11.673616748318732 
  2.489353068070644  11.497882203636195  11.673616748318732 
  3.734353016532493   5.030524717013590  11.673616748318732 
  7.468189696063195  11.497882203636195  11.673616748318732 
 -4.975815117040171  11.496273190270422   5.002978606422314 
  8.712662952872032   5.030472626562326  11.673616748318732 
 -0.002956265025395  11.496273190270422   5.002978606422314 
  1.146059283604908   5.016205384938549   5.002978606422314 
 -0.023056942411773   7.192144205337156   5.002978606422314 
  6.504732542560214   4.867975908555554   5.002978606422314 
  4.978771382067666  11.527768513540499   5.002978606422314 
 11.230241624116474   5.024164738655037   5.002978606422314 
 -2.489385691033233   7.186256314787464  11.673616748318732 
  3.734131847508016   0.718657962372950  11.673616748318732 
  7.468056262399119   7.186179291089794  11.673616748318732 
  8.712748921071871   0.718644390624543  11.673616748318732 
 13.691678367557614   0.718590801842004  11.673616748318732 
 -0.000190833662470   1.437244265166912   1.667786597183631 
  3.735208081426544   7.904384875179177   1.648211972104645 
  4.978771382066564   1.438131065326499   1.668842588806866 
  8.712084727588593   7.904419460346050   1.668842588806866 
  9.957733597795105   1.437244265166912   1.667786597183631 
 -4.979027610676432  10.060658035170970   8.336516483216489 
  0.000256228608474  10.060658035170970   8.336516483216489 
  1.244534750932431   3.593027471136087   8.342132011414272 
  4.978771382065657  10.060915043746347   8.342132011414272 
  6.223616452874285   3.594335145851935   8.357745240740718 
 11.202333826918927   3.592955097121436   8.338170615660944 
 -2.489385691033300  10.060732491844131   1.667762548187448 
 -1.244791062786398   3.592955097121435   1.667786597183631 
  3.733926311257876   3.594335145851934   1.648211972104645 
  2.489714312633727  10.060701671238791   1.668438364467283 
  7.467828451499751  10.060701671238791   1.668438364467283 
  8.713008013200399   3.593027471136086   1.663825201428262 
 -6.223585337993631  12.216673663224922   8.336747398309891 
 -1.244629212582993  12.216862868917405   8.336516483216489 
  0.000191002226874   5.748720810987370   8.337518848375277 
  4.978771382066590   5.748989995339477   8.369212820903277 
  3.734171152942146  12.216770623729889   8.338170615660944 
  9.957351761906406   5.748720810987370   8.337518848375277 
 -2.489385691033085   5.748850149083445   1.669209814533576 
 -3.734142169482991  12.216862868917405   1.669440729628140 
  1.244813955925825  12.216673663224922   1.669209814533576 
  2.490363010618285   5.748249964987770   1.648211972104645 
  6.223371611189897  12.216770623729889   1.667786597183631 
  7.467179753514324   5.748249964987770   1.648211972104645 
 -1.244500249840121   7.904676571442613   8.336516483216489 
 -0.000190833662470   1.437244265166912   8.338170615660944 
  3.735208081426544   7.904384875179178   8.357745240740718 
  4.978771382066565   1.438131065326500   8.337114624038202 
  8.712084727588593   7.904419460346051   8.337114624038202 
 -3.734271132225031   7.904676571442613   1.669440729628140 
  9.957733597795105   1.437244265166912   8.338170615660944 
  2.489248071659600   1.437547503791362   1.668438364467283 
  1.245458036544299   7.904419460346050   1.668842588806866 
  6.222334682706174   7.904384875179177   1.648211972104645 
  7.468294692473108   1.437547503791362   1.668438364467283 
  1.245458036544300   7.904419460346051   8.337114624038202 
 12.446928455166319   1.437247498834911   1.666993829448991 
 -2.489385691033300  10.060732491844131   8.338194664657193 
 -1.244791062786397   3.592955097121436   8.338170615660944 
  3.733926311257877   3.594335145851935   8.357745240740718 
  2.489714312633728  10.060701671238791   8.337518848375277 
  7.467828451499752  10.060701671238791   8.337518848375277 
  8.713008013200399   3.593027471136087   8.342132011414272 
 -4.979027610676432  10.060658035170970   1.669440729628140 
  0.000256228608474  10.060658035170970   1.669440729628140 
  1.244534750932431   3.593027471136086   1.663825201428262 
  4.978771382065656  10.060915043746347   1.663825201428262 
  6.223616452874284   3.594335145851934   1.648211972104645 
 11.202333826918927   3.592955097121435   1.667786597183631 
 -2.489385691033085   5.748850149083446   8.336747398309891 
 -3.734142169482990  12.216862868917405   8.336516483216489 
  1.244813955925826  12.216673663224922   8.336747398309891 
  2.490363010618286   5.748249964987771   8.357745240740718 
  6.223371611189898  12.216770623729889   8.338170615660944 
 -6.223585337993632  12.216673663224922   1.669209814533576 
  7.467179753514325   5.748249964987771   8.357745240740718 
 -1.244629212582994  12.216862868917405   1.669440729628140 
  0.000191002226874   5.748720810987369   1.668438364467283 
 -1.244500249840121   7.904676571442613   1.669440729628140 
  4.978771382066589   5.748989995339476   1.636744391940549 
  3.734171152942146  12.216770623729889   1.667786597183631 
  9.957351761906406   5.748720810987369   1.668438364467283 
 -3.734271132225030   7.904676571442613   8.336516483216489 
  2.489248071659601   1.437547503791363   8.337518848375277 
  6.222334682706175   7.904384875179178   8.357745240740718 
  7.468294692473109   1.437547503791363   8.337518848375277 
 12.446928455166319   1.437247498834912   8.338963383395985 
  1.244523722265700   0.718627055816307   1.669743754738813 
  4.978771382067178   7.187480146556015   1.624461262406121 
  6.223497222073078   0.718816904505392   1.671802204486839 
  9.957391984165014   7.186112342563422   1.671802204486839 
 11.202311253134550   0.718667422203370   1.667256957319046 
 -3.734125182871018   9.342081811161103   8.337014649717936 
  1.244876619974649   9.342040738949086   8.334155008358268 
  2.489042524125441   2.874398698285420   8.342954580548737 
  6.223376041842041   9.342454083379312   8.342954580548737 
  7.468500240008719   2.874398698285420   8.342954580548737 
 12.446928455166633   2.874407652098124   8.338700255525275 
 -1.244646199196404   9.342081811161103   1.668942563126144 
 -0.000323612410280   2.874308159957348   1.667446960470538 
  4.978771382066519   2.874803379953568   1.659501234294906 
  3.734166722291376   9.342454083379312   1.663002632295917 
  8.712666144158202   9.342040738949086   1.671802204486839 
  9.957866376543514   2.874308159957348   1.667446960470538 
 -4.978864908906526  11.498033988425384   8.336873163811191 
  0.000093526839166  11.498033988425384   8.336873163811191 
  1.244437864349430   5.030117204354462   8.342954580548737 
  6.224540396114414   5.029744919731201   8.381495950437452 
  4.978771382066136  11.498353666104107   8.338510252374329 
 11.202317307850027   5.030218127690833   8.336213458106133 
 -1.244774543716627   5.030218127690832   1.669743754738813 
 -2.489385691033240  11.498033853209984   1.668942563126144 
  2.489473116083434  11.498124802512002   1.669743754738813 
  3.733002368020150   5.029744919731201   1.624461262406121 
  7.468069648048673  11.498124802512002   1.669743754738813 
  8.713104899783371   5.030117204354461   1.663002632295917 
  0.000150779968449   7.186112342563423   8.334155008358268 
  1.244523722265700   0.718627055816308   8.336213458106133 
  4.978771382067672   7.187480146555162   8.381495950437452 
  6.223497222073079   0.718816904505393   8.334155008358268 
  9.957391984165014   7.186112342563423   8.334155008358268 
 -2.489385691033466   7.186129498682380   1.669084049033169 
 11.202311253134550   0.718667422203371   8.338700255525275 
  3.734045542060065   0.718816904505392   1.671802204486839 
  2.489652757925645   7.186083303031531   1.659501234294906 
  7.467890006208517   7.186083303031531   1.659501234294906 
  8.713019041867115   0.718627055816307   1.669743754738813 
  2.489652757925646   7.186083303031532   8.346455978549001 
 13.691545657199265   0.718667422203370   1.667256957319046 
 -1.244646199196403   9.342081811161103   8.337014649717936 
 -0.000323612410280   2.874308159957349   8.338510252374329 
  4.978771382066520   2.874803379953569   8.346455978549001 
  3.734166722291377   9.342454083379312   8.342954580548737 
  8.712666144158202   9.342040738949086   8.334155008358268 
  9.957866376543514   2.874308159957349   8.338510252374329 
 -3.734125182871018   9.342081811161103   1.668942563126144 
  1.244876619974649   9.342040738949086   1.671802204486839 
  2.489042524125440   2.874398698285419   1.663002632295917 
  6.223376041843280   9.342454083379312   1.663002632295917 
  7.468500240008718   2.874398698285419   1.663002632295917 
 12.446928455166633   2.874407652098123   1.667256957319046 
 -1.244774543716626   5.030218127690833   8.336213458106133 
 -2.489385691033239  11.498033853209984   8.337014649717936 
  2.489473116083434  11.498124802512002   8.336213458106133 
  3.733002368020150   5.029744919731201   8.381495950437452 
  7.468069648048674  11.498124802512002   8.336213458106133 
 -4.978864908906527  11.498033988425384   1.669084049033169 
  8.713104899783371   5.030117204354462   8.342954580548737 
  0.000093526839166  11.498033988425384   1.669084049033169 
  1.244437864349429   5.030117204354461   1.663002632295917 
  0.000150779968449   7.186112342563422   1.671802204486839 
  6.224540396114413   5.029744919731201   1.624461262406121 
  4.978771382066135  11.498353666104107   1.667446960470538 
 11.202317307850027   5.030218127690832   1.669743754738813 
 -2.489385691033465   7.186129498682381   8.336873163811191 
  3.734045542060065   0.718816904505393   8.334155008358268 
  7.467890006208518   7.186083303031532   8.346455978549001 
  8.713019041867115   0.718627055816308   8.336213458106133 
 13.691545657199265   0.718667422203371   8.338700255525275 
 -0.010784484806430   1.428009090999443   5.002978606422314 
  3.666025312835603   8.025696604245121   5.002978606422314 
  4.978771382066564   1.405868440221640   5.002978606422314 
  8.740024980522811   7.920550772897379   5.002978606422314 
  9.968327248939737   1.428009090999443   5.002978606422314 
 -4.978795001876243  10.060746874748833  11.673616748318732 
  0.000023619810256  10.060746874748833  11.673616748318732 
  1.244727906403780   3.593138989500682  11.673616748318732 
  4.978771382067584  10.060692007017161  11.673616748318732 
  6.223404711112470   3.593059211295678  11.673616748318732 
 11.202249961168173   3.593129852469289  11.673616748318732 
 -2.489385691033300  10.060732491844131   5.002978606422314 
 -1.258085783795682   3.588398313195502   5.002978606422314 
  3.663458656405134   3.473765246213206   5.002978606422314 
  2.456073515802227  10.108334296253352   5.002978606422314 
  7.501469248328381  10.108334296253352   5.002978606422314 
  8.751574538189701   3.570761077552616   5.002978606422314 
 -6.223480156000600  12.216612936371908  11.673616748318732 
 -1.244668579650670  12.216617003999827  11.673616748318732 
  0.000003047350534   5.749013256660517  11.673616748318732 
  4.978771382066590   5.748989995339477  11.673616748318732 
  3.734061743248235  12.216610616185287  11.673616748318732 
  9.957539716781582   5.749013256660517  11.673616748318732 
 -2.489385691033271   5.753880892305619   5.002978606422314 
 -3.732260972795738  12.203776866153941   5.002978606422314 
  1.240457204495407  12.214158291613389   5.002978606422314 
  2.350712587173365   5.747508135558976   5.002978606422314 
  6.226072681056404  12.230562581822928   5.002978606422314 
  7.606830176957497   5.747508135558976   5.002978606422314 
 -1.244693491572484   7.904833596783258  11.673616748318732 
  0.000002441782977   1.437229517364025  11.673616748318732 
  3.733997218807941   7.904839468709780  11.673616748318732 
  4.978771382066012   1.437229132463085  11.673616748318732 
  8.712865824362638   7.904870426776529  11.673616748318732 
 -3.723878919741108   7.912848736947078   5.002978606422314 
  9.957540322350210   1.437229517364025  11.673616748318732 
  2.464817406763490   1.384597406626419   5.002978606422314 
  1.217517783611354   7.920550772897379   5.002978606422314 
  6.291517451296858   8.025696604245121   5.002978606422314 
  7.492725357367770   1.384597406626419   5.002978606422314 
  1.244676939772231   7.904870426776529  11.673616748318732 
 12.446928455166319   1.437247498834912   5.002978606422314 
 -2.489385691033299  10.060732491844133  11.673616748318732 
 -1.244707197036043   3.593129852469289  11.673616748318732 
  3.734138053022183   3.593059211295678  11.673616748318732 
  2.489367069813945  10.060718222101745  11.673616748318732 
  7.468175694317861  10.060718222101745  11.673616748318732 
  8.712814857728873   3.593138989500682  11.673616748318732 
 -4.966754201504152  10.065571872432168   5.002978606422314 
 -0.012017180563568  10.065571872432168   5.002978606422314 
  1.205968225943681   3.570761077552616   5.002978606422314 
  4.978771382067060  10.105447830913290   5.002978606422314 
  6.294084107728009   3.473765246213206   5.002978606422314 
 11.215628547929379   3.588398313195502   5.002978606422314 
 -2.489385691033413   5.748971602786970  11.673616748318732 
 -3.734102802416314  12.216617003999827  11.673616748318732 
  1.244708773934797  12.216612936371908  11.673616748318732 
  2.489363889761661   5.749071306011952  11.673616748318732 
  6.223481020885217  12.216610616185287  11.673616748318732 
 -6.219228586563243  12.214158291613389   5.002978606422314 
  7.468178874371172   5.749071306011952  11.673616748318732 
 -1.246510409271427  12.203776866153941   5.002978606422314 
 -0.057880459498787   5.754038283138310   5.002978606422314 
 -1.254892462324835   7.912848736947078   5.002978606422314 
  3.731470083077510  12.230562581822928   5.002978606422314 
 10.015423223631648   5.754038283138310   5.002978606422314 
 -3.734077890493339   7.904833596783258  11.673616748318732 
  2.489407359603566   1.437238507257178  11.673616748318732 
  6.223545545327164   7.904839468709780  11.673616748318732 
  7.468135404530699   1.437238507257178  11.673616748318732 
 12.446928455166319   1.437247498834912  11.673616748318732 
  4.978771382066589   5.748989995339477   5.002978606422314 
Generated by cif2cell 2.0.0.  :  Failed to get author information, No journal information. Species order: B N As 
 1.0
 14.936314146199660   0.000000000000000   0.000000000000000
 -7.468157073099825  12.935227489513863   0.000000000000000
  0.000000000000001   0.000000000000001  13.341276283792837
 B N As 
 144 143   1
Cartesian
  1.225319175448680   0.697470583063296   5.002978606422314 
  4.978771382066574   7.511018168907324   5.002978606422314 
  6.229877336869277   0.695702495973045   5.002978606422314 
  9.980599706544904   7.192144205337156   5.002978606422314 
 11.207762856285543   0.721814906751636   5.002978606422314 
 -3.734087180131771   9.342103752052649  11.673616748318732 
  1.244695819326321   9.342045467305104  11.673616748318732 
  2.489571302241989   2.874603724434233  11.673616748318732 
  6.223462873048355   9.341893635021473  11.673616748318732 
  7.467971461891186   2.874603724434233  11.673616748318732 
 12.446928455166379   2.874560892820548  11.673616748318732 
 -1.250911954040542   9.345699346406775   5.002978606422314 
 -0.025797617539561   2.859600736238500   5.002978606422314 
  4.978771382066810   2.833070428674431   5.002978606422314 
  3.697025420946003   9.434608343200555   5.002978606422314 
  8.729493751741607   9.359123284708449   5.002978606422314 
  9.983340381673781   2.859600736238500   5.002978606422314 
 -4.978755082938337  11.497970580373975  11.673616748318732 
 -0.000016299130053  11.497970580373975  11.673616748318732 
  1.244879811260799   5.030472626562326  11.673616748318732 
  6.223189747600581   5.030524717013590  11.673616748318732 
  4.978771382066569  11.497790761031297  11.673616748318732 
 11.202167235068984   5.030443391757124  11.673616748318732 
 -1.272698859983375   5.024164738655037   5.002978606422314 
 -2.489385691033231  11.490798782717823   5.002978606422314 
  2.480753346634684  11.525334664298779   5.002978606422314 
  3.452810221572633   4.867975908555554   5.002978606422314 
  7.476789417498585  11.525334664298779   5.002978606422314 
  8.811483480529255   5.016205384938549   5.002978606422314 
  0.000056284767145   7.186266556341530  11.673616748318732 
  1.244793843061034   0.718644390624543  11.673616748318732 
  4.978771382066038   7.185920551991252  11.673616748318732 
  6.223410916625321   0.718657962372950  11.673616748318732 
  9.957486479363208   7.186266556341530  11.673616748318732 
 -2.489385691032831   7.189651094991358   5.002978606422314 
 11.202178542774664   0.718590801842004  11.673616748318732 
  3.727665427264284   0.695702495973045   5.002978606422314 
  2.453510961942780   7.206949778672013   5.002978606422314 
  7.504031802190068   7.206949778672013   5.002978606422314 
  8.732223588684628   0.697470583063296   5.002978606422314 
  2.489486501733445   7.186179291089794  11.673616748318732 
 13.686094054044393   0.721814906751636   5.002978606422314 
 -1.244684201934932   9.342103752052649  11.673616748318732 
  0.000163877681126   2.874589612492824  11.673616748318732 
  4.978771382066946   2.874611403839129  11.673616748318732 
  3.734079891086319   9.341893635021473  11.673616748318732 
  8.712846944805081   9.342045467305104  11.673616748318732 
  9.957378886451510   2.874589612492824  11.673616748318732 
 -3.727859428024578   9.345699346406775   5.002978606422314 
  1.228049012389925   9.359123284708449   5.002978606422314 
  2.427805244726317   2.796156257880050   5.002978606422314 
  6.260517343188464   9.434608343200555   5.002978606422314 
  7.529737519408202   2.796156257880050   5.002978606422314 
 12.446928455165223   2.868112683001889   5.002978606422314 
 -1.244624470934404   5.030443391757124  11.673616748318732 
 -2.489385691033238  11.497989971427570  11.673616748318732 
  2.489353068070644  11.497882203636195  11.673616748318732 
  3.734353016532493   5.030524717013590  11.673616748318732 
  7.468189696063195  11.497882203636195  11.673616748318732 
 -4.975815117040171  11.496273190270422   5.002978606422314 
  8.712662952872032   5.030472626562326  11.673616748318732 
 -0.002956265025395  11.496273190270422   5.002978606422314 
  1.146059283604908   5.016205384938549   5.002978606422314 
 -0.023056942411773   7.192144205337156   5.002978606422314 
  6.504732542560214   4.867975908555554   5.002978606422314 
  4.978771382067666  11.527768513540499   5.002978606422314 
 11.230241624116474   5.024164738655037   5.002978606422314 
 -2.489385691033233   7.186256314787464  11.673616748318732 
  3.734131847508016   0.718657962372950  11.673616748318732 
  7.468056262399119   7.186179291089794  11.673616748318732 
  8.712748921071871   0.718644390624543  11.673616748318732 
 13.691678367557614   0.718590801842004  11.673616748318732 
 -0.000190833662470   1.437244265166912   1.667786597183631 
  3.735208081426544   7.904384875179177   1.648211972104645 
  4.978771382066564   1.438131065326499   1.668842588806866 
  8.712084727588593   7.904419460346050   1.668842588806866 
  9.957733597795105   1.437244265166912   1.667786597183631 
 -4.979027610676432  10.060658035170970   8.336516483216489 
  0.000256228608474  10.060658035170970   8.336516483216489 
  1.244534750932431   3.593027471136087   8.342132011414272 
  4.978771382065657  10.060915043746347   8.342132011414272 
  6.223616452874285   3.594335145851935   8.357745240740718 
 11.202333826918927   3.592955097121436   8.338170615660944 
 -2.489385691033300  10.060732491844131   1.667762548187448 
 -1.244791062786398   3.592955097121435   1.667786597183631 
  3.733926311257876   3.594335145851934   1.648211972104645 
  2.489714312633727  10.060701671238791   1.668438364467283 
  7.467828451499751  10.060701671238791   1.668438364467283 
  8.713008013200399   3.593027471136086   1.663825201428262 
 -6.223585337993631  12.216673663224922   8.336747398309891 
 -1.244629212582993  12.216862868917405   8.336516483216489 
  0.000191002226874   5.748720810987370   8.337518848375277 
  4.978771382066590   5.748989995339477   8.369212820903277 
  3.734171152942146  12.216770623729889   8.338170615660944 
  9.957351761906406   5.748720810987370   8.337518848375277 
 -2.489385691033085   5.748850149083445   1.669209814533576 
 -3.734142169482991  12.216862868917405   1.669440729628140 
  1.244813955925825  12.216673663224922   1.669209814533576 
  2.490363010618285   5.748249964987770   1.648211972104645 
  6.223371611189897  12.216770623729889   1.667786597183631 
  7.467179753514324   5.748249964987770   1.648211972104645 
 -1.244500249840121   7.904676571442613   8.336516483216489 
 -0.000190833662470   1.437244265166912   8.338170615660944 
  3.735208081426544   7.904384875179178   8.357745240740718 
  4.978771382066565   1.438131065326500   8.337114624038202 
  8.712084727588593   7.904419460346051   8.337114624038202 
 -3.734271132225031   7.904676571442613   1.669440729628140 
  9.957733597795105   1.437244265166912   8.338170615660944 
  2.489248071659600   1.437547503791362   1.668438364467283 
  1.245458036544299   7.904419460346050   1.668842588806866 
  6.222334682706174   7.904384875179177   1.648211972104645 
  7.468294692473108   1.437547503791362   1.668438364467283 
  1.245458036544300   7.904419460346051   8.337114624038202 
 12.446928455166319   1.437247498834911   1.666993829448991 
 -2.489385691033300  10.060732491844131   8.338194664657193 
 -1.244791062786397   3.592955097121436   8.338170615660944 
  3.733926311257877   3.594335145851935   8.357745240740718 
  2.489714312633728  10.060701671238791   8.337518848375277 
  7.467828451499752  10.060701671238791   8.337518848375277 
  8.713008013200399   3.593027471136087   8.342132011414272 
 -4.979027610676432  10.060658035170970   1.669440729628140 
  0.000256228608474  10.060658035170970   1.669440729628140 
  1.244534750932431   3.593027471136086   1.663825201428262 
  4.978771382065656  10.060915043746347   1.663825201428262 
  6.223616452874284   3.594335145851934   1.648211972104645 
 11.202333826918927   3.592955097121435   1.667786597183631 
 -2.489385691033085   5.748850149083446   8.336747398309891 
 -3.734142169482990  12.216862868917405   8.336516483216489 
  1.244813955925826  12.216673663224922   8.336747398309891 
  2.490363010618286   5.748249964987771   8.357745240740718 
  6.223371611189898  12.216770623729889   8.338170615660944 
 -6.223585337993632  12.216673663224922   1.669209814533576 
  7.467179753514325   5.748249964987771   8.357745240740718 
 -1.244629212582994  12.216862868917405   1.669440729628140 
  0.000191002226874   5.748720810987369   1.668438364467283 
 -1.244500249840121   7.904676571442613   1.669440729628140 
  4.978771382066589   5.748989995339476   1.636744391940549 
  3.734171152942146  12.216770623729889   1.667786597183631 
  9.957351761906406   5.748720810987369   1.668438364467283 
 -3.734271132225030   7.904676571442613   8.336516483216489 
  2.489248071659601   1.437547503791363   8.337518848375277 
  6.222334682706175   7.904384875179178   8.357745240740718 
  7.468294692473109   1.437547503791363   8.337518848375277 
 12.446928455166319   1.437247498834912   8.338963383395985 
  1.244523722265700   0.718627055816307   1.669743754738813 
  4.978771382067178   7.187480146556015   1.624461262406121 
  6.223497222073078   0.718816904505392   1.671802204486839 
  9.957391984165014   7.186112342563422   1.671802204486839 
 11.202311253134550   0.718667422203370   1.667256957319046 
 -3.734125182871018   9.342081811161103   8.337014649717936 
  1.244876619974649   9.342040738949086   8.334155008358268 
  2.489042524125441   2.874398698285420   8.342954580548737 
  6.223376041842041   9.342454083379312   8.342954580548737 
  7.468500240008719   2.874398698285420   8.342954580548737 
 12.446928455166633   2.874407652098124   8.338700255525275 
 -1.244646199196404   9.342081811161103   1.668942563126144 
 -0.000323612410280   2.874308159957348   1.667446960470538 
  4.978771382066519   2.874803379953568   1.659501234294906 
  3.734166722291376   9.342454083379312   1.663002632295917 
  8.712666144158202   9.342040738949086   1.671802204486839 
  9.957866376543514   2.874308159957348   1.667446960470538 
 -4.978864908906526  11.498033988425384   8.336873163811191 
  0.000093526839166  11.498033988425384   8.336873163811191 
  1.244437864349430   5.030117204354462   8.342954580548737 
  6.224540396114414   5.029744919731201   8.381495950437452 
  4.978771382066136  11.498353666104107   8.338510252374329 
 11.202317307850027   5.030218127690833   8.336213458106133 
 -1.244774543716627   5.030218127690832   1.669743754738813 
 -2.489385691033240  11.498033853209984   1.668942563126144 
  2.489473116083434  11.498124802512002   1.669743754738813 
  3.733002368020150   5.029744919731201   1.624461262406121 
  7.468069648048673  11.498124802512002   1.669743754738813 
  8.713104899783371   5.030117204354461   1.663002632295917 
  0.000150779968449   7.186112342563423   8.334155008358268 
  1.244523722265700   0.718627055816308   8.336213458106133 
  4.978771382067672   7.187480146555162   8.381495950437452 
  6.223497222073079   0.718816904505393   8.334155008358268 
  9.957391984165014   7.186112342563423   8.334155008358268 
 -2.489385691033466   7.186129498682380   1.669084049033169 
 11.202311253134550   0.718667422203371   8.338700255525275 
  3.734045542060065   0.718816904505392   1.671802204486839 
  2.489652757925645   7.186083303031531   1.659501234294906 
  7.467890006208517   7.186083303031531   1.659501234294906 
  8.713019041867115   0.718627055816307   1.669743754738813 
  2.489652757925646   7.186083303031532   8.346455978549001 
 13.691545657199265   0.718667422203370   1.667256957319046 
 -1.244646199196403   9.342081811161103   8.337014649717936 
 -0.000323612410280   2.874308159957349   8.338510252374329 
  4.978771382066520   2.874803379953569   8.346455978549001 
  3.734166722291377   9.342454083379312   8.342954580548737 
  8.712666144158202   9.342040738949086   8.334155008358268 
  9.957866376543514   2.874308159957349   8.338510252374329 
 -3.734125182871018   9.342081811161103   1.668942563126144 
  1.244876619974649   9.342040738949086   1.671802204486839 