Species order: X N B                    
   2.51242800000000     
     5.9449720136058266    0.0000000000000000    0.0000000000000000
    -2.9724860068029120    5.1484967885702053   -0.0000000000000001
     0.0000000000000000    0.0000000000000009    5.3101128803662583
   As   N    B 
     1   143   144
Direct
  0.5555555555555571  0.4444444444444429  0.3750000000000000
  0.1110999159595480  0.0555558111675171  0.1251562233792614
  0.6111591447612237  0.5556516228556980  0.1217620584306124
  0.4444541196983587  0.0555704880403620  0.1253105151954443
  0.9444295119596172  0.5555458803015986  0.1253105151954443
  0.7777845303124747  0.0555589318228816  0.1249698246144904
  0.1111069470922021  0.7222201402127951  0.6249038302164426
  0.4444541196983587  0.7222169649913273  0.6246894848045923
  0.2777510800677941  0.2222147774838585  0.6253490597960158
  0.7777852225161329  0.7222489199322478  0.6253490597960158
  0.6111303640828017  0.2222147774838585  0.6253490597960158
  0.9444410681771438  0.2222154696875882  0.6250301753854870
  0.2777798597872010  0.7222201402127951  0.1250961697835163
  0.1110822229122149  0.2222077781227623  0.1249840663667371
  0.4444563646941664  0.2222460627216703  0.1243884917000702
  0.6111303640828017  0.7222489199322478  0.1246509402039857
  0.9444295119596172  0.7222169649913273  0.1253105151954443
  0.7777922218772224  0.2222077781227623  0.1249840663667371
  0.1111069366390194  0.8888930633609986  0.6248932250911358
  0.4444527933885917  0.8888930633609986  0.6248932250911358
  0.2777510800677941  0.3888696359172805  0.6253490597960158
  0.6111591447612237  0.3888408552388153  0.6282379415693092
  0.7777922218772224  0.8889177770878337  0.6250159336332809
  0.9444441888324944  0.3888774381253556  0.6248437766207628
  0.1110999159595480  0.3888774381253556  0.1251562233792614
  0.2777798597872010  0.8888930529077307  0.1250961697835163
  0.6111225618746162  0.8889000840405106  0.1251562233792614
  0.4443483771443548  0.3888408552388153  0.1217620584306124
  0.9444441888324944  0.8889000840405106  0.1251562233792614
  0.7777852225161329  0.3888696359172805  0.1246509402039857
  0.2777830350086724  0.5555458803015986  0.6246894848045923
  0.1110999159595480  0.0555558111675171  0.6248437766207628
  0.6111591447612237  0.5556516228556320  0.6282379415693092
  0.4444541196983587  0.0555704880403620  0.6246894848045923
  0.9444295119596172  0.5555458803015986  0.6246894848045923
  0.1111069366390194  0.5555472066113968  0.1251067749088437
  0.7777845303124747  0.0555589318228816  0.6250301753854870
  0.2777830350086724  0.0555704880403620  0.1253105151954443
  0.4444563646941664  0.5555436353057603  0.1243884917000702
  0.7777539372783314  0.5555436353057603  0.1243884917000702
  0.6111225618746162  0.0555558111675171  0.1251562233792614
  0.4444563646941664  0.5555436353057603  0.6256115082998761
  0.9444410681771438  0.0555589318228816  0.1249698246144904
  0.2777798597872010  0.7222201402127951  0.6249038302164426
  0.1110822229122149  0.2222077781227623  0.6250159336332809
  0.4444563646941664  0.2222460627216703  0.6256115082998761
  0.6111303640828017  0.7222489199322478  0.6253490597960158
  0.9444295119596172  0.7222169649913273  0.6246894848045923
  0.7777922218772224  0.2222077781227623  0.6250159336332809
  0.1111069470922021  0.7222201402127951  0.1250961697835163
  0.4444541196983587  0.7222169649913273  0.1253105151954443
  0.2777510800677941  0.2222147774838585  0.1246509402039857
  0.7777852225162155  0.7222489199322478  0.1246509402039857
  0.6111303640828017  0.2222147774838585  0.1246509402039857
  0.9444410681771438  0.2222154696875882  0.1249698246144904
  0.1110999159595480  0.3888774381253556  0.6248437766207628
  0.2777798597872010  0.8888930529077307  0.6249038302164426
  0.6111225618746162  0.8889000840405106  0.6248437766207628
  0.4443483771443548  0.3888408552388153  0.6282379415693092
  0.9444441888324944  0.8889000840405106  0.6248437766207628
  0.1111069366390194  0.8888930633609986  0.1251067749088437
  0.7777852225161329  0.3888696359172805  0.6253490597960158
  0.4444527933885917  0.8888930633609986  0.1251067749088437
  0.2777510800677941  0.3888696359172805  0.1246509402039857
  0.2777830350086724  0.5555458803015986  0.1253105151954443
  0.6111591447612237  0.3888408552388153  0.1217620584306124
  0.7777922218772224  0.8889177770878337  0.1249840663667371
  0.9444441888324944  0.3888774381253556  0.1251562233792614
  0.1111069366390194  0.5555472066113968  0.6248932250911358
  0.2777830350086724  0.0555704880403620  0.6246894848045923
  0.7777539372783314  0.5555436353057603  0.6256115082998761
  0.6111225618746162  0.0555558111675171  0.6248437766207628
  0.9444410681771438  0.0555589318228816  0.6250301753854870
  0.0544764217144134  0.1103969058261311  0.3750000000000000
  0.5556701155647894  0.6204526832443628  0.3750000000000000
  0.3876759585929719  0.1086852505192758  0.3750000000000000
  0.8913147494807134  0.6123240414069478  0.3750000000000000
  0.7225871507783981  0.1103969058261311  0.3750000000000000
  0.0555545301462318  0.7777788896951933  0.8750000000000000
  0.3888910262156645  0.7777788896951933  0.8750000000000000
  0.2222253520338715  0.2777793426836527  0.8750000000000000
  0.7222206573164168  0.7777746479660302  0.8750000000000000
  0.5555492695685944  0.2777731751690055  0.8750000000000000
  0.8888902790051902  0.2777786363156054  0.8750000000000000
  0.2222222222222214  0.7777777777777786  0.3750000000000000
  0.0544764217144134  0.2774128492215916  0.3750000000000000
  0.3795473167555387  0.2685507656536591  0.3750000000000000
  0.5551652811823458  0.7814577907074172  0.3750000000000000
  0.8929591761915698  0.7814577907074172  0.3750000000000000
  0.7239506548727606  0.2760493451272739  0.3750000000000000
  0.0555548446073802  0.9444451553925496  0.8750000000000000
  0.3888910262156645  0.9444454698538087  0.8750000000000000
  0.2222233253913391  0.4444462427368245  0.8750000000000000
  0.5555555555555571  0.4444444444444429  0.8750000000000000
  0.7222213636844463  0.9444449760229467  0.8750000000000000
  0.8888895840120845  0.4444462427368245  0.8750000000000000
  0.0557446089359503  0.4448225512052332  0.3750000000000000
  0.2218480981033344  0.9434528210692171  0.3750000000000000
  0.5551774487946820  0.9442553910640518  0.3750000000000000
  0.3795473167555387  0.4443298844352204  0.3750000000000000
  0.8896030941738854  0.9455235782855628  0.3750000000000000
  0.7314492343461974  0.4443298844352204  0.3750000000000000
  0.2222211103047813  0.6111089737842975  0.8750000000000000
  0.0555550239770157  0.1111097209947897  0.8750000000000000
  0.5555492695685944  0.6111094277327520  0.8750000000000000
  0.3888881789526800  0.1111096912387661  0.8750000000000000
  0.8888903087612973  0.6111118210471934  0.8750000000000000
  0.0565471789308169  0.6117286103674441  0.3750000000000000
  0.7222213636844463  0.1111097209947897  0.8750000000000000
  0.2185422092925813  0.1070408238083839  0.3750000000000000
  0.3876759585929719  0.6123240414069478  0.3750000000000000
  0.7314492343461974  0.6204526832443628  0.3750000000000000
  0.5551652811823458  0.1070408238083839  0.3750000000000000
  0.3888881789526800  0.6111118210471934  0.8750000000000000
  0.8888888888888857  0.1111111111111143  0.3750000000000000
  0.2222222222222214  0.7777777777777786  0.8750000000000000
  0.0555550239770156  0.2777786363156054  0.8750000000000000
  0.3888905722671825  0.2777731751690055  0.8750000000000000
  0.5555537572632405  0.7777766746087472  0.8750000000000000
  0.8888895840120845  0.7777766746087472  0.8750000000000000
  0.7222206573164168  0.2777793426836527  0.8750000000000000
  0.0565471789308169  0.7781519018967371  0.3750000000000000
  0.3882713896325082  0.7781519018967371  0.3750000000000000
  0.2187653569211977  0.2760493451272739  0.3750000000000000
  0.7239506548727606  0.7812346430787880  0.3750000000000000
  0.5556701155647894  0.2685507656536591  0.3750000000000000
  0.8896030941738854  0.2774128492215920  0.3750000000000000
  0.0555548446073802  0.4444430225481117  0.8750000000000000
  0.2222211103047813  0.9444454698538087  0.8750000000000000
  0.5555569774518856  0.9444451553925496  0.8750000000000000
  0.3888905722671825  0.4444507304314915  0.8750000000000000
  0.8888902790051902  0.9444449760229467  0.8750000000000000
  0.0557446089359503  0.9442553910640518  0.3750000000000000
  0.7222268248309580  0.4444507304314915  0.8750000000000000
  0.3882713896325082  0.9434528210692171  0.3750000000000000
  0.2185422092925813  0.4448347188175010  0.3750000000000000
  0.2218480981033344  0.6117286103674441  0.3750000000000000
  0.7225871507783981  0.9455235782855628  0.3750000000000000
  0.8929591761915698  0.4448347188175010  0.3750000000000000
  0.0555545301462318  0.6111089737842975  0.8750000000000000
  0.2222233253913391  0.1111104159878359  0.8750000000000000
  0.7222268248309580  0.6111094277327520  0.8750000000000000
  0.5555537572632405  0.1111104159878359  0.8750000000000000
  0.8888888888888857  0.1111111111111143  0.8750000000000000
  0.1089963687424407  0.0539202409566213  0.3750000000000000
  0.6236652264135387  0.5806637861604088  0.3750000000000000
  0.4439878068500931  0.0537835532105664  0.3750000000000000
  0.9462164467893732  0.5560121931498755  0.3750000000000000
  0.7782711834540097  0.0558022583937378  0.3750000000000000
  0.1111103395167576  0.7222218364250622  0.8750000000000000
  0.4444421976987971  0.7222173305323288  0.8750000000000000
  0.2777944073580765  0.2222306276997890  0.8750000000000000
  0.7777693723002342  0.7222055926418471  0.8750000000000000
  0.6111028870083837  0.2222306276997890  0.8750000000000000
  0.9444469915643480  0.2222273164620298  0.8750000000000000
  0.2775001944122386  0.7224998055877262  0.3750000000000000
  0.1088082120792888  0.2210707727062921  0.3750000000000000
  0.4428432136571057  0.2190197606475109  0.3750000000000000
  0.6122058627106527  0.7293732059098974  0.3750000000000000
  0.9462164467893732  0.7235375869729055  0.3750000000000000
  0.7789292272937438  0.2210707727062921  0.3750000000000000
  0.1111118386055902  0.8888881613945310  0.8750000000000000
  0.4444429894554845  0.8888881613945310  0.8750000000000000
  0.2777944073580765  0.3888971129916624  0.8750000000000000
  0.6110988599858692  0.3889011400140938  0.8750000000000000
  0.7777704632698640  0.8888742598730601  0.8750000000000000
  0.9444428487085834  0.3888948528995825  0.8750000000000000
  0.1089963687424407  0.3884094611190992  0.3750000000000000
  0.2775001944122386  0.8883337221578057  0.3750000000000000
  0.6115905388808599  0.8910036312575075  0.3750000000000000
  0.4193362138395696  0.3763347735864599  0.3750000000000000
  0.9460797590433241  0.8910036312575075  0.3750000000000000
  0.7838340098660006  0.3877941372894295  0.3750000000000000
  0.2777826694676861  0.5555578023012880  0.8750000000000000
  0.1111186708577638  0.0555571512914731  0.8750000000000000
  0.6110988599858692  0.5555310533051411  0.8750000000000000
  0.4444421976987971  0.0555582004998005  0.8750000000000000
  0.9444417995000837  0.5555578023012880  0.8750000000000000
  0.1112430608901359  0.5558194551135460  0.3750000000000000
  0.7777726835379351  0.0555530084356494  0.8750000000000000
  0.2764624130271696  0.0537835532105664  0.3750000000000000
  0.4428432136571057  0.5571567863429103  0.3750000000000000
  0.7809802393524529  0.5571567863429103  0.3750000000000000
  0.6115905388808599  0.0539202409566213  0.3750000000000000
  0.4444489440239897  0.5555510559760454  0.8750000000000000
  0.9441977416062048  0.0558022583937378  0.3750000000000000
  0.2777781635749602  0.7222218364250622  0.8750000000000000
  0.1111257401268477  0.2222295367300767  0.8750000000000000
  0.4444489440239897  0.2222312213812607  0.8750000000000000
  0.6111028870083837  0.7222055926418471  0.8750000000000000
  0.9444417995000837  0.7222173305323288  0.8750000000000000
  0.7777704632698640  0.2222295367300767  0.8750000000000000
  0.1116662778422493  0.7224998055877262  0.3750000000000000
  0.4439878068500931  0.7235375869729055  0.3750000000000000
  0.2706267940901659  0.2161659901340584  0.3750000000000000
  0.7838340098660006  0.7293732059098974  0.3750000000000000
  0.6122058627106527  0.2161659901340584  0.3750000000000000
  0.9441977416062048  0.2217288165458993  0.3750000000000000
  0.1111186708577638  0.3888948528995825  0.8750000000000000
  0.2777781635749602  0.8888896604832489  0.8750000000000000
  0.6111051471003620  0.8888813291422298  0.8750000000000000
  0.4444689466948885  0.3889011400140938  0.8750000000000000
  0.9444428487085834  0.8888813291422298  0.8750000000000000
  0.1112430608901359  0.8887569391098877  0.3750000000000000
  0.7777693723002342  0.3888971129916624  0.8750000000000000
  0.4441805448864841  0.8887569391098877  0.3750000000000000
  0.2706267940901659  0.3877941372894295  0.3750000000000000
  0.2764624130271696  0.5560121931498755  0.3750000000000000
  0.6236652264135386  0.3763347735864598  0.3750000000000000
  0.7789292272937438  0.8911917879206730  0.3750000000000000
  0.9460797590433241  0.3884094611190992  0.3750000000000000
  0.1111118386055902  0.5555570105445083  0.8750000000000000
  0.2777826694676861  0.0555582004998005  0.8750000000000000
  0.7777687786186849  0.5555510559760454  0.8750000000000000
  0.6111051471003620  0.0555571512914731  0.8750000000000000
  0.9444469915643480  0.0555530084356494  0.8750000000000000
  0.0555426540713170  0.1111108611218503  0.1250095239545921
  0.5556127660183907  0.6110742838954312  0.1235423011295342
  0.3889230423853143  0.1111794181039605  0.1250886761736734
  0.8888205818960286  0.6110769576146909  0.1250886761736734
  0.7222348737171679  0.1111108611218503  0.1250095239545921
  0.0555355227558137  0.7777720216615277  0.6248664899732118
  0.3889031655722858  0.7777720216615277  0.6248664899732118
  0.2222081094513554  0.2777707213923237  0.6252874038406960
  0.7222292786076171  0.7777918905486884  0.6252874038406960
  0.5556127660183907  0.2778718154563371  0.6264576988705214
  0.8888891388781012  0.2777651262827903  0.6249904760454043
  0.2222222222222214  0.7777777777777786  0.1250077213537257
  0.0555426540713170  0.2777651262827903  0.1250095239545921
  0.3889257161045490  0.2778718154563371  0.1235423011295342
  0.5555763657308519  0.7777753950902411  0.1250583773978297
  0.8888656960260800  0.7777753950902411  0.1250583773978297
  0.7222292786076171  0.2777707213923237  0.1247125961591475
  0.0555501499198280  0.9444498500802211  0.6248837982942815
  0.3889031655722858  0.9444644772441140  0.6248664899732118
  0.2222246049097024  0.4444236342691042  0.6249416226020148
  0.5555555555555571  0.4444444444444429  0.6273172553266371
  0.7222348737171679  0.9444573459286743  0.6249904760454043
  0.8888656960260800  0.4444236342691042  0.6249416226020148
  0.0555501499198280  0.4444336331729643  0.1251162017056308
  0.2222279783385324  0.9444644772441140  0.1251335100267876
  0.5555663668269749  0.9444498500802211  0.1251162017056308
  0.3889257161045490  0.4443872339815964  0.1235423011295342
  0.8888891388781012  0.9444573459286743  0.1250095239545921
  0.7221281845436801  0.4443872339815964  0.1235423011295342
  0.2222279783385324  0.6110968344275861  0.6248664899732118
  0.0555426540713170  0.1111108611218503  0.6249904760454043
  0.5556127660183907  0.6110742838954312  0.6264576988705214
  0.3889230423853143  0.1111794181039605  0.6249113238263599
  0.8888205818960286  0.6110769576146909  0.6249113238263599
  0.0555355227558137  0.6110968344275861  0.1251335100267876
  0.7222348737171679  0.1111108611218503  0.6249904760454043
  0.2222246049097024  0.1111343039739144  0.1250583773978297
  0.3889230423853143  0.6110769576146909  0.1250886761736734
  0.7221281845436801  0.6110742838954312  0.1235423011295342
  0.5555763657308519  0.1111343039739144  0.1250583773978297
  0.3889230423853143  0.6110769576146909  0.6249113238263599
  0.8888888888888857  0.1111111111111143  0.1249501017735524
  0.2222222222222214  0.7777777777777786  0.6249922786462746
  0.0555426540713170  0.2777651262827903  0.6249904760454043
  0.3889257161045490  0.2778718154563371  0.6264576988705214
  0.5555763657308519  0.7777753950902411  0.6249416226020148
  0.8888656960260800  0.7777753950902411  0.6249416226020148
  0.7222292786076171  0.2777707213923237  0.6252874038406960
  0.0555355227558137  0.7777720216615277  0.1251335100267876
  0.3889031655722858  0.7777720216615277  0.1251335100267876
  0.2222081094513554  0.2777707213923237  0.1247125961591475
  0.7222292786076171  0.7777918905486884  0.1247125961591475
  0.5556127660183907  0.2778718154563371  0.1235423011295342
  0.8888891388781012  0.2777651262827903  0.1250095239545921
  0.0555501499198280  0.4444336331729643  0.6248837982942815
  0.2222279783385324  0.9444644772441140  0.6248664899732118
  0.5555663668269749  0.9444498500802211  0.6248837982942815
  0.3889257161045490  0.4443872339815964  0.6264576988705214
  0.8888891388781012  0.9444573459286743  0.6249904760454043
  0.0555501499198280  0.9444498500802211  0.1251162017056308
  0.7221281845436801  0.4443872339815964  0.6264576988705214
  0.3889031655722858  0.9444644772441140  0.1251335100267876
  0.2222246049097024  0.4444236342691042  0.1250583773978297
  0.2222279783385324  0.6110968344275861  0.1251335100267876
  0.5555555555555571  0.4444444444444429  0.1226827446733033
  0.7222348737171679  0.9444573459286743  0.1250095239545921
  0.8888656960260800  0.4444236342691042  0.1250583773978297
  0.0555355227558137  0.6110968344275861  0.6248664899732118
  0.2222246049097024  0.1111343039739144  0.6249416226020148
  0.7221281845436801  0.6110742838954312  0.6264576988705214
  0.5555763657308519  0.1111343039739144  0.6249416226020148
  0.8888888888888857  0.1111111111111143  0.6250498982264745
 
  0.00000000E+00  0.00000000E+00  0.00000000E+00
  0.00000000E+00  0.00000000E+00  0.00000000E+00
  0.00000000E+00  0.00000000E+00  0.00000000E+00
  0.00000000E+00  0.00000000E+00  0.00000000E+00
  0.00000000E+00  0.00000000E+00  0.00000000E+00
  0.00000000E+00  0.00000000E+00  0.00000000E+00
  0.00000000E+00  0.00000000E+00  0.00000000E+00
  0.00000000E+00  0.00000000E+00  0.00000000E+00
  0.00000000E+00  0.00000000E+00  0.00000000E+00
  0.00000000E+00  0.00000000E+00  0.00000000E+00
  0.00000000E+00  0.00000000E+00  0.00000000E+00
  0.00000000E+00  0.00000000E+00  0.00000000E+00
  0.00000000E+00  0.00000000E+00  0.00000000E+00
  0.00000000E+00  0.00000000E+00  0.00000000E+00
  0.00000000E+00  0.00000000E+00  0.00000000E+00
  0.00000000E+00  0.00000000E+00  0.00000000E+00
  0.00000000E+00  0.00000000E+00  0.00000000E+00
  0.00000000E+00  0.00000000E+00  0.00000000E+00
  0.00000000E+00  0.00000000E+00  0.00000000E+00
  0.00000000E+00  0.00000000E+00  0.00000000E+00
  0.00000000E+00  0.00000000E+00  0.00000000E+00
  0.00000000E+00  0.00000000E+00  0.00000000E+00
  0.00000000E+00  0.00000000E+00  0.00000000E+00
  0.00000000E+00  0.00000000E+00  0.00000000E+00
  0.00000000E+00  0.00000000E+00  0.00000000E+00
  0.00000000E+00  0.00000000E+00  0.00000000E+00
  0.00000000E+00  0.00000000E+00  0.00000000E+00
  0.00000000E+00  0.00000000E+00  0.00000000E+00
  0.00000000E+00  0.00000000E+00  0.00000000E+00
  0.00000000E+00  0.00000000E+00  0.00000000E+00
  0.00000000E+00  0.00000000E+00  0.00000000E+00
  0.00000000E+00  0.00000000E+00  0.00000000E+00
  0.00000000E+00  0.00000000E+00  0.00000000E+00
  0.00000000E+00  0.00000000E+00  0.00000000E+00
  0.00000000E+00  0.00000000E+00  0.00000000E+00
  0.00000000E+00  0.00000000E+00  0.00000000E+00
  0.00000000E+00  0.00000000E+00  0.00000000E+00
  0.00000000E+00  0.00000000E+00  0.00000000E+00
  0.00000000E+00  0.00000000E+00  0.00000000E+00
  0.00000000E+00  0.00000000E+00  0.00000000E+00
  0.00000000E+00  0.00000000E+00  0.00000000E+00
  0.00000000E+00  0.00000000E+00  0.00000000E+00
  0.00000000E+00  0.00000000E+00  0.00000000E+00
  0.00000000E+00  0.00000000E+00  0.00000000E+00
  0.00000000E+00  0.00000000E+00  0.00000000E+00
  0.00000000E+00  0.00000000E+00  0.00000000E+00
  0.00000000E+00  0.00000000E+00  0.00000000E+00
  0.00000000E+00  0.00000000E+00  0.00000000E+00
  0.00000000E+00  0.00000000E+00  0.00000000E+00
  0.00000000E+00  0.00000000E+00  0.00000000E+00
  0.00000000E+00  0.00000000E+00  0.00000000E+00
  0.00000000E+00  0.00000000E+00  0.00000000E+00
  0.00000000E+00  0.00000000E+00  0.00000000E+00
  0.00000000E+00  0.00000000E+00  0.00000000E+00
  0.00000000E+00  0.00000000E+00  0.00000000E+00
  0.00000000E+00  0.00000000E+00  0.00000000E+00
  0.00000000E+00  0.00000000E+00  0.00000000E+00
  0.00000000E+00  0.00000000E+00  0.00000000E+00
  0.00000000E+00  0.00000000E+00  0.00000000E+00
  0.00000000E+00  0.00000000E+00  0.00000000E+00
  0.00000000E+00  0.00000000E+00  0.00000000E+00
  0.00000000E+00  0.00000000E+00  0.00000000E+00
  0.00000000E+00  0.00000000E+00  0.00000000E+00
  0.00000000E+00  0.00000000E+00  0.00000000E+00
  0.00000000E+00  0.00000000E+00  0.00000000E+00
  0.00000000E+00  0.00000000E+00  0.00000000E+00
  0.00000000E+00  0.00000000E+00  0.00000000E+00
  0.00000000E+00  0.00000000E+00  0.00000000E+00
  0.00000000E+00  0.00000000E+00  0.00000000E+00
  0.00000000E+00  0.00000000E+00  0.00000000E+00
  0.00000000E+00  0.00000000E+00  0.00000000E+00
  0.00000000E+00  0.00000000E+00  0.00000000E+00
  0.00000000E+00  0.00000000E+00  0.00000000E+00
  0.00000000E+00  0.00000000E+00  0.00000000E+00
  0.00000000E+00  0.00000000E+00  0.00000000E+00
  0.00000000E+00  0.00000000E+00  0.00000000E+00
  0.00000000E+00  0.00000000E+00  0.00000000E+00
  0.00000000E+00  0.00000000E+00  0.00000000E+00
  0.00000000E+00  0.00000000E+00  0.00000000E+00
  0.00000000E+00  0.00000000E+00  0.00000000E+00
  0.00000000E+00  0.00000000E+00  0.00000000E+00
  0.00000000E+00  0.00000000E+00  0.00000000E+00
  0.00000000E+00  0.00000000E+00  0.00000000E+00
  0.00000000E+00  0.00000000E+00  0.00000000E+00
  0.00000000E+00  0.00000000E+00  0.00000000E+00
  0.00000000E+00  0.00000000E+00  0.00000000E+00
  0.00000000E+00  0.00000000E+00  0.00000000E+00
  0.00000000E+00  0.00000000E+00  0.00000000E+00
  0.00000000E+00  0.00000000E+00  0.00000000E+00
  0.00000000E+00  0.00000000E+00  0.00000000E+00
  0.00000000E+00  0.00000000E+00  0.00000000E+00
  0.00000000E+00  0.00000000E+00  0.00000000E+00
  0.00000000E+00  0.00000000E+00  0.00000000E+00
  0.00000000E+00  0.00000000E+00  0.00000000E+00
  0.00000000E+00  0.00000000E+00  0.00000000E+00
  0.00000000E+00  0.00000000E+00  0.00000000E+00
  0.00000000E+00  0.00000000E+00  0.00000000E+00
  0.00000000E+00  0.00000000E+00  0.00000000E+00
  0.00000000E+00  0.00000000E+00  0.00000000E+00
  0.00000000E+00  0.00000000E+00  0.00000000E+00
  0.00000000E+00  0.00000000E+00  0.00000000E+00
  0.00000000E+00  0.00000000E+00  0.00000000E+00
  0.00000000E+00  0.00000000E+00  0.00000000E+00
  0.00000000E+00  0.00000000E+00  0.00000000E+00
  0.00000000E+00  0.00000000E+00  0.00000000E+00
  0.00000000E+00  0.00000000E+00  0.00000000E+00
  0.00000000E+00  0.00000000E+00  0.00000000E+00
  0.00000000E+00  0.00000000E+00  0.00000000E+00
  0.00000000E+00  0.00000000E+00  0.00000000E+00
  0.00000000E+00  0.00000000E+00  0.00000000E+00
  0.00000000E+00  0.00000000E+00  0.00000000E+00
  0.00000000E+00  0.00000000E+00  0.00000000E+00
  0.00000000E+00  0.00000000E+00  0.00000000E+00
  0.00000000E+00  0.00000000E+00  0.00000000E+00
  0.00000000E+00  0.00000000E+00  0.00000000E+00
  0.00000000E+00  0.00000000E+00  0.00000000E+00
  0.00000000E+00  0.00000000E+00  0.00000000E+00
  0.00000000E+00  0.00000000E+00  0.00000000E+00
  0.00000000E+00  0.00000000E+00  0.00000000E+00
  0.00000000E+00  0.00000000E+00  0.00000000E+00
  0.00000000E+00  0.00000000E+00  0.00000000E+00
  0.00000000E+00  0.00000000E+00  0.00000000E+00
  0.00000000E+00  0.00000000E+00  0.00000000E+00
  0.00000000E+00  0.00000000E+00  0.00000000E+00
  0.00000000E+00  0.00000000E+00  0.00000000E+00
  0.00000000E+00  0.00000000E+00  0.00000000E+00
  0.00000000E+00  0.00000000E+00  0.00000000E+00
  0.00000000E+00  0.00000000E+00  0.00000000E+00
  0.00000000E+00  0.00000000E+00  0.00000000E+00
  0.00000000E+00  0.00000000E+00  0.00000000E+00
  0.00000000E+00  0.00000000E+00  0.00000000E+00
  0.00000000E+00  0.00000000E+00  0.00000000E+00
  0.00000000E+00  0.00000000E+00  0.00000000E+00
  0.00000000E+00  0.00000000E+00  0.00000000E+00
  0.00000000E+00  0.00000000E+00  0.00000000E+00
  0.00000000E+00  0.00000000E+00  0.00000000E+00
  0.00000000E+00  0.00000000E+00  0.00000000E+00
  0.00000000E+00  0.00000000E+00  0.00000000E+00
  0.00000000E+00  0.00000000E+00  0.00000000E+00
  0.00000000E+00  0.00000000E+00  0.00000000E+00
  0.00000000E+00  0.00000000E+00  0.00000000E+00
  0.00000000E+00  0.00000000E+00  0.00000000E+00
  0.00000000E+00  0.00000000E+00  0.00000000E+00
  0.00000000E+00  0.00000000E+00  0.00000000E+00
  0.00000000E+00  0.00000000E+00  0.00000000E+00
  0.00000000E+00  0.00000000E+00  0.00000000E+00
  0.00000000E+00  0.00000000E+00  0.00000000E+00
  0.00000000E+00  0.00000000E+00  0.00000000E+00
  0.00000000E+00  0.00000000E+00  0.00000000E+00
  0.00000000E+00  0.00000000E+00  0.00000000E+00
  0.00000000E+00  0.00000000E+00  0.00000000E+00
  0.00000000E+00  0.00000000E+00  0.00000000E+00
  0.00000000E+00  0.00000000E+00  0.00000000E+00
  0.00000000E+00  0.00000000E+00  0.00000000E+00
  0.00000000E+00  0.00000000E+00  0.00000000E+00
  0.00000000E+00  0.00000000E+00  0.00000000E+00
  0.00000000E+00  0.00000000E+00  0.00000000E+00
  0.00000000E+00  0.00000000E+00  0.00000000E+00
  0.00000000E+00  0.00000000E+00  0.00000000E+00
  0.00000000E+00  0.00000000E+00  0.00000000E+00
  0.00000000E+00  0.00000000E+00  0.00000000E+00
  0.00000000E+00  0.00000000E+00  0.00000000E+00
  0.00000000E+00  0.00000000E+00  0.00000000E+00
  0.00000000E+00  0.00000000E+00  0.00000000E+00
  0.00000000E+00  0.00000000E+00  0.00000000E+00
  0.00000000E+00  0.00000000E+00  0.00000000E+00
  0.00000000E+00  0.00000000E+00  0.00000000E+00
  0.00000000E+00  0.00000000E+00  0.00000000E+00
  0.00000000E+00  0.00000000E+00  0.00000000E+00
  0.00000000E+00  0.00000000E+00  0.00000000E+00
  0.00000000E+00  0.00000000E+00  0.00000000E+00
  0.00000000E+00  0.00000000E+00  0.00000000E+00
  0.00000000E+00  0.00000000E+00  0.00000000E+00
  0.00000000E+00  0.00000000E+00  0.00000000E+00
  0.00000000E+00  0.00000000E+00  0.00000000E+00
  0.00000000E+00  0.00000000E+00  0.00000000E+00
  0.00000000E+00  0.00000000E+00  0.00000000E+00
  0.00000000E+00  0.00000000E+00  0.00000000E+00
  0.00000000E+00  0.00000000E+00  0.00000000E+00
  0.00000000E+00  0.00000000E+00  0.00000000E+00
  0.00000000E+00  0.00000000E+00  0.00000000E+00
  0.00000000E+00  0.00000000E+00  0.00000000E+00
  0.00000000E+00  0.00000000E+00  0.00000000E+00
  0.00000000E+00  0.00000000E+00  0.00000000E+00
  0.00000000E+00  0.00000000E+00  0.00000000E+00
  0.00000000E+00  0.00000000E+00  0.00000000E+00
  0.00000000E+00  0.00000000E+00  0.00000000E+00
  0.00000000E+00  0.00000000E+00  0.00000000E+00
  0.00000000E+00  0.00000000E+00  0.00000000E+00
  0.00000000E+00  0.00000000E+00  0.00000000E+00
  0.00000000E+00  0.00000000E+00  0.00000000E+00
  0.00000000E+00  0.00000000E+00  0.00000000E+00
  0.00000000E+00  0.00000000E+00  0.00000000E+00
  0.00000000E+00  0.00000000E+00  0.00000000E+00
  0.00000000E+00  0.00000000E+00  0.00000000E+00
  0.00000000E+00  0.00000000E+00  0.00000000E+00
  0.00000000E+00  0.00000000E+00  0.00000000E+00
  0.00000000E+00  0.00000000E+00  0.00000000E+00
  0.00000000E+00  0.00000000E+00  0.00000000E+00
  0.00000000E+00  0.00000000E+00  0.00000000E+00
  0.00000000E+00  0.00000000E+00  0.00000000E+00
  0.00000000E+00  0.00000000E+00  0.00000000E+00
  0.00000000E+00  0.00000000E+00  0.00000000E+00
  0.00000000E+00  0.00000000E+00  0.00000000E+00
  0.00000000E+00  0.00000000E+00  0.00000000E+00
  0.00000000E+00  0.00000000E+00  0.00000000E+00
  0.00000000E+00  0.00000000E+00  0.00000000E+00
  0.00000000E+00  0.00000000E+00  0.00000000E+00
  0.00000000E+00  0.00000000E+00  0.00000000E+00
  0.00000000E+00  0.00000000E+00  0.00000000E+00
  0.00000000E+00  0.00000000E+00  0.00000000E+00
  0.00000000E+00  0.00000000E+00  0.00000000E+00
  0.00000000E+00  0.00000000E+00  0.00000000E+00
  0.00000000E+00  0.00000000E+00  0.00000000E+00
  0.00000000E+00  0.00000000E+00  0.00000000E+00
  0.00000000E+00  0.00000000E+00  0.00000000E+00
  0.00000000E+00  0.00000000E+00  0.00000000E+00
  0.00000000E+00  0.00000000E+00  0.00000000E+00
  0.00000000E+00  0.00000000E+00  0.00000000E+00
  0.00000000E+00  0.00000000E+00  0.00000000E+00
  0.00000000E+00  0.00000000E+00  0.00000000E+00
  0.00000000E+00  0.00000000E+00  0.00000000E+00
  0.00000000E+00  0.00000000E+00  0.00000000E+00
  0.00000000E+00  0.00000000E+00  0.00000000E+00
  0.00000000E+00  0.00000000E+00  0.00000000E+00
  0.00000000E+00  0.00000000E+00  0.00000000E+00
  0.00000000E+00  0.00000000E+00  0.00000000E+00
  0.00000000E+00  0.00000000E+00  0.00000000E+00
  0.00000000E+00  0.00000000E+00  0.00000000E+00
  0.00000000E+00  0.00000000E+00  0.00000000E+00
  0.00000000E+00  0.00000000E+00  0.00000000E+00
  0.00000000E+00  0.00000000E+00  0.00000000E+00
  0.00000000E+00  0.00000000E+00  0.00000000E+00
  0.00000000E+00  0.00000000E+00  0.00000000E+00
  0.00000000E+00  0.00000000E+00  0.00000000E+00
  0.00000000E+00  0.00000000E+00  0.00000000E+00
  0.00000000E+00  0.00000000E+00  0.00000000E+00
  0.00000000E+00  0.00000000E+00  0.00000000E+00
  0.00000000E+00  0.00000000E+00  0.00000000E+00
  0.00000000E+00  0.00000000E+00  0.00000000E+00
  0.00000000E+00  0.00000000E+00  0.00000000E+00
  0.00000000E+00  0.00000000E+00  0.00000000E+00
  0.00000000E+00  0.00000000E+00  0.00000000E+00
  0.00000000E+00  0.00000000E+00  0.00000000E+00
  0.00000000E+00  0.00000000E+00  0.00000000E+00
  0.00000000E+00  0.00000000E+00  0.00000000E+00
  0.00000000E+00  0.00000000E+00  0.00000000E+00