Species order: X N B                    
   2.51242800000000     
     5.9449720136058266    0.0000000000000000    0.0000000000000000
    -2.9724860068029120    5.1484967885702053   -0.0000000000000001
     0.0000000000000000    0.0000000000000009    5.3101128803662583
   Se   N    B 
     1   143   143
Direct
  0.5108315469101607  0.4220824401217447  0.3750000000000000
  0.1110923746014116  0.0555310925460792  0.1250006802253988
  0.6110409183630852  0.5555356987087903  0.1242726829255646
  0.4444484611793231  0.0555428100820731  0.1250367353436779
  0.9444021837552661  0.5555414565514466  0.1250774284393247
  0.7777936279098456  0.0555634806215940  0.1249850992814951
  0.1110902600924149  0.7222117967128794  0.6249847417187216
  0.4444484611793231  0.7222389844305853  0.6249632646563221
  0.2777367883855913  0.2221860333647432  0.6255052879976247
  0.7777319247791741  0.7221948341460761  0.6249837165651559
  0.6110980344955625  0.2221864391133300  0.6251463448398836
  0.9444487702160556  0.2222306588305124  0.6249917000227535
  0.2777756566537489  0.7222272327156252  0.1250092823190406
  0.1111119826316434  0.2222226579824896  0.1249925634146184
  0.4444325601856569  0.2222019361302909  0.1244950460362297
  0.6110980344955625  0.7222449287155538  0.1248536551601092
  0.9444021837552661  0.7221940605371613  0.1250774284393247
  0.7777763912305047  0.2222190100439174  0.1250215083459153
  0.1110923868571298  0.8888675130755989  0.6249868379827802
  0.4444549354538156  0.8888941343935793  0.6249863523667557
  0.2777367883855913  0.3888840883541766  0.6255052879976247
  0.6110409183630852  0.3888385529876374  0.6257273170744352
  0.7777763912305047  0.8888907145199222  0.6249784916540776
  0.9444236261205303  0.3888907330265051  0.6249655592817538
  0.1110923746014116  0.3888946153886613  0.1250006802253988
  0.2777756566537489  0.8888817572714521  0.1250092823190406
  0.6111253047528585  0.8889094404170201  0.1250051953880778
  0.4443349661025853  0.3888341497179532  0.1226196103402395
  0.9444236261205303  0.8888662264273545  0.1250344407182537
  0.7777319247791741  0.3888704239664268  0.1250162834348372
  0.2777715571401739  0.5555677652931370  0.6250092915863851
  0.1110923746014116  0.0555310925460792  0.6249993197746011
  0.6110409183630852  0.5555356987087903  0.6257273170744352
  0.4444484611793231  0.0555428100820731  0.6249632646563221
  0.9444021837552661  0.5555414565514466  0.6249225715606755
  0.1110923868571298  0.5555582071148597  0.1250131620172265
  0.7777936279098456  0.0555634806215940  0.6250149007185041
  0.2777715571401739  0.0555371251803799  0.1249907084136150
  0.4444325601856569  0.5555639573887017  0.1244950460362297
  0.7776996231587485  0.5555164782460419  0.1249683554535292
  0.6111253047528585  0.0555491976691670  0.1250051953880778
  0.4444325601856569  0.5555639573887017  0.6255049539637634
  0.9444487702160556  0.0555514447188718  0.1250082999772394
  0.2777756566537489  0.7222272327156252  0.6249907176809593
  0.1111119826316434  0.2222226579824896  0.6250074365853746
  0.4444325601856569  0.2222019361302909  0.6255049539637634
  0.6110980344955625  0.7222449287155538  0.6251463448398836
  0.9444021837552661  0.7221940605371613  0.6249225715606755
  0.7777763912305047  0.2222190100439174  0.6249784916540776
  0.1110902600924149  0.7222117967128794  0.1250152582812717
  0.4444484611793231  0.7222389844305853  0.1250367353436779
  0.2777367883855913  0.2221860333647432  0.1244947120023682
  0.7777319247791741  0.7221948341460761  0.1250162834348372
  0.6110980344955625  0.2221864391133300  0.1248536551601092
  0.9444487702160556  0.2222306588305124  0.1250082999772394
  0.1110923746014116  0.3888946153886613  0.6249993197746011
  0.2777756566537489  0.8888817572714521  0.6249907176809593
  0.6111253047528585  0.8889094404170201  0.6249948046119224
  0.4443349661025853  0.3888341497179532  0.6273803896597605
  0.9444236261205303  0.8888662264273545  0.6249655592817538
  0.1110923868571298  0.8888675130755989  0.1250131620172265
  0.7777319247791741  0.3888704239664268  0.6249837165651559
  0.4444549354538156  0.8888941343935793  0.1250136476332439
  0.2777367883855913  0.3888840883541766  0.1244947120023682
  0.2777715571401739  0.5555677652931370  0.1249907084136150
  0.6110409183630852  0.3888385529876374  0.1242726829255646
  0.7777763912305047  0.8888907145199222  0.1250215083459153
  0.9444236261205303  0.3888907330265052  0.1250344407182537
  0.1110923868571298  0.5555582071148597  0.6249868379827802
  0.2777715571401739  0.0555371251803799  0.6250092915863851
  0.7776996231587485  0.5555164782460419  0.6250316445464709
  0.6111253047528585  0.0555491976691670  0.6249948046119224
  0.9444487702160556  0.0555514447188718  0.6249917000227535
  0.0586119327145562  0.1128276112943454  0.3750000000000000
  0.5565528244693170  0.6211714972164631  0.3750000000000000
  0.3882715547135340  0.1050892883277492  0.3750000000000000
  0.8858712514795605  0.6096022924064484  0.3750000000000000
  0.7244490023492700  0.1112193172141952  0.3750000000000000
  0.0555467595832611  0.7777732383311533  0.8750000000000000
  0.3888829644453089  0.7777756929285122  0.8750000000000000
  0.2222146919656282  0.2777740126494855  0.8750000000000000
  0.7222180095611147  0.7777741215539198  0.8750000000000000
  0.5555506214740484  0.2777763712046281  0.8750000000000000
  0.8888847524100704  0.2777776321128382  0.8750000000000000
  0.2205500846321013  0.7769417089827146  0.3750000000000000
  0.0586119327145562  0.2791176547535465  0.3750000000000000
  0.3900834701336516  0.2686563053793284  0.3750000000000000
  0.5563425453449329  0.7825199744073164  0.3750000000000000
  0.8888619393881889  0.7784486898407079  0.3750000000000000
  0.7240655991677695  0.2760949296736182  0.3750000000000000
  0.0555477061384126  0.9444387449215033  0.8750000000000000
  0.3888829644453089  0.9444406048501399  0.8750000000000000
  0.2222133853176750  0.4444441304050797  0.8750000000000000
  0.5555571159124155  0.4444452246228685  0.8750000000000000
  0.7222159261826934  0.9444406364556323  0.8750000000000000
  0.8888858107397801  0.4444431770102520  0.8750000000000000
  0.0559845300777228  0.4449153270583173  0.3750000000000000
  0.2209681839863605  0.9424069845188926  0.3750000000000000
  0.5563039833647259  0.9448186583490308  0.3750000000000000
  0.3900834701336516  0.4547604980876660  0.3750000000000000
  0.8912198964477558  0.9464433842076616  0.3750000000000000
  0.7209991546319289  0.4416520316407297  0.3750000000000000
  0.2222127950531161  0.6111080879390814  0.8750000000000000
  0.0555486865420241  0.1111058088922355  0.8750000000000000
  0.5555506214740484  0.6111075836027635  0.8750000000000000
  0.3888826357847247  0.1111053458408429  0.8750000000000000
  0.8888850044080847  0.6111091688707132  0.8750000000000000
  0.0536942847280950  0.6105084581881101  0.3750000000000000
  0.7222159261826934  0.1111086230603836  0.8750000000000000
  0.2230182930305042  0.1099851827587933  0.3750000000000000
  0.3882715547135340  0.6165155997191273  0.3750000000000000
  0.7209991546319289  0.6126804563245422  0.3750000000000000
  0.5563425453449329  0.1071559042709526  0.3750000000000000
  0.3888826357847247  0.6111106232772177  0.8750000000000000
  0.8918268332747521  0.1125800833040509  0.3750000000000000
  0.2222133768050250  0.7777733550691803  0.8750000000000000
  0.0555486865420241  0.2777762109831244  0.8750000000000000
  0.3888820138257874  0.2777687905718519  0.8750000000000000
  0.5555488009894443  0.7777747740023162  0.8750000000000000
  0.8888858107397801  0.7777759670628636  0.8750000000000000
  0.7222180095611147  0.2777772213405157  0.8750000000000000
  0.0536942847280950  0.7765191598733132  0.3750000000000000
  0.3880924876820309  0.7791831590161036  0.3750000000000000
  0.2269417588527436  0.2801375460930466  0.3750000000000000
  0.7240655991677695  0.7813040028274724  0.3750000000000000
  0.5565528244693170  0.2687146605861896  0.3750000000000000
  0.8912198964477558  0.2781098455734366  0.3750000000000000
  0.0555477061384126  0.4444422945502386  0.8750000000000000
  0.2222127950531161  0.9444380404473697  0.8750000000000000
  0.5555478262963129  0.9444405798148067  0.8750000000000000
  0.3888820138257874  0.4444465565872711  0.8750000000000000
  0.8888847524100704  0.9444404536305611  0.8750000000000000
  0.0559845300777228  0.9444025363527407  0.3750000000000000
  0.7222209311495388  0.4444446500777458  0.8750000000000000
  0.3880924876820309  0.9422426619992621  0.3750000000000000
  0.2230182930305042  0.4463664436050397  0.3750000000000000
  0.2209681839863605  0.6118945328008041  0.3750000000000000
  0.7244490023492700  0.9465630184684107  0.3750000000000000
  0.8888619393881889  0.4437465828808166  0.3750000000000000
  0.0555467595832611  0.6111068545854431  0.8750000000000000
  0.2222133853176750  0.1111025882459240  0.8750000000000000
  0.7222209311495388  0.6111096144051220  0.8750000000000000
  0.5555488009894443  0.1111073603204569  0.8750000000000000
  0.8888845298236316  0.1111089315784874  0.8750000000000000
  0.1126445863147505  0.0557405457127544  0.3750000000000000
  0.6117195416356476  0.5685252176504110  0.3750000000000000
  0.4448909696265154  0.0519503470042016  0.3750000000000000
  0.9427186334067043  0.5547492827978816  0.3750000000000000
  0.7807860018085637  0.0570596675709498  0.3750000000000000
  0.1111095087989407  0.7222214210661351  0.8750000000000000
  0.4444283473613466  0.7222073121606031  0.8750000000000000
  0.2777695005607204  0.2222232172778537  0.8750000000000000
  0.7777772075282525  0.7222291471415229  0.8750000000000000
  0.6110949921426804  0.2222146894796126  0.8750000000000000
  0.9444576490838169  0.2222250473363538  0.8750000000000000
  0.2768196969938123  0.7226018683921007  0.3750000000000000
  0.1153557380193718  0.2243445356763503  0.3750000000000000
  0.4438386817357426  0.2144698043384091  0.3750000000000000
  0.6132090343812246  0.7299328612906533  0.3750000000000000
  0.9427186334066900  0.7213026839421580  0.3750000000000000
  0.7804616723521558  0.2218818780800040  0.3750000000000000
  0.1111110945684911  0.8888986232424823  0.8750000000000000
  0.4444330165547417  0.8888831749440358  0.8750000000000000
  0.2777695005607204  0.3888796166161951  0.8750000000000000
  0.6110902134268320  0.3888761311201468  0.8750000000000000
  0.7777800149961220  0.8888953816703572  0.8750000000000000
  0.9444529983499992  0.3888834137327220  0.8750000000000000
  0.1126445863147505  0.3902373739353249  0.3750000000000000
  0.2768196969938123  0.8875511619350474  0.3750000000000000
  0.6131790184578900  0.8919808633355576  0.3750000000000000
  0.9453721770907731  0.8897576046339178  0.3750000000000000
  0.7783624490457488  0.3870941699368134  0.3750000000000000
  0.2777676081881784  0.5555406922859240  0.8750000000000000
  0.1111174791030555  0.0555668858465389  0.8750000000000000
  0.6110902134268320  0.5555474156400068  0.8750000000000000
  0.4444283473613466  0.0555543685340713  0.8750000000000000
  0.9444490635329651  0.5555523210172458  0.8750000000000000
  0.1101094263129881  0.5557465975331626  0.3750000000000000
  0.7777812891133664  0.0555573112233513  0.8750000000000000
  0.2772137886481281  0.0531489571183378  0.3750000000000000
  0.4438386817357426  0.5627022107306621  0.3750000000000000
  0.7745583154467139  0.5539458243900247  0.3750000000000000
  0.6131790184578900  0.0545314884556683  0.3750000000000000
  0.4444141857617106  0.5555297055803594  0.8750000000000000
  0.9476511213305099  0.0575484287547618  0.3750000000000000
  0.2777691493374559  0.7222122445057128  0.8750000000000000
  0.1111229967144014  0.2222281650238652  0.8750000000000000
  0.4444141857617106  0.2222178135146869  0.8750000000000000
  0.6110949921426804  0.7222136359963949  0.8750000000000000
  0.9444490635329651  0.7222300758490622  0.8750000000000000
  0.7777800149961220  0.2222179666590934  0.8750000000000000
  0.1094727600745535  0.7214030467039444  0.3750000000000000
  0.4448909696265154  0.7262739559556498  0.3750000000000000
  0.2813695671966554  0.2222967515500615  0.3750000000000000
  0.7783624490457488  0.7246016124422640  0.3750000000000000
  0.6132090343812246  0.2166095064239001  0.3750000000000000
  0.9476511213305099  0.2234360259090840  0.3750000000000000
  0.1111174791030555  0.3888839265898453  0.8750000000000000
  0.2777691493374559  0.8888902381650637  0.8750000000000000
  0.6111026415689458  0.8888844815275807  0.8750000000000000
  0.4444022689954260  0.3888678011643773  0.8750000000000000
  0.9444529983499992  0.8889029179506064  0.8750000000000000
  0.1101094263129881  0.8876961621131475  0.3750000000000000
  0.7777772075282525  0.3888813937200576  0.8750000000000000
  0.4448418408405340  0.8890875870869278  0.3750000000000000
  0.2813695671966554  0.3924061489799224  0.3750000000000000
  0.2772137886481281  0.5573981648631331  0.3750000000000000
  0.6117195416356476  0.3765276573185655  0.3750000000000000
  0.7804616723521558  0.8919131276054875  0.3750000000000000
  0.9453721770907731  0.3889479057901768  0.3750000000000000
  0.1111110945684911  0.5555458046593373  0.8750000000000000
  0.2777676081881784  0.0555602492356044  0.8750000000000000
  0.7777752431792498  0.5555542882562928  0.8750000000000000
  0.6111026415689458  0.0555514933746937  0.8750000000000000
  0.9444576490838169  0.0555659350808059  0.8750000000000000
  0.0555927047880336  0.1111353584460718  0.1250265665211051
  0.5554438129332601  0.6111151095607094  0.1244540506999306
  0.3888595730673366  0.1111025448699925  0.1249440951798831
  0.8888716646698867  0.6111024990016222  0.1249903925241786
  0.7222280387091609  0.1110976939558183  0.1249917991167508
  0.0555620864229877  0.7777889199649805  0.6249925836177789
  0.3888857985521832  0.7777794859183627  0.6249911125239882
  0.2222644175263405  0.2777988754298380  0.6252201671463100
  0.7221872092543058  0.7778012911814587  0.6250827930777422
  0.5554438129332601  0.2776620367058943  0.6255459493000769
  0.8889039160818311  0.2777685981779826  0.6249919113357164
  0.2222291648222268  0.7777812490777806  0.1249943836290670
  0.0555927047880336  0.2777906796752977  0.1250265665211051
  0.3887999119029702  0.2777584995987054  0.1242226782801128
  0.5555335753738093  0.7777993420357806  0.1249643644123000
  0.8888755057015646  0.7777887928503364  0.1250016981313150
  0.7221872092543058  0.2777192514061825  0.1249172069222577
  0.0555706677668162  0.9444715724443088  0.6249775369164959
  0.3888857985521832  0.9444396459671638  0.6249911125239882
  0.2222379184939388  0.4444193544292452  0.6250088951486541
  0.5553108289679244  0.4443220811506265  0.6264236924100054
  0.7222280387091609  0.9444636780866856  0.6250082008832419
  0.8888755057015646  0.4444200461845709  0.6249983018686923
  0.0555706677668162  0.4444324286558433  0.1250224630834974
  0.2222312470516941  0.9444650142338461  0.1250160760400243
  0.5555572044531127  0.9444452688932170  0.1250018934848416
  0.3887999119029702  0.4443747456376078  0.1242226782801128
  0.8889039160818311  0.9444686512371852  0.1250080886642840
  0.7221457166505496  0.4443838060783556  0.1246318204854957
  0.2222312470516941  0.6110995661511833  0.6249839239599692
  0.0555927047880336  0.1111353584460718  0.6249734334789010
  0.5554438129332601  0.6111151095607094  0.6255459493000769
  0.3888595730673366  0.1111025448699925  0.6250559048201167
  0.8888716646698867  0.6111024990016222  0.6250096074758218
  0.0555620864229877  0.6111064997913497  0.1250074163822213
  0.7222280387091609  0.1110976939558183  0.6250082008832419
  0.2222379184939388  0.1111518973980296  0.1249911048513456
  0.3888595730673366  0.6110903615306801  0.1249440951798831
  0.7221457166505567  0.6110952439055440  0.1246318204854957
  0.5555335753738093  0.1110675666713712  0.1249643644123000
  0.3888595730673366  0.6110903615306801  0.6250559048201167
  0.8889163593182168  0.1111248463257762  0.1249978580974171
  0.2222291648222268  0.7777812490777806  0.6250056163709401
  0.0555927047880336  0.2777906796752977  0.6249734334789010
  0.3887999119029702  0.2777584995987054  0.6257773217198809
  0.5555335753738093  0.7777993420357806  0.6250356355876998
  0.8888755057015646  0.7777887928503364  0.6249983018686923
  0.7221872092543058  0.2777192514061825  0.6250827930777422
  0.0555620864229877  0.7777889199649805  0.1250074163822213
  0.3888857985521832  0.7777794859183627  0.1250088874760118
  0.2222644175263405  0.2777988754298380  0.1247798328536829
  0.7221872092543058  0.7778012911814587  0.1249172069222577
  0.5554438129332601  0.2776620367058943  0.1244540506999306
  0.8889039160818311  0.2777685981779826  0.1250080886642840
  0.0555706677668162  0.4444324286558433  0.6249775369164959
  0.2222312470516941  0.9444650142338461  0.6249839239599692
  0.5555572044531127  0.9444452688932170  0.6249981065151515
  0.3887999119029702  0.4443747456376078  0.6257773217198809
  0.8889039160818311  0.9444686512371852  0.6249919113357164
  0.0555706677668162  0.9444715724443088  0.1250224630834974
  0.7221457166505567  0.4443838060783556  0.6253681795144974
  0.3888857985521832  0.9444396459671638  0.1250088874760118
  0.2222379184939388  0.4444193544292452  0.1249911048513456
  0.2222312470516941  0.6110995661511833  0.1250160760400243
  0.5553108289679244  0.4443220811506265  0.1235763075900016
  0.7222280387091609  0.9444636780866856  0.1249917991167508
  0.8888755057015646  0.4444200461845709  0.1250016981313150
  0.0555620864229877  0.6111064997913497  0.6249925836177789
  0.2222379184939388  0.1111518973980296  0.6250088951486541
  0.7221457166505567  0.6110952439055440  0.6253681795144974
  0.5555335753738093  0.1110675666713712  0.6250356355876998
  0.8889163593182168  0.1111248463257762  0.6250021419025832
 
  0.00000000E+00  0.00000000E+00  0.00000000E+00
  0.00000000E+00  0.00000000E+00  0.00000000E+00
  0.00000000E+00  0.00000000E+00  0.00000000E+00
  0.00000000E+00  0.00000000E+00  0.00000000E+00
  0.00000000E+00  0.00000000E+00  0.00000000E+00
  0.00000000E+00  0.00000000E+00  0.00000000E+00
  0.00000000E+00  0.00000000E+00  0.00000000E+00
  0.00000000E+00  0.00000000E+00  0.00000000E+00
  0.00000000E+00  0.00000000E+00  0.00000000E+00
  0.00000000E+00  0.00000000E+00  0.00000000E+00
  0.00000000E+00  0.00000000E+00  0.00000000E+00
  0.00000000E+00  0.00000000E+00  0.00000000E+00
  0.00000000E+00  0.00000000E+00  0.00000000E+00
  0.00000000E+00  0.00000000E+00  0.00000000E+00
  0.00000000E+00  0.00000000E+00  0.00000000E+00
  0.00000000E+00  0.00000000E+00  0.00000000E+00
  0.00000000E+00  0.00000000E+00  0.00000000E+00
  0.00000000E+00  0.00000000E+00  0.00000000E+00
  0.00000000E+00  0.00000000E+00  0.00000000E+00
  0.00000000E+00  0.00000000E+00  0.00000000E+00
  0.00000000E+00  0.00000000E+00  0.00000000E+00
  0.00000000E+00  0.00000000E+00  0.00000000E+00
  0.00000000E+00  0.00000000E+00  0.00000000E+00
  0.00000000E+00  0.00000000E+00  0.00000000E+00
  0.00000000E+00  0.00000000E+00  0.00000000E+00
  0.00000000E+00  0.00000000E+00  0.00000000E+00
  0.00000000E+00  0.00000000E+00  0.00000000E+00
  0.00000000E+00  0.00000000E+00  0.00000000E+00
  0.00000000E+00  0.00000000E+00  0.00000000E+00
  0.00000000E+00  0.00000000E+00  0.00000000E+00
  0.00000000E+00  0.00000000E+00  0.00000000E+00
  0.00000000E+00  0.00000000E+00  0.00000000E+00
  0.00000000E+00  0.00000000E+00  0.00000000E+00
  0.00000000E+00  0.00000000E+00  0.00000000E+00
  0.00000000E+00  0.00000000E+00  0.00000000E+00
  0.00000000E+00  0.00000000E+00  0.00000000E+00
  0.00000000E+00  0.00000000E+00  0.00000000E+00
  0.00000000E+00  0.00000000E+00  0.00000000E+00
  0.00000000E+00  0.00000000E+00  0.00000000E+00
  0.00000000E+00  0.00000000E+00  0.00000000E+00
  0.00000000E+00  0.00000000E+00  0.00000000E+00
  0.00000000E+00  0.00000000E+00  0.00000000E+00
  0.00000000E+00  0.00000000E+00  0.00000000E+00
  0.00000000E+00  0.00000000E+00  0.00000000E+00
  0.00000000E+00  0.00000000E+00  0.00000000E+00
  0.00000000E+00  0.00000000E+00  0.00000000E+00
  0.00000000E+00  0.00000000E+00  0.00000000E+00
  0.00000000E+00  0.00000000E+00  0.00000000E+00
  0.00000000E+00  0.00000000E+00  0.00000000E+00
  0.00000000E+00  0.00000000E+00  0.00000000E+00
  0.00000000E+00  0.00000000E+00  0.00000000E+00
  0.00000000E+00  0.00000000E+00  0.00000000E+00
  0.00000000E+00  0.00000000E+00  0.00000000E+00
  0.00000000E+00  0.00000000E+00  0.00000000E+00
  0.00000000E+00  0.00000000E+00  0.00000000E+00
  0.00000000E+00  0.00000000E+00  0.00000000E+00
  0.00000000E+00  0.00000000E+00  0.00000000E+00
  0.00000000E+00  0.00000000E+00  0.00000000E+00
  0.00000000E+00  0.00000000E+00  0.00000000E+00
  0.00000000E+00  0.00000000E+00  0.00000000E+00
  0.00000000E+00  0.00000000E+00  0.00000000E+00
  0.00000000E+00  0.00000000E+00  0.00000000E+00
  0.00000000E+00  0.00000000E+00  0.00000000E+00
  0.00000000E+00  0.00000000E+00  0.00000000E+00
  0.00000000E+00  0.00000000E+00  0.00000000E+00
  0.00000000E+00  0.00000000E+00  0.00000000E+00
  0.00000000E+00  0.00000000E+00  0.00000000E+00
  0.00000000E+00  0.00000000E+00  0.00000000E+00
  0.00000000E+00  0.00000000E+00  0.00000000E+00
  0.00000000E+00  0.00000000E+00  0.00000000E+00
  0.00000000E+00  0.00000000E+00  0.00000000E+00
  0.00000000E+00  0.00000000E+00  0.00000000E+00
  0.00000000E+00  0.00000000E+00  0.00000000E+00
  0.00000000E+00  0.00000000E+00  0.00000000E+00
  0.00000000E+00  0.00000000E+00  0.00000000E+00
  0.00000000E+00  0.00000000E+00  0.00000000E+00
  0.00000000E+00  0.00000000E+00  0.00000000E+00
  0.00000000E+00  0.00000000E+00  0.00000000E+00
  0.00000000E+00  0.00000000E+00  0.00000000E+00
  0.00000000E+00  0.00000000E+00  0.00000000E+00
  0.00000000E+00  0.00000000E+00  0.00000000E+00
  0.00000000E+00  0.00000000E+00  0.00000000E+00
  0.00000000E+00  0.00000000E+00  0.00000000E+00
  0.00000000E+00  0.00000000E+00  0.00000000E+00
  0.00000000E+00  0.00000000E+00  0.00000000E+00
  0.00000000E+00  0.00000000E+00  0.00000000E+00
  0.00000000E+00  0.00000000E+00  0.00000000E+00
  0.00000000E+00  0.00000000E+00  0.00000000E+00
  0.00000000E+00  0.00000000E+00  0.00000000E+00
  0.00000000E+00  0.00000000E+00  0.00000000E+00
  0.00000000E+00  0.00000000E+00  0.00000000E+00
  0.00000000E+00  0.00000000E+00  0.00000000E+00
  0.00000000E+00  0.00000000E+00  0.00000000E+00
  0.00000000E+00  0.00000000E+00  0.00000000E+00
  0.00000000E+00  0.00000000E+00  0.00000000E+00
  0.00000000E+00  0.00000000E+00  0.00000000E+00
  0.00000000E+00  0.00000000E+00  0.00000000E+00
  0.00000000E+00  0.00000000E+00  0.00000000E+00
  0.00000000E+00  0.00000000E+00  0.00000000E+00
  0.00000000E+00  0.00000000E+00  0.00000000E+00
  0.00000000E+00  0.00000000E+00  0.00000000E+00
  0.00000000E+00  0.00000000E+00  0.00000000E+00
  0.00000000E+00  0.00000000E+00  0.00000000E+00
  0.00000000E+00  0.00000000E+00  0.00000000E+00
  0.00000000E+00  0.00000000E+00  0.00000000E+00
  0.00000000E+00  0.00000000E+00  0.00000000E+00
  0.00000000E+00  0.00000000E+00  0.00000000E+00
  0.00000000E+00  0.00000000E+00  0.00000000E+00
  0.00000000E+00  0.00000000E+00  0.00000000E+00
  0.00000000E+00  0.00000000E+00  0.00000000E+00
  0.00000000E+00  0.00000000E+00  0.00000000E+00
  0.00000000E+00  0.00000000E+00  0.00000000E+00
  0.00000000E+00  0.00000000E+00  0.00000000E+00
  0.00000000E+00  0.00000000E+00  0.00000000E+00
  0.00000000E+00  0.00000000E+00  0.00000000E+00
  0.00000000E+00  0.00000000E+00  0.00000000E+00
  0.00000000E+00  0.00000000E+00  0.00000000E+00
  0.00000000E+00  0.00000000E+00  0.00000000E+00
  0.00000000E+00  0.00000000E+00  0.00000000E+00
  0.00000000E+00  0.00000000E+00  0.00000000E+00
  0.00000000E+00  0.00000000E+00  0.00000000E+00
  0.00000000E+00  0.00000000E+00  0.00000000E+00
  0.00000000E+00  0.00000000E+00  0.00000000E+00
  0.00000000E+00  0.00000000E+00  0.00000000E+00
  0.00000000E+00  0.00000000E+00  0.00000000E+00
  0.00000000E+00  0.00000000E+00  0.00000000E+00
  0.00000000E+00  0.00000000E+00  0.00000000E+00
  0.00000000E+00  0.00000000E+00  0.00000000E+00
  0.00000000E+00  0.00000000E+00  0.00000000E+00
  0.00000000E+00  0.00000000E+00  0.00000000E+00
  0.00000000E+00  0.00000000E+00  0.00000000E+00
  0.00000000E+00  0.00000000E+00  0.00000000E+00
  0.00000000E+00  0.00000000E+00  0.00000000E+00
  0.00000000E+00  0.00000000E+00  0.00000000E+00
  0.00000000E+00  0.00000000E+00  0.00000000E+00
  0.00000000E+00  0.00000000E+00  0.00000000E+00
  0.00000000E+00  0.00000000E+00  0.00000000E+00
  0.00000000E+00  0.00000000E+00  0.00000000E+00
  0.00000000E+00  0.00000000E+00  0.00000000E+00
  0.00000000E+00  0.00000000E+00  0.00000000E+00
  0.00000000E+00  0.00000000E+00  0.00000000E+00
  0.00000000E+00  0.00000000E+00  0.00000000E+00
  0.00000000E+00  0.00000000E+00  0.00000000E+00
  0.00000000E+00  0.00000000E+00  0.00000000E+00
  0.00000000E+00  0.00000000E+00  0.00000000E+00
  0.00000000E+00  0.00000000E+00  0.00000000E+00
  0.00000000E+00  0.00000000E+00  0.00000000E+00
  0.00000000E+00  0.00000000E+00  0.00000000E+00
  0.00000000E+00  0.00000000E+00  0.00000000E+00
  0.00000000E+00  0.00000000E+00  0.00000000E+00
  0.00000000E+00  0.00000000E+00  0.00000000E+00
  0.00000000E+00  0.00000000E+00  0.00000000E+00
  0.00000000E+00  0.00000000E+00  0.00000000E+00
  0.00000000E+00  0.00000000E+00  0.00000000E+00
  0.00000000E+00  0.00000000E+00  0.00000000E+00
  0.00000000E+00  0.00000000E+00  0.00000000E+00
  0.00000000E+00  0.00000000E+00  0.00000000E+00
  0.00000000E+00  0.00000000E+00  0.00000000E+00
  0.00000000E+00  0.00000000E+00  0.00000000E+00
  0.00000000E+00  0.00000000E+00  0.00000000E+00
  0.00000000E+00  0.00000000E+00  0.00000000E+00
  0.00000000E+00  0.00000000E+00  0.00000000E+00
  0.00000000E+00  0.00000000E+00  0.00000000E+00
  0.00000000E+00  0.00000000E+00  0.00000000E+00
  0.00000000E+00  0.00000000E+00  0.00000000E+00
  0.00000000E+00  0.00000000E+00  0.00000000E+00
  0.00000000E+00  0.00000000E+00  0.00000000E+00
  0.00000000E+00  0.00000000E+00  0.00000000E+00
  0.00000000E+00  0.00000000E+00  0.00000000E+00
  0.00000000E+00  0.00000000E+00  0.00000000E+00
  0.00000000E+00  0.00000000E+00  0.00000000E+00
  0.00000000E+00  0.00000000E+00  0.00000000E+00
  0.00000000E+00  0.00000000E+00  0.00000000E+00
  0.00000000E+00  0.00000000E+00  0.00000000E+00
  0.00000000E+00  0.00000000E+00  0.00000000E+00
  0.00000000E+00  0.00000000E+00  0.00000000E+00
  0.00000000E+00  0.00000000E+00  0.00000000E+00
  0.00000000E+00  0.00000000E+00  0.00000000E+00
  0.00000000E+00  0.00000000E+00  0.00000000E+00
  0.00000000E+00  0.00000000E+00  0.00000000E+00
  0.00000000E+00  0.00000000E+00  0.00000000E+00
  0.00000000E+00  0.00000000E+00  0.00000000E+00
  0.00000000E+00  0.00000000E+00  0.00000000E+00
  0.00000000E+00  0.00000000E+00  0.00000000E+00
  0.00000000E+00  0.00000000E+00  0.00000000E+00
  0.00000000E+00  0.00000000E+00  0.00000000E+00
  0.00000000E+00  0.00000000E+00  0.00000000E+00
  0.00000000E+00  0.00000000E+00  0.00000000E+00
  0.00000000E+00  0.00000000E+00  0.00000000E+00
  0.00000000E+00  0.00000000E+00  0.00000000E+00
  0.00000000E+00  0.00000000E+00  0.00000000E+00
  0.00000000E+00  0.00000000E+00  0.00000000E+00
  0.00000000E+00  0.00000000E+00  0.00000000E+00
  0.00000000E+00  0.00000000E+00  0.00000000E+00
  0.00000000E+00  0.00000000E+00  0.00000000E+00
  0.00000000E+00  0.00000000E+00  0.00000000E+00
  0.00000000E+00  0.00000000E+00  0.00000000E+00
  0.00000000E+00  0.00000000E+00  0.00000000E+00
  0.00000000E+00  0.00000000E+00  0.00000000E+00
  0.00000000E+00  0.00000000E+00  0.00000000E+00
  0.00000000E+00  0.00000000E+00  0.00000000E+00
  0.00000000E+00  0.00000000E+00  0.00000000E+00
  0.00000000E+00  0.00000000E+00  0.00000000E+00
  0.00000000E+00  0.00000000E+00  0.00000000E+00
  0.00000000E+00  0.00000000E+00  0.00000000E+00
  0.00000000E+00  0.00000000E+00  0.00000000E+00
  0.00000000E+00  0.00000000E+00  0.00000000E+00
  0.00000000E+00  0.00000000E+00  0.00000000E+00
  0.00000000E+00  0.00000000E+00  0.00000000E+00
  0.00000000E+00  0.00000000E+00  0.00000000E+00
  0.00000000E+00  0.00000000E+00  0.00000000E+00
  0.00000000E+00  0.00000000E+00  0.00000000E+00
  0.00000000E+00  0.00000000E+00  0.00000000E+00
  0.00000000E+00  0.00000000E+00  0.00000000E+00
  0.00000000E+00  0.00000000E+00  0.00000000E+00
  0.00000000E+00  0.00000000E+00  0.00000000E+00
  0.00000000E+00  0.00000000E+00  0.00000000E+00
  0.00000000E+00  0.00000000E+00  0.00000000E+00
  0.00000000E+00  0.00000000E+00  0.00000000E+00
  0.00000000E+00  0.00000000E+00  0.00000000E+00
  0.00000000E+00  0.00000000E+00  0.00000000E+00
  0.00000000E+00  0.00000000E+00  0.00000000E+00
  0.00000000E+00  0.00000000E+00  0.00000000E+00
  0.00000000E+00  0.00000000E+00  0.00000000E+00
  0.00000000E+00  0.00000000E+00  0.00000000E+00
  0.00000000E+00  0.00000000E+00  0.00000000E+00
  0.00000000E+00  0.00000000E+00  0.00000000E+00
  0.00000000E+00  0.00000000E+00  0.00000000E+00
  0.00000000E+00  0.00000000E+00  0.00000000E+00
  0.00000000E+00  0.00000000E+00  0.00000000E+00
  0.00000000E+00  0.00000000E+00  0.00000000E+00
  0.00000000E+00  0.00000000E+00  0.00000000E+00
  0.00000000E+00  0.00000000E+00  0.00000000E+00
  0.00000000E+00  0.00000000E+00  0.00000000E+00
  0.00000000E+00  0.00000000E+00  0.00000000E+00
  0.00000000E+00  0.00000000E+00  0.00000000E+00
  0.00000000E+00  0.00000000E+00  0.00000000E+00
  0.00000000E+00  0.00000000E+00  0.00000000E+00
  0.00000000E+00  0.00000000E+00  0.00000000E+00
  0.00000000E+00  0.00000000E+00  0.00000000E+00
  0.00000000E+00  0.00000000E+00  0.00000000E+00
  0.00000000E+00  0.00000000E+00  0.00000000E+00
  0.00000000E+00  0.00000000E+00  0.00000000E+00
  0.00000000E+00  0.00000000E+00  0.00000000E+00
  0.00000000E+00  0.00000000E+00  0.00000000E+00
  0.00000000E+00  0.00000000E+00  0.00000000E+00
  0.00000000E+00  0.00000000E+00  0.00000000E+00
  0.00000000E+00  0.00000000E+00  0.00000000E+00