 N B Se 
 1.0
 14.936314146199660   0.000000000000000   0.000000000000000
 -7.468157073099825  12.935227489513863   0.000000000000000
  0.000000000000001   0.000000000000001  13.341276283792837
 N B Se 
 143 143   1
Cartesian
  1.244595684719021   0.718307314824780   1.667668610549088 
  4.977871255181875   7.185980641344233   1.657956197438147 
  6.223619407995119   0.718458883818479   1.668149631843493 
  9.957016838780760   7.186055120348850   1.668692529675363 
 11.202413166563584   0.718726261949514   1.667460740871702 
 -3.734312114574082   9.341973886091631   8.338094112424377 
  1.244627657925685   9.342325565405078   8.337807581001135 
  2.489043724666866   2.874026886565669   8.345038864149721 
  6.222983891246095   9.341754471431228   8.338080435567420 
  7.468228990539807   2.874032135015945   8.340250104312123 
 12.446930060334228   2.874604127117216   8.338186945080935 
 -1.244761946443218   9.342173554298679   1.667783373456985 
  0.000009762978325   2.874500634327942   1.667560321933915 
  4.978745374764852   2.874232592455744   1.660922805132853 
  3.733713644453342   9.342402456083414   1.665707108532411 
  8.712429015574347   9.341744464623924   1.668692529675363 
  9.957546043279592   2.874453447412633   1.667946484259364 
 -4.978891415474949  11.497703489671311   8.338122079262339 
  0.000117522758736  11.498047842475454   8.338115600524796 
  1.244116466225541   5.030304149913489   8.345038864149721 
  6.222791723064858   5.029715139588475   8.348001015406480 
  4.978737038061602  11.498003605631714   8.338010728585171 
 11.201910888314382   5.030390100261646   8.337838194232990 
 -1.245015466311283   5.030440319499329   1.667668610549088 
 -2.489364112768905  11.497887741585076   1.667783373456985 
  2.489444209685130  11.498245829370623   1.667728848581855 
  3.732852134370300   5.029658182293415   1.635902099360149 
  7.468015370896257  11.497686846583564   1.668119018611744 
  8.712302942766067   5.030127397949437   1.667876777277114 
 -0.000184097635516   7.186395429907573   8.338421638991599 
  1.244595684719021   0.718307314824780   8.338288602295540 
  4.977871255181876   7.185980641344234   8.348001015406480 
  6.223619407995120   0.718458883818479   8.337807581001135 
  9.957016838780760   7.186055120348851   8.337264683169279 
 -2.489685164634264   7.186271792697174   1.667835133582382 
 11.202413166563584   0.718726261949514   8.338496471972912 
  3.734123264089202   0.718385348321824   1.667535573853028 
  2.489145437800996   7.186346173797447   1.660922805132853 
  7.467281566643483   7.185732020286133   1.667237356836760 
  8.713109401002695   0.718541508710649   1.667728848581855 
  2.489145437800997   7.186346173797448   8.345034407711681 
 13.691716612140793   0.718570574809763   1.667770267763599 
 -1.244761946443217   9.342173554298679   8.338173839387643 
  0.000009762978325   2.874500634327943   8.338396890910619 
  4.978745374764853   2.874232592455745   8.345034407711681 
  3.733713644453343   9.342402456083414   8.340250104312123 
  8.712429015574347   9.341744464623924   8.337264683169279 
  9.957546043279592   2.874453447412634   8.338010728585171 
 -3.734312114574083   9.341973886091631   1.667863100420170 
  1.244627657925685   9.342325565405078   1.668149631843493 
  2.489043724666866   2.874026886565668   1.660918348694812 
  6.222983891246094   9.341754471431228   1.667876777277114 
  7.468228990539806   2.874032135015944   1.665707108532411 
 12.446930060334228   2.874604127117216   1.667770267763599 
 -1.245015466311282   5.030440319499330   8.338288602295540 
 -2.489364112768905  11.497887741585076   8.338173839387643 
  2.489444209685131  11.498245829370623   8.338228364262774 
  3.732852134370300   5.029658182293415   8.370055113484478 
  7.468015370896258  11.497686846583564   8.337838194232990 
 -4.978891415474950  11.497703489671311   1.667835133582382 
  8.712302942766067   5.030127397949438   8.338080435567420 
  0.000117522758735  11.498047842475454   1.667841612319833 
  1.244116466225541   5.030304149913488   1.660918348694812 
 -0.000184097635516   7.186395429907572   1.667535573853028 
  6.222791723064857   5.029715139588474   1.657956197438147 
  4.978737038061601  11.498003605631714   1.667946484259364 
 11.201910888314382   5.030390100261645   1.668119018611744 
 -2.489685164634263   7.186271792697175   8.338122079262339 
  3.734123264089203   0.718385348321825   8.338421638991599 
  7.467281566643484   7.185732020286133   8.338719856007868 
  8.713109401002695   0.718541508710649   8.338228364262774 
 13.691716612140793   0.718570574809764   8.338186945080935 
  0.032831916411706   1.459450819190797   5.002978606422314 
  3.673841514683299   8.034994626496877   5.002978606422314 
  5.014522603302788   1.359353851230548   5.002978606422314 
  8.679045633372667   7.885344330406555   5.002978606422314 
  9.989994551471110   1.438647169394018   5.002978606422314 
 -4.978868860171542  10.060673773069350  11.673616748318732 
 -0.000072919368655  10.060705523844584  11.673616748318732 
  1.244608489808038   3.593070044296191  11.673616748318732 
  4.978735765690935  10.060685197756765  11.673616748318732 
  6.223401035100991   3.593100552743512  11.673616748318732 
 11.202174913751300   3.593116862878052  11.673616748318732 
 -2.508117370289546  10.049917751783095   5.002978606422314 
 -1.209048247834204   3.610450360576709   5.002978606422314 
  3.820041765904425   3.475130426573915   5.002978606422314 
  2.465724948456357  10.122073884047198   5.002978606422314 
  7.462744070223096  10.069410892003578   5.002978606422314 
  8.752950949737054   3.571350724029581   5.002978606422314 
 -6.223538904010923  12.216530015470600  11.673616748318732 
 -1.244752660173721  12.216554074070633  11.673616748318732 
 -0.000129645487093   5.748985933168877  11.673616748318732 
  4.978788861551784   5.749000087124900  11.673616748318732 
  3.734012935584220  12.216554482894862  11.673616748318732 
  9.957506253328660   5.748973600789888  11.673616748318732 
 -2.486495018132857   5.755080969070794   5.002978606422314 
 -3.737593174837915  12.190248732458651   5.002978606422314 
  1.253076910171774  12.221444282081993   5.002978606422314 
  2.430186422796118   5.882430496008594   5.002978606422314 
  6.243352492628229  12.242460480671481   5.002978606422314 
  7.470743128780252   5.712869500478819   5.002978606422314 
 -1.244811075152334   7.904822138173857  11.673616748318732 
 -0.000062999940578   1.437178913427513  11.673616748318732 
  3.734031183544912   7.904815614468864  11.673616748318732 
  4.978721039682305   1.437172923752418  11.673616748318732 
  8.712806403747258   7.904836120270417  11.673616748318732 
 -3.757378355650484   7.897065790935565   5.002978606422314 
  9.957467305662458   1.437215315332715  11.673616748318732 
  2.509684664496561   1.422683359460746   5.002978606422314 
  1.195110578515915   7.974769533200977   5.002978606422314 
  6.193475989276720   7.925161080937115   5.002978606422314 
  7.509449905762723   1.386085998589348   5.002978606422314 
  1.244603090408601   7.904854933349422  11.673616748318732 
 12.479840000384806   1.456248988326322   5.002978606422314 
 -2.489484779480786  10.060675283102286  11.673616748318732 
 -1.244783742192042   3.593098480241910  11.673616748318732 
  3.734042966313155   3.593002495534041  11.673616748318732 
  2.489307235378879  10.060693637325192  11.673616748318732 
  7.468124619601147  10.060709069834790  11.673616748318732 
  8.712791152547654   3.593111549444621  11.673616748318732 
 -4.997172351651098  10.044451982927489   5.002978606422314 
 -0.022390906447446  10.078911417871360   5.002978606422314 
  1.297562206820056   3.623642887067739   5.002978606422314 
  4.979970236668891  10.106345015041134   5.002978606422314 
  6.306044532126061   3.475885264449873   5.002978606422314 
 11.234572336369251   3.597414119565978   5.002978606422314 
 -2.489486876645962   5.748962185968869  11.673616748318732 
 -3.734171517653142  12.216520902937429  11.673616748318732 
  1.244606260533643  12.216553750232906  11.673616748318732 
  2.489267229116626   5.749017316387448  11.673616748318732 
  6.223432247861032  12.216552118010977  11.673616748318732 
 -6.216743953147902  12.216061649396591   5.002978606422314 
  7.468136253530855   5.748992655253031  11.673616748318732 
 -1.240144886987259  12.188123183285574   5.002978606422314 
 -0.002463427950575   5.773851491716454   5.002978606422314 
 -1.269274270791904   7.914994981368203   5.002978606422314 
  3.751516580480050  12.244007977049808   5.002978606422314 
  9.962351977697022   5.739962997257787   5.002978606422314 
 -3.734178127553049   7.904806184463975  11.673616748318732 
  2.489317350346811   1.437137253634817  11.673616748318732 
  6.223456121351433   7.904841883359352  11.673616748318732 
  7.468084196272222   1.437198981504499  11.673616748318732 
 12.446879623890306   1.437219306084561  11.673616748318732 
  1.266215777342661   0.721016639184120   5.002978606422314 
  4.890999617807767   7.354003023833450   5.002978606422314 
  6.257057931719578   0.671989556658538   5.002978606422314 
  9.937786879914507   7.175808172635265   5.002978606422314 
 11.235934444009212   0.738079780506276   5.002978606422314 
 -3.734096486028343   9.342098379290437  11.673616748318732 
  1.244563765108804   9.341915877387754  11.673616748318732 
  2.489254628687292   2.874507868940710  11.673616748318732 
  6.223403993772095   9.342198317833184  11.673616748318732 
  7.467972570828629   2.874397559930479  11.673616748318732 
 12.447104585412156   2.874531541163727  11.673616748318732 
 -1.261838298312240   9.347019551999585   5.002978606422314 
  0.047549310701419   2.901947605002947   5.002978606422314 
  5.027619794403962   2.774215708748848   5.002978606422314 
  3.707829513869942   9.441847612866365   5.002978606422314 
  8.693939919109841   9.330214305588733   5.002978606422314 
 10.000172000144298   2.870092568765432   5.002978606422314 
 -4.978844326833957  11.498105906757182  11.673616748318732 
 -0.000128017912951  11.497906079502457  11.673616748318732 
  1.244638461191312   5.030246306965419  11.673616748318732 
  6.223247370226741   5.030201221281124  11.673616748318732 
  4.978756308750718  11.498063976284321  11.673616748318732 
 11.202404262796540   5.030295423531499  11.673616748318732 
 -1.231859076277189   5.047809206763917   5.002978606422314 
 -2.493705531587812  11.480676188212191   5.002978606422314 
  2.497181253956269  11.537975383538418   5.002978606422314 
  7.475526273713331  11.509217026464663   5.002978606422314 
  8.734985995383317   5.007151147997216   5.002978606422314 
 -0.000040894952768   7.186045234400447  11.673616748318732 
  1.244703343452045   0.718770309308831  11.673616748318732 
  4.978520037857115   7.186132202515004  11.673616748318732 
  6.223232661356108   0.718608395024500  11.673616748318732 
  9.957635912330478   7.186195654685513  11.673616748318732 
 -2.505773901349841   7.188708665614769   5.002978606422314 
 11.202274944458299   0.718646459379768  11.673616748318732 
  3.743627472875442   0.687493851156120   5.002978606422314 
  2.426965485523086   7.278681104653482   5.002978606422314 
  7.432091897530854   7.165415255351272   5.002978606422314 
  8.751384726328546   0.705377208515865   5.002978606422314 
  2.489126789517427   7.185903118864603  11.673616748318732 
 13.724634143940209   0.744402017606928   5.002978606422314 
 -1.244747207457749   9.341979678393807  11.673616748318732 
  0.000133145328434   2.874571869160923  11.673616748318732 
  4.978352353795961   2.874437970034846  11.673616748318732 
  3.733901901856862   9.341997677642329  11.673616748318732 
  8.712860258654853   9.342210330876471  11.673616748318732 
  9.957607961142996   2.874439950992576  11.673616748318732 
 -3.752431730872739   9.331512520743908   5.002978606422314 
  1.221103301970621   9.394518839995506   5.002978606422314 
  2.542477189413765   2.875459051479996   5.002978606422314 
  6.214427401412402   9.372886696209244   5.002978606422314 
  7.541408957305414   2.801893241984462   5.002978606422314 
 12.485759511912624   2.890195824486916   5.002978606422314 
 -1.244560671959778   5.030302057455055  11.673616748318732 
 -2.489524644734919  11.497997443873262  11.673616748318732 
  2.489292102157354  11.497922980457846  11.673616748318732 
  3.733606077233090   5.030093471408262  11.673616748318732 
  7.468180065683883  11.498161459783768  11.673616748318732 
 -4.984825389980262  11.482551798501946   5.002978606422314 
  8.712897376288545   5.030269294208159  11.673616748318732 
  0.004451728059469  11.500550197072382   5.002978606422314 
  1.272073489797207   5.075862805339360   5.002978606422314 
 -0.022184814548832   7.210072064742179   5.002978606422314 
  6.324867556017944   4.870470903509372   5.002978606422314 
  4.996273384802648  11.537099206460782   5.002978606422314 
 11.215651768410208   5.031129642965947   5.002978606422314 
 -2.489313116894480   7.186111364113556  11.673616748318732 
  3.733891587225063   0.718684463236628  11.673616748318732 
  7.468128679929938   7.186221101370112  11.673616748318732 
  8.712753751878749   0.718571204183890  11.673616748318732 
 13.691741013399964   0.718758010937786  11.673616748318732 
  0.000373789700497   1.437561143628608   1.668013966772066 
  3.732379652590144   7.904912964446960   1.660375875024941 
  4.978397485780596   1.437136692557281   1.666913693823328 
  8.712656968856932   7.904749843996399   1.667531359484787 
  9.957729842432455   1.437073944878895   1.667550125224909 
 -4.978757046583094  10.060876618570308   8.338198733366287 
 -0.000058914902045  10.060754587031170   8.338179107097581 
  1.245165527254978   3.593391650016079   8.341234988098059 
  4.978072815586556  10.061036643069786   8.339402242695064 
  6.222659577177704   3.591621609992488   8.345581337819794 
 11.202528615217400   3.593000006875577   8.338189764265543 
 -2.489307918392282  10.060777393899341   1.667584605917775 
 -1.244234326307271   3.593285636066655   1.668013966772066 
  3.732893520805848   3.592869379455295   1.657289071647699 
  2.488896342867790  10.061011430427031   1.667184111253063 
  7.467874915317650  10.060874974313469   1.667682190713144 
  8.712764038064478   3.592361695156457   1.666554970149563 
 -6.223441103012424  12.216954646946011   8.337997991167311 
 -1.244703167974447  12.216541670701201   8.338179107097581 
  0.000421820619764   5.748665450285176   8.338416350006302 
  4.976029897171983   5.747407198297588   8.357291551155537 
  3.734021773564718  12.216852531634272   8.338407087619627 
  9.957525078680007   5.748674398297684   8.338275022131576 
 -2.489070234501812   5.748834568380469   1.667959221677224 
 -3.734097357280015  12.216869815001747   1.667874010365614 
  1.244711316855623  12.216614404528853   1.667684796978521 
  2.488577224457075   5.748088425417317   1.657289071647699 
  6.223507898327292  12.216916860467318   1.667767448579084 
  7.467467218690006   5.748205624279549   1.662747550849074 
 -1.244471828254382   7.904711906908779   8.338083202478920 
  0.000373789700497   1.437561143628608   8.337943246072642 
  3.732379652590145   7.904912964446961   8.345581337819794 
  4.978397485780597   1.437136692557282   8.339043519021299 
  8.712656968856932   7.904749843996400   8.338425853359855 
 -3.733946551402003   7.904801595121668   1.667758479478341 
  9.957729842432455   1.437073944878896   8.338407087619627 
  2.489315537081424   1.437775078734622   1.667540862838326 
  1.244409936322349   7.904592843048617   1.666913693823328 
  6.222440015114355   7.904655997678172   1.662747550849074 
  7.468153966915912   1.436684241600932   1.667184111253063 
  1.244409936322349   7.904592843048618   8.339043519021299 
 12.447236185388009   1.437425166961182   1.667630959759972 
 -2.489307918392281  10.060777393899341   8.338372606926946 
 -1.244234326307271   3.593285636066656   8.337943246072642 
  3.732893520805849   3.592869379455295   8.348668141196848 
  2.488896342867790  10.061011430427031   8.338773101591565 
  7.467874915317651  10.060874974313469   8.338275022131576 
  8.712764038064478   3.592361695156458   8.339402242695064 
 -4.978757046583095  10.060876618570308   1.667758479478341 
 -0.000058914902046  10.060754587031170   1.667778105747046 
  1.245165527254978   3.593391650016078   1.664722224746475 
  4.978072815586555  10.061036643069786   1.666554970149563 
  6.222659577177703   3.591621609992488   1.660375875024941 
 11.202528615217400   3.593000006875576   1.667767448579084 
 -2.489070234501811   5.748834568380470   8.337997991167311 
 -3.734097357280015  12.216869815001747   8.338083202478920 
  1.244711316855624  12.216614404528853   8.338272415866026 
  2.488577224457075   5.748088425417318   8.348668141196848 
  6.223507898327293  12.216916860467318   8.338189764265543 
 -6.223441103012425  12.216954646946011   1.667959221677224 
  7.467467218690111   5.748205624279549   8.343209661995459 
 -1.244703167974447  12.216541670701201   1.667778105747046 
  0.000421820619764   5.748665450285175   1.667540862838326 
 -1.244471828254383   7.904711906908778   1.667874010365614 
  4.976029897171983   5.747407198297587   1.648665661689182 
  3.734021773564717  12.216852531634272   1.667550125224909 
  9.957525078680007   5.748674398297683   1.667682190713144 
 -3.733946551402003   7.904801595121669   8.338198733366287 
  2.489315537081425   1.437775078734623   8.338416350006302 
  6.222440015114356   7.904655997678173   8.343209661995459 
  7.468153966915913   1.436684241600933   8.338773101591565 
 12.447236185388009   1.437425166961182   8.338326253084656 
  4.477762499812849   5.459732382303886   5.002978606422314 
Generated by cif2cell 2.0.0.  :  Failed to get author information, No journal information. Species order: N B Se 
 1.0
 14.936314146199660   0.000000000000000   0.000000000000000
 -7.468157073099825  12.935227489513863   0.000000000000000
  0.000000000000001   0.000000000000001  13.341276283792837
 N B Se 
 143 143   1
Cartesian
  1.244595684719021   0.718307314824780   1.667668610549088 
  4.977871255181875   7.185980641344233   1.657956197438147 
  6.223619407995119   0.718458883818479   1.668149631843493 
  9.957016838780760   7.186055120348850   1.668692529675363 
 11.202413166563584   0.718726261949514   1.667460740871702 
 -3.734312114574082   9.341973886091631   8.338094112424377 
  1.244627657925685   9.342325565405078   8.337807581001135 
  2.489043724666866   2.874026886565669   8.345038864149721 
  6.222983891246095   9.341754471431228   8.338080435567420 
  7.468228990539807   2.874032135015945   8.340250104312123 
 12.446930060334228   2.874604127117216   8.338186945080935 
 -1.244761946443218   9.342173554298679   1.667783373456985 
  0.000009762978325   2.874500634327942   1.667560321933915 
  4.978745374764852   2.874232592455744   1.660922805132853 
  3.733713644453342   9.342402456083414   1.665707108532411 
  8.712429015574347   9.341744464623924   1.668692529675363 
  9.957546043279592   2.874453447412633   1.667946484259364 
 -4.978891415474949  11.497703489671311   8.338122079262339 
  0.000117522758736  11.498047842475454   8.338115600524796 
  1.244116466225541   5.030304149913489   8.345038864149721 
  6.222791723064858   5.029715139588475   8.348001015406480 
  4.978737038061602  11.498003605631714   8.338010728585171 
 11.201910888314382   5.030390100261646   8.337838194232990 
 -1.245015466311283   5.030440319499329   1.667668610549088 
 -2.489364112768905  11.497887741585076   1.667783373456985 
  2.489444209685130  11.498245829370623   1.667728848581855 
  3.732852134370300   5.029658182293415   1.635902099360149 
  7.468015370896257  11.497686846583564   1.668119018611744 
  8.712302942766067   5.030127397949437   1.667876777277114 
 -0.000184097635516   7.186395429907573   8.338421638991599 
  1.244595684719021   0.718307314824780   8.338288602295540 
  4.977871255181876   7.185980641344234   8.348001015406480 
  6.223619407995120   0.718458883818479   8.337807581001135 
  9.957016838780760   7.186055120348851   8.337264683169279 
 -2.489685164634264   7.186271792697174   1.667835133582382 
 11.202413166563584   0.718726261949514   8.338496471972912 
  3.734123264089202   0.718385348321824   1.667535573853028 
  2.489145437800996   7.186346173797447   1.660922805132853 
  7.467281566643483   7.185732020286133   1.667237356836760 
  8.713109401002695   0.718541508710649   1.667728848581855 
  2.489145437800997   7.186346173797448   8.345034407711681 
 13.691716612140793   0.718570574809763   1.667770267763599 
 -1.244761946443217   9.342173554298679   8.338173839387643 
  0.000009762978325   2.874500634327943   8.338396890910619 
  4.978745374764853   2.874232592455745   8.345034407711681 
  3.733713644453343   9.342402456083414   8.340250104312123 
  8.712429015574347   9.341744464623924   8.337264683169279 
  9.957546043279592   2.874453447412634   8.338010728585171 
 -3.734312114574083   9.341973886091631   1.667863100420170 
  1.244627657925685   9.342325565405078   1.668149631843493 
  2.489043724666866   2.874026886565668   1.660918348694812 
  6.222983891246094   9.341754471431228   1.667876777277114 
  7.468228990539806   2.874032135015944   1.665707108532411 
 12.446930060334228   2.874604127117216   1.667770267763599 
 -1.245015466311282   5.030440319499330   8.338288602295540 
 -2.489364112768905  11.497887741585076   8.338173839387643 
  2.489444209685131  11.498245829370623   8.338228364262774 
  3.732852134370300   5.029658182293415   8.370055113484478 
  7.468015370896258  11.497686846583564   8.337838194232990 
 -4.978891415474950  11.497703489671311   1.667835133582382 
  8.712302942766067   5.030127397949438   8.338080435567420 
  0.000117522758735  11.498047842475454   1.667841612319833 
  1.244116466225541   5.030304149913488   1.660918348694812 
 -0.000184097635516   7.186395429907572   1.667535573853028 
  6.222791723064857   5.029715139588474   1.657956197438147 
  4.978737038061601  11.498003605631714   1.667946484259364 
 11.201910888314382   5.030390100261645   1.668119018611744 
 -2.489685164634263   7.186271792697175   8.338122079262339 
  3.734123264089203   0.718385348321825   8.338421638991599 
  7.467281566643484   7.185732020286133   8.338719856007868 
  8.713109401002695   0.718541508710649   8.338228364262774 
 13.691716612140793   0.718570574809764   8.338186945080935 
  0.032831916411706   1.459450819190797   5.002978606422314 
  3.673841514683299   8.034994626496877   5.002978606422314 
  5.014522603302788   1.359353851230548   5.002978606422314 
  8.679045633372667   7.885344330406555   5.002978606422314 
  9.989994551471110   1.438647169394018   5.002978606422314 
 -4.978868860171542  10.060673773069350  11.673616748318732 
 -0.000072919368655  10.060705523844584  11.673616748318732 
  1.244608489808038   3.593070044296191  11.673616748318732 
  4.978735765690935  10.060685197756765  11.673616748318732 
  6.223401035100991   3.593100552743512  11.673616748318732 
 11.202174913751300   3.593116862878052  11.673616748318732 
 -2.508117370289546  10.049917751783095   5.002978606422314 
 -1.209048247834204   3.610450360576709   5.002978606422314 
  3.820041765904425   3.475130426573915   5.002978606422314 
  2.465724948456357  10.122073884047198   5.002978606422314 
  7.462744070223096  10.069410892003578   5.002978606422314 
  8.752950949737054   3.571350724029581   5.002978606422314 
 -6.223538904010923  12.216530015470600  11.673616748318732 
 -1.244752660173721  12.216554074070633  11.673616748318732 
 -0.000129645487093   5.748985933168877  11.673616748318732 
  4.978788861551784   5.749000087124900  11.673616748318732 
  3.734012935584220  12.216554482894862  11.673616748318732 
  9.957506253328660   5.748973600789888  11.673616748318732 
 -2.486495018132857   5.755080969070794   5.002978606422314 
 -3.737593174837915  12.190248732458651   5.002978606422314 
  1.253076910171774  12.221444282081993   5.002978606422314 
  2.430186422796118   5.882430496008594   5.002978606422314 
  6.243352492628229  12.242460480671481   5.002978606422314 
  7.470743128780252   5.712869500478819   5.002978606422314 
 -1.244811075152334   7.904822138173857  11.673616748318732 
 -0.000062999940578   1.437178913427513  11.673616748318732 
  3.734031183544912   7.904815614468864  11.673616748318732 
  4.978721039682305   1.437172923752418  11.673616748318732 
  8.712806403747258   7.904836120270417  11.673616748318732 
 -3.757378355650484   7.897065790935565   5.002978606422314 
  9.957467305662458   1.437215315332715  11.673616748318732 
  2.509684664496561   1.422683359460746   5.002978606422314 
  1.195110578515915   7.974769533200977   5.002978606422314 
  6.193475989276720   7.925161080937115   5.002978606422314 
  7.509449905762723   1.386085998589348   5.002978606422314 
  1.244603090408601   7.904854933349422  11.673616748318732 
 12.479840000384806   1.456248988326322   5.002978606422314 
 -2.489484779480786  10.060675283102286  11.673616748318732 
 -1.244783742192042   3.593098480241910  11.673616748318732 
  3.734042966313155   3.593002495534041  11.673616748318732 
  2.489307235378879  10.060693637325192  11.673616748318732 
  7.468124619601147  10.060709069834790  11.673616748318732 
  8.712791152547654   3.593111549444621  11.673616748318732 
 -4.997172351651098  10.044451982927489   5.002978606422314 
 -0.022390906447446  10.078911417871360   5.002978606422314 
  1.297562206820056   3.623642887067739   5.002978606422314 
  4.979970236668891  10.106345015041134   5.002978606422314 
  6.306044532126061   3.475885264449873   5.002978606422314 
 11.234572336369251   3.597414119565978   5.002978606422314 
 -2.489486876645962   5.748962185968869  11.673616748318732 
 -3.734171517653142  12.216520902937429  11.673616748318732 
  1.244606260533643  12.216553750232906  11.673616748318732 
  2.489267229116626   5.749017316387448  11.673616748318732 
  6.223432247861032  12.216552118010977  11.673616748318732 
 -6.216743953147902  12.216061649396591   5.002978606422314 
  7.468136253530855   5.748992655253031  11.673616748318732 
 -1.240144886987259  12.188123183285574   5.002978606422314 
 -0.002463427950575   5.773851491716454   5.002978606422314 
 -1.269274270791904   7.914994981368203   5.002978606422314 
  3.751516580480050  12.244007977049808   5.002978606422314 
  9.962351977697022   5.739962997257787   5.002978606422314 
 -3.734178127553049   7.904806184463975  11.673616748318732 
  2.489317350346811   1.437137253634817  11.673616748318732 
  6.223456121351433   7.904841883359352  11.673616748318732 
  7.468084196272222   1.437198981504499  11.673616748318732 
 12.446879623890306   1.437219306084561  11.673616748318732 
  1.266215777342661   0.721016639184120   5.002978606422314 
  4.890999617807767   7.354003023833450   5.002978606422314 
  6.257057931719578   0.671989556658538   5.002978606422314 
  9.937786879914507   7.175808172635265   5.002978606422314 
 11.235934444009212   0.738079780506276   5.002978606422314 
 -3.734096486028343   9.342098379290437  11.673616748318732 
  1.244563765108804   9.341915877387754  11.673616748318732 
  2.489254628687292   2.874507868940710  11.673616748318732 
  6.223403993772095   9.342198317833184  11.673616748318732 
  7.467972570828629   2.874397559930479  11.673616748318732 
 12.447104585412156   2.874531541163727  11.673616748318732 
 -1.261838298312240   9.347019551999585   5.002978606422314 
  0.047549310701419   2.901947605002947   5.002978606422314 
  5.027619794403962   2.774215708748848   5.002978606422314 
  3.707829513869942   9.441847612866365   5.002978606422314 
  8.693939919109841   9.330214305588733   5.002978606422314 
 10.000172000144298   2.870092568765432   5.002978606422314 
 -4.978844326833957  11.498105906757182  11.673616748318732 
 -0.000128017912951  11.497906079502457  11.673616748318732 
  1.244638461191312   5.030246306965419  11.673616748318732 
  6.223247370226741   5.030201221281124  11.673616748318732 
  4.978756308750718  11.498063976284321  11.673616748318732 
 11.202404262796540   5.030295423531499  11.673616748318732 
 -1.231859076277189   5.047809206763917   5.002978606422314 
 -2.493705531587812  11.480676188212191   5.002978606422314 
  2.497181253956269  11.537975383538418   5.002978606422314 
  7.475526273713331  11.509217026464663   5.002978606422314 
  8.734985995383317   5.007151147997216   5.002978606422314 
 -0.000040894952768   7.186045234400447  11.673616748318732 
  1.244703343452045   0.718770309308831  11.673616748318732 
  4.978520037857115   7.186132202515004  11.673616748318732 
  6.223232661356108   0.718608395024500  11.673616748318732 
  9.957635912330478   7.186195654685513  11.673616748318732 
 -2.505773901349841   7.188708665614769   5.002978606422314 
 11.202274944458299   0.718646459379768  11.673616748318732 
  3.743627472875442   0.687493851156120   5.002978606422314 
  2.426965485523086   7.278681104653482   5.002978606422314 
  7.432091897530854   7.165415255351272   5.002978606422314 
  8.751384726328546   0.705377208515865   5.002978606422314 
  2.489126789517427   7.185903118864603  11.673616748318732 
 13.724634143940209   0.744402017606928   5.002978606422314 
 -1.244747207457749   9.341979678393807  11.673616748318732 
  0.000133145328434   2.874571869160923  11.673616748318732 
  4.978352353795961   2.874437970034846  11.673616748318732 
  3.733901901856862   9.341997677642329  11.673616748318732 
  8.712860258654853   9.342210330876471  11.673616748318732 
  9.957607961142996   2.874439950992576  11.673616748318732 
 -3.752431730872739   9.331512520743908   5.002978606422314 
  1.221103301970621   9.394518839995506   5.002978606422314 
  2.542477189413765   2.875459051479996   5.002978606422314 
  6.214427401412402   9.372886696209244   5.002978606422314 
  7.541408957305414   2.801893241984462   5.002978606422314 