 As N B 
 1.0
 17.527899999999772   0.000000000000000   0.000000000000000
 -8.763949999999658  15.179606674993195   0.000000000000000
  0.000000000000001   0.000000000000002  15.000000000000000
 As N B 
   1  48  48
Cartesian
  4.245891957508434   7.668391372694919   1.674655632762705 
  8.769164536818963  13.752874980301712   1.664969804618370 
 16.261275631993854   0.731300106872995   1.665081904164240 
 14.999527200510714   2.897673314597828   1.665266684212440 
 13.748519245148621   5.067855648348214   1.664789862945225 
 12.511208401029691   7.235995226731254   1.664374206184710 
 11.277655837238251   9.404853784068917   1.665532647006885 
 10.030851829227412  11.579350107386823   1.665789645897270 
 -6.253628105778024  13.730285840654231   1.664669164679310 
  1.238205446735870   0.708871206555553   1.664969804618370 
 -0.031146606450431   2.872538512126304   1.664973937168755 
 -1.277090875639153   5.055029479459992   1.664854782727260 
 -2.502502280690313   7.228183048986504   1.665055422260265 
 -3.743463203234968   9.395333460764970   1.665240870308325 
 -4.994522724300311  11.563285077468290   1.664785733297325 
 -3.747397704099734  13.723368975845768   1.664785733297325 
  3.751376848641863   0.702980396155220   1.665789645897270 
  2.466121475257734   2.840432738247543   1.665285790059600 
  1.200002166462532   5.008499291948660   1.664743892256900 
  0.013116825745908   7.213393965887948   1.665220744704855 
 -1.229807339003829   9.387596840808706   1.665998110495320 
 -2.488527390287196  11.556503929039582   1.665396156367905 
 -1.244366769326584  13.723895457308410   1.665240870308325 
  6.257947909076299   0.710464613336509   1.665532647006885 
  4.989493894101558   2.862718355253809   1.665375414273345 
  3.678385241667427   4.958552133876383   1.664238095421135 
  2.491709085108670   7.121872480363210   1.664641284022635 
  1.293735390303286   9.372813494519667   1.665828127537950 
  0.019161272210460  11.550873932490736   1.665998110495320 
  1.252921002350248  13.732766979170178   1.665055422260265 
  8.753010798824143   0.726606034858491   1.664374206184710 
  7.485389974597664   2.898929171887188   1.664716133867385 
  6.203184784105908   5.075671232527444   1.664794952562285 
  3.842094338368225   9.460808348830874   1.664641284022635 
  2.523538277230291  11.561571468300267   1.665220744704855 
  3.747632902410603  13.758106357071910   1.664854782727260 
 11.249330174713812   0.739133200665028   1.664789862945225 
  9.984414382625658   2.911383422021795   1.664940430598490 
  8.712739943373883   5.089449218675085   1.665032813031135 
  7.469894449756756   7.269676731873294   1.664794952562285 
  6.308922793228959   9.514776824429104   1.664238095421135 
  5.026475747889009  11.636145948829913   1.664743892256900 
  6.260697658263617  13.770332451921631   1.664973937168755 
 13.754267184284464   0.740819697860166   1.665266684212440 
 12.492904573941125   2.906970151646077   1.665685236391170 
 11.234837474033066   5.077179747266309   1.664940430598490 
  9.996110967020748   7.247625494363257   1.664716133867385 
  8.779522413860249   9.427240313610815   1.665375414273345 
  7.537136114904730  11.623687740041808   1.665285790059600 
  7.514759692183809  14.477039114133326   1.665209528031750 
 15.007358581957602   1.455255720183761   1.665419977975170 
 13.748286440675820   3.623155572973506   1.665626513051655 
 12.498681087394816   5.792188643317132   1.664736218286705 
 11.266561802488212   7.962979534252494   1.664974659843720 
 10.041691968163672  10.140234935271273   1.666220854630950 
  8.791689732142896  12.322961607257445   1.665740669015655 
 -7.506275000526312  14.453508129467743   1.664985749494890 
 -0.016136084667825   1.433145002120389   1.665209528031750 
 -1.278322410244012   3.609009663980859   1.665185658971805 
 -2.524751265459027   5.784168036240803   1.665046191120705 
 -3.755118626391794   7.952885383298709   1.665017287563135 
 -4.990708046023892  10.119737783328796   1.665591446091720 
 -6.242007291722901  12.290805548041984   1.665299025893310 
 -5.001185769779717  14.439971467172484   1.665299025893310 
  2.487814777986878   1.404329902098247   1.665740669015655 
  1.213494003644028   3.566981669866285   1.665297601636770 
 -0.031666527311954   5.765907137455196   1.665158153703555 
 -1.245269790963075   7.944384753960801   1.665807398306055 
 -2.487835494004255  10.113386738787229   1.665898413459465 
 -3.741516055712214  12.279923539245244   1.664902568667285 
 -2.495371736672524  14.441848415017407   1.665591446091720 
  5.003112643472551   1.413159546909965   1.666220854630950 
  3.712809035668135   3.517916211281664   1.665128800101945 
  2.430774240069485   5.692519173878499   1.664915545815780 
  1.270585795815092   7.929219499339081   1.665598695897720 
  0.023774029825501  10.106032294793048   1.666497440068275 
 -1.238399867410296  12.277472724804348   1.665898413459465 
 -0.000992374840276  14.455222788983745   1.665017287563135 
  7.501106048443986   1.441018854565013   1.664974659843720 
  6.231055245891255   3.593627567248110   1.665055849868940 
  4.900668719963106   5.610154238309286   1.665319616333040 
  2.532355092966425  10.114668029435654   1.665598695897720 
  1.261293803828815  12.285880252512621   1.665807398306055 
  2.492355621788823  14.474052071957669   1.665046191120705 
  9.997125748733728   1.459367698810820   1.664736218286705 
  8.733583935255798   3.629899133055970   1.665235462587420 
  7.467167815303002   5.808586889053081   1.664902956090645 
  6.355765984108782   8.130456629794198   1.665319616333040 
  5.049488617578002  10.228265526264455   1.664915545815780 
  3.754712393106601  12.324107804327811   1.665158153703555 
  4.999312457027852  14.482192205461443   1.665185658971805 
 12.500366165940386   1.461694253336219   1.665626513051655 
 11.241363721072153   3.629553866882841   1.665800507738010 
  9.987174818887002   5.801182235410374   1.665235462587420 
  8.767322571620708   7.986571437018464   1.665055849868940 
  7.573767424131069  10.205292306038814   1.665128800101945 
  6.281617974545171  12.345229886524614   1.665297601636770 
