 B N C 
 1.0
 17.527899999999772   0.000000000000000   0.000000000000000
 -8.763949999999658  15.179606674993195   0.000000000000000
  0.000000000000001   0.000000000000002  15.000000000000000
 B N C 
  48  48   2
Cartesian
  7.510771215267436  14.456452319492850   1.665146294474040 
 15.023849540015805   1.445732107646878   1.665663133937160 
 13.772516433909455   3.614255764601077   1.665763995262965 
 12.521427252517189   5.782754559142449   1.664926577085345 
 11.274427567020787   7.952109543593664   1.664992224571080 
 10.022413232172131  10.123090930818913   1.666051672235235 
  8.768208636860280  12.295019140799811   1.665896660461455 
 -7.512158886335328  14.456902166317043   1.665075088697970 
 -0.000304369057888   1.446887679417456   1.665146312324085 
 -1.251442991854759   3.615116063061685   1.664985109916250 
 -2.502777633086271   5.782740390326762   1.665264080552985 
 -3.753352637264639   7.951299532430204   1.665096763922010 
 -5.004754369502817  10.119737783328796   1.665237136147110 
 -6.257599011311474  12.289405418274020   1.664837050242960 
 -5.007771598589034  14.454170271611474   1.664836997202825 
  2.500270101054207   1.438632144381758   1.665896629546440 
  1.254060747928045   3.618252063355492   1.665243108603165 
 -0.000197692059872   5.784650668705577   1.665164692157685 
 -1.252073483793069   7.951630694512639   1.666196350534770 
 -2.504724677084535  10.119737783328796   1.666169015603040 
 -3.755197267031060  12.287818495620925   1.664992250881755 
 -2.502391569539467  14.454007122203594   1.665237092902140 
  5.008318164302796   1.438423152002881   1.666051657175280 
  3.747967163962985   3.594186664139901   1.666160605574100 
  2.512192389314968   5.792767162075896   1.665171579897195 
  1.242978770035432   7.959335652088490   1.665924276991050 
 -0.006136363386708  10.123299058737556   1.666749450735135 
 -1.252377102178390  12.288918554537984   1.666168988873070 
  0.001261160182153  14.454479799610988   1.665096843362040 
  7.514450431444263   1.439636555207752   1.664992434871125 
  6.263441055094893   3.600545600453455   1.665627965208555 
  4.997666501352676   5.732597075332935   1.663409486575905 
  2.492467374328600  10.123514408010607   1.665924272056005 
  1.251614361163795  12.288146548191095   1.666196350159710 
  2.504576544514208  14.455731716277052   1.665264121548045 
 10.016666191906094   1.444379801561586   1.664926685355315 
  8.764260464618097   3.612568601921554   1.665280251777255 
  7.511107175643586   5.783216241790505   1.664548531077540 
  6.298224613006166   7.985226816962481   1.663409483965830 
  5.003377724580663  10.107624921624137   1.665171543687225 
  3.754211497531235  12.287479317938109   1.665164664632715 
  5.007461027852001  14.455856603544003   1.664985145226250 
 12.520185919911748   1.445155325365489   1.665763987822950 
 11.268365398449722   3.613960413878832   1.665853783179615 
 10.017519300569528   5.783276345449010   1.665280153122300 
  8.777523801792748   7.955061703983292   1.665627856698555 
  7.525293150188458  10.136704258730923   1.666160628959025 
  6.257496609602208  12.284457432062901   1.665243123903240 
  8.764344930148276  13.737704633355541   1.665134589870585 
 16.275158317746914   0.723288154728186   1.665077085034875 
 15.024648638250053   2.891715516262232   1.665372100436655 
 13.773303218539279   5.059868891664398   1.665076702951245 
 12.524303936440358   7.227994788214705   1.664279797730490 
 11.272544468658452   9.397783778592677   1.665136602992175 
 10.019067839911123  11.568732870043606   1.665454951704525 
 -6.259891800621610  13.733905866651591   1.664367410095890 
  1.248936190931430   0.720635208762386   1.665134747475615 
  0.001367899911619   2.895078181053423   1.664632411458615 
 -1.249791599555536   5.059868891664398   1.664778241697445 
 -2.501657032961866   7.228039155938230   1.665295806770940 
 -3.754617628405068   9.396512516176033   1.665257401040715 
 -5.006256963962780  11.565706318600343   1.664616696134745 
 -3.755359217967074  13.732324306821003   1.664616682289715 
  3.754682342395826   0.718499947918502   1.665454798599480 
  2.496268501642225   2.880432338481516   1.665823769109585 
  1.257886394390291   5.072234722273384   1.664979684379050 
  0.000704878636437   7.228545471862429   1.665494390673570 
 -1.254232426169898   9.397193983493446   1.666280473543740 
 -2.503788726976251  11.565317570773246   1.665589039998585 
 -1.250962777300824  13.732969304426966   1.665257261780685 
  6.261518340662366   0.718429666240899   1.665136686392235 
  5.007417946561826   2.881024724824171   1.666140892726455 
  3.744307457014236   5.028988191834906   1.664948487682710 
  2.506567126942215   7.258607213748095   1.664992948776960 
  1.242598674433845   9.402340862619843   1.666435425242130 
 -0.001359689279537  11.567235043247706   1.666280576773695 
  1.253471288080907  13.732113008912323   1.665295885790925 
  8.766490371329635   0.719267346132779   1.664280067685430 
  7.515804799053676   2.883534971786666   1.665222854658570 
  6.262609404709458   5.042536648537445   1.664092372465140 
  3.731109286371596   9.379575028744627   1.664993001771915 
  2.504212972233546  11.564751018143175   1.665494315268615 
  3.757063563968314  13.732050586598971   1.664778222272445 
 11.268611935069506   0.721667164340018   1.665076743616215 
 10.016357736256518   2.890635060675645   1.665246496306245 
  8.763949999999962   5.059868891664398   1.665051867353565 
  7.528308224867470   7.234786456478488   1.664092299820095 
  6.280889220635314   9.422472219990743   1.664948507302755 
  5.000222718307533  11.554152785496090   1.664979612604035 
  6.257437233610410  13.730908876482022   1.664632436553645 
 13.771990615472467   0.722048580900076   1.665372152426640 
 12.520560393365898   2.891005642581095   1.665732234918915 
 11.268794013613380   5.059868891664398   1.665246413566245 
 10.024653040832067   7.228987382329931   1.665222564723570 
  8.772635164836061   9.402569743682010   1.666140883276425 
  7.517572114112960  11.577584277801583   1.665823840389525 
  3.701405132540947   7.982746105352144   1.669346676964275 
  4.972806785150440   7.248704196018956   1.663312777084980 
