Sb B N                                  
   1.0000000000000000     
     8.7639499999999995  -15.1796066749929999    0.0000000000000000
     8.7639499999999995   15.1796066749929999    0.0000000000000000
     0.0000000000000000    0.0000000000000000   15.0000000000000000
   Sb   B    N 
     1    49    47
Selective dynamics
Direct
  0.5210912135683103  0.4929429815176483  0.1110804503087667   T   T   T
  0.9059264429167820  0.9530108254260302  0.1110271772235765   T   T   T
  0.9032199564455711  0.0936549901409825  0.1110794667539867   T   T   T
  0.9028253144857379  0.2360277048930425  0.1110960819227107   T   T   T
  0.9038692161266253  0.3792917557340372  0.1110883234006646   T   T   T
  0.9079035027042187  0.5236620685932108  0.1111692037907632   T   T   T
  0.9107115698178765  0.6686039423820247  0.1111339208665522   T   T   T
  0.9106756493032758  0.8133085109218831  0.1110590435471722   T   T   T
  0.0494159384113680  0.9534614452880621  0.1110565225873896   T   T   T
  0.0470052832476501  0.0949727662139641  0.1110538761408757   T   T   T
  0.0450220365414311  0.2363915287372255  0.1110372979803982   T   T   T
  0.0447780792925051  0.3791106488660996  0.1110412693236056   T   T   T
  0.0465565214509632  0.5230443376955660  0.1110988247571866   T   T   T
  0.0493012326127229  0.6672952287920431  0.1111202563763709   T   T   T
  0.0505451450266684  0.8109653757326909  0.1110929976819995   T   T   T
  0.1915728759181158  0.9527544981284793  0.1109733791676468   T   T   T
  0.1890761200255087  0.0938480242295791  0.1110270595776739   T   T   T
  0.1883258348328860  0.2375660350770277  0.1110246868904508   T   T   T
  0.1860031859985974  0.3792581858602586  0.1109823476711297   T   T   T
  0.1855083819212529  0.5227084673385322  0.1110291353656589   T   T   T
  0.1884743593297794  0.6666747374623189  0.1110987962960192   T   T   T
  0.1914241881490004  0.8100556633856534  0.1109505792195666   T   T   T
  0.3337327577890951  0.9520499257945585  0.1108099489632869   T   T   T
  0.3331742824550858  0.0943729721752561  0.1109698719505023   T   T   T
  0.3278132130021493  0.2333873612393748  0.1110662458605561   T   T   T
  0.3302218526525850  0.3833889613115345  0.1111545679181138   T   T   T
  0.3236784893896050  0.5225149708591631  0.1110214253986157   T   T   T
  0.3273723993714056  0.6665114415776838  0.1109951557371115   T   T   T
  0.3328851947555739  0.8094049077540314  0.1108808113840977   T   T   T
  0.4758866495105881  0.9502667637675531  0.1106390987809523   T   T   T
  0.4761048601234666  0.0931560568517867  0.1108440968113123   T   T   T
  0.4757949914999945  0.2347825627659834  0.1110248710145399   T   T   T
  0.4640753213420830  0.3637748842442016  0.1112305332466822   T   T   T
  0.4791266986629163  0.5775830711587837  0.1113537599323149   T   T   T
  0.4654233508222679  0.6602747068690763  0.1110798525186088   T   T   T
  0.4747982747706456  0.8062869973729654  0.1108498299592420   T   T   T
  0.6179090038452795  0.9494675218936749  0.1108222558449953   T   T   T
  0.6184280320725469  0.0930543727028303  0.1108684929008353   T   T   T
  0.6190418019210852  0.2364511342288251  0.1110065930930971   T   T   T
  0.6207659290246988  0.3806966360924166  0.1110949128195616   T   T   T
  0.6468258998316733  0.5368741363373848  0.1112023331811209   T   T   T
  0.6304042274608121  0.6692519101454377  0.1112186619668577   T   T   T
  0.6170063744414839  0.8053181439356863  0.1109796244307694   T   T   T
  0.7607264891823664  0.9503912203595799  0.1110051337397598   T   T   T
  0.7604849470434897  0.0929710095345546  0.1110584875199865   T   T   T
  0.7610131981127444  0.2360438287799995  0.1110676792644864   T   T   T
  0.7628039590727357  0.3796322632538619  0.1110846508763325   T   T   T
  0.7707761082661351  0.5248921277426639  0.1111030179018397   T   T   T
  0.7762771338406192  0.6744775800851406  0.1110641985829605   T   T   T
  0.7654904699499168  0.8111458688710776  0.1109594616850197   T   T   T
  0.9554631625770597  0.9072717422248898  0.1110288303707971   T   T   T
  0.9521101917306719  0.0475463942348854  0.1110334470649537   T   T   T
  0.9500786098728498  0.1884832646904053  0.1110631876477075   T   T   T
  0.9500581605642080  0.3309996471112103  0.1110582876375782   T   T   T
  0.9525092130927625  0.4745498602869272  0.1111165695857162   T   T   T
  0.9555177221039677  0.6191681541988157  0.1111710240814649   T   T   T
  0.9566209280880764  0.7639468729695984  0.1111354892022028   T   T   T
  0.0969729661327772  0.9057945052352381  0.1110318616271663   T   T   T
  0.0948000334524098  0.0474778947831968  0.1110479734738058   T   T   T
  0.0931793594984210  0.1895530854152276  0.1110239651272053   T   T   T
  0.0911490395009772  0.3309146361157162  0.1110014215916809   T   T   T
  0.0913452169845038  0.4741678137109120  0.1110383361882313   T   T   T
  0.0942275527950102  0.6184333484074772  0.1110857070764197   T   T   T
  0.0968478131956836  0.7625638186368141  0.1110355882736907   T   T   T
  0.2388240117279873  0.9050363551179811  0.1108661712956836   T   T   T
  0.2380205983081493  0.0472796282727700  0.1109829518647469   T   T   T
  0.2338735914530624  0.1874424099338368  0.1109914846764377   T   T   T
  0.2341222192933608  0.3323515443714180  0.1110001374762252   T   T   T
  0.2296599936685700  0.4736156006270840  0.1109390284050290   T   T   T
  0.2328384251041484  0.6180380466481439  0.1110727436792009   T   T   T
  0.2376628722278053  0.7620279665366076  0.1109821935408809   T   T   T
  0.3808728962942599  0.9043958148910324  0.1106747942567825   T   T   T
  0.3810316418495457  0.0468111328788400  0.1108474234310824   T   T   T
  0.3797186403874013  0.1886680272715611  0.1109929754493426   T   T   T
  0.3712971236168509  0.3259554943122651  0.1111958490756317   T   T   T
  0.3716947814253747  0.4784607442460480  0.1111648546667976   T   T   T
  0.3702082433683717  0.6180842719486277  0.1109135348266629   T   T   T
  0.3791216548466858  0.7617314481908399  0.1109366012860516   T   T   T
  0.5229002007154037  0.9022510037974701  0.1106488876566266   T   T   T
  0.5234977352061584  0.0454978699296428  0.1106826141657017   T   T   T
  0.5238080980551797  0.1878537750015522  0.1109602638600539   T   T   T
  0.5236404663198914  0.3290067149310024  0.1111015106734209   T   T   T
  0.5211881919298779  0.7575007020333437  0.1109742517006822   T   T   T
  0.6653679425233711  0.9018009474085400  0.1109249010326405   T   T   T
  0.6655834952540145  0.0451408123292470  0.1108931091754100   T   T   T
  0.6661165630658923  0.1883915047273845  0.1109942101718175   T   T   T
  0.6673810335320036  0.3318259036147757  0.1110410233741008   T   T   T
  0.6777675344087200  0.4766052165783161  0.1110884119405986   T   T   T
  0.6855992242254734  0.6297925432069529  0.1111523826006060   T   T   T
  0.6702758315315688  0.7628124601159632  0.1109806921901779   T   T   T
  0.8111154900930531  0.9056602709547352  0.1109667173450261   T   T   T
  0.8081312293796572  0.0456984774322396  0.1110502120185418   T   T   T
  0.8079587637136848  0.1881552352032249  0.1110760341004344   T   T   T
  0.8090110102893767  0.3311850100333159  0.1110623613769758   T   T   T
  0.8142499199767657  0.4750650488963067  0.1111078391103759   T   T   T
  0.8178402378517132  0.6211402018665390  0.1110670011741928   T   T   T
  0.8177397775460022  0.7678492947354807  0.1109630269978459   T   T   T

  0.00000000E+00  0.00000000E+00  0.00000000E+00
  0.00000000E+00  0.00000000E+00  0.00000000E+00
  0.00000000E+00  0.00000000E+00  0.00000000E+00
  0.00000000E+00  0.00000000E+00  0.00000000E+00
  0.00000000E+00  0.00000000E+00  0.00000000E+00
  0.00000000E+00  0.00000000E+00  0.00000000E+00
  0.00000000E+00  0.00000000E+00  0.00000000E+00
  0.00000000E+00  0.00000000E+00  0.00000000E+00
  0.00000000E+00  0.00000000E+00  0.00000000E+00
  0.00000000E+00  0.00000000E+00  0.00000000E+00
  0.00000000E+00  0.00000000E+00  0.00000000E+00
  0.00000000E+00  0.00000000E+00  0.00000000E+00
  0.00000000E+00  0.00000000E+00  0.00000000E+00
  0.00000000E+00  0.00000000E+00  0.00000000E+00
  0.00000000E+00  0.00000000E+00  0.00000000E+00
  0.00000000E+00  0.00000000E+00  0.00000000E+00
  0.00000000E+00  0.00000000E+00  0.00000000E+00
  0.00000000E+00  0.00000000E+00  0.00000000E+00
  0.00000000E+00  0.00000000E+00  0.00000000E+00
  0.00000000E+00  0.00000000E+00  0.00000000E+00
  0.00000000E+00  0.00000000E+00  0.00000000E+00
  0.00000000E+00  0.00000000E+00  0.00000000E+00
  0.00000000E+00  0.00000000E+00  0.00000000E+00
  0.00000000E+00  0.00000000E+00  0.00000000E+00
  0.00000000E+00  0.00000000E+00  0.00000000E+00
  0.00000000E+00  0.00000000E+00  0.00000000E+00
  0.00000000E+00  0.00000000E+00  0.00000000E+00
  0.00000000E+00  0.00000000E+00  0.00000000E+00
  0.00000000E+00  0.00000000E+00  0.00000000E+00
  0.00000000E+00  0.00000000E+00  0.00000000E+00
  0.00000000E+00  0.00000000E+00  0.00000000E+00
  0.00000000E+00  0.00000000E+00  0.00000000E+00
  0.00000000E+00  0.00000000E+00  0.00000000E+00
  0.00000000E+00  0.00000000E+00  0.00000000E+00
  0.00000000E+00  0.00000000E+00  0.00000000E+00
  0.00000000E+00  0.00000000E+00  0.00000000E+00
  0.00000000E+00  0.00000000E+00  0.00000000E+00
  0.00000000E+00  0.00000000E+00  0.00000000E+00
  0.00000000E+00  0.00000000E+00  0.00000000E+00
  0.00000000E+00  0.00000000E+00  0.00000000E+00
  0.00000000E+00  0.00000000E+00  0.00000000E+00
  0.00000000E+00  0.00000000E+00  0.00000000E+00
  0.00000000E+00  0.00000000E+00  0.00000000E+00
  0.00000000E+00  0.00000000E+00  0.00000000E+00
  0.00000000E+00  0.00000000E+00  0.00000000E+00
  0.00000000E+00  0.00000000E+00  0.00000000E+00
  0.00000000E+00  0.00000000E+00  0.00000000E+00
  0.00000000E+00  0.00000000E+00  0.00000000E+00
  0.00000000E+00  0.00000000E+00  0.00000000E+00
  0.00000000E+00  0.00000000E+00  0.00000000E+00
  0.00000000E+00  0.00000000E+00  0.00000000E+00
  0.00000000E+00  0.00000000E+00  0.00000000E+00
  0.00000000E+00  0.00000000E+00  0.00000000E+00
  0.00000000E+00  0.00000000E+00  0.00000000E+00
  0.00000000E+00  0.00000000E+00  0.00000000E+00
  0.00000000E+00  0.00000000E+00  0.00000000E+00
  0.00000000E+00  0.00000000E+00  0.00000000E+00
  0.00000000E+00  0.00000000E+00  0.00000000E+00
  0.00000000E+00  0.00000000E+00  0.00000000E+00
  0.00000000E+00  0.00000000E+00  0.00000000E+00
  0.00000000E+00  0.00000000E+00  0.00000000E+00
  0.00000000E+00  0.00000000E+00  0.00000000E+00
  0.00000000E+00  0.00000000E+00  0.00000000E+00
  0.00000000E+00  0.00000000E+00  0.00000000E+00
  0.00000000E+00  0.00000000E+00  0.00000000E+00
  0.00000000E+00  0.00000000E+00  0.00000000E+00
  0.00000000E+00  0.00000000E+00  0.00000000E+00
  0.00000000E+00  0.00000000E+00  0.00000000E+00
  0.00000000E+00  0.00000000E+00  0.00000000E+00
  0.00000000E+00  0.00000000E+00  0.00000000E+00
  0.00000000E+00  0.00000000E+00  0.00000000E+00
  0.00000000E+00  0.00000000E+00  0.00000000E+00
  0.00000000E+00  0.00000000E+00  0.00000000E+00
  0.00000000E+00  0.00000000E+00  0.00000000E+00
  0.00000000E+00  0.00000000E+00  0.00000000E+00
  0.00000000E+00  0.00000000E+00  0.00000000E+00
  0.00000000E+00  0.00000000E+00  0.00000000E+00
  0.00000000E+00  0.00000000E+00  0.00000000E+00
  0.00000000E+00  0.00000000E+00  0.00000000E+00
  0.00000000E+00  0.00000000E+00  0.00000000E+00
  0.00000000E+00  0.00000000E+00  0.00000000E+00
  0.00000000E+00  0.00000000E+00  0.00000000E+00
  0.00000000E+00  0.00000000E+00  0.00000000E+00
  0.00000000E+00  0.00000000E+00  0.00000000E+00
  0.00000000E+00  0.00000000E+00  0.00000000E+00
  0.00000000E+00  0.00000000E+00  0.00000000E+00
  0.00000000E+00  0.00000000E+00  0.00000000E+00
  0.00000000E+00  0.00000000E+00  0.00000000E+00
  0.00000000E+00  0.00000000E+00  0.00000000E+00
  0.00000000E+00  0.00000000E+00  0.00000000E+00
  0.00000000E+00  0.00000000E+00  0.00000000E+00
  0.00000000E+00  0.00000000E+00  0.00000000E+00
  0.00000000E+00  0.00000000E+00  0.00000000E+00
  0.00000000E+00  0.00000000E+00  0.00000000E+00
  0.00000000E+00  0.00000000E+00  0.00000000E+00
  0.00000000E+00  0.00000000E+00  0.00000000E+00
  0.00000000E+00  0.00000000E+00  0.00000000E+00
