 Pb N B 
 1.0
 14.936314146199660   0.000000000000000   0.000000000000000
 -7.468157073099825  12.935227489513863   0.000000000000000
  0.000000000000001   0.000000000000001  13.341276283792837
 Pb N B 
   1 144 143
Cartesian
  3.734078536549917   5.030366245922021   5.002978606422314 
  1.244838178123633   0.719055439787892   1.671278131053601 
  4.978397476584572   7.185482533688603   1.630166251577435 
  6.223318894975846   0.719055439787930   1.671278131053708 
  9.957404515203567   7.186113484073344   1.672151928607023 
 11.202235609649751   0.718623749417456   1.667391935663979 
 -3.734078536549858   9.342108742426664   8.336722435835334 
  1.244994034040352   9.341767035511532   8.334679081791533 
  2.489852553250884   2.875196289559597   8.375790961267699 
  6.223163039058860   9.341767035511532   8.334679081791533 
  7.467784482725519   2.874710112822997   8.340088647087857 
 12.447008762269395   2.874523391449533   8.336148627420910 
 -1.244516325154336   9.342051020393452   1.672151928607023 
  0.000372590375822   2.874710112822997   1.665868565756158 
  4.978304519849262   2.875196289559596   1.630166251577395 
  3.734078536550822   9.341678512119305   1.665868565756265 
  8.712673398253143   9.342051020393452   1.672151928607023 
  9.957462457030573   2.874523391449532   1.669808585424306 
 -4.978809653500827  11.498161722814475   8.333805284238231 
  0.000077225375384  11.498024576770586   8.333395423959532 
  1.245533613217710   5.030419914517321   8.375790961267699 
  6.222623459883605   5.030419914517321   8.375790961267699 
  4.978755818250165  11.497896245797730   8.336148627420856 
 11.202235609649426   5.030277073739310   8.333395423959532 
 -1.244246324385881   5.030276262466702   1.671278131053708 
 -2.489347419599738  11.498161722814475   1.672151928607023 
  2.489401254849076  11.497896245797730   1.669808585424306 
  3.734078536549917   5.030366245922020   1.487832187980327 
  7.468079847723791  11.498024576770625   1.672561788884748 
  8.712403397484863   5.030276262466702   1.671278131053601 
  0.000345846001580   7.186037819892750   8.339083775193320 
  1.244838178123589   0.719055439787892   8.334679081791533 
  4.978397476584573   7.185482533688604   8.375790961267699 
  6.223318894975869   0.719055439787892   8.334679081791533 
  9.957404515203731   7.186113484073060   8.333805284238231 
 -2.489247442105001   7.186113484073344   1.672151928607023 
 11.202235609649751   0.718623749417456   8.338565277179715 
  3.734078536550072   0.719023097981844   1.666873437651094 
  2.489759596517094   7.185482533688538   1.630166251577409 
  7.467811227097345   7.186037819892749   1.666873437651094 
  8.712785175329140   0.718679100518995   1.669808585424306 
  2.489759596517056   7.185482533688604   8.375790961267699 
 13.691686043969050   0.718679100518995   1.669808585424306 
 -1.244516325154336   9.342051020393452   8.333805284238231 
  0.000372590375883   2.874710112822997   8.340088647087857 
  4.978304519849263   2.875196289559597   8.375790961267699 
  3.734078536550822   9.341678512119305   8.340088647087857 
  8.712673398253143   9.342051020393452   8.333805284238231 
  9.957462457030573   2.874523391449533   8.336148627420910 
 -3.734078536549859   9.342108742426664   1.669234777009174 
  1.244994034040351   9.341767035511532   1.671278131053708 
  2.489852553250884   2.875196289559596   1.630166251577462 
  6.223163039058859   9.341767035511532   1.671278131053601 
  7.467784482725518   2.874710112822997   1.665868565756158 
 12.447008762269395   2.874523391449532   1.669808585424306 
 -1.244246324385895   5.030276262466703   8.334679081791533 
 -2.489347419599738  11.498161722814475   8.333805284238231 
  2.489401254849076  11.497896245797730   8.336148627420910 
  3.734078536549917   5.030366245922021   8.518125024864220 
  7.468079847723814  11.498024576770586   8.333395423959532 
 -4.978809653500828  11.498161722814475   1.672151928607023 
  8.712403397484863   5.030276262466703   8.334679081791533 
  0.000077225375361  11.498024576770625   1.672561788884748 
  1.245533613217709   5.030419914517320   1.630166251577435 
  0.000345846001564   7.186037819892749   1.666873437651094 
  6.222623459883604   5.030419914517320   1.630166251577502 
  4.978755818250164  11.497896245797730   1.669808585424306 
 11.202235609649426   5.030277073739309   1.672561788884748 
 -2.489247442105001   7.186113484073345   8.333805284238231 
  3.734078536550072   0.719023097981845   8.339083775193320 
  7.467811227097346   7.186037819892750   8.339083775193320 
  8.712785175329140   0.718679100518996   8.336148627420856 
 13.691686043969050   0.718679100518996   8.336148627420856 
 -0.020641240495429   1.421896279402099   5.002978606422314 
  3.734078536549835   7.927243669440928   5.002978606422314 
  5.034770050235541   1.287566425398039   5.002978606422314 
  8.758663936468684   7.931311979130919   5.002978606422314 
  9.965730428173979   1.432520348797117   5.002978606422314 
 -4.978741445755431  10.060715208107229  11.673616748318732 
 -0.000114593751690  10.060789662491128  11.673616748318732 
  1.244587329662772   3.593057827480668  11.673616748318732 
  4.978840850426386  10.060731137690391  11.673616748318732 
  6.223569743437063   3.593057827480668  11.673616748318732 
 11.202235609650163   3.593204521679286  11.673616748318732 
 -2.497918484553119  10.055806081209377   5.002978606422314 
 -1.268308011772112   3.582918518168746   5.002978606422314 
  3.734078536549858   3.030456427214837   5.002978606422314 
  2.486411765273005  10.086283940195671   5.002978606422314 
  7.496742118188757  10.094054344574813   5.002978606422314 
  8.736465084871579   3.582918518168862   5.002978606422314 
 -6.223456441940048  12.216475913672344  11.673616748318732 
 -1.244700631159531  12.216475913672344  11.673616748318732 
 -0.000342973623749   5.749145277802809  11.673616748318732 
  4.979492879933397   5.749406552327037  11.673616748318732 
  3.734078536549765  12.216546858861728  11.673616748318732 
  9.957649572242158   5.749060651116016  11.673616748318732 
 -2.532535784543707   5.757084444189564   5.002978606422314 
 -3.734078536549491  12.163702269017366   5.002978606422314 
  1.251218647848767  12.220371413829657   5.002978606422314 
  2.002105828271525   6.030321155275471   5.002978606422314 
  6.216938425250834  12.220371413829657   5.002978606422314 
  7.625784019247183   5.775334262845315   5.002978606422314 
 -1.244897783725774   7.904979564722431  11.673616748318732 
  0.000035906911531   1.437188014547674  11.673616748318732 
  3.734078536550150   7.904983082804793  11.673616748318732 
  4.978808390320220   1.436872833732489  11.673616748318732 
  8.713054856824058   7.904979564722431  11.673616748318732 
 -3.734078536550181   7.914714064863137   5.002978606422314 
  9.957493503538485   1.437275939452602  11.673616748318732 
  2.433387022863596   1.287566425398129   5.002978606422314 
  1.143064567538831   8.028198049523382   5.002978606422314 
  6.325092505560736   8.028198049523382   5.002978606422314 
  7.488798313595523   1.421896279402060   5.002978606422314 
  1.244386880146451   7.905080626231596  11.673616748318732 
 12.438740791126438   1.432520348797117   5.002978606422314 
 -2.489415627344957  10.060715208107229  11.673616748318732 
 -1.244726406964785   3.593179585528493  11.673616748318732 
  3.734078536549521   3.592285633112676  11.673616748318732 
  2.489316222674723  10.060731137690391  11.673616748318732 
  7.468271666852035  10.060789662491128  11.673616748318732 
  8.712883480064813   3.593179585528493  11.673616748318732 
 -4.970238588547449  10.055806081209377   5.002978606422314 
 -0.028585045089097  10.094054344574813   5.002978606422314 
  1.225309096133182   3.581927534162419   5.002978606422314 
  4.981745307825923  10.086283940195671   5.002978606422314 
  6.242847976966805   3.581927534162562   5.002978606422314 
 11.202235609649605   3.585583399620857   5.002978606422314 
 -2.489492499142099   5.749060651116016  11.673616748318732 
 -3.734078536550298  12.216367097837084  11.673616748318732 
  1.244618562541893  12.216560852799947  11.673616748318732 
  2.488664193166545   5.749406552327037  11.673616748318732 
  6.223538510559623  12.216560852799947  11.673616748318732 
 -6.238029276004615  12.175187438515717   5.002978606422314 
  7.468500046723077   5.749145277802809  11.673616748318732 
 -1.230127797095309  12.175187438515717   5.002978606422314 
 -0.157626946146945   5.775334262845315   5.002978606422314 
 -1.290506863368009   7.931311979130919   5.002978606422314 
  5.466051244828872   6.030321155275277   5.002978606422314 
  3.734078536550654  12.226058040171493   5.002978606422314 
 10.000692857643445   5.757084444189577   5.002978606422314 
 -3.734078536549724   7.904895811066441  11.673616748318732 
  2.489348682779247   1.436872833732476  11.673616748318732 
  6.223770192952296   7.905080626231596  11.673616748318732 
  7.468121166189482   1.437188014547674  11.673616748318732 
 12.446977715760305   1.437275939452602  11.673616748318732 
  1.190789454531086   0.646710850303965   5.002978606422314 
  5.089117506659940   7.345442023707104   5.002978606422314 
  6.277367618568438   0.646710850303978   5.002978606422314 
  9.980642858694971   7.192691615137754   5.002978606422314 
 11.202235609649751   0.718623749417456   5.002978606422314 
 -3.734078536549858   9.342108742426666  11.673616748318732 
  1.244677403255590   9.341956978043974  11.673616748318732 
  2.489841132270907   2.874708359331204  11.673616748318732 
  6.223479669846029   9.341956978043974  11.673616748318732 
  7.467773008984244   2.874716737189878  11.673616748318732 
 12.447040403189554   2.874584887825571  11.673616748318732 
 -1.261832325509634   9.358886950665417   5.002978606422314 
 -0.024289177941951   2.860471634246883   5.002978606422314 
  5.061473486741979   2.699330185796176   5.002978606422314 
  3.734078536550264   9.370155469272166   5.002978606422314 
  8.729989398610773   9.358886950665417   5.002978606422314 
  9.968629887004331   2.862028694697914   5.002978606422314 
 -4.978747281062289  11.498000631925326  11.673616748318732 
 -0.000046136061489  11.497953354010923  11.673616748318732 
  1.245105342754232   5.030653988773459  11.673616748318732 
  6.223051730345499   5.030653988773459  11.673616748318732 
  4.978793255214066  11.497838095769053  11.673616748318732 
 11.202235609650195   5.030419519257308  11.673616748318732 
 -1.333922938501583   5.019640989535384   5.002978606422314 
 -2.483425076464455  11.474747661477014   5.002978606422314 
  2.494638264661690  11.513814872226533   5.002978606422314 
  7.459771008518545  11.502821687322394   5.002978606422314 
  8.802080011601358   5.019640989535514   5.002978606422314 
  0.000050948334748   7.186208079139647  11.673616748318732 
  1.244831998457910   0.718686258217038  11.673616748318732 
  4.978814326067140   7.185736389661209  11.673616748318732 
  6.223325074642655   0.718686258217038  11.673616748318732 
  9.957512837787228   7.186248045633144  11.673616748318732 
 -2.512485785595762   7.192691615137754   5.002978606422314 
 11.202235609649751   0.718623749417457  11.673616748318732 
  3.734078536549594   0.638593274159334   5.002978606422314 
  2.379039566439368   7.345442023706884   5.002978606422314 
  7.537465497751191   7.226252731803228   5.002978606422314 
  8.729189615116473   0.715255170841616   5.002978606422314 
  2.489342747033341   7.185736389661209  11.673616748318732 
 13.675281604182263   0.715255170841604   5.002978606422314 
 -1.244687020174727   9.342077549721617  11.673616748318732 
  0.000384064115126   2.874716737189878  11.673616748318732 
  4.978315940828374   2.874708359331204  11.673616748318732 
  3.734078536549545   9.341665263385897  11.673616748318732 
  8.712844093274818   9.342077549721617  11.673616748318732 
  9.957430816110504   2.874584887825571  11.673616748318732 
 -3.734078536549858   9.342108742426664   5.002978606422314 
  1.209366143517174   9.424746897927076   5.002978606422314 
  2.406683586358130   2.699330185796163   5.002978606422314 
  6.258790929582695   9.424746897927076   5.002978606422314 
  7.492446251041440   2.860471634246883   5.002978606422314 
 12.435841332294789   2.862028694697914   5.002978606422314 
 -1.244569134837188   5.030455501503720  11.673616748318732 
 -2.489409792037158  11.498000631925326  11.673616748318732 
  2.489363817886463  11.497838095769053  11.673616748318732 
  3.734078536549918   5.030366245922021  11.673616748318732 
  7.468203209162209  11.497953354010923  11.673616748318732 
 -4.984731996634716  11.474747661476847   5.002978606422314 
  8.712726207937994   5.030455501503720  11.673616748318732 
  0.008386064579965  11.502821687322394   5.002978606422314 
  1.051644616247273   5.046326528263237   5.002978606422314 
 -0.069308424650591   7.226252731803228   5.002978606422314 
  6.416512456852337   5.046326528263237   5.002978606422314 
  4.973518808437164  11.513814872226533   5.002978606422314 
 11.202235609649076   5.020682852636278   5.002978606422314 
 -2.489355764687450   7.186248045633144  11.673616748318732 
  3.734078536549692   0.718682579487442  11.673616748318732 
  7.468106124765015   7.186208079139647  11.673616748318732 
  8.712716097446664   0.718675754171118  11.673616748318732 
 13.691755121853317   0.718675754171118  11.673616748318732 
  0.000189732765269   1.437617742413632   1.668595456573372 
  3.734078536549105   7.903571747238405   1.639641717403914 
  4.978385641866212   1.438811825000248   1.658426616214674 
  8.712242282570379   7.904510424757176   1.670749709345306 
  9.957500167071736   1.437272092260255   1.668101432019220 
 -4.978951069119613  10.060836234213149   8.335723300574839 
  0.000466473361361  10.060519694339284   8.333730650176550 
  1.245809582117021   3.593763495263914   8.366315495438940 
  4.978545608103539  10.060383056660299   8.337361756271283 
  6.222347490982232   3.593763495263914   8.366315495438940 
 11.202235609650016   3.592970308184103   8.335720416813396 
 -2.489206003981252  10.060836234213149   1.670233912268414 
 -1.244277338789155   3.593097938692388   1.668595456573372 
  3.734078536550065   3.596605602020860   1.584352028698263 
  2.489611464994971  10.060383056660299   1.668595456573372 
  7.467690599737523  10.060519694339284   1.672226562667531 
  8.712434411888346   3.593097938692388   1.668595456573372 
 -6.223513176218872  12.217114116630725   8.333730650176550 
 -1.244643896881439  12.217114116630725   8.333730650176550 
  0.001547616299464   5.748541893069509   8.347530596630714 
  4.975751677114419   5.747246567872460   8.421605184146525 
  3.734078536550981  12.216554553245423   8.337855780825393 
  9.957125239406469   5.748692416310719   8.333730650176550 
 -2.488968166307127   5.748692416310718   1.672226562667531 
 -3.734078536550261  12.217305377765845   1.670749709345306 
  1.244821397377724  12.216677959547679   1.670236796030577 
  2.492405395985417   5.747246567872459   1.584352028698210 
  6.223335675722654  12.216677959547679   1.670236796030577 
  7.466609456800573   5.748541893069987   1.658426616214674 
 -1.244085209471064   7.904510424757177   8.335207503499948 
  0.000189732765284   1.437617742413633   8.337361756271283 
  3.734078536549105   7.903571747238406   8.366315495438940 
  4.978385641865653   1.438811825000262   8.347530596630714 
  8.712242282570379   7.904510424757177   8.335207503499948 
 -3.734078536549994   7.904653758855607   1.670233912268428 
  9.957500167071736   1.437272092260256   8.337855780825393 
  2.489771431233851   1.438811825000261   1.658426616214674 
  1.245854721615425   7.903745019696474   1.658426616214687 
  6.222302351484142   7.903745019696474   1.658426616214674 
  7.467967340334217   1.437617742413632   1.668595456573372 
  1.245854721614873   7.903745019696474   8.347530596630714 
 12.446971052228889   1.437272092260255   1.668101432019220 
 -2.489206003981237  10.060836234213149   8.335723300574839 
 -1.244277338789155   3.593097938692389   8.337361756271283 
  3.734078536550066   3.596605602020861   8.421605184146525 
  2.489611464994949  10.060383056660338   8.337361756271283 
  7.467690599737524  10.060519694339284   8.333730650176550 
  8.712434411888346   3.593097938692389   8.337361756271283 
 -4.978951069119614  10.060836234213149   1.670233912268428 
  0.000466473361360  10.060519694339284   1.672226562667531 
  1.245809582117192   3.593763495263615   1.639641717403914 
  4.978545608103516  10.060383056660338   1.668595456573372 
  6.222347490982402   3.593763495263615   1.639641717403820 
 11.202235609650016   3.592970308184102   1.670236796030577 
 -2.488968166307126   5.748692416310719   8.333730650176550 
 -3.734078536550261  12.217305377765845   8.335207503499948 
  1.244821397377725  12.216677959547679   8.335720416813396 
  2.492405395985417   5.747246567872460   8.421605184146525 
  6.223335675722491  12.216677959547964   8.335720416813396 
 -6.223513176218873  12.217114116630725   1.672226562667531 
  7.466609456800851   5.748541893069509   8.347530596630714 
 -1.244643896881439  12.217114116630725   1.672226562667531 
  0.001547616299187   5.748541893069987   1.658426616214674 
 -1.244085209471065   7.904510424757176   1.670749709345306 
  4.975751677114418   5.747246567872459   1.584352028698089 
  3.734078536550981  12.216554553245423   1.668101432019220 
  9.957125239406469   5.748692416310718   1.672226562667531 
 -3.734078536549993   7.904653758855608   8.335723300574839 
  2.489771431233851   1.438811825000262   8.347530596630714 
  6.222302351484458   7.903745019696474   8.347530596630714 
  7.467967340334218   1.437617742413633   8.337361756271283 
 12.446971052228889   1.437272092260256   8.337855780825393 
Generated by cif2cell 2.0.0.  :  Failed to get author information, No journal information. Species order: Pb N B 
 1.0
 14.936314146199660   0.000000000000000   0.000000000000000
 -7.468157073099825  12.935227489513863   0.000000000000000
  0.000000000000001   0.000000000000001  13.341276283792837
 Pb N B 
   1 144 143
Cartesian
  3.734078536549917   5.030366245922021   5.002978606422314 
  1.244838178123633   0.719055439787892   1.671278131053601 
  4.978397476584572   7.185482533688603   1.630166251577435 
  6.223318894975846   0.719055439787930   1.671278131053708 
  9.957404515203567   7.186113484073344   1.672151928607023 
 11.202235609649751   0.718623749417456   1.667391935663979 
 -3.734078536549858   9.342108742426664   8.336722435835334 
  1.244994034040352   9.341767035511532   8.334679081791533 
  2.489852553250884   2.875196289559597   8.375790961267699 
  6.223163039058860   9.341767035511532   8.334679081791533 
  7.467784482725519   2.874710112822997   8.340088647087857 
 12.447008762269395   2.874523391449533   8.336148627420910 
 -1.244516325154336   9.342051020393452   1.672151928607023 
  0.000372590375822   2.874710112822997   1.665868565756158 
  4.978304519849262   2.875196289559596   1.630166251577395 
  3.734078536550822   9.341678512119305   1.665868565756265 
  8.712673398253143   9.342051020393452   1.672151928607023 
  9.957462457030573   2.874523391449532   1.669808585424306 
 -4.978809653500827  11.498161722814475   8.333805284238231 
  0.000077225375384  11.498024576770586   8.333395423959532 
  1.245533613217710   5.030419914517321   8.375790961267699 
  6.222623459883605   5.030419914517321   8.375790961267699 
  4.978755818250165  11.497896245797730   8.336148627420856 
 11.202235609649426   5.030277073739310   8.333395423959532 
 -1.244246324385881   5.030276262466702   1.671278131053708 
 -2.489347419599738  11.498161722814475   1.672151928607023 
  2.489401254849076  11.497896245797730   1.669808585424306 
  3.734078536549917   5.030366245922020   1.487832187980327 
  7.468079847723791  11.498024576770625   1.672561788884748 
  8.712403397484863   5.030276262466702   1.671278131053601 
  0.000345846001580   7.186037819892750   8.339083775193320 
  1.244838178123589   0.719055439787892   8.334679081791533 
  4.978397476584573   7.185482533688604   8.375790961267699 
  6.223318894975869   0.719055439787892   8.334679081791533 
  9.957404515203731   7.186113484073060   8.333805284238231 
 -2.489247442105001   7.186113484073344   1.672151928607023 
 11.202235609649751   0.718623749417456   8.338565277179715 
  3.734078536550072   0.719023097981844   1.666873437651094 
  2.489759596517094   7.185482533688538   1.630166251577409 
  7.467811227097345   7.186037819892749   1.666873437651094 
  8.712785175329140   0.718679100518995   1.669808585424306 
  2.489759596517056   7.185482533688604   8.375790961267699 
 13.691686043969050   0.718679100518995   1.669808585424306 
 -1.244516325154336   9.342051020393452   8.333805284238231 
  0.000372590375883   2.874710112822997   8.340088647087857 
  4.978304519849263   2.875196289559597   8.375790961267699 
  3.734078536550822   9.341678512119305   8.340088647087857 
  8.712673398253143   9.342051020393452   8.333805284238231 
  9.957462457030573   2.874523391449533   8.336148627420910 
 -3.734078536549859   9.342108742426664   1.669234777009174 
  1.244994034040351   9.341767035511532   1.671278131053708 
  2.489852553250884   2.875196289559596   1.630166251577462 
  6.223163039058859   9.341767035511532   1.671278131053601 
  7.467784482725518   2.874710112822997   1.665868565756158 
 12.447008762269395   2.874523391449532   1.669808585424306 
 -1.244246324385895   5.030276262466703   8.334679081791533 
 -2.489347419599738  11.498161722814475   8.333805284238231 
  2.489401254849076  11.497896245797730   8.336148627420910 
  3.734078536549917   5.030366245922021   8.518125024864220 
  7.468079847723814  11.498024576770586   8.333395423959532 
 -4.978809653500828  11.498161722814475   1.672151928607023 
  8.712403397484863   5.030276262466703   8.334679081791533 
  0.000077225375361  11.498024576770625   1.672561788884748 
  1.245533613217709   5.030419914517320   1.630166251577435 
  0.000345846001564   7.186037819892749   1.666873437651094 
  6.222623459883604   5.030419914517320   1.630166251577502 
  4.978755818250164  11.497896245797730   1.669808585424306 
 11.202235609649426   5.030277073739309   1.672561788884748 
 -2.489247442105001   7.186113484073345   8.333805284238231 
  3.734078536550072   0.719023097981845   8.339083775193320 
  7.467811227097346   7.186037819892750   8.339083775193320 
  8.712785175329140   0.718679100518996   8.336148627420856 
 13.691686043969050   0.718679100518996   8.336148627420856 
 -0.020641240495429   1.421896279402099   5.002978606422314 
  3.734078536549835   7.927243669440928   5.002978606422314 
  5.034770050235541   1.287566425398039   5.002978606422314 
  8.758663936468684   7.931311979130919   5.002978606422314 
  9.965730428173979   1.432520348797117   5.002978606422314 
 -4.978741445755431  10.060715208107229  11.673616748318732 
 -0.000114593751690  10.060789662491128  11.673616748318732 
  1.244587329662772   3.593057827480668  11.673616748318732 
  4.978840850426386  10.060731137690391  11.673616748318732 
  6.223569743437063   3.593057827480668  11.673616748318732 
 11.202235609650163   3.593204521679286  11.673616748318732 
 -2.497918484553119  10.055806081209377   5.002978606422314 
 -1.268308011772112   3.582918518168746   5.002978606422314 
  3.734078536549858   3.030456427214837   5.002978606422314 
  2.486411765273005  10.086283940195671   5.002978606422314 
  7.496742118188757  10.094054344574813   5.002978606422314 
  8.736465084871579   3.582918518168862   5.002978606422314 
 -6.223456441940048  12.216475913672344  11.673616748318732 
 -1.244700631159531  12.216475913672344  11.673616748318732 
 -0.000342973623749   5.749145277802809  11.673616748318732 
  4.979492879933397   5.749406552327037  11.673616748318732 
  3.734078536549765  12.216546858861728  11.673616748318732 
  9.957649572242158   5.749060651116016  11.673616748318732 
 -2.532535784543707   5.757084444189564   5.002978606422314 
 -3.734078536549491  12.163702269017366   5.002978606422314 
  1.251218647848767  12.220371413829657   5.002978606422314 
  2.002105828271525   6.030321155275471   5.002978606422314 
  6.216938425250834  12.220371413829657   5.002978606422314 
  7.625784019247183   5.775334262845315   5.002978606422314 
 -1.244897783725774   7.904979564722431  11.673616748318732 
  0.000035906911531   1.437188014547674  11.673616748318732 
  3.734078536550150   7.904983082804793  11.673616748318732 
  4.978808390320220   1.436872833732489  11.673616748318732 
  8.713054856824058   7.904979564722431  11.673616748318732 
 -3.734078536550181   7.914714064863137   5.002978606422314 
  9.957493503538485   1.437275939452602  11.673616748318732 
  2.433387022863596   1.287566425398129   5.002978606422314 
  1.143064567538831   8.028198049523382   5.002978606422314 
  6.325092505560736   8.028198049523382   5.002978606422314 
  7.488798313595523   1.421896279402060   5.002978606422314 
  1.244386880146451   7.905080626231596  11.673616748318732 
 12.438740791126438   1.432520348797117   5.002978606422314 
 -2.489415627344957  10.060715208107229  11.673616748318732 
 -1.244726406964785   3.593179585528493  11.673616748318732 
  3.734078536549521   3.592285633112676  11.673616748318732 
  2.489316222674723  10.060731137690391  11.673616748318732 
  7.468271666852035  10.060789662491128  11.673616748318732 
  8.712883480064813   3.593179585528493  11.673616748318732 
 -4.970238588547449  10.055806081209377   5.002978606422314 
 -0.028585045089097  10.094054344574813   5.002978606422314 
  1.225309096133182   3.581927534162419   5.002978606422314 
  4.981745307825923  10.086283940195671   5.002978606422314 
  6.242847976966805   3.581927534162562   5.002978606422314 
 11.202235609649605   3.585583399620857   5.002978606422314 
 -2.489492499142099   5.749060651116016  11.673616748318732 
 -3.734078536550298  12.216367097837084  11.673616748318732 
  1.244618562541893  12.216560852799947  11.673616748318732 
  2.488664193166545   5.749406552327037  11.673616748318732 
  6.223538510559623  12.216560852799947  11.673616748318732 
 -6.238029276004615  12.175187438515717   5.002978606422314 
  7.468500046723077   5.749145277802809  11.673616748318732 
 -1.230127797095309  12.175187438515717   5.002978606422314 
 -0.157626946146945   5.775334262845315   5.002978606422314 
 -1.290506863368009   7.931311979130919   5.002978606422314 
  5.466051244828872   6.030321155275277   5.002978606422314 
  3.734078536550654  12.226058040171493   5.002978606422314 
 10.000692857643445   5.757084444189577   5.002978606422314 
 -3.734078536549724   7.904895811066441  11.673616748318732 
  2.489348682779247   1.436872833732476  11.673616748318732 
  6.223770192952296   7.905080626231596  11.673616748318732 
  7.468121166189482   1.437188014547674  11.673616748318732 
 12.446977715760305   1.437275939452602  11.673616748318732 
  1.190789454531086   0.646710850303965   5.002978606422314 
  5.089117506659940   7.345442023707104   5.002978606422314 
  6.277367618568438   0.646710850303978   5.002978606422314 
  9.980642858694971   7.192691615137754   5.002978606422314 
 11.202235609649751   0.718623749417456   5.002978606422314 
 -3.734078536549858   9.342108742426666  11.673616748318732 
  1.244677403255590   9.341956978043974  11.673616748318732 
  2.489841132270907   2.874708359331204  11.673616748318732 
  6.223479669846029   9.341956978043974  11.673616748318732 
  7.467773008984244   2.874716737189878  11.673616748318732 
 12.447040403189554   2.874584887825571  11.673616748318732 
 -1.261832325509634   9.358886950665417   5.002978606422314 
 -0.024289177941951   2.860471634246883   5.002978606422314 
  5.061473486741979   2.699330185796176   5.002978606422314 
  3.734078536550264   9.370155469272166   5.002978606422314 
  8.729989398610773   9.358886950665417   5.002978606422314 
  9.968629887004331   2.862028694697914   5.002978606422314 
 -4.978747281062289  11.498000631925326  11.673616748318732 
 -0.000046136061489  11.497953354010923  11.673616748318732 
  1.245105342754232   5.030653988773459  11.673616748318732 
  6.223051730345499   5.030653988773459  11.673616748318732 
  4.978793255214066  11.497838095769053  11.673616748318732 
 11.202235609650195   5.030419519257308  11.673616748318732 
 -1.333922938501583   5.019640989535384   5.002978606422314 
 -2.483425076464455  11.474747661477014   5.002978606422314 
  2.494638264661690  11.513814872226533   5.002978606422314 
  7.459771008518545  11.502821687322394   5.002978606422314 
  8.802080011601358   5.019640989535514   5.002978606422314 
  0.000050948334748   7.186208079139647  11.673616748318732 
  1.244831998457910   0.718686258217038  11.673616748318732 
  4.978814326067140   7.185736389661209  11.673616748318732 
  6.223325074642655   0.718686258217038  11.673616748318732 
  9.957512837787228   7.186248045633144  11.673616748318732 
 -2.512485785595762   7.192691615137754   5.002978606422314 
 11.202235609649751   0.718623749417457  11.673616748318732 
  3.734078536549594   0.638593274159334   5.002978606422314 
  2.379039566439368   7.345442023706884   5.002978606422314 
  7.537465497751191   7.226252731803228   5.002978606422314 
  8.729189615116473   0.715255170841616   5.002978606422314 
  2.489342747033341   7.185736389661209  11.673616748318732 
 13.675281604182263   0.715255170841604   5.002978606422314 
 -1.244687020174727   9.342077549721617  11.673616748318732 
  0.000384064115126   2.874716737189878  11.673616748318732 
  4.978315940828374   2.874708359331204  11.673616748318732 
  3.734078536549545   9.341665263385897  11.673616748318732 
  8.712844093274818   9.342077549721617  11.673616748318732 
  9.957430816110504   2.874584887825571  11.673616748318732 
 -3.734078536549858   9.342108742426664   5.002978606422314 
  1.209366143517174   9.424746897927076   5.002978606422314 