B N O                                   
   1.0000000000000000     
     8.7639499999999995  -15.1796066749929999    0.0000000000000000
     8.7639499999999995   15.1796066749929999    0.0000000000000000
     0.0000000000000000    0.0000000000000000   15.0000000000000000
   B    N    O 
    47    48     2
Selective dynamics
Direct
  0.9023085335097316  0.9497855465541499  0.1107356212344285   T   T   T
  0.9038819157026465  0.0936702205474730  0.1105394970477418   T   T   T
  0.9054639343312575  0.2374354930845299  0.1104557436008970   T   T   T
  0.9080222299711859  0.3814102829173445  0.1108409127166550   T   T   T
  0.9091626418634814  0.5252728296429549  0.1114856667388859   T   T   T
  0.9057868251179340  0.6674790479480127  0.1112995679702554   T   T   T
  0.9014126148215935  0.8065005060677456  0.1109922632020186   T   T   T
  0.0459140027804892  0.9518270812283123  0.1108601947006728   T   T   T
  0.0464762043390535  0.0948040448610229  0.1109029466119543   T   T   T
  0.0472119054440997  0.2379762096585787  0.1106721684560149   T   T   T
  0.0484606278590708  0.3817056114711743  0.1103919531640691   T   T   T
  0.0495119129385118  0.5256287000502418  0.1104541506216743   T   T   T
  0.0487771694233900  0.6688752857620252  0.1107610011929786   T   T   T
  0.0476940170048463  0.8110139270876237  0.1108543444368308   T   T   T
  0.1909838848944091  0.9551865810796373  0.1104402973181395   T   T   T
  0.1896476968936502  0.0963607963843792  0.1111690949207950   T   T   T
  0.1900556193662682  0.2398267449212241  0.1123438263625698   T   T   T
  0.1894445725516230  0.3826331102549212  0.1116947483740563   T   T   T
  0.1901071299543519  0.5261306879653120  0.1106795576059260   T   T   T
  0.1904373962545011  0.6695671421985310  0.1101788407056961   T   T   T
  0.1909510368078526  0.8125781163157190  0.1102946389932499   T   T   T
  0.3341737839562986  0.9561981410533287  0.1099547028076780   T   T   T
  0.3349034987263427  0.0996794101000103  0.1098770872754640   T   T   T
  0.3325514453185270  0.2404058761482625  0.1140626009339049   T   T   T
  0.3334992662841489  0.3866239790514953  0.1154605367934680   T   T   T
  0.3309612961501162  0.5283931743807224  0.1121413311876912   T   T   T
  0.3315052074646291  0.6702565266780148  0.1108937320221106   T   T   T
  0.3332458991560506  0.8130466094069178  0.1103354120940415   T   T   T
  0.4764841072008695  0.9553119885292350  0.1102867661794718   T   T   T
  0.4778289500782971  0.1001899644582259  0.1096964003757852   T   T   T
  0.4786176188242002  0.2461720978665049  0.1095318574587335   T   T   T
  0.4717529372157279  0.6683265030725768  0.1121822124226052   T   T   T
  0.4752030723376018  0.8115496491007745  0.1109767343441199   T   T   T
  0.6184755583976764  0.9516055831377032  0.1107402791738207   T   T   T
  0.6195795659634915  0.0951799019689193  0.1103518040294014   T   T   T
  0.6217229759598039  0.2384189689326988  0.1101379735881796   T   T   T
  0.6327098507108003  0.3830517519461742  0.1103902328860444   T   T   T
  0.6169194863948214  0.5066662551147753  0.1100060854784517   T   T   T
  0.6121479442762244  0.6582065670834382  0.1116208665172428   T   T   T
  0.6168320265023420  0.8068523574940184  0.1112768669831209   T   T   T
  0.7602774428741979  0.9497455151790173  0.1107642516099046   T   T   T
  0.7618095209504979  0.0938414079720454  0.1106235537441509   T   T   T
  0.7639122524509115  0.2376376894564957  0.1107687496144213   T   T   T
  0.7686333129764032  0.3815630189513491  0.1114215048073061   T   T   T
  0.7693584428614156  0.5249551299655550  0.1116467762535322   T   T   T
  0.7559196982843636  0.6592982098045550  0.1109592540137432   T   T   T
  0.7576673338744219  0.8043793074282691  0.1109841970555048   T   T   T
  0.9497597671298778  0.9022673203265340  0.1108626015161145   T   T   T
  0.9508700214862014  0.0456697298356292  0.1106234145804074   T   T   T
  0.9521399003121294  0.1893191536148888  0.1103843215652264   T   T   T
  0.9538948104295280  0.3329980761861120  0.1103938485122058   T   T   T
  0.9551305215079270  0.4768880728741493  0.1108639120693652   T   T   T
  0.9538335719877611  0.6203394645808596  0.1113241301747124   T   T   T
  0.9518870267969362  0.7620379347585317  0.1110773230630730   T   T   T
  0.0952925635789412  0.9062611015363420  0.1107577036896936   T   T   T
  0.0942243011542531  0.0475391216991423  0.1109201024022228   T   T   T
  0.0948531186871700  0.1907543824440875  0.1111548611640893   T   T   T
  0.0951120654644151  0.3336721448981431  0.1105945191066268   T   T   T
  0.0959111464585197  0.4772995984858140  0.1103459866207904   T   T   T
  0.0958854027165017  0.6210139454495278  0.1103242832093895   T   T   T
  0.0957853150724286  0.7641068909308339  0.1106315720725246   T   T   T
  0.2389617423317499  0.9081394090553807  0.1101866917203494   T   T   T
  0.2393382449003626  0.0509859692557420  0.1104682150236904   T   T   T
  0.2371837563714274  0.1919064899782410  0.1123304458755130   T   T   T
  0.2377934504084567  0.3363224881871640  0.1129721537108231   T   T   T
  0.2370913884929234  0.4780844357208431  0.1115547103945043   T   T   T
  0.2372480593933764  0.6214844906404415  0.1103400708518889   T   T   T
  0.2383054183003525  0.7649187055326393  0.1100853276419790   T   T   T
  0.3814008289765665  0.9083067065649386  0.1101614144844123   T   T   T
  0.3825892476567404  0.0523654784206782  0.1095549385926353   T   T   T
  0.3839794422831410  0.1968762338334663  0.1102353139768705   T   T   T
  0.3700668016686292  0.3322997959351185  0.1219118307823510   T   T   T
  0.3782156200564593  0.4820477237488990  0.1134763114783721   T   T   T
  0.3781005927008247  0.6222347366642426  0.1116851320318423   T   T   T
  0.3802728190962139  0.7649244148284703  0.1107527710866379   T   T   T
  0.5233671795079209  0.9064112365603662  0.1106365204560790   T   T   T
  0.5244684093958046  0.0509225897851855  0.1100463647500666   T   T   T
  0.5262121702212003  0.1971940935356998  0.1095165381803385   T   T   T
  0.5383206515936008  0.3476888516228084  0.1089506220896959   T   T   T
  0.5170349574961883  0.6193676633298930  0.1130182385233355   T   T   T
  0.5218963225841815  0.7623439028007571  0.1114871546153919   T   T   T
  0.6649422358822047  0.9022085407543193  0.1109013260720497   T   T   T
  0.6664661528252356  0.0468259238758541  0.1105860152827602   T   T   T
  0.6680464735164503  0.1903929094219727  0.1104381622668884   T   T   T
  0.6737890195311164  0.3329039188289623  0.1107194089232658   T   T   T
  0.6762402287273175  0.4754532851672951  0.1110797724207853   T   T   T
  0.6548472797803080  0.6040376073521542  0.1106530724679586   T   T   T
  0.6612318638643671  0.7547901144881247  0.1112972638970713   T   T   T
  0.8062978442878556  0.9004089831732672  0.1107639759919732   T   T   T
  0.8084677475844264  0.0453669444282256  0.1105997153996981   T   T   T
  0.8101613496436791  0.1893234786188320  0.1105911938462597   T   T   T
  0.8134212064595716  0.3329052904455004  0.1111533978607835   T   T   T
  0.8148851143937923  0.4765147718539893  0.1119927482797368   T   T   T
  0.8100457950684293  0.6184342419946983  0.1112649414905278   T   T   T
  0.8040468314178736  0.7555858273001923  0.1109674639248445   T   T   T
  0.4707163706711054  0.5265150504230194  0.1131463629435008   T   T   T
  0.5254561370191937  0.4192476528145770  0.1080128736154073   T   T   T

  0.00000000E+00  0.00000000E+00  0.00000000E+00
  0.00000000E+00  0.00000000E+00  0.00000000E+00
  0.00000000E+00  0.00000000E+00  0.00000000E+00
  0.00000000E+00  0.00000000E+00  0.00000000E+00
  0.00000000E+00  0.00000000E+00  0.00000000E+00
  0.00000000E+00  0.00000000E+00  0.00000000E+00
  0.00000000E+00  0.00000000E+00  0.00000000E+00
  0.00000000E+00  0.00000000E+00  0.00000000E+00
  0.00000000E+00  0.00000000E+00  0.00000000E+00
  0.00000000E+00  0.00000000E+00  0.00000000E+00
  0.00000000E+00  0.00000000E+00  0.00000000E+00
  0.00000000E+00  0.00000000E+00  0.00000000E+00
  0.00000000E+00  0.00000000E+00  0.00000000E+00
  0.00000000E+00  0.00000000E+00  0.00000000E+00
  0.00000000E+00  0.00000000E+00  0.00000000E+00
  0.00000000E+00  0.00000000E+00  0.00000000E+00
  0.00000000E+00  0.00000000E+00  0.00000000E+00
  0.00000000E+00  0.00000000E+00  0.00000000E+00
  0.00000000E+00  0.00000000E+00  0.00000000E+00
  0.00000000E+00  0.00000000E+00  0.00000000E+00
  0.00000000E+00  0.00000000E+00  0.00000000E+00
  0.00000000E+00  0.00000000E+00  0.00000000E+00
  0.00000000E+00  0.00000000E+00  0.00000000E+00
  0.00000000E+00  0.00000000E+00  0.00000000E+00
  0.00000000E+00  0.00000000E+00  0.00000000E+00
  0.00000000E+00  0.00000000E+00  0.00000000E+00
  0.00000000E+00  0.00000000E+00  0.00000000E+00
  0.00000000E+00  0.00000000E+00  0.00000000E+00
  0.00000000E+00  0.00000000E+00  0.00000000E+00
  0.00000000E+00  0.00000000E+00  0.00000000E+00
  0.00000000E+00  0.00000000E+00  0.00000000E+00
  0.00000000E+00  0.00000000E+00  0.00000000E+00
  0.00000000E+00  0.00000000E+00  0.00000000E+00
  0.00000000E+00  0.00000000E+00  0.00000000E+00
  0.00000000E+00  0.00000000E+00  0.00000000E+00
  0.00000000E+00  0.00000000E+00  0.00000000E+00
  0.00000000E+00  0.00000000E+00  0.00000000E+00
  0.00000000E+00  0.00000000E+00  0.00000000E+00
  0.00000000E+00  0.00000000E+00  0.00000000E+00
  0.00000000E+00  0.00000000E+00  0.00000000E+00
  0.00000000E+00  0.00000000E+00  0.00000000E+00
  0.00000000E+00  0.00000000E+00  0.00000000E+00
  0.00000000E+00  0.00000000E+00  0.00000000E+00
  0.00000000E+00  0.00000000E+00  0.00000000E+00
  0.00000000E+00  0.00000000E+00  0.00000000E+00
  0.00000000E+00  0.00000000E+00  0.00000000E+00
  0.00000000E+00  0.00000000E+00  0.00000000E+00
  0.00000000E+00  0.00000000E+00  0.00000000E+00
  0.00000000E+00  0.00000000E+00  0.00000000E+00
  0.00000000E+00  0.00000000E+00  0.00000000E+00
  0.00000000E+00  0.00000000E+00  0.00000000E+00
  0.00000000E+00  0.00000000E+00  0.00000000E+00
  0.00000000E+00  0.00000000E+00  0.00000000E+00
  0.00000000E+00  0.00000000E+00  0.00000000E+00
  0.00000000E+00  0.00000000E+00  0.00000000E+00
  0.00000000E+00  0.00000000E+00  0.00000000E+00
  0.00000000E+00  0.00000000E+00  0.00000000E+00
  0.00000000E+00  0.00000000E+00  0.00000000E+00
  0.00000000E+00  0.00000000E+00  0.00000000E+00
  0.00000000E+00  0.00000000E+00  0.00000000E+00
  0.00000000E+00  0.00000000E+00  0.00000000E+00
  0.00000000E+00  0.00000000E+00  0.00000000E+00
  0.00000000E+00  0.00000000E+00  0.00000000E+00
  0.00000000E+00  0.00000000E+00  0.00000000E+00
  0.00000000E+00  0.00000000E+00  0.00000000E+00
  0.00000000E+00  0.00000000E+00  0.00000000E+00
  0.00000000E+00  0.00000000E+00  0.00000000E+00
  0.00000000E+00  0.00000000E+00  0.00000000E+00
  0.00000000E+00  0.00000000E+00  0.00000000E+00
  0.00000000E+00  0.00000000E+00  0.00000000E+00
  0.00000000E+00  0.00000000E+00  0.00000000E+00
  0.00000000E+00  0.00000000E+00  0.00000000E+00
  0.00000000E+00  0.00000000E+00  0.00000000E+00
  0.00000000E+00  0.00000000E+00  0.00000000E+00
  0.00000000E+00  0.00000000E+00  0.00000000E+00
  0.00000000E+00  0.00000000E+00  0.00000000E+00
  0.00000000E+00  0.00000000E+00  0.00000000E+00
  0.00000000E+00  0.00000000E+00  0.00000000E+00
  0.00000000E+00  0.00000000E+00  0.00000000E+00
  0.00000000E+00  0.00000000E+00  0.00000000E+00
  0.00000000E+00  0.00000000E+00  0.00000000E+00
  0.00000000E+00  0.00000000E+00  0.00000000E+00
  0.00000000E+00  0.00000000E+00  0.00000000E+00
  0.00000000E+00  0.00000000E+00  0.00000000E+00
  0.00000000E+00  0.00000000E+00  0.00000000E+00
  0.00000000E+00  0.00000000E+00  0.00000000E+00
  0.00000000E+00  0.00000000E+00  0.00000000E+00
  0.00000000E+00  0.00000000E+00  0.00000000E+00
  0.00000000E+00  0.00000000E+00  0.00000000E+00
  0.00000000E+00  0.00000000E+00  0.00000000E+00
  0.00000000E+00  0.00000000E+00  0.00000000E+00
  0.00000000E+00  0.00000000E+00  0.00000000E+00
  0.00000000E+00  0.00000000E+00  0.00000000E+00
  0.00000000E+00  0.00000000E+00  0.00000000E+00
  0.00000000E+00  0.00000000E+00  0.00000000E+00
  0.00000000E+00  0.00000000E+00  0.00000000E+00
  0.00000000E+00  0.00000000E+00  0.00000000E+00
