 N Si B 
 1.0
 14.936314146199660   0.000000000000000   0.000000000000000
 -7.468157073099825  12.935227489513863   0.000000000000000
  0.000000000000001   0.000000000000001  13.341276283792837
 N Si B 
 144   1 143
Cartesian
  1.244657570553535   0.718473666948521   1.667045597254747 
  4.979024753133027   7.186282537253534   1.687736265387078 
  6.223499502546400   0.718473666948521   1.667045597254747 
  9.957642577188228   7.186250038072064   1.669202185759112 
 11.202235609649751   0.718623749417456   1.668722712875299 
 -3.734078536549858   9.342108742426664   8.335522129216182 
  1.244580507767520   9.342214332675363   8.338911615589961 
  2.489473368115755   2.874253050350156   8.318220947457563 
  6.223576565332273   9.342214332675363   8.338911615589961 
  7.468255491128888   2.874438175994272   8.336605456082989 
 12.446968447941215   2.874467471581823   8.338127201455041 
 -1.244753615378219   9.342188911119216   1.669202185759112 
 -0.000098418028935   2.874438175994271   1.669351756761639 
  4.978683704984092   2.874253050350155   1.687736265387078 
  3.734078536550046   9.342222385777688   1.669351756761639 
  8.712910688478086   9.342188911119216   1.669202185759112 
  9.957502771358472   2.874467471581823   1.667830011389600 
 -4.978810425260030  11.497887278088710   8.336755027085529 
 -0.000092975082773  11.497926311489882   8.337642093363707 
  1.244527151532774   5.030563150162541   8.318220947457563 
  6.223629921567301   5.030563150162541   8.318220947457563 
  4.978727547387961  11.497959118963925   8.338127201455041 
 11.202235609649746   5.030473604300161   8.337642093363707 
 -1.244840458228848   5.030410738142205   1.667045597254747 
 -2.489346647839684  11.497887278088710   1.669202185759112 
  2.489429525711939  11.497959118963925   1.667830011389600 
  3.734078536549917   5.030366245922020   1.758133434703354 
  7.468250048182610  11.497926311489882   1.668315119480920 
  8.712997531328769   5.030410738142205   1.667045597254747 
 -0.000022572424400   7.186250526369776   8.335736251687713 
  1.244657570553536   0.718473666948521   8.338911615589961 
  4.979024753133028   7.186282537253535   8.318220947457563 
  6.223499502546401   0.718473666948521   8.338911615589961 
  9.957642577188228   7.186250038072065   8.336755027085529 
 -2.489485504088423   7.186250038072064   1.669202185759112 
 11.202235609649751   0.718623749417456   8.337234499969302 
  3.734078536549923   0.718597685026913   1.670220961156915 
  2.489132319966838   7.186282537253534   1.687736265387078 
  7.468179645524208   7.186250526369775   1.670220961156915 
  8.712853760520357   0.718672147220210   1.667830011389600 
  2.489132319966839   7.186282537253535   8.318220947457563 
 13.691617458779120   0.718672147220210   1.667830011389600 
 -1.244753615378218   9.342188911119216   8.336755027085529 
 -0.000098418028935   2.874438175994272   8.336605456082989 
  4.978683704984093   2.874253050350156   8.318220947457563 
  3.734078536550047   9.342222385777688   8.336605456082989 
  8.712910688478086   9.342188911119216   8.336755027085529 
  9.957502771358472   2.874467471581823   8.338127201455041 
 -3.734078536549859   9.342108742426664   1.670435083628539 
  1.244580507767520   9.342214332675363   1.667045597254747 
  2.489473368115755   2.874253050350155   1.687736265387078 
  6.223576565332272   9.342214332675363   1.667045597254747 
  7.468255491128887   2.874438175994271   1.669351756761639 
 12.446968447941215   2.874467471581823   1.667830011389600 
 -1.244840458228847   5.030410738142206   8.338911615589961 
 -2.489346647839684  11.497887278088710   8.336755027085529 
  2.489429525711940  11.497959118963925   8.338127201455041 
  3.734078536549917   5.030366245922021   8.247823778141354 
  7.468250048182611  11.497926311489882   8.337642093363707 
 -4.978810425260031  11.497887278088710   1.669202185759112 
  8.712997531328769   5.030410738142206   8.338911615589961 
 -0.000092975082773  11.497926311489882   1.668315119480920 
  1.244527151532774   5.030563150162540   1.687736265387078 
 -0.000022572424401   7.186250526369775   1.670220961156915 
  6.223629921567300   5.030563150162540   1.687736265387078 
  4.978727547387960  11.497959118963925   1.667830011389600 
 11.202235609649746   5.030473604300160   1.668315119480920 
 -2.489485504088422   7.186250038072065   8.336755027085529 
  3.734078536549923   0.718597685026914   8.335736251687713 
  7.468179645524208   7.186250526369776   8.335736251687713 
  8.712853760520357   0.718672147220211   8.338127201455041 
 13.691617458779120   0.718672147220211   8.338127201455041 
 -0.007495548021340   1.430417857822893   5.002978606422314 
  3.734078536549755   7.918604117413306   5.002978606422314 
  4.996753364672417   1.388203082274777   5.002978606422314 
  8.727007493604882   7.913035123322624   5.002978606422314 
  9.960408201297113   1.435593137916921   5.002978606422314 
 -4.978832712665125  10.060767901081686  11.673616748318732 
 -0.000012674391542  10.060736913343428  11.673616748318732 
  1.244819020157881   3.593191594050286  11.673616748318732 
  4.978699420799288  10.060730958885591  11.673616748318732 
  6.223338052941968   3.593191594050286  11.673616748318732 
 11.202235609649701   3.593137178082507  11.673616748318732 
 -2.491905233303755  10.059277833435964   5.002978606422314 
 -1.254355262142483   3.590042232591533   5.002978606422314 
  3.734078536549872   3.425868262580372   5.002978606422314 
  2.487218822428799  10.070638647351807   5.002978606422314 
  7.477587331827248  10.072107276742237   5.002978606422314 
  8.722512335242286   3.590042232591533   5.002978606422314 
 -6.223461719518117  12.216590553001932  11.673616748318732 
 -1.244695353581805  12.216590553001932  11.673616748318732 
  0.000217559096293   5.748927010809186  11.673616748318732 
  4.978573001686708   5.748875460373751  11.673616748318732 
  3.734078536549906  12.216562718213254  11.673616748318732 
  9.957552930459318   5.748998760934828  11.673616748318732 
 -2.503951673081370   5.751469446512607   5.002978606422314 
 -3.734078536549910  12.200255980635015   5.002978606422314 
  1.246836594757592  12.217841434297872   5.002978606422314 
  2.344542522655090   5.832615237592885   5.002978606422314 
  6.221320478341981  12.217841434297872   5.002978606422314 
  7.519621775057651   5.757939349872401   5.002978606422314 
 -1.244615267110786   7.904816453678329  11.673616748318732 
 -0.000034653052578   1.437310585599706  11.673616748318732 
  3.734078536549875   7.904715549665753  11.673616748318732 
  4.978717148721559   1.437467402804354  11.673616748318732 
  8.712772340210400   7.904816453678329  11.673616748318732 
 -3.734078536549866   7.907770560408077   5.002978606422314 
  9.957507238140185   1.437268009776407  11.673616748318732 
  2.471403708427310   1.388203082274777   5.002978606422314 
  1.211210126164677   7.944956305619055   5.002978606422314 
  6.256946946935053   7.944956305619055   5.002978606422314 
  7.475652621121083   1.430417857822893   5.002978606422314 
  1.244856171268049   7.904704324152668  11.673616748318732 
 12.444063018002302   1.435593137916921   5.002978606422314 
 -2.489324360434710  10.060767901081686  11.673616748318732 
 -1.244655537301960   3.593057193280953  11.673616748318732 
  3.734078536549813   3.593347817018745  11.673616748318732 
  2.489457652300658  10.060730958885591  11.673616748318732 
  7.468169747491054  10.060736913343428  11.673616748318732 
  8.712812610401778   3.593057193280953  11.673616748318732 
 -4.976251839795948  10.059277833435964   5.002978606422314 
 -0.009430258727441  10.072107276742237   5.002978606422314 
  1.232791167666319   3.586247310176509   5.002978606422314 
  4.980938250671145  10.070638647351807   5.002978606422314 
  6.235365905433409   3.586247310176509   5.002978606422314 
 11.202235609649620   3.590643358684375   5.002978606422314 
 -2.489395857359588   5.748998760934828  11.673616748318732 
 -3.734078536549969  12.216693319923555  11.673616748318732 
  1.244676883806625  12.216594524598737  11.673616748318732 
  2.489584071413129   5.748875460373751  11.673616748318732 
  6.223480189293334  12.216594524598737  11.673616748318732 
 -6.228599950903852  12.202749504025109   5.002978606422314 
  7.467939514003425   5.748927010809186  11.673616748318732 
 -1.239557122195982  12.202749504025109   5.002978606422314 
 -0.051464701957832   5.757939349872401   5.002978606422314 
 -1.258850420505239   7.913035123322624   5.002978606422314 
  5.123614550444747   5.832615237592885   5.002978606422314 
  3.734078536549950  12.219912461932378   5.002978606422314 
  9.972108746181188   5.751469446512607   5.002978606422314 
 -3.734078536549896   7.904790425116557  11.673616748318732 
  2.489439924378064   1.437467402804354  11.673616748318732 
  6.223300901831686   7.904704324152668  11.673616748318732 
  7.468191726152531   1.437310585599706  11.673616748318732 
 12.446963981159277   1.437268009776407  11.673616748318732 
  3.734078536549917   5.030366245922021   5.002978606422314 
  1.224598379296581   0.690434791443410   5.002978606422314 
  5.021947313043695   7.264501089709447   5.002978606422314 
  6.243558693803130   0.690434791443410   5.002978606422314 
  9.965841223689527   7.188869319620816   5.002978606422314 
 11.202235609649751   0.718623749417456   5.002978606422314 
 -3.734078536549858   9.342108742426666  11.673616748318732 
  1.244630900731733   9.342426316035093  11.673616748318732 
  2.488929664669847   2.874255952639449  11.673616748318732 
  6.223526172368241   9.342426316035093  11.673616748318732 
  7.468466764604929   2.874316197195989  11.673616748318732 
 12.446654914757142   2.874427321847326  11.673616748318732 
 -1.251121302989863   9.347979506491601   5.002978606422314 
 -0.016801945431409   2.864794389951976   5.002978606422314 
  5.024961678502875   2.797971746844010   5.002978606422314 
  3.734078536549965   9.361509957862188   5.002978606422314 
  8.719278376089626   9.347979506491601   5.002978606422314 
  9.963648489477478   2.869521214579327   5.002978606422314 
 -4.978707333990186  11.497975495280331  11.673616748318732 
  0.000162758105320  11.498073959114835  11.673616748318732 
  1.244257813266070   5.030090838021625  11.673616748318732 
  6.223899259833989   5.030090838021625  11.673616748318732 
  4.978849543289638  11.498250721533513  11.673616748318732 
 11.202235609649785   5.030178309050195  11.673616748318732 
 -1.279152432338404   5.027058406687048   5.002978606422314 
 -2.487515688950035  11.489477401167560   5.002978606422314 
  2.490640250870378  11.505754595480912   5.002978606422314 
  7.464691879083145  11.499980621377274   5.002978606422314 
  8.747309505438222   5.027058406687048   5.002978606422314 
 -0.000292474564529   7.186406354442957  11.673616748318732 
  1.244448791096651   0.718411316855890  11.673616748318732 
  4.978750387953883   7.186751947105054  11.673616748318732 
  6.223708282003181   0.718411316855890  11.673616748318732 
  9.957514633224427   7.186295209134657  11.673616748318732 
 -2.497684150589679   7.188869319620816   5.002978606422314 
 11.202235609649751   0.718623749417457  11.673616748318732 
  3.734078536549953   0.688547414163215   5.002978606422314 
  2.446209760056170   7.264501089709447   5.002978606422314 
  7.494203943482758   7.201275661801548   5.002978606422314 
  8.720210203797837   0.715822927706018   5.002978606422314 
  2.489406685146104   7.186751947105054  11.673616748318732 
 13.684261015501530   0.715822927706018   5.002978606422314 
 -1.244728762684052   9.342055522864854  11.673616748318732 
 -0.000309691505006   2.874316197195989  11.673616748318732 
  4.979227408429987   2.874255952639449  11.673616748318732 
  3.734078536550061   9.342466343374179  11.673616748318732 
  8.712885835783995   9.342055522864854  11.673616748318732 
  9.957816304542217   2.874427321847326  11.673616748318732 
 -3.734078536549858   9.342108742426664   5.002978606422314 
  1.230327724914820   9.373605539635772   5.002978606422314 
  2.443195394596854   2.797971746844010   5.002978606422314 
  6.237829348184897   9.373605539635772   5.002978606422314 
  7.484959018531332   2.864794389951976   5.002978606422314 
 12.440822729821999   2.869521214579327   5.002978606422314 
 -1.244998844721489   5.030261104875161  11.673616748318732 
 -2.489449739109410  11.497975495280331  11.673616748318732 
  2.489307529810159  11.498250721533513  11.673616748318732 
  3.734078536549918   5.030366245922021  11.673616748318732 
  7.467994314994582  11.498073959114835  11.673616748318732 
 -4.980641384149754  11.489477401167560   5.002978606422314 
  8.713155917821549   5.030261104875161  11.673616748318732 
  0.003465194016621  11.499980621377274   5.002978606422314 
  1.155326618103151   5.028625901212685   5.002978606422314 
 -0.026046870382892   7.201275661801548   5.002978606422314 
  6.312830454996697   5.028625901212685   5.002978606422314 
  4.977516822229550  11.505754595480912   5.002978606422314 
 11.202235609649701   5.026364984525430   5.002978606422314 
 -2.489357560124396   7.186295209134657  11.673616748318732 
  3.734078536549968   0.718286028880243  11.673616748318732 
  7.468449547664456   7.186406354442957  11.673616748318732 
  8.713045297802513   0.718420694385357  11.673616748318732 
 13.691425921496917   0.718420694385357  11.673616748318732 
 -0.000408303604192   1.436447429327716   1.666805925784676 
  3.734078536549919   7.906678505957162   1.678895548787282 
  4.979379476396790   1.435161830710559   1.671150761343435 
  8.713740182630684   7.905375237760077   1.667864040450153 
  9.957911238748101   1.437034759916723   1.667781187327370 
 -4.978392881879415  10.060513964659132   8.336740077647747 
 -0.000337855646834  10.061034040048842   8.338754036963081 
  1.243119050143040   3.592210115904542   8.327061664057439 
  4.979260110782198  10.061486127891508   8.339151287060071 
  6.225038022956915   3.592210115904542   8.327061664057439 
 11.202235609649566   3.593090498767785   8.338497019129004 
 -2.489764191220375  10.060513964659132   1.669217135196867 
 -1.245589877836685   3.593165180547007   1.666805925784676 
  3.734078536549856   3.589100463305565   1.704397939529974 
  2.488896962317535  10.061486127891508   1.666805925784676 
  7.468494928746567  10.061034040048842   1.667203175881534 
  8.713746950936414   3.593165180547007   1.666805925784676 
 -6.223556448165534  12.216160374421124   8.338754036963081 
 -1.244600624934314  12.216160374421124   8.338754036963081 
 -0.002110288744708   5.749506204263715   8.334806451501205 
  4.982251317901103   5.750999137230288   8.301559273314547 
  3.734078536549891  12.217029217932797   8.338176025517258 
  9.957972840362213   5.749131812810051   8.338754036963081 
 -2.489815767262409   5.749131812810050   1.667203175881534 
 -3.734078536549865  12.215575751759850   1.667864040450153 
  1.244717309278744  12.216617864256213   1.667460193715624 
  2.485905755198732   5.750999137230287   1.704397939529974 
  6.223439763820753  12.216617864256213   1.667460193715624 
  7.470267361844543   5.749506204263714   1.671150761343435 
 -1.245583109530848   7.905375237760078   8.338093172394569 
 -0.000408303604191   1.436447429327717   8.339151287060071 
  3.734078536549919   7.906678505957163   8.327061664057439 
  4.979379476396791   1.435161830710560   8.334806451501205 
  8.713740182630684   7.905375237760078   8.338093172394569 
 -3.734078536549957   7.905298297961687   1.669217135196867 
  9.957911238748101   1.437034759916724   8.338176025517258 
  2.488777596702936   1.435161830710559   1.671150761343435 
  1.243190651102183   7.906430702791944   1.671150761343435 
  6.224966421997580   7.906430702791944   1.671150761343435 
  7.468565376704246   1.436447429327716   1.666805925784676 
  1.243190651102184   7.906430702791945   8.334806451501205 
 12.446559980551255   1.437034759916723   1.667781187327370 
 -2.489764191220375  10.060513964659132   8.336740077647747 
 -1.245589877836685   3.593165180547008   8.339151287060071 
  3.734078536549857   3.589100463305566   8.301559273314547 
  2.488896962317536  10.061486127891508   8.339151287060071 
  7.468494928746568  10.061034040048842   8.338754036963081 
  8.713746950936414   3.593165180547008   8.339151287060071 
 -4.978392881879416  10.060513964659132   1.669217135196867 
 -0.000337855646834  10.061034040048842   1.667203175881534 
  1.243119050143039   3.592210115904541   1.678895548787282 
  4.979260110782197  10.061486127891508   1.666805925784676 
  6.225038022956914   3.592210115904541   1.678895548787282 
 11.202235609649566   3.593090498767784   1.667460193715624 
 -2.489815767262408   5.749131812810051   8.338754036963081 
 -3.734078536549864  12.215575751759850   8.338093172394569 
  1.244717309278745  12.216617864256213   8.338497019129004 
  2.485905755198732   5.750999137230288   8.301559273314547 
  6.223439763820754  12.216617864256213   8.338497019129004 
 -6.223556448165535  12.216160374421124   1.667203175881534 
  7.470267361844544   5.749506204263715   8.334806451501205 
 -1.244600624934314  12.216160374421124   1.667203175881534 
 -0.002110288744708   5.749506204263714   1.671150761343435 
 -1.245583109530849   7.905375237760077   1.667864040450153 
  4.982251317901103   5.750999137230287   1.704397939529974 
  3.734078536549890  12.217029217932797   1.667781187327370 
  9.957972840362213   5.749131812810050   1.667203175881534 
 -3.734078536549956   7.905298297961687   8.336740077647747 
  2.488777596702936   1.435161830710560   8.334806451501205 
  6.224966421997581   7.906430702791945   8.334806451501205 
  7.468565376704247   1.436447429327717   8.339151287060071 
 12.446559980551255   1.437034759916724   8.338176025517258 
Generated by cif2cell 2.0.0.  :  Failed to get author information, No journal information. Species order: N Si B 
 1.0
 14.936314146199660   0.000000000000000   0.000000000000000
 -7.468157073099825  12.935227489513863   0.000000000000000
  0.000000000000001   0.000000000000001  13.341276283792837
 N Si B 
 144   1 143
Cartesian
  1.244657570553535   0.718473666948521   1.667045597254747 
  4.979024753133027   7.186282537253534   1.687736265387078 
  6.223499502546400   0.718473666948521   1.667045597254747 
  9.957642577188228   7.186250038072064   1.669202185759112 
 11.202235609649751   0.718623749417456   1.668722712875299 
 -3.734078536549858   9.342108742426664   8.335522129216182 
  1.244580507767520   9.342214332675363   8.338911615589961 
  2.489473368115755   2.874253050350156   8.318220947457563 
  6.223576565332273   9.342214332675363   8.338911615589961 
  7.468255491128888   2.874438175994272   8.336605456082989 
 12.446968447941215   2.874467471581823   8.338127201455041 
 -1.244753615378219   9.342188911119216   1.669202185759112 
 -0.000098418028935   2.874438175994271   1.669351756761639 
  4.978683704984092   2.874253050350155   1.687736265387078 
  3.734078536550046   9.342222385777688   1.669351756761639 
  8.712910688478086   9.342188911119216   1.669202185759112 
  9.957502771358472   2.874467471581823   1.667830011389600 
 -4.978810425260030  11.497887278088710   8.336755027085529 
 -0.000092975082773  11.497926311489882   8.337642093363707 
  1.244527151532774   5.030563150162541   8.318220947457563 
  6.223629921567301   5.030563150162541   8.318220947457563 
  4.978727547387961  11.497959118963925   8.338127201455041 
 11.202235609649746   5.030473604300161   8.337642093363707 
 -1.244840458228848   5.030410738142205   1.667045597254747 
 -2.489346647839684  11.497887278088710   1.669202185759112 
  2.489429525711939  11.497959118963925   1.667830011389600 
  3.734078536549917   5.030366245922020   1.758133434703354 
  7.468250048182610  11.497926311489882   1.668315119480920 
  8.712997531328769   5.030410738142205   1.667045597254747 
 -0.000022572424400   7.186250526369776   8.335736251687713 
  1.244657570553536   0.718473666948521   8.338911615589961 
  4.979024753133028   7.186282537253535   8.318220947457563 
  6.223499502546401   0.718473666948521   8.338911615589961 
  9.957642577188228   7.186250038072065   8.336755027085529 
 -2.489485504088423   7.186250038072064   1.669202185759112 
 11.202235609649751   0.718623749417456   8.337234499969302 
  3.734078536549923   0.718597685026913   1.670220961156915 
  2.489132319966838   7.186282537253534   1.687736265387078 
  7.468179645524208   7.186250526369775   1.670220961156915 
  8.712853760520357   0.718672147220210   1.667830011389600 
  2.489132319966839   7.186282537253535   8.318220947457563 
 13.691617458779120   0.718672147220210   1.667830011389600 
 -1.244753615378218   9.342188911119216   8.336755027085529 
 -0.000098418028935   2.874438175994272   8.336605456082989 
  4.978683704984093   2.874253050350156   8.318220947457563 
  3.734078536550047   9.342222385777688   8.336605456082989 
  8.712910688478086   9.342188911119216   8.336755027085529 
  9.957502771358472   2.874467471581823   8.338127201455041 
 -3.734078536549859   9.342108742426664   1.670435083628539 
  1.244580507767520   9.342214332675363   1.667045597254747 
  2.489473368115755   2.874253050350155   1.687736265387078 
  6.223576565332272   9.342214332675363   1.667045597254747 
  7.468255491128887   2.874438175994271   1.669351756761639 
 12.446968447941215   2.874467471581823   1.667830011389600 
 -1.244840458228847   5.030410738142206   8.338911615589961 
 -2.489346647839684  11.497887278088710   8.336755027085529 
  2.489429525711940  11.497959118963925   8.338127201455041 
  3.734078536549917   5.030366245922021   8.247823778141354 
  7.468250048182611  11.497926311489882   8.337642093363707 
 -4.978810425260031  11.497887278088710   1.669202185759112 
  8.712997531328769   5.030410738142206   8.338911615589961 
 -0.000092975082773  11.497926311489882   1.668315119480920 
  1.244527151532774   5.030563150162540   1.687736265387078 
 -0.000022572424401   7.186250526369775   1.670220961156915 
  6.223629921567300   5.030563150162540   1.687736265387078 
  4.978727547387960  11.497959118963925   1.667830011389600 
 11.202235609649746   5.030473604300160   1.668315119480920 
 -2.489485504088422   7.186250038072065   8.336755027085529 
  3.734078536549923   0.718597685026914   8.335736251687713 
  7.468179645524208   7.186250526369776   8.335736251687713 
  8.712853760520357   0.718672147220211   8.338127201455041 
 13.691617458779120   0.718672147220211   8.338127201455041 
 -0.007495548021340   1.430417857822893   5.002978606422314 
  3.734078536549755   7.918604117413306   5.002978606422314 
  4.996753364672417   1.388203082274777   5.002978606422314 
  8.727007493604882   7.913035123322624   5.002978606422314 
  9.960408201297113   1.435593137916921   5.002978606422314 
 -4.978832712665125  10.060767901081686  11.673616748318732 
 -0.000012674391542  10.060736913343428  11.673616748318732 
  1.244819020157881   3.593191594050286  11.673616748318732 
  4.978699420799288  10.060730958885591  11.673616748318732 
  6.223338052941968   3.593191594050286  11.673616748318732 
 11.202235609649701   3.593137178082507  11.673616748318732 
 -2.491905233303755  10.059277833435964   5.002978606422314 
 -1.254355262142483   3.590042232591533   5.002978606422314 
  3.734078536549872   3.425868262580372   5.002978606422314 
  2.487218822428799  10.070638647351807   5.002978606422314 
  7.477587331827248  10.072107276742237   5.002978606422314 
  8.722512335242286   3.590042232591533   5.002978606422314 
 -6.223461719518117  12.216590553001932  11.673616748318732 
 -1.244695353581805  12.216590553001932  11.673616748318732 
  0.000217559096293   5.748927010809186  11.673616748318732 
  4.978573001686708   5.748875460373751  11.673616748318732 
  3.734078536549906  12.216562718213254  11.673616748318732 
  9.957552930459318   5.748998760934828  11.673616748318732 
 -2.503951673081370   5.751469446512607   5.002978606422314 
 -3.734078536549910  12.200255980635015   5.002978606422314 
  1.246836594757592  12.217841434297872   5.002978606422314 
  2.344542522655090   5.832615237592885   5.002978606422314 
  6.221320478341981  12.217841434297872   5.002978606422314 
  7.519621775057651   5.757939349872401   5.002978606422314 
 -1.244615267110786   7.904816453678329  11.673616748318732 
 -0.000034653052578   1.437310585599706  11.673616748318732 
  3.734078536549875   7.904715549665753  11.673616748318732 
  4.978717148721559   1.437467402804354  11.673616748318732 
  8.712772340210400   7.904816453678329  11.673616748318732 
 -3.734078536549866   7.907770560408077   5.002978606422314 
  9.957507238140185   1.437268009776407  11.673616748318732 
  2.471403708427310   1.388203082274777   5.002978606422314 
  1.211210126164677   7.944956305619055   5.002978606422314 
  6.256946946935053   7.944956305619055   5.002978606422314 
  7.475652621121083   1.430417857822893   5.002978606422314 
  1.244856171268049   7.904704324152668  11.673616748318732 
 12.444063018002302   1.435593137916921   5.002978606422314 
 -2.489324360434710  10.060767901081686  11.673616748318732 
 -1.244655537301960   3.593057193280953  11.673616748318732 
  3.734078536549813   3.593347817018745  11.673616748318732 
  2.489457652300658  10.060730958885591  11.673616748318732 
  7.468169747491054  10.060736913343428  11.673616748318732 
  8.712812610401778   3.593057193280953  11.673616748318732 
 -4.976251839795948  10.059277833435964   5.002978606422314 
 -0.009430258727441  10.072107276742237   5.002978606422314 
  1.232791167666319   3.586247310176509   5.002978606422314 
  4.980938250671145  10.070638647351807   5.002978606422314 
  6.235365905433409   3.586247310176509   5.002978606422314 
 11.202235609649620   3.590643358684375   5.002978606422314 
 -2.489395857359588   5.748998760934828  11.673616748318732 
 -3.734078536549969  12.216693319923555  11.673616748318732 
  1.244676883806625  12.216594524598737  11.673616748318732 
  2.489584071413129   5.748875460373751  11.673616748318732 
  6.223480189293334  12.216594524598737  11.673616748318732 
 -6.228599950903852  12.202749504025109   5.002978606422314 
  7.467939514003425   5.748927010809186  11.673616748318732 
 -1.239557122195982  12.202749504025109   5.002978606422314 
 -0.051464701957832   5.757939349872401   5.002978606422314 
 -1.258850420505239   7.913035123322624   5.002978606422314 
  5.123614550444747   5.832615237592885   5.002978606422314 
  3.734078536549950  12.219912461932378   5.002978606422314 
  9.972108746181188   5.751469446512607   5.002978606422314 
 -3.734078536549896   7.904790425116557  11.673616748318732 
  2.489439924378064   1.437467402804354  11.673616748318732 
  6.223300901831686   7.904704324152668  11.673616748318732 
  7.468191726152531   1.437310585599706  11.673616748318732 
 12.446963981159277   1.437268009776407  11.673616748318732 
  3.734078536549917   5.030366245922021   5.002978606422314 
  1.224598379296581   0.690434791443410   5.002978606422314 
  5.021947313043695   7.264501089709447   5.002978606422314 
  6.243558693803130   0.690434791443410   5.002978606422314 
  9.965841223689527   7.188869319620816   5.002978606422314 
 11.202235609649751   0.718623749417456   5.002978606422314 
 -3.734078536549858   9.342108742426666  11.673616748318732 
  1.244630900731733   9.342426316035093  11.673616748318732 
  2.488929664669847   2.874255952639449  11.673616748318732 
  6.223526172368241   9.342426316035093  11.673616748318732 
  7.468466764604929   2.874316197195989  11.673616748318732 
 12.446654914757142   2.874427321847326  11.673616748318732 
 -1.251121302989863   9.347979506491601   5.002978606422314 
 -0.016801945431409   2.864794389951976   5.002978606422314 
  5.024961678502875   2.797971746844010   5.002978606422314 
  3.734078536549965   9.361509957862188   5.002978606422314 
  8.719278376089626   9.347979506491601   5.002978606422314 
  9.963648489477478   2.869521214579327   5.002978606422314 
 -4.978707333990186  11.497975495280331  11.673616748318732 
  0.000162758105320  11.498073959114835  11.673616748318732 
  1.244257813266070   5.030090838021625  11.673616748318732 
  6.223899259833989   5.030090838021625  11.673616748318732 
  4.978849543289638  11.498250721533513  11.673616748318732 
 11.202235609649785   5.030178309050195  11.673616748318732 
 -1.279152432338404   5.027058406687048   5.002978606422314 
 -2.487515688950035  11.489477401167560   5.002978606422314 
  2.490640250870378  11.505754595480912   5.002978606422314 
  7.464691879083145  11.499980621377274   5.002978606422314 
  8.747309505438222   5.027058406687048   5.002978606422314 
 -0.000292474564529   7.186406354442957  11.673616748318732 
  1.244448791096651   0.718411316855890  11.673616748318732 
  4.978750387953883   7.186751947105054  11.673616748318732 
  6.223708282003181   0.718411316855890  11.673616748318732 
  9.957514633224427   7.186295209134657  11.673616748318732 
 -2.497684150589679   7.188869319620816   5.002978606422314 
 11.202235609649751   0.718623749417457  11.673616748318732 
  3.734078536549953   0.688547414163215   5.002978606422314 
  2.446209760056170   7.264501089709447   5.002978606422314 
  7.494203943482758   7.201275661801548   5.002978606422314 
  8.720210203797837   0.715822927706018   5.002978606422314 
  2.489406685146104   7.186751947105054  11.673616748318732 
 13.684261015501530   0.715822927706018   5.002978606422314 
 -1.244728762684052   9.342055522864854  11.673616748318732 
 -0.000309691505006   2.874316197195989  11.673616748318732 
  4.979227408429987   2.874255952639449  11.673616748318732 
  3.734078536550061   9.342466343374179  11.673616748318732 
  8.712885835783995   9.342055522864854  11.673616748318732 
  9.957816304542217   2.874427321847326  11.673616748318732 
 -3.734078536549858   9.342108742426664   5.002978606422314 
  1.230327724914820   9.373605539635772   5.002978606422314 