 Al B N 
 1.0
 14.936314146199660   0.000000000000000   0.000000000000000
 -7.468157073099825  12.935227489513863   0.000000000000000
  0.000000000000001   0.000000000000001  13.341276283792837
 Al B N 
   1 143 143
Cartesian
  4.183833596974784   5.290032451127889   5.002978606422314 
  1.243661065165785   0.708933353882211   5.002978606422314 
  4.913665918334795   7.181205871926865   5.002978606422314 
  6.226316593649694   0.677647533565867   5.002978606422314 
  9.922686861526364   7.171579131684135   5.002978606422314 
 11.202279497844367   0.718649088278552   5.002978606422314 
 -3.735161435944526   9.341483530169597  11.673616748318732 
  1.243860676124389   9.340609382174026  11.673616748318732 
  2.490118738652424   2.875207944913305  11.673616748318732 
  6.222208522042257   9.339224730571415  11.673616748318732 
  7.465200141375022   2.875201558927701  11.673616748318732 
 12.445909879244537   2.874373722362399  11.673616748318732 
 -1.273665070230754   9.335645481229442   5.002978606422314 
  0.024832750962190   2.888832193122389   5.002978606422314 
  4.993937862655743   2.796900413890084   5.002978606422314 
  3.702035022626687   9.366601270400562   5.002978606422314 
  8.682727453018289   9.319251826543187   5.002978606422314 
  9.953646341912998   2.868833148251135   5.002978606422314 
 -4.979522634537187  11.497336087874372  11.673616748318732 
 -0.001260905727364  11.497252006418361  11.673616748318732 
  1.245676799750993   5.030644610160123  11.673616748318732 
  6.220637579216547   5.030733969776454  11.673616748318732 
  4.977780042504662  11.495754209436937  11.673616748318732 
 11.200489512410446   5.030389504064761  11.673616748318732 
 -1.253600864398092   5.034317895694367   5.002978606422314 
 -2.509469151778901  11.476120938671841   5.002978606422314 
  2.476330906675499  11.505389744503509   5.002978606422314 
  7.453281098050004  11.483649171053271   5.002978606422314 
  8.677691879101076   5.018522971122763   5.002978606422314 
 -0.000136468413192   7.185861115745475  11.673616748318732 
  1.244565379702269   0.718405661039495  11.673616748318732 
  4.977676516082735   7.183605682954058  11.673616748318732 
  6.221749658818793   0.718652749709908  11.673616748318732 
  9.955742515135055   7.185956315853486  11.673616748318732 
 -2.519504772330210   7.179159877165671   5.002978606422314 
 11.200819975534140   0.717806432679544  11.673616748318732 
  3.725238240826028   0.687395360190065   5.002978606422314 
  2.429770050578504   7.238169343540620   5.002978606422314 
  7.422184211062500   7.159695049902455   5.002978606422314 
  8.712739561485641   0.703613097609990   5.002978606422314 
  2.489447024735066   7.184944605776559  11.673616748318732 
 13.696505262807467   0.722344911669707   5.002978606422314 
 -1.245474642906691   9.341435279369584  11.673616748318732 
  0.000353408332321   2.874699038065346  11.673616748318732 
  4.977682374720398   2.875194558413007  11.673616748318732 
  3.733211970686174   9.339194683806863  11.673616748318732 
  8.711706286548040   9.340690270222584  11.673616748318732 
  9.955119511253761   2.874749363045553  11.673616748318732 
 -3.763994007138883   9.324837037429035   5.002978606422314 
  1.210632584671526   9.365067071826866   5.002978606422314 
  2.529083165595897   2.871387927416718   5.002978606422314 
  6.195628630985638   9.317582624458163   5.002978606422314 
  7.473346467566485   2.834498236598789   5.002978606422314 
 12.452593057270477   2.876864051814848   5.002978606422314 
 -1.244945448499313   5.030364901477590  11.673616748318732 
 -2.490359825844553  11.497639665807652  11.673616748318732 
  2.488156190744038  11.496428516686391  11.673616748318732 
  3.734685175708611   5.030716489203171  11.673616748318732 
  7.467304166622671  11.496456197040819  11.673616748318732 
 -4.999960318842923  11.475434909641745   5.002978606422314 
  8.709724438314744   5.030720778951186  11.673616748318732 
 -0.015302322562248  11.489145190627960   5.002978606422314 
  1.261850781027471   5.066298802485909   5.002978606422314 
 -0.031464726251909   7.194195768113849   5.002978606422314 
  6.186553983028961   4.976499071528534   5.002978606422314 
  4.971919865527801  11.497436514761430   5.002978606422314 
 11.182386768271751   5.024648683435970   5.002978606422314 
 -2.490318953455109   7.185908841852703  11.673616748318732 
  3.733684349062357   0.718693753519421  11.673616748318732 
  7.466062922465659   7.185028435741881  11.673616748318732 
  8.710891552581035   0.718334707929134  11.673616748318732 
 13.691006985224412   0.717802274448270  11.673616748318732 
  0.004867949045739   1.440637197498534   1.670987481037726 
  3.744962106420881   7.905291190118109   1.669119066319452 
  4.983723515035333   1.445941898680669   1.667038109146711 
  8.712387271428877   7.904594134113996   1.665743611692881 
  9.962649627360650   1.440349286063131   1.675130839344990 
 -4.975970423396110  10.062828613439644   8.333459422007019 
  0.006814285759913  10.062726145846430   8.331445876122389 
  1.250443060441626   3.596438635221564   8.344369318812102 
  4.983322964794061  10.062937851505295   8.344012337345337 
  6.229278357133061   3.602329221815565   8.336838146525896 
 11.207123344798518   3.595468439086059   8.333393720768617 
 -2.484474169547889  10.063568160096667   1.677000239180223 
 -1.239323305839920   3.595639665293391   1.670987481037726 
  3.737860241933088   3.600880162448348   1.675949530586021 
  2.496451328657574  10.062484065570862   1.666719241960048 
  7.470550026839918  10.062628280594673   1.664433409031428 
  8.717035607471136   3.595957853526293   1.661944875499024 
 -6.219457537779092  12.220067549488594   8.334796989391329 
 -1.239559147624526  12.221508257672356   8.331445876122389 
  0.007111382720048   5.750334305426894   8.342132415486535 
  4.985394770713794   5.752814010557890   8.188444305726112 
  3.739318194700274  12.219475519771388   8.330826373499237 
  9.960381042221606   5.750114459692753   8.341523803813587 
 -2.484382599203451   5.750727985798333   1.671160223453059 
 -3.729479347965321  12.221716325132221   1.672111926108351 
  1.250243499999653  12.219808411956214   1.676423584703881 
  2.497998126596965   5.748384340590350   1.675949530586047 
  6.227942988119521  12.219661796903065   1.672563492076292 
  7.467737735619167   5.747573526485375   1.666788457582185 
 -1.237965622704601   7.906287965225420   8.333845286735903 
  0.004867949045740   1.440637197498535   8.334969731806581 
  3.744962106420882   7.905291190118110   8.336838146525896 
  4.983723515035334   1.445941898680669   8.338919103697704 
  8.712387271428877   7.904594134113997   8.340213601151360 
 -3.730862762663751   7.906238884157950   1.672497790838115 
  9.962649627360650   1.440349286063132   8.330826373499237 
  2.494105589079441   1.442733981882957   1.663824797357772 
  1.254698483138180   7.904802716622734   1.667038109146711 
  6.222027860831767   7.905206321107433   1.666788457582185 
  7.473206799256301   1.442490733647450   1.666719241960048 
  1.254698483138181   7.904802716622735   8.338919103697704 
 12.452015485513350   1.440184497175085   1.677387499894722 
 -2.484474169547889  10.063568160096667   8.328956973663898 
 -1.239323305839920   3.595639665293392   8.334969731806581 
  3.737860241933089   3.600880162448349   8.330007682258595 
  2.496451328657575  10.062484065570862   8.339237970884433 
  7.470550026839919  10.062628280594673   8.341523803813587 
  8.717035607471136   3.595957853526294   8.344012337345337 
 -4.975970423396111  10.062828613439644   1.672497790838115 
  0.006814285759912  10.062726145846430   1.674511336721799 
  1.250443060441626   3.596438635221563   1.661587894031964 
  4.983322964794060  10.062937851505295   1.661944875499024 
  6.229278357133060   3.602329221815564   1.669119066319452 
 11.207123344798518   3.595468439086058   1.672563492076292 
 -2.484382599203450   5.750727985798334   8.334796989391329 
 -3.729479347965321  12.221716325132221   8.333845286735903 
  1.250243499999653  12.219808411956214   8.329533628139838 
  2.497998126596966   5.748384340590351   8.330007682258595 
  6.227942988119522  12.219661796903065   8.333393720768617 
 -6.219457537779093  12.220067549488594   1.671160223453059 
  7.467737735619168   5.747573526485376   8.339168755262591 
 -1.239559147624527  12.221508257672356   1.674511336721799 
  0.007111382720047   5.750334305426893   1.663824797357772 
 -1.237965622704602   7.906287965225419   1.672111926108351 
  4.985394770713794   5.752814010557889   1.817512907118609 
  3.739318194700274  12.219475519771388   1.675130839344990 
  9.960381042221606   5.750114459692752   1.664433409031428 
 -3.730862762663751   7.906238884157951   8.333459422007019 
  2.494105589079441   1.442733981882957   8.342132415486535 
  6.222027860831767   7.905206321107434   8.339168755262591 
  7.473206799256302   1.442490733647451   8.339237970884433 
 12.452015485513350   1.440184497175085   8.328569712950332 
  1.248680965621675   0.720998973203676   1.664402772471030 
  4.984091592946489   7.196252808915570   1.668235622566405 
  6.228744127787090   0.721411118125436   1.664114593252011 
  9.962420002803320   7.188695195225367   1.662920232414646 
 11.207721745790122   0.721791171594753   1.674899098514077 
 -3.729463000579445   9.344773523362033   8.333465640970090 
  1.249746727729076   9.345287585779319   8.341842619593017 
  2.491701292482683   2.875597241995969   8.356939997375235 
  6.228184230633693   9.347992501748172   8.355163413752184 
  7.475819619262538   2.875601540762565   8.355581935527367 
 12.451816232279095   2.876745707387645   8.334020321580125 
 -1.239880171518461   9.344826850196371   1.672633114670260 
  0.003228664140152   2.876359067780321   1.662361330772362 
  4.983951036192067   2.877321704948957   1.659038622203086 
  3.738868104060096   9.348191430514737   1.650375277317287 
  8.717416969497325   9.345103704488734   1.662920232414646 
  9.964284792480109   2.876102677761947   1.666052661078340 
 -4.974217150525281  11.500854383561109   8.336882082494945 
  0.005080833022943  11.500913410992979   8.332810604410632 
  1.246805217829202   5.031820493438873   8.356939997375235 
  6.234797850015499   5.029966026327729   8.337721590278196 
  4.983534688041192  11.503014918454204   8.339904551765928 
 11.207704782184344   5.032504767144188   8.339384357901242 
 -1.240641781325440   5.032632447353032   1.664402772471030 
 -2.484625403655421  11.500788834736715   1.672633114670260 
  2.494472871229158  11.501916619567972   1.670462163155225 
  3.732481572586175   5.029444238347764   1.688009206903237 
  7.472743673071710  11.501647172421119   1.666572854943399 
  8.720305405184043   5.031512008808709   1.650793799092578 
  0.004770447569974   7.188898920222003   8.344341941983455 
  1.248680965621675   0.720998973203677   8.341554440372985 
  4.984091592946490   7.196252808915570   8.337721590278196 
  6.228744127786837   0.721411118125436   8.341842619593017 
  9.962420002803320   7.188695195225368   8.343036980429583 
 -2.484619278005840   7.188744377942021   1.669075130349256 
 11.207721745790122   0.721791171594754   8.331058114329844 
  3.738768622902477   0.721424365176582   1.661615270860974 
  2.494423518408822   7.189309852590401   1.659038622203099 
  7.473257677898684   7.189182329728340   1.656889722895692 
  8.718802729337554   0.721061062256174   1.670462163155225 
  2.494423518408822   7.189309852590402   8.346918590641675 
 13.696014361031578   0.721731333706204   1.671936891264223 
 -1.239880171518461   9.344826850196371   8.333324098174728 
  0.003228664140152   2.876359067780322   8.343595882071986 
  4.983951036192068   2.877321704948958   8.346918590641675 
  3.738868104060096   9.348191430514737   8.355581935527367 
  8.717416969497325   9.345103704488734   8.343036980429583 
  9.964284792480109   2.876102677761948   8.339904551765928 
 -3.729463000579446   9.344773523362033   1.672491571874565 
  1.249746727728821   9.345287585779319   1.664114593252011 
  2.491701292482683   2.875597241995968   1.649017215469365 
  6.228184230633692   9.347992501748172   1.650793799092578 
  7.475819619262537   2.875601540762564   1.650375277317287 
 12.451816232279095   2.876745707387644   1.671936891264223 
 -1.240641781325440   5.032632447353033   8.341554440372985 
 -2.484625403655420  11.500788834736715   8.333324098174728 
  2.494472871229159  11.501916619567972   8.335495049689202 
  3.732481572586175   5.029444238347764   8.317948005940030 
  7.472743673071711  11.501647172421119   8.339384357901242 
 -4.974217150525282  11.500854383561109   1.669075130349256 
  8.720305405184043   5.031512008808710   8.355163413752184 
  0.005080833023302  11.500913410992979   1.673146608434009 
  1.246805217829201   5.031820493438872   1.649017215469365 
  0.004770447569974   7.188898920222002   1.661615270860974 
  6.234797850015498   5.029966026327728   1.668235622566405 
  4.983534688041191  11.503014918454204   1.666052661078340 
 11.207704782184344   5.032504767144187   1.666572854943399 
 -2.484619278005840   7.188744377942021   8.336882082494945 
  3.738768622902477   0.721424365176582   8.344341941983455 
  7.473257677898685   7.189182329728341   8.349067489948695 
  8.718802729337554   0.721061062256174   8.335495049689202 
 13.696014361031557   0.721731333706244   8.334020321580125 
  0.003341152119815   1.439993508084718   5.002978606422314 
  3.675746759613472   7.967744119913922   5.002978606422314 
  4.985820156453387   1.362081388051769   5.002978606422314 
  8.681736300519754   7.886897787808579   5.002978606422314 
  9.958164567715427   1.428893181133047   5.002978606422314 
 -4.979355039527349  10.060312718144095  11.673616748318732 
 -0.001340249510575  10.060300540501720  11.673616748318732 
  1.243918154774381   3.592671479178575  11.673616748318732 
  4.977723735601224  10.059721864035868  11.673616748318732 
  6.222049691505956   3.592139021804547  11.673616748318732 
 11.201054510850220   3.592658669413220  11.673616748318732 
 -2.519442375311523  10.043379257084867   5.002978606422314 
 -1.240644155687119   3.594639265075550   5.002978606422314 
  3.781191249118645   3.499035979550163   5.002978606422314 
  2.455591924029263  10.086360549460954   5.002978606422314 
  7.445710206328834  10.047878706679807   5.002978606422314 
  8.715387995678064   3.573341738440252   5.002978606422314 
 -6.224362447872310  12.215916693329213  11.673616748318732 
 -1.245737051108323  12.215659025645243  11.673616748318732 
 -0.001133620195620   5.748689288897762  11.673616748318732 
  4.977634444751298   5.748333584274442  11.673616748318732 
  3.732972238987603  12.215837259058933  11.673616748318732 
  9.956585000260100   5.748745002009027  11.673616748318732 
 -2.510170449097913   5.743911399323893   5.002978606422314 
 -3.754269693714821  12.184083107553635   5.002978606422314 
  1.231760673679535  12.209137347205829   5.002978606422314 
  2.431463980572315   5.836832185033587   5.002978606422314 
  6.218232838953285  12.219172018949228   5.002978606422314 
  7.438659601012297   5.726278481065314   5.002978606422314 
 -1.246002449879120   7.904529137940654  11.673616748318732 
 -0.000919417450500   1.436653620927747  11.673616748318732 
  3.732522801527972   7.904126082055380  11.673616748318732 
  4.977769255352506   1.435937942956990  11.673616748318732 
  8.712588350632668   7.904710227245753  11.673616748318732 
 -3.765302222138128   7.891467352782460   5.002978606422314 
  9.956325823302087   1.436672657560286  11.673616748318732 
  2.484981855777489   1.411325921055720   5.002978606422314 
  1.183121471268425   7.948548716667534   5.002978606422314 
  6.189046743220405   7.890671440552229   5.002978606422314 
  7.473454738543948   1.395167209310894   5.002978606422314 
  1.243057673501711   7.904648154338542  11.673616748318732 
 12.448865901388643   1.438366083933369   5.002978606422314 
 -2.490345923979286  10.060178101094731  11.673616748318732 
 -1.245666867596323   3.592619447172136  11.673616748318732 
  3.733419759623326   3.592164333488420  11.673616748318732 
  2.488061740114907  10.060035713236402  11.673616748318732 
  7.467466020715128  10.060025540664947  11.673616748318732 
  8.711450866027874   3.592716772538517  11.673616748318732 
 -5.005982674557079  10.040388932329636   5.002978606422314 
 -0.035806437300525  10.064864747959014   5.002978606422314 
  1.263456809258266   3.603952126604655   5.002978606422314 
  4.962913028698241  10.072819035379693   5.002978606422314 
  6.248756507472384   3.511160508252268   5.002978606422314 
 11.201844110064965   3.587304092210828   5.002978606422314 
 -2.490429801131741   5.748555637134368  11.673616748318732 
 -3.735020950661392  12.215635642274496  11.673616748318732 
  1.243533057448730  12.215934136143142  11.673616748318732 
  2.488229756147761   5.748896684584980  11.673616748318732 
  6.222475239230031  12.215810917368701  11.673616748318732 
 -6.238254799780618  12.201142909608810   5.002978606422314 
  7.467249322779661   5.748895562775242  11.673616748318732 
 -1.259017425396808  12.183528327718321   5.002978606422314 
 -0.024650662490639   5.758136951023176   5.002978606422314 
 -1.282952118028635   7.903635504827213   5.002978606422314 
  3.727154386979963  12.221319396645878   5.002978606422314 
  9.935187626260847   5.735977331062051   5.002978606422314 
 -3.734733899968899   7.904565668254569  11.673616748318732 
  2.488558461517868   1.436416108168047  11.673616748318732 
  6.222928571423457   7.904122325036483  11.673616748318732 
  7.466891669665283   1.436449313010519  11.673616748318732 
 12.445900327654082   1.436653909138960  11.673616748318732 
Generated by cif2cell 2.0.0.  :  Failed to get author information, No journal information. Species order: Al B N 
 1.0
 14.936314146199660   0.000000000000000   0.000000000000000
 -7.468157073099825  12.935227489513863   0.000000000000000
  0.000000000000001   0.000000000000001  13.341276283792837
 Al B N 
   1 143 143
Cartesian
  4.183833596974784   5.290032451127889   5.002978606422314 
  1.243661065165785   0.708933353882211   5.002978606422314 
  4.913665918334795   7.181205871926865   5.002978606422314 
  6.226316593649694   0.677647533565867   5.002978606422314 
  9.922686861526364   7.171579131684135   5.002978606422314 
 11.202279497844367   0.718649088278552   5.002978606422314 
 -3.735161435944526   9.341483530169597  11.673616748318732 
  1.243860676124389   9.340609382174026  11.673616748318732 
  2.490118738652424   2.875207944913305  11.673616748318732 
  6.222208522042257   9.339224730571415  11.673616748318732 
  7.465200141375022   2.875201558927701  11.673616748318732 
 12.445909879244537   2.874373722362399  11.673616748318732 
 -1.273665070230754   9.335645481229442   5.002978606422314 
  0.024832750962190   2.888832193122389   5.002978606422314 
  4.993937862655743   2.796900413890084   5.002978606422314 
  3.702035022626687   9.366601270400562   5.002978606422314 
  8.682727453018289   9.319251826543187   5.002978606422314 
  9.953646341912998   2.868833148251135   5.002978606422314 
 -4.979522634537187  11.497336087874372  11.673616748318732 
 -0.001260905727364  11.497252006418361  11.673616748318732 
  1.245676799750993   5.030644610160123  11.673616748318732 
  6.220637579216547   5.030733969776454  11.673616748318732 
  4.977780042504662  11.495754209436937  11.673616748318732 
 11.200489512410446   5.030389504064761  11.673616748318732 
 -1.253600864398092   5.034317895694367   5.002978606422314 
 -2.509469151778901  11.476120938671841   5.002978606422314 
  2.476330906675499  11.505389744503509   5.002978606422314 
  7.453281098050004  11.483649171053271   5.002978606422314 
  8.677691879101076   5.018522971122763   5.002978606422314 
 -0.000136468413192   7.185861115745475  11.673616748318732 
  1.244565379702269   0.718405661039495  11.673616748318732 
  4.977676516082735   7.183605682954058  11.673616748318732 
  6.221749658818793   0.718652749709908  11.673616748318732 
  9.955742515135055   7.185956315853486  11.673616748318732 
 -2.519504772330210   7.179159877165671   5.002978606422314 
 11.200819975534140   0.717806432679544  11.673616748318732 
  3.725238240826028   0.687395360190065   5.002978606422314 
  2.429770050578504   7.238169343540620   5.002978606422314 
  7.422184211062500   7.159695049902455   5.002978606422314 
  8.712739561485641   0.703613097609990   5.002978606422314 
  2.489447024735066   7.184944605776559  11.673616748318732 
 13.696505262807467   0.722344911669707   5.002978606422314 
 -1.245474642906691   9.341435279369584  11.673616748318732 
  0.000353408332321   2.874699038065346  11.673616748318732 
  4.977682374720398   2.875194558413007  11.673616748318732 
  3.733211970686174   9.339194683806863  11.673616748318732 
  8.711706286548040   9.340690270222584  11.673616748318732 
  9.955119511253761   2.874749363045553  11.673616748318732 
 -3.763994007138883   9.324837037429035   5.002978606422314 
  1.210632584671526   9.365067071826866   5.002978606422314 
  2.529083165595897   2.871387927416718   5.002978606422314 
  6.195628630985638   9.317582624458163   5.002978606422314 
  7.473346467566485   2.834498236598789   5.002978606422314 
 12.452593057270477   2.876864051814848   5.002978606422314 
 -1.244945448499313   5.030364901477590  11.673616748318732 
 -2.490359825844553  11.497639665807652  11.673616748318732 
  2.488156190744038  11.496428516686391  11.673616748318732 
  3.734685175708611   5.030716489203171  11.673616748318732 
  7.467304166622671  11.496456197040819  11.673616748318732 
 -4.999960318842923  11.475434909641745   5.002978606422314 
  8.709724438314744   5.030720778951186  11.673616748318732 
 -0.015302322562248  11.489145190627960   5.002978606422314 
  1.261850781027471   5.066298802485909   5.002978606422314 
 -0.031464726251909   7.194195768113849   5.002978606422314 
  6.186553983028961   4.976499071528534   5.002978606422314 
  4.971919865527801  11.497436514761430   5.002978606422314 
 11.182386768271751   5.024648683435970   5.002978606422314 
 -2.490318953455109   7.185908841852703  11.673616748318732 
  3.733684349062357   0.718693753519421  11.673616748318732 
  7.466062922465659   7.185028435741881  11.673616748318732 
  8.710891552581035   0.718334707929134  11.673616748318732 
 13.691006985224412   0.717802274448270  11.673616748318732 
  0.004867949045739   1.440637197498534   1.670987481037726 
  3.744962106420881   7.905291190118109   1.669119066319452 
  4.983723515035333   1.445941898680669   1.667038109146711 
  8.712387271428877   7.904594134113996   1.665743611692881 
  9.962649627360650   1.440349286063131   1.675130839344990 
 -4.975970423396110  10.062828613439644   8.333459422007019 
  0.006814285759913  10.062726145846430   8.331445876122389 
  1.250443060441626   3.596438635221564   8.344369318812102 
  4.983322964794061  10.062937851505295   8.344012337345337 
  6.229278357133061   3.602329221815565   8.336838146525896 
 11.207123344798518   3.595468439086059   8.333393720768617 
 -2.484474169547889  10.063568160096667   1.677000239180223 
 -1.239323305839920   3.595639665293391   1.670987481037726 
  3.737860241933088   3.600880162448348   1.675949530586021 
  2.496451328657574  10.062484065570862   1.666719241960048 
  7.470550026839918  10.062628280594673   1.664433409031428 
  8.717035607471136   3.595957853526293   1.661944875499024 
 -6.219457537779092  12.220067549488594   8.334796989391329 
 -1.239559147624526  12.221508257672356   8.331445876122389 
  0.007111382720048   5.750334305426894   8.342132415486535 
  4.985394770713794   5.752814010557890   8.188444305726112 
  3.739318194700274  12.219475519771388   8.330826373499237 
  9.960381042221606   5.750114459692753   8.341523803813587 
 -2.484382599203451   5.750727985798333   1.671160223453059 
 -3.729479347965321  12.221716325132221   1.672111926108351 
  1.250243499999653  12.219808411956214   1.676423584703881 
  2.497998126596965   5.748384340590350   1.675949530586047 
  6.227942988119521  12.219661796903065   1.672563492076292 
  7.467737735619167   5.747573526485375   1.666788457582185 
 -1.237965622704601   7.906287965225420   8.333845286735903 
  0.004867949045740   1.440637197498535   8.334969731806581 
  3.744962106420882   7.905291190118110   8.336838146525896 
  4.983723515035334   1.445941898680669   8.338919103697704 
  8.712387271428877   7.904594134113997   8.340213601151360 
 -3.730862762663751   7.906238884157950   1.672497790838115 
  9.962649627360650   1.440349286063132   8.330826373499237 
  2.494105589079441   1.442733981882957   1.663824797357772 
  1.254698483138180   7.904802716622734   1.667038109146711 
  6.222027860831767   7.905206321107433   1.666788457582185 
  7.473206799256301   1.442490733647450   1.666719241960048 
  1.254698483138181   7.904802716622735   8.338919103697704 
 12.452015485513350   1.440184497175085   1.677387499894722 
 -2.484474169547889  10.063568160096667   8.328956973663898 
 -1.239323305839920   3.595639665293392   8.334969731806581 
  3.737860241933089   3.600880162448349   8.330007682258595 
  2.496451328657575  10.062484065570862   8.339237970884433 
  7.470550026839919  10.062628280594673   8.341523803813587 
  8.717035607471136   3.595957853526294   8.344012337345337 
 -4.975970423396111  10.062828613439644   1.672497790838115 
  0.006814285759912  10.062726145846430   1.674511336721799 
  1.250443060441626   3.596438635221563   1.661587894031964 
  4.983322964794060  10.062937851505295   1.661944875499024 
  6.229278357133060   3.602329221815564   1.669119066319452 
 11.207123344798518   3.595468439086058   1.672563492076292 
 -2.484382599203450   5.750727985798334   8.334796989391329 
 -3.729479347965321  12.221716325132221   8.333845286735903 
  1.250243499999653  12.219808411956214   8.329533628139838 
  2.497998126596966   5.748384340590351   8.330007682258595 
  6.227942988119522  12.219661796903065   8.333393720768617 
 -6.219457537779093  12.220067549488594   1.671160223453059 
  7.467737735619168   5.747573526485376   8.339168755262591 
 -1.239559147624527  12.221508257672356   1.674511336721799 
  0.007111382720047   5.750334305426893   1.663824797357772 
 -1.237965622704602   7.906287965225419   1.672111926108351 
  4.985394770713794   5.752814010557889   1.817512907118609 
  3.739318194700274  12.219475519771388   1.675130839344990 
  9.960381042221606   5.750114459692752   1.664433409031428 
 -3.730862762663751   7.906238884157951   8.333459422007019 
  2.494105589079441   1.442733981882957   8.342132415486535 
  6.222027860831767   7.905206321107434   8.339168755262591 
  7.473206799256302   1.442490733647451   8.339237970884433 
 12.452015485513350   1.440184497175085   8.328569712950332 
  1.248680965621675   0.720998973203676   1.664402772471030 
  4.984091592946489   7.196252808915570   1.668235622566405 
  6.228744127787090   0.721411118125436   1.664114593252011 
  9.962420002803320   7.188695195225367   1.662920232414646 
 11.207721745790122   0.721791171594753   1.674899098514077 
 -3.729463000579445   9.344773523362033   8.333465640970090 
  1.249746727729076   9.345287585779319   8.341842619593017 
  2.491701292482683   2.875597241995969   8.356939997375235 
  6.228184230633693   9.347992501748172   8.355163413752184 
  7.475819619262538   2.875601540762565   8.355581935527367 
 12.451816232279095   2.876745707387645   8.334020321580125 
 -1.239880171518461   9.344826850196371   1.672633114670260 
  0.003228664140152   2.876359067780321   1.662361330772362 
  4.983951036192067   2.877321704948957   1.659038622203086 
  3.738868104060096   9.348191430514737   1.650375277317287 
  8.717416969497325   9.345103704488734   1.662920232414646 
  9.964284792480109   2.876102677761947   1.666052661078340 
 -4.974217150525281  11.500854383561109   8.336882082494945 
  0.005080833022943  11.500913410992979   8.332810604410632 
  1.246805217829202   5.031820493438873   8.356939997375235 
  6.234797850015499   5.029966026327729   8.337721590278196 
  4.983534688041192  11.503014918454204   8.339904551765928 
 11.207704782184344   5.032504767144188   8.339384357901242 
 -1.240641781325440   5.032632447353032   1.664402772471030 
 -2.484625403655421  11.500788834736715   1.672633114670260 
  2.494472871229158  11.501916619567972   1.670462163155225 
  3.732481572586175   5.029444238347764   1.688009206903237 
  7.472743673071710  11.501647172421119   1.666572854943399 
  8.720305405184043   5.031512008808709   1.650793799092578 
  0.004770447569974   7.188898920222003   8.344341941983455 
  1.248680965621675   0.720998973203677   8.341554440372985 
  4.984091592946490   7.196252808915570   8.337721590278196 
  6.228744127786837   0.721411118125436   8.341842619593017 
  9.962420002803320   7.188695195225368   8.343036980429583 
 -2.484619278005840   7.188744377942021   1.669075130349256 
 11.207721745790122   0.721791171594754   8.331058114329844 
  3.738768622902477   0.721424365176582   1.661615270860974 
  2.494423518408822   7.189309852590401   1.659038622203099 
  7.473257677898684   7.189182329728340   1.656889722895692 
  8.718802729337554   0.721061062256174   1.670462163155225 
  2.494423518408822   7.189309852590402   8.346918590641675 
 13.696014361031578   0.721731333706204   1.671936891264223 
 -1.239880171518461   9.344826850196371   8.333324098174728 
  0.003228664140152   2.876359067780322   8.343595882071986 
  4.983951036192068   2.877321704948958   8.346918590641675 
  3.738868104060096   9.348191430514737   8.355581935527367 
  8.717416969497325   9.345103704488734   8.343036980429583 
  9.964284792480109   2.876102677761948   8.339904551765928 
 -3.729463000579446   9.344773523362033   1.672491571874565 
  1.249746727728821   9.345287585779319   1.664114593252011 
  2.491701292482683   2.875597241995968   1.649017215469365 