B N                                     
   1.0000000000000000     
     8.7639499999999995  -15.1796066749929999    0.0000000000000000
     8.7639499999999995   15.1796066749929999    0.0000000000000000
     0.0000000000000000    0.0000000000000000   15.0000000000000000
   B    N 
    48    49
Selective dynamics
Direct
  0.9049571600244370  0.9525706026011937  0.1110246882047582   T   T   T
  0.9048854724651386  0.0953742312386403  0.1110583505330684   T   T   T
  0.9048463354164283  0.2381610504730578  0.1110514434345205   T   T   T
  0.9048403069512874  0.3809375240558976  0.1110068438346342   T   T   T
  0.9048958430276285  0.5237729871480388  0.1110325374029225   T   T   T
  0.9049397589165625  0.6667021887920489  0.1110949240944412   T   T   T
  0.9049652937291710  0.8096581902028924  0.1110770093628009   T   T   T
  0.0475239563894823  0.9522260566866549  0.1110159438065873   T   T   T
  0.0475421410802001  0.0950891296440439  0.1110242048164854   T   T   T
  0.0476093511787492  0.2380723781205527  0.1109964211875617   T   T   T
  0.0475915916378470  0.3809297747260786  0.1109990710850476   T   T   T
  0.0475261537838526  0.5238161093468775  0.1109900124203643   T   T   T
  0.0475253301333483  0.6666591072174879  0.1110112725070503   T   T   T
  0.0475822696958512  0.8094701933103915  0.1110070507377584   T   T   T
  0.1902641203693391  0.9520957404963873  0.1109800402385298   T   T   T
  0.1901049403740778  0.0946401728971703  0.1110391171025346   T   T   T
  0.1901498583234436  0.2374940805077876  0.1109987684915495   T   T   T
  0.1903706155436091  0.3808655078151827  0.1110079121979129   T   T   T
  0.1901760423870543  0.5240315358717288  0.1110680731553925   T   T   T
  0.1901247671449660  0.6668230265484387  0.1110441711080484   T   T   T
  0.1902763971961748  0.8095149943856922  0.1109836860199010   T   T   T
  0.3331521746765965  0.9522573034655238  0.1110113849985760   T   T   T
  0.3330451696312121  0.0945685038435928  0.1110577422306973   T   T   T
  0.3326438268262462  0.2365931554726965  0.1110074185824700   T   T   T
  0.3334148001604011  0.3790409332192061  0.1110125809246713   T   T   T
  0.3334710516629259  0.5257496609814190  0.1110730407695740   T   T   T
  0.3326964349797458  0.6674479441180112  0.1110919307583056   T   T   T
  0.3330802138590764  0.8098730122712232  0.1110512598267285   T   T   T
  0.4761393684935459  0.9526928066489364  0.1110138408909040   T   T   T
  0.4761227387217415  0.0948883764825813  0.1110323615122762   T   T   T
  0.4759647455658148  0.2368705687910381  0.1110574743541321   T   T   T
  0.4745859765764570  0.3778266322594517  0.1109628356215559   T   T   T
  0.4746657791915188  0.6682678818791340  0.1110067496814004   T   T   T
  0.4760215251168348  0.8105863755104352  0.1110476569384187   T   T   T
  0.6192147632134518  0.9528572660446372  0.1110191235673260   T   T   T
  0.6191416614089417  0.0953293958856048  0.1110348672507647   T   T   T
  0.6191720944415586  0.2378556555149771  0.1110656969962051   T   T   T
  0.6192447317690015  0.3804164052119245  0.1110546289842499   T   T   T
  0.6206525470193586  0.5249231681178246  0.1109964142653435   T   T   T
  0.6207687305651133  0.6673291942950169  0.1109695327358009   T   T   T
  0.6193468542190488  0.8103970327291842  0.1109740313884879   T   T   T
  0.7621502286754477  0.9527860814126125  0.1110002531408161   T   T   T
  0.7620592956440717  0.0954437437883613  0.1110592366144522   T   T   T
  0.7620315923065014  0.2381131379550968  0.1110776238159448   T   T   T
  0.7620736655783161  0.3808122260261135  0.1110721683382384   T   T   T
  0.7623991890209492  0.5238074002735709  0.1110951424860046   T   T   T
  0.7625580485652855  0.6670111930833149  0.1110628440123851   T   T   T
  0.7624929039338506  0.8101352226717029  0.1109960853271256   T   T   T
  0.9524236202917430  0.9048081375633482  0.1110312468837661   T   T   T
  0.9524374336934321  0.0477059693811864  0.1110255329284204   T   T   T
  0.9524419874133265  0.1905482573256991  0.1110288167539362   T   T   T
  0.9524235933147168  0.3333416153409012  0.1109940252711299   T   T   T
  0.9524015612787901  0.4761367428228315  0.1109631822436171   T   T   T
  0.9523991949802830  0.6189967829785286  0.1110345149061600   T   T   T
  0.9524435717839925  0.7619140200160802  0.1110661333188530   T   T   T
  0.0951174979343424  0.9046147315768056  0.1109616937490133   T   T   T
  0.0950176916408120  0.0473473828611567  0.1110153603214325   T   T   T
  0.0950597128404831  0.1902855754567634  0.1109803939401487   T   T   T
  0.0951594037885317  0.3332785932765563  0.1109738341940817   T   T   T
  0.0950688309485186  0.4761579154399699  0.1109970093422884   T   T   T
  0.0950234591582198  0.6190278148351760  0.1109844680388103   T   T   T
  0.0951222161732126  0.7618516405081420  0.1109722496204863   T   T   T
  0.2379422508803503  0.9046419229449386  0.1109614264774745   T   T   T
  0.2378428142142586  0.0471854142996220  0.1110088510828376   T   T   T
  0.2375920923980205  0.1896971942982807  0.1110117949157604   T   T   T
  0.2374961677319738  0.3327029123700732  0.1109754353179334   T   T   T
  0.2375329636519339  0.4761660672085335  0.1110480709765690   T   T   T
  0.2376353150726273  0.6192713867671613  0.1110783973707985   T   T   T
  0.2378692532113891  0.7620164063166089  0.1110094711841529   T   T   T
  0.3808872488987902  0.9049520001068081  0.1110035229735016   T   T   T
  0.3808673602532195  0.0473113945662216  0.1110201660819733   T   T   T
  0.3806786534659896  0.1895450918944357  0.1110299928970868   T   T   T
  0.3801370592844467  0.3313836068826712  0.1109442919737117   T   T   T
  0.3718932516430795  0.4716102795141820  0.1110526733180784   T   T   T
  0.3802073939999287  0.6201603721246776  0.1110376298412133   T   T   T
  0.3807319146548184  0.7625490373020691  0.1110698695489645   T   T   T
  0.5239519272829395  0.9055041262509735  0.1110044038297821   T   T   T
  0.5239057067111238  0.0476872185500612  0.1109939683297209   T   T   T
  0.5239066692077250  0.1899025366443372  0.1110450867253997   T   T   T
  0.5239841883104871  0.3316984785640692  0.1110169784239722   T   T   T
  0.5284510167395434  0.4695805930265814  0.1108837647725723   T   T   T
  0.5285877611137535  0.6304666998622466  0.1108910996539208   T   T   T
  0.5240745146398674  0.7638186287065762  0.1109960843533109   T   T   T
  0.6669960663348954  0.9054708099561738  0.1109683151941761   T   T   T
  0.6668647267800299  0.0479333011424841  0.1110252958008635   T   T   T
  0.6668361965680623  0.1904453972722216  0.1110579564215206   T   T   T
  0.6669150542950574  0.3330114012940379  0.1110516342468026   T   T   T
  0.6673194249637074  0.4757405392884850  0.1110485161187769   T   T   T
  0.6674930549822138  0.6194979164681043  0.1109880235699334   T   T   T
  0.6674389593371692  0.7631703070984259  0.1109493579501074   T   T   T
  0.8098314773470930  0.9052147116035787  0.1109808410201894   T   T   T
  0.8097238463774868  0.0479113801649291  0.1110379698375122   T   T   T
  0.8096653006423771  0.1905904710508745  0.1110578675024854   T   T   T
  0.8096735901298523  0.3332872134824451  0.1110466492455325   T   T   T
  0.8097462771058344  0.4760590766435437  0.1110687748687911   T   T   T
  0.8098153811802197  0.6190977128444601  0.1110862998415721   T   T   T
  0.8098501816686671  0.7621914115455090  0.1110414353870979   T   T   T

  0.00000000E+00  0.00000000E+00  0.00000000E+00
  0.00000000E+00  0.00000000E+00  0.00000000E+00
  0.00000000E+00  0.00000000E+00  0.00000000E+00
  0.00000000E+00  0.00000000E+00  0.00000000E+00
  0.00000000E+00  0.00000000E+00  0.00000000E+00
  0.00000000E+00  0.00000000E+00  0.00000000E+00
  0.00000000E+00  0.00000000E+00  0.00000000E+00
  0.00000000E+00  0.00000000E+00  0.00000000E+00
  0.00000000E+00  0.00000000E+00  0.00000000E+00
  0.00000000E+00  0.00000000E+00  0.00000000E+00
  0.00000000E+00  0.00000000E+00  0.00000000E+00
  0.00000000E+00  0.00000000E+00  0.00000000E+00
  0.00000000E+00  0.00000000E+00  0.00000000E+00
  0.00000000E+00  0.00000000E+00  0.00000000E+00
  0.00000000E+00  0.00000000E+00  0.00000000E+00
  0.00000000E+00  0.00000000E+00  0.00000000E+00
  0.00000000E+00  0.00000000E+00  0.00000000E+00
  0.00000000E+00  0.00000000E+00  0.00000000E+00
  0.00000000E+00  0.00000000E+00  0.00000000E+00
  0.00000000E+00  0.00000000E+00  0.00000000E+00
  0.00000000E+00  0.00000000E+00  0.00000000E+00
  0.00000000E+00  0.00000000E+00  0.00000000E+00
  0.00000000E+00  0.00000000E+00  0.00000000E+00
  0.00000000E+00  0.00000000E+00  0.00000000E+00
  0.00000000E+00  0.00000000E+00  0.00000000E+00
  0.00000000E+00  0.00000000E+00  0.00000000E+00
  0.00000000E+00  0.00000000E+00  0.00000000E+00
  0.00000000E+00  0.00000000E+00  0.00000000E+00
  0.00000000E+00  0.00000000E+00  0.00000000E+00
  0.00000000E+00  0.00000000E+00  0.00000000E+00
  0.00000000E+00  0.00000000E+00  0.00000000E+00
  0.00000000E+00  0.00000000E+00  0.00000000E+00
  0.00000000E+00  0.00000000E+00  0.00000000E+00
  0.00000000E+00  0.00000000E+00  0.00000000E+00
  0.00000000E+00  0.00000000E+00  0.00000000E+00
  0.00000000E+00  0.00000000E+00  0.00000000E+00
  0.00000000E+00  0.00000000E+00  0.00000000E+00
  0.00000000E+00  0.00000000E+00  0.00000000E+00
  0.00000000E+00  0.00000000E+00  0.00000000E+00
  0.00000000E+00  0.00000000E+00  0.00000000E+00
  0.00000000E+00  0.00000000E+00  0.00000000E+00
  0.00000000E+00  0.00000000E+00  0.00000000E+00
  0.00000000E+00  0.00000000E+00  0.00000000E+00
  0.00000000E+00  0.00000000E+00  0.00000000E+00
  0.00000000E+00  0.00000000E+00  0.00000000E+00
  0.00000000E+00  0.00000000E+00  0.00000000E+00
  0.00000000E+00  0.00000000E+00  0.00000000E+00
  0.00000000E+00  0.00000000E+00  0.00000000E+00
  0.00000000E+00  0.00000000E+00  0.00000000E+00
  0.00000000E+00  0.00000000E+00  0.00000000E+00
  0.00000000E+00  0.00000000E+00  0.00000000E+00
  0.00000000E+00  0.00000000E+00  0.00000000E+00
  0.00000000E+00  0.00000000E+00  0.00000000E+00
  0.00000000E+00  0.00000000E+00  0.00000000E+00
  0.00000000E+00  0.00000000E+00  0.00000000E+00
  0.00000000E+00  0.00000000E+00  0.00000000E+00
  0.00000000E+00  0.00000000E+00  0.00000000E+00
  0.00000000E+00  0.00000000E+00  0.00000000E+00
  0.00000000E+00  0.00000000E+00  0.00000000E+00
  0.00000000E+00  0.00000000E+00  0.00000000E+00
  0.00000000E+00  0.00000000E+00  0.00000000E+00
  0.00000000E+00  0.00000000E+00  0.00000000E+00
  0.00000000E+00  0.00000000E+00  0.00000000E+00
  0.00000000E+00  0.00000000E+00  0.00000000E+00
  0.00000000E+00  0.00000000E+00  0.00000000E+00
  0.00000000E+00  0.00000000E+00  0.00000000E+00
  0.00000000E+00  0.00000000E+00  0.00000000E+00
  0.00000000E+00  0.00000000E+00  0.00000000E+00
  0.00000000E+00  0.00000000E+00  0.00000000E+00
  0.00000000E+00  0.00000000E+00  0.00000000E+00
  0.00000000E+00  0.00000000E+00  0.00000000E+00
  0.00000000E+00  0.00000000E+00  0.00000000E+00
  0.00000000E+00  0.00000000E+00  0.00000000E+00
  0.00000000E+00  0.00000000E+00  0.00000000E+00
  0.00000000E+00  0.00000000E+00  0.00000000E+00
  0.00000000E+00  0.00000000E+00  0.00000000E+00
  0.00000000E+00  0.00000000E+00  0.00000000E+00
  0.00000000E+00  0.00000000E+00  0.00000000E+00
  0.00000000E+00  0.00000000E+00  0.00000000E+00
  0.00000000E+00  0.00000000E+00  0.00000000E+00
  0.00000000E+00  0.00000000E+00  0.00000000E+00
  0.00000000E+00  0.00000000E+00  0.00000000E+00
  0.00000000E+00  0.00000000E+00  0.00000000E+00
  0.00000000E+00  0.00000000E+00  0.00000000E+00
  0.00000000E+00  0.00000000E+00  0.00000000E+00
  0.00000000E+00  0.00000000E+00  0.00000000E+00
  0.00000000E+00  0.00000000E+00  0.00000000E+00
  0.00000000E+00  0.00000000E+00  0.00000000E+00
  0.00000000E+00  0.00000000E+00  0.00000000E+00
  0.00000000E+00  0.00000000E+00  0.00000000E+00
  0.00000000E+00  0.00000000E+00  0.00000000E+00
  0.00000000E+00  0.00000000E+00  0.00000000E+00
  0.00000000E+00  0.00000000E+00  0.00000000E+00
  0.00000000E+00  0.00000000E+00  0.00000000E+00
  0.00000000E+00  0.00000000E+00  0.00000000E+00
  0.00000000E+00  0.00000000E+00  0.00000000E+00
  0.00000000E+00  0.00000000E+00  0.00000000E+00
