 N C B 
 1.0
 17.527899999999772   0.000000000000000   0.000000000000000
 -8.763949999999658  15.179606674993195   0.000000000000000
  0.000000000000001   0.000000000000002  15.000000000000000
 N C B 
  47   4  47
Cartesian
  8.773505519990856  13.750750964699209   1.663807613180430 
 16.276474985232252   0.725873800360018   1.664157995217735 
 15.025330895458104   2.892773951015263   1.664695330469895 
 13.773113755015320   5.059868891664398   1.664517117433185 
 12.525689705284007   7.226409723603241   1.663774465981275 
 11.287237011266148   9.397763639311400   1.664730787110270 
 10.030865716098434  11.575277153202661   1.664717824982130 
 -6.254115397347825  13.741220267212579   1.663852609719405 
  1.255323078426569   0.732522326938521   1.663983692568480 
  0.004009217573373   2.898089193809476   1.663658498511555 
 -1.243952890408792   5.059868891664398   1.663796179561935 
 -2.498446854847062   7.225932756815559   1.664671492633650 
 -3.749155411071022   9.395567005981681   1.665083775388665 
 -4.999505723267999  11.569008867114240   1.664310629756190 
 -3.752958641923463  13.737213824240300   1.663796840787675 
  3.756039844811913   0.725199870464823   1.664724615257880 
  2.504446673036797   2.896925624212363   1.664800482280095 
  1.271375742098929   5.071031942685969   1.664172000358020 
  0.008437861850170   7.226131478037612   1.665160384915740 
 -1.255790518936820   9.394446611362179   1.666282984262490 
 -2.502300774593787  11.566557916492568   1.665338056810110 
 -1.252510968128496  13.736175128302150   1.664754692509545 
  6.259999558239755   0.723818651108343   1.664371725930180 
  5.004162410143418   2.883303408236549   1.665900821597295 
  3.773495581874445   5.047383112748160   1.667873588909235 
  2.520890466695392   7.250040360197716   1.667684888691630 
  1.231222171354617   9.395659164933376   1.665993403210980 
 -0.005171223011923  11.566128755770364   1.666084753064550 
  1.248666574805484  13.732724562200328   1.664300274912465 
  8.759687261120289   0.727038641420659   1.663542432243840 
  7.501085228428275   2.901066773408131   1.663992702240990 
  6.209936395114998   5.068447064772458   1.667422918724685 
  3.714771000632250   9.350530658696027   1.668000199415775 
  2.497688817559874  11.553429352690509   1.664141457761415 
  3.747016774659141  13.739549012648645   1.663230979118790 
 11.266416712352983   0.725469401618965   1.664267038835190 
 10.016350591494632   2.890647435766242   1.664382140154975 
  8.750848956179395   5.049470961980653   1.663759716075615 
  7.527244361636255   7.201905891317314   1.666150204679220 
  4.977881566118296  11.568395299584921   1.664523717205260 
  6.257327251332351  13.729552004793915   1.663561037342820 
 13.770840321487738   0.722531958246183   1.664746207880145 
 12.518870161645411   2.891666858507322   1.665481943932260 
 11.262639232781853   5.059868891664398   1.664401983214170 
 10.022204804228700   7.227001426643688   1.663863422688435 
  8.801999672285543   9.406140183774712   1.665197081362020 
  7.537002532533205  11.593466626729876   1.664667417698730 
  4.978702914738313   5.775575198442261   1.672157738516550 
  3.756889422914337   7.925952960108957   1.670951048327880 
  4.945609708582259   7.170762605934795   1.672753633166850 
  6.268057460731943   9.397417078454271   1.673575465732920 
  7.513139382258704  14.458896249647108   1.664022642325500 
 15.023507409654883   1.446598110000710   1.664957670203250 
 13.771755980456737   3.613995783614125   1.665319492055115 
 12.518900853426665   5.781082565085106   1.664296933135365 
 11.276434051206749   7.951038920190216   1.664265785399430 
 10.044579871021632  10.127290730967506   1.665180466318830 
  8.783137123811278  12.310196680873103   1.664571815621970 
 -7.504018767123351  14.468524214131039   1.663982937575490 
  0.001700429928516   1.450740017769679   1.664107086601065 
 -1.249767651478545   3.615875220256007   1.664033575176315 
 -2.500370558490558   5.781375299034059   1.664571319428360 
 -3.750540153769345   7.949828217917869   1.664718175810230 
 -4.993830873494133  10.119737783328796   1.665079338358350 
 -6.248612273715027  12.296074447376506   1.664493394926075 
 -5.004006211403708  14.460803220614910   1.664158468704420 
  2.506478585520826   1.451253033542893   1.664837366966130 
  1.257369527486190   3.620617445490314   1.664314303720560 
  0.008757919150144   5.783700538102227   1.664310650522115 
 -1.247829198659591   7.949403111417522   1.665710784115635 
 -2.502456399072664  10.119737783328796   1.666075989675240 
 -3.751134880165569  12.292082789612980   1.664478283153260 
 -2.505464625407644  14.459329811101773   1.664534962006665 
  5.009385188557602   1.443228122063994   1.665354539345400 
  3.759959398811549   3.607297070191101   1.666414952332755 
  2.526659133413141   5.790312990272985   1.666699956148455 
  1.253729589188500   7.956978340796782   1.666618279620390 
 -0.010044032961134  10.119737783328796   1.666624351393170 
 -1.253772309942733  12.291335125272942   1.665897094637070 
 -0.002385950055803  14.459273419019491   1.664392098481035 
  7.506926768408688   1.452366733385462   1.664001272794620 
  6.242388074519923   3.620207234399675   1.665863218401060 
  2.483156602337220  10.099932986168994   1.665946899866790 
  1.247966584166186  12.284201467538306   1.665205774215405 
  2.497460793558639  14.460642946520672   1.664171534816760 
 10.012468443426334   1.447301809510335   1.664138464342350 
  8.759377533566616   3.610672795715123   1.664200475078130 
  7.493174956663092   5.768676332049822   1.665580861050510 
  6.276168426682646   7.891978488650503   1.671449955047070 
  4.944786112163034  10.125350288820124   1.669390507980705 
  3.737467654429639  12.296555613776910   1.663609546669695 
  5.004108373798276  14.455803715819405   1.663904204245650 
 12.517750220284471   1.445819400064368   1.665293261450295 
 11.264801784911656   3.613505101438359   1.665284581587945 
 10.006476389727140   5.778729680664505   1.664094488769330 
  8.774910576268422   7.951583246613017   1.665288828013935 
  7.574759588903300  10.156724681785139   1.667735103892635 
  6.256417264664916  12.281575453613531   1.664450295688350 
