 B O N 
 1.0
 14.936314146199660   0.000000000000000   0.000000000000000
 -7.468157073099825  12.935227489513863   0.000000000000000
  0.000000000000001   0.000000000000001  13.341276283792837
 B O N 
 142   1 143
Cartesian
  1.246325249504174   0.727641975407219   5.002978606422314 
  4.973779618464219   7.498686664589151   5.002978606422314 
  6.210949312026941   0.745277186612600   5.002978606422314 
  9.977134535570167   7.177958517792660   5.002978606422314 
 11.204073095522308   0.703798579256945   5.002978606422314 
 -3.733901551853211   9.342040002536509  11.673616748318732 
  1.244288883941776   9.342178455446261  11.673616748318732 
  2.489352513836949   2.874393462404550  11.673616748318732 
  6.223683465346737   9.342291227173876  11.673616748318732 
  7.468242288885101   2.874423452628720  11.673616748318732 
 12.446859096291618   2.874662959026514  11.673616748318732 
 -1.250654363819386   9.340671596396914   5.002978606422314 
 -0.023271643586172   2.854693025432001   5.002978606422314 
  4.947142006798137   2.957641395019986   5.002978606422314 
  3.709890230391641   9.369555055557941   5.002978606422314 
  8.730239466420448   9.342818574447437   5.002978606422314 
  9.979971584808286   2.850155000773582   5.002978606422314 
 -4.978616981828383  11.498117068136361  11.673616748318732 
 -0.000157016644230  11.498186333847784  11.673616748318732 
  1.244363321579627   5.030114773539917  11.673616748318732 
  6.223762274502991   5.029877473248470  11.673616748318732 
  4.978757561486478  11.498592352603168  11.673616748318732 
 11.202327998589915   5.030255737856580  11.673616748318732 
 -1.248108479582807   5.016254552770739   5.002978606422314 
 -2.491169768729361  11.509835942001875   5.002978606422314 
  2.479371268296162  11.497405915857378   5.002978606422314 
  7.476051342402005  11.507139246779856   5.002978606422314 
  8.757639180731552   4.982127897961190   5.002978606422314 
 -0.000422909899385   7.186032380608455  11.673616748318732 
  1.244730878351202   0.718837165706489  11.673616748318732 
  4.978813218086488   7.185774223810017  11.673616748318732 
  6.223496639143950   0.718701416662266  11.673616748318732 
  9.957926142691651   7.185986632496103  11.673616748318732 
 -2.487348311755542   7.180253643225237   5.002978606422314 
 11.202181148079728   0.719090930412190  11.673616748318732 
  3.733168865510908   0.744779890539662   5.002978606422314 
  2.452595443509942   7.127494436515011   5.002978606422314 
  7.502297030938047   7.166123476910817   5.002978606422314 
  8.712450647278214   0.713828864576368   5.002978606422314 
  2.488907496824154   7.185882235990602  11.673616748318732 
 13.687996894263984   0.706649910289087   5.002978606422314 
 -1.244885218106133   9.342083830313431  11.673616748318732 
 -0.000156850387830   2.874545240238882  11.673616748318732 
  4.978890377581068   2.874346837489743  11.673616748318732 
  3.733866834894501   9.342332130067257  11.673616748318732 
  8.713234327400325   9.342082962541793  11.673616748318732 
  9.957584327696708   2.874600169379550  11.673616748318732 
 -3.727308878544875   9.344188591019396   5.002978606422314 
  1.229159671525115   9.324779026080705   5.002978606422314 
  2.456884404476968   2.897125749690335   5.002978606422314 
  6.241898892562496   9.379174196436246   5.002978606422314 
  7.501757627131664   2.878588002083162   5.002978606422314 
 12.447004117591469   2.857918893683371   5.002978606422314 
 -1.244929579939480   5.030233413240115  11.673616748318732 
 -2.489348390288860  11.498061608433678  11.673616748318732 
  2.489182753660189  11.498453906760410  11.673616748318732 
  3.733935252265180   5.029916078613883  11.673616748318732 
  7.468312181382990  11.498396640886327  11.673616748318732 
 -4.971692648015315  11.508894541333220   5.002978606422314 
  8.713155185905187   5.030104219449800  11.673616748318732 
 -0.010306499208679  11.501420872772311   5.002978606422314 
  1.215689164600294   4.989905962476242   5.002978606422314 
 -0.015954963306993   7.172373602947240   5.002978606422314 
  4.976408375575169  11.496865392996074   5.002978606422314 
 11.218917498533017   5.014915152548949   5.002978606422314 
 -2.489438901331741   7.186074259483857  11.673616748318732 
  3.734178779842295   0.718672508908898  11.673616748318732 
  7.468677319053795   7.185774507295851  11.673616748318732 
  8.712783048345004   0.718891796728000  11.673616748318732 
 13.691610588212862   0.719057678520143  11.673616748318732 
  0.000002642332523   1.436740270848977   1.665812288884868 
  3.732254453390973   7.904130227853312   1.670152011046388 
  4.978709542481181   1.437049265906308   1.667312888684900 
  8.714341486346704   7.904522440716531   1.665585596967910 
  9.957001496433891   1.437012712281741   1.665827765571357 
 -4.977541768158427  10.061203498630459   8.340147869587874 
 -0.001616900904688  10.061362610709608   8.339932074950152 
  1.244176541106182   3.591621767243669   8.340342320515679 
  4.978733538993009  10.061904483000552   8.339794495314418 
  6.223412143952210   3.591908114396465   8.333417516981033 
 11.201994890161892   3.592465147712853   8.340078389198959 
 -2.489606172314592  10.061156373275798   1.666344664284619 
 -1.245190250805781   3.592343320778863   1.665928855677991 
  3.734102715414584   3.591705169346653   1.667160088923224 
  2.487318440538560  10.061679908391845   1.665606522753517 
  7.470013157680158  10.061584820232783   1.665335307361621 
  8.712491775900704   3.592068309069557   1.666215101612224 
 -6.222501320260537  12.216880547243656   8.340025718481305 
 -1.245364204237207  12.217009524771791   8.339234737757671 
 -0.000876356734169   5.748080391352000   8.339979833789185 
  4.978514863222736   5.743991214427034   8.331158493883306 
  3.733303776207453  12.217260461178967   8.340777962601711 
  9.957522254908996   5.748028346417177   8.340327752674472 
 -2.489804223088199   5.748554835999331   1.666084187737340 
 -3.733700757538805  12.216815433750167   1.666575253286666 
  1.243372768321751  12.217144099407035   1.665925756325901 
  2.489245905091030   5.746318764416020   1.666840296914206 
  6.223963398317163  12.217176968074225   1.665116547396722 
  7.468031881457562   5.746380302464550   1.672277266877031 
 -1.245656521585361   7.904903488925889   8.340181014635370 
  0.000002642332523   1.436740270848978   8.340144923959761 
  3.732254453390973   7.904130227853313   8.335805201798253 
  4.978709542481182   1.437049265906309   8.338644324159727 
  8.714341486346704   7.904522440716532   8.340371615876718 
 -3.733783019176288   7.904817952119283   1.665732905358887 
  9.957001496433891   1.437012712281742   8.340129447273270 
  2.489516566947180   1.436572483843941   1.666663899472778 
  1.242777748231031   7.904672195390503   1.665660970375306 
  6.225340831477129   7.903994713262131   1.670369577500137 
  7.467614420149666   1.437121578942913   1.666623103247708 
  1.242777748231032   7.904672195390503   8.340296242469321 
 12.446697987691339   1.437045894923664   1.665751946983355 
 -2.489606172314591  10.061156373275798   8.339612548560009 
 -1.245190250805781   3.592343320778864   8.340028357166624 
  3.734102715414585   3.591705169346654   8.338797123921417 
  2.487318440538561  10.061679908391845   8.340350690091098 
  7.470013157680159  10.061584820232783   8.340621905483006 
  8.712491775900704   3.592068309069558   8.339742111232404 
 -4.977541768158428  10.061203498630459   1.665809343256739 
 -0.001616900904689  10.061362610709608   1.666025137894475 
  1.244176541106182   3.591621767243668   1.665614892328950 
  4.978733538993009  10.061904483000552   1.666162717530210 
  6.223412143952209   3.591908114396464   1.672539695863595 
 11.201994890161892   3.592465147712852   1.665878823645670 
 -2.489804223088198   5.748554835999331   8.339873025107300 
 -3.733700757538804  12.216815433750167   8.339381959557974 
  1.243372768321751  12.217144099407035   8.340031456518741 
  2.489245905091030   5.746318764416021   8.339116915930422 
  6.223963398317164  12.217176968074225   8.340840665447892 
 -6.222501320260537  12.216880547243656   1.665931494363323 
  7.468031881457563   5.746380302464551   8.333679945967596 
 -1.245364204237207  12.217009524771791   1.666722475086970 
 -0.000876356734169   5.748080391352000   1.665977379055444 
 -1.245656521585361   7.904903488925888   1.665776198209258 
  4.978514863222735   5.743991214427033   1.674798718961336 
  3.733303776207452  12.217260461178967   1.665179250242903 
  9.957522254908996   5.748028346417176   1.665629460170156 
 -3.733783019176288   7.904817952119284   8.340224307485727 
  2.489516566947180   1.436572483843941   8.339293313371849 
  6.225340831477130   7.903994713262132   8.335587635344490 
  7.467614420149667   1.437121578942914   8.339334109596919 
 12.446697987691339   1.437045894923664   8.340205265861274 
  3.726987533067109   5.072521908170204   5.002978606422314 
  1.244518287036141   0.718106068244535   1.669696721578667 
  4.978523932222898   7.185388370083669   1.697279935181428 
  6.223225892832134   0.718458787751881   1.669714045431924 
  9.957433627202363   7.185947602058133   1.669086351959681 
 11.202053245973943   0.717862363823550   1.669011805441173 
 -3.734146034833290   9.341929534659458   8.336781215520196 
  1.244371237293274   9.341787026407301   8.334987563278458 
  2.488809841366135   2.873954487944167   8.335343956217647 
  6.223411605127100   9.341511146800487   8.328864128494009 
  7.468163324080421   2.873992884447140   8.335794945164182 
 12.446712162018873   2.873772426457107   8.337089401233653 
 -1.244946376676569   9.341944531325025   1.669248717434811 
 -0.000475592730489   2.873677600943335   1.668883904713911 
  4.978467067895668   2.874210101698894   1.671011506763308 
  3.733857042676930   9.341443012473096   1.677367483423437 
  8.712879114894692   9.341874886112073   1.670393352184444 
  9.957473963968008   2.873846888021971   1.668952783259190 
 -4.978756682809267  11.497787410279928   8.336385977896084 
 -0.000356261096480  11.497811329620946   8.336267612343013 
  1.244410150579832   5.029603136468160   8.334912062912274 
  6.222993360805991   5.030026280937890   8.330301253683151 
  4.978657890918125  11.497302189470094   8.335668540817029 
 11.202026978034905   5.029928905988947   8.336920528480961 
 -1.244922624993549   5.029881634430397   1.669612174161504 
 -2.489527441585098  11.497894008029890   1.669306714866759 
  2.489004007673195  11.497498800067071   1.669976524780417 
  3.733468071869114   5.029636953459122   1.668370034286695 
  7.468223228318115  11.497535202093436   1.669797343401381 
  8.712727622956637   5.029788515324476   1.670173703011393 
 -0.000224080003705   7.185884878113522   8.336396536695441 
  1.244518287036142   0.718106068244536   8.336260491265961 
  4.978523932222899   7.185388370083670   8.308677277663200 
  6.223225892832135   0.718458787751882   8.336243167412718 
  9.957433627202363   7.185947602058134   8.336870860884947 
 -2.489594286193851   7.185956849466299   1.669055562530737 
 11.202053245973943   0.717862363823551   8.336945407403441 
  3.733895586881727   0.718430099801039   1.669689975728480 
  2.489302349993765   7.185856982704922   1.675503276690457 
  7.467931124806388   7.186046540269340   1.675612040138849 
  8.712587182738138   0.718177208562860   1.669255642689796 
  2.489302349993765   7.185856982704923   8.330453936154170 
 13.691469275188931   0.717817011243732   1.668963403930503 
 -1.244946376676568   9.341944531325025   8.336708495409818 
 -0.000475592730488   2.873677600943336   8.337073308130716 
  4.978467067895669   2.874210101698895   8.334945706081307 
  3.733857042676930   9.341443012473096   8.328589729421191 
  8.712879114894692   9.341874886112073   8.335563860660210 
  9.957473963968008   2.873846888021971   8.337004429585438 
 -3.734146034833291   9.341929534659458   1.669175997324418 
  1.244371237293273   9.341787026407301   1.670969649566170 
  2.488809841366135   2.873954487944166   1.670613256626980 
  6.223411605127099   9.341511146800487   1.677093084350618 
  7.468163324080420   2.873992884447139   1.670162267680445 
 12.446712162018873   2.873772426457106   1.668867811610961 
 -1.244922624993549   5.029881634430398   8.336345038683124 
 -2.489527441585098  11.497894008029890   8.336650497977882 
  2.489004007673195  11.497498800067071   8.335980688064211 
  3.733468071869114   5.029636953459123   8.337587178557918 
  7.468223228318116  11.497535202093436   8.336159869443248 
 -4.978756682809268  11.497787410279928   1.669571234948557 
  8.712727622956637   5.029788515324477   8.335783509833234 
 -0.000356261096480  11.497811329620946   1.669689600501629 
  1.244410150579832   5.029603136468159   1.671045149932340 
 -0.000224080003705   7.185884878113521   1.669560676149187 
  6.222993360805990   5.030026280937889   1.675655959161476 
  4.978657890918124  11.497302189470094   1.670288672027600 
 11.202026978034905   5.029928905988946   1.669036684363667 
 -2.489594286193851   7.185956849466300   8.336901650313891 
  3.733895586881728   0.718430099801040   8.336267237116148 
  7.467931124806389   7.186046540269341   8.330345172705764 
  8.712587182738138   0.718177208562861   8.336701570154844 
 13.691469275188931   0.717817011243732   8.336993808914137 
 -0.007437259906896   1.424009312393358   5.002978606422314 
  3.698136393518509   7.869296963208804   5.002978606422314 
  4.965828152887449   1.489217681367331   5.002978606422314 
  8.728224570261183   7.901397085241551   5.002978606422314 
  9.963407555478236   1.418278654963480   5.002978606422314 
 -4.978834617789373  10.060673106981580  11.673616748318732 
  0.000063863118131  10.060701022234982  11.673616748318732 
  1.244634244475320   3.593156193797839  11.673616748318732 
  4.978759712759816  10.060716233042061  11.673616748318732 
  6.223502530481659   3.593184532536720  11.673616748318732 
 11.202261914541239   3.593175203794882  11.673616748318732 
 -2.488781474658305  10.067750269383822   5.002978606422314 
 -1.253109508105033   3.580937460956724   5.002978606422314 
  3.683223441288157   3.643323303510948   5.002978606422314 
  2.476801114117197  10.048806053339669   5.002978606422314 
  7.477600324683836  10.059421804445130   5.002978606422314 
  8.744803653091688   3.568523726349816   5.002978606422314 
 -6.223564927409284  12.216614950270708  11.673616748318732 
 -1.244621931233685  12.216592667245449  11.673616748318732 
 -0.000039995217023   5.748986138136235  11.673616748318732 
  4.978755725873095   5.749117763339478  11.673616748318732 
  3.734107879675922  12.216625427278899  11.673616748318732 
  9.957611834665602   5.749015028018448  11.673616748318732 
 -2.482911665172984   5.742592183404887   5.002978606422314 
 -3.732171348892618  12.236359681879327   5.002978606422314 
  1.239307675982866  12.210822715513613   5.002978606422314 
  2.457424481096414   5.704092234726764   5.002978606422314 
  6.221772476751277  12.202119649515376   5.002978606422314 
  7.599958143782967   5.778047662344530   5.002978606422314 
 -1.244706165829433   7.904803321462913  11.673616748318732 
 -0.000043225791389   1.437250677024834  11.673616748318732 
  3.734122521512284   7.904813220095197  11.673616748318732 
  4.978803634075996   1.437265357564785  11.673616748318732 
  8.712852401525179   7.904804856580747  11.673616748318732 
 -3.726943739543491   7.904775129027715   5.002978606422314 
  9.957570535954853   1.437265708861672  11.673616748318732 
  2.489605697801847   1.460741915564198   5.002978606422314 
  1.239721154179090   7.876501732403356   5.002978606422314 
  6.247857102067508   7.883256467990492   5.002978606422314 
  7.468780400574329   1.437394424978612   5.002978606422314 
  1.244726951430784   7.904808519700187  11.673616748318732 
 12.446072366386270   1.420353546907645   5.002978606422314 
 -2.489377834526674  10.060680744229835  11.673616748318732 
 -1.244725217614685   3.593146195785611  11.673616748318732 
  3.734041944600358   3.593193154481688  11.673616748318732 
  2.489449532364433  10.060698590264609  11.673616748318732 
  7.468075399151305  10.060722836138227  11.673616748318732 
  8.712906057781884   3.593157549043704  11.673616748318732 
 -4.972954244717116  10.065367086425621   5.002978606422314 
 -0.003045703287100  10.055027062850831   5.002978606422314 
  1.211061519880807   3.575761966309609   5.002978606422314 
  4.974764120918668  10.042749660560705   5.002978606422314 
  6.240916987933167   3.509590931675350   5.002978606422314 
 11.211808595720957   3.579016466848161   5.002978606422314 
 -2.489403679995873   5.748997738127687  11.673616748318732 
 -3.734116208239158  12.216578656781184  11.673616748318732 
  1.244741116022838  12.216607454337318  11.673616748318732 
  2.489342888127454   5.749057584833909  11.673616748318732 
  6.223444347059959  12.216640392038226  11.673616748318732 
 -6.219123148078754  12.222986776955969   5.002978606422314 
  7.468196259860917   5.749030172717952  11.673616748318732 
 -1.251351756274351  12.233947971563964   5.002978606422314 
 -0.002213835108377   5.739137920186439   5.002978606422314 
 -1.246806020341664   7.901359899932122   5.002978606422314 
  3.731491183428066  12.198632357819868   5.002978606422314 
  9.980189198997904   5.742204995067091   5.002978606422314 
 -3.734068570814790   7.904799309149865  11.673616748318732 
  2.489325025663989   1.437258537509282  11.673616748318732 
  6.223381072636966   7.904821493837243  11.673616748318732 
  7.468211252577798   1.437235913553712  11.673616748318732 
 12.446952981192643   1.437275343106522  11.673616748318732 
Generated by cif2cell 2.0.0.  :  Failed to get author information, No journal information. Species order: B O N 
 1.0
 14.936314146199660   0.000000000000000   0.000000000000000
 -7.468157073099825  12.935227489513863   0.000000000000000
  0.000000000000001   0.000000000000001  13.341276283792837
 B O N 
 142   1 143
Cartesian
  1.246325249504174   0.727641975407219   5.002978606422314 
  4.973779618464219   7.498686664589151   5.002978606422314 
  6.210949312026941   0.745277186612600   5.002978606422314 
  9.977134535570167   7.177958517792660   5.002978606422314 
 11.204073095522308   0.703798579256945   5.002978606422314 
 -3.733901551853211   9.342040002536509  11.673616748318732 
  1.244288883941776   9.342178455446261  11.673616748318732 
  2.489352513836949   2.874393462404550  11.673616748318732 
  6.223683465346737   9.342291227173876  11.673616748318732 
  7.468242288885101   2.874423452628720  11.673616748318732 
 12.446859096291618   2.874662959026514  11.673616748318732 
 -1.250654363819386   9.340671596396914   5.002978606422314 
 -0.023271643586172   2.854693025432001   5.002978606422314 
  4.947142006798137   2.957641395019986   5.002978606422314 
  3.709890230391641   9.369555055557941   5.002978606422314 
  8.730239466420448   9.342818574447437   5.002978606422314 
  9.979971584808286   2.850155000773582   5.002978606422314 
 -4.978616981828383  11.498117068136361  11.673616748318732 
 -0.000157016644230  11.498186333847784  11.673616748318732 
  1.244363321579627   5.030114773539917  11.673616748318732 
  6.223762274502991   5.029877473248470  11.673616748318732 
  4.978757561486478  11.498592352603168  11.673616748318732 
 11.202327998589915   5.030255737856580  11.673616748318732 
 -1.248108479582807   5.016254552770739   5.002978606422314 
 -2.491169768729361  11.509835942001875   5.002978606422314 
  2.479371268296162  11.497405915857378   5.002978606422314 
  7.476051342402005  11.507139246779856   5.002978606422314 
  8.757639180731552   4.982127897961190   5.002978606422314 
 -0.000422909899385   7.186032380608455  11.673616748318732 
  1.244730878351202   0.718837165706489  11.673616748318732 
  4.978813218086488   7.185774223810017  11.673616748318732 
  6.223496639143950   0.718701416662266  11.673616748318732 
  9.957926142691651   7.185986632496103  11.673616748318732 
 -2.487348311755542   7.180253643225237   5.002978606422314 
 11.202181148079728   0.719090930412190  11.673616748318732 
  3.733168865510908   0.744779890539662   5.002978606422314 
  2.452595443509942   7.127494436515011   5.002978606422314 
  7.502297030938047   7.166123476910817   5.002978606422314 
  8.712450647278214   0.713828864576368   5.002978606422314 
  2.488907496824154   7.185882235990602  11.673616748318732 
 13.687996894263984   0.706649910289087   5.002978606422314 
 -1.244885218106133   9.342083830313431  11.673616748318732 
 -0.000156850387830   2.874545240238882  11.673616748318732 
  4.978890377581068   2.874346837489743  11.673616748318732 
  3.733866834894501   9.342332130067257  11.673616748318732 
  8.713234327400325   9.342082962541793  11.673616748318732 
  9.957584327696708   2.874600169379550  11.673616748318732 
 -3.727308878544875   9.344188591019396   5.002978606422314 
  1.229159671525115   9.324779026080705   5.002978606422314 
  2.456884404476968   2.897125749690335   5.002978606422314 
  6.241898892562496   9.379174196436246   5.002978606422314 
  7.501757627131664   2.878588002083162   5.002978606422314 
 12.447004117591469   2.857918893683371   5.002978606422314 
 -1.244929579939480   5.030233413240115  11.673616748318732 
 -2.489348390288860  11.498061608433678  11.673616748318732 
  2.489182753660189  11.498453906760410  11.673616748318732 
  3.733935252265180   5.029916078613883  11.673616748318732 
  7.468312181382990  11.498396640886327  11.673616748318732 
 -4.971692648015315  11.508894541333220   5.002978606422314 
  8.713155185905187   5.030104219449800  11.673616748318732 
 -0.010306499208679  11.501420872772311   5.002978606422314 
  1.215689164600294   4.989905962476242   5.002978606422314 
 -0.015954963306993   7.172373602947240   5.002978606422314 
  4.976408375575169  11.496865392996074   5.002978606422314 
 11.218917498533017   5.014915152548949   5.002978606422314 
 -2.489438901331741   7.186074259483857  11.673616748318732 
  3.734178779842295   0.718672508908898  11.673616748318732 
  7.468677319053795   7.185774507295851  11.673616748318732 
  8.712783048345004   0.718891796728000  11.673616748318732 
 13.691610588212862   0.719057678520143  11.673616748318732 
  0.000002642332523   1.436740270848977   1.665812288884868 
  3.732254453390973   7.904130227853312   1.670152011046388 
  4.978709542481181   1.437049265906308   1.667312888684900 
  8.714341486346704   7.904522440716531   1.665585596967910 
  9.957001496433891   1.437012712281741   1.665827765571357 
 -4.977541768158427  10.061203498630459   8.340147869587874 
 -0.001616900904688  10.061362610709608   8.339932074950152 
  1.244176541106182   3.591621767243669   8.340342320515679 
  4.978733538993009  10.061904483000552   8.339794495314418 
  6.223412143952210   3.591908114396465   8.333417516981033 
 11.201994890161892   3.592465147712853   8.340078389198959 
 -2.489606172314592  10.061156373275798   1.666344664284619 
 -1.245190250805781   3.592343320778863   1.665928855677991 
  3.734102715414584   3.591705169346653   1.667160088923224 
  2.487318440538560  10.061679908391845   1.665606522753517 
  7.470013157680158  10.061584820232783   1.665335307361621 
  8.712491775900704   3.592068309069557   1.666215101612224 
 -6.222501320260537  12.216880547243656   8.340025718481305 
 -1.245364204237207  12.217009524771791   8.339234737757671 
 -0.000876356734169   5.748080391352000   8.339979833789185 
  4.978514863222736   5.743991214427034   8.331158493883306 
  3.733303776207453  12.217260461178967   8.340777962601711 
  9.957522254908996   5.748028346417177   8.340327752674472 
 -2.489804223088199   5.748554835999331   1.666084187737340 
 -3.733700757538805  12.216815433750167   1.666575253286666 
  1.243372768321751  12.217144099407035   1.665925756325901 
  2.489245905091030   5.746318764416020   1.666840296914206 
  6.223963398317163  12.217176968074225   1.665116547396722 
  7.468031881457562   5.746380302464550   1.672277266877031 
 -1.245656521585361   7.904903488925889   8.340181014635370 
  0.000002642332523   1.436740270848978   8.340144923959761 
  3.732254453390973   7.904130227853313   8.335805201798253 
  4.978709542481182   1.437049265906309   8.338644324159727 
  8.714341486346704   7.904522440716532   8.340371615876718 
 -3.733783019176288   7.904817952119283   1.665732905358887 
  9.957001496433891   1.437012712281742   8.340129447273270 
  2.489516566947180   1.436572483843941   1.666663899472778 
  1.242777748231031   7.904672195390503   1.665660970375306 
  6.225340831477129   7.903994713262131   1.670369577500137 
  7.467614420149666   1.437121578942913   1.666623103247708 
  1.242777748231032   7.904672195390503   8.340296242469321 
 12.446697987691339   1.437045894923664   1.665751946983355 
 -2.489606172314591  10.061156373275798   8.339612548560009 
 -1.245190250805781   3.592343320778864   8.340028357166624 
  3.734102715414585   3.591705169346654   8.338797123921417 
  2.487318440538561  10.061679908391845   8.340350690091098 
  7.470013157680159  10.061584820232783   8.340621905483006 
  8.712491775900704   3.592068309069558   8.339742111232404 
 -4.977541768158428  10.061203498630459   1.665809343256739 
 -0.001616900904689  10.061362610709608   1.666025137894475 
  1.244176541106182   3.591621767243668   1.665614892328950 
  4.978733538993009  10.061904483000552   1.666162717530210 
  6.223412143952209   3.591908114396464   1.672539695863595 
 11.201994890161892   3.592465147712852   1.665878823645670 
 -2.489804223088198   5.748554835999331   8.339873025107300 
 -3.733700757538804  12.216815433750167   8.339381959557974 
  1.243372768321751  12.217144099407035   8.340031456518741 
  2.489245905091030   5.746318764416021   8.339116915930422 
  6.223963398317164  12.217176968074225   8.340840665447892 
 -6.222501320260537  12.216880547243656   1.665931494363323 
  7.468031881457563   5.746380302464551   8.333679945967596 
 -1.245364204237207  12.217009524771791   1.666722475086970 
 -0.000876356734169   5.748080391352000   1.665977379055444 
 -1.245656521585361   7.904903488925888   1.665776198209258 
  4.978514863222735   5.743991214427033   1.674798718961336 
  3.733303776207452  12.217260461178967   1.665179250242903 
  9.957522254908996   5.748028346417176   1.665629460170156 
 -3.733783019176288   7.904817952119284   8.340224307485727 
  2.489516566947180   1.436572483843941   8.339293313371849 
  6.225340831477130   7.903994713262132   8.335587635344490 
  7.467614420149667   1.437121578942914   8.339334109596919 
 12.446697987691339   1.437045894923664   8.340205265861274 
  3.726987533067109   5.072521908170204   5.002978606422314 
  1.244518287036141   0.718106068244535   1.669696721578667 
  4.978523932222898   7.185388370083669   1.697279935181428 
  6.223225892832134   0.718458787751881   1.669714045431924 
  9.957433627202363   7.185947602058133   1.669086351959681 
 11.202053245973943   0.717862363823550   1.669011805441173 
 -3.734146034833290   9.341929534659458   8.336781215520196 
  1.244371237293274   9.341787026407301   8.334987563278458 
  2.488809841366135   2.873954487944167   8.335343956217647 
  6.223411605127100   9.341511146800487   8.328864128494009 
  7.468163324080421   2.873992884447140   8.335794945164182 
 12.446712162018873   2.873772426457107   8.337089401233653 
 -1.244946376676569   9.341944531325025   1.669248717434811 
 -0.000475592730489   2.873677600943335   1.668883904713911 
  4.978467067895668   2.874210101698894   1.671011506763308 
  3.733857042676930   9.341443012473096   1.677367483423437 
  8.712879114894692   9.341874886112073   1.670393352184444 
  9.957473963968008   2.873846888021971   1.668952783259190 
 -4.978756682809267  11.497787410279928   8.336385977896084 
 -0.000356261096480  11.497811329620946   8.336267612343013 
  1.244410150579832   5.029603136468160   8.334912062912274 
  6.222993360805991   5.030026280937890   8.330301253683151 
  4.978657890918125  11.497302189470094   8.335668540817029 
 11.202026978034905   5.029928905988947   8.336920528480961 
 -1.244922624993549   5.029881634430397   1.669612174161504 
 -2.489527441585098  11.497894008029890   1.669306714866759 
  2.489004007673195  11.497498800067071   1.669976524780417 
  3.733468071869114   5.029636953459122   1.668370034286695 
  7.468223228318115  11.497535202093436   1.669797343401381 
  8.712727622956637   5.029788515324476   1.670173703011393 
 -0.000224080003705   7.185884878113522   8.336396536695441 
  1.244518287036142   0.718106068244536   8.336260491265961 
  4.978523932222899   7.185388370083670   8.308677277663200 
  6.223225892832135   0.718458787751882   8.336243167412718 
  9.957433627202363   7.185947602058134   8.336870860884947 
 -2.489594286193851   7.185956849466299   1.669055562530737 
 11.202053245973943   0.717862363823551   8.336945407403441 
  3.733895586881727   0.718430099801039   1.669689975728480 
  2.489302349993765   7.185856982704922   1.675503276690457 
  7.467931124806388   7.186046540269340   1.675612040138849 
  8.712587182738138   0.718177208562860   1.669255642689796 
  2.489302349993765   7.185856982704923   8.330453936154170 
 13.691469275188931   0.717817011243732   1.668963403930503 
 -1.244946376676568   9.341944531325025   8.336708495409818 
 -0.000475592730488   2.873677600943336   8.337073308130716 
  4.978467067895669   2.874210101698895   8.334945706081307 
  3.733857042676930   9.341443012473096   8.328589729421191 
  8.712879114894692   9.341874886112073   8.335563860660210 
  9.957473963968008   2.873846888021971   8.337004429585438 
 -3.734146034833291   9.341929534659458   1.669175997324418 
  1.244371237293273   9.341787026407301   1.670969649566170 
  2.488809841366135   2.873954487944166   1.670613256626980 
  6.223411605127099   9.341511146800487   1.677093084350618 
  7.468163324080420   2.873992884447139   1.670162267680445 