B N                                     
   1.0000000000000000     
     8.7639499999999995  -15.1796066749929999    0.0000000000000000
     8.7639499999999995   15.1796066749929999    0.0000000000000000
     0.0000000000000000    0.0000000000000000   15.0000000000000000
   B    N 
    47    49
Selective dynamics
Direct
  0.9057214937619251  0.9525733467021121  0.1110233287774293   T   T   T
  0.9052313134912620  0.0953177019041085  0.1110573906279863   T   T   T
  0.9046739580363673  0.2380800493802440  0.1110444360766273   T   T   T
  0.9042230211140518  0.3809440849181231  0.1110048500069202   T   T   T
  0.9036287901199030  0.5237289522670989  0.1110326720081853   T   T   T
  0.9036122793147244  0.6666166731663700  0.1111152064756539   T   T   T
  0.9062965937930296  0.8101202578788267  0.1110810496893240   T   T   T
  0.0484159032625113  0.9523905712599608  0.1110188687281582   T   T   T
  0.0479469253342443  0.0949864795443103  0.1110088439694288   T   T   T
  0.0475714300152753  0.2376909811041988  0.1109904299952686   T   T   T
  0.0473651270007160  0.3803503629467951  0.1110009602614818   T   T   T
  0.0472792419207240  0.5232174691631990  0.1109967479349549   T   T   T
  0.0471740349494794  0.6661782692883262  0.1110177066327768   T   T   T
  0.0481206417190498  0.8092725829390995  0.1110400993441539   T   T   T
  0.1909548767262040  0.9520299501931812  0.1110169463394217   T   T   T
  0.1907107183084897  0.0948153958583016  0.1110190193317446   T   T   T
  0.1903712829086971  0.2374583338218788  0.1109911548314665   T   T   T
  0.1903751206190914  0.3796883672940655  0.1109902627511707   T   T   T
  0.1906933559901847  0.5221251293864233  0.1110527999586967   T   T   T
  0.1904960445335268  0.6658817310623989  0.1110570439690020   T   T   T
  0.1908207565215594  0.8090101708047330  0.1109949057788975   T   T   T
  0.3337482363712136  0.9520341809549848  0.1110238810750877   T   T   T
  0.3336160122911737  0.0949098158842942  0.1110762247733799   T   T   T
  0.3330762000781816  0.2373579288069154  0.1110564262170303   T   T   T
  0.3340861444037989  0.3809610642018286  0.1110170061381310   T   T   T
  0.3347698158855136  0.5182604806072946  0.1110589451505736   T   T   T
  0.3329398205185167  0.6657176244142619  0.1111568282591765   T   T   T
  0.3337240245892316  0.8090946949079931  0.1110902670793044   T   T   T
  0.4767180918974329  0.9525135702835447  0.1110118199881544   T   T   T
  0.4765027953275820  0.0953891051846333  0.1110017907945431   T   T   T
  0.4761389760142357  0.2384435221747049  0.1110788882479630   T   T   T
  0.4745161668810178  0.3814273322278742  0.1110218991477404   T   T   T
  0.4699199614181624  0.6736923520813562  0.1110610572277803   T   T   T
  0.4768984952542952  0.8105165083640742  0.1110936378942548   T   T   T
  0.6202141048775591  0.9523376632584526  0.1109914406871322   T   T   T
  0.6193808484334260  0.0954888073895868  0.1110019567126745   T   T   T
  0.6189297911481424  0.2389883246708620  0.1110658800167751   T   T   T
  0.6178779595243294  0.3827604893667186  0.1110420507544310   T   T   T
  0.6134423510033470  0.5259208653373848  0.1109776376714005   T   T   T
  0.6225906354659432  0.8095053660310275  0.1109476580399109   T   T   T
  0.7632777724954938  0.9528520216937851  0.1109808817864044   T   T   T
  0.7623410276531547  0.0954766427251967  0.1110431192547896   T   T   T
  0.7617238720020150  0.2384532530272813  0.1110801776949656   T   T   T
  0.7609903313164323  0.3815402932546010  0.1110713368615566   T   T   T
  0.7596313834342308  0.5243724941356435  0.1110822455142614   T   T   T
  0.7609680367565494  0.6685729948909196  0.1110466652197811   T   T   T
  0.7645146628081887  0.8100658104662692  0.1109309849917931   T   T   T
  0.9531419026790909  0.9049150935468425  0.1110233091444166   T   T   T
  0.9525016804147882  0.0473479527596224  0.1110278853918673   T   T   T
  0.9521140227200209  0.1902091705538551  0.1110228831035732   T   T   T
  0.9519388541801272  0.3332289718587504  0.1109869833594612   T   T   T
  0.9518484212200881  0.4762669273096096  0.1109745899260677   T   T   T
  0.9516258141917361  0.6190882252570533  0.1110394228845765   T   T   T
  0.9527964808677634  0.7618804985521329  0.1110823355124424   T   T   T
  0.0956688328532420  0.9043277974042733  0.1110026260279302   T   T   T
  0.0953610462603467  0.0471073359318188  0.1109857107453089   T   T   T
  0.0947796821182842  0.1897254532454774  0.1109663912855462   T   T   T
  0.0946765865505005  0.3326711746142913  0.1109702421729580   T   T   T
  0.0952258988781742  0.4757881243720942  0.1109961156002819   T   T   T
  0.0952660730683501  0.6186828079896048  0.1109971077736649   T   T   T
  0.0955735403695830  0.7614370255893703  0.1109822370742566   T   T   T
  0.2385606991674114  0.9040816138033071  0.1109847999245493   T   T   T
  0.2382717445214390  0.0468571786260526  0.1110222851438872   T   T   T
  0.2375563231729491  0.1892676451109900  0.1110081097740660   T   T   T
  0.2371691354281261  0.3318852295694054  0.1109733840816009   T   T   T
  0.2382324605925088  0.4751205193368443  0.1110193703362078   T   T   T
  0.2387415012659288  0.6183078943133163  0.1110892081097780   T   T   T
  0.2387450019462096  0.7612337355165620  0.1110273708298577   T   T   T
  0.3816049980215547  0.9040664958850172  0.1110283880035551   T   T   T
  0.3812898739852585  0.0469514963657225  0.1110092150432020   T   T   T
  0.3808855148532615  0.1895319553885292  0.1110696406331234   T   T   T
  0.3795640011658028  0.3310591470108115  0.1110172571575943   T   T   T
  0.3803305786837572  0.4731756027803128  0.1110177543095315   T   T   T
  0.3822699814165195  0.6170204360428897  0.1110975577028973   T   T   T
  0.3821407270816264  0.7611057357454553  0.1111361531767952   T   T   T
  0.5247797841906514  0.9044713579371474  0.1110091471569378   T   T   T
  0.5241679934977522  0.0473068212004821  0.1109566445268347   T   T   T
  0.5238724028001406  0.1904060433746315  0.1110369335087839   T   T   T
  0.5232172228167569  0.3333336274181756  0.1110392090837160   T   T   T
  0.5222129188169427  0.4740817898500622  0.1109437072489934   T   T   T
  0.5268682510738195  0.7621354008010968  0.1110231307203623   T   T   T
  0.6677777961548987  0.9039205345540899  0.1109493232425374   T   T   T
  0.6669500591418608  0.0471797416677068  0.1109864308700897   T   T   T
  0.6665464255678460  0.1906532795395940  0.1110480472934422   T   T   T
  0.6660532232434213  0.3344305839046184  0.1110574297207956   T   T   T
  0.6648690791893151  0.4789263215220790  0.1110256756370964   T   T   T
  0.6181021121220336  0.6695624415773181  0.1107410797535096   T   T   T
  0.6645508241050805  0.6249326360905681  0.1109087698257060   T   T   T
  0.6688536245504639  0.7605276373218670  0.1108255229552198   T   T   T
  0.8100994283705744  0.9047521683187869  0.1109608693465661   T   T   T
  0.8098043302344082  0.0475524287866199  0.1110218533050701   T   T   T
  0.8093144884303736  0.1904601352511517  0.1110577649812275   T   T   T
  0.8089604350529884  0.3336732697181012  0.1110355329235206   T   T   T
  0.8082837495529323  0.4769186063523644  0.1110545840550032   T   T   T
  0.8077516303334523  0.6199827014760593  0.1111048086168201   T   T   T
  0.8111778352136618  0.7630670366162119  0.1110133213659895   T   T   T

  0.00000000E+00  0.00000000E+00  0.00000000E+00
  0.00000000E+00  0.00000000E+00  0.00000000E+00
  0.00000000E+00  0.00000000E+00  0.00000000E+00
  0.00000000E+00  0.00000000E+00  0.00000000E+00
  0.00000000E+00  0.00000000E+00  0.00000000E+00
  0.00000000E+00  0.00000000E+00  0.00000000E+00
  0.00000000E+00  0.00000000E+00  0.00000000E+00
  0.00000000E+00  0.00000000E+00  0.00000000E+00
  0.00000000E+00  0.00000000E+00  0.00000000E+00
  0.00000000E+00  0.00000000E+00  0.00000000E+00
  0.00000000E+00  0.00000000E+00  0.00000000E+00
  0.00000000E+00  0.00000000E+00  0.00000000E+00
  0.00000000E+00  0.00000000E+00  0.00000000E+00
  0.00000000E+00  0.00000000E+00  0.00000000E+00
  0.00000000E+00  0.00000000E+00  0.00000000E+00
  0.00000000E+00  0.00000000E+00  0.00000000E+00
  0.00000000E+00  0.00000000E+00  0.00000000E+00
  0.00000000E+00  0.00000000E+00  0.00000000E+00
  0.00000000E+00  0.00000000E+00  0.00000000E+00
  0.00000000E+00  0.00000000E+00  0.00000000E+00
  0.00000000E+00  0.00000000E+00  0.00000000E+00
  0.00000000E+00  0.00000000E+00  0.00000000E+00
  0.00000000E+00  0.00000000E+00  0.00000000E+00
  0.00000000E+00  0.00000000E+00  0.00000000E+00
  0.00000000E+00  0.00000000E+00  0.00000000E+00
  0.00000000E+00  0.00000000E+00  0.00000000E+00
  0.00000000E+00  0.00000000E+00  0.00000000E+00
  0.00000000E+00  0.00000000E+00  0.00000000E+00
  0.00000000E+00  0.00000000E+00  0.00000000E+00
  0.00000000E+00  0.00000000E+00  0.00000000E+00
  0.00000000E+00  0.00000000E+00  0.00000000E+00
  0.00000000E+00  0.00000000E+00  0.00000000E+00
  0.00000000E+00  0.00000000E+00  0.00000000E+00
  0.00000000E+00  0.00000000E+00  0.00000000E+00
  0.00000000E+00  0.00000000E+00  0.00000000E+00
  0.00000000E+00  0.00000000E+00  0.00000000E+00
  0.00000000E+00  0.00000000E+00  0.00000000E+00
  0.00000000E+00  0.00000000E+00  0.00000000E+00
  0.00000000E+00  0.00000000E+00  0.00000000E+00
  0.00000000E+00  0.00000000E+00  0.00000000E+00
  0.00000000E+00  0.00000000E+00  0.00000000E+00
  0.00000000E+00  0.00000000E+00  0.00000000E+00
  0.00000000E+00  0.00000000E+00  0.00000000E+00
  0.00000000E+00  0.00000000E+00  0.00000000E+00
  0.00000000E+00  0.00000000E+00  0.00000000E+00
  0.00000000E+00  0.00000000E+00  0.00000000E+00
  0.00000000E+00  0.00000000E+00  0.00000000E+00
  0.00000000E+00  0.00000000E+00  0.00000000E+00
  0.00000000E+00  0.00000000E+00  0.00000000E+00
  0.00000000E+00  0.00000000E+00  0.00000000E+00
  0.00000000E+00  0.00000000E+00  0.00000000E+00
  0.00000000E+00  0.00000000E+00  0.00000000E+00
  0.00000000E+00  0.00000000E+00  0.00000000E+00
  0.00000000E+00  0.00000000E+00  0.00000000E+00
  0.00000000E+00  0.00000000E+00  0.00000000E+00
  0.00000000E+00  0.00000000E+00  0.00000000E+00
  0.00000000E+00  0.00000000E+00  0.00000000E+00
  0.00000000E+00  0.00000000E+00  0.00000000E+00
  0.00000000E+00  0.00000000E+00  0.00000000E+00
  0.00000000E+00  0.00000000E+00  0.00000000E+00
  0.00000000E+00  0.00000000E+00  0.00000000E+00
  0.00000000E+00  0.00000000E+00  0.00000000E+00
  0.00000000E+00  0.00000000E+00  0.00000000E+00
  0.00000000E+00  0.00000000E+00  0.00000000E+00
  0.00000000E+00  0.00000000E+00  0.00000000E+00
  0.00000000E+00  0.00000000E+00  0.00000000E+00
  0.00000000E+00  0.00000000E+00  0.00000000E+00
  0.00000000E+00  0.00000000E+00  0.00000000E+00
  0.00000000E+00  0.00000000E+00  0.00000000E+00
  0.00000000E+00  0.00000000E+00  0.00000000E+00
  0.00000000E+00  0.00000000E+00  0.00000000E+00
  0.00000000E+00  0.00000000E+00  0.00000000E+00
  0.00000000E+00  0.00000000E+00  0.00000000E+00
  0.00000000E+00  0.00000000E+00  0.00000000E+00
  0.00000000E+00  0.00000000E+00  0.00000000E+00
  0.00000000E+00  0.00000000E+00  0.00000000E+00
  0.00000000E+00  0.00000000E+00  0.00000000E+00
  0.00000000E+00  0.00000000E+00  0.00000000E+00
  0.00000000E+00  0.00000000E+00  0.00000000E+00
  0.00000000E+00  0.00000000E+00  0.00000000E+00
  0.00000000E+00  0.00000000E+00  0.00000000E+00
  0.00000000E+00  0.00000000E+00  0.00000000E+00
  0.00000000E+00  0.00000000E+00  0.00000000E+00
  0.00000000E+00  0.00000000E+00  0.00000000E+00
  0.00000000E+00  0.00000000E+00  0.00000000E+00
  0.00000000E+00  0.00000000E+00  0.00000000E+00
  0.00000000E+00  0.00000000E+00  0.00000000E+00
  0.00000000E+00  0.00000000E+00  0.00000000E+00
  0.00000000E+00  0.00000000E+00  0.00000000E+00
  0.00000000E+00  0.00000000E+00  0.00000000E+00
  0.00000000E+00  0.00000000E+00  0.00000000E+00
  0.00000000E+00  0.00000000E+00  0.00000000E+00
  0.00000000E+00  0.00000000E+00  0.00000000E+00
  0.00000000E+00  0.00000000E+00  0.00000000E+00
  0.00000000E+00  0.00000000E+00  0.00000000E+00
  0.00000000E+00  0.00000000E+00  0.00000000E+00
