 C N B 
 1.0
 17.527899999999772   0.000000000000000   0.000000000000000
 -8.763949999999658  15.179606674993195   0.000000000000000
  0.000000000000001   0.000000000000002  15.000000000000000
 C N B 
   3  47  47
Cartesian
  3.695355533432378   7.936036504569844   1.662667402112070 
  4.948620561040130   7.250907794326007   1.661871449990895 
  3.738272444895444   9.364890356696876   1.655897111433630 
  8.768015762034667  13.738771363068532   1.665223538308230 
 16.271369673314194   0.721202231168148   1.665301389926520 
 15.018240888954431   2.891133125086212   1.665626151573675 
 13.768305228352773   5.059868891664398   1.665451960038480 
 12.523713630668471   7.228214656096132   1.664951993294550 
 11.277315983949816   9.398175758235633   1.665433339064010 
 10.025805077263875  11.570474587967746   1.665673442741985 
 -6.257677690017527  13.731528507172763   1.665051966644475 
  1.246917584645630   0.711651656076576   1.665382122163035 
 -0.014124435612625   2.877046125459839   1.665218493499395 
 -1.266198315868351   5.063351829427853   1.664950664018085 
 -2.502723387154645   7.233198402513488   1.664897197754385 
 -3.759982829682219   9.398558677259514   1.665523208123085 
 -5.006032129194972  11.566380132918971   1.665188176530825 
 -3.755291433277532  13.731701366272825   1.664983170252240 
  3.757701757277972   0.709197023853137   1.665695613964845 
  2.494997804826900   2.852992598969494   1.666513646784240 
  1.121505388985007   4.981758147695759   1.660719139331730 
  0.011677603520626   7.251733021891448   1.663671184246125 
 -1.271579618111393   9.405657548138645   1.665349757738235 
 -2.510573017967135  11.569878271800036   1.665615095503860 
 -1.254614710081500  13.738180932642228   1.665442023715575 
  6.266141386381197   0.713860625196176   1.665423829518525 
  5.021836802902236   2.861865802727734   1.665856552424580 
  3.875717781978205   4.939614846052423   1.662586566895935 
  2.538883647056540   7.273379437688616   1.679766756980820 
  1.204300701798757   9.425463734875260   1.666818978613515 
 -0.015677946120174  11.581566127510838   1.665633684005790 
  1.245952447179826  13.745635951643164   1.665418019868510 
  8.766311070447804   0.723777203529364   1.664902332202650 
  7.521855380287807   2.882047492465492   1.665266093331540 
  6.281374458714314   5.039387588065242   1.665142054476645 
  2.483828645309559  11.586533792306195   1.663990456026045 
  3.756358794238349  13.733271283578906   1.665179913242280 
 11.267881659322850   0.722932039036760   1.665341680313055 
 10.016153268173040   2.890989209784756   1.665474977133795 
  8.769002591190732   5.059868891664398   1.665115305955155 
  7.523700388430861   7.242972564535857   1.665317587889130 
  6.314302348887423   9.433918021415476   1.665868310535825 
  5.023424197602864  11.577007465427092   1.665575212802505 
  6.263820813574465  13.741290758787256   1.665194641103460 
 13.769910931055069   0.722975528350814   1.665496429956750 
 12.518350731753451   2.890640223037267   1.665732245871015 
 11.268282728051059   5.059868891664398   1.665440141267820 
 10.025446151488747   7.230163722522475   1.665260163918975 
  8.789217825662551   9.405687006408595   1.665560892986730 
  7.530509988133844  11.584878808778655   1.665442769858655 
  7.515386379393137  14.460166067745444   1.665344251123140 
 15.021677370673286   1.446678786704841   1.665831316020540 
 13.768951821322560   3.614508815238735   1.665947098026375 
 12.518893872195301   5.782675432375767   1.665353130142470 
 11.275905152852024   7.952450246686147   1.665389330367615 
 10.035138445124282  10.126970599158739   1.666001351184435 
  8.779644423667865  12.300801345790978   1.665661646464545 
 -7.509266379042458  14.454053598769535   1.665431638679085 
 -0.004425585287708   1.437694239001035   1.665494684624805 
 -1.256466282505258   3.614618225125203   1.665511103614785 
 -2.510166691625787   5.785358540631337   1.665532685028885 
 -3.754730494204821   7.953069034760809   1.665410187061230 
 -5.005690549936034  10.122955879259859   1.665670648245405 
 -6.253656221906654  12.290856177937846   1.665523733634105 
 -5.006572657659285  14.450450370851296   1.665294974340060 
  2.500171844808466   1.422201337114298   1.666392821702145 
  1.257331811098458   3.584743955075247   1.664965735666680 
 -0.007844768528838   5.800579188654124   1.663545659232540 
 -1.254308574261742   7.961002590988028   1.664645443668540 
 -2.518159506189996  10.126538847486486   1.665947380929150 
 -3.759039722252512  12.290889972328488   1.665279567797805 
 -2.502333003009170  14.453905681997497   1.665554398783845 
  5.013168957612507   1.425768966069425   1.666161215725785 
  3.741197524404592   3.551556757238203   1.665892645988520 
  1.248964543534849   7.984274236919143   1.668469197953460 
 -0.038566639508136  10.141468433024638   1.666353874097715 
 -1.264588866511303  12.298860352549250   1.665937942412535 
 -0.005013039442106  14.463649503275150   1.665442155811965 
  7.515632523278430   1.440794101953571   1.665315553191690 
  6.269097293877799   3.596639506890771   1.665923836198425 
  5.003182357684459   5.728332271100079   1.663368498223125 
  2.434358607974320  10.154743312860594   1.661972453902545 
  1.234026833998569  12.308719555641549   1.665758973524250 
  2.502377548079982  14.460189610411511   1.665454562814810 
 10.016860934086635   1.446221720852428   1.665357261324270 
  8.767112011605496   3.613288528513626   1.665409758060210 
  7.516126039926906   5.785308273633499   1.665380706770070 
  6.295346277153624   7.998338326250265   1.663940096319000 
  5.066778495065702  10.139472108509318   1.663375745137020 
  3.756530385697531  12.291467309548958   1.665073262069460 
  5.009727220490051  14.459693664051144   1.665366874963395 
 12.519059121436062   1.446269854210095   1.665906528451500 
 11.268274653830179   3.613500447009162   1.665984029109510 
 10.020167372279285   5.783547028634368   1.665410309512020 
  8.780482193959777   7.958075053259012   1.665790934689365 
  7.557737893284269  10.147988005758879   1.666290005448450 
  6.274261427592550  12.302812115755639   1.665935735753955 
