B C N                                   
   1.0000000000000000     
     8.7639499999999995  -15.1796066749929999    0.0000000000000000
     8.7639499999999995   15.1796066749929999    0.0000000000000000
     0.0000000000000000    0.0000000000000000   15.0000000000000000
   B    C    N 
    49     1    48
Selective dynamics
Direct
  0.9047698926789676  0.9524978459393296  0.1110191162069937   T   T   T
  0.9047413033965115  0.0952604755384896  0.1110390955839217   T   T   T
  0.9047368247636214  0.2380409864602047  0.1110374878602223   T   T   T
  0.9047615176898972  0.3808493882789165  0.1110083906629356   T   T   T
  0.9049653824946818  0.5237060301487451  0.1110090659214025   T   T   T
  0.9047337271792398  0.6666480074098438  0.1110479531662645   T   T   T
  0.9049724040201603  0.8098378988999370  0.1110422730755510   T   T   T
  0.0475768700797307  0.9524248615422689  0.1110157614478667   T   T   T
  0.0475038759346703  0.0952318006480328  0.1110191146929905   T   T   T
  0.0475007887327846  0.2380259858241622  0.1110105454446380   T   T   T
  0.0475178129592130  0.3808401290282729  0.1110238263372376   T   T   T
  0.0475801436395305  0.5237351992832702  0.1110172408787523   T   T   T
  0.0476083106072576  0.6666342045084638  0.1110234320517101   T   T   T
  0.0476182015273860  0.8095568930493033  0.1110073155669525   T   T   T
  0.1904448386506925  0.9523834971896140  0.1110073126819500   T   T   T
  0.1901638597460634  0.0950293343588378  0.1110422694715503   T   T   T
  0.1902999270506747  0.2380678276770108  0.1110103405516648   T   T   T
  0.1903102278224695  0.3807998526073837  0.1110064002544908   T   T   T
  0.1901719395031271  0.5236994106908444  0.1110447960145428   T   T   T
  0.1904409598182206  0.6666335829521476  0.1110508194076963   T   T   T
  0.1904710325525810  0.8095305678504149  0.1110079453269460   T   T   T
  0.3333674129905386  0.9523932471337435  0.1110234341727157   T   T   T
  0.3333537853911572  0.0952679534247610  0.1110479520332614   T   T   T
  0.3326902519366678  0.2376882689448192  0.1110410550943578   T   T   T
  0.3335444550752647  0.3810627190371995  0.1110209594405858   T   T   T
  0.3326887556159727  0.5235693323775128  0.1110255528664607   T   T   T
  0.3333521523929887  0.6666497765410087  0.1110537049641134   T   T   T
  0.3333680674888523  0.8095607814377791  0.1110508209366919   T   T   T
  0.4762664158827218  0.9524215212934716  0.1110172477757490   T   T   T
  0.4762956527512539  0.0950359744413147  0.1110090742094003   T   T   T
  0.4764330696547373  0.2376900307936724  0.1110426606334836   T   T   T
  0.4756050002445069  0.3797899591591071  0.1110354754032652   T   T   T
  0.4755905251828083  0.5244110178571916  0.1110563417048874   T   T   T
  0.4764324007094908  0.6673131124340265  0.1110255532934614   T   T   T
  0.4763023566461524  0.8098301553728683  0.1110448036455444   T   T   T
  0.6191616303217260  0.9524840238457849  0.1110238300852369   T   T   T
  0.6191523158710851  0.0952400833931023  0.1110083937409356   T   T   T
  0.6191896043642664  0.2380731136830645  0.1110179528474920   T   T   T
  0.6189490684608531  0.3810526837061487  0.1110060833816091   T   T   T
  0.6202119055268913  0.5243967756174964  0.1110354737712623   T   T   T
  0.6189389106558033  0.6664571171797370  0.1110209567945886   T   T   T
  0.6192018152176197  0.8096915477255237  0.1110064014284921   T   T   T
  0.7619757395668324  0.9525009956492158  0.1110105527786398   T   T   T
  0.7619607659007965  0.0952649192753825  0.1110374902032228   T   T   T
  0.7619649151745527  0.2380367162984519  0.1110497109371316   T   T   T
  0.7619284471719399  0.3808120716857310  0.1110179477284934   T   T   T
  0.7623116243523284  0.5235687659282621  0.1110426573264898   T   T   T
  0.7623135528101801  0.6673115070453269  0.1110410592203587   T   T   T
  0.7619338292929886  0.8097017288223249  0.1110103487526637   T   T   T
  0.5237955161572355  0.4762063415317644  0.1111134729086145   T   T   T
  0.9525993514612466  0.9051082204282626  0.1110133744939897   T   T   T
  0.9523033372863930  0.0476983925526061  0.1110100634754905   T   T   T
  0.9522238021438386  0.1903935457462041  0.1110184518572488   T   T   T
  0.9523039954664644  0.3331755019947193  0.1110103069951381   T   T   T
  0.9525975039300807  0.4760670861056085  0.1109816036319501   T   T   T
  0.9527167124771463  0.6191026692014865  0.1110130930880393   T   T   T
  0.9527216295225361  0.7621851653236221  0.1110208561151493   T   T   T
  0.0952345911561719  0.9047671363178285  0.1109884897018052   T   T   T
  0.0948935207527323  0.0474023686627504  0.1110133869049899   T   T   T
  0.0947751467130838  0.1902405936206000  0.1110014441946568   T   T   T
  0.0947813381198559  0.3330939235663055  0.1109960698725292   T   T   T
  0.0948990111789526  0.4760640878120411  0.1110181904633368   T   T   T
  0.0952312208538167  0.6190435534538092  0.1110189831290710   T   T   T
  0.0953267400441963  0.7619525507667816  0.1109974741208783   T   T   T
  0.2380490707282207  0.9046748486758002  0.1109974723698807   T   T   T
  0.2378166060363752  0.0472800860374673  0.1110208536571475   T   T   T
  0.2370507203189151  0.1895882620528381  0.1110193323046018   T   T   T
  0.2372953158709892  0.3329288326909250  0.1109932748796471   T   T   T
  0.2370524802493826  0.4760263964935798  0.1110123222450945   T   T   T
  0.2378151371396821  0.6191034406618803  0.1110355016489369   T   T   T
  0.2380468376833659  0.7619548288446342  0.1110185071043070   T   T   T
  0.3809580788731897  0.9047704197771814  0.1110189859190668   T   T   T
  0.3808990028545148  0.0472847673758583  0.1110131022460398   T   T   T
  0.3805528850574734  0.1896717358804111  0.1110405574592645   T   T   T
  0.3789041046155344  0.3312778602196356  0.1110088323679485   T   T   T
  0.3788980395501182  0.4762002449476808  0.1110086228824046   T   T   T
  0.3805534231265850  0.6194483703574110  0.1110113409180380   T   T   T
  0.3808983617391215  0.7621868529423158  0.1110355051769379   T   T   T
  0.5239377053159588  0.9051030516930468  0.1110181981243304   T   T   T
  0.5239346485823901  0.0474039576579183  0.1109816090879520   T   T   T
  0.5239666619740764  0.1895912103520263  0.1110155714208281   T   T   T
  0.5238035279329396  0.3312802373707417  0.1109990018487590   T   T   T
  0.5238012408893157  0.6211034762128849  0.1110086214854065   T   T   T
  0.5239752472554220  0.7629495312126188  0.1110123300090955   T   T   T
  0.6669077944716943  0.9052204742811396  0.1109960709475306   T   T   T
  0.6668262777752832  0.0476977663055333  0.1110103103601406   T   T   T
  0.6668968616070702  0.1902501842922912  0.1110178308207149   T   T   T
  0.6670694408109104  0.3329321756190875  0.1109956083167726   T   T   T
  0.6687215550252642  0.4761982237890563  0.1109990012937541   T   T   T
  0.6687240189563614  0.6210976201134687  0.1110088259159505   T   T   T
  0.6670727779260801  0.7627062946069981  0.1109932742546466   T   T   T
  0.8097610744913988  0.9052265605369162  0.1110014553956596   T   T   T
  0.8096082222327964  0.0477779892821626  0.1110184581202496   T   T   T
  0.8096040668838925  0.1903976302601079  0.1110270691726652   T   T   T
  0.8097513655337043  0.3331047952389323  0.1110178258667186   T   T   T
  0.8104101117809759  0.4760350241549199  0.1110155605388306   T   T   T
  0.8103300221305844  0.6194488919075266  0.1110405571392645   T   T   T
  0.8104134961071653  0.7629510073770800  0.1110193499735969   T   T   T

  0.00000000E+00  0.00000000E+00  0.00000000E+00
  0.00000000E+00  0.00000000E+00  0.00000000E+00
  0.00000000E+00  0.00000000E+00  0.00000000E+00
  0.00000000E+00  0.00000000E+00  0.00000000E+00
  0.00000000E+00  0.00000000E+00  0.00000000E+00
  0.00000000E+00  0.00000000E+00  0.00000000E+00
  0.00000000E+00  0.00000000E+00  0.00000000E+00
  0.00000000E+00  0.00000000E+00  0.00000000E+00
  0.00000000E+00  0.00000000E+00  0.00000000E+00
  0.00000000E+00  0.00000000E+00  0.00000000E+00
  0.00000000E+00  0.00000000E+00  0.00000000E+00
  0.00000000E+00  0.00000000E+00  0.00000000E+00
  0.00000000E+00  0.00000000E+00  0.00000000E+00
  0.00000000E+00  0.00000000E+00  0.00000000E+00
  0.00000000E+00  0.00000000E+00  0.00000000E+00
  0.00000000E+00  0.00000000E+00  0.00000000E+00
  0.00000000E+00  0.00000000E+00  0.00000000E+00
  0.00000000E+00  0.00000000E+00  0.00000000E+00
  0.00000000E+00  0.00000000E+00  0.00000000E+00
  0.00000000E+00  0.00000000E+00  0.00000000E+00
  0.00000000E+00  0.00000000E+00  0.00000000E+00
  0.00000000E+00  0.00000000E+00  0.00000000E+00
  0.00000000E+00  0.00000000E+00  0.00000000E+00
  0.00000000E+00  0.00000000E+00  0.00000000E+00
  0.00000000E+00  0.00000000E+00  0.00000000E+00
  0.00000000E+00  0.00000000E+00  0.00000000E+00
  0.00000000E+00  0.00000000E+00  0.00000000E+00
  0.00000000E+00  0.00000000E+00  0.00000000E+00
  0.00000000E+00  0.00000000E+00  0.00000000E+00
  0.00000000E+00  0.00000000E+00  0.00000000E+00
  0.00000000E+00  0.00000000E+00  0.00000000E+00
  0.00000000E+00  0.00000000E+00  0.00000000E+00
  0.00000000E+00  0.00000000E+00  0.00000000E+00
  0.00000000E+00  0.00000000E+00  0.00000000E+00
  0.00000000E+00  0.00000000E+00  0.00000000E+00
  0.00000000E+00  0.00000000E+00  0.00000000E+00
  0.00000000E+00  0.00000000E+00  0.00000000E+00
  0.00000000E+00  0.00000000E+00  0.00000000E+00
  0.00000000E+00  0.00000000E+00  0.00000000E+00
  0.00000000E+00  0.00000000E+00  0.00000000E+00
  0.00000000E+00  0.00000000E+00  0.00000000E+00
  0.00000000E+00  0.00000000E+00  0.00000000E+00
  0.00000000E+00  0.00000000E+00  0.00000000E+00
  0.00000000E+00  0.00000000E+00  0.00000000E+00
  0.00000000E+00  0.00000000E+00  0.00000000E+00
  0.00000000E+00  0.00000000E+00  0.00000000E+00
  0.00000000E+00  0.00000000E+00  0.00000000E+00
  0.00000000E+00  0.00000000E+00  0.00000000E+00
  0.00000000E+00  0.00000000E+00  0.00000000E+00
  0.00000000E+00  0.00000000E+00  0.00000000E+00
  0.00000000E+00  0.00000000E+00  0.00000000E+00
  0.00000000E+00  0.00000000E+00  0.00000000E+00
  0.00000000E+00  0.00000000E+00  0.00000000E+00
  0.00000000E+00  0.00000000E+00  0.00000000E+00
  0.00000000E+00  0.00000000E+00  0.00000000E+00
  0.00000000E+00  0.00000000E+00  0.00000000E+00
  0.00000000E+00  0.00000000E+00  0.00000000E+00
  0.00000000E+00  0.00000000E+00  0.00000000E+00
  0.00000000E+00  0.00000000E+00  0.00000000E+00
  0.00000000E+00  0.00000000E+00  0.00000000E+00
  0.00000000E+00  0.00000000E+00  0.00000000E+00
  0.00000000E+00  0.00000000E+00  0.00000000E+00
  0.00000000E+00  0.00000000E+00  0.00000000E+00
  0.00000000E+00  0.00000000E+00  0.00000000E+00
  0.00000000E+00  0.00000000E+00  0.00000000E+00
  0.00000000E+00  0.00000000E+00  0.00000000E+00
  0.00000000E+00  0.00000000E+00  0.00000000E+00
  0.00000000E+00  0.00000000E+00  0.00000000E+00
  0.00000000E+00  0.00000000E+00  0.00000000E+00
  0.00000000E+00  0.00000000E+00  0.00000000E+00
  0.00000000E+00  0.00000000E+00  0.00000000E+00
  0.00000000E+00  0.00000000E+00  0.00000000E+00
  0.00000000E+00  0.00000000E+00  0.00000000E+00
  0.00000000E+00  0.00000000E+00  0.00000000E+00
  0.00000000E+00  0.00000000E+00  0.00000000E+00
  0.00000000E+00  0.00000000E+00  0.00000000E+00
  0.00000000E+00  0.00000000E+00  0.00000000E+00
  0.00000000E+00  0.00000000E+00  0.00000000E+00
  0.00000000E+00  0.00000000E+00  0.00000000E+00
  0.00000000E+00  0.00000000E+00  0.00000000E+00
  0.00000000E+00  0.00000000E+00  0.00000000E+00
  0.00000000E+00  0.00000000E+00  0.00000000E+00
  0.00000000E+00  0.00000000E+00  0.00000000E+00
  0.00000000E+00  0.00000000E+00  0.00000000E+00
  0.00000000E+00  0.00000000E+00  0.00000000E+00
  0.00000000E+00  0.00000000E+00  0.00000000E+00
  0.00000000E+00  0.00000000E+00  0.00000000E+00
  0.00000000E+00  0.00000000E+00  0.00000000E+00
  0.00000000E+00  0.00000000E+00  0.00000000E+00
  0.00000000E+00  0.00000000E+00  0.00000000E+00
  0.00000000E+00  0.00000000E+00  0.00000000E+00
  0.00000000E+00  0.00000000E+00  0.00000000E+00
  0.00000000E+00  0.00000000E+00  0.00000000E+00
  0.00000000E+00  0.00000000E+00  0.00000000E+00
  0.00000000E+00  0.00000000E+00  0.00000000E+00
  0.00000000E+00  0.00000000E+00  0.00000000E+00
  0.00000000E+00  0.00000000E+00  0.00000000E+00
  0.00000000E+00  0.00000000E+00  0.00000000E+00
