 N B C 
 1.0
 17.527899999999772   0.000000000000000   0.000000000000000
 -8.763949999999658  15.179606674993195   0.000000000000000
  0.000000000000001   0.000000000000002  15.000000000000000
 N B C 
  48  49   1
Cartesian
  8.764742984055408  13.739186784404072   1.665200617409850 
 16.273851338210559   0.724042837977984   1.665150952132365 
 15.021884066354398   2.890099137884701   1.665276777858735 
 13.770572535469867   5.059868891664398   1.665154604927070 
 12.524805649860770   7.226511117993248   1.664724054479250 
 11.273338426879798   9.397735009916982   1.665196396320585 
 10.019456770470143  11.569671023127245   1.665312841727235 
 -6.260071554006075  13.734009261764580   1.664827345527075 
  1.247852153559898   0.719549311763568   1.665200803574850 
 -0.006049756388949   2.887777384777928   1.665021662919855 
 -1.257900675007811   5.056234745566772   1.664941048087935 
 -2.508821484336626   7.226465605076204   1.665272856950055 
 -3.756063434287701   9.396837656118946   1.665284746936065 
 -5.006836490471638  11.566140025647536   1.664962111813170 
 -3.756024833234837  13.732608371657632   1.664962085548215 
  3.754065378916881   0.717693109608587   1.665312804857220 
  2.493459271459951   2.877875248157619   1.665289984569030 
  1.241516923793535   5.053728731012858   1.664899123194705 
 -0.016839368986641   7.225893465686904   1.665184833676410 
 -1.257391656517894   9.397746720382326   1.665532524734055 
 -2.505272856022453  11.566174605973304   1.665277606564605 
 -1.251967609724616  13.734059103386091   1.665284788786005 
  6.261958295089932   0.717764170484075   1.665196533690600 
  5.008019304329730   2.879142348027833   1.665608361888960 
  3.738090652218766   5.028667618267449   1.665132485519235 
  2.467891810721361   7.228532416841213   1.665129343236075 
  1.241487799826762   9.402982617491013   1.665170113770570 
 -0.003419075116480  11.569696640515238   1.665532577654070 
  1.251249815122509  13.739108325036486   1.665272971864950 
  8.768028212171060   0.719573432085227   1.664724136319280 
  7.522467366450715   2.877920002179653   1.665233571312420 
  6.277852420950458   5.028703702486246   1.664985027731385 
  3.737815959828021   9.428106473382586   1.665129322281090 
  2.497734192297619  11.581273796678001   1.665184950136425 
  3.756186155144364  13.740890753738499   1.664941064212965 
 11.267245827653154   0.724033331793734   1.665154655402115 
 10.021958397934050   2.887922967401946   1.665267462310725 
  8.774525511072603   5.053779475347515   1.664934124751595 
  7.547907120951238   7.228501736448258   1.664985019406310 
  6.278059244071822   9.428017580096803   1.665132388739265 
  5.008065113589645  11.577581560675714   1.664899113819705 
  6.260050822360411  13.740983140707302   1.665021830934900 
 13.772008049304645   0.725251085025275   1.665276871803750 
 12.522023812215995   2.890161139199222   1.665406037589975 
 11.273927189703901   5.056399773281133   1.665267388000785 
 10.032840248343234   7.226024430192570   1.665233408082465 
  8.774564478669717   9.402990534416636   1.665608357088975 
  7.518382237314492  11.581296204273906   1.665290249603955 
  7.511072704967811  14.458542660137294   1.665286743104910 
 15.023357047207982   1.446016550347089   1.665586433758830 
 13.771957287486234   3.613368546993292   1.665562317903330 
 12.520824409509654   5.781143916485724   1.665125859944040 
 11.272409264906415   7.949651550980076   1.665135988821030 
 10.015448963291689  10.119737783328796   1.665719297493960 
  8.764886946360928  12.293020775803948   1.665634096133265 
 -7.513081244242537  14.457434785696497   1.665236421718005 
 -0.001963552294005   1.445581276788503   1.665286720394865 
 -1.253458763634212   3.613140843238285   1.665158181669570 
 -2.504776375029425   5.781003364702843   1.665357395058570 
 -3.756009100059110   7.950094326969216   1.665258613181280 
 -5.008159625840158  10.119737783328796   1.665351480775650 
 -6.260269058287304  12.288755217517952   1.665109733504280 
 -5.008543262809154  14.456806891092828   1.665109690229250 
  2.500340782388869   1.442507918153578   1.665634042073250 
  1.249143552981624   3.613775986107086   1.665155108274975 
 -0.001572226008925   5.780391984475472   1.665096003817365 
 -1.256360711907027   7.949551070212738   1.665671940218145 
 -2.504603233735353  10.119737783328796   1.665762291115440 
 -3.756128208634027  12.288355611353191   1.665119179904190 
 -2.504093464884193  14.456954891409824   1.665351512590740 
  5.007709752916355   1.446130061719443   1.665719280498915 
  3.748273362301782   3.608014433842353   1.665615826415370 
  2.506719237607722   5.784382193488138   1.665314391608790 
  1.242799789071411   7.947576532579427   1.665383292996915 
  0.000000000000152  10.119737783328796   1.665805574461695 
 -1.252316877148090  12.288814241725618   1.665762314050380 
  0.000975519411055  14.457384082033562   1.665258716636235 
  7.515572043653665   1.442608711993868   1.665136113141000 
  6.267767656227035   3.608041178014962   1.665639909502260 
  5.007896671213260   5.765062199146974   1.665532131048975 
  3.740191226402272   7.960352987105008   1.665845125573305 
  2.502560724679824  10.129550575814026   1.665383299401915 
  1.251269086878210  12.292903232108763   1.665672054683160 
  2.505080779333097  14.458332846193857   1.665357451278555 
 10.017760548503706   1.445707005600840   1.665125906114040 
  8.766632601673669   3.613856225599852   1.665269292712380 
  7.509350709708468   5.784229861109930   1.665091250724135 
  6.275225137211876   7.960136795508251   1.665532106568930 
  5.007902479976580  10.116556904538259   1.665314351918835 
  3.757211257263951  12.290799222539935   1.665096021427380 
  5.008163464733679  14.458590471494503   1.665158291679600 
 12.520675119348953   1.446084004525277   1.665562353048345 
 11.269502956884137   3.613303727617443   1.665745664056980 
 10.017587673534841   5.780577465278710   1.665269215927395 
  8.773191434328183   7.947567934102595   1.665639859897350 
  7.513471040131714  10.129526206645014   1.665615888305385 
  6.258914500152269  12.290953767584895   1.665155231289960 
  5.007586860785157   7.228624960589654   1.666702093629210 
