B P N                                   
   1.0000000000000000     
     8.7639499999999995  -15.1796066749929999    0.0000000000000000
     8.7639499999999995   15.1796066749929999    0.0000000000000000
     0.0000000000000000    0.0000000000000000   15.0000000000000000
   B    P    N 
    47     1    49
Selective dynamics
Direct
  0.9053914254951217  0.9528881182995086  0.1109974183400246   T   T   T
  0.9046970044682219  0.0951494654135381  0.1110509592468705   T   T   T
  0.9045334689842346  0.2378495499630912  0.1110471229178925   T   T   T
  0.9047451442328257  0.3807638897000774  0.1109884022395170   T   T   T
  0.9056159482511894  0.5239423225552615  0.1110199029005794   T   T   T
  0.9063189502056502  0.6673165787620942  0.1111016173539559   T   T   T
  0.9062369113410416  0.8104681527846022  0.1110547857029654   T   T   T
  0.0478264167655379  0.9523865993981918  0.1109851704733896   T   T   T
  0.0471329528269102  0.0946175056702956  0.1109929868359838   T   T   T
  0.0468325183217052  0.2374365969338054  0.1109881189446532   T   T   T
  0.0468546729219959  0.3807279031011722  0.1110045862807848   T   T   T
  0.0472293264670507  0.5240218177119292  0.1110129258606470   T   T   T
  0.0479249182268520  0.6670724102484594  0.1110364162040911   T   T   T
  0.0481063097684394  0.8098734355720135  0.1109917765760923   T   T   T
  0.1902303818794910  0.9521521383761735  0.1109772844968427   T   T   T
  0.1897599907435266  0.0942278788161378  0.1110360852650276   T   T   T
  0.1886988167416299  0.2360885632441239  0.1110037220525544   T   T   T
  0.1886219749485254  0.3800090129021192  0.1110181760136645   T   T   T
  0.1886570030011860  0.5242017052640524  0.1110771003890271   T   T   T
  0.1898459800974026  0.6672815736410488  0.1111008166854212   T   T   T
  0.1902971288475678  0.8098889426041774  0.1110067401524216   T   T   T
  0.3329280858599181  0.9523510058628969  0.1110167957175784   T   T   T
  0.3326020743132429  0.0941265647882247  0.1110661189362730   T   T   T
  0.3318660056423671  0.2356631938480339  0.1110667643528892   T   T   T
  0.3292863245034979  0.3756291373261009  0.1110522480147169   T   T   T
  0.3290284007446716  0.5250764733210805  0.1110495386316179   T   T   T
  0.3318847982586525  0.6679273297056780  0.1111160438475055   T   T   T
  0.3327057239028888  0.8102449643711594  0.1110893997409732   T   T   T
  0.4758045168242924  0.9527890170665638  0.1110008263801504   T   T   T
  0.4758124752129480  0.0944589049641347  0.1110034567026565   T   T   T
  0.4753077547925331  0.2354546307671394  0.1110690949382361   T   T   T
  0.4753457597257494  0.3760891329715945  0.1111235309681954   T   T   T
  0.4743302591215783  0.6704071616555460  0.1110387844154110   T   T   T
  0.4755044173046481  0.8111284701228385  0.1110548044364462   T   T   T
  0.6189675621076388  0.9532489874818862  0.1110087492512552   T   T   T
  0.6189296287721608  0.0951113031467681  0.1109989619839193   T   T   T
  0.6189934732658617  0.2369681565050024  0.1110007612155466   T   T   T
  0.6181019683624863  0.3782420155639719  0.1110124434826252   T   T   T
  0.6229910041873802  0.6720956127981259  0.1109840918071169   T   T   T
  0.6196000076142436  0.8119486391669126  0.1109972287803615   T   T   T
  0.7623961043762828  0.9531820673348146  0.1110049761666693   T   T   T
  0.7619223208315078  0.0953368434892502  0.1110666246243710   T   T   T
  0.7619943244130244  0.2378203467978658  0.1110524004754338   T   T   T
  0.7623603958480193  0.3804577311884150  0.1109935695031917   T   T   T
  0.7645029016420949  0.5249281552020583  0.1110127576050243   T   T   T
  0.7658433860214013  0.6680970300046679  0.1110441321025156   T   T   T
  0.7638717194861741  0.8115942413427742  0.1110028183093228   T   T   T
  0.4786667172425564  0.5209503911063937  0.1110090760150061   T   T   T
  0.9528518025933409  0.9052566731319764  0.1109919712119077   T   T   T
  0.9523659727638936  0.0476822917640174  0.1109993700051420   T   T   T
  0.9521574377124703  0.1902595299340854  0.1110242155884051   T   T   T
  0.9522478377743485  0.3330701314187083  0.1109906616967640   T   T   T
  0.9526006208461563  0.4760208070673661  0.1109644254502792   T   T   T
  0.9531012445207406  0.6192360046800219  0.1110370332371968   T   T   T
  0.9531265010382416  0.7623885061423936  0.1110444457751778   T   T   T
  0.0953253061199702  0.9048768897263104  0.1109421667950340   T   T   T
  0.0949840673626667  0.0474118192868417  0.1109906286657844   T   T   T
  0.0944375162592103  0.1898276311594710  0.1109607151758324   T   T   T
  0.0945919767839947  0.3329793114514292  0.1109745905451636   T   T   T
  0.0945509693525676  0.4760961058685101  0.1110102976163546   T   T   T
  0.0951863349051282  0.6192047744954620  0.1110332348626071   T   T   T
  0.0954314663233527  0.7621560803373263  0.1109825565870028   T   T   T
  0.2379462029853210  0.9048367119889443  0.1109675480353974   T   T   T
  0.2376683660540188  0.0472199310042052  0.1110186770203729   T   T   T
  0.2372049394083559  0.1896244711004197  0.1110254924070405   T   T   T
  0.2362145226347763  0.3318985499522495  0.1110050431312099   T   T   T
  0.2361991433958798  0.4759830618046924  0.1110464414012352   T   T   T
  0.2374205760810035  0.6193097625345116  0.1111046787270191   T   T   T
  0.2378557728132998  0.7622161359907073  0.1110691299960137   T   T   T
  0.3806876256866037  0.9049672201164370  0.1110228056800637   T   T   T
  0.3806237364921884  0.0472484469455192  0.1110070878047372   T   T   T
  0.3801213062582390  0.1892805217862002  0.1110672128538032   T   T   T
  0.3797228124854982  0.3317081272727119  0.1110701613938445   T   T   T
  0.3748980722497132  0.4738129111366749  0.1109948529740049   T   T   T
  0.3799280652335352  0.6196102077089697  0.1110582299123140   T   T   T
  0.3804594383875029  0.7624578308097368  0.1110908225964845   T   T   T
  0.5235997505374306  0.9053509806844411  0.1110004682739774   T   T   T
  0.5236784938007650  0.0474298284178326  0.1109516174416892   T   T   T
  0.5235438759601668  0.1892501555101228  0.1110007914444623   T   T   T
  0.5226496029475781  0.3302297751431774  0.1110745693926926   T   T   T
  0.5276252884862455  0.4714785374637541  0.1111550205515189   T   T   T
  0.5256196234894571  0.6242972026339284  0.1109848885919801   T   T   T
  0.5235113353097257  0.7634089027435212  0.1110133714173816   T   T   T
  0.6668018343683535  0.9058323211016337  0.1109755527575483   T   T   T
  0.6666585461877329  0.0477699540448710  0.1110140482257551   T   T   T
  0.6667689324196450  0.1899558648342074  0.1110086624332524   T   T   T
  0.6669721174159904  0.3318211349262307  0.1109838114411231   T   T   T
  0.6726639233448655  0.4701346813920481  0.1108027713807185   T   T   T
  0.6734255885560610  0.6314349721805280  0.1108964031042570   T   T   T
  0.6681086749644816  0.7654897977012630  0.1109722415933731   T   T   T
  0.8102606601768642  0.9058702353686918  0.1109730094227520   T   T   T
  0.8095957905473679  0.0478287794836715  0.1110416220390168   T   T   T
  0.8095521270274327  0.1902762932002527  0.1110575057695701   T   T   T
  0.8097925179836305  0.3329081698093807  0.1109984216812209   T   T   T
  0.8108249163189823  0.4757883774162005  0.1109919310204431   T   T   T
  0.8113621913397102  0.6197740054538674  0.1110823479282759   T   T   T
  0.8110044859276273  0.7636109724907071  0.1110341799273717   T   T   T

  0.00000000E+00  0.00000000E+00  0.00000000E+00
  0.00000000E+00  0.00000000E+00  0.00000000E+00
  0.00000000E+00  0.00000000E+00  0.00000000E+00
  0.00000000E+00  0.00000000E+00  0.00000000E+00
  0.00000000E+00  0.00000000E+00  0.00000000E+00
  0.00000000E+00  0.00000000E+00  0.00000000E+00
  0.00000000E+00  0.00000000E+00  0.00000000E+00
  0.00000000E+00  0.00000000E+00  0.00000000E+00
  0.00000000E+00  0.00000000E+00  0.00000000E+00
  0.00000000E+00  0.00000000E+00  0.00000000E+00
  0.00000000E+00  0.00000000E+00  0.00000000E+00
  0.00000000E+00  0.00000000E+00  0.00000000E+00
  0.00000000E+00  0.00000000E+00  0.00000000E+00
  0.00000000E+00  0.00000000E+00  0.00000000E+00
  0.00000000E+00  0.00000000E+00  0.00000000E+00
  0.00000000E+00  0.00000000E+00  0.00000000E+00
  0.00000000E+00  0.00000000E+00  0.00000000E+00
  0.00000000E+00  0.00000000E+00  0.00000000E+00
  0.00000000E+00  0.00000000E+00  0.00000000E+00
  0.00000000E+00  0.00000000E+00  0.00000000E+00
  0.00000000E+00  0.00000000E+00  0.00000000E+00
  0.00000000E+00  0.00000000E+00  0.00000000E+00
  0.00000000E+00  0.00000000E+00  0.00000000E+00
  0.00000000E+00  0.00000000E+00  0.00000000E+00
  0.00000000E+00  0.00000000E+00  0.00000000E+00
  0.00000000E+00  0.00000000E+00  0.00000000E+00
  0.00000000E+00  0.00000000E+00  0.00000000E+00
  0.00000000E+00  0.00000000E+00  0.00000000E+00
  0.00000000E+00  0.00000000E+00  0.00000000E+00
  0.00000000E+00  0.00000000E+00  0.00000000E+00
  0.00000000E+00  0.00000000E+00  0.00000000E+00
  0.00000000E+00  0.00000000E+00  0.00000000E+00
  0.00000000E+00  0.00000000E+00  0.00000000E+00
  0.00000000E+00  0.00000000E+00  0.00000000E+00
  0.00000000E+00  0.00000000E+00  0.00000000E+00
  0.00000000E+00  0.00000000E+00  0.00000000E+00
  0.00000000E+00  0.00000000E+00  0.00000000E+00
  0.00000000E+00  0.00000000E+00  0.00000000E+00
  0.00000000E+00  0.00000000E+00  0.00000000E+00
  0.00000000E+00  0.00000000E+00  0.00000000E+00
  0.00000000E+00  0.00000000E+00  0.00000000E+00
  0.00000000E+00  0.00000000E+00  0.00000000E+00
  0.00000000E+00  0.00000000E+00  0.00000000E+00
  0.00000000E+00  0.00000000E+00  0.00000000E+00
  0.00000000E+00  0.00000000E+00  0.00000000E+00
  0.00000000E+00  0.00000000E+00  0.00000000E+00
  0.00000000E+00  0.00000000E+00  0.00000000E+00
  0.00000000E+00  0.00000000E+00  0.00000000E+00
  0.00000000E+00  0.00000000E+00  0.00000000E+00
  0.00000000E+00  0.00000000E+00  0.00000000E+00
  0.00000000E+00  0.00000000E+00  0.00000000E+00
  0.00000000E+00  0.00000000E+00  0.00000000E+00
  0.00000000E+00  0.00000000E+00  0.00000000E+00
  0.00000000E+00  0.00000000E+00  0.00000000E+00
  0.00000000E+00  0.00000000E+00  0.00000000E+00
  0.00000000E+00  0.00000000E+00  0.00000000E+00
  0.00000000E+00  0.00000000E+00  0.00000000E+00
  0.00000000E+00  0.00000000E+00  0.00000000E+00
  0.00000000E+00  0.00000000E+00  0.00000000E+00
  0.00000000E+00  0.00000000E+00  0.00000000E+00
  0.00000000E+00  0.00000000E+00  0.00000000E+00
  0.00000000E+00  0.00000000E+00  0.00000000E+00
  0.00000000E+00  0.00000000E+00  0.00000000E+00
  0.00000000E+00  0.00000000E+00  0.00000000E+00
  0.00000000E+00  0.00000000E+00  0.00000000E+00
  0.00000000E+00  0.00000000E+00  0.00000000E+00
  0.00000000E+00  0.00000000E+00  0.00000000E+00
  0.00000000E+00  0.00000000E+00  0.00000000E+00
  0.00000000E+00  0.00000000E+00  0.00000000E+00
  0.00000000E+00  0.00000000E+00  0.00000000E+00
  0.00000000E+00  0.00000000E+00  0.00000000E+00
  0.00000000E+00  0.00000000E+00  0.00000000E+00
  0.00000000E+00  0.00000000E+00  0.00000000E+00
  0.00000000E+00  0.00000000E+00  0.00000000E+00
  0.00000000E+00  0.00000000E+00  0.00000000E+00
  0.00000000E+00  0.00000000E+00  0.00000000E+00
  0.00000000E+00  0.00000000E+00  0.00000000E+00
  0.00000000E+00  0.00000000E+00  0.00000000E+00
  0.00000000E+00  0.00000000E+00  0.00000000E+00
  0.00000000E+00  0.00000000E+00  0.00000000E+00
  0.00000000E+00  0.00000000E+00  0.00000000E+00
  0.00000000E+00  0.00000000E+00  0.00000000E+00
  0.00000000E+00  0.00000000E+00  0.00000000E+00
  0.00000000E+00  0.00000000E+00  0.00000000E+00
  0.00000000E+00  0.00000000E+00  0.00000000E+00
  0.00000000E+00  0.00000000E+00  0.00000000E+00
  0.00000000E+00  0.00000000E+00  0.00000000E+00
  0.00000000E+00  0.00000000E+00  0.00000000E+00
  0.00000000E+00  0.00000000E+00  0.00000000E+00
  0.00000000E+00  0.00000000E+00  0.00000000E+00
  0.00000000E+00  0.00000000E+00  0.00000000E+00
  0.00000000E+00  0.00000000E+00  0.00000000E+00
  0.00000000E+00  0.00000000E+00  0.00000000E+00
  0.00000000E+00  0.00000000E+00  0.00000000E+00
  0.00000000E+00  0.00000000E+00  0.00000000E+00
  0.00000000E+00  0.00000000E+00  0.00000000E+00
  0.00000000E+00  0.00000000E+00  0.00000000E+00
