 B As N 
 1.0
 14.936314146199660   0.000000000000000   0.000000000000000
 -7.468157073099825  12.935227489513863   0.000000000000000
  0.000000000000001   0.000000000000001  13.341276283792837
 B As N 
 143   1 143
Cartesian
  1.262989478751577   0.725937704953409   5.002978606422314 
  4.825139266717174   7.291188594713975   5.002978606422314 
  6.231839080990061   0.667668733182337   5.002978606422314 
  9.907904091666314   7.163288434790788   5.002978606422314 
 11.221020991593605   0.729469494739587   5.002978606422314 
 -3.733960984426288   9.342176611176876  11.673616748318732 
  1.245011841558924   9.341687521386095  11.673616748318732 
  2.490202269419265   2.875198869382128  11.673616748318732 
  6.223505903663253   9.341383964780974  11.673616748318732 
  7.467483421962481   2.875130225055415  11.673616748318732 
 12.447274652213862   2.874828967790579  11.673616748318732 
 -1.280715897262451   9.334565249268284   5.002978606422314 
  0.050225319802716   2.903492599577943   5.002978606422314 
  5.007134440496325   2.782506064732308   5.002978606422314 
  3.684400096084496   9.428888630725185   5.002978606422314 
  8.668156113963917   9.310594920752123   5.002978606422314 
  9.979598699606097   2.864106572723113   5.002978606422314 
 -4.978564371457395  11.498155345371233  11.673616748318732 
  0.000019026451984  11.497990975606108  11.673616748318732 
  1.245710705493593   5.030721487692258  11.673616748318732 
  6.222710465596008   5.030798590084154  11.673616748318732 
  4.978978320434313  11.497538444642970  11.673616748318732 
 11.202220833871069   5.030646710887828  11.673616748318732 
 -1.229210457602826   5.042554617339188   5.002978606422314 
 -2.513930073614600  11.470554859324427   5.002978606422314 
  2.477858647333649  11.527123717925869   5.002978606422314 
  7.459437722241095  11.495079152766476   5.002978606422314 
  8.688538772507773   5.000213501613819   5.002978606422314 
  0.000599052139138   7.186171292172192  11.673616748318732 
  1.245271151116533   0.719022602732550  11.673616748318732 
  4.978768922100527   7.185368545063993  11.673616748318732 
  6.223258937482558   0.719110618614089  11.673616748318732 
  9.957420728853982   7.186343034469036  11.673616748318732 
 -2.523946371504588   7.178345045624057   5.002978606422314 
 11.202322827550310   0.718674104695847  11.673616748318732 
  3.729759998344276   0.683945383421264   5.002978606422314 
  2.423902467457292   7.256795089772341   5.002978606422314 
  7.386268384122749   7.138959037549870   5.002978606422314 
  8.732325604923446   0.694069173119526   5.002978606422314 
  2.489965493215088   7.185749601734477  11.673616748318732 
 13.715658649134964   0.738044569813237   5.002978606422314 
 -1.244438401043543   9.342060104375097  11.673616748318732 
  0.000861285864584   2.874992261295468  11.673616748318732 
  4.978638755910193   2.875241067308319  11.673616748318732 
  3.734291834034465   9.341207729735519  11.673616748318732 
  8.712880301553216   9.341950286627460  11.673616748318732 
  9.957263843232875   2.874894984571209  11.673616748318732 
 -3.774241131732482   9.318920857286631   5.002978606422314 
  1.204751933710227   9.374839086347558   5.002978606422314 
  2.559603213377605   2.903702831699155   5.002978606422314 
  6.185195611964142   9.336131044455470   5.002978606422314 
  7.518471440671226   2.788082262057003   5.002978606422314 
 12.475766053217439   2.885601541870870   5.002978606422314 
 -1.244058275613379   5.030667646605092  11.673616748318732 
 -2.489300590584940  11.498224665082249  11.673616748318732 
  2.489468826966790  11.497650840043438  11.673616748318732 
  3.734656625595734   5.030700005788221  11.673616748318732 
  7.468392574995780  11.497826961996315  11.673616748318732 
 -5.002886783244828  11.471995787693892   5.002978606422314 
  8.712243080803262   5.030764727288903  11.673616748318732 
 -0.016041216813828  11.488718589833340   5.002978606422314 
  1.305096332947823   5.076572487048288   5.002978606422314 
 -0.032191615017241   7.199836713379168   5.002978606422314 
  6.237538489130998   4.844841380922441   5.002978606422314 
  4.980802709893998  11.522275203576079   5.002978606422314 
 11.195363734895912   5.024265485530081   5.002978606422314 
 -2.489130324110495   7.186329093274546  11.673616748318732 
  3.734320730003795   0.719175644789244  11.673616748318732 
  7.467792851034458   7.186027210466843  11.673616748318732 
  8.712606433771208   0.718860322565517  11.673616748318732 
 13.692083625815499   0.718756579794862  11.673616748318732 
  0.000379623907229   1.437928981379400   1.669681413370991 
  3.735088333432899   7.902604456522777   1.663636647889033 
  4.978521490317300   1.440054682989994   1.669857028785692 
  8.710432856328239   7.903465752029112   1.669184980471364 
  9.957529321113588   1.437451460072869   1.667753843484492 
 -4.979669945652272  10.060570552761495   8.337539744971211 
  0.001030783373266  10.060344489438750   8.337017229627541 
  1.245914792909125   3.593824238743186   8.336954125332751 
  4.978207687587989  10.059718920528550   8.338402128918514 
  6.222014691091961   3.595121650375045   8.342320564955596 
 11.202086277728505   3.592935982462828   8.337518672337483 
 -2.489231373407670  10.060821587166823   1.668125228731028 
 -1.243912852367247   3.593106769762499   1.669681413370991 
  3.733646300650477   3.595489593744918   1.663647358846446 
  2.490245856978127  10.059841795269724   1.668465895714215 
  7.466754166264161  10.059910389424662   1.668776079563216 
  8.711690292869338   3.593137359006588   1.667555083926114 
 -6.223804656718301  12.217185483670434   8.336563565733339 
 -1.244513473769798  12.217690425886186   8.337017229627541 
  0.001796307706912   5.748130391505867   8.335529120803686 
  4.976424049251865   5.747634762107019   8.329026247572898 
  3.734248450653639  12.216490117481044   8.338203369360135 
  9.956129349135486   5.748186093590434   8.337181133281412 
 -2.489052100887228   5.748404303273249   1.669393647111261 
 -3.734210389303898  12.218037795326490   1.669215643015099 
  1.245101677732007  12.216839779485966   1.668249327974427 
  2.491222786517615   5.747430244741319   1.663647358846446 
  6.223231282814941  12.216565797171262   1.668438540507145 
  7.464629267108283   5.747423521887286   1.663715675115472 
 -1.243516843633977   7.904030028142285   8.336741569829528 
  0.000379623907229   1.437928981379401   8.336275799473610 
  3.735088333432900   7.902604456522778   8.342320564955596 
  4.978521490317301   1.440054682989995   8.336100184058949 
  8.710432856328239   7.903465752029113   8.336772232373276 
 -3.734668061702202   7.904164034240984   1.668417467873429 
  9.957529321113588   1.437451460072870   8.338203369360135 
  2.489539406129606   1.439232948858907   1.670428092040928 
  1.246998992433377   7.903241238911321   1.669857028785692 
  6.220343718783426   7.902589310709652   1.663715675115472 
  7.467815790211732   1.438437772681836   1.668465895714215 
  1.246998992433377   7.903241238911322   8.336100184058949 
 12.447168872465058   1.437386303827055   1.667941328772492 
 -2.489231373407670  10.060821587166823   8.337831984113587 
 -1.243912852367247   3.593106769762500   8.336275799473610 
  3.733646300650477   3.595489593744919   8.342309853998195 
  2.490245856978127  10.059841795269724   8.337491317130400 
  7.466754166264161  10.059910389424662   8.337181133281412 
  8.711690292869338   3.593137359006589   8.338402128918514 
 -4.979669945652273  10.060570552761495   1.668417467873429 
  0.001030783373265  10.060344489438750   1.668939983217099 
  1.245914792909125   3.593824238743185   1.669003087511889 
  4.978207687587989  10.059718920528550   1.667555083926114 
  6.222014691091960   3.595121650375044   1.663636647889033 
 11.202086277728505   3.592935982462827   1.668438540507145 
 -2.489052100887227   5.748404303273250   8.336563565733339 
 -3.734210389303898  12.218037795326490   8.336741569829528 
  1.245101677732008  12.216839779485966   8.337707884870213 
  2.491222786517615   5.747430244741320   8.342309853998195 
  6.223231282814942  12.216565797171262   8.337518672337483 
 -6.223804656718302  12.217185483670434   1.669393647111261 
  7.464629267108283   5.747423521887287   8.342241537729130 
 -1.244513473769799  12.217690425886186   1.668939983217099 
  0.001796307706911   5.748130391505866   1.670428092040928 
 -1.243516843633978   7.904030028142284   1.669215643015099 
  4.976424049251865   5.747634762107018   1.676930965271757 
  3.734248450653639  12.216490117481044   1.667753843484492 
  9.956129349135486   5.748186093590433   1.668776079563216 
 -3.734668061702201   7.904164034240985   8.337539744971211 
  2.489539406129606   1.439232948858908   8.335529120803686 
  6.220343718783427   7.902589310709653   8.342241537729130 
  7.467815790211733   1.438437772681836   8.337491317130400 
 12.447168872465058   1.437386303827056   8.338015884072121 
  4.428965754272530   5.431559568130614   5.002978606422314 
  1.244329014027732   0.718378555671127   1.667320437742571 
  4.978561863815037   7.187378268961758   1.646313539622383 
  6.223743259683380   0.718683786488316   1.666769185978702 
  9.957135338407538   7.185941074635013   1.666717686798717 
 11.202454388114624   0.718750061223059   1.665334522975211 
 -3.734309600606820   9.341975337531194   8.339925191396809 
  1.244884355195274   9.342320372778497   8.339188026865926 
  2.488474700348375   2.873902309285091   8.344424311192009 
  6.223044637914217   9.342314930164207   8.341414071544230 
  7.468575490974578   2.874123648827046   8.342738167435982 
 12.446821637674136   2.874377196764761   8.339725522338437 
 -1.244607550585908   9.342130305843085   1.666484895203680 
 -0.000580437326626   2.874159882022925   1.666542823018140 
  4.978912341212778   2.874391586422942   1.660153940220555 
  3.733966147955872   9.342656777356913   1.663219045408659 
  8.712389498902398   9.341904111167905   1.666717686798717 
  9.957836002337960   2.874259345758277   1.665737901521329 
 -4.978996154247047  11.497897500810611   8.339530278757982 
  0.000278004324078  11.498140496550258   8.339544822349030 
  1.243724066976573   5.029873649038608   8.344424311192009 
  6.224347408403344   5.029614410399936   8.359643673222232 
  4.978713920627241  11.498351768369419   8.340219311323299 
 11.202048210555553   5.030159961880673   8.339146905756216 
 -1.245087105274211   5.030173755483067   1.667320437742571 
 -2.489324369101484  11.498043076547567   1.666484895203680 
  2.489587662971366  11.498337549712421   1.665902294894614 
  3.731448354357574   5.028847709525254   1.633884791394181 
  7.467884726332535  11.497920840323408   1.666810307088425 
  8.712818687600675   5.029899776740710   1.664543141300411 
  0.000004503454272   7.186175152815312   8.339173174939024 
  1.244329014027733   0.718378555671128   8.338636775102071 
  4.978561863815038   7.187378268961758   8.359643673222232 
  6.223743259683381   0.718683786488317   8.339188026865926 
  9.957135338407538   7.185941074635014   8.339239526045912 
 -2.489569515445054   7.186084080690113   1.666426934086659 
 11.202454388114624   0.718750061223060   8.340622689869404 
  3.734026799076372   0.718658820202815   1.666784037905604 
  2.489366613839608   7.186411273999318   1.660153940220555 
  7.467685557037406   7.185965264248787   1.663830023243916 
  8.713260559791856   0.718619882729885   1.665902294894614 
  2.489366613839593   7.186411273999319   8.345803272624073 
 13.691465873360563   0.718590143208120   1.666231690506190 
 -1.244607550585907   9.342130305843085   8.339472317640949 
 -0.000580437326626   2.874159882022926   8.339414389826489 
  4.978912341212771   2.874391586422956   8.345803272624073 
  3.733966147955873   9.342656777356913   8.342738167435982 
  8.712389498902398   9.341904111167905   8.339239526045912 
  9.957836002337960   2.874259345758277   8.340219311323299 
 -3.734309600606820   9.341975337531194   1.666032021447820 
  1.244884355195274   9.342320372778497   1.666769185978702 
  2.488474700348375   2.873902309285090   1.661532901652617 
  6.223044637914216   9.342314930164207   1.664543141300411 
  7.468575490974577   2.874123648827045   1.663219045408659 
 12.446821637674136   2.874377196764760   1.666231690506190 
 -1.245087105274211   5.030173755483068   8.338636775102071 
 -2.489324369101484  11.498043076547567   8.339472317640949 
  2.489587662971366  11.498337549712421   8.340054917949987 
  3.731448354357574   5.028847709525254   8.372072421450447 
  7.467884726332536  11.497920840323408   8.339146905756216 
 -4.978996154247048  11.497897500810611   1.666426934086659 
  8.712818687600675   5.029899776740711   8.341414071544230 
  0.000278004324078  11.498140496550258   1.666412390495598 
  1.243724066976572   5.029873649038607   1.661532901652617 
  0.000004503454272   7.186175152815311   1.666784037905604 
  6.224347408403343   5.029614410399935   1.646313539622383 
  4.978713920627240  11.498351768369419   1.665737901521329 
 11.202048210555553   5.030159961880672   1.666810307088425 
 -2.489569515445054   7.186084080690113   8.339530278757982 
  3.734026799076372   0.718658820202816   8.339173174939024 
  7.467685557037407   7.185965264248788   8.342127189600712 
  8.713260559791856   0.718619882729886   8.340054917949987 
 13.691465873360563   0.718590143208121   8.339725522338437 
  0.024548691780158   1.456172900279679   5.002978606422314 
  3.636226807505384   8.037498908869745   5.002978606422314 
  4.990021912355791   1.355428782696701   5.002978606422314 
  8.650492153568948   7.868858971155638   5.002978606422314 
  9.973831328096267   1.429001233863436   5.002978606422314 
 -4.978548641459024  10.060831940734152  11.673616748318732 
  0.000062377280381  10.060835004452692  11.673616748318732 
  1.244880990612598   3.593227372708998  11.673616748318732 
  4.978963260459023  10.060762807800382  11.673616748318732 
  6.223571414820294   3.593139807042023  11.673616748318732 
 11.202388681132295   3.593281484854127  11.673616748318732 
 -2.528587614799475  10.038099250604970   5.002978606422314 
 -1.216028621198566   3.604915837076120   5.002978606422314 
  3.826373174222070   3.540718657533787   5.002978606422314 
  2.442175462886421  10.115314302910702   5.002978606422314 
  7.438304561988719  10.052137029157418   5.002978606422314 
  8.733607610702537   3.559459538941079   5.002978606422314 
 -6.223280670781449  12.216630431821528  11.673616748318732 
 -1.244572878353211  12.216606504101563  11.673616748318732 
  0.000073573163516   5.749162516770567  11.673616748318732 
  4.978955041318540   5.749096031058022  11.673616748318732 
  3.734209173352987  12.216648266788095  11.673616748318732 
  9.957753131511632   5.749178271945844  11.673616748318732 
 -2.496605260024035   5.744512103214337   5.002978606422314 
 -3.756845139352613  12.181080182044868   5.002978606422314 
  1.233785473629477  12.210306366001175   5.002978606422314 
  2.490153201155522   5.855119540973383   5.002978606422314 
  6.229203923262745  12.234315427589273   5.002978606422314 
  7.423351941637037   5.692473615995226   5.002978606422314 
 -1.244647388053179   7.904996270004409  11.673616748318732 
  0.000206269616319   1.437312032724659  11.673616748318732 
  3.734150368624348   7.904943540484700  11.673616748318732 
  4.978918940813288   1.437164653855202  11.673616748318732 
  8.713185221912957   7.905054831040393  11.673616748318732 
 -3.778903114475323   7.884178806698140   5.002978606422314 
  9.957646643780750   1.437338370279201  11.673616748318732 
  2.508444929706865   1.436155290693174   5.002978606422314 
  1.179461023980517   7.955513846697518   5.002978606422314 
  6.152117041609737   7.894317051197269   5.002978606422314 
  7.491821193994598   1.369071336407990   5.002978606422314 
  1.244694879032971   7.905030455704977  11.673616748318732 
 12.467659606007381   1.449216634353608   5.002978606422314 
 -2.489257298225109  10.060806619466504  11.673616748318732 
 -1.244533822720532   3.593265114870074  11.673616748318732 
  3.734285721780842   3.593040884452210  11.673616748318732 
  2.489459642326253  10.060797268733292  11.673616748318732 
  7.468425309113099  10.060820537034932  11.673616748318732 
  8.712972112200939   3.593269760671414  11.673616748318732 
 -5.019095186791373  10.032254487093686   5.002978606422314 
 -0.041588264955876  10.065679228780446   5.002978606422314 
  1.295179698981253   3.622267345525522   5.002978606422314 
  4.960000498783799  10.095538784587632   5.002978606422314 
  6.289405950690258   3.442057831291449   5.002978606422314 
 11.220444228802204   3.589233625609264   5.002978606422314 
 -2.489270796920350   5.749135614330204  11.673616748318732 
 -3.733938871514683  12.216575594208265  11.673616748318732 
  1.244767625827654  12.216646914529065  11.673616748318732 
  2.489421852628836   5.749208354330275  11.673616748318732 
  6.223681698364778  12.216654935005474  11.673616748318732 
 -6.230951980414307  12.212590356008539   5.002978606422314 
  7.468414777302640   5.749209536311884  11.673616748318732 
 -1.261202978141885  12.178113877677172   5.002978606422314 
  0.008583739339852   5.766041884278485   5.002978606422314 
 -1.286840450623461   7.902906566232597   5.002978606422314 
  3.735081343579892  12.234833182765419   5.002978606422314 
  9.935172619533569   5.727434693693897   5.002978606422314 
 -3.733881040981021   7.905004418171394  11.673616748318732 
  2.489571885557027   1.437224954347999  11.673616748318732 
  6.223783207743855   7.904974651491912  11.673616748318732 
  7.468250147177891   1.437279154088691  11.673616748318732 
 12.447107928864641   1.437351118022960  11.673616748318732 
Generated by cif2cell 2.0.0.  :  Failed to get author information, No journal information. Species order: B As N 
 1.0
 14.936314146199660   0.000000000000000   0.000000000000000
 -7.468157073099825  12.935227489513863   0.000000000000000
  0.000000000000001   0.000000000000001  13.341276283792837
 B As N 
 143   1 143
Cartesian
  1.262989478751577   0.725937704953409   5.002978606422314 
  4.825139266717174   7.291188594713975   5.002978606422314 
  6.231839080990061   0.667668733182337   5.002978606422314 
  9.907904091666314   7.163288434790788   5.002978606422314 
 11.221020991593605   0.729469494739587   5.002978606422314 
 -3.733960984426288   9.342176611176876  11.673616748318732 
  1.245011841558924   9.341687521386095  11.673616748318732 
  2.490202269419265   2.875198869382128  11.673616748318732 
  6.223505903663253   9.341383964780974  11.673616748318732 
  7.467483421962481   2.875130225055415  11.673616748318732 
 12.447274652213862   2.874828967790579  11.673616748318732 
 -1.280715897262451   9.334565249268284   5.002978606422314 
  0.050225319802716   2.903492599577943   5.002978606422314 
  5.007134440496325   2.782506064732308   5.002978606422314 
  3.684400096084496   9.428888630725185   5.002978606422314 
  8.668156113963917   9.310594920752123   5.002978606422314 
  9.979598699606097   2.864106572723113   5.002978606422314 
 -4.978564371457395  11.498155345371233  11.673616748318732 
  0.000019026451984  11.497990975606108  11.673616748318732 
  1.245710705493593   5.030721487692258  11.673616748318732 
  6.222710465596008   5.030798590084154  11.673616748318732 
  4.978978320434313  11.497538444642970  11.673616748318732 
 11.202220833871069   5.030646710887828  11.673616748318732 
 -1.229210457602826   5.042554617339188   5.002978606422314 
 -2.513930073614600  11.470554859324427   5.002978606422314 
  2.477858647333649  11.527123717925869   5.002978606422314 
  7.459437722241095  11.495079152766476   5.002978606422314 
  8.688538772507773   5.000213501613819   5.002978606422314 
  0.000599052139138   7.186171292172192  11.673616748318732 
  1.245271151116533   0.719022602732550  11.673616748318732 
  4.978768922100527   7.185368545063993  11.673616748318732 
  6.223258937482558   0.719110618614089  11.673616748318732 
  9.957420728853982   7.186343034469036  11.673616748318732 
 -2.523946371504588   7.178345045624057   5.002978606422314 
 11.202322827550310   0.718674104695847  11.673616748318732 
  3.729759998344276   0.683945383421264   5.002978606422314 
  2.423902467457292   7.256795089772341   5.002978606422314 
  7.386268384122749   7.138959037549870   5.002978606422314 
  8.732325604923446   0.694069173119526   5.002978606422314 
  2.489965493215088   7.185749601734477  11.673616748318732 
 13.715658649134964   0.738044569813237   5.002978606422314 
 -1.244438401043543   9.342060104375097  11.673616748318732 
  0.000861285864584   2.874992261295468  11.673616748318732 
  4.978638755910193   2.875241067308319  11.673616748318732 
  3.734291834034465   9.341207729735519  11.673616748318732 
  8.712880301553216   9.341950286627460  11.673616748318732 
  9.957263843232875   2.874894984571209  11.673616748318732 
 -3.774241131732482   9.318920857286631   5.002978606422314 
  1.204751933710227   9.374839086347558   5.002978606422314 
  2.559603213377605   2.903702831699155   5.002978606422314 
  6.185195611964142   9.336131044455470   5.002978606422314 
  7.518471440671226   2.788082262057003   5.002978606422314 
 12.475766053217439   2.885601541870870   5.002978606422314 
 -1.244058275613379   5.030667646605092  11.673616748318732 
 -2.489300590584940  11.498224665082249  11.673616748318732 
  2.489468826966790  11.497650840043438  11.673616748318732 
  3.734656625595734   5.030700005788221  11.673616748318732 
  7.468392574995780  11.497826961996315  11.673616748318732 
 -5.002886783244828  11.471995787693892   5.002978606422314 
  8.712243080803262   5.030764727288903  11.673616748318732 
 -0.016041216813828  11.488718589833340   5.002978606422314 
  1.305096332947823   5.076572487048288   5.002978606422314 
 -0.032191615017241   7.199836713379168   5.002978606422314 
  6.237538489130998   4.844841380922441   5.002978606422314 
  4.980802709893998  11.522275203576079   5.002978606422314 
 11.195363734895912   5.024265485530081   5.002978606422314 
 -2.489130324110495   7.186329093274546  11.673616748318732 
  3.734320730003795   0.719175644789244  11.673616748318732 
  7.467792851034458   7.186027210466843  11.673616748318732 
  8.712606433771208   0.718860322565517  11.673616748318732 
 13.692083625815499   0.718756579794862  11.673616748318732 
  0.000379623907229   1.437928981379400   1.669681413370991 
  3.735088333432899   7.902604456522777   1.663636647889033 
  4.978521490317300   1.440054682989994   1.669857028785692 
  8.710432856328239   7.903465752029112   1.669184980471364 
  9.957529321113588   1.437451460072869   1.667753843484492 
 -4.979669945652272  10.060570552761495   8.337539744971211 
  0.001030783373266  10.060344489438750   8.337017229627541 
  1.245914792909125   3.593824238743186   8.336954125332751 
  4.978207687587989  10.059718920528550   8.338402128918514 
  6.222014691091961   3.595121650375045   8.342320564955596 
 11.202086277728505   3.592935982462828   8.337518672337483 
 -2.489231373407670  10.060821587166823   1.668125228731028 
 -1.243912852367247   3.593106769762499   1.669681413370991 
  3.733646300650477   3.595489593744918   1.663647358846446 
  2.490245856978127  10.059841795269724   1.668465895714215 
  7.466754166264161  10.059910389424662   1.668776079563216 
  8.711690292869338   3.593137359006588   1.667555083926114 
 -6.223804656718301  12.217185483670434   8.336563565733339 
 -1.244513473769798  12.217690425886186   8.337017229627541 
  0.001796307706912   5.748130391505867   8.335529120803686 
  4.976424049251865   5.747634762107019   8.329026247572898 
  3.734248450653639  12.216490117481044   8.338203369360135 
  9.956129349135486   5.748186093590434   8.337181133281412 
 -2.489052100887228   5.748404303273249   1.669393647111261 
 -3.734210389303898  12.218037795326490   1.669215643015099 
  1.245101677732007  12.216839779485966   1.668249327974427 
  2.491222786517615   5.747430244741319   1.663647358846446 
  6.223231282814941  12.216565797171262   1.668438540507145 
  7.464629267108283   5.747423521887286   1.663715675115472 
 -1.243516843633977   7.904030028142285   8.336741569829528 
  0.000379623907229   1.437928981379401   8.336275799473610 
  3.735088333432900   7.902604456522778   8.342320564955596 
  4.978521490317301   1.440054682989995   8.336100184058949 
  8.710432856328239   7.903465752029113   8.336772232373276 
 -3.734668061702202   7.904164034240984   1.668417467873429 
  9.957529321113588   1.437451460072870   8.338203369360135 
  2.489539406129606   1.439232948858907   1.670428092040928 
  1.246998992433377   7.903241238911321   1.669857028785692 
  6.220343718783426   7.902589310709652   1.663715675115472 
  7.467815790211732   1.438437772681836   1.668465895714215 
  1.246998992433377   7.903241238911322   8.336100184058949 
 12.447168872465058   1.437386303827055   1.667941328772492 
 -2.489231373407670  10.060821587166823   8.337831984113587 
 -1.243912852367247   3.593106769762500   8.336275799473610 
  3.733646300650477   3.595489593744919   8.342309853998195 
  2.490245856978127  10.059841795269724   8.337491317130400 
  7.466754166264161  10.059910389424662   8.337181133281412 
  8.711690292869338   3.593137359006589   8.338402128918514 
 -4.979669945652273  10.060570552761495   1.668417467873429 
  0.001030783373265  10.060344489438750   1.668939983217099 
  1.245914792909125   3.593824238743185   1.669003087511889 
  4.978207687587989  10.059718920528550   1.667555083926114 
  6.222014691091960   3.595121650375044   1.663636647889033 
 11.202086277728505   3.592935982462827   1.668438540507145 
 -2.489052100887227   5.748404303273250   8.336563565733339 
 -3.734210389303898  12.218037795326490   8.336741569829528 
  1.245101677732008  12.216839779485966   8.337707884870213 
  2.491222786517615   5.747430244741320   8.342309853998195 
  6.223231282814942  12.216565797171262   8.337518672337483 
 -6.223804656718302  12.217185483670434   1.669393647111261 
  7.464629267108283   5.747423521887287   8.342241537729130 
 -1.244513473769799  12.217690425886186   1.668939983217099 
  0.001796307706911   5.748130391505866   1.670428092040928 
 -1.243516843633978   7.904030028142284   1.669215643015099 
  4.976424049251865   5.747634762107018   1.676930965271757 
  3.734248450653639  12.216490117481044   1.667753843484492 
  9.956129349135486   5.748186093590433   1.668776079563216 
 -3.734668061702201   7.904164034240985   8.337539744971211 
  2.489539406129606   1.439232948858908   8.335529120803686 
  6.220343718783427   7.902589310709653   8.342241537729130 
  7.467815790211733   1.438437772681836   8.337491317130400 
 12.447168872465058   1.437386303827056   8.338015884072121 
  4.428965754272530   5.431559568130614   5.002978606422314 
  1.244329014027732   0.718378555671127   1.667320437742571 
  4.978561863815037   7.187378268961758   1.646313539622383 
  6.223743259683380   0.718683786488316   1.666769185978702 
  9.957135338407538   7.185941074635013   1.666717686798717 
 11.202454388114624   0.718750061223059   1.665334522975211 
 -3.734309600606820   9.341975337531194   8.339925191396809 
  1.244884355195274   9.342320372778497   8.339188026865926 
  2.488474700348375   2.873902309285091   8.344424311192009 
  6.223044637914217   9.342314930164207   8.341414071544230 
  7.468575490974578   2.874123648827046   8.342738167435982 
 12.446821637674136   2.874377196764761   8.339725522338437 
 -1.244607550585908   9.342130305843085   1.666484895203680 
 -0.000580437326626   2.874159882022925   1.666542823018140 
  4.978912341212778   2.874391586422942   1.660153940220555 
  3.733966147955872   9.342656777356913   1.663219045408659 
  8.712389498902398   9.341904111167905   1.666717686798717 
  9.957836002337960   2.874259345758277   1.665737901521329 
 -4.978996154247047  11.497897500810611   8.339530278757982 
  0.000278004324078  11.498140496550258   8.339544822349030 
  1.243724066976573   5.029873649038608   8.344424311192009 
  6.224347408403344   5.029614410399936   8.359643673222232 
  4.978713920627241  11.498351768369419   8.340219311323299 
 11.202048210555553   5.030159961880673   8.339146905756216 
 -1.245087105274211   5.030173755483067   1.667320437742571 
 -2.489324369101484  11.498043076547567   1.666484895203680 
  2.489587662971366  11.498337549712421   1.665902294894614 
  3.731448354357574   5.028847709525254   1.633884791394181 
  7.467884726332535  11.497920840323408   1.666810307088425 
  8.712818687600675   5.029899776740710   1.664543141300411 
  0.000004503454272   7.186175152815312   8.339173174939024 
  1.244329014027733   0.718378555671128   8.338636775102071 
  4.978561863815038   7.187378268961758   8.359643673222232 
  6.223743259683381   0.718683786488317   8.339188026865926 
  9.957135338407538   7.185941074635014   8.339239526045912 
 -2.489569515445054   7.186084080690113   1.666426934086659 
 11.202454388114624   0.718750061223060   8.340622689869404 
  3.734026799076372   0.718658820202815   1.666784037905604 
  2.489366613839608   7.186411273999318   1.660153940220555 
  7.467685557037406   7.185965264248787   1.663830023243916 
  8.713260559791856   0.718619882729885   1.665902294894614 
  2.489366613839593   7.186411273999319   8.345803272624073 
 13.691465873360563   0.718590143208120   1.666231690506190 
 -1.244607550585907   9.342130305843085   8.339472317640949 
 -0.000580437326626   2.874159882022926   8.339414389826489 
  4.978912341212771   2.874391586422956   8.345803272624073 
  3.733966147955873   9.342656777356913   8.342738167435982 
  8.712389498902398   9.341904111167905   8.339239526045912 
  9.957836002337960   2.874259345758277   8.340219311323299 
 -3.734309600606820   9.341975337531194   1.666032021447820 
  1.244884355195274   9.342320372778497   1.666769185978702 
  2.488474700348375   2.873902309285090   1.661532901652617 