B C N                                   
   1.0000000000000000     
     8.7639499999999995  -15.1796066749929999    0.0000000000000000
     8.7639499999999995   15.1796066749929999    0.0000000000000000
     0.0000000000000000    0.0000000000000000   15.0000000000000000
   B    C    N 
    46     3    47
Selective dynamics
Direct
  0.9049053120442487  0.9536869288035352  0.1108787607865440   T   T   T
  0.9063310827604362  0.0972869040571845  0.1113396409020393   T   T   T
  0.9062541229304947  0.2396446178862882  0.1117189494952659   T   T   T
  0.9052197344836441  0.3815034926911380  0.1116759904127178   T   T   T
  0.9027023671078956  0.5229394258480485  0.1119042372439266   T   T   T
  0.8979923197458217  0.6643353785868709  0.1123849859676134   T   T   T
  0.9015604784772069  0.8087193927330504  0.1116020337924884   T   T   T
  0.0461825254961079  0.9513376486152435  0.1112969693623844   T   T   T
  0.0482998209204785  0.0957095041480922  0.1119955121605506   T   T   T
  0.0497224586658204  0.2394526948198109  0.1128081959033305   T   T   T
  0.0498042476596580  0.3818927137638614  0.1127375410131590   T   T   T
  0.0482186306807117  0.5234967742121328  0.1121563811910694   T   T   T
  0.0450762254361406  0.6648978688216055  0.1116097654512100   T   T   T
  0.0442488140615920  0.8071244404995930  0.1112820705984424   T   T   T
  0.1883613174205953  0.9499325955609079  0.1113169837052845   T   T   T
  0.1900182601152367  0.0940213946989897  0.1117986805823842   T   T   T
  0.1918959687116898  0.2380584220083727  0.1129720825774287   T   T   T
  0.1942154440151627  0.3820018309602705  0.1130368579412705   T   T   T
  0.1938426982163169  0.5240652754994471  0.1130926640171840   T   T   T
  0.1915096916718850  0.6653824220325730  0.1122766216667028   T   T   T
  0.1887059068456800  0.8072705038407944  0.1114928519921687   T   T   T
  0.3319597996804339  0.9502714368689973  0.1116228431718711   T   T   T
  0.3316911241802897  0.0924381411924808  0.1115666256549257   T   T   T
  0.3338347666121032  0.2359671464592880  0.1095319936770135   T   T   T
  0.3365063582398103  0.3796987252663463  0.1079585358678728   T   T   T
  0.3397577479367814  0.5254886227379078  0.1087736433014830   T   T   T
  0.3388509765296002  0.6662910675705034  0.1128576307073693   T   T   T
  0.3332483634808769  0.8080365490879529  0.1119032961150143   T   T   T
  0.4758091840095943  0.9523046065815074  0.1111914977561346   T   T   T
  0.4752129075205240  0.0944030149957662  0.1122603989014976   T   T   T
  0.4743867293967720  0.2362128357014009  0.1119574912318506   T   T   T
  0.4902634324974000  0.6702943670791698  0.1132998309750678   T   T   T
  0.4773341849558651  0.8104467608775745  0.1105578346257612   T   T   T
  0.6196709542148797  0.9554235572728093  0.1101536208765407   T   T   T
  0.6189607286864676  0.0961050825513684  0.1113428483751046   T   T   T
  0.6185478397245088  0.2374391491596169  0.1120569812029276   T   T   T
  0.6186986749970790  0.3809313875896262  0.1146018869211069   T   T   T
  0.6124973688570172  0.6739950670767987  0.1154147220113755   T   T   T
  0.6212647493322367  0.8163591864414864  0.1099113636162894   T   T   T
  0.7634414873159570  0.9558644592614649  0.1101464473970304   T   T   T
  0.7629562393471203  0.0974237878133452  0.1108847574221014   T   T   T
  0.7623137631803940  0.2390842982213904  0.1114374263809053   T   T   T
  0.7607225206338329  0.3808783759901244  0.1120414787488933   T   T   T
  0.7552272114296458  0.5213119858352152  0.1157535198024106   T   T   T
  0.7509288385649537  0.6655949661908669  0.1147850725585891   T   T   T
  0.7612108387174588  0.8122915090055892  0.1110470981467559   T   T   T
  0.4774136049706504  0.3790246099081588  0.1021678985152101   T   T   T
  0.4722275958851497  0.5105304590305800  0.0758739255347136   T   T   T
  0.5202768137067109  0.4690290854805275  0.0864795482059113   T   T   T
  0.9513633318374486  0.9049238150787641  0.1110806293094833   T   T   T
  0.9534471406742930  0.0492106287567463  0.1113037103713699   T   T   T
  0.9544506157465185  0.1924272852604086  0.1119704186124476   T   T   T
  0.9542499423828120  0.3345988716916480  0.1119531291656995   T   T   T
  0.9528421957217097  0.4764264403998458  0.1116291925609452   T   T   T
  0.9495480247169746  0.6182913935538140  0.1118070517103536   T   T   T
  0.9490917537917221  0.7605877159881486  0.1116060976454337   T   T   T
  0.0932350487290821  0.9029598972641265  0.1111656531914756   T   T   T
  0.0949912966347241  0.0471368088022392  0.1117396795422934   T   T   T
  0.0967572770923471  0.1911522120007163  0.1129129519160745   T   T   T
  0.0983573930928113  0.3347318036041885  0.1132504848721967   T   T   T
  0.0978534805669422  0.4769304498765978  0.1129203710146461   T   T   T
  0.0955277460952932  0.6185316205879939  0.1119209194771030   T   T   T
  0.0933327662675045  0.7602837036701056  0.1113098465218805   T   T   T
  0.2365257943932066  0.9026570647711638  0.1113618587648971   T   T   T
  0.2365732055789604  0.0453996612506300  0.1114221967460103   T   T   T
  0.2387001072821978  0.1897327261008390  0.1118654425508172   T   T   T
  0.2410799237190811  0.3332802931007636  0.1133222613778995   T   T   T
  0.2432168876177656  0.4774186397151606  0.1124488339352937   T   T   T
  0.2419142621005760  0.6190544352382864  0.1128977095356866   T   T   T
  0.2378394376077407  0.7605315717229458  0.1119179078445083   T   T   T
  0.3802677319299377  0.9034013551262704  0.1115075013690609   T   T   T
  0.3796064470797935  0.0454655611068090  0.1119521492270507   T   T   T
  0.3793783362021612  0.1873395618575370  0.1108902269219929   T   T   T
  0.3841066019657776  0.3316258731741547  0.1052960236655440   T   T   T
  0.3850346156323307  0.4748682741203701  0.1008908266617858   T   T   T
  0.3908110908093862  0.6205183208959900  0.1127835725923088   T   T   T
  0.3822391761759831  0.7614421353051822  0.1121428048269811   T   T   T
  0.5241862882797880  0.9059821335201362  0.1104103627116075   T   T   T
  0.5233011115223798  0.0474601996068828  0.1115848988858849   T   T   T
  0.5226004797664476  0.1892853464919378  0.1129252918012992   T   T   T
  0.5200111464211568  0.3308180035109207  0.1111693796640533   T   T   T
  0.5262438985849187  0.7649705255595243  0.1098112545170041   T   T   T
  0.6685143233541246  0.9103867239532493  0.1096024572922631   T   T   T
  0.6674642364608062  0.0499852072235251  0.1107103216897100   T   T   T
  0.6667436004366190  0.1904987936530649  0.1116177732751748   T   T   T
  0.6652566542552726  0.3307541669087221  0.1118719807015409   T   T   T
  0.6642536118423269  0.4698186601145394  0.1206232125232136   T   T   T
  0.6592474965419759  0.6310141947734028  0.1177196472759923   T   T   T
  0.6669690437367384  0.7697999936671608  0.1108462345508367   T   T   T
  0.8103853818037821  0.9081001690553562  0.1103238752416119   T   T   T
  0.8113178718280888  0.0507745337613830  0.1106906837705858   T   T   T
  0.8108756742184743  0.1922249349977055  0.1112645666120913   T   T   T
  0.8099161355775979  0.3337324499151975  0.1114946038042950   T   T   T
  0.8082325801978590  0.4756368592321739  0.1125879508294770   T   T   T
  0.8026316464724594  0.6182807874426018  0.1142047892227991   T   T   T
  0.8070109099400011  0.7633929980203493  0.1122221046364881   T   T   T

  0.00000000E+00  0.00000000E+00  0.00000000E+00
  0.00000000E+00  0.00000000E+00  0.00000000E+00
  0.00000000E+00  0.00000000E+00  0.00000000E+00
  0.00000000E+00  0.00000000E+00  0.00000000E+00
  0.00000000E+00  0.00000000E+00  0.00000000E+00
  0.00000000E+00  0.00000000E+00  0.00000000E+00
  0.00000000E+00  0.00000000E+00  0.00000000E+00
  0.00000000E+00  0.00000000E+00  0.00000000E+00
  0.00000000E+00  0.00000000E+00  0.00000000E+00
  0.00000000E+00  0.00000000E+00  0.00000000E+00
  0.00000000E+00  0.00000000E+00  0.00000000E+00
  0.00000000E+00  0.00000000E+00  0.00000000E+00
  0.00000000E+00  0.00000000E+00  0.00000000E+00
  0.00000000E+00  0.00000000E+00  0.00000000E+00
  0.00000000E+00  0.00000000E+00  0.00000000E+00
  0.00000000E+00  0.00000000E+00  0.00000000E+00
  0.00000000E+00  0.00000000E+00  0.00000000E+00
  0.00000000E+00  0.00000000E+00  0.00000000E+00
  0.00000000E+00  0.00000000E+00  0.00000000E+00
  0.00000000E+00  0.00000000E+00  0.00000000E+00
  0.00000000E+00  0.00000000E+00  0.00000000E+00
  0.00000000E+00  0.00000000E+00  0.00000000E+00
  0.00000000E+00  0.00000000E+00  0.00000000E+00
  0.00000000E+00  0.00000000E+00  0.00000000E+00
  0.00000000E+00  0.00000000E+00  0.00000000E+00
  0.00000000E+00  0.00000000E+00  0.00000000E+00
  0.00000000E+00  0.00000000E+00  0.00000000E+00
  0.00000000E+00  0.00000000E+00  0.00000000E+00
  0.00000000E+00  0.00000000E+00  0.00000000E+00
  0.00000000E+00  0.00000000E+00  0.00000000E+00
  0.00000000E+00  0.00000000E+00  0.00000000E+00
  0.00000000E+00  0.00000000E+00  0.00000000E+00
  0.00000000E+00  0.00000000E+00  0.00000000E+00
  0.00000000E+00  0.00000000E+00  0.00000000E+00
  0.00000000E+00  0.00000000E+00  0.00000000E+00
  0.00000000E+00  0.00000000E+00  0.00000000E+00
  0.00000000E+00  0.00000000E+00  0.00000000E+00
  0.00000000E+00  0.00000000E+00  0.00000000E+00
  0.00000000E+00  0.00000000E+00  0.00000000E+00
  0.00000000E+00  0.00000000E+00  0.00000000E+00
  0.00000000E+00  0.00000000E+00  0.00000000E+00
  0.00000000E+00  0.00000000E+00  0.00000000E+00
  0.00000000E+00  0.00000000E+00  0.00000000E+00
  0.00000000E+00  0.00000000E+00  0.00000000E+00
  0.00000000E+00  0.00000000E+00  0.00000000E+00
  0.00000000E+00  0.00000000E+00  0.00000000E+00
  0.00000000E+00  0.00000000E+00  0.00000000E+00
  0.00000000E+00  0.00000000E+00  0.00000000E+00
  0.00000000E+00  0.00000000E+00  0.00000000E+00
  0.00000000E+00  0.00000000E+00  0.00000000E+00
  0.00000000E+00  0.00000000E+00  0.00000000E+00
  0.00000000E+00  0.00000000E+00  0.00000000E+00
  0.00000000E+00  0.00000000E+00  0.00000000E+00
  0.00000000E+00  0.00000000E+00  0.00000000E+00
  0.00000000E+00  0.00000000E+00  0.00000000E+00
  0.00000000E+00  0.00000000E+00  0.00000000E+00
  0.00000000E+00  0.00000000E+00  0.00000000E+00
  0.00000000E+00  0.00000000E+00  0.00000000E+00
  0.00000000E+00  0.00000000E+00  0.00000000E+00
  0.00000000E+00  0.00000000E+00  0.00000000E+00
  0.00000000E+00  0.00000000E+00  0.00000000E+00
  0.00000000E+00  0.00000000E+00  0.00000000E+00
  0.00000000E+00  0.00000000E+00  0.00000000E+00
  0.00000000E+00  0.00000000E+00  0.00000000E+00
  0.00000000E+00  0.00000000E+00  0.00000000E+00
  0.00000000E+00  0.00000000E+00  0.00000000E+00
  0.00000000E+00  0.00000000E+00  0.00000000E+00
  0.00000000E+00  0.00000000E+00  0.00000000E+00
  0.00000000E+00  0.00000000E+00  0.00000000E+00
  0.00000000E+00  0.00000000E+00  0.00000000E+00
  0.00000000E+00  0.00000000E+00  0.00000000E+00
  0.00000000E+00  0.00000000E+00  0.00000000E+00
  0.00000000E+00  0.00000000E+00  0.00000000E+00
  0.00000000E+00  0.00000000E+00  0.00000000E+00
  0.00000000E+00  0.00000000E+00  0.00000000E+00
  0.00000000E+00  0.00000000E+00  0.00000000E+00
  0.00000000E+00  0.00000000E+00  0.00000000E+00
  0.00000000E+00  0.00000000E+00  0.00000000E+00
  0.00000000E+00  0.00000000E+00  0.00000000E+00
  0.00000000E+00  0.00000000E+00  0.00000000E+00
  0.00000000E+00  0.00000000E+00  0.00000000E+00
  0.00000000E+00  0.00000000E+00  0.00000000E+00
  0.00000000E+00  0.00000000E+00  0.00000000E+00
  0.00000000E+00  0.00000000E+00  0.00000000E+00
  0.00000000E+00  0.00000000E+00  0.00000000E+00
  0.00000000E+00  0.00000000E+00  0.00000000E+00
  0.00000000E+00  0.00000000E+00  0.00000000E+00
  0.00000000E+00  0.00000000E+00  0.00000000E+00
  0.00000000E+00  0.00000000E+00  0.00000000E+00
  0.00000000E+00  0.00000000E+00  0.00000000E+00
  0.00000000E+00  0.00000000E+00  0.00000000E+00
  0.00000000E+00  0.00000000E+00  0.00000000E+00
  0.00000000E+00  0.00000000E+00  0.00000000E+00
  0.00000000E+00  0.00000000E+00  0.00000000E+00
  0.00000000E+00  0.00000000E+00  0.00000000E+00
  0.00000000E+00  0.00000000E+00  0.00000000E+00
