 B C N 
 1.0
 14.936314146199660   0.000000000000000   0.000000000000000
 -7.468157073099825  12.935227489513863   0.000000000000000
  0.000000000000001   0.000000000000001  13.341276283792837
 B C N 
 142   3 143
Cartesian
  1.245381750464036   0.722214075692295   5.002978606422314 
  4.978771382066589   7.211124064907083   5.002978606422314 
  6.220712848613170   0.727965319420914   5.002978606422314 
  9.948404188760078   7.181837666777960   5.002978606422314 
 11.203251645047821   0.719007538429583   5.002978606422314 
 -3.734069207763055   9.342160625452461  11.673616748318732 
  1.244683070816639   9.342333644299330  11.673616748318732 
  2.489102473510770   2.874244695486022  11.673616748318732 
  6.223461659930209   9.342429192972466  11.673616748318732 
  7.468440290622406   2.874244695486022  11.673616748318732 
 12.446928455166372   2.874308849434609  11.673616748318732 
 -1.242757099312213   9.339639492981533   5.002978606422314 
 -0.009500888068634   2.869185281627428   5.002978606422314 
  4.978771382066542   2.901626884545813   5.002978606422314 
  3.733099978193513   9.357693858794070   5.002978606422314 
  8.706295243911125   9.335078473912693   5.002978606422314 
  9.967043652201824   2.869185281627428   5.002978606422314 
 -4.978899538607649  11.497892423722764  11.673616748318732 
  0.000128156541172  11.497892423722764  11.673616748318732 
  1.244429534126646   5.030399436703617  11.673616748318732 
  6.223518774407331   5.030547038292713  11.673616748318732 
  4.978771382066592  11.498101869808050  11.673616748318732 
 11.202395240334820   5.030314990761469  11.673616748318732 
 -1.238856050658558   5.029083783408161   5.002978606422314 
 -2.489385691033239  11.500022566482347   5.002978606422314 
  2.486951598045365  11.503727850179953   5.002978606422314 
  7.470591166087833  11.503727850179953   5.002978606422314 
  8.700319459397697   5.012864348369744   5.002978606422314 
 -0.000128254561255   7.186391066722717  11.673616748318732 
  1.244416644468345   0.718381784131030  11.673616748318732 
  4.978771382066583   7.186587253892303  11.673616748318732 
  6.223608744461892   0.718277539671638  11.673616748318732 
  9.957671018694327   7.186391066722717  11.673616748318732 
 -2.489385691033241   7.183978106686519   5.002978606422314 
 11.202372632825384   0.718476590785601  11.673616748318732 
  3.736829915519913   0.727965319420914   5.002978606422314 
  2.520328201744456   7.182725028087804   5.002978606422314 
  7.437214562388632   7.182725028087804   5.002978606422314 
  8.712161013669151   0.722214075692295   5.002978606422314 
  2.489301295188804   7.186589360977892  11.673616748318732 
 13.690605265284908   0.719007538429583   5.002978606422314 
 -1.244702174303425   9.342160625452461  11.673616748318732 
 -0.000302688741115   2.874276600644541  11.673616748318732 
  4.978771382066543   2.874231967462574  11.673616748318732 
  3.734081104202954   9.342429192972466  11.673616748318732 
  8.712859693316449   9.342333644299330  11.673616748318732 
  9.957845452874302   2.874276600644541  11.673616748318732 
 -3.736014282754238   9.339639492981533   5.002978606422314 
  1.251247520221950   9.335078473912693   5.002978606422314 
  2.470476552969427   2.876831068687725   5.002978606422314 
  6.224442785939683   9.357693858794070   5.002978606422314 
  7.487066211163762   2.876831068687725   5.002978606422314 
 12.446928455166356   2.874139121818925   5.002978606422314 
 -1.244852476201627   5.030314990761469  11.673616748318732 
 -2.489385691033231  11.497824797042993  11.673616748318732 
  2.489505897378288  11.498043212145891  11.673616748318732 
  3.734023989725831   5.030547038292713  11.673616748318732 
  7.468036866754908  11.498043212145891  11.673616748318732 
 -4.978218186294507  11.498562564791300   5.002978606422314 
  8.713113230006543   5.030399436703617  11.673616748318732 
 -0.000553195771956  11.498562564791300   5.002978606422314 
  1.257223304735478   5.012864348369744   5.002978606422314 
  0.009138575373023   7.181837666777960   5.002978606422314 
  4.978771382066613  11.504890960104357   5.002978606422314 
 11.196398814791735   5.029083783408161   5.002978606422314 
 -2.489385691033240   7.186298718517483  11.673616748318732 
  3.733934019671178   0.718277539671638  11.673616748318732 
  7.468241468944273   7.186589360977892  11.673616748318732 
  8.713126119664842   0.718381784131030  11.673616748318732 
 13.691484277507344   0.718476590785601  11.673616748318732 
 -0.000440128622101   1.436652552652412   1.666061468762835 
  3.734102685656005   7.905779365185768   1.664311303691946 
  4.978771382066481   1.435592298860894   1.665641555623945 
  8.713649455627561   7.905568577030867   1.666227185919043 
  9.957982892755169   1.436652552652412   1.666061468762835 
 -4.978428113170300  10.060513349573569   8.339470170284162 
 -0.000343268896283  10.060513349573569   8.339470170284162 
  1.243485718548700   3.592931385048657   8.341004627851872 
  4.978771382066530  10.061175541368355   8.339773420695145 
  6.224055161168943   3.593340640353804   8.345467969524803 
 11.202776457943727   3.593302329845581   8.339980075894365 
 -2.489385691033285  10.060304679192287   1.666527950500686 
 -1.245233693810656   3.593302329845580   1.665977136950262 
  3.733487602964143   3.593340640353803   1.660489243319825 
  2.489100767559398  10.060935272176767   1.666405761058906 
  7.468441996573693  10.060935272176767   1.666405761058906 
  8.714057045584385   3.592931385048656   1.664952584992755 
 -6.223474499025268  12.215847065167708   8.339630547832988 
 -1.244685212691665  12.215296941815669   8.339815856381790 
 -0.001125001658918   5.749718687259073   8.339896085551427 
  4.978771382066603   5.750019784387125   8.344581479935073 
  3.734088652663358  12.216393746006535   8.339450807983029 
  9.958667765791990   5.749718687259073   8.339896085551427 
 -2.489385691033235   5.749623390446899   1.666249690709324 
 -3.734086169374918  12.215296941815669   1.666141356462837 
  1.244703116958791  12.215847065167708   1.666326665011627 
  2.488873161077481   5.749642171736120   1.661227847730791 
  6.223454111469717  12.216393746006535   1.666506404861599 
  7.468669603055604   5.749642171736120   1.661227847730791 
 -1.245156315699894   7.905305104129026   8.339581002352757 
 -0.000440128622100   1.436652552652413   8.339895744081794 
  3.734102685656005   7.905779365185769   8.341645909152669 
  4.978771382066482   1.435592298860895   8.340315657220669 
  8.713649455627561   7.905568577030868   8.339730026925585 
 -3.733615066366677   7.905305104129025   1.666376210491871 
  9.957982892755169   1.436652552652413   8.339895744081794 
  2.488935360918410   1.435877230538780   1.665724599033312 
  1.243893308505438   7.905568577030867   1.666227185919043 
  6.223440078477068   7.905779365185768   1.664311303691946 
  7.468607403214659   1.435877230538780   1.665724599033312 
  1.243893308505438   7.905568577030868   8.339730026925585 
 12.446928455166303   1.437027986113312   1.666370995880439 
 -2.489385691033285  10.060304679192287   8.339429262343941 
 -1.245233693810655   3.593302329845581   8.339980075894365 
  3.733487602964143   3.593340640353804   8.345467969524803 
  2.489100767559398  10.060935272176767   8.339551451785722 
  7.468441996573694  10.060935272176767   8.339551451785722 
  8.714057045584385   3.592931385048657   8.341004627851872 
 -4.978428113170301  10.060513349573569   1.666487042560465 
 -0.000343268896284  10.060513349573569   1.666487042560465 
  1.243485718548699   3.592931385048656   1.664952584992755 
  4.978771382066530  10.061175541368355   1.666183792149481 
  6.224055161168942   3.593340640353803   1.660489243319825 
 11.202776457943727   3.593302329845580   1.665977136950262 
 -2.489385691033234   5.749623390446899   8.339707522135317 
 -3.734086169374917  12.215296941815669   8.339815856381790 
  1.244703116958791  12.215847065167708   8.339630547832988 
  2.488873161077481   5.749642171736121   8.344729365113837 
  6.223454111469718  12.216393746006535   8.339450807983029 
 -6.223474499025269  12.215847065167708   1.666326665011627 
  7.468669603055605   5.749642171736121   8.344729365113837 
 -1.244685212691666  12.215296941815669   1.666141356462837 
 -0.001125001658919   5.749718687259072   1.666061127293202 
 -1.245156315699894   7.905305104129025   1.666376210491871 
  4.978771382066602   5.750019784387124   1.661375732909555 
  3.734088652663358  12.216393746006535   1.666506404861599 
  9.958667765791990   5.749718687259072   1.666061127293202 
 -3.733615066366677   7.905305104129026   8.339581002352757 
  2.488935360918410   1.435877230538781   8.340232613811317 
  6.223440078477069   7.905779365185769   8.341645909152669 
  7.468607403214660   1.435877230538781   8.340232613811317 
 12.446928455166303   1.437027986113313   8.339586216964188 
  6.211043113581365   5.007218889108281   5.002978606422314 
  3.746499650551824   5.007218889108281   5.002978606422314 
  4.978771382066579   5.688207882527615   5.002978606422314 
  1.244858480488977   0.718574066952260   1.669810206162693 
  4.978771382066596   7.186198060170836   1.666419175245531 
  6.223380995481340   0.718558213024075   1.670403876614111 
  9.957590256540048   7.186229272887355   1.669903833408949 
 11.202155248393636   0.718626859114494   1.669305970468929 
 -3.734035105321954   9.342007264637507   8.336774672392155 
  1.244610063578994   9.341933327246737   8.336344207789184 
  2.489553082358742   2.874637816891097   8.333634441696299 
  6.223499144888677   9.341903571952171   8.336275503519222 
  7.467989681774449   2.874637816891097   8.333634441696299 
 12.446928455166358   2.874628898637321   8.336651459756681 
 -1.244736276744526   9.342007264637507   1.669182540452472 
  0.000078745144098   2.874577776405607   1.669959387651157 
  4.978771382066542   2.874703908181909   1.673518136632080 
  3.734043619244503   9.341903571952171   1.669681709325406 
  8.712932700554081   9.341933327246737   1.669613005055444 
  9.957464018989091   2.874577776405607   1.669959387651157 
 -4.978683606339051  11.497842246531254   8.336722827196017 
 -0.000087775727412  11.497842246531254   8.336722827196017 
  1.244800369141856   5.030443172684740   8.334123636218610 
  6.223613571179247   5.030282512113690   8.339941280165323 
  4.978771382066590  11.497899392718498   8.336739522888848 
 11.202232130171589   5.030540443559223   8.336222018096214 
 -1.244689366038398   5.030540443559222   1.669735194748428 
 -2.489385691033232  11.497837097603595   1.669263126965338 
  2.489278532663717  11.497851280866888   1.669319013415931 
  3.733929192953929   5.030282512113689   1.666015932679304 
  7.468264231469449  11.497851280866888   1.669319013415931 
  8.712742394991320   5.030443172684739   1.671833576626030 
 -0.000047492406991   7.186229272887356   8.336053379435677 
  1.244858480488978   0.718574066952260   8.336147006681935 
  4.978771382066597   7.186198060170837   8.339538037599096 
  6.223380995481341   0.718558213024076   8.335553336230504 
  9.957590256540048   7.186229272887356   8.336053379435677 
 -2.489385691033227   7.186282427420700   1.669186970684471 
 11.202155248393636   0.718626859114495   8.336651242375698 
  3.734161768651727   0.718558213024075   1.670403876614111 
  2.489394233400407   7.186011591426569   1.671084071055825 
  7.468148530732681   7.186011591426569   1.671084071055825 
  8.712684283644194   0.718574066952260   1.669810206162693 
  2.489394233400408   7.186011591426570   8.334873141788803 
 13.691701661939106   0.718626859114494   1.669305970468929 
 -1.244736276744526   9.342007264637507   8.336774672392155 
  0.000078745144098   2.874577776405608   8.335997825193486 
  4.978771382066543   2.874703908181910   8.332439076212548 
  3.734043619244503   9.341903571952171   8.336275503519222 
  8.712932700554081   9.341933327246737   8.336344207789184 
  9.957464018989091   2.874577776405608   8.335997825193486 
 -3.734035105321954   9.342007264637507   1.669182540452472 
  1.244610063578993   9.341933327246737   1.669613005055444 
  2.489553082358741   2.874637816891096   1.672322771148342 
  6.223499144888676   9.341903571952171   1.669681709325406 
  7.467989681774448   2.874637816891096   1.672322771148342 
 12.446928455166358   2.874628898637320   1.669305753087948 
 -1.244689366038398   5.030540443559223   8.336222018096214 
 -2.489385691033231  11.497837097603595   8.336694085879291 
  2.489278532663718  11.497851280866888   8.336638199428698 
  3.733929192953930   5.030282512113690   8.339941280165323 
  7.468264231469449  11.497851280866888   8.336638199428698 
 -4.978683606339052  11.497842246531254   1.669234385648624 
  8.712742394991320   5.030443172684740   8.334123636218610 
 -0.000087775727413  11.497842246531254   1.669234385648624 
  1.244800369141855   5.030443172684739   1.671833576626030 
 -0.000047492406991   7.186229272887355   1.669903833408949 
  6.223613571179246   5.030282512113689   1.666015932679304 
  4.978771382066589  11.497899392718498   1.669217689955779 
 11.202232130171589   5.030540443559222   1.669735194748428 
 -2.489385691033226   7.186282427420701   8.336770242160156 
  3.734161768651727   0.718558213024076   8.335553336230504 
  7.468148530732682   7.186011591426570   8.334873141788803 
  8.712684283644194   0.718574066952260   8.336147006681935 
 13.691701661939106   0.718626859114495   8.336651242375698 
  0.001841074478607   1.438700067531894   5.002978606422314 
  3.738591520349046   7.914685860710201   5.002978606422314 
  4.978771382066481   1.473017095397240   5.002978606422314 
  8.691857530413762   7.883530029869558   5.002978606422314 
  9.955701689654461   1.438700067531894   5.002978606422314 
 -4.978804587519143  10.060769690449824  11.673616748318732 
  0.000033205452575  10.060769690449824  11.673616748318732 
  1.244712667717389   3.593090996263439  11.673616748318732 
  4.978771382066532  10.060744904312696  11.673616748318732 
  6.223450875609472   3.593102890954337  11.673616748318732 
 11.202232295441771   3.593094029318348  11.673616748318732 
 -2.489385691033291  10.060556603306685   5.002978606422314 
 -1.243557352977781   3.593968389024708   5.002978606422314 
  3.725409688322050   3.640786065804052   5.002978606422314 
  2.487972399026532  10.064267975882256   5.002978606422314 
  7.469570365106541  10.064267975882256   5.002978606422314 
  8.713450230886957   3.590106109500649   5.002978606422314 
 -6.223499224622183  12.216649219255617  11.673616748318732 
 -1.244661377650217  12.216656987348147  11.673616748318732 
  0.000027523921148   5.748945259859832  11.673616748318732 
  4.978771382066589   5.748984502135746  11.673616748318732 
  3.734084272684544  12.216631887622398  11.673616748318732 
  9.957515240211924   5.748945259859832  11.673616748318732 
 -2.489385691033241   5.745962676058790   5.002978606422314 
 -3.731963544725388  12.227101651573507   5.002978606422314 
  1.240675743624991  12.222894173624457   5.002978606422314 
  2.558459856457063   5.702368137661638   5.002978606422314 
  6.225002183360182  12.219658036564589   5.002978606422314 
  7.399082907676023   5.702368137661638   5.002978606422314 
 -1.244677229556778   7.904812121045523  11.673616748318732 
 -0.000004386714038   1.437227827193119  11.673616748318732 
  3.734097620719489   7.904837038715121  11.673616748318732 
  4.978771382066491   1.437259658036117  11.673616748318732 
  8.712806006306403   7.904840358911982  11.673616748318732 
 -3.740698724736394   7.898608071816033   5.002978606422314 
  9.957547150847121   1.437227827193119  11.673616748318732 
  2.496337716769043   1.452599306826357   5.002978606422314 
  1.265685233719206   7.883530029869558   5.002978606422314 
  6.218951243784042   7.914685860710201   5.002978606422314 
  7.461205047364025   1.452599306826357   5.002978606422314 
  1.244736757826566   7.904840358911982  11.673616748318732 
 12.446928455166319   1.439268514944295   5.002978606422314 
 -2.489385691033284  10.060759300055246  11.673616748318732 
 -1.244689531308699   3.593094029318348  11.673616748318732 
  3.734091888523599   3.593102890954337  11.673616748318732 
  2.489416475918683  10.060763666821478  11.673616748318732 
  7.468126288214423  10.060763666821478  11.673616748318732 
  8.712830096415681   3.593090996263439  11.673616748318732 
 -4.982967005452897  10.056422350853607   5.002978606422314 
  0.004195623386312  10.056422350853607   5.002978606422314 
  1.244092533246112   3.590106109500649   5.002978606422314 
  4.978771382066538  10.067309996696070   5.002978606422314 
  6.232133075811021   3.640786065804052   5.002978606422314 
 11.201100117110851   3.593968389024708   5.002978606422314 
 -2.489385691033241   5.748947640499612  11.673616748318732 
 -3.734110004416365  12.216656987348147  11.673616748318732 
  1.244727842555708  12.216649219255617  11.673616748318732 
  2.489413450676479   5.748984499992599  11.673616748318732 
  6.223458491448532  12.216631887622398  11.673616748318732 
 -6.219447125691469  12.222894173624457   5.002978606422314 
  7.468129313456592   5.748984499992599  11.673616748318732 
 -1.246807837341208  12.227101651573507   5.002978606422314 
  0.024023394150987   5.742400635037115   5.002978606422314 
 -1.238072657330177   7.898608071816033   5.002978606422314 
  3.732540580772897  12.219658036564589   5.002978606422314 
  9.933519369982085   5.742400635037115   5.002978606422314 
 -3.734094152509808   7.904812121045523  11.673616748318732 
  2.489364825808907   1.437249887480408  11.673616748318732 
  6.223445143413588   7.904837038715121  11.673616748318732 
  7.468177938324161   1.437249887480408  11.673616748318732 
 12.446928455166319   1.437228952759092  11.673616748318732 
Generated by cif2cell 2.0.0.  :  Failed to get author information, No journal information. Species order: B C N 
 1.0
 14.936314146199660   0.000000000000000   0.000000000000000
 -7.468157073099825  12.935227489513863   0.000000000000000
  0.000000000000001   0.000000000000001  13.341276283792837
 B C N 
 142   3 143
Cartesian
  1.245381750464036   0.722214075692295   5.002978606422314 
  4.978771382066589   7.211124064907083   5.002978606422314 
  6.220712848613170   0.727965319420914   5.002978606422314 
  9.948404188760078   7.181837666777960   5.002978606422314 
 11.203251645047821   0.719007538429583   5.002978606422314 
 -3.734069207763055   9.342160625452461  11.673616748318732 
  1.244683070816639   9.342333644299330  11.673616748318732 
  2.489102473510770   2.874244695486022  11.673616748318732 
  6.223461659930209   9.342429192972466  11.673616748318732 
  7.468440290622406   2.874244695486022  11.673616748318732 
 12.446928455166372   2.874308849434609  11.673616748318732 
 -1.242757099312213   9.339639492981533   5.002978606422314 
 -0.009500888068634   2.869185281627428   5.002978606422314 
  4.978771382066542   2.901626884545813   5.002978606422314 
  3.733099978193513   9.357693858794070   5.002978606422314 
  8.706295243911125   9.335078473912693   5.002978606422314 
  9.967043652201824   2.869185281627428   5.002978606422314 
 -4.978899538607649  11.497892423722764  11.673616748318732 
  0.000128156541172  11.497892423722764  11.673616748318732 
  1.244429534126646   5.030399436703617  11.673616748318732 
  6.223518774407331   5.030547038292713  11.673616748318732 
  4.978771382066592  11.498101869808050  11.673616748318732 
 11.202395240334820   5.030314990761469  11.673616748318732 
 -1.238856050658558   5.029083783408161   5.002978606422314 
 -2.489385691033239  11.500022566482347   5.002978606422314 
  2.486951598045365  11.503727850179953   5.002978606422314 
  7.470591166087833  11.503727850179953   5.002978606422314 
  8.700319459397697   5.012864348369744   5.002978606422314 
 -0.000128254561255   7.186391066722717  11.673616748318732 
  1.244416644468345   0.718381784131030  11.673616748318732 
  4.978771382066583   7.186587253892303  11.673616748318732 
  6.223608744461892   0.718277539671638  11.673616748318732 
  9.957671018694327   7.186391066722717  11.673616748318732 
 -2.489385691033241   7.183978106686519   5.002978606422314 
 11.202372632825384   0.718476590785601  11.673616748318732 
  3.736829915519913   0.727965319420914   5.002978606422314 
  2.520328201744456   7.182725028087804   5.002978606422314 
  7.437214562388632   7.182725028087804   5.002978606422314 
  8.712161013669151   0.722214075692295   5.002978606422314 
  2.489301295188804   7.186589360977892  11.673616748318732 
 13.690605265284908   0.719007538429583   5.002978606422314 
 -1.244702174303425   9.342160625452461  11.673616748318732 
 -0.000302688741115   2.874276600644541  11.673616748318732 
  4.978771382066543   2.874231967462574  11.673616748318732 
  3.734081104202954   9.342429192972466  11.673616748318732 
  8.712859693316449   9.342333644299330  11.673616748318732 
  9.957845452874302   2.874276600644541  11.673616748318732 
 -3.736014282754238   9.339639492981533   5.002978606422314 
  1.251247520221950   9.335078473912693   5.002978606422314 
  2.470476552969427   2.876831068687725   5.002978606422314 
  6.224442785939683   9.357693858794070   5.002978606422314 
  7.487066211163762   2.876831068687725   5.002978606422314 
 12.446928455166356   2.874139121818925   5.002978606422314 
 -1.244852476201627   5.030314990761469  11.673616748318732 
 -2.489385691033231  11.497824797042993  11.673616748318732 
  2.489505897378288  11.498043212145891  11.673616748318732 
  3.734023989725831   5.030547038292713  11.673616748318732 
  7.468036866754908  11.498043212145891  11.673616748318732 
 -4.978218186294507  11.498562564791300   5.002978606422314 
  8.713113230006543   5.030399436703617  11.673616748318732 
 -0.000553195771956  11.498562564791300   5.002978606422314 
  1.257223304735478   5.012864348369744   5.002978606422314 
  0.009138575373023   7.181837666777960   5.002978606422314 
  4.978771382066613  11.504890960104357   5.002978606422314 
 11.196398814791735   5.029083783408161   5.002978606422314 
 -2.489385691033240   7.186298718517483  11.673616748318732 
  3.733934019671178   0.718277539671638  11.673616748318732 
  7.468241468944273   7.186589360977892  11.673616748318732 
  8.713126119664842   0.718381784131030  11.673616748318732 
 13.691484277507344   0.718476590785601  11.673616748318732 
 -0.000440128622101   1.436652552652412   1.666061468762835 
  3.734102685656005   7.905779365185768   1.664311303691946 
  4.978771382066481   1.435592298860894   1.665641555623945 
  8.713649455627561   7.905568577030867   1.666227185919043 
  9.957982892755169   1.436652552652412   1.666061468762835 
 -4.978428113170300  10.060513349573569   8.339470170284162 
 -0.000343268896283  10.060513349573569   8.339470170284162 
  1.243485718548700   3.592931385048657   8.341004627851872 
  4.978771382066530  10.061175541368355   8.339773420695145 
  6.224055161168943   3.593340640353804   8.345467969524803 
 11.202776457943727   3.593302329845581   8.339980075894365 
 -2.489385691033285  10.060304679192287   1.666527950500686 
 -1.245233693810656   3.593302329845580   1.665977136950262 
  3.733487602964143   3.593340640353803   1.660489243319825 
  2.489100767559398  10.060935272176767   1.666405761058906 
  7.468441996573693  10.060935272176767   1.666405761058906 
  8.714057045584385   3.592931385048656   1.664952584992755 
 -6.223474499025268  12.215847065167708   8.339630547832988 
 -1.244685212691665  12.215296941815669   8.339815856381790 
 -0.001125001658918   5.749718687259073   8.339896085551427 
  4.978771382066603   5.750019784387125   8.344581479935073 
  3.734088652663358  12.216393746006535   8.339450807983029 
  9.958667765791990   5.749718687259073   8.339896085551427 
 -2.489385691033235   5.749623390446899   1.666249690709324 
 -3.734086169374918  12.215296941815669   1.666141356462837 
  1.244703116958791  12.215847065167708   1.666326665011627 
  2.488873161077481   5.749642171736120   1.661227847730791 
  6.223454111469717  12.216393746006535   1.666506404861599 
  7.468669603055604   5.749642171736120   1.661227847730791 
 -1.245156315699894   7.905305104129026   8.339581002352757 
 -0.000440128622100   1.436652552652413   8.339895744081794 
  3.734102685656005   7.905779365185769   8.341645909152669 
  4.978771382066482   1.435592298860895   8.340315657220669 
  8.713649455627561   7.905568577030868   8.339730026925585 
 -3.733615066366677   7.905305104129025   1.666376210491871 
  9.957982892755169   1.436652552652413   8.339895744081794 
  2.488935360918410   1.435877230538780   1.665724599033312 
  1.243893308505438   7.905568577030867   1.666227185919043 
  6.223440078477068   7.905779365185768   1.664311303691946 
  7.468607403214659   1.435877230538780   1.665724599033312 
  1.243893308505438   7.905568577030868   8.339730026925585 
 12.446928455166303   1.437027986113312   1.666370995880439 
 -2.489385691033285  10.060304679192287   8.339429262343941 
 -1.245233693810655   3.593302329845581   8.339980075894365 
  3.733487602964143   3.593340640353804   8.345467969524803 
  2.489100767559398  10.060935272176767   8.339551451785722 
  7.468441996573694  10.060935272176767   8.339551451785722 
  8.714057045584385   3.592931385048657   8.341004627851872 
 -4.978428113170301  10.060513349573569   1.666487042560465 
 -0.000343268896284  10.060513349573569   1.666487042560465 
  1.243485718548699   3.592931385048656   1.664952584992755 
  4.978771382066530  10.061175541368355   1.666183792149481 
  6.224055161168942   3.593340640353803   1.660489243319825 
 11.202776457943727   3.593302329845580   1.665977136950262 
 -2.489385691033234   5.749623390446899   8.339707522135317 
 -3.734086169374917  12.215296941815669   8.339815856381790 
  1.244703116958791  12.215847065167708   8.339630547832988 
  2.488873161077481   5.749642171736121   8.344729365113837 
  6.223454111469718  12.216393746006535   8.339450807983029 
 -6.223474499025269  12.215847065167708   1.666326665011627 
  7.468669603055605   5.749642171736121   8.344729365113837 
 -1.244685212691666  12.215296941815669   1.666141356462837 
 -0.001125001658919   5.749718687259072   1.666061127293202 
 -1.245156315699894   7.905305104129025   1.666376210491871 
  4.978771382066602   5.750019784387124   1.661375732909555 
  3.734088652663358  12.216393746006535   1.666506404861599 
  9.958667765791990   5.749718687259072   1.666061127293202 
 -3.733615066366677   7.905305104129026   8.339581002352757 
  2.488935360918410   1.435877230538781   8.340232613811317 
  6.223440078477069   7.905779365185769   8.341645909152669 
  7.468607403214660   1.435877230538781   8.340232613811317 
 12.446928455166303   1.437027986113313   8.339586216964188 
  6.211043113581365   5.007218889108281   5.002978606422314 
  3.746499650551824   5.007218889108281   5.002978606422314 
  4.978771382066579   5.688207882527615   5.002978606422314 
  1.244858480488977   0.718574066952260   1.669810206162693 
  4.978771382066596   7.186198060170836   1.666419175245531 
  6.223380995481340   0.718558213024075   1.670403876614111 
  9.957590256540048   7.186229272887355   1.669903833408949 
 11.202155248393636   0.718626859114494   1.669305970468929 
 -3.734035105321954   9.342007264637507   8.336774672392155 
  1.244610063578994   9.341933327246737   8.336344207789184 
  2.489553082358742   2.874637816891097   8.333634441696299 
  6.223499144888677   9.341903571952171   8.336275503519222 
  7.467989681774449   2.874637816891097   8.333634441696299 
 12.446928455166358   2.874628898637321   8.336651459756681 
 -1.244736276744526   9.342007264637507   1.669182540452472 
  0.000078745144098   2.874577776405607   1.669959387651157 
  4.978771382066542   2.874703908181909   1.673518136632080 
  3.734043619244503   9.341903571952171   1.669681709325406 
  8.712932700554081   9.341933327246737   1.669613005055444 
  9.957464018989091   2.874577776405607   1.669959387651157 
 -4.978683606339051  11.497842246531254   8.336722827196017 
 -0.000087775727412  11.497842246531254   8.336722827196017 
  1.244800369141856   5.030443172684740   8.334123636218610 
  6.223613571179247   5.030282512113690   8.339941280165323 
  4.978771382066590  11.497899392718498   8.336739522888848 
 11.202232130171589   5.030540443559223   8.336222018096214 
 -1.244689366038398   5.030540443559222   1.669735194748428 
 -2.489385691033232  11.497837097603595   1.669263126965338 
  2.489278532663717  11.497851280866888   1.669319013415931 
  3.733929192953929   5.030282512113689   1.666015932679304 
  7.468264231469449  11.497851280866888   1.669319013415931 
  8.712742394991320   5.030443172684739   1.671833576626030 
 -0.000047492406991   7.186229272887356   8.336053379435677 
  1.244858480488978   0.718574066952260   8.336147006681935 
  4.978771382066597   7.186198060170837   8.339538037599096 
  6.223380995481341   0.718558213024076   8.335553336230504 
  9.957590256540048   7.186229272887356   8.336053379435677 
 -2.489385691033227   7.186282427420700   1.669186970684471 
 11.202155248393636   0.718626859114495   8.336651242375698 
  3.734161768651727   0.718558213024075   1.670403876614111 
  2.489394233400407   7.186011591426569   1.671084071055825 
  7.468148530732681   7.186011591426569   1.671084071055825 
  8.712684283644194   0.718574066952260   1.669810206162693 
  2.489394233400408   7.186011591426570   8.334873141788803 
 13.691701661939106   0.718626859114494   1.669305970468929 
 -1.244736276744526   9.342007264637507   8.336774672392155 
  0.000078745144098   2.874577776405608   8.335997825193486 
  4.978771382066543   2.874703908181910   8.332439076212548 
  3.734043619244503   9.341903571952171   8.336275503519222 
  8.712932700554081   9.341933327246737   8.336344207789184 
  9.957464018989091   2.874577776405608   8.335997825193486 
 -3.734035105321954   9.342007264637507   1.669182540452472 