Species order: X N B                    
   2.51242800000000     
     5.9449720136058266    0.0000000000000000    0.0000000000000000
    -2.9724860068029120    5.1484967885702053   -0.0000000000000001
     0.0000000000000000    0.0000000000000009    5.3101128803662583
   As   N    B 
     1   143   144
Direct
  0.5555555555555571  0.4444444444444429  0.3750000000000000
  0.1111092558924819  0.0555354643598093  0.1249039799203927
  0.6111668549580327  0.5556670432494131  0.1304926914473477
  0.4444369864240661  0.0555558434620046  0.1255738983617935
  0.9444441565379986  0.5555630135759598  0.1255738983617935
  0.7777601201616894  0.0555467267475186  0.1245662573142992
  0.1111198378415020  0.7222265855874072  0.6247815883264661
  0.4444369864240668  0.7222144762953900  0.6244261016382258
  0.2777530921049450  0.2221918171653391  0.6235970435808620
  0.7778081828346607  0.7222469078950673  0.6235970435808620
  0.6111053917270646  0.2221918171653391  0.6235970435808620
  0.9444532732524746  0.2222398798383075  0.6254337426856986
  0.2777734144125752  0.7222265855874072  0.1252184116735386
  0.1111283816192516  0.2222308574762921  0.1249809576893319
  0.4444598149500449  0.2222529632334299  0.1277510773844643
  0.6111053917270646  0.7222469078950673  0.1264029564191443
  0.9444441565379986  0.7222144762953900  0.1255738983617935
  0.7777691425237169  0.2222308574762921  0.1249809576893319
  0.1111227095502030  0.8888772904497779  0.6249152601793393
  0.4444212475662684  0.8888772904497779  0.6249152601793393
  0.2777530921049456  0.3888946082729383  0.6235970435808620
  0.6111668549580327  0.3888331450419578  0.6195073085526430
  0.7777691425237169  0.8888716183807414  0.6250190423106878
  0.9444645356401983  0.3889071248659956  0.6250960200795999
  0.1111092558924819  0.3889071248659956  0.1249039799203915
  0.2777734144125752  0.8888801621584790  0.1252184116735386
  0.6110928751339911  0.8888907441074857  0.1249039799203927
  0.4443329567505929  0.3888331450419578  0.1304926914473477
  0.9444645356401983  0.8888907441074857  0.1249039799203915
  0.7778081828346607  0.3888946082729383  0.1264029564191443
  0.2777855237046240  0.5555630135759598  0.6244261016382258
  0.1111092558924819  0.0555354643598093  0.6250960200795999
  0.6111668549580327  0.5556670432494131  0.6195073085526430
  0.4444369864240668  0.0555558434620050  0.6244261016382258
  0.9444441565379986  0.5555630135759598  0.6244261016382258
  0.1111227095502030  0.5555787524337379  0.1250847398206705
  0.7777601201616894  0.0555467267475186  0.6254337426856986
  0.2777855237046240  0.0555558434620046  0.1255738983617935
  0.4444598149500449  0.5555401850499649  0.1277510773844643
  0.7777470367665745  0.5555401850499649  0.1277510773844643
  0.6110928751339911  0.0555354643598093  0.1249039799203915
  0.4444598149500449  0.5555401850499649  0.6222489226155322
  0.9444532732524746  0.0555467267475186  0.1245662573142992
  0.2777734144125752  0.7222265855874072  0.6247815883264661
  0.1111283816192516  0.2222308574762921  0.6250190423106878
  0.4444598149500449  0.2222529632334299  0.6222489226155322
  0.6111053917270646  0.7222469078950673  0.6235970435808620
  0.9444441565379986  0.7222144762953900  0.6244261016382258
  0.7777691425237169  0.2222308574762921  0.6250190423106878
  0.1111198378415020  0.7222265855874072  0.1252184116735386
  0.4444369864240661  0.7222144762953900  0.1255738983617935
  0.2777530921049450  0.2221918171653391  0.1264029564191462
  0.7778081828346607  0.7222469078950673  0.1264029564191443
  0.6111053917270646  0.2221918171653391  0.1264029564191443
  0.9444532732524746  0.2222398798383075  0.1245662573142992
  0.1111092558924819  0.3889071248659956  0.6250960200795999
  0.2777734144125752  0.8888801621584790  0.6247815883264661
  0.6110928751339911  0.8888907441074857  0.6250960200795999
  0.4443329567505929  0.3888331450419578  0.6195073085526430
  0.9444645356401983  0.8888907441074857  0.6250960200796023
  0.1111227095502030  0.8888772904497779  0.1250847398206705
  0.7778081828346607  0.3888946082729383  0.6235970435808620
  0.4444212475662684  0.8888772904497779  0.1250847398206705
  0.2777530921049456  0.3888946082729383  0.1264029564191483
  0.2777855237046240  0.5555630135759598  0.1255738983617935
  0.6111668549580327  0.3888331450419578  0.1304926914473477
  0.7777691425237169  0.8888716183807414  0.1249809576893319
  0.9444645356401983  0.3889071248659956  0.1249039799203915
  0.1111227095502030  0.5555787524337379  0.6249152601793393
  0.2777855237046240  0.0555558434620050  0.6244261016382258
  0.7777470367665745  0.5555401850499649  0.6222489226155322
  0.6110928751339911  0.0555354643598093  0.6250960200796023
  0.9444532732524746  0.0555467267475186  0.6254337426856986
  0.0544726486737936  0.1104386128144087  0.3750000000000000
  0.5559431420913062  0.6201933292942632  0.3750000000000000
  0.3878877436593827  0.1091088206520990  0.3750000000000000
  0.8908911793478919  0.6121122563406274  0.3750000000000000
  0.7226326308072795  0.1104386128144087  0.3750000000000000
  0.0555442496059108  0.7777740107868844  0.8750000000000000
  0.3888964278476623  0.7777740107868844  0.8750000000000000
  0.2222089812948594  0.2777711573141018  0.8750000000000000
  0.7222288426859030  0.7777910187051321  0.8750000000000000
  0.5555630696015479  0.2777845845239665  0.8750000000000000
  0.8888911644538389  0.2777751155265047  0.8750000000000000
  0.2222222222222214  0.7777777777777786  0.3750000000000000
  0.0544726486737936  0.2773673691927298  0.3750000000000000
  0.3798066707057333  0.2690831461303591  0.3750000000000000
  0.5552747100815666  0.7814845487114368  0.3750000000000000
  0.8928765052965595  0.7814845487114368  0.3750000000000000
  0.7238909418479569  0.2761090581520463  0.3750000000000000
  0.0555543478942472  0.9444456521057653  0.8750000000000000
  0.3888964278476623  0.9444557503940946  0.8750000000000000
  0.2222200953213003  0.4444369661676312  0.8750000000000000
  0.5555555555555571  0.4444444444444429  0.8750000000000000
  0.7222248844734943  0.9444493822606516  0.8750000000000000
  0.8888835375130050  0.4444369661676312  0.8750000000000000
  0.0557071580917129  0.4447476495167574  0.3750000000000000
  0.2218987135050187  0.9435953140930112  0.3750000000000000
  0.5552523504832653  0.9442928419083040  0.3750000000000000
  0.3798066707057333  0.4440568579087036  0.3750000000000000
  0.8895613871855809  0.9455273513262077  0.3750000000000000
  0.7309168538696512  0.4440568579087036  0.3750000000000000
  0.2222259892130989  0.6111035721523581  0.8750000000000000
  0.0555506177393368  0.1111088355461701  0.8750000000000000
  0.5555630696015479  0.6111118184109127  0.8750000000000000
  0.3888995363226829  0.1111324059786878  0.8750000000000000
  0.8888675940212915  0.6111004636773311  0.8750000000000000
  0.0564046859069932  0.6116367327453563  0.3750000000000000
  0.7222248844734943  0.1111088355461701  0.8750000000000000
  0.2185154512885484  0.1071234947034396  0.3750000000000000
  0.3878877436593827  0.6121122563406274  0.3750000000000000
  0.7309168538696513  0.6201933292942632  0.3750000000000000
  0.5552747100815666  0.1071234947034396  0.3750000000000000
  0.3888995363226829  0.6111004636773311  0.8750000000000000
  0.8888888888888857  0.1111111111111143  0.3750000000000000
  0.2222222222222214  0.7777777777777786  0.8750000000000000
  0.0555506177393368  0.2777751155265047  0.8750000000000000
  0.3888881815890879  0.2777845845239665  0.8750000000000000
  0.5555630338323688  0.7777799046786967  0.8750000000000000
  0.8888835375130050  0.7777799046786967  0.8750000000000000
  0.7222288426859030  0.2777711573141018  0.8750000000000000
  0.0564046859069932  0.7781012864949951  0.3750000000000000
  0.3883632672546529  0.7781012864949951  0.3750000000000000
  0.2188847829707412  0.2761090581520463  0.3750000000000000
  0.7238909418479569  0.7811152170292431  0.3750000000000000
  0.5559431420913064  0.2690831461303591  0.3750000000000000
  0.8895613871855809  0.2773673691927298  0.3750000000000000
  0.0555543478942472  0.4444420291218279  0.8750000000000000
  0.2222259892130989  0.9444557503940946  0.8750000000000000
  0.5555579708781667  0.9444456521057653  0.8750000000000000
  0.3888881815890879  0.4444369303984657  0.8750000000000000
  0.8888911644538389  0.9444493822606516  0.8750000000000000
  0.0557071580917129  0.9442928419083040  0.3750000000000000
  0.7222154154760341  0.4444369303984657  0.8750000000000000
  0.3883632672546529  0.9435953140930112  0.3750000000000000
  0.2185154512885484  0.4447252899184536  0.3750000000000000
  0.2218987135050188  0.6116367327453563  0.3750000000000000
  0.7226326308072795  0.9455273513262077  0.3750000000000000
  0.8928765052965595  0.4447252899184536  0.3750000000000000
  0.0555442496059108  0.6111035721523581  0.8750000000000000
  0.2222200953213003  0.1111164624869954  0.8750000000000000
  0.7222154154760341  0.6111118184109127  0.8750000000000000
  0.5555630338323688  0.1111164624869954  0.8750000000000000
  0.8888888888888857  0.1111111111111143  0.8750000000000000
  0.1086360998273231  0.0537825050206637  0.3750000000000000
  0.6253744278976338  0.5840821891285999  0.3750000000000000
  0.4441578265318441  0.0534171614994517  0.3750000000000000
  0.9465828385005435  0.5558421734681604  0.3750000000000000
  0.7783972391766796  0.0558652862550148  0.3750000000000000
  0.1111046128056724  0.7222189730695009  0.8750000000000000
  0.4444470148860513  0.7222661253125119  0.8750000000000000
  0.2776722278839633  0.2221501486562103  0.8750000000000000
  0.7778498513437717  0.7223277721160406  0.8750000000000000
  0.6111445874389230  0.2221501486562103  0.8750000000000000
  0.9444427535372903  0.2222188404079073  0.8750000000000000
  0.2774908507637959  0.7225091492362027  0.3750000000000000
  0.1081096628460111  0.2207214980896735  0.3750000000000000
  0.4422741260182465  0.2178815853698381  0.3750000000000000
  0.6127444904158690  0.7306646037552181  0.3750000000000000
  0.9465828385005435  0.7240739983657042  0.3750000000000000
  0.7792785019103369  0.2207214980896735  0.3750000000000000
  0.1111131342274605  0.8888868657725141  0.8750000000000000
  0.4444403982117539  0.8888868657725141  0.8750000000000000
  0.2776722278839633  0.3888554125610900  0.8750000000000000
  0.6111783533849091  0.3888216466150685  0.8750000000000000
  0.7778179703473570  0.8889692740281121  0.8750000000000000
  0.9444522247286911  0.3888547066773322  0.8750000000000000
  0.1086360998273231  0.3881869281399908  0.3750000000000000
  0.2774908507637959  0.8883150348609204  0.3750000000000000
  0.6118130718600308  0.8913639001726593  0.3750000000000000
  0.4159178108714005  0.3746255721023644  0.3750000000000000
  0.9462174949793234  0.8913639001726593  0.3750000000000000
  0.7845867800060109  0.3872555095841305  0.3750000000000000
  0.2777338746874765  0.5555529851139632  0.8750000000000000
  0.1110691486153107  0.0555477752713038  0.8750000000000000
  0.6111783533849091  0.5556900401031917  0.8750000000000000
  0.4444470148860513  0.0555142229068641  0.8750000000000000
  0.9444857770931423  0.5555529851139632  0.8750000000000000
  0.1111692938731164  0.5556719210795626  0.3750000000000000
  0.7777811595920792  0.0555572464627140  0.8750000000000000
  0.2759260016342808  0.0534171614994517  0.3750000000000000
  0.4422741260182465  0.5577258739817530  0.3750000000000000
  0.7821184146301713  0.5577258739817530  0.3750000000000000
  0.6118130718600308  0.0537825050206637  0.3750000000000000
  0.4444130853147983  0.5555869146851863  0.8750000000000000
  0.9441347137449914  0.0558652862550148  0.3750000000000000
  0.2777810269304954  0.7222189730695009  0.8750000000000000
  0.1110307259719241  0.2221820296526248  0.8750000000000000
  0.4444130853147983  0.2221595039629526  0.8750000000000000
  0.6111445874389230  0.7223277721160406  0.8750000000000000
  0.9444857770931423  0.7222661253125119  0.8750000000000000
  0.7778179703473570  0.2221820296526248  0.8750000000000000
  0.1116849651390950  0.7225091492362027  0.3750000000000000
  0.4441578265318441  0.7240739983657042  0.3750000000000000
  0.2693353962447645  0.2154132199939702  0.3750000000000000
  0.7845867800060109  0.7306646037552181  0.3750000000000000
  0.6127444904158690  0.2154132199939702  0.3750000000000000
  0.9441347137449914  0.2216027608233098  0.3750000000000000
  0.1110691486153107  0.3888547066773322  0.8750000000000000
  0.2777810269304954  0.8888953871943195  0.8750000000000000
  0.6111452933226552  0.8889308513846697  0.8750000000000000
  0.4443099598967984  0.3888216466150685  0.8750000000000000
  0.9444522247286911  0.8889308513846697  0.8750000000000000
  0.1111692938731164  0.8888307061268876  0.3750000000000000
  0.7778498513437717  0.3888554125610900  0.8750000000000000
  0.4443280789204406  0.8888307061268876  0.3750000000000000
  0.2693353962447645  0.3872555095841305  0.3750000000000000
  0.2759260016342809  0.5558421734681604  0.3750000000000000
  0.6253744278976338  0.3746255721023643  0.3750000000000000
  0.7792785019103369  0.8918903371539912  0.3750000000000000
  0.9462174949793234  0.3881869281399908  0.3750000000000000
  0.1111131342274605  0.5555596017882486  0.8750000000000000
  0.2777338746874765  0.0555142229068641  0.8750000000000000
  0.7778404960370677  0.5555869146851863  0.8750000000000000
  0.6111452933226552  0.0555477752713035  0.8750000000000000
  0.9444427535372903  0.0555572464627140  0.8750000000000000
  0.0554853411986215  0.1110402251116912  0.1244494826557654
  0.5555169762745044  0.6115091447903590  0.1274103191807041
  0.3887026126406274  0.1107385586146118  0.1256267639896296
  0.8892614413854024  0.6112973873593434  0.1256267639896296
  0.7222215505797376  0.1110402251116912  0.1244494826557654
  0.0557089547562766  0.7778363827072288  0.6251222192386611
  0.3887940946176150  0.7778363827072288  0.6251222192386611
  0.2219816700192590  0.2776575016762948  0.6246220119541859
  0.7223424983237150  0.7780183299807462  0.6246220119541859
  0.5555169762745044  0.2773411648175046  0.6225896808192867
  0.8889597748883173  0.2777784494202730  0.6255505173442500
  0.2222222222222214  0.7777777777777786  0.1248510025556405
  0.0554853411986215  0.2777784494202730  0.1244494826557654
  0.3884908552096688  0.2773411648175046  0.1274103191807042
  0.5555171262500491  0.7779693415768041  0.1250965471867782
  0.8891188819934081  0.7779693415768041  0.1250965471867782
  0.7223424983237150  0.2776575016762948  0.1253779880458259
  0.0555783648502608  0.9444216351497232  0.6254355657563916
  0.3887940946176150  0.9442910452437118  0.6251222192386611
  0.2220306584232206  0.4444828737499822  0.6249034528132120
  0.5555555555555571  0.4444444444444429  0.6206949801833669
  0.7222215505797376  0.9445146588013807  0.6255505173442500
  0.8891188819934081  0.4444828737499822  0.6249034528132120
  0.0555783648502607  0.4444900630338586  0.1245644342435971
  0.2221636172927678  0.9442910452437118  0.1248777807613558
  0.5555099369661369  0.9444216351497232  0.1245644342435971
  0.3884908552096688  0.4444830237254765  0.1274103191807040
  0.8889597748883173  0.9445146588013807  0.1244494826557654
  0.7226588351824831  0.4444830237254765  0.1274103191807042
  0.2221636172927678  0.6112059053823898  0.6251222192386611
  0.0554853411986215  0.1110402251116912  0.6255505173442500
  0.5555169762745044  0.6115091447903590  0.6225896808192867
  0.3887026126406274  0.1107385586146118  0.6243732360103476
  0.8892614413854024  0.6112973873593434  0.6243732360103476
  0.0557089547562766  0.6112059053823898  0.1248777807613558
  0.7222215505797376  0.1110402251116912  0.6255505173442500
  0.2220306584232206  0.1108811180065909  0.1250965471867782
  0.3887026126406274  0.6112973873593434  0.1256267639896296
  0.7226588351824831  0.6115091447903590  0.1274103191807041
  0.5555171262500491  0.1108811180065909  0.1250965471867782
  0.3887026126406274  0.6112973873593434  0.6243732360103476
  0.8888888888888857  0.1111111111111143  0.1242322236131243
  0.2222222222222214  0.7777777777777786  0.6251489974443546
  0.0554853411986215  0.2777784494202730  0.6255505173442500
  0.3884908552096688  0.2773411648175046  0.6225896808192867
  0.5555171262500491  0.7779693415768041  0.6249034528132120
  0.8891188819934081  0.7779693415768041  0.6249034528132120
  0.7223424983237150  0.2776575016762948  0.6246220119541859
  0.0557089547562766  0.7778363827072288  0.1248777807613558
  0.3887940946176150  0.7778363827072288  0.1248777807613558
  0.2219816700192590  0.2776575016762948  0.1253779880458259
  0.7223424983237150  0.7780183299807462  0.1253779880458259
  0.5555169762745044  0.2773411648175046  0.1274103191807042
  0.8889597748883173  0.2777784494202730  0.1244494826557654
  0.0555783648502607  0.4444900630338586  0.6254355657563916
  0.2221636172927678  0.9442910452437118  0.6251222192386611
  0.5555099369661369  0.9444216351497232  0.6254355657563916
  0.3884908552096688  0.4444830237254765  0.6225896808192867
  0.8889597748883173  0.9445146588013807  0.6255505173442500
  0.0555783648502607  0.9444216351497232  0.1245644342435971
  0.7226588351824831  0.4444830237254765  0.6225896808192867
  0.3887940946176150  0.9442910452437118  0.1248777807613558
  0.2220306584232206  0.4444828737499822  0.1250965471867782
  0.2221636172927678  0.6112059053823898  0.1248777807613558
  0.5555555555555571  0.4444444444444429  0.1293050198166282
  0.7222215505797376  0.9445146588013807  0.1244494826557654
  0.8891188819934081  0.4444828737499822  0.1250965471867782
  0.0557089547562766  0.6112059053823898  0.6251222192386611
  0.2220306584232206  0.1108811180065909  0.6249034528132120
  0.7226588351824831  0.6115091447903590  0.6225896808192867
  0.5555171262500491  0.1108811180065909  0.6249034528132120
  0.8888888888888857  0.1111111111111143  0.6257677763868587
 
  0.00000000E+00  0.00000000E+00  0.00000000E+00
  0.00000000E+00  0.00000000E+00  0.00000000E+00
  0.00000000E+00  0.00000000E+00  0.00000000E+00
  0.00000000E+00  0.00000000E+00  0.00000000E+00
  0.00000000E+00  0.00000000E+00  0.00000000E+00
  0.00000000E+00  0.00000000E+00  0.00000000E+00
  0.00000000E+00  0.00000000E+00  0.00000000E+00
  0.00000000E+00  0.00000000E+00  0.00000000E+00
  0.00000000E+00  0.00000000E+00  0.00000000E+00
  0.00000000E+00  0.00000000E+00  0.00000000E+00
  0.00000000E+00  0.00000000E+00  0.00000000E+00
  0.00000000E+00  0.00000000E+00  0.00000000E+00
  0.00000000E+00  0.00000000E+00  0.00000000E+00
  0.00000000E+00  0.00000000E+00  0.00000000E+00
  0.00000000E+00  0.00000000E+00  0.00000000E+00
  0.00000000E+00  0.00000000E+00  0.00000000E+00
  0.00000000E+00  0.00000000E+00  0.00000000E+00
  0.00000000E+00  0.00000000E+00  0.00000000E+00
  0.00000000E+00  0.00000000E+00  0.00000000E+00
  0.00000000E+00  0.00000000E+00  0.00000000E+00
  0.00000000E+00  0.00000000E+00  0.00000000E+00
  0.00000000E+00  0.00000000E+00  0.00000000E+00
  0.00000000E+00  0.00000000E+00  0.00000000E+00
  0.00000000E+00  0.00000000E+00  0.00000000E+00
  0.00000000E+00  0.00000000E+00  0.00000000E+00
  0.00000000E+00  0.00000000E+00  0.00000000E+00
  0.00000000E+00  0.00000000E+00  0.00000000E+00
  0.00000000E+00  0.00000000E+00  0.00000000E+00
  0.00000000E+00  0.00000000E+00  0.00000000E+00
  0.00000000E+00  0.00000000E+00  0.00000000E+00
  0.00000000E+00  0.00000000E+00  0.00000000E+00
  0.00000000E+00  0.00000000E+00  0.00000000E+00
  0.00000000E+00  0.00000000E+00  0.00000000E+00
  0.00000000E+00  0.00000000E+00  0.00000000E+00
  0.00000000E+00  0.00000000E+00  0.00000000E+00
  0.00000000E+00  0.00000000E+00  0.00000000E+00
  0.00000000E+00  0.00000000E+00  0.00000000E+00
  0.00000000E+00  0.00000000E+00  0.00000000E+00
  0.00000000E+00  0.00000000E+00  0.00000000E+00
  0.00000000E+00  0.00000000E+00  0.00000000E+00
  0.00000000E+00  0.00000000E+00  0.00000000E+00
  0.00000000E+00  0.00000000E+00  0.00000000E+00
  0.00000000E+00  0.00000000E+00  0.00000000E+00
  0.00000000E+00  0.00000000E+00  0.00000000E+00
  0.00000000E+00  0.00000000E+00  0.00000000E+00
  0.00000000E+00  0.00000000E+00  0.00000000E+00
  0.00000000E+00  0.00000000E+00  0.00000000E+00
  0.00000000E+00  0.00000000E+00  0.00000000E+00
  0.00000000E+00  0.00000000E+00  0.00000000E+00
  0.00000000E+00  0.00000000E+00  0.00000000E+00
  0.00000000E+00  0.00000000E+00  0.00000000E+00
  0.00000000E+00  0.00000000E+00  0.00000000E+00
  0.00000000E+00  0.00000000E+00  0.00000000E+00
  0.00000000E+00  0.00000000E+00  0.00000000E+00
  0.00000000E+00  0.00000000E+00  0.00000000E+00
  0.00000000E+00  0.00000000E+00  0.00000000E+00
  0.00000000E+00  0.00000000E+00  0.00000000E+00
  0.00000000E+00  0.00000000E+00  0.00000000E+00
  0.00000000E+00  0.00000000E+00  0.00000000E+00
  0.00000000E+00  0.00000000E+00  0.00000000E+00
  0.00000000E+00  0.00000000E+00  0.00000000E+00
  0.00000000E+00  0.00000000E+00  0.00000000E+00
  0.00000000E+00  0.00000000E+00  0.00000000E+00
  0.00000000E+00  0.00000000E+00  0.00000000E+00
  0.00000000E+00  0.00000000E+00  0.00000000E+00
  0.00000000E+00  0.00000000E+00  0.00000000E+00
  0.00000000E+00  0.00000000E+00  0.00000000E+00
  0.00000000E+00  0.00000000E+00  0.00000000E+00
  0.00000000E+00  0.00000000E+00  0.00000000E+00
  0.00000000E+00  0.00000000E+00  0.00000000E+00
  0.00000000E+00  0.00000000E+00  0.00000000E+00
  0.00000000E+00  0.00000000E+00  0.00000000E+00
  0.00000000E+00  0.00000000E+00  0.00000000E+00
  0.00000000E+00  0.00000000E+00  0.00000000E+00
  0.00000000E+00  0.00000000E+00  0.00000000E+00
  0.00000000E+00  0.00000000E+00  0.00000000E+00
  0.00000000E+00  0.00000000E+00  0.00000000E+00
  0.00000000E+00  0.00000000E+00  0.00000000E+00
  0.00000000E+00  0.00000000E+00  0.00000000E+00
  0.00000000E+00  0.00000000E+00  0.00000000E+00
  0.00000000E+00  0.00000000E+00  0.00000000E+00
  0.00000000E+00  0.00000000E+00  0.00000000E+00
  0.00000000E+00  0.00000000E+00  0.00000000E+00
  0.00000000E+00  0.00000000E+00  0.00000000E+00
  0.00000000E+00  0.00000000E+00  0.00000000E+00
  0.00000000E+00  0.00000000E+00  0.00000000E+00
  0.00000000E+00  0.00000000E+00  0.00000000E+00
  0.00000000E+00  0.00000000E+00  0.00000000E+00
  0.00000000E+00  0.00000000E+00  0.00000000E+00
  0.00000000E+00  0.00000000E+00  0.00000000E+00
  0.00000000E+00  0.00000000E+00  0.00000000E+00
  0.00000000E+00  0.00000000E+00  0.00000000E+00
  0.00000000E+00  0.00000000E+00  0.00000000E+00
  0.00000000E+00  0.00000000E+00  0.00000000E+00
  0.00000000E+00  0.00000000E+00  0.00000000E+00
  0.00000000E+00  0.00000000E+00  0.00000000E+00
  0.00000000E+00  0.00000000E+00  0.00000000E+00
  0.00000000E+00  0.00000000E+00  0.00000000E+00
  0.00000000E+00  0.00000000E+00  0.00000000E+00
  0.00000000E+00  0.00000000E+00  0.00000000E+00
  0.00000000E+00  0.00000000E+00  0.00000000E+00
  0.00000000E+00  0.00000000E+00  0.00000000E+00
  0.00000000E+00  0.00000000E+00  0.00000000E+00
  0.00000000E+00  0.00000000E+00  0.00000000E+00
  0.00000000E+00  0.00000000E+00  0.00000000E+00
  0.00000000E+00  0.00000000E+00  0.00000000E+00
  0.00000000E+00  0.00000000E+00  0.00000000E+00
  0.00000000E+00  0.00000000E+00  0.00000000E+00
  0.00000000E+00  0.00000000E+00  0.00000000E+00
  0.00000000E+00  0.00000000E+00  0.00000000E+00
  0.00000000E+00  0.00000000E+00  0.00000000E+00
  0.00000000E+00  0.00000000E+00  0.00000000E+00
  0.00000000E+00  0.00000000E+00  0.00000000E+00
  0.00000000E+00  0.00000000E+00  0.00000000E+00
  0.00000000E+00  0.00000000E+00  0.00000000E+00
  0.00000000E+00  0.00000000E+00  0.00000000E+00
  0.00000000E+00  0.00000000E+00  0.00000000E+00
  0.00000000E+00  0.00000000E+00  0.00000000E+00
  0.00000000E+00  0.00000000E+00  0.00000000E+00
  0.00000000E+00  0.00000000E+00  0.00000000E+00
  0.00000000E+00  0.00000000E+00  0.00000000E+00
  0.00000000E+00  0.00000000E+00  0.00000000E+00
  0.00000000E+00  0.00000000E+00  0.00000000E+00
  0.00000000E+00  0.00000000E+00  0.00000000E+00
  0.00000000E+00  0.00000000E+00  0.00000000E+00
  0.00000000E+00  0.00000000E+00  0.00000000E+00
  0.00000000E+00  0.00000000E+00  0.00000000E+00
  0.00000000E+00  0.00000000E+00  0.00000000E+00
  0.00000000E+00  0.00000000E+00  0.00000000E+00
  0.00000000E+00  0.00000000E+00  0.00000000E+00
  0.00000000E+00  0.00000000E+00  0.00000000E+00
  0.00000000E+00  0.00000000E+00  0.00000000E+00
  0.00000000E+00  0.00000000E+00  0.00000000E+00
  0.00000000E+00  0.00000000E+00  0.00000000E+00
  0.00000000E+00  0.00000000E+00  0.00000000E+00
  0.00000000E+00  0.00000000E+00  0.00000000E+00
  0.00000000E+00  0.00000000E+00  0.00000000E+00
  0.00000000E+00  0.00000000E+00  0.00000000E+00
  0.00000000E+00  0.00000000E+00  0.00000000E+00
  0.00000000E+00  0.00000000E+00  0.00000000E+00
  0.00000000E+00  0.00000000E+00  0.00000000E+00
  0.00000000E+00  0.00000000E+00  0.00000000E+00
  0.00000000E+00  0.00000000E+00  0.00000000E+00
  0.00000000E+00  0.00000000E+00  0.00000000E+00
  0.00000000E+00  0.00000000E+00  0.00000000E+00
  0.00000000E+00  0.00000000E+00  0.00000000E+00
  0.00000000E+00  0.00000000E+00  0.00000000E+00
  0.00000000E+00  0.00000000E+00  0.00000000E+00
  0.00000000E+00  0.00000000E+00  0.00000000E+00
  0.00000000E+00  0.00000000E+00  0.00000000E+00
  0.00000000E+00  0.00000000E+00  0.00000000E+00
  0.00000000E+00  0.00000000E+00  0.00000000E+00
  0.00000000E+00  0.00000000E+00  0.00000000E+00
  0.00000000E+00  0.00000000E+00  0.00000000E+00
  0.00000000E+00  0.00000000E+00  0.00000000E+00
  0.00000000E+00  0.00000000E+00  0.00000000E+00
  0.00000000E+00  0.00000000E+00  0.00000000E+00
  0.00000000E+00  0.00000000E+00  0.00000000E+00
  0.00000000E+00  0.00000000E+00  0.00000000E+00
  0.00000000E+00  0.00000000E+00  0.00000000E+00
  0.00000000E+00  0.00000000E+00  0.00000000E+00
  0.00000000E+00  0.00000000E+00  0.00000000E+00
  0.00000000E+00  0.00000000E+00  0.00000000E+00
  0.00000000E+00  0.00000000E+00  0.00000000E+00
  0.00000000E+00  0.00000000E+00  0.00000000E+00
  0.00000000E+00  0.00000000E+00  0.00000000E+00
  0.00000000E+00  0.00000000E+00  0.00000000E+00
  0.00000000E+00  0.00000000E+00  0.00000000E+00
  0.00000000E+00  0.00000000E+00  0.00000000E+00
  0.00000000E+00  0.00000000E+00  0.00000000E+00
  0.00000000E+00  0.00000000E+00  0.00000000E+00
  0.00000000E+00  0.00000000E+00  0.00000000E+00
  0.00000000E+00  0.00000000E+00  0.00000000E+00
  0.00000000E+00  0.00000000E+00  0.00000000E+00
  0.00000000E+00  0.00000000E+00  0.00000000E+00
  0.00000000E+00  0.00000000E+00  0.00000000E+00
  0.00000000E+00  0.00000000E+00  0.00000000E+00
  0.00000000E+00  0.00000000E+00  0.00000000E+00
  0.00000000E+00  0.00000000E+00  0.00000000E+00
  0.00000000E+00  0.00000000E+00  0.00000000E+00
  0.00000000E+00  0.00000000E+00  0.00000000E+00
  0.00000000E+00  0.00000000E+00  0.00000000E+00
  0.00000000E+00  0.00000000E+00  0.00000000E+00
  0.00000000E+00  0.00000000E+00  0.00000000E+00
  0.00000000E+00  0.00000000E+00  0.00000000E+00
  0.00000000E+00  0.00000000E+00  0.00000000E+00
  0.00000000E+00  0.00000000E+00  0.00000000E+00
  0.00000000E+00  0.00000000E+00  0.00000000E+00
  0.00000000E+00  0.00000000E+00  0.00000000E+00
  0.00000000E+00  0.00000000E+00  0.00000000E+00
  0.00000000E+00  0.00000000E+00  0.00000000E+00
  0.00000000E+00  0.00000000E+00  0.00000000E+00
  0.00000000E+00  0.00000000E+00  0.00000000E+00
  0.00000000E+00  0.00000000E+00  0.00000000E+00
  0.00000000E+00  0.00000000E+00  0.00000000E+00
  0.00000000E+00  0.00000000E+00  0.00000000E+00
  0.00000000E+00  0.00000000E+00  0.00000000E+00
  0.00000000E+00  0.00000000E+00  0.00000000E+00
  0.00000000E+00  0.00000000E+00  0.00000000E+00
  0.00000000E+00  0.00000000E+00  0.00000000E+00
  0.00000000E+00  0.00000000E+00  0.00000000E+00
  0.00000000E+00  0.00000000E+00  0.00000000E+00
  0.00000000E+00  0.00000000E+00  0.00000000E+00
  0.00000000E+00  0.00000000E+00  0.00000000E+00
  0.00000000E+00  0.00000000E+00  0.00000000E+00
  0.00000000E+00  0.00000000E+00  0.00000000E+00
  0.00000000E+00  0.00000000E+00  0.00000000E+00
  0.00000000E+00  0.00000000E+00  0.00000000E+00
  0.00000000E+00  0.00000000E+00  0.00000000E+00
  0.00000000E+00  0.00000000E+00  0.00000000E+00
  0.00000000E+00  0.00000000E+00  0.00000000E+00
  0.00000000E+00  0.00000000E+00  0.00000000E+00
  0.00000000E+00  0.00000000E+00  0.00000000E+00
  0.00000000E+00  0.00000000E+00  0.00000000E+00
  0.00000000E+00  0.00000000E+00  0.00000000E+00
  0.00000000E+00  0.00000000E+00  0.00000000E+00
  0.00000000E+00  0.00000000E+00  0.00000000E+00
  0.00000000E+00  0.00000000E+00  0.00000000E+00
  0.00000000E+00  0.00000000E+00  0.00000000E+00
  0.00000000E+00  0.00000000E+00  0.00000000E+00
  0.00000000E+00  0.00000000E+00  0.00000000E+00
  0.00000000E+00  0.00000000E+00  0.00000000E+00
  0.00000000E+00  0.00000000E+00  0.00000000E+00
  0.00000000E+00  0.00000000E+00  0.00000000E+00
  0.00000000E+00  0.00000000E+00  0.00000000E+00
  0.00000000E+00  0.00000000E+00  0.00000000E+00
  0.00000000E+00  0.00000000E+00  0.00000000E+00
  0.00000000E+00  0.00000000E+00  0.00000000E+00
  0.00000000E+00  0.00000000E+00  0.00000000E+00
  0.00000000E+00  0.00000000E+00  0.00000000E+00
  0.00000000E+00  0.00000000E+00  0.00000000E+00
  0.00000000E+00  0.00000000E+00  0.00000000E+00
  0.00000000E+00  0.00000000E+00  0.00000000E+00
  0.00000000E+00  0.00000000E+00  0.00000000E+00
  0.00000000E+00  0.00000000E+00  0.00000000E+00
  0.00000000E+00  0.00000000E+00  0.00000000E+00
  0.00000000E+00  0.00000000E+00  0.00000000E+00
  0.00000000E+00  0.00000000E+00  0.00000000E+00
  0.00000000E+00  0.00000000E+00  0.00000000E+00
  0.00000000E+00  0.00000000E+00  0.00000000E+00
  0.00000000E+00  0.00000000E+00  0.00000000E+00
  0.00000000E+00  0.00000000E+00  0.00000000E+00
  0.00000000E+00  0.00000000E+00  0.00000000E+00
  0.00000000E+00  0.00000000E+00  0.00000000E+00
  0.00000000E+00  0.00000000E+00  0.00000000E+00
  0.00000000E+00  0.00000000E+00  0.00000000E+00
  0.00000000E+00  0.00000000E+00  0.00000000E+00