 As N B 
 1.0
 14.936314146199660   0.000000000000000   0.000000000000000
 -7.468157073099825  12.935227489513863   0.000000000000000
  0.000000000000001   0.000000000000001  13.341276283792837
 As N B 
   1 143 144
Cartesian
  4.978771382066589   5.748989995339477   5.002978606422314 
  1.244815179594006   0.718363865229919   1.666378505063276 
  4.978771382066456   7.187679612856695   1.740939049614801 
  6.223350682117323   0.718627473552856   1.675316072077615 
  9.957482766204160   7.186333965364923   1.675316072077615 
 11.202037804873955   0.718509546777023   1.661872854468093 
 -3.733980777659891   9.342165183547964   8.335383786890301 
  1.244639297979635   9.342008547100988   8.330641140767280 
  2.489244047809558   2.874101701342132   8.319580448168683 
  6.223734010582178   9.342428057220658   8.319580448168683 
  7.468298716323617   2.874101701342132   8.319580448168683 
 12.446928455166200   2.874723402950740   8.344084358376508 
 -1.244790604406605   9.342165183547964   1.670573425954394 
  0.000193468301299   2.874606696645570   1.667405486746401 
  4.978771382066505   2.874892639642978   1.704362418938333 
  3.733808753550823   9.342428057220658   1.686376764676025 
  8.712903466153618   9.342008547100988   1.675316072077615 
  9.957349295831964   2.874606696645570   1.667405486746401 
 -4.978511525171583  11.497829962230568   8.337167140010845 
 -0.000259856894567  11.497829962230568   8.337167140010845 
  1.244281419293875   5.030440227455834   8.319580448168683 
  6.224713138997278   5.029645186580867   8.265018163229708 
  4.978771382066755  11.497756592727237   8.338551726098494 
 11.202399508919680   5.030602132434433   8.339578707781259 
 -1.244856744786308   5.030602132434432   1.666378505063249 
 -2.489385691033239  11.497867108435898   1.670573425954394 
  2.489099457686366  11.498003988353586   1.666378505063276 
  3.732829625135855   5.029645186580866   1.740939049614801 
  7.468443306447296  11.498003988353586   1.666378505063249 
  8.713261344839271   5.030440227455833   1.686376764676025 
  0.000059997928897   7.186333965364923   8.330641140767280 
  1.244815179594006   0.718363865229920   8.339578707781259 
  4.978771382066457   7.187679612856696   8.265018163229708 
  6.223350682117339   0.718627473552857   8.330641140767280 
  9.957482766204160   7.186333965364923   8.330641140767280 
 -2.489385691033263   7.186537551070705   1.668790072833916 
 11.202037804873955   0.718509546777024   8.344084358376508 
  3.734192082016057   0.718627473552856   1.675316072077615 
  2.489730059083558   7.186038673187927   1.704362418938333 
  7.467812705049378   7.186038673187927   1.704362418938333 
  8.712727584539062   0.718363865229919   1.666378505063249 
  2.489730059083559   7.186038673187928   8.301594793906242 
 13.691819105458487   0.718509546777023   1.661872854468093 
 -1.244790604406604   9.342165183547964   8.335383786890301 
  0.000193468301299   2.874606696645571   8.338551726098494 
  4.978771382066506   2.874892639642979   8.301594793906242 
  3.733808753550824   9.342428057220658   8.319580448168683 
  8.712903466153618   9.342008547100988   8.330641140767280 
  9.957349295831964   2.874606696645571   8.338551726098494 
 -3.733980777659891   9.342165183547964   1.670573425954394 
  1.244639297979620   9.342008547100988   1.675316072077615 
  2.489244047809557   2.874101701342131   1.686376764676052 
  6.223734010582177   9.342428057220658   1.686376764676025 
  7.468298716323616   2.874101701342131   1.686376764676025 
 12.446928455166200   2.874723402950739   1.661872854468093 
 -1.244856744786307   5.030602132434433   8.339578707781259 
 -2.489385691033239  11.497867108435898   8.335383786890301 
  2.489099457686366  11.498003988353586   8.339578707781259 
  3.732829625135856   5.029645186580867   8.265018163229708 
  7.468443306447297  11.498003988353586   8.339578707781286 
 -4.978511525171584  11.497829962230568   1.668790072833916 
  8.713261344839271   5.030440227455834   8.319580448168683 
 -0.000259856894567  11.497829962230568   1.668790072833916 
  1.244281419293874   5.030440227455833   1.686376764676079 
  0.000059997928896   7.186333965364923   1.675316072077615 
  6.224713138997277   5.029645186580866   1.740939049614801 
  4.978771382066754  11.497756592727237   1.667405486746401 
 11.202399508919680   5.030602132434432   1.666378505063249 
 -2.489385691033263   7.186537551070706   8.337167140010845 
  3.734192082016058   0.718627473552857   8.330641140767280 
  7.467812705049379   7.186038673187928   8.301594793906242 
  8.712727584539062   0.718363865229920   8.339578707781286 
 13.691819105458487   0.718509546777024   8.344084358376508 
 -0.011152314465908   1.428548580380722   5.002978606422314 
  3.672040218842783   8.022341801900273   5.002978606422314 
  4.978771382066556   1.411347416247469   5.002978606422314 
  8.735280048097071   7.917811284885636   5.002978606422314 
  9.968695078598975   1.428548580380722   5.002978606422314 
 -4.978912118802473  10.060683764959956  11.673616748318732 
  0.000140736736263  10.060683764959956  11.673616748318732 
  1.244544517528584   3.593033109883454  11.673616748318732 
  4.978771382066614  10.060903766251617  11.673616748318732 
  6.223525625884957   3.593206793897593  11.673616748318732 
 11.202289480313373   3.593084310261338  11.673616748318732 
 -2.489385691033300  10.060732491844131   5.002978606422314 
 -1.257802487116423   3.587810018675942   5.002978606422314 
  3.663356547457642   3.480651708790296   5.002978606422314 
  2.457508147240682  10.108680417122516   5.002978606422314 
  7.500034616892768  10.108680417122516   5.002978606422314 
  8.750236699444301   3.571533479112128   5.002978606422314 
 -6.223491284596306  12.216619361470341  11.673616748318732 
 -1.244664675867913  12.216749985127144  11.673616748318732 
  0.000024080885549   5.748893262127685  11.673616748318732 
  4.978771382066590   5.748989995339477  11.673616748318732 
  3.734081424384216  12.216667611872374  11.673616748318732 
  9.957518683247670   5.748893262127685  11.673616748318732 
 -2.489385691033256   5.752912021925833   5.002978606422314 
 -3.732569125539049  12.205620045832385   5.002978606422314 
  1.241296270858769  12.214642726803463   5.002978606422314 
  2.356625384233665   5.743976475327820   5.002978606422314 
  6.225421554716823  12.230611386961998   5.002978606422314 
  7.600917379899645   5.743976475327820   5.002978606422314 
 -1.244580278429378   7.904763725445301  11.673616748318732 
 -0.000056758497825   1.437218063884695  11.673616748318732 
  3.734185486475353   7.904870392675647  11.673616748318732 
  4.978771382066640   1.437522952791341  11.673616748318732 
  8.712611368492222   7.904723516613680  11.673616748318732 
 -3.725321083795329   7.911660279004174   5.002978606422314 
  9.957599522630849   1.437218063884695  11.673616748318732 
  2.463800341579676   1.385666773460730   5.002978606422314 
  1.222262716035763   7.917811284885636   5.002978606422314 
  6.285502545290738   8.022341801900273   5.002978606422314 
  7.493742422553557   1.385666773460730   5.002978606422314 
  1.244931395640537   7.904723516613680  11.673616748318732 
 12.446928455166319   1.437247498834912   5.002978606422314 
 -2.489385691033299  10.060732491844133  11.673616748318732 
 -1.244746716180200   3.593084310261338  11.673616748318732 
  3.734017138248205   3.593206793897593  11.673616748318732 
  2.489481504894897  10.060760003791355  11.673616748318732 
  7.468061259238375  10.060760003791355  11.673616748318732 
  8.712998246604428   3.593033109883454  11.673616748318732 
 -4.968504518301102  10.064917150696161   5.002978606422314 
 -0.010266863765677  10.064917150696161   5.002978606422314 
  1.207306064688588   3.571533479112128   5.002978606422314 
  4.978771382066589  10.103903027794251   5.002978606422314 
  6.294186216675667   3.480651708790296   5.002978606422314 
 11.215345251249209   3.587810018675942   5.002978606422314 
 -2.489385691033278   5.748958752591991  11.673616748318732 
 -3.734106706198639  12.216749985127144  11.673616748318732 
  1.244719902529501  12.216619361470341  11.673616748318732 
  2.489431242656880   5.748892799445398  11.673616748318732 
  6.223461339749115  12.216667611872374  11.673616748318732 
 -6.220067652925200  12.214642726803463   5.002978606422314 
  7.468111521476074   5.748892799445398  11.673616748318732 
 -1.246202256527578  12.205620045832385   5.002978606422314 
 -0.057462893246530   5.752622795435210   5.002978606422314 
 -1.253450298271377   7.911660279004174   5.002978606422314 
  3.732121209416075  12.230611386961998   5.002978606422314 
 10.015005657379438   5.752622795435210   5.002978606422314 
 -3.734191103637388   7.904763725445301  11.673616748318732 
  2.489313958057288   1.437316720099315  11.673616748318732 
  6.223357277657796   7.904870392675647  11.673616748318732 
  7.468228806075932   1.437316720099315  11.673616748318732 
 12.446928455166319   1.437247498834912  11.673616748318732 
  1.220966719359704   0.695688937398211   5.002978606422314 
  4.978771382066566   7.555235988951703   5.002978606422314 
  6.235153075095828   0.690963135839514   5.002978606422314 
  9.987341981932069   7.189944962076478   5.002978606422314 
 11.209174962191270   0.722630186475432   5.002978606422314 
 -3.734151332098490   9.342066713897085  11.673616748318732 
  1.244403363265694   9.342676638887072  11.673616748318732 
  2.488347421372961   2.873562709697400  11.673616748318732 
  6.223752477820437   9.343474054314722  11.673616748318732 
  7.469195342760289   2.873562709697400  11.673616748318732 
 12.446928455166431   2.874451253132254  11.673616748318732 
 -1.251121293543422   9.345820208625408   5.002978606422314 
 -0.033622930635838   2.855082789616233   5.002978606422314 
  4.978771382066475   2.818347872534791   5.002978606422314 
  3.695426171606233   9.451312868109250   5.002978606422314 
  8.730960288902985   9.366061888102271   5.002978606422314 
  9.991165694769057   2.855082789616233   5.002978606422314 
 -4.978726055214342  11.497953821208444  11.673616748318732 
 -0.000045326851702  11.497953821208444  11.673616748318732 
  1.243366325618758   5.029933222006467  11.673616748318732 
  6.224970755171384   5.029496451813286  11.673616748318732 
  4.978771382066077  11.499019790741619  11.673616748318732 
 11.202607096544412   5.029924091239476  11.673616748318732 
 -1.276418038434764   5.021286223946356   5.002978606422314 
 -2.489385691033232  11.490557058281439   5.002978606422314 
  2.481386624272560  11.529994824673670   5.002978606422314 
  3.414516466114563   4.845866998533358   5.002978606422314 
  7.476156139860977  11.529994824673670   5.002978606422314 
  8.826749648127418   5.009238113038352   5.002978606422314 
 -0.000636553887157   7.186204244927621  11.673616748318732 
  1.244124184881874   0.718523109670711  11.673616748318732 
  4.978771382066253   7.187977082391871  11.673616748318732 
  6.223811299219198   0.718089102203869  11.673616748318732 
  9.958179318020111   7.186204244927621  11.673616748318732 
 -2.489385691033255   7.187742708699342   5.002978606422314 
 11.202273493530278   0.718645621686196  11.673616748318732 
  3.722389689037374   0.690963135839514   5.002978606422314 
  2.440760854316824   7.214311056741917   5.002978606422314 
  7.516781909816263   7.214311056741917   5.002978606422314 
  8.736576044773750   0.695688937398211   5.002978606422314 
  2.488683106315775   7.186643131650012  11.673616748318732 
 13.684681948141339   0.722630186475432   5.002978606422314 
 -1.244620049968064   9.342066713897085  11.673616748318732 
 -0.000900493268659   2.873975097638621  11.673616748318732 
  4.978771382066379   2.873683722718355  11.673616748318732 
  3.733790286312491   9.343474054314722  11.673616748318732 
  8.713139400867634   9.342676638887072  11.673616748318732 
  9.958443257401610   2.873975097638621  11.673616748318732 
 -3.727650088522805   9.345820208625408   5.002978606422314 
  1.226582475230373   9.366061888102271   5.002978606422314 
  2.414138326465784   2.786419004870698   5.002978606422314 
  6.262116592526811   9.451312868109250   5.002978606422314 
  7.543404437667269   2.786419004870698   5.002978606422314 
 12.446928455166425   2.866482123553846   5.002978606422314 
 -1.245064332411252   5.029924091239476  11.673616748318732 
 -2.489385691033239  11.498064047738026  11.673616748318732 
  2.489582864773441  11.498522785107948  11.673616748318732 
  3.732572008961300   5.029496451813286  11.673616748318732 
  7.467959899359816  11.498522785107948  11.673616748318732 
 -4.977467828049781  11.497227383416540   5.002978606422314 
  8.714176438514031   5.029933222006467  11.673616748318732 
 -0.001303554016727  11.497227383416540   5.002978606422314 
  1.130793116005355   5.009238113038352   5.002978606422314 
 -0.029799217798997   7.189944962076478   5.002978606422314 
  6.543026298018611   4.845866998533358   5.002978606422314 
  4.978771382066680  11.536804406786093   5.002978606422314 
 11.233960802567701   5.021286223946356   5.002978606422314 
 -2.489385691033241   7.186289833114735  11.673616748318732 
  3.733731464913871   0.718089102203869  11.673616748318732 
  7.468859657817538   7.186643131650012  11.673616748318732 
  8.713418579251163   0.718523109670711  11.673616748318732 
 13.691583416802315   0.718645621686196  11.673616748318732 
 -0.000519355914779   1.436330572306553   1.660314931485646 
  3.730529726251590   7.910009899781365   1.699816269596002 
  4.978771382066370   1.432428447540872   1.676021367024491 
  8.717023339459558   7.907270769238578   1.676021367024491 
  9.958062120047924   1.436330572306553   1.660314931485646 
 -4.976917834233197  10.061490559938575   8.339928238000693 
 -0.001853547833402  10.061490559938575   8.339928238000693 
  1.241998123062634   3.591562948352954   8.333254834419348 
  4.978771382066688  10.063844089312614   8.333254834419348 
  6.226148689489341   3.587471059121186   8.306140943248506 
 11.203289369274120   3.593127434935653   8.345642281359183 
 -2.489385691033300  10.060732491844131   1.665671719403319 
 -1.245746605141021   3.593127434935652   1.660314931485646 
  3.731394074643788   3.587471059121186   1.699816269596002 
  2.487381070313168  10.063210413163276   1.668947598167333 
  7.470161693819744  10.063210413163276   1.668947598167333 
  8.715544641070661   3.591562948352953   1.672702378425440 
 -6.222953197396305  12.216308696680329   8.344108680466308 
 -1.244963113205682  12.214619486538243   8.339928238000693 
 -0.003148253170883   5.749487087148888   8.337009614677163 
  4.978771382066590   5.748989995339477   8.280863218589619 
  3.733544132840394  12.217511978776431   8.345642281359183 
  9.960691017303702   5.749487087148888   8.337009614677163 
 -2.489385691033302   5.749580082171323   1.661848532378173 
 -3.733808268860796  12.214619486538243   1.666028974844160 
  1.244181815329888  12.216308696680329   1.661848532378173 
  2.483152418829172   5.749489027116020   1.699816269596002 
  6.223998631292834  12.217511978776431   1.660314931485646 
  7.474390345304077   5.749489027116020   1.699816269596002 
 -1.246276125661019   7.906087429055501   8.339928238000693 
 -0.000519355914779   1.436330572306554   8.345642281359183 
  3.730529726251591   7.910009899781366   8.306140943248506 
  4.978771382066371   1.432428447540872   8.329935845819843 
  8.717023339459558   7.907270769238579   8.329935845819843 
 -3.732495256405701   7.906087429055500   1.666028974844160 
  9.958062120047924   1.436330572306554   8.345642281359183 
  2.488242058582642   1.434272485706887   1.668947598167333 
  1.240519424673843   7.907270769238578   1.676021367024491 
  6.227013037880943   7.910009899781365   1.699816269596002 
  7.469300705550651   1.434272485706887   1.668947598167333 
  1.240519424673843   7.907270769238579   8.329935845819843 
 12.446928455166319   1.437247498834911   1.657416418572620 
 -2.489385691033300  10.060732491844131   8.340285493441243 
 -1.245746605141021   3.593127434935653   8.345642281359183 
  3.731394074643789   3.587471059121186   8.306140943248506 
  2.487381070313168  10.063210413163276   8.337009614677163 
  7.470161693819745  10.063210413163276   8.337009614677163 
  8.715544641070661   3.591562948352954   8.333254834419348 
 -4.976917834233197  10.061490559938575   1.666028974844160 
 -0.001853547833402  10.061490559938575   1.666028974844160 
  1.241998123062634   3.591562948352953   1.672702378425440 
  4.978771382066687  10.063844089312614   1.672702378425440 
  6.226148689489341   3.587471059121186   1.699816269596002 
 11.203289369274120   3.593127434935652   1.660314931485646 
 -2.489385691033301   5.749580082171324   8.344108680466308 
 -3.733808268860796  12.214619486538243   8.339928238000693 
  1.244181815329889  12.216308696680329   8.344108680466308 
  2.483152418829172   5.749489027116021   8.306140943248506 
  6.223998631292835  12.217511978776431   8.345642281359183 
 -6.222953197396306  12.216308696680329   1.661848532378173 
  7.474390345304078   5.749489027116021   8.306140943248506 
 -1.244963113205682  12.214619486538243   1.666028974844160 
 -0.003148253170884   5.749487087148887   1.668947598167333 
 -1.246276125661020   7.906087429055500   1.666028974844160 
  4.978771382066589   5.748989995339476   1.725093994254942 
  3.733544132840394  12.217511978776431   1.660314931485646 
  9.960691017303702   5.749487087148887   1.668947598167333 
 -3.732495256405700   7.906087429055501   8.339928238000693 
  2.488242058582642   1.434272485706888   8.337009614677163 
  6.227013037880944   7.910009899781366   8.306140943248506 
  7.469300705550652   1.434272485706888   8.337009614677163 
 12.446928455166319   1.437247498834912   8.348540794271781 
Generated by cif2cell 2.0.0.  :  Failed to get author information, No journal information. Species order: As N B 
 1.0
 14.936314146199660   0.000000000000000   0.000000000000000
 -7.468157073099825  12.935227489513863   0.000000000000000
  0.000000000000001   0.000000000000001  13.341276283792837
 As N B 
   1 143 144
Cartesian
  4.978771382066589   5.748989995339477   5.002978606422314 
  1.244815179594006   0.718363865229919   1.666378505063276 
  4.978771382066456   7.187679612856695   1.740939049614801 
  6.223350682117323   0.718627473552856   1.675316072077615 
  9.957482766204160   7.186333965364923   1.675316072077615 
 11.202037804873955   0.718509546777023   1.661872854468093 
 -3.733980777659891   9.342165183547964   8.335383786890301 
  1.244639297979635   9.342008547100988   8.330641140767280 
  2.489244047809558   2.874101701342132   8.319580448168683 
  6.223734010582178   9.342428057220658   8.319580448168683 
  7.468298716323617   2.874101701342132   8.319580448168683 
 12.446928455166200   2.874723402950740   8.344084358376508 
 -1.244790604406605   9.342165183547964   1.670573425954394 
  0.000193468301299   2.874606696645570   1.667405486746401 
  4.978771382066505   2.874892639642978   1.704362418938333 
  3.733808753550823   9.342428057220658   1.686376764676025 
  8.712903466153618   9.342008547100988   1.675316072077615 
  9.957349295831964   2.874606696645570   1.667405486746401 
 -4.978511525171583  11.497829962230568   8.337167140010845 
 -0.000259856894567  11.497829962230568   8.337167140010845 
  1.244281419293875   5.030440227455834   8.319580448168683 
  6.224713138997278   5.029645186580867   8.265018163229708 
  4.978771382066755  11.497756592727237   8.338551726098494 
 11.202399508919680   5.030602132434433   8.339578707781259 
 -1.244856744786308   5.030602132434432   1.666378505063249 
 -2.489385691033239  11.497867108435898   1.670573425954394 
  2.489099457686366  11.498003988353586   1.666378505063276 
  3.732829625135855   5.029645186580866   1.740939049614801 
  7.468443306447296  11.498003988353586   1.666378505063249 
  8.713261344839271   5.030440227455833   1.686376764676025 
  0.000059997928897   7.186333965364923   8.330641140767280 
  1.244815179594006   0.718363865229920   8.339578707781259 
  4.978771382066457   7.187679612856696   8.265018163229708 
  6.223350682117339   0.718627473552857   8.330641140767280 
  9.957482766204160   7.186333965364923   8.330641140767280 
 -2.489385691033263   7.186537551070705   1.668790072833916 
 11.202037804873955   0.718509546777024   8.344084358376508 
  3.734192082016057   0.718627473552856   1.675316072077615 
  2.489730059083558   7.186038673187927   1.704362418938333 
  7.467812705049378   7.186038673187927   1.704362418938333 
  8.712727584539062   0.718363865229919   1.666378505063249 
  2.489730059083559   7.186038673187928   8.301594793906242 
 13.691819105458487   0.718509546777023   1.661872854468093 
 -1.244790604406604   9.342165183547964   8.335383786890301 
  0.000193468301299   2.874606696645571   8.338551726098494 
  4.978771382066506   2.874892639642979   8.301594793906242 
  3.733808753550824   9.342428057220658   8.319580448168683 
  8.712903466153618   9.342008547100988   8.330641140767280 
  9.957349295831964   2.874606696645571   8.338551726098494 
 -3.733980777659891   9.342165183547964   1.670573425954394 
  1.244639297979620   9.342008547100988   1.675316072077615 
  2.489244047809557   2.874101701342131   1.686376764676052 
  6.223734010582177   9.342428057220658   1.686376764676025 
  7.468298716323616   2.874101701342131   1.686376764676025 
 12.446928455166200   2.874723402950739   1.661872854468093 
 -1.244856744786307   5.030602132434433   8.339578707781259 
 -2.489385691033239  11.497867108435898   8.335383786890301 
  2.489099457686366  11.498003988353586   8.339578707781259 
  3.732829625135856   5.029645186580867   8.265018163229708 
  7.468443306447297  11.498003988353586   8.339578707781286 
 -4.978511525171584  11.497829962230568   1.668790072833916 
  8.713261344839271   5.030440227455834   8.319580448168683 
 -0.000259856894567  11.497829962230568   1.668790072833916 
  1.244281419293874   5.030440227455833   1.686376764676079 
  0.000059997928896   7.186333965364923   1.675316072077615 
  6.224713138997277   5.029645186580866   1.740939049614801 
  4.978771382066754  11.497756592727237   1.667405486746401 
 11.202399508919680   5.030602132434432   1.666378505063249 
 -2.489385691033263   7.186537551070706   8.337167140010845 
  3.734192082016058   0.718627473552857   8.330641140767280 
  7.467812705049379   7.186038673187928   8.301594793906242 
  8.712727584539062   0.718363865229920   8.339578707781286 
 13.691819105458487   0.718509546777024   8.344084358376508 
 -0.011152314465908   1.428548580380722   5.002978606422314 
  3.672040218842783   8.022341801900273   5.002978606422314 
  4.978771382066556   1.411347416247469   5.002978606422314 
  8.735280048097071   7.917811284885636   5.002978606422314 
  9.968695078598975   1.428548580380722   5.002978606422314 
 -4.978912118802473  10.060683764959956  11.673616748318732 
  0.000140736736263  10.060683764959956  11.673616748318732 
  1.244544517528584   3.593033109883454  11.673616748318732 
  4.978771382066614  10.060903766251617  11.673616748318732 
  6.223525625884957   3.593206793897593  11.673616748318732 
 11.202289480313373   3.593084310261338  11.673616748318732 
 -2.489385691033300  10.060732491844131   5.002978606422314 
 -1.257802487116423   3.587810018675942   5.002978606422314 
  3.663356547457642   3.480651708790296   5.002978606422314 
  2.457508147240682  10.108680417122516   5.002978606422314 
  7.500034616892768  10.108680417122516   5.002978606422314 
  8.750236699444301   3.571533479112128   5.002978606422314 
 -6.223491284596306  12.216619361470341  11.673616748318732 
 -1.244664675867913  12.216749985127144  11.673616748318732 
  0.000024080885549   5.748893262127685  11.673616748318732 
  4.978771382066590   5.748989995339477  11.673616748318732 
  3.734081424384216  12.216667611872374  11.673616748318732 
  9.957518683247670   5.748893262127685  11.673616748318732 
 -2.489385691033256   5.752912021925833   5.002978606422314 
 -3.732569125539049  12.205620045832385   5.002978606422314 
  1.241296270858769  12.214642726803463   5.002978606422314 
  2.356625384233665   5.743976475327820   5.002978606422314 
  6.225421554716823  12.230611386961998   5.002978606422314 
  7.600917379899645   5.743976475327820   5.002978606422314 
 -1.244580278429378   7.904763725445301  11.673616748318732 
 -0.000056758497825   1.437218063884695  11.673616748318732 
  3.734185486475353   7.904870392675647  11.673616748318732 
  4.978771382066640   1.437522952791341  11.673616748318732 
  8.712611368492222   7.904723516613680  11.673616748318732 
 -3.725321083795329   7.911660279004174   5.002978606422314 
  9.957599522630849   1.437218063884695  11.673616748318732 
  2.463800341579676   1.385666773460730   5.002978606422314 
  1.222262716035763   7.917811284885636   5.002978606422314 
  6.285502545290738   8.022341801900273   5.002978606422314 
  7.493742422553557   1.385666773460730   5.002978606422314 
  1.244931395640537   7.904723516613680  11.673616748318732 
 12.446928455166319   1.437247498834912   5.002978606422314 
 -2.489385691033299  10.060732491844133  11.673616748318732 
 -1.244746716180200   3.593084310261338  11.673616748318732 
  3.734017138248205   3.593206793897593  11.673616748318732 
  2.489481504894897  10.060760003791355  11.673616748318732 
  7.468061259238375  10.060760003791355  11.673616748318732 
  8.712998246604428   3.593033109883454  11.673616748318732 
 -4.968504518301102  10.064917150696161   5.002978606422314 
 -0.010266863765677  10.064917150696161   5.002978606422314 
  1.207306064688588   3.571533479112128   5.002978606422314 
  4.978771382066589  10.103903027794251   5.002978606422314 
  6.294186216675667   3.480651708790296   5.002978606422314 
 11.215345251249209   3.587810018675942   5.002978606422314 
 -2.489385691033278   5.748958752591991  11.673616748318732 
 -3.734106706198639  12.216749985127144  11.673616748318732 
  1.244719902529501  12.216619361470341  11.673616748318732 
  2.489431242656880   5.748892799445398  11.673616748318732 
  6.223461339749115  12.216667611872374  11.673616748318732 
 -6.220067652925200  12.214642726803463   5.002978606422314 
  7.468111521476074   5.748892799445398  11.673616748318732 
 -1.246202256527578  12.205620045832385   5.002978606422314 
 -0.057462893246530   5.752622795435210   5.002978606422314 
 -1.253450298271377   7.911660279004174   5.002978606422314 
  3.732121209416075  12.230611386961998   5.002978606422314 
 10.015005657379438   5.752622795435210   5.002978606422314 
 -3.734191103637388   7.904763725445301  11.673616748318732 
  2.489313958057288   1.437316720099315  11.673616748318732 
  6.223357277657796   7.904870392675647  11.673616748318732 
  7.468228806075932   1.437316720099315  11.673616748318732 
 12.446928455166319   1.437247498834912  11.673616748318732 
  1.220966719359704   0.695688937398211   5.002978606422314 
  4.978771382066566   7.555235988951703   5.002978606422314 
  6.235153075095828   0.690963135839514   5.002978606422314 
  9.987341981932069   7.189944962076478   5.002978606422314 
 11.209174962191270   0.722630186475432   5.002978606422314 
 -3.734151332098490   9.342066713897085  11.673616748318732 
  1.244403363265694   9.342676638887072  11.673616748318732 
  2.488347421372961   2.873562709697400  11.673616748318732 
  6.223752477820437   9.343474054314722  11.673616748318732 
  7.469195342760289   2.873562709697400  11.673616748318732 
 12.446928455166431   2.874451253132254  11.673616748318732 
 -1.251121293543422   9.345820208625408   5.002978606422314 
 -0.033622930635838   2.855082789616233   5.002978606422314 
  4.978771382066475   2.818347872534791   5.002978606422314 
  3.695426171606233   9.451312868109250   5.002978606422314 
  8.730960288902985   9.366061888102271   5.002978606422314 
  9.991165694769057   2.855082789616233   5.002978606422314 
 -4.978726055214342  11.497953821208444  11.673616748318732 
 -0.000045326851702  11.497953821208444  11.673616748318732 
  1.243366325618758   5.029933222006467  11.673616748318732 
  6.224970755171384   5.029496451813286  11.673616748318732 
  4.978771382066077  11.499019790741619  11.673616748318732 
 11.202607096544412   5.029924091239476  11.673616748318732 
 -1.276418038434764   5.021286223946356   5.002978606422314 
 -2.489385691033232  11.490557058281439   5.002978606422314 
  2.481386624272560  11.529994824673670   5.002978606422314 
  3.414516466114563   4.845866998533358   5.002978606422314 
  7.476156139860977  11.529994824673670   5.002978606422314 
  8.826749648127418   5.009238113038352   5.002978606422314 
 -0.000636553887157   7.186204244927621  11.673616748318732 
  1.244124184881874   0.718523109670711  11.673616748318732 
  4.978771382066253   7.187977082391871  11.673616748318732 
  6.223811299219198   0.718089102203869  11.673616748318732 
  9.958179318020111   7.186204244927621  11.673616748318732 
 -2.489385691033255   7.187742708699342   5.002978606422314 
 11.202273493530278   0.718645621686196  11.673616748318732 
  3.722389689037374   0.690963135839514   5.002978606422314 
  2.440760854316824   7.214311056741917   5.002978606422314 
  7.516781909816263   7.214311056741917   5.002978606422314 
  8.736576044773750   0.695688937398211   5.002978606422314 
  2.488683106315775   7.186643131650012  11.673616748318732 
 13.684681948141339   0.722630186475432   5.002978606422314 
 -1.244620049968064   9.342066713897085  11.673616748318732 
 -0.000900493268659   2.873975097638621  11.673616748318732 
  4.978771382066379   2.873683722718355  11.673616748318732 
  3.733790286312491   9.343474054314722  11.673616748318732 
  8.713139400867634   9.342676638887072  11.673616748318732 
  9.958443257401610   2.873975097638621  11.673616748318732 
 -3.727650088522805   9.345820208625408   5.002978606422314 
  1.226582475230373   9.366061888102271   5.002978606422314 