 N B C 
 1.0
 14.936314146199660   0.000000000000000   0.000000000000000
 -7.468157073099825  12.935227489513863   0.000000000000000
  0.000000000000001   0.000000000000001  13.341276283792837
 N B C 
 143 144   1
Cartesian
  1.244509368136779   0.718627087296499   1.666829367604699 
  4.978771382066595   7.187026516020981   1.658211010052483 
  6.223499758542727   0.718803415119460   1.666611847208158 
  9.957404934550736   7.186116890609780   1.666611847208158 
 11.202214177223700   0.718611375400514   1.666799957636613 
 -3.734265103047869   9.342001028208825   8.338987144840129 
  1.244866206058531   9.342049680289280   8.339345365636470 
  2.489158772297128   2.874601192020926   8.340213398936461 
  6.223258801209262   9.342252162641191   8.340213398936461 
  7.468383991836062   2.874601192020926   8.340213398936461 
 12.446928455166365   2.874519745703628   8.339157255208015 
 -1.244506279018612   9.342001028208825   1.666970068004500 
 -0.000244117191425   2.874354056543526   1.665826415309123 
  4.978771382066535   2.874573124605245   1.665092425966388 
  3.734283962923933   9.342252162641191   1.665743813908167 
  8.712676558074545   9.342049680289280   1.666611847208158 
  9.957786881324598   2.874354056543526   1.665826415309123 
 -4.978877962165918  11.498041524728050   8.339600687511721 
  0.000106580099442  11.498041524728050   8.339600687511721 
  1.244671353154465   5.030116631356300   8.340213398936461 
  6.224147540546553   5.029971734998731   8.347746202792143 
  4.978771382066591  11.498261872931376   8.340130797535505 
 11.202324457651647   5.030205680910494   8.339127845239915 
 -1.244781693518471   5.030205680910493   1.666829367604699 
 -2.489385691033240  11.498195419114644   1.666970068004500 
  2.489480320411340  11.498137217811436   1.666829367604699 
  3.733395223586621   5.029971734998730   1.658211010052483 
  7.468062443721844  11.498137217811436   1.666829367604699 
  8.712871410978726   5.030116631356299   1.665743813908167 
  0.000137829582337   7.186116890609781   8.339345365636470 
  1.244509368136780   0.718627087296500   8.339127845239915 
  4.978771382066596   7.187026516020982   8.347746202792143 
  6.223499758542728   0.718803415119460   8.339345365636470 
  9.957404934550736   7.186116890609781   8.339345365636470 
 -2.489385691033241   7.186114426076189   1.666356525332905 
 11.202214177223700   0.718611375400515   8.339157255208015 
  3.734043005590341   0.718803415119460   1.666611847208158 
  2.489453350944111   7.186198430706637   1.665092425966388 
  7.468089413188962   7.186198430706637   1.665092425966388 
  8.713033395996394   0.718627087296499   1.666829367604699 
  2.489453350944112   7.186198430706638   8.340864786878241 
 13.691642733109026   0.718611375400514   1.666799957636613 
 -1.244506279018612   9.342001028208825   8.338987144840129 
 -0.000244117191425   2.874354056543527   8.340130797535505 
  4.978771382066536   2.874573124605246   8.340864786878241 
  3.734283962923933   9.342252162641191   8.340213398936461 
  8.712676558074545   9.342049680289280   8.339345365636470 
  9.957786881324598   2.874354056543527   8.340130797535505 
 -3.734265103047869   9.342001028208825   1.666970068004500 
  1.244866206058530   9.342049680289280   1.666611847208158 
  2.489158772297128   2.874601192020926   1.665743813908167 
  6.223258801209261   9.342252162641191   1.665743813908167 
  7.468383991836061   2.874601192020926   1.665743813908167 
 12.446928455166365   2.874519745703628   1.666799957636613 
 -1.244781693518471   5.030205680910494   8.339127845239915 
 -2.489385691033239  11.498195419114644   8.338987144840129 
  2.489480320411340  11.498137217811436   8.339127845239915 
  3.733395223586622   5.029971734998731   8.347746202792143 
  7.468062443721845  11.498137217811436   8.339127845239915 
 -4.978877962165919  11.498041524728050   1.666356525332905 
  8.712871410978726   5.030116631356300   8.340213398936461 
  0.000106580099441  11.498041524728050   1.666356525332905 
  1.244671353154464   5.030116631356299   1.665743813908167 
  0.000137829582337   7.186116890609780   1.666611847208158 
  6.224147540546552   5.029971734998730   1.658211010052483 
  4.978771382066590  11.498261872931376   1.665826415309123 
 11.202324457651647   5.030205680910493   1.666829367604699 
 -2.489385691033241   7.186114426076190   8.339600687511721 
  3.734043005590342   0.718803415119460   8.339345365636470 
  7.468089413188963   7.186198430706638   8.340864786878241 
  8.713033395996394   0.718627087296500   8.339127845239915 
 13.691642733109026   0.718611375400515   8.339157255208015 
 -0.002282280915405   1.434955942281244   5.002978606422314 
  3.717808931646516   7.934736435537359   5.002978606422314 
  4.978771382066475   1.428150866984608   5.002978606422314 
  8.720727832887643   7.909409559516996   5.002978606422314 
  9.959825045048488   1.434955942281244   5.002978606422314 
 -4.978798230044134  10.060442518335961  11.673616748318732 
  0.000026847977552  10.060442518335961  11.673616748318732 
  1.244969528490776   3.593278490076806  11.673616748318732 
  4.978771382066539  10.060413005864911  11.673616748318732 
  6.223620866184686   3.593253736688980  11.673616748318732 
 11.202452023009659   3.593280516973906  11.673616748318732 
 -2.489385691033300  10.060732491844131   5.002978606422314 
 -1.247818532164004   3.592288012112708   5.002978606422314 
  3.716340663833814   3.564091259958561   5.002978606422314 
  2.480681444301011  10.072164443586534   5.002978606422314 
  7.476861319832063  10.072164443586534   5.002978606422314 
  8.722100166042422   3.587778114245741   5.002978606422314 
 -6.223650299457795  12.216711168743323  11.673616748318732 
 -1.244930545952368  12.216771977881137  11.673616748318732 
 -0.000021526113586   5.749017674059901  11.673616748318732 
  4.978771382066590   5.748989995339477  11.673616748318732 
  3.733830233038477  12.216710274620507  11.673616748318732 
  9.957564290246673   5.749017674059901  11.673616748318732 
 -2.489385691033242   5.750845377438050   5.002978606422314 
 -3.733392068806815  12.212614633690759   5.002978606422314 
  1.243086037485593  12.215676049047110   5.002978606422314 
  2.455378213413794   5.748142290522602   5.002978606422314 
  6.224307633315146  12.219726031624555   5.002978606422314 
  7.502164550719277   5.748142290522602   5.002978606422314 
 -1.244428297103373   7.904982979315291  11.673616748318732 
  0.000031890151472   1.436979194424111  11.673616748318732 
  3.734273760275046   7.904929401799049  11.673616748318732 
  4.978771382066483   1.437086318856579  11.673616748318732 
  8.712989504572221   7.904941833581017  11.673616748318732 
 -3.730967102935771   7.907450295299071   5.002978606422314 
  9.957510873981596   1.436979194424111  11.673616748318732 
  2.483837453775636   1.423993424172747   5.002978606422314 
  1.236814931245324   7.909409559516996   5.002978606422314 
  6.239733832486556   7.934736435537359   5.002978606422314 
  7.473705310357446   1.423993424172747   5.002978606422314 
  1.244553259560748   7.904941833581017  11.673616748318732 
 12.446928455166319   1.437247498834912   5.002978606422314 
 -2.489385691033299  10.060732491844133  11.673616748318732 
 -1.244909258876590   3.593280516973906  11.673616748318732 
  3.733921897948386   3.593253736688980  11.673616748318732 
  2.489350957501471  10.060737294645127  11.673616748318732 
  7.468191806631620  10.060737294645127  11.673616748318732 
  8.712573235642296   3.593278490076806  11.673616748318732 
 -4.974973480709297  10.062132546542552   5.002978606422314 
 -0.003797901357289  10.062132546542552   5.002978606422314 
  1.235442598090664   3.587778114245741   5.002978606422314 
  4.978771382066538  10.071413757527038   5.002978606422314 
  6.241202100299256   3.564091259958561   5.002978606422314 
 11.205361296297088   3.592288012112708   5.002978606422314 
 -2.489385691033234   5.748775138045639  11.673616748318732 
 -3.733840836114214  12.216771977881137  11.673616748318732 
  1.244878917391333  12.216711168743323  11.673616748318732 
  2.489424276156895   5.748786847530493  11.673616748318732 
  6.223712531094602  12.216710274620507  11.673616748318732 
 -6.221857419552057  12.215676049047110   5.002978606422314 
  7.468118487976176   5.748786847530493  11.673616748318732 
 -1.245379313259766  12.212614633690759   5.002978606422314 
 -0.014252483989888   5.750812118259240   5.002978606422314 
 -1.247804279130814   7.907450295299071   5.002978606422314 
  3.733235130817946  12.219726031624555   5.002978606422314 
  9.971795248122973   5.750812118259240   5.002978606422314 
 -3.734343084963213   7.904982979315291  11.673616748318732 
  2.489398898451487   1.437215017313481  11.673616748318732 
  6.223269003858027   7.904929401799049  11.673616748318732 
  7.468143865681598   1.437215017313481  11.673616748318732 
 12.446928455166319   1.437247498834912  11.673616748318732 
  1.242972289597506   0.714772755041425   5.002978606422314 
  4.978771382066595   7.205876664971458   5.002978606422314 
  6.222535298906045   0.715997412692379   5.002978606422314 
  9.959352774117328   7.188355138369612   5.002978606422314 
 11.202050337678319   0.718516782594875   5.002978606422314 
 -3.735442704001275   9.341321139981378  11.673616748318732 
  1.243769495951896   9.341197692489310  11.673616748318732 
  2.489854376272260   2.876317288948298  11.673616748318732 
  6.222120419662368   9.340791703464070  11.673616748318732 
  7.467688387860931   2.876317288948298  11.673616748318732 
 12.446928455166365   2.876053803657134  11.673616748318732 
 -1.245346964862126   9.342486398406891   5.002978606422314 
 -0.001050252134098   2.873888634317371   5.002978606422314 
  4.978771382066535   2.876608894663328   5.002978606422314 
  3.726881271877780   9.350652910110528   5.002978606422314 
  8.715588857277819   9.342617434956530   5.002978606422314 
  9.958593016267272   2.873888634317371   5.002978606422314 
 -4.978805312037255  11.497999580156712  11.673616748318732 
  0.000033929970779  11.497999580156712  11.673616748318732 
  1.246505338676483   5.029860993606065  11.673616748318732 
  6.223984443673875   5.030065899022068  11.673616748318732 
  4.978771382066591  11.497612329413739  11.673616748318732 
 11.203261696718480   5.029767136304148  11.673616748318732 
 -1.248888182435628   5.030801697975408   5.002978606422314 
 -2.489385691033231  11.497224678718524   5.002978606422314 
  2.486910910033463  11.501395533001583   5.002978606422314 
  3.717070515730397   5.020546660523480   5.002978606422314 
  7.470631854099733  11.501395533001583   5.002978606422314 
  8.723848017221011   5.032327176123967   5.002978606422314 
  0.000327317607509   7.187492663322700  11.673616748318732 
  1.243660957833575   0.718034686758376  11.673616748318732 
  4.978771382066591   7.186838187974294  11.673616748318732 
  6.222213560410919   0.718279630206513  11.673616748318732 
  9.957215446525563   7.187492663322700  11.673616748318732 
 -2.489385691033248   7.187829176164689   5.002978606422314 
 11.200885644065089   0.717844346423763  11.673616748318732 
  3.735007465227024   0.715997412692379   5.002978606422314 
  2.491216379530682   7.185180545677583   5.002978606422314 
  7.466326384602407   7.185180545677583   5.002978606422314 
  8.714570474535666   0.714772755041425   5.002978606422314 
  2.489873583604079   7.185955809267292  11.673616748318732 
 13.691806572654411   0.718516782594875   5.002978606422314 
 -1.243328678065204   9.341321139981378  11.673616748318732 
  0.000318403995713   2.874678828302346  11.673616748318732 
  4.978771382066543   2.875058367483951  11.673616748318732 
  3.735422344470828   9.340791703464070  11.673616748318732 
  8.713773268181180   9.341197692489310  11.673616748318732 
  9.957224360137461   2.874678828302346  11.673616748318732 
 -3.733424417204339   9.342486398406891   5.002978606422314 
  1.241953906855257   9.342617434956530   5.002978606422314 
  2.485584857100974   2.863989899783935   5.002978606422314 
  6.230661492255399   9.350652910110528   5.002978606422314 
  7.471957907032200   2.863989899783935   5.002978606422314 
 12.446928455166358   2.874708931314894   5.002978606422314 
 -1.245718932585305   5.029767136304148  11.673616748318732 
 -2.489385691033238  11.499555195569540  11.673616748318732 
  2.489391491647726  11.499168162955909  11.673616748318732 
  3.733558320459304   5.030065899022068  11.673616748318732 
  7.468151272485471  11.499168162955909  11.673616748318732 
 -4.977392945028149  11.497184149683809   5.002978606422314 
  8.711037425456693   5.029860993606065  11.673616748318732 
 -0.001378437038345  11.497184149683809   5.002978606422314 
  1.233694746912165   5.032327176123967   5.002978606422314 
 -0.001810009984256   7.188355138369612   5.002978606422314 
  6.240472248402792   5.020546660523480   5.002978606422314 
  4.978771382066590  11.499192717383687   5.002978606422314 
 11.206430946568803   5.030801697975408   5.002978606422314 
 -2.489385691033240   7.186198315218870  11.673616748318732 
  3.735329203722149   0.718279630206513  11.673616748318732 
  7.467669180528996   7.185955809267292  11.673616748318732 
  8.713881806299614   0.718034686758376  11.673616748318732 
 13.692971266267639   0.717844346423763  11.673616748318732 
  0.000153895287436   1.436819425185993   1.667549880820185 
  3.736667205151338   7.903186582716124   1.669708171410581 
  4.978771382066474   1.438947906436756   1.668671407480393 
  8.711377322436412   7.904011039790934   1.668671407480393 
  9.957388868845632   1.436819425185993   1.667549880820185 
 -4.979646347640690  10.059519060318642   8.338371699457083 
  0.000874965574106  10.059519060318642   8.338371699457083 
  1.246505899965378   3.594165514561243   8.337546331300079 
  4.978771382066539  10.058638956896036   8.337546331300079 
  6.223308263022821   3.596197930295869   8.336249041434048 
 11.202529384660631   3.593466061140102   8.338407332024444 
 -2.489385691033300  10.060732491844131   1.667676102390427 
 -1.244986620527561   3.593466061140101   1.667549880820185 
  3.734234501110251   3.596197930295868   1.669708171410581 
  2.490531617527167  10.059728653607593   1.668401780912697 
  7.467011146605910  10.059728653607593   1.668401780912697 
  8.711036864167692   3.594165514561242   1.668410881544549 
 -6.224490081493529  12.217196017127712   8.338357680183876 
 -1.245306225256416  12.217968198273807   8.338371699457083 
  0.001442312661073   5.748499513003170   8.337555431931930 
  4.978771382066590   5.748989995339477   8.318983260178852 
  3.733630866251540  12.216684499692425   8.338407332024444 
  9.956100451472015   5.748499513003170   8.337555431931930 
 -2.489385691033235   5.747805441276855   1.667599532660753 
 -3.733465156810167  12.217968198273807   1.667585513387546 
  1.245718699427066  12.217196017127712   1.667599532660753 
  2.492130324195053   5.747585473006526   1.669708171410581 
  6.223911897881536  12.216684499692425   1.667549880820185 
  7.465412439938019   5.747585473006526   1.669708171410581 
 -1.243204500202763   7.904710216939922   8.338371699457083 
  0.000153895287436   1.436819425185993   8.338407332024444 
  3.736667205151339   7.903186582716125   8.336249041434048 
  4.978771382066475   1.438947906436757   8.337285805364250 
  8.711377322436412   7.904011039790935   8.337285805364250 
 -3.735566881863809   7.904710216939921   1.667585513387546 
  9.957388868845632   1.436819425185993   8.338407332024444 
  2.489682077200434   1.438741819407745   1.668401780912697 
  1.246165441696539   7.904011039790934   1.668671407480393 
  6.220875558981735   7.903186582716124   1.669708171410581 
  7.467860686932634   1.438741819407745   1.668401780912697 
  1.246165441696540   7.904011039790935   8.337285805364250 
 12.446928455166319   1.437247498834911   1.667677430820036 
 -2.489385691033300  10.060732491844131   8.338281110454201 
 -1.244986620527561   3.593466061140102   8.338407332024444 
  3.734234501110251   3.596197930295869   8.336249041434048 
  2.490531617527167  10.059728653607593   8.337555431931930 
  7.467011146605911  10.059728653607593   8.337555431931930 
  8.711036864167692   3.594165514561243   8.337546331300079 
 -4.979646347640691  10.059519060318642   1.667585513387546 
  0.000874965574106  10.059519060318642   1.667585513387546 
  1.246505899965377   3.594165514561242   1.668410881544549 
  4.978771382066538  10.058638956896036   1.668410881544549 
  6.223308263022820   3.596197930295868   1.669708171410581 
 11.202529384660631   3.593466061140101   1.667549880820185 
 -2.489385691033234   5.747805441276856   8.338357680183876 
 -3.733465156810167  12.217968198273807   8.338371699457083 
  1.245718699427066  12.217196017127712   8.338357680183876 
  2.492130324195053   5.747585473006527   8.336249041434048 
  6.223911897881536  12.216684499692425   8.338407332024444 
 -6.224490081493530  12.217196017127712   1.667599532660753 
  7.465412439938020   5.747585473006527   8.336249041434048 
 -1.245306225256416  12.217968198273807   1.667585513387546 
  0.001442312661073   5.748499513003170   1.668401780912697 
 -1.243204500202763   7.904710216939921   1.667585513387546 
  4.978771382066589   5.748989995339476   1.686973952665775 
  3.733630866251540  12.216684499692425   1.667549880820185 
  9.956100451472015   5.748499513003170   1.668401780912697 
 -3.735566881863809   7.904710216939922   8.338371699457083 
  2.489682077200435   1.438741819407745   8.337555431931930 
  6.220875558981736   7.903186582716125   8.336249041434048 
  7.467860686932635   1.438741819407745   8.337555431931930 
 12.446928455166319   1.437247498834912   8.338279782024591 
  4.978771382066589   5.748989995339477   5.002978606422314 
Generated by cif2cell 2.0.0.  :  Failed to get author information, No journal information. Species order: N B C 
 1.0
 14.936314146199660   0.000000000000000   0.000000000000000
 -7.468157073099825  12.935227489513863   0.000000000000000
  0.000000000000001   0.000000000000001  13.341276283792837
 N B C 
 143 144   1
Cartesian
  1.244509368136779   0.718627087296499   1.666829367604699 
  4.978771382066595   7.187026516020981   1.658211010052483 
  6.223499758542727   0.718803415119460   1.666611847208158 
  9.957404934550736   7.186116890609780   1.666611847208158 
 11.202214177223700   0.718611375400514   1.666799957636613 
 -3.734265103047869   9.342001028208825   8.338987144840129 
  1.244866206058531   9.342049680289280   8.339345365636470 
  2.489158772297128   2.874601192020926   8.340213398936461 
  6.223258801209262   9.342252162641191   8.340213398936461 
  7.468383991836062   2.874601192020926   8.340213398936461 
 12.446928455166365   2.874519745703628   8.339157255208015 
 -1.244506279018612   9.342001028208825   1.666970068004500 
 -0.000244117191425   2.874354056543526   1.665826415309123 
  4.978771382066535   2.874573124605245   1.665092425966388 
  3.734283962923933   9.342252162641191   1.665743813908167 
  8.712676558074545   9.342049680289280   1.666611847208158 
  9.957786881324598   2.874354056543526   1.665826415309123 
 -4.978877962165918  11.498041524728050   8.339600687511721 
  0.000106580099442  11.498041524728050   8.339600687511721 
  1.244671353154465   5.030116631356300   8.340213398936461 
  6.224147540546553   5.029971734998731   8.347746202792143 
  4.978771382066591  11.498261872931376   8.340130797535505 
 11.202324457651647   5.030205680910494   8.339127845239915 
 -1.244781693518471   5.030205680910493   1.666829367604699 
 -2.489385691033240  11.498195419114644   1.666970068004500 
  2.489480320411340  11.498137217811436   1.666829367604699 
  3.733395223586621   5.029971734998730   1.658211010052483 
  7.468062443721844  11.498137217811436   1.666829367604699 
  8.712871410978726   5.030116631356299   1.665743813908167 
  0.000137829582337   7.186116890609781   8.339345365636470 
  1.244509368136780   0.718627087296500   8.339127845239915 
  4.978771382066596   7.187026516020982   8.347746202792143 
  6.223499758542728   0.718803415119460   8.339345365636470 
  9.957404934550736   7.186116890609781   8.339345365636470 
 -2.489385691033241   7.186114426076189   1.666356525332905 
 11.202214177223700   0.718611375400515   8.339157255208015 
  3.734043005590341   0.718803415119460   1.666611847208158 
  2.489453350944111   7.186198430706637   1.665092425966388 
  7.468089413188962   7.186198430706637   1.665092425966388 
  8.713033395996394   0.718627087296499   1.666829367604699 
  2.489453350944112   7.186198430706638   8.340864786878241 
 13.691642733109026   0.718611375400514   1.666799957636613 
 -1.244506279018612   9.342001028208825   8.338987144840129 
 -0.000244117191425   2.874354056543527   8.340130797535505 
  4.978771382066536   2.874573124605246   8.340864786878241 
  3.734283962923933   9.342252162641191   8.340213398936461 
  8.712676558074545   9.342049680289280   8.339345365636470 
  9.957786881324598   2.874354056543527   8.340130797535505 
 -3.734265103047869   9.342001028208825   1.666970068004500 
  1.244866206058530   9.342049680289280   1.666611847208158 
  2.489158772297128   2.874601192020926   1.665743813908167 
  6.223258801209261   9.342252162641191   1.665743813908167 
  7.468383991836061   2.874601192020926   1.665743813908167 
 12.446928455166365   2.874519745703628   1.666799957636613 
 -1.244781693518471   5.030205680910494   8.339127845239915 
 -2.489385691033239  11.498195419114644   8.338987144840129 
  2.489480320411340  11.498137217811436   8.339127845239915 
  3.733395223586622   5.029971734998731   8.347746202792143 
  7.468062443721845  11.498137217811436   8.339127845239915 
 -4.978877962165919  11.498041524728050   1.666356525332905 
  8.712871410978726   5.030116631356300   8.340213398936461 
  0.000106580099441  11.498041524728050   1.666356525332905 
  1.244671353154464   5.030116631356299   1.665743813908167 
  0.000137829582337   7.186116890609780   1.666611847208158 
  6.224147540546552   5.029971734998730   1.658211010052483 
  4.978771382066590  11.498261872931376   1.665826415309123 
 11.202324457651647   5.030205680910493   1.666829367604699 
 -2.489385691033241   7.186114426076190   8.339600687511721 
  3.734043005590342   0.718803415119460   8.339345365636470 
  7.468089413188963   7.186198430706638   8.340864786878241 
  8.713033395996394   0.718627087296500   8.339127845239915 
 13.691642733109026   0.718611375400515   8.339157255208015 
 -0.002282280915405   1.434955942281244   5.002978606422314 
  3.717808931646516   7.934736435537359   5.002978606422314 
  4.978771382066475   1.428150866984608   5.002978606422314 
  8.720727832887643   7.909409559516996   5.002978606422314 
  9.959825045048488   1.434955942281244   5.002978606422314 
 -4.978798230044134  10.060442518335961  11.673616748318732 
  0.000026847977552  10.060442518335961  11.673616748318732 
  1.244969528490776   3.593278490076806  11.673616748318732 
  4.978771382066539  10.060413005864911  11.673616748318732 
  6.223620866184686   3.593253736688980  11.673616748318732 
 11.202452023009659   3.593280516973906  11.673616748318732 
 -2.489385691033300  10.060732491844131   5.002978606422314 
 -1.247818532164004   3.592288012112708   5.002978606422314 
  3.716340663833814   3.564091259958561   5.002978606422314 
  2.480681444301011  10.072164443586534   5.002978606422314 
  7.476861319832063  10.072164443586534   5.002978606422314 
  8.722100166042422   3.587778114245741   5.002978606422314 
 -6.223650299457795  12.216711168743323  11.673616748318732 
 -1.244930545952368  12.216771977881137  11.673616748318732 
 -0.000021526113586   5.749017674059901  11.673616748318732 
  4.978771382066590   5.748989995339477  11.673616748318732 
  3.733830233038477  12.216710274620507  11.673616748318732 
  9.957564290246673   5.749017674059901  11.673616748318732 
 -2.489385691033242   5.750845377438050   5.002978606422314 
 -3.733392068806815  12.212614633690759   5.002978606422314 
  1.243086037485593  12.215676049047110   5.002978606422314 
  2.455378213413794   5.748142290522602   5.002978606422314 
  6.224307633315146  12.219726031624555   5.002978606422314 
  7.502164550719277   5.748142290522602   5.002978606422314 
 -1.244428297103373   7.904982979315291  11.673616748318732 
  0.000031890151472   1.436979194424111  11.673616748318732 
  3.734273760275046   7.904929401799049  11.673616748318732 
  4.978771382066483   1.437086318856579  11.673616748318732 
  8.712989504572221   7.904941833581017  11.673616748318732 
 -3.730967102935771   7.907450295299071   5.002978606422314 
  9.957510873981596   1.436979194424111  11.673616748318732 
  2.483837453775636   1.423993424172747   5.002978606422314 
  1.236814931245324   7.909409559516996   5.002978606422314 
  6.239733832486556   7.934736435537359   5.002978606422314 
  7.473705310357446   1.423993424172747   5.002978606422314 
  1.244553259560748   7.904941833581017  11.673616748318732 
 12.446928455166319   1.437247498834912   5.002978606422314 
 -2.489385691033299  10.060732491844133  11.673616748318732 
 -1.244909258876590   3.593280516973906  11.673616748318732 
  3.733921897948386   3.593253736688980  11.673616748318732 
  2.489350957501471  10.060737294645127  11.673616748318732 
  7.468191806631620  10.060737294645127  11.673616748318732 
  8.712573235642296   3.593278490076806  11.673616748318732 
 -4.974973480709297  10.062132546542552   5.002978606422314 
 -0.003797901357289  10.062132546542552   5.002978606422314 
  1.235442598090664   3.587778114245741   5.002978606422314 
  4.978771382066538  10.071413757527038   5.002978606422314 
  6.241202100299256   3.564091259958561   5.002978606422314 
 11.205361296297088   3.592288012112708   5.002978606422314 
 -2.489385691033234   5.748775138045639  11.673616748318732 
 -3.733840836114214  12.216771977881137  11.673616748318732 
  1.244878917391333  12.216711168743323  11.673616748318732 
  2.489424276156895   5.748786847530493  11.673616748318732 
  6.223712531094602  12.216710274620507  11.673616748318732 
 -6.221857419552057  12.215676049047110   5.002978606422314 
  7.468118487976176   5.748786847530493  11.673616748318732 
 -1.245379313259766  12.212614633690759   5.002978606422314 
 -0.014252483989888   5.750812118259240   5.002978606422314 
 -1.247804279130814   7.907450295299071   5.002978606422314 
  3.733235130817946  12.219726031624555   5.002978606422314 
  9.971795248122973   5.750812118259240   5.002978606422314 
 -3.734343084963213   7.904982979315291  11.673616748318732 
  2.489398898451487   1.437215017313481  11.673616748318732 
  6.223269003858027   7.904929401799049  11.673616748318732 
  7.468143865681598   1.437215017313481  11.673616748318732 
 12.446928455166319   1.437247498834912  11.673616748318732 
  1.242972289597506   0.714772755041425   5.002978606422314 
  4.978771382066595   7.205876664971458   5.002978606422314 
  6.222535298906045   0.715997412692379   5.002978606422314 
  9.959352774117328   7.188355138369612   5.002978606422314 
 11.202050337678319   0.718516782594875   5.002978606422314 
 -3.735442704001275   9.341321139981378  11.673616748318732 
  1.243769495951896   9.341197692489310  11.673616748318732 
  2.489854376272260   2.876317288948298  11.673616748318732 
  6.222120419662368   9.340791703464070  11.673616748318732 
  7.467688387860931   2.876317288948298  11.673616748318732 
 12.446928455166365   2.876053803657134  11.673616748318732 
 -1.245346964862126   9.342486398406891   5.002978606422314 
 -0.001050252134098   2.873888634317371   5.002978606422314 
  4.978771382066535   2.876608894663328   5.002978606422314 
  3.726881271877780   9.350652910110528   5.002978606422314 
  8.715588857277819   9.342617434956530   5.002978606422314 
  9.958593016267272   2.873888634317371   5.002978606422314 
 -4.978805312037255  11.497999580156712  11.673616748318732 
  0.000033929970779  11.497999580156712  11.673616748318732 
  1.246505338676483   5.029860993606065  11.673616748318732 
  6.223984443673875   5.030065899022068  11.673616748318732 
  4.978771382066591  11.497612329413739  11.673616748318732 
 11.203261696718480   5.029767136304148  11.673616748318732 
 -1.248888182435628   5.030801697975408   5.002978606422314 
 -2.489385691033231  11.497224678718524   5.002978606422314 
  2.486910910033463  11.501395533001583   5.002978606422314 
  3.717070515730397   5.020546660523480   5.002978606422314 
  7.470631854099733  11.501395533001583   5.002978606422314 
  8.723848017221011   5.032327176123967   5.002978606422314 
  0.000327317607509   7.187492663322700  11.673616748318732 
  1.243660957833575   0.718034686758376  11.673616748318732 
  4.978771382066591   7.186838187974294  11.673616748318732 
  6.222213560410919   0.718279630206513  11.673616748318732 
  9.957215446525563   7.187492663322700  11.673616748318732 
 -2.489385691033248   7.187829176164689   5.002978606422314 
 11.200885644065089   0.717844346423763  11.673616748318732 
  3.735007465227024   0.715997412692379   5.002978606422314 
  2.491216379530682   7.185180545677583   5.002978606422314 
  7.466326384602407   7.185180545677583   5.002978606422314 
  8.714570474535666   0.714772755041425   5.002978606422314 
  2.489873583604079   7.185955809267292  11.673616748318732 
 13.691806572654411   0.718516782594875   5.002978606422314 
 -1.243328678065204   9.341321139981378  11.673616748318732 
  0.000318403995713   2.874678828302346  11.673616748318732 
  4.978771382066543   2.875058367483951  11.673616748318732 
  3.735422344470828   9.340791703464070  11.673616748318732 
  8.713773268181180   9.341197692489310  11.673616748318732 
  9.957224360137461   2.874678828302346  11.673616748318732 
 -3.733424417204339   9.342486398406891   5.002978606422314 
  1.241953906855257   9.342617434956530   5.002978606422314 
  2.485584857100974   2.863989899783935   5.002978606422314 