Species order:X N B                     
   2.51242800000000     
     5.9449720136058266    0.0000000000000000    0.0000000000000000
    -2.9724860068029120    5.1484967885702053   -0.0000000000000001
     0.0000000000000000    0.0000000000000009    5.3101128803662583
   O    N    B 
     2   143   143
Direct
  0.4275604633842392  0.3804468983587838  0.3750000000000000
  0.5851335981337452  0.4592334657335369  0.3750000000000000
  0.1110773075786815  0.0555489216500093  0.1250168255465112
  0.6111089194548927  0.5555359127340832  0.1254922863342292
  0.4444275486705427  0.0555637303380613  0.1250274360970992
  0.9444452734289487  0.5555517879923895  0.1250206644368926
  0.7777357018979175  0.0555345176156267  0.1250046313532755
  0.1111058571878806  0.7222195952606050  0.6249901232544087
  0.4444275486705427  0.7221971516658167  0.6249725639029013
  0.2777257997554595  0.2222177635449790  0.6249227738417987
  0.7777753239323837  0.7222251846449723  0.6250289226289875
  0.6110952405783917  0.2222254758026779  0.6249415380259956
  0.9443953469096650  0.2221970196200782  0.6250142695544733
  0.2777678586145786  0.7222102624258498  0.1250053532627042
  0.1110369461372055  0.2221851397352670  0.1249544069164004
  0.4444408217999257  0.2222446148024883  0.1251387445091164
  0.6110952405783917  0.7222030981090420  0.1250584619740039
  0.9444452734289487  0.7222268187698943  0.1250206644368926
  0.7777524279176186  0.2222087876313925  0.1250011793129356
  0.1111022194449652  0.8888941954690242  0.6249845787995360
  0.4444246865876525  0.8888790099604913  0.6249831401533675
  0.2777257997554595  0.3888413695438093  0.6249227738417987
  0.6111089194548927  0.3889063400541373  0.6245077136657711
  0.7777524279176186  0.8888769736195546  0.6249988206870648
  0.9444306594208832  0.3888753527819416  0.6249952667444751
  0.1110773075786815  0.3888617192620007  0.1250168255465112
  0.2777678586145786  0.8888909295220581  0.1250053532627042
  0.6110800290778493  0.8888701222181249  0.1250184512286097
  0.4444137794986352  0.3888735564159823  0.1248582906243360
  0.9444306594208832  0.8888886399722702  0.1250047332555253
  0.7777753239323837  0.3888834726207403  0.1249710773710129
  0.2777638352944053  0.5555294315190050  0.6249818412322234
  0.1110773075786815  0.0555489216500093  0.6249831744534886
  0.6111089194548927  0.5555359127340832  0.6245077136657711
  0.4444275486705427  0.0555637303380613  0.6249725639029013
  0.9444452734289487  0.5555517879923895  0.6249793355631074
  0.1111022194449652  0.5555413573092701  0.1250154212004636
  0.7777357018979175  0.0555345176156267  0.6249953686467239
  0.2777638352944053  0.0555677371087363  0.1250181587677766
  0.4444408217999257  0.5555295403307720  0.1251387445091164
  0.7777841826671817  0.5555587580002588  0.1250358746306237
  0.6110800290778493  0.0555432401930533  0.1250184512286097
  0.4444408217999257  0.5555295403307720  0.6248612554908844
  0.9443953469096650  0.0555316606229228  0.1249857304455270
  0.2777678586145786  0.7222102624258498  0.6249946467372955
  0.1110369461372055  0.2221851397352670  0.6250455930835999
  0.4444408217999257  0.2222446148024883  0.6248612554908844
  0.6110952405783917  0.7222030981090420  0.6249415380259956
  0.9444452734289487  0.7222268187698943  0.6249793355631074
  0.7777524279176186  0.2222087876313925  0.6249988206870648
  0.1111058571878806  0.7222195952606050  0.1250098767455917
  0.4444275486705427  0.7221971516658167  0.1250274360970992
  0.2777257997554595  0.2222177635449790  0.1250772261582008
  0.7777753239323837  0.7222251846449723  0.1249710773710129
  0.6110952405783920  0.2222254758026779  0.1250584619740039
  0.9443953469096650  0.2221970196200782  0.1249857304455270
  0.1110773075786815  0.3888617192620007  0.6249831744534886
  0.2777678586145786  0.8888909295220581  0.6249946467372955
  0.6110800290778493  0.8888701222181249  0.6249815487713893
  0.4444137794986352  0.3888735564159823  0.6251417093756639
  0.9444306594208832  0.8888886399722702  0.6249952667444751
  0.1111022194449652  0.8888941954690242  0.1250154212004636
  0.7777753239323837  0.3888834726207403  0.6250289226289875
  0.4444246865876525  0.8888790099604913  0.1250168598466324
  0.2777257997554595  0.3888413695438093  0.1250772261582008
  0.2777638352944053  0.5555294315190050  0.1250181587677766
  0.6111089194548927  0.3889063400541373  0.1254922863342292
  0.7777524279176186  0.8888769736195546  0.1250011793129356
  0.9444306594208832  0.3888753527819416  0.1250047332555253
  0.1111022194449652  0.5555413573092701  0.6249845787995360
  0.2777638352944053  0.0555677371087363  0.6249818412322234
  0.7777841826671817  0.5555587580002588  0.6249641253693757
  0.6110800290778493  0.0555432401930533  0.6249815487713893
  0.9443953469096650  0.0555316606229228  0.6250142695544733
  0.0517620684555016  0.1088240133711689  0.3750000000000000
  0.5561242997203295  0.6062748488738970  0.3750000000000000
  0.3888119241121740  0.1148667984198263  0.3750000000000000
  0.8941724993669865  0.6137529163501649  0.3750000000000000
  0.7205784282846348  0.1107342233706061  0.3750000000000000
  0.0555496772728818  0.7777753753978012  0.8750000000000000
  0.3888855852119306  0.7777766262226995  0.8750000000000000
  0.2222172083456221  0.2777752708394789  0.8750000000000000
  0.7222180313059573  0.7777754703427352  0.8750000000000000
  0.5555515813244530  0.2777774300018304  0.8750000000000000
  0.8888863648505161  0.2777779457751400  0.8750000000000000
  0.2242068647103871  0.7787700990218618  0.3750000000000000
  0.0517620684555016  0.2762713884176684  0.3750000000000000
  0.3772389878343598  0.2729554070928411  0.3750000000000000
  0.5551117409308103  0.7752516572188973  0.3750000000000000
  0.8923147035445976  0.7800478956208665  0.3750000000000000
  0.7220679878415420  0.2786438610135493  0.3750000000000000
  0.0555498975700315  0.9444408033465559  0.8750000000000000
  0.3888855852119306  0.9444422923225667  0.8750000000000000
  0.2222164368450779  0.4444424685539173  0.8750000000000000
  0.5555524704961259  0.4444429019147272  0.8750000000000000
  0.7222165025385426  0.9444414895655424  0.8750000000000000
  0.8888864160925228  0.4444430457231313  0.8750000000000000
  0.0554198131355812  0.4444578969090611  0.3750000000000000
  0.2233834481440828  0.9456859019104912  0.3750000000000000
  0.5550136599446631  0.9441734966389962  0.3750000000000000
  0.3772389878343598  0.4376169140748539  0.3750000000000000
  0.8872652028282610  0.9432688106401762  0.3750000000000000
  0.7311228732483774  0.4475106702459689  0.3750000000000000
  0.2222157913250752  0.6111082846281167  0.8750000000000000
  0.0555504171636464  0.1111068239796627  0.8750000000000000
  0.5555515813244530  0.6111074846559588  0.8750000000000000
  0.3888849388743578  0.1111092449847279  0.8750000000000000
  0.8888852708758858  0.6111093021046137  0.8750000000000000
  0.0584278929235273  0.6123446851128148  0.3750000000000000
  0.7222165025385426  0.1111083463063358  0.8750000000000000
  0.2185568370048100  0.1087554979295237  0.3750000000000000
  0.3888119241121740  0.6072784590256908  0.3750000000000000
  0.7311228732483774  0.6169455363357448  0.3750000000000000
  0.5551117409308103  0.1131934170452484  0.3750000000000000
  0.3888849388743578  0.6111090272229732  0.8750000000000000
  0.8861416231832768  0.1097374782583100  0.3750000000000000
  0.2222166317666729  0.7777749825500051  0.8750000000000000
  0.0555504171636464  0.2777769265173192  0.8750000000000000
  0.3888853822155465  0.2777755076627476  0.8750000000000000
  0.5555501868246379  0.7777755906550637  0.8750000000000000
  0.8888864160925228  0.7777767037027277  0.8750000000000000
  0.7222180313059573  0.2777758942965579  0.8750000000000000
  0.0584278929235273  0.7794165411440487  0.3750000000000000
  0.3896734725704611  0.7769315430893537  0.3750000000000000
  0.2148002006594424  0.2740667669963888  0.3750000000000000
  0.7220679878415420  0.7767574601613280  0.3750000000000000
  0.5561242997203295  0.2831827841797677  0.3750000000000000
  0.8872652028282610  0.2773297255214194  0.3750000000000000
  0.0555498975700315  0.4444424275568042  0.8750000000000000
  0.2222157913250752  0.9444408400302939  0.8750000000000000
  0.5555495577829600  0.9444414455581441  0.8750000000000000
  0.3888853822155465  0.4444432078861347  0.8750000000000000
  0.8888863648505161  0.9444417524087113  0.8750000000000000
  0.0554198131355812  0.9442952495598496  0.3750000000000000
  0.7222160598205940  0.4444417069984836  0.8750000000000000
  0.3896734725704611  0.9460752628144427  0.3750000000000000
  0.2185568370048100  0.4431346724086221  0.3750000000000000
  0.2233834481440828  0.6110308795669267  0.3750000000000000
  0.7205784282846348  0.9431775382473644  0.3750000000000000
  0.8923147035445976  0.4456001412570673  0.3750000000000000
  0.0555496772728818  0.6111076352084154  0.8750000000000000
  0.2222164368450779  0.1111073016244962  0.8750000000000000
  0.7222160598205940  0.6111076861554463  0.8750000000000000
  0.5555501868246379  0.1111079295029097  0.8750000000000000
  0.8888854697572428  0.1111094015452929  0.8750000000000000
  0.1083094341995799  0.0541993546992412  0.3750000000000000
  0.6217935492288879  0.5603558060204643  0.3750000000000000
  0.4441213471627827  0.0580362653113543  0.3750000000000000
  0.9479869344112474  0.5568516499639677  0.3750000000000000
  0.7754068256848855  0.0543700795091105  0.3750000000000000
  0.1111066614721920  0.7222199974027607  0.8750000000000000
  0.4444373758520415  0.7222137696779478  0.8750000000000000
  0.2777821152984849  0.2222281940735079  0.8750000000000000
  0.7777707297241957  0.7222172441941684  0.8750000000000000
  0.6111013376629937  0.2222233865812120  0.8750000000000000
  0.9444452077638144  0.2222225470497500  0.8750000000000000
  0.2788764357900152  0.7222104481134477  0.3750000000000000
  0.1052718610789605  0.2193025972061447  0.3750000000000000
  0.4434874457915231  0.2274828505741393  0.3750000000000000
  0.6104211632176605  0.7188665015996211  0.3750000000000000
  0.9479869344112474  0.7244686177806153  0.3750000000000000
  0.7762511539796509  0.2218969660746324  0.3750000000000000
  0.1111076985241736  0.8888896228266137  0.8750000000000000
  0.4444386126572305  0.8888859729952796  0.8750000000000000
  0.2777821152984849  0.3888872545583061  0.8750000000000000
  0.6110963627844379  0.3888869321147783  0.8750000000000000
  0.7777740004499892  0.8888856036710631  0.8750000000000000
  0.9444421242442216  0.3888868807602339  0.8750000000000000
  0.1083094341995799  0.3874434128336671  0.3750000000000000
  0.2788764357900152  0.8899993210098965  0.3750000000000000
  0.6097450260790761  0.8871672857870231  0.3750000000000000
  0.9450981577479929  0.8898561006056769  0.3750000000000000
  0.7823659054125500  0.3897801173229684  0.3750000000000000
  0.2777749689603957  0.5555491080450656  0.8750000000000000
  0.1111113332782144  0.0555580893332690  0.8750000000000000
  0.6110963627844379  0.5555427640029879  0.8750000000000000
  0.4444373758520415  0.0555569395074288  0.8750000000000000
  0.9444393283702227  0.5555522945759210  0.8750000000000000
  0.1125042955963248  0.5557088294054893  0.3750000000000000
  0.7777750992696846  0.0555542163015100  0.8750000000000000
  0.2774442511994126  0.0566937664312817  0.3750000000000000
  0.4434874457915231  0.5493379285507202  0.3750000000000000
  0.7843289822353980  0.5588311577843663  0.3750000000000000
  0.6097450260790761  0.0559110736253822  0.3750000000000000
  0.4444362622904539  0.5555426023489158  0.8750000000000000
  0.9413106098366520  0.0538569252705905  0.3750000000000000
  0.2777737440067806  0.7222182305350699  0.8750000000000000
  0.1111150934233436  0.2222242133783361  0.8750000000000000
  0.4444362622904539  0.2222269932748734  0.8750000000000000
  0.6111013376629937  0.7222112844151097  0.8750000000000000
  0.9444393283702227  0.7222203671276368  0.8750000000000000
  0.7777740004499892  0.2222217301122547  0.8750000000000000
  0.1135145903295175  0.7234239618314237  0.3750000000000000
  0.4441213471627829  0.7194184151847643  0.3750000000000000
  0.2690833236650487  0.2181963039461210  0.3750000000000000
  0.7823659054125500  0.7259191214229105  0.3750000000000000
  0.6104211632176605  0.2248879949513689  0.3750000000000000
  0.9413106098366520  0.2207870178993972  0.3750000000000000
  0.1111113332782144  0.3888865772782740  0.8750000000000000
  0.2777737440067806  0.8888888468050381  0.8750000000000000
  0.6111038157397782  0.8888836423360190  0.8750000000000000
  0.4444360765734451  0.3888847049533870  0.8750000000000000
  0.9444421242442216  0.8888885768173157  0.8750000000000000
  0.1125042955963248  0.8901287995241641  0.3750000000000000
  0.7777707297241957  0.3888868188633559  0.8750000000000000
  0.4443015854753964  0.8888174594043623  0.3750000000000000
  0.2690833236650487  0.3842203530522562  0.3750000000000000
  0.2774442511994126  0.5540838181014665  0.3750000000000000
  0.6217935492288879  0.3947710765417523  0.3750000000000000
  0.7762511539796509  0.8876875212383472  0.3750000000000000
  0.9450981577479929  0.3885753904756453  0.3750000000000000
  0.1111076985241736  0.5555514090308900  0.8750000000000000
  0.2777749689603957  0.0555591942486659  0.8750000000000000
  0.7777683511085085  0.5555508422209211  0.8750000000000000
  0.6111038157397782  0.0555535067370872  0.8750000000000000
  0.9444452077638144  0.0555559940473994  0.8750000000000000
  0.0555107287154876  0.1110974731234663  0.1249778378889420
  0.5555179855915550  0.6110619919517113  0.1252140514481764
  0.3888865052732466  0.1111577063925321  0.1250412943110718
  0.8888921910291209  0.6111127621812318  0.1249915304815845
  0.7221938111749915  0.1110987215499281  0.1249979586665783
  0.0555583767118374  0.7777859356640725  0.6250019161436191
  0.3888803420548150  0.7777609580705603  0.6249983072922805
  0.2221851727261613  0.2777592530297484  0.6249976071604487
  0.7222012191359581  0.7777652044061562  0.6250031348507075
  0.5555179855915550  0.2777893269731803  0.6247859485518232
  0.8888620998017940  0.2777593125064077  0.6250089408323077
  0.2222231956527494  0.7777782644930424  0.1249933421228517
  0.0555107287154876  0.2777465889253569  0.1249778378889420
  0.3888926962406699  0.2778612227793548  0.1252296613288850
  0.5555358353631431  0.7777522302037525  0.1250048861686658
  0.8888812828568529  0.7777804409691922  0.1249777131838481
  0.7222012191359581  0.2777693480631374  0.1249968651492923
  0.0555443135608564  0.9444523075300035  0.6250025913526049
  0.3888803420548150  0.9444527173175906  0.6249983072922805
  0.2222118739402447  0.4444032902081966  0.6249847720198518
  0.5554101142152446  0.4443717237742866  0.6245602762261301
  0.7221938111749915  0.9444284229583988  0.6250020413334214
  0.8888812828568529  0.4444341752209963  0.6250222868161526
  0.0555443135608564  0.4444253393641809  0.1249974086473950
  0.2222229193183789  0.9444656585917380  0.1249952484575093
  0.5555332260785242  0.9444332797059258  0.1250029225963247
  0.3888926962406699  0.4443648067946506  0.1252296613288850
  0.8888620998017940  0.9444361206287218  0.1249910591676929
  0.7222047430415933  0.4444378412270391  0.1250969326422386
  0.2222229193183789  0.6110905940599763  0.6250047515424902
  0.0555107287154876  0.1110974731234663  0.6250221621110580
  0.5555179855915550  0.6110619919517113  0.6247859485518232
  0.3888865052732466  0.1111577063925321  0.6249587056889290
  0.8888921910291209  0.6111127621812318  0.6250084695184148
  0.0555583767118374  0.6111057743811005  0.1249980838563809
  0.7221938111749915  0.1110987215499281  0.6250020413334214
  0.2222118739402447  0.1111419170653838  0.1250152279801477
  0.3888865052732466  0.6110621322140565  0.1250412943110718
  0.7222047430415933  0.6111002351478902  0.1250969326422386
  0.5555358353631431  0.1111169384927265  0.1250048861686658
  0.3888865052732466  0.6110621322140565  0.6249587056889290
  0.8888502400591708  0.1110917866962567  0.1249863553565456
  0.2222231956527494  0.7777782644930424  0.6250066578771486
  0.0555107287154876  0.2777465889253569  0.6250221621110580
  0.3888926962406699  0.2778612227793548  0.6247703386711142
  0.5555358353631431  0.7777522302037525  0.6249951138313347
  0.8888812828568529  0.7777804409691922  0.6250222868161526
  0.7222012191359581  0.2777693480631374  0.6250031348507075
  0.0555583767118374  0.7777859356640725  0.1249980838563809
  0.3888803420548150  0.7777609580705603  0.1250016927077192
  0.2221851727261613  0.2777592530297484  0.1250023928395504
  0.7222012191359581  0.7777652044061562  0.1249968651492923
  0.5555179855915550  0.2777893269731803  0.1252140514481764
  0.8888620998017940  0.2777593125064077  0.1249910591676929
  0.0555443135608564  0.4444253393641809  0.6250025913526049
  0.2222229193183789  0.9444656585917380  0.6250047515424902
  0.5555332260785242  0.9444332797059258  0.6249970774036755
  0.3888926962406699  0.4443648067946506  0.6247703386711142
  0.8888620998017940  0.9444361206287218  0.6250089408323077
  0.0555443135608564  0.9444523075300035  0.1249974086473950
  0.7222047430415933  0.4444378412270391  0.6249030673577605
  0.3888803420548150  0.9444527173175906  0.1250016927077192
  0.2222118739402447  0.4444032902081966  0.1250152279801477
  0.2222229193183789  0.6110905940599763  0.1249952484575093
  0.5554101142152446  0.4443717237742866  0.1254397237738705
  0.7221938111749915  0.9444284229583988  0.1249979586665783
  0.8888812828568529  0.4444341752209963  0.1249777131838481
  0.0555583767118374  0.6111057743811005  0.6250019161436191
  0.2222118739402447  0.1111419170653838  0.6249847720198518
  0.7222047430415933  0.6111002351478902  0.6249030673577605
  0.5555358353631431  0.1111169384927265  0.6249951138313347
  0.8888502400591708  0.1110917866962567  0.6250136446434540
 
  0.00000000E+00  0.00000000E+00  0.00000000E+00
  0.00000000E+00  0.00000000E+00  0.00000000E+00
  0.00000000E+00  0.00000000E+00  0.00000000E+00
  0.00000000E+00  0.00000000E+00  0.00000000E+00
  0.00000000E+00  0.00000000E+00  0.00000000E+00
  0.00000000E+00  0.00000000E+00  0.00000000E+00
  0.00000000E+00  0.00000000E+00  0.00000000E+00
  0.00000000E+00  0.00000000E+00  0.00000000E+00
  0.00000000E+00  0.00000000E+00  0.00000000E+00
  0.00000000E+00  0.00000000E+00  0.00000000E+00
  0.00000000E+00  0.00000000E+00  0.00000000E+00
  0.00000000E+00  0.00000000E+00  0.00000000E+00
  0.00000000E+00  0.00000000E+00  0.00000000E+00
  0.00000000E+00  0.00000000E+00  0.00000000E+00
  0.00000000E+00  0.00000000E+00  0.00000000E+00
  0.00000000E+00  0.00000000E+00  0.00000000E+00
  0.00000000E+00  0.00000000E+00  0.00000000E+00
  0.00000000E+00  0.00000000E+00  0.00000000E+00
  0.00000000E+00  0.00000000E+00  0.00000000E+00
  0.00000000E+00  0.00000000E+00  0.00000000E+00
  0.00000000E+00  0.00000000E+00  0.00000000E+00
  0.00000000E+00  0.00000000E+00  0.00000000E+00
  0.00000000E+00  0.00000000E+00  0.00000000E+00
  0.00000000E+00  0.00000000E+00  0.00000000E+00
  0.00000000E+00  0.00000000E+00  0.00000000E+00
  0.00000000E+00  0.00000000E+00  0.00000000E+00
  0.00000000E+00  0.00000000E+00  0.00000000E+00
  0.00000000E+00  0.00000000E+00  0.00000000E+00
  0.00000000E+00  0.00000000E+00  0.00000000E+00
  0.00000000E+00  0.00000000E+00  0.00000000E+00
  0.00000000E+00  0.00000000E+00  0.00000000E+00
  0.00000000E+00  0.00000000E+00  0.00000000E+00
  0.00000000E+00  0.00000000E+00  0.00000000E+00
  0.00000000E+00  0.00000000E+00  0.00000000E+00
  0.00000000E+00  0.00000000E+00  0.00000000E+00
  0.00000000E+00  0.00000000E+00  0.00000000E+00
  0.00000000E+00  0.00000000E+00  0.00000000E+00
  0.00000000E+00  0.00000000E+00  0.00000000E+00
  0.00000000E+00  0.00000000E+00  0.00000000E+00
  0.00000000E+00  0.00000000E+00  0.00000000E+00
  0.00000000E+00  0.00000000E+00  0.00000000E+00
  0.00000000E+00  0.00000000E+00  0.00000000E+00
  0.00000000E+00  0.00000000E+00  0.00000000E+00
  0.00000000E+00  0.00000000E+00  0.00000000E+00
  0.00000000E+00  0.00000000E+00  0.00000000E+00
  0.00000000E+00  0.00000000E+00  0.00000000E+00
  0.00000000E+00  0.00000000E+00  0.00000000E+00
  0.00000000E+00  0.00000000E+00  0.00000000E+00
  0.00000000E+00  0.00000000E+00  0.00000000E+00
  0.00000000E+00  0.00000000E+00  0.00000000E+00
  0.00000000E+00  0.00000000E+00  0.00000000E+00
  0.00000000E+00  0.00000000E+00  0.00000000E+00
  0.00000000E+00  0.00000000E+00  0.00000000E+00
  0.00000000E+00  0.00000000E+00  0.00000000E+00
  0.00000000E+00  0.00000000E+00  0.00000000E+00
  0.00000000E+00  0.00000000E+00  0.00000000E+00
  0.00000000E+00  0.00000000E+00  0.00000000E+00
  0.00000000E+00  0.00000000E+00  0.00000000E+00
  0.00000000E+00  0.00000000E+00  0.00000000E+00
  0.00000000E+00  0.00000000E+00  0.00000000E+00
  0.00000000E+00  0.00000000E+00  0.00000000E+00
  0.00000000E+00  0.00000000E+00  0.00000000E+00
  0.00000000E+00  0.00000000E+00  0.00000000E+00
  0.00000000E+00  0.00000000E+00  0.00000000E+00
  0.00000000E+00  0.00000000E+00  0.00000000E+00
  0.00000000E+00  0.00000000E+00  0.00000000E+00
  0.00000000E+00  0.00000000E+00  0.00000000E+00
  0.00000000E+00  0.00000000E+00  0.00000000E+00
  0.00000000E+00  0.00000000E+00  0.00000000E+00
  0.00000000E+00  0.00000000E+00  0.00000000E+00
  0.00000000E+00  0.00000000E+00  0.00000000E+00
  0.00000000E+00  0.00000000E+00  0.00000000E+00
  0.00000000E+00  0.00000000E+00  0.00000000E+00
  0.00000000E+00  0.00000000E+00  0.00000000E+00
  0.00000000E+00  0.00000000E+00  0.00000000E+00
  0.00000000E+00  0.00000000E+00  0.00000000E+00
  0.00000000E+00  0.00000000E+00  0.00000000E+00
  0.00000000E+00  0.00000000E+00  0.00000000E+00
  0.00000000E+00  0.00000000E+00  0.00000000E+00
  0.00000000E+00  0.00000000E+00  0.00000000E+00
  0.00000000E+00  0.00000000E+00  0.00000000E+00
  0.00000000E+00  0.00000000E+00  0.00000000E+00
  0.00000000E+00  0.00000000E+00  0.00000000E+00
  0.00000000E+00  0.00000000E+00  0.00000000E+00
  0.00000000E+00  0.00000000E+00  0.00000000E+00
  0.00000000E+00  0.00000000E+00  0.00000000E+00
  0.00000000E+00  0.00000000E+00  0.00000000E+00
  0.00000000E+00  0.00000000E+00  0.00000000E+00
  0.00000000E+00  0.00000000E+00  0.00000000E+00
  0.00000000E+00  0.00000000E+00  0.00000000E+00
  0.00000000E+00  0.00000000E+00  0.00000000E+00
  0.00000000E+00  0.00000000E+00  0.00000000E+00
  0.00000000E+00  0.00000000E+00  0.00000000E+00
  0.00000000E+00  0.00000000E+00  0.00000000E+00
  0.00000000E+00  0.00000000E+00  0.00000000E+00
  0.00000000E+00  0.00000000E+00  0.00000000E+00
  0.00000000E+00  0.00000000E+00  0.00000000E+00
  0.00000000E+00  0.00000000E+00  0.00000000E+00
  0.00000000E+00  0.00000000E+00  0.00000000E+00
  0.00000000E+00  0.00000000E+00  0.00000000E+00
  0.00000000E+00  0.00000000E+00  0.00000000E+00
  0.00000000E+00  0.00000000E+00  0.00000000E+00
  0.00000000E+00  0.00000000E+00  0.00000000E+00
  0.00000000E+00  0.00000000E+00  0.00000000E+00
  0.00000000E+00  0.00000000E+00  0.00000000E+00
  0.00000000E+00  0.00000000E+00  0.00000000E+00
  0.00000000E+00  0.00000000E+00  0.00000000E+00
  0.00000000E+00  0.00000000E+00  0.00000000E+00
  0.00000000E+00  0.00000000E+00  0.00000000E+00
  0.00000000E+00  0.00000000E+00  0.00000000E+00
  0.00000000E+00  0.00000000E+00  0.00000000E+00
  0.00000000E+00  0.00000000E+00  0.00000000E+00
  0.00000000E+00  0.00000000E+00  0.00000000E+00
  0.00000000E+00  0.00000000E+00  0.00000000E+00
  0.00000000E+00  0.00000000E+00  0.00000000E+00
  0.00000000E+00  0.00000000E+00  0.00000000E+00
  0.00000000E+00  0.00000000E+00  0.00000000E+00
  0.00000000E+00  0.00000000E+00  0.00000000E+00
  0.00000000E+00  0.00000000E+00  0.00000000E+00
  0.00000000E+00  0.00000000E+00  0.00000000E+00
  0.00000000E+00  0.00000000E+00  0.00000000E+00
  0.00000000E+00  0.00000000E+00  0.00000000E+00
  0.00000000E+00  0.00000000E+00  0.00000000E+00
  0.00000000E+00  0.00000000E+00  0.00000000E+00
  0.00000000E+00  0.00000000E+00  0.00000000E+00
  0.00000000E+00  0.00000000E+00  0.00000000E+00
  0.00000000E+00  0.00000000E+00  0.00000000E+00
  0.00000000E+00  0.00000000E+00  0.00000000E+00
  0.00000000E+00  0.00000000E+00  0.00000000E+00
  0.00000000E+00  0.00000000E+00  0.00000000E+00
  0.00000000E+00  0.00000000E+00  0.00000000E+00
  0.00000000E+00  0.00000000E+00  0.00000000E+00
  0.00000000E+00  0.00000000E+00  0.00000000E+00
  0.00000000E+00  0.00000000E+00  0.00000000E+00
  0.00000000E+00  0.00000000E+00  0.00000000E+00
  0.00000000E+00  0.00000000E+00  0.00000000E+00
  0.00000000E+00  0.00000000E+00  0.00000000E+00
  0.00000000E+00  0.00000000E+00  0.00000000E+00
  0.00000000E+00  0.00000000E+00  0.00000000E+00
  0.00000000E+00  0.00000000E+00  0.00000000E+00
  0.00000000E+00  0.00000000E+00  0.00000000E+00
  0.00000000E+00  0.00000000E+00  0.00000000E+00
  0.00000000E+00  0.00000000E+00  0.00000000E+00
  0.00000000E+00  0.00000000E+00  0.00000000E+00
  0.00000000E+00  0.00000000E+00  0.00000000E+00
  0.00000000E+00  0.00000000E+00  0.00000000E+00
  0.00000000E+00  0.00000000E+00  0.00000000E+00
  0.00000000E+00  0.00000000E+00  0.00000000E+00
  0.00000000E+00  0.00000000E+00  0.00000000E+00
  0.00000000E+00  0.00000000E+00  0.00000000E+00
  0.00000000E+00  0.00000000E+00  0.00000000E+00
  0.00000000E+00  0.00000000E+00  0.00000000E+00
  0.00000000E+00  0.00000000E+00  0.00000000E+00
  0.00000000E+00  0.00000000E+00  0.00000000E+00
  0.00000000E+00  0.00000000E+00  0.00000000E+00
  0.00000000E+00  0.00000000E+00  0.00000000E+00
  0.00000000E+00  0.00000000E+00  0.00000000E+00
  0.00000000E+00  0.00000000E+00  0.00000000E+00
  0.00000000E+00  0.00000000E+00  0.00000000E+00
  0.00000000E+00  0.00000000E+00  0.00000000E+00
  0.00000000E+00  0.00000000E+00  0.00000000E+00
  0.00000000E+00  0.00000000E+00  0.00000000E+00
  0.00000000E+00  0.00000000E+00  0.00000000E+00
  0.00000000E+00  0.00000000E+00  0.00000000E+00
  0.00000000E+00  0.00000000E+00  0.00000000E+00
  0.00000000E+00  0.00000000E+00  0.00000000E+00
  0.00000000E+00  0.00000000E+00  0.00000000E+00
  0.00000000E+00  0.00000000E+00  0.00000000E+00
  0.00000000E+00  0.00000000E+00  0.00000000E+00
  0.00000000E+00  0.00000000E+00  0.00000000E+00
  0.00000000E+00  0.00000000E+00  0.00000000E+00
  0.00000000E+00  0.00000000E+00  0.00000000E+00
  0.00000000E+00  0.00000000E+00  0.00000000E+00
  0.00000000E+00  0.00000000E+00  0.00000000E+00
  0.00000000E+00  0.00000000E+00  0.00000000E+00
  0.00000000E+00  0.00000000E+00  0.00000000E+00
  0.00000000E+00  0.00000000E+00  0.00000000E+00
  0.00000000E+00  0.00000000E+00  0.00000000E+00
  0.00000000E+00  0.00000000E+00  0.00000000E+00
  0.00000000E+00  0.00000000E+00  0.00000000E+00
  0.00000000E+00  0.00000000E+00  0.00000000E+00
  0.00000000E+00  0.00000000E+00  0.00000000E+00
  0.00000000E+00  0.00000000E+00  0.00000000E+00
  0.00000000E+00  0.00000000E+00  0.00000000E+00
  0.00000000E+00  0.00000000E+00  0.00000000E+00
  0.00000000E+00  0.00000000E+00  0.00000000E+00
  0.00000000E+00  0.00000000E+00  0.00000000E+00
  0.00000000E+00  0.00000000E+00  0.00000000E+00
  0.00000000E+00  0.00000000E+00  0.00000000E+00
  0.00000000E+00  0.00000000E+00  0.00000000E+00
  0.00000000E+00  0.00000000E+00  0.00000000E+00
  0.00000000E+00  0.00000000E+00  0.00000000E+00
  0.00000000E+00  0.00000000E+00  0.00000000E+00
  0.00000000E+00  0.00000000E+00  0.00000000E+00
  0.00000000E+00  0.00000000E+00  0.00000000E+00
  0.00000000E+00  0.00000000E+00  0.00000000E+00
  0.00000000E+00  0.00000000E+00  0.00000000E+00
  0.00000000E+00  0.00000000E+00  0.00000000E+00
  0.00000000E+00  0.00000000E+00  0.00000000E+00
  0.00000000E+00  0.00000000E+00  0.00000000E+00
  0.00000000E+00  0.00000000E+00  0.00000000E+00
  0.00000000E+00  0.00000000E+00  0.00000000E+00
  0.00000000E+00  0.00000000E+00  0.00000000E+00
  0.00000000E+00  0.00000000E+00  0.00000000E+00
  0.00000000E+00  0.00000000E+00  0.00000000E+00
  0.00000000E+00  0.00000000E+00  0.00000000E+00
  0.00000000E+00  0.00000000E+00  0.00000000E+00
  0.00000000E+00  0.00000000E+00  0.00000000E+00
  0.00000000E+00  0.00000000E+00  0.00000000E+00
  0.00000000E+00  0.00000000E+00  0.00000000E+00
  0.00000000E+00  0.00000000E+00  0.00000000E+00
  0.00000000E+00  0.00000000E+00  0.00000000E+00
  0.00000000E+00  0.00000000E+00  0.00000000E+00
  0.00000000E+00  0.00000000E+00  0.00000000E+00
  0.00000000E+00  0.00000000E+00  0.00000000E+00
  0.00000000E+00  0.00000000E+00  0.00000000E+00
  0.00000000E+00  0.00000000E+00  0.00000000E+00
  0.00000000E+00  0.00000000E+00  0.00000000E+00
  0.00000000E+00  0.00000000E+00  0.00000000E+00
  0.00000000E+00  0.00000000E+00  0.00000000E+00
  0.00000000E+00  0.00000000E+00  0.00000000E+00
  0.00000000E+00  0.00000000E+00  0.00000000E+00
  0.00000000E+00  0.00000000E+00  0.00000000E+00
  0.00000000E+00  0.00000000E+00  0.00000000E+00
  0.00000000E+00  0.00000000E+00  0.00000000E+00
  0.00000000E+00  0.00000000E+00  0.00000000E+00
  0.00000000E+00  0.00000000E+00  0.00000000E+00
  0.00000000E+00  0.00000000E+00  0.00000000E+00
  0.00000000E+00  0.00000000E+00  0.00000000E+00
  0.00000000E+00  0.00000000E+00  0.00000000E+00
  0.00000000E+00  0.00000000E+00  0.00000000E+00
  0.00000000E+00  0.00000000E+00  0.00000000E+00
  0.00000000E+00  0.00000000E+00  0.00000000E+00
  0.00000000E+00  0.00000000E+00  0.00000000E+00
  0.00000000E+00  0.00000000E+00  0.00000000E+00
  0.00000000E+00  0.00000000E+00  0.00000000E+00
  0.00000000E+00  0.00000000E+00  0.00000000E+00
  0.00000000E+00  0.00000000E+00  0.00000000E+00
  0.00000000E+00  0.00000000E+00  0.00000000E+00
  0.00000000E+00  0.00000000E+00  0.00000000E+00
  0.00000000E+00  0.00000000E+00  0.00000000E+00
  0.00000000E+00  0.00000000E+00  0.00000000E+00
  0.00000000E+00  0.00000000E+00  0.00000000E+00
  0.00000000E+00  0.00000000E+00  0.00000000E+00
  0.00000000E+00  0.00000000E+00  0.00000000E+00
  0.00000000E+00  0.00000000E+00  0.00000000E+00
  0.00000000E+00  0.00000000E+00  0.00000000E+00