B C N O                                 
   1.0000000000000000     
     8.7639499999999995  -15.1796066749929999    0.0000000000000000
     8.7639499999999995   15.1796066749929999    0.0000000000000000
     0.0000000000000000    0.0000000000000000   15.0000000000000000
   B    C    N    O 
    49     1    47     1
Selective dynamics
Direct
  0.9047855806130098  0.9523275095298309  0.1099101524803480   T   T   T
  0.9046527996676427  0.0950916954248287  0.1111914506261380   T   T   T
  0.9046307115537854  0.2380834559566393  0.1111745582006653   T   T   T
  0.9046117736497276  0.3809400574998840  0.1098649058742544   T   T   T
  0.9045297695613761  0.5237942428527652  0.1090330434174310   T   T   T
  0.9044973700833179  0.6665193198398406  0.1105675259776919   T   T   T
  0.9047880602313744  0.8094590828223924  0.1091268641889705   T   T   T
  0.0474223330430200  0.9520572910238736  0.1107201310127779   T   T   T
  0.0470913557699880  0.0945696169133282  0.1112043091511715   T   T   T
  0.0473169790405410  0.2378073640384625  0.1111905590488154   T   T   T
  0.0472789286805408  0.3810046461121919  0.1112346265395044   T   T   T
  0.0469884556766555  0.5239492473410821  0.1107109390762371   T   T   T
  0.0472682484799257  0.6666924504005719  0.1105166051251018   T   T   T
  0.0474248281519477  0.8093862931953602  0.1105224700897011   T   T   T
  0.1902786919911128  0.9521051118553354  0.1111539846036921   T   T   T
  0.1900915570756311  0.0944701836132961  0.1112089460554781   T   T   T
  0.1890834469258631  0.2364323961056601  0.1107879403283419   T   T   T
  0.1900354207629437  0.3808433380750059  0.1108391532485066   T   T   T
  0.1892019144660156  0.5242254622515051  0.1116007284207401   T   T   T
  0.1900180763598037  0.6669803714211754  0.1112746640922546   T   T   T
  0.1902122302673093  0.8095682254069778  0.1110705330859622   T   T   T
  0.3332852041923513  0.9523968787467568  0.1111305620262477   T   T   T
  0.3332536556711113  0.0946800418466944  0.1110324309712546   T   T   T
  0.3328512764206973  0.2362933565401676  0.1099772877540780   T   T   T
  0.3306845508915800  0.3764792694280187  0.1081555412264099   T   T   T
  0.3311045323904642  0.5261511465196983  0.1097579603487387   T   T   T
  0.3330316489470680  0.6679432218497320  0.1114474734144415   T   T   T
  0.3332123726108834  0.8099978096507510  0.1112163764209858   T   T   T
  0.4762654607550640  0.9525163761733620  0.1111216839995457   T   T   T
  0.4762839385399423  0.0954461728881803  0.1107396682646479   T   T   T
  0.4763859631112485  0.2383812521847285  0.1109837408460054   T   T   T
  0.4754059314140203  0.3794255229267926  0.1096648895738142   T   T   T
  0.4800272159383357  0.5264465782001239  0.1090794171741780   T   T   T
  0.4764232674382491  0.6665702695367220  0.1110354277734917   T   T   T
  0.4762423775127411  0.8095733618239676  0.1108756209644583   T   T   T
  0.6191330428677633  0.9523970909358638  0.1107672236587923   T   T   T
  0.6190856698987988  0.0953342661564082  0.1107618702353299   T   T   T
  0.6192793988679907  0.2384433387298120  0.1093288655517552   T   T   T
  0.6206808889055441  0.3824405344635941  0.1126011749197725   T   T   T
  0.6229570275966303  0.5253902984119097  0.1424953089750420   T   T   T
  0.6222106816155325  0.6678557186798070  0.1125510968271412   T   T   T
  0.6195937335168130  0.8096050988233244  0.1093379393898650   T   T   T
  0.7620165065009263  0.9524209522849526  0.1099415753829552   T   T   T
  0.7619055589079609  0.0952788011058716  0.1113438962024155   T   T   T
  0.7618858474007311  0.2381393061711535  0.1099705408693058   T   T   T
  0.7620833113008899  0.3810977795473584  0.1086704063913047   T   T   T
  0.7617487503771875  0.5235799896986839  0.1126615424628928   T   T   T
  0.7619742667502141  0.6666506223576018  0.1125450388823155   T   T   T
  0.7627154130877086  0.8099840943889943  0.1087050434437807   T   T   T
  0.3811135073153196  0.4760751967336629  0.1071422815316872   T   T   T
  0.9524139808479862  0.9047796816691482  0.1096741449980498   T   T   T
  0.9522148292464689  0.0474572890762584  0.1109458782672535   T   T   T
  0.9522611262031770  0.1904176786697042  0.1112940872604389   T   T   T
  0.9522671394218547  0.3332593276268848  0.1108799977949640   T   T   T
  0.9520953361690878  0.4761042967164512  0.1095593028265191   T   T   T
  0.9523448065674829  0.6190331149282106  0.1096968843553507   T   T   T
  0.9524503329860361  0.7619560942570313  0.1097191330332969   T   T   T
  0.0952388649291053  0.9046995389400031  0.1109012367210759   T   T   T
  0.0950535598376016  0.0473225787111938  0.1113123375617914   T   T   T
  0.0944357067375253  0.1896282587018694  0.1111888218898495   T   T   T
  0.0951396458985600  0.3332935384347254  0.1112109477688557   T   T   T
  0.0944325373505444  0.4762535233899317  0.1114353323616795   T   T   T
  0.0949603413228261  0.6191658096246292  0.1109101156216856   T   T   T
  0.0951725199498561  0.7619344315596386  0.1108844863537117   T   T   T
  0.2380850428677494  0.9047994344719191  0.1111124949062483   T   T   T
  0.2380787658205512  0.0473718217297211  0.1112175298492241   T   T   T
  0.2378020147429036  0.1897746454682781  0.1106380013652806   T   T   T
  0.2364581717265924  0.3312870900224588  0.1100515920026446   T   T   T
  0.2366146172492904  0.4766626557139892  0.1110528315123505   T   T   T
  0.2377484878442483  0.6194955381802358  0.1115576932899630   T   T   T
  0.2379933061703094  0.7621729628022982  0.1111644754409847   T   T   T
  0.3810145987027526  0.9050338509662679  0.1110515961447347   T   T   T
  0.3810716785870408  0.0475852534312424  0.1110920006931528   T   T   T
  0.3810462892525879  0.1899364149735392  0.1105511157451555   T   T   T
  0.3807595830318742  0.3317722451002282  0.1084930655985708   T   T   T
  0.3806679855652260  0.6205919992321189  0.1109786834970544   T   T   T
  0.3810160428858307  0.7627219949888098  0.1113052121073848   T   T   T
  0.5238588022123971  0.9047479770236442  0.1109750851868089   T   T   T
  0.5238238995269997  0.0477659246847548  0.1109484536812866   T   T   T
  0.5238455022214741  0.1908186018199591  0.1102758592753899   T   T   T
  0.5240276978047705  0.3343986101127975  0.1120456184290419   T   T   T
  0.5261388964762810  0.6194681857299685  0.1118705581866440   T   T   T
  0.5238866340321587  0.7615398412638333  0.1103413884732632   T   T   T
  0.6667014984128343  0.9047647382418531  0.1097516112832142   T   T   T
  0.6666144312359450  0.0475991355872759  0.1112566907611932   T   T   T
  0.6666068317873010  0.1905260687529574  0.1097792021233994   T   T   T
  0.6667723151037745  0.3333698722138499  0.1085997330598612   T   T   T
  0.6674124391169055  0.4759128608634556  0.1184189124659226   T   T   T
  0.6675153203885332  0.6197437730017329  0.1180900838478117   T   T   T
  0.6676894838109616  0.7627267314584436  0.1086390088406610   T   T   T
  0.8098206954344527  0.9051371048101855  0.1090664309105914   T   T   T
  0.8094951013248275  0.0476499091752983  0.1111130461223327   T   T   T
  0.8094752044594407  0.1904644120362055  0.1111296340411105   T   T   T
  0.8095311114377641  0.3332053956747301  0.1090912689800234   T   T   T
  0.8096295873266898  0.4760879172562383  0.1085900874391996   T   T   T
  0.8098102510423046  0.6191013119525719  0.1129522638229049   T   T   T
  0.8098837763729110  0.7621731488596232  0.1086618448275411   T   T   T
  0.5236575420539282  0.4750695679021578  0.1085382431480812   T   T   T

  0.00000000E+00  0.00000000E+00  0.00000000E+00
  0.00000000E+00  0.00000000E+00  0.00000000E+00
  0.00000000E+00  0.00000000E+00  0.00000000E+00
  0.00000000E+00  0.00000000E+00  0.00000000E+00
  0.00000000E+00  0.00000000E+00  0.00000000E+00
  0.00000000E+00  0.00000000E+00  0.00000000E+00
  0.00000000E+00  0.00000000E+00  0.00000000E+00
  0.00000000E+00  0.00000000E+00  0.00000000E+00
  0.00000000E+00  0.00000000E+00  0.00000000E+00
  0.00000000E+00  0.00000000E+00  0.00000000E+00
  0.00000000E+00  0.00000000E+00  0.00000000E+00
  0.00000000E+00  0.00000000E+00  0.00000000E+00
  0.00000000E+00  0.00000000E+00  0.00000000E+00
  0.00000000E+00  0.00000000E+00  0.00000000E+00
  0.00000000E+00  0.00000000E+00  0.00000000E+00
  0.00000000E+00  0.00000000E+00  0.00000000E+00
  0.00000000E+00  0.00000000E+00  0.00000000E+00
  0.00000000E+00  0.00000000E+00  0.00000000E+00
  0.00000000E+00  0.00000000E+00  0.00000000E+00
  0.00000000E+00  0.00000000E+00  0.00000000E+00
  0.00000000E+00  0.00000000E+00  0.00000000E+00
  0.00000000E+00  0.00000000E+00  0.00000000E+00
  0.00000000E+00  0.00000000E+00  0.00000000E+00
  0.00000000E+00  0.00000000E+00  0.00000000E+00
  0.00000000E+00  0.00000000E+00  0.00000000E+00
  0.00000000E+00  0.00000000E+00  0.00000000E+00
  0.00000000E+00  0.00000000E+00  0.00000000E+00
  0.00000000E+00  0.00000000E+00  0.00000000E+00
  0.00000000E+00  0.00000000E+00  0.00000000E+00
  0.00000000E+00  0.00000000E+00  0.00000000E+00
  0.00000000E+00  0.00000000E+00  0.00000000E+00
  0.00000000E+00  0.00000000E+00  0.00000000E+00
  0.00000000E+00  0.00000000E+00  0.00000000E+00
  0.00000000E+00  0.00000000E+00  0.00000000E+00
  0.00000000E+00  0.00000000E+00  0.00000000E+00
  0.00000000E+00  0.00000000E+00  0.00000000E+00
  0.00000000E+00  0.00000000E+00  0.00000000E+00
  0.00000000E+00  0.00000000E+00  0.00000000E+00
  0.00000000E+00  0.00000000E+00  0.00000000E+00
  0.00000000E+00  0.00000000E+00  0.00000000E+00
  0.00000000E+00  0.00000000E+00  0.00000000E+00
  0.00000000E+00  0.00000000E+00  0.00000000E+00
  0.00000000E+00  0.00000000E+00  0.00000000E+00
  0.00000000E+00  0.00000000E+00  0.00000000E+00
  0.00000000E+00  0.00000000E+00  0.00000000E+00
  0.00000000E+00  0.00000000E+00  0.00000000E+00
  0.00000000E+00  0.00000000E+00  0.00000000E+00
  0.00000000E+00  0.00000000E+00  0.00000000E+00
  0.00000000E+00  0.00000000E+00  0.00000000E+00
  0.00000000E+00  0.00000000E+00  0.00000000E+00
  0.00000000E+00  0.00000000E+00  0.00000000E+00
  0.00000000E+00  0.00000000E+00  0.00000000E+00
  0.00000000E+00  0.00000000E+00  0.00000000E+00
  0.00000000E+00  0.00000000E+00  0.00000000E+00
  0.00000000E+00  0.00000000E+00  0.00000000E+00
  0.00000000E+00  0.00000000E+00  0.00000000E+00
  0.00000000E+00  0.00000000E+00  0.00000000E+00
  0.00000000E+00  0.00000000E+00  0.00000000E+00
  0.00000000E+00  0.00000000E+00  0.00000000E+00
  0.00000000E+00  0.00000000E+00  0.00000000E+00
  0.00000000E+00  0.00000000E+00  0.00000000E+00
  0.00000000E+00  0.00000000E+00  0.00000000E+00
  0.00000000E+00  0.00000000E+00  0.00000000E+00
  0.00000000E+00  0.00000000E+00  0.00000000E+00
  0.00000000E+00  0.00000000E+00  0.00000000E+00
  0.00000000E+00  0.00000000E+00  0.00000000E+00
  0.00000000E+00  0.00000000E+00  0.00000000E+00
  0.00000000E+00  0.00000000E+00  0.00000000E+00
  0.00000000E+00  0.00000000E+00  0.00000000E+00
  0.00000000E+00  0.00000000E+00  0.00000000E+00
  0.00000000E+00  0.00000000E+00  0.00000000E+00
  0.00000000E+00  0.00000000E+00  0.00000000E+00
  0.00000000E+00  0.00000000E+00  0.00000000E+00
  0.00000000E+00  0.00000000E+00  0.00000000E+00
  0.00000000E+00  0.00000000E+00  0.00000000E+00
  0.00000000E+00  0.00000000E+00  0.00000000E+00
  0.00000000E+00  0.00000000E+00  0.00000000E+00
  0.00000000E+00  0.00000000E+00  0.00000000E+00
  0.00000000E+00  0.00000000E+00  0.00000000E+00
  0.00000000E+00  0.00000000E+00  0.00000000E+00
  0.00000000E+00  0.00000000E+00  0.00000000E+00
  0.00000000E+00  0.00000000E+00  0.00000000E+00
  0.00000000E+00  0.00000000E+00  0.00000000E+00
  0.00000000E+00  0.00000000E+00  0.00000000E+00
  0.00000000E+00  0.00000000E+00  0.00000000E+00
  0.00000000E+00  0.00000000E+00  0.00000000E+00
  0.00000000E+00  0.00000000E+00  0.00000000E+00
  0.00000000E+00  0.00000000E+00  0.00000000E+00
  0.00000000E+00  0.00000000E+00  0.00000000E+00
  0.00000000E+00  0.00000000E+00  0.00000000E+00
  0.00000000E+00  0.00000000E+00  0.00000000E+00
  0.00000000E+00  0.00000000E+00  0.00000000E+00
  0.00000000E+00  0.00000000E+00  0.00000000E+00
  0.00000000E+00  0.00000000E+00  0.00000000E+00
  0.00000000E+00  0.00000000E+00  0.00000000E+00
  0.00000000E+00  0.00000000E+00  0.00000000E+00
  0.00000000E+00  0.00000000E+00  0.00000000E+00
  0.00000000E+00  0.00000000E+00  0.00000000E+00
