Species order:X N B                     
   2.51242800000000     
     5.9449720136058266    0.0000000000000000    0.0000000000000000
    -2.9724860068029120    5.1484967885702053   -0.0000000000000001
     0.0000000000000000    0.0000000000000009    5.3101128803662583
   C    N    B 
     4   142   142
Direct
  0.7172217929835011  0.6089046929595168  0.3750000000000000
  0.6086362730890449  0.5539758135460079  0.3750000000000000
  0.4441753757487970  0.3896341354766727  0.3750000000000000
  0.5519666848869142  0.4459096479094215  0.3750000000000000
  0.1111017218792861  0.0555738479028676  0.1249266422850937
  0.6110882846372809  0.5555890677345012  0.1243415728194363
  0.4444500042487357  0.0555712856217668  0.1249267924657766
  0.9444398799321191  0.5555353021147229  0.1248508945036931
  0.7777959640098472  0.0555832885636377  0.1248888107346152
  0.1110921978582061  0.7222086724319977  0.6251110909530166
  0.4444578469284059  0.7222103721211717  0.6250688453265733
  0.2777485775907348  0.2222369218141250  0.6250466839219796
  0.7778169145871795  0.7223287428219342  0.6256476434102316
  0.6111256873565649  0.2222244569068901  0.6251335022570120
  0.9444399165470989  0.2222300888752192  0.6251065775434077
  0.2777738182389508  0.7222083952863956  0.1249160141997008
  0.1110691461733776  0.2222094532957299  0.1248788503529104
  0.4444494735513923  0.2222505116727668  0.1249254445915228
  0.6111511414346004  0.7222613490244559  0.1248714786425689
  0.9444218053998633  0.7222153085000189  0.1248386241790735
  0.7777918606559312  0.2222272292569992  0.1249108412880397
  0.1110926670423599  0.8888920867272038  0.6250999779653588
  0.4444488310309636  0.8888878596421185  0.6250838895499399
  0.2777338607619190  0.3888550247300447  0.6250773816381160
  0.6110999542480244  0.3888734664205200  0.6254075986157749
  0.7778245886802151  0.8889621775950084  0.6251745822316326
  0.9444538359475521  0.3888835040190802  0.6251027010065668
  0.1110984586065346  0.3888743792989296  0.1249238380054109
  0.2777714575736390  0.8888922305609352  0.1249101372561210
  0.6111324112110094  0.8889036691994788  0.1249116902531773
  0.4443908641215763  0.3888851015741047  0.1245269239673765
  0.9444535468149872  0.8889300550638211  0.1248639165426747
  0.7777851096396458  0.3888847820426938  0.1248610136311821
  0.2777766964742098  0.5555341259533839  0.6250667232155898
  0.1111017218792861  0.0555738479028676  0.6250733577149060
  0.6110882846372809  0.5555890677345012  0.6256584271805636
  0.4444500042487357  0.0555712856217668  0.6250732075342234
  0.9444398799321191  0.5555353021147229  0.6251491054963069
  0.1111064316646762  0.5555388585034714  0.1249107297680234
  0.7777959640098472  0.0555832885636377  0.6251111892653847
  0.2777724887560143  0.0555746661542914  0.1249170117687814
  0.4444480401957934  0.5555449576848172  0.1250158944317204
  0.7777868010951714  0.5555183304987762  0.1243305914932955
  0.6111200565836138  0.0555556653848916  0.1249070632168543
  0.4444480401957934  0.5555449576848172  0.6249841055682798
  0.9444520574420699  0.0555890358780067  0.1248928495187130
  0.2777738182389508  0.7222083952863956  0.6250839858002994
  0.1110691461733776  0.2222094532957299  0.6251211496470896
  0.4444494735513923  0.2222505116727668  0.6250745554084772
  0.6111511414346004  0.7222613490244559  0.6251285213574311
  0.9444218053998633  0.7222153085000189  0.6251613758209261
  0.7777918606559312  0.2222272292569992  0.6250891587119606
  0.1110921978582061  0.7222086724319977  0.1248889090469833
  0.4444578469284059  0.7222103721211717  0.1249311546734269
  0.2777485775907348  0.2222369218141250  0.1249533160780204
  0.7778169145871795  0.7223287428219342  0.1243523565897686
  0.6111256873565649  0.2222244569068901  0.1248664977429879
  0.9444399165470989  0.2222300888752192  0.1248934224565923
  0.1110984586065346  0.3888743792989296  0.6250761619945897
  0.2777714575736390  0.8888922305609352  0.6250898627438793
  0.6111324112110094  0.8889036691994788  0.6250883097468226
  0.4443908641215763  0.3888851015741047  0.6254730760326233
  0.9444535468149872  0.8889300550638211  0.6251360834573253
  0.1110926670423599  0.8888920867272038  0.1249000220346413
  0.7777851096396458  0.3888847820426938  0.6251389863688182
  0.4444488310309636  0.8888878596421185  0.1249161104500601
  0.2777338607619190  0.3888550247300447  0.1249226183618840
  0.2777766964742098  0.5555341259533839  0.1249332767844105
  0.6110999542480244  0.3888734664205200  0.1245924013842253
  0.7778245886802151  0.8889621775950084  0.1248254177683673
  0.9444538359475521  0.3888835040190802  0.1248972989934332
  0.1111064316646762  0.5555388585034714  0.6250892702319766
  0.2777724887560143  0.0555746661542914  0.6250829882312184
  0.7777868010951714  0.5555183304987762  0.6256694085067046
  0.6111200565836138  0.0555556653848916  0.6250929367831459
  0.9444520574420699  0.0555890358780067  0.6251071504812871
  0.0557985095534925  0.1112945068596068  0.3750000000000000
  0.5555101147958966  0.6104106259697053  0.3750000000000000
  0.3889364027819044  0.1121089416921533  0.3750000000000000
  0.8895656367780906  0.6108550911694505  0.3750000000000000
  0.7220575977314174  0.1109139944404602  0.3750000000000000
  0.0555645977632009  0.7777799845544908  0.8750000000000000
  0.3888863343585558  0.7777803485843566  0.8750000000000000
  0.2222204937606481  0.2777725200860707  0.8750000000000000
  0.7222165647793997  0.7777763924499319  0.8750000000000000
  0.5555483491859147  0.2777607242348940  0.8750000000000000
  0.8888865161798398  0.2777789277751829  0.8750000000000000
  0.2225492320562625  0.7779002738471424  0.3750000000000000
  0.0556641406976283  0.2778325244458264  0.3750000000000000
  0.3895926493576823  0.2806824822314151  0.3750000000000000
  0.5553051262288787  0.7772904665814098  0.3750000000000000
  0.8896002210859770  0.7787707119019981  0.3750000000000000
  0.7222279680344987  0.2767485149045429  0.3750000000000000
  0.0555580571144372  0.9444425213485760  0.8750000000000000
  0.3888881876796610  0.9444401607044808  0.8750000000000000
  0.2222229413831417  0.4444463949390955  0.8750000000000000
  0.5555524120000874  0.4444375807103629  0.8750000000000000
  0.7222159346834176  0.9444420180865559  0.8750000000000000
  0.8888905669424485  0.4444460639451308  0.8750000000000000
  0.0560896718983778  0.4444997897598520  0.3750000000000000
  0.2225698904702463  0.9447336176506452  0.3750000000000000
  0.5553120483533265  0.9441024059017366  0.3750000000000000
  0.3881103653094811  0.4423603881151537  0.3750000000000000
  0.8892628992937160  0.9450791717195646  0.3750000000000000
  0.7227864054811932  0.4422094301380465  0.3750000000000000
  0.2222208492169377  0.6111128940479480  0.8750000000000000
  0.0555539575881020  0.1111026259413530  0.8750000000000000
  0.5555484729052073  0.6111093505960530  0.8750000000000000
  0.3888869000986206  0.1110988981209026  0.8750000000000000
  0.8888974118321404  0.6111132598837398  0.8750000000000000
  0.0562240164799986  0.6112410613668939  0.3750000000000000
  0.7222130727278188  0.1111055487674879  0.8750000000000000
  0.2231598208097550  0.1120150800998782  0.3750000000000000
  0.3891580886522002  0.6102212826630807  0.3750000000000000
  0.5553208150453453  0.1105876249169748  0.3750000000000000
  0.3888868694146196  0.6111122615183019  0.8750000000000000
  0.8890070927803172  0.1112742019526361  0.3750000000000000
  0.2222256431154762  0.7777787874491260  0.8750000000000000
  0.0555541750826467  0.2777770821733428  0.8750000000000000
  0.3888884982387842  0.2777703348188767  0.8750000000000000
  0.5555476064136293  0.7777782325342579  0.8750000000000000
  0.8888947257098768  0.7777772863592433  0.8750000000000000
  0.7222169827759789  0.2777723944043229  0.8750000000000000
  0.0558782191789344  0.7779466542010182  0.3750000000000000
  0.3889866719535163  0.7775172630068204  0.3750000000000000
  0.2217726423999536  0.2775739617527320  0.3750000000000000
  0.7223210620135716  0.7801875423349564  0.3750000000000000
  0.5556051409918472  0.2769815882894414  0.3750000000000000
  0.8890832940825079  0.2776627101577927  0.3750000000000000
  0.0555553566056469  0.4444474750982925  0.8750000000000000
  0.2222256120246625  0.9444414061857445  0.8750000000000000
  0.5555469845998514  0.9444414715157943  0.8750000000000000
  0.3888891877203296  0.4444446960105043  0.8750000000000000
  0.8888898174751477  0.9444400487509653  0.8750000000000000
  0.0563438504543730  0.9451473863250217  0.3750000000000000
  0.7222184029575422  0.4444356939365327  0.8750000000000000
  0.3889265608943870  0.9446668803508879  0.3750000000000000
  0.2225854297488366  0.4444704440931510  0.3750000000000000
  0.2226958157175744  0.6111136989729070  0.3750000000000000
  0.7220443365510818  0.9451544483895521  0.3750000000000000
  0.8895699538706470  0.4441752372938459  0.3750000000000000
  0.0555586192555970  0.6111114767959366  0.8750000000000000
  0.2222227527325168  0.1111045522553514  0.8750000000000000
  0.7222186720859149  0.6111069747800659  0.8750000000000000
  0.5555466490978771  0.1110977630829378  0.8750000000000000
  0.8888864758195910  0.1111066273880760  0.8750000000000000
  0.1118330819600829  0.0561032500901262  0.3750000000000000
  0.4443170126147603  0.0560933481271943  0.3750000000000000
  0.9446215850490474  0.5558220329601539  0.3750000000000000
  0.7777472437547007  0.0557283085920783  0.3750000000000000
  0.1110825605198907  0.7222164272949643  0.8750000000000000
  0.4444632697248210  0.7222102290893461  0.8750000000000000
  0.2778202955750735  0.2222420916608956  0.8750000000000000
  0.7777437269719213  0.7221562352701980  0.8750000000000000
  0.6111012555284125  0.2222535454842690  0.8750000000000000
  0.9444344836088195  0.2222191979368019  0.8750000000000000
  0.2779644470964652  0.7222211015058471  0.3750000000000000
  0.1111808516021693  0.2222260421787584  0.3750000000000000
  0.4450298440130798  0.2240564903031208  0.3750000000000000
  0.6117559925283106  0.7219140065818409  0.3750000000000000
  0.9437554419787079  0.7218435936242796  0.3750000000000000
  0.7778003721644950  0.2218853945565218  0.3750000000000000
  0.1110880243159823  0.8888672028027796  0.8750000000000000
  0.4444449000823121  0.8888859034059747  0.8750000000000000
  0.2778308302225547  0.3889054958266844  0.8750000000000000
  0.6111166170922298  0.3889286159945861  0.8750000000000000
  0.7777568838988249  0.8888258236729726  0.8750000000000000
  0.9444208630233375  0.3889101676693089  0.8750000000000000
  0.1115269436618143  0.3889578445495087  0.3750000000000000
  0.2778787776308224  0.8890153180803410  0.3750000000000000
  0.6109496670941164  0.8884479189582924  0.3750000000000000
  0.9447251024285493  0.8889096930746506  0.3750000000000000
  0.7781264333402534  0.3879976963557784  0.3750000000000000
  0.2778025799931926  0.5555616119729312  0.8750000000000000
  0.1111102555290539  0.0555358004559978  0.8750000000000000
  0.6111411315477848  0.5555485637713006  0.8750000000000000
  0.4444472974393243  0.0555696007082987  0.8750000000000000
  0.9444014082867236  0.5555701089459397  0.8750000000000000
  0.1114829999249818  0.5556790128066870  0.3750000000000000
  0.7777621291215169  0.0555329363752679  0.8750000000000000
  0.2781005499398337  0.0559756607486601  0.3750000000000000
  0.4447143769395351  0.5541616874671159  0.3750000000000000
  0.7766132818305982  0.5538396644120649  0.3750000000000000
  0.6108977404447187  0.0552330868875782  0.3750000000000000
  0.4444982261566639  0.5555549034674734  0.8750000000000000
  0.9446115528981046  0.0556032405144207  0.3750000000000000
  0.2777770288798159  0.7222233254118545  0.8750000000000000
  0.1111270336059574  0.2222175545666546  0.8750000000000000
  0.4444716242539959  0.2222572666234358  0.8750000000000000
  0.6111240013837214  0.7221798435684856  0.8750000000000000
  0.9443970958756315  0.7221928321492926  0.8750000000000000
  0.7777564480162432  0.2222378622711467  0.8750000000000000
  0.1111883561210749  0.7223417376115283  0.3750000000000000
  0.4445924066781526  0.7216467425328468  0.3750000000000000
  0.2786942909553325  0.2234084179116367  0.3750000000000000
  0.7768519821628118  0.7227625411873010  0.3750000000000000
  0.6109579648404144  0.2218040774655707  0.3750000000000000
  0.9445941191463574  0.2222425341758882  0.3750000000000000
  0.1111209992920524  0.3889000621162448  0.8750000000000000
  0.2777707591475130  0.8888882952230177  0.8750000000000000
  0.6111085615500165  0.8888614421881116  0.8750000000000000
  0.4445116604934856  0.3889237902332703  0.8750000000000000
  0.9444090927014925  0.8888296950946687  0.8750000000000000
  0.1112399942750879  0.8889172537362448  0.3750000000000000
  0.7777451155785079  0.3889249722571370  0.8750000000000000
  0.4443553502937030  0.8887923840656379  0.3750000000000000
  0.2778305579596629  0.3885128161985278  0.3750000000000000
  0.2781754367507521  0.5554140811820469  0.3750000000000000
  0.6119997722589759  0.3888187015315723  0.3750000000000000
  0.7777265904963022  0.8897031200900856  0.3750000000000000
  0.9448026654045781  0.3889312509971820  0.3750000000000000
  0.1110971753272567  0.5555657559276563  0.8750000000000000
  0.2777884131286675  0.0555620568249840  0.8750000000000000
  0.7777397062814976  0.5555632894082145  0.8750000000000000
  0.6110994731379211  0.0555563611629677  0.8750000000000000
  0.9444302319141716  0.0555158827212190  0.8750000000000000
  0.0555288275186400  0.1111037095157066  0.1250798038633966
  0.5557424802076520  0.6110294882424785  0.1252744807161973
  0.3889436137170637  0.1112615668624806  0.1251361515261369
  0.8886348524329857  0.6110272050216371  0.1252352674959964
  0.7222540346711614  0.1111417969060100  0.1250681619225504
  0.0553564800367303  0.7776868287095615  0.6248390682061657
  0.3889237884629301  0.7777351021453691  0.6249393270234073
  0.2222464960195022  0.2777992529653316  0.6248963776249169
  0.7223011623291175  0.7776752738782756  0.6248219792760690
  0.5556471370218395  0.2780231130380382  0.6248438510471876
  0.8888805366647213  0.2778029501853417  0.6249240460666896
  0.2221471160564963  0.7777413326006718  0.1250710137540373
  0.0555472695436887  0.2777622324614361  0.1250611675546750
  0.3890115815331414  0.2779867892650865  0.1252139608622394
  0.5556758507625177  0.7776981822375929  0.1251461311967440
  0.8886867600260111  0.7776494442003689  0.1252246922851589
  0.7222317507614272  0.2778879278178978  0.1251246575204900
  0.0554535529745931  0.9443977613283011  0.6248697071770871
  0.3888990848434222  0.9444797115186878  0.6249343255587995
  0.2222553987268632  0.4444017603875629  0.6248980879233993
  0.5556531860239787  0.4446366649783408  0.6242137848244860
  0.7222825477052786  0.9444029720141049  0.6248992159948782
  0.8888058491972285  0.4444740151258462  0.6248517585386187
  0.0555185589544231  0.4444262935954323  0.1250763272611317
  0.2221616962450432  0.9444558385370112  0.1250785262748180
  0.5556104724571463  0.9444381506521077  0.1250658108269639
  0.3890177339625711  0.4444205800483524  0.1252342731852291
  0.8888584012876818  0.9443888641297439  0.1251327945829115
  0.7221707454182716  0.4446017860828035  0.1252105718784909
  0.2222086970467045  0.6110615268102431  0.6249366500467548
  0.0555288275186400  0.1111037095157066  0.6249201961366037
  0.5557424802076520  0.6110294882424785  0.6247255192838028
  0.3889436137170637  0.1112615668624806  0.6248638484738630
  0.8886348524329857  0.6110272050216371  0.6247647325040038
  0.0554247104472758  0.6110611545193951  0.1251189825338857
  0.7222540346711614  0.1111417969060100  0.6249318380774497
  0.2222305895660094  0.1111782432534313  0.1251278441568850
  0.3889884590198102  0.6110348753220262  0.1251457880816346
  0.7221550992670605  0.6110881511728709  0.1262595161530608
  0.5556107538659074  0.1112194046310197  0.1250823910659064
  0.3889884590198102  0.6110348753220262  0.6248542119183651
  0.8888971187999628  0.1111008420438338  0.1250701174490971
  0.2221471160564963  0.7777413326006718  0.6249289862459629
  0.0555472695436887  0.2777622324614361  0.6249388324453250
  0.3890115815331414  0.2779867892650865  0.6247860391377603
  0.5556758507625177  0.7776981822375929  0.6248538688032557
  0.8886867600260111  0.7776494442003689  0.6247753077148411
  0.7222317507614272  0.2778879278178978  0.6248753424795098
  0.0553564800367303  0.7776868287095615  0.1251609317938348
  0.3889237884629301  0.7777351021453691  0.1250606729765927
  0.2222464960195022  0.2777992529653316  0.1251036223750829
  0.7223011623291175  0.7776752738782756  0.1251780207239311
  0.5556471370218395  0.2780231130380382  0.1251561489528125
  0.8888805366647213  0.2778029501853417  0.1250759539333104
  0.0555185589544231  0.4444262935954323  0.6249236727388680
  0.2221616962450432  0.9444558385370112  0.6249214737251820
  0.5556104724571463  0.9444381506521077  0.6249341891730360
  0.3890177339625711  0.4444205800483524  0.6247657268147706
  0.8888584012876818  0.9443888641297439  0.6248672054170885
  0.0554535529745931  0.9443977613283011  0.1251302928229129
  0.7221707454182716  0.4446017860828035  0.6247894281215093
  0.3888990848434222  0.9444797115186878  0.1250656744412005
  0.2222553987268632  0.4444017603875629  0.1251019120766005
  0.2222086970467045  0.6110615268102431  0.1250633499532451
  0.5556531860239787  0.4446366649783408  0.1257862151755139
  0.7222825477052786  0.9444029720141049  0.1251007840051218
  0.8888058491972285  0.4444740151258462  0.1251482414613812
  0.0554247104472758  0.6110611545193951  0.6248810174661145
  0.2222305895660094  0.1111782432534313  0.6248721558431150
  0.7221550992670605  0.6110881511728709  0.6237404838469393
  0.5556107538659074  0.1112194046310197  0.6249176089340934
  0.8888971187999628  0.1111008420438338  0.6249298825509031
 
  0.00000000E+00  0.00000000E+00  0.00000000E+00
  0.00000000E+00  0.00000000E+00  0.00000000E+00
  0.00000000E+00  0.00000000E+00  0.00000000E+00
  0.00000000E+00  0.00000000E+00  0.00000000E+00
  0.00000000E+00  0.00000000E+00  0.00000000E+00
  0.00000000E+00  0.00000000E+00  0.00000000E+00
  0.00000000E+00  0.00000000E+00  0.00000000E+00
  0.00000000E+00  0.00000000E+00  0.00000000E+00
  0.00000000E+00  0.00000000E+00  0.00000000E+00
  0.00000000E+00  0.00000000E+00  0.00000000E+00
  0.00000000E+00  0.00000000E+00  0.00000000E+00
  0.00000000E+00  0.00000000E+00  0.00000000E+00
  0.00000000E+00  0.00000000E+00  0.00000000E+00
  0.00000000E+00  0.00000000E+00  0.00000000E+00
  0.00000000E+00  0.00000000E+00  0.00000000E+00
  0.00000000E+00  0.00000000E+00  0.00000000E+00
  0.00000000E+00  0.00000000E+00  0.00000000E+00
  0.00000000E+00  0.00000000E+00  0.00000000E+00
  0.00000000E+00  0.00000000E+00  0.00000000E+00
  0.00000000E+00  0.00000000E+00  0.00000000E+00
  0.00000000E+00  0.00000000E+00  0.00000000E+00
  0.00000000E+00  0.00000000E+00  0.00000000E+00
  0.00000000E+00  0.00000000E+00  0.00000000E+00
  0.00000000E+00  0.00000000E+00  0.00000000E+00
  0.00000000E+00  0.00000000E+00  0.00000000E+00
  0.00000000E+00  0.00000000E+00  0.00000000E+00
  0.00000000E+00  0.00000000E+00  0.00000000E+00
  0.00000000E+00  0.00000000E+00  0.00000000E+00
  0.00000000E+00  0.00000000E+00  0.00000000E+00
  0.00000000E+00  0.00000000E+00  0.00000000E+00
  0.00000000E+00  0.00000000E+00  0.00000000E+00
  0.00000000E+00  0.00000000E+00  0.00000000E+00
  0.00000000E+00  0.00000000E+00  0.00000000E+00
  0.00000000E+00  0.00000000E+00  0.00000000E+00
  0.00000000E+00  0.00000000E+00  0.00000000E+00
  0.00000000E+00  0.00000000E+00  0.00000000E+00
  0.00000000E+00  0.00000000E+00  0.00000000E+00
  0.00000000E+00  0.00000000E+00  0.00000000E+00
  0.00000000E+00  0.00000000E+00  0.00000000E+00
  0.00000000E+00  0.00000000E+00  0.00000000E+00
  0.00000000E+00  0.00000000E+00  0.00000000E+00
  0.00000000E+00  0.00000000E+00  0.00000000E+00
  0.00000000E+00  0.00000000E+00  0.00000000E+00
  0.00000000E+00  0.00000000E+00  0.00000000E+00
  0.00000000E+00  0.00000000E+00  0.00000000E+00
  0.00000000E+00  0.00000000E+00  0.00000000E+00
  0.00000000E+00  0.00000000E+00  0.00000000E+00
  0.00000000E+00  0.00000000E+00  0.00000000E+00
  0.00000000E+00  0.00000000E+00  0.00000000E+00
  0.00000000E+00  0.00000000E+00  0.00000000E+00
  0.00000000E+00  0.00000000E+00  0.00000000E+00
  0.00000000E+00  0.00000000E+00  0.00000000E+00
  0.00000000E+00  0.00000000E+00  0.00000000E+00
  0.00000000E+00  0.00000000E+00  0.00000000E+00
  0.00000000E+00  0.00000000E+00  0.00000000E+00
  0.00000000E+00  0.00000000E+00  0.00000000E+00
  0.00000000E+00  0.00000000E+00  0.00000000E+00
  0.00000000E+00  0.00000000E+00  0.00000000E+00
  0.00000000E+00  0.00000000E+00  0.00000000E+00
  0.00000000E+00  0.00000000E+00  0.00000000E+00
  0.00000000E+00  0.00000000E+00  0.00000000E+00
  0.00000000E+00  0.00000000E+00  0.00000000E+00
  0.00000000E+00  0.00000000E+00  0.00000000E+00
  0.00000000E+00  0.00000000E+00  0.00000000E+00
  0.00000000E+00  0.00000000E+00  0.00000000E+00
  0.00000000E+00  0.00000000E+00  0.00000000E+00
  0.00000000E+00  0.00000000E+00  0.00000000E+00
  0.00000000E+00  0.00000000E+00  0.00000000E+00
  0.00000000E+00  0.00000000E+00  0.00000000E+00
  0.00000000E+00  0.00000000E+00  0.00000000E+00
  0.00000000E+00  0.00000000E+00  0.00000000E+00
  0.00000000E+00  0.00000000E+00  0.00000000E+00
  0.00000000E+00  0.00000000E+00  0.00000000E+00
  0.00000000E+00  0.00000000E+00  0.00000000E+00
  0.00000000E+00  0.00000000E+00  0.00000000E+00
  0.00000000E+00  0.00000000E+00  0.00000000E+00
  0.00000000E+00  0.00000000E+00  0.00000000E+00
  0.00000000E+00  0.00000000E+00  0.00000000E+00
  0.00000000E+00  0.00000000E+00  0.00000000E+00
  0.00000000E+00  0.00000000E+00  0.00000000E+00
  0.00000000E+00  0.00000000E+00  0.00000000E+00
  0.00000000E+00  0.00000000E+00  0.00000000E+00
  0.00000000E+00  0.00000000E+00  0.00000000E+00
  0.00000000E+00  0.00000000E+00  0.00000000E+00
  0.00000000E+00  0.00000000E+00  0.00000000E+00
  0.00000000E+00  0.00000000E+00  0.00000000E+00
  0.00000000E+00  0.00000000E+00  0.00000000E+00
  0.00000000E+00  0.00000000E+00  0.00000000E+00
  0.00000000E+00  0.00000000E+00  0.00000000E+00
  0.00000000E+00  0.00000000E+00  0.00000000E+00
  0.00000000E+00  0.00000000E+00  0.00000000E+00
  0.00000000E+00  0.00000000E+00  0.00000000E+00
  0.00000000E+00  0.00000000E+00  0.00000000E+00
  0.00000000E+00  0.00000000E+00  0.00000000E+00
  0.00000000E+00  0.00000000E+00  0.00000000E+00
  0.00000000E+00  0.00000000E+00  0.00000000E+00
  0.00000000E+00  0.00000000E+00  0.00000000E+00
  0.00000000E+00  0.00000000E+00  0.00000000E+00
  0.00000000E+00  0.00000000E+00  0.00000000E+00
  0.00000000E+00  0.00000000E+00  0.00000000E+00
  0.00000000E+00  0.00000000E+00  0.00000000E+00
  0.00000000E+00  0.00000000E+00  0.00000000E+00
  0.00000000E+00  0.00000000E+00  0.00000000E+00
  0.00000000E+00  0.00000000E+00  0.00000000E+00
  0.00000000E+00  0.00000000E+00  0.00000000E+00
  0.00000000E+00  0.00000000E+00  0.00000000E+00
  0.00000000E+00  0.00000000E+00  0.00000000E+00
  0.00000000E+00  0.00000000E+00  0.00000000E+00
  0.00000000E+00  0.00000000E+00  0.00000000E+00
  0.00000000E+00  0.00000000E+00  0.00000000E+00
  0.00000000E+00  0.00000000E+00  0.00000000E+00
  0.00000000E+00  0.00000000E+00  0.00000000E+00
  0.00000000E+00  0.00000000E+00  0.00000000E+00
  0.00000000E+00  0.00000000E+00  0.00000000E+00
  0.00000000E+00  0.00000000E+00  0.00000000E+00
  0.00000000E+00  0.00000000E+00  0.00000000E+00
  0.00000000E+00  0.00000000E+00  0.00000000E+00
  0.00000000E+00  0.00000000E+00  0.00000000E+00
  0.00000000E+00  0.00000000E+00  0.00000000E+00
  0.00000000E+00  0.00000000E+00  0.00000000E+00
  0.00000000E+00  0.00000000E+00  0.00000000E+00
  0.00000000E+00  0.00000000E+00  0.00000000E+00
  0.00000000E+00  0.00000000E+00  0.00000000E+00
  0.00000000E+00  0.00000000E+00  0.00000000E+00
  0.00000000E+00  0.00000000E+00  0.00000000E+00
  0.00000000E+00  0.00000000E+00  0.00000000E+00
  0.00000000E+00  0.00000000E+00  0.00000000E+00
  0.00000000E+00  0.00000000E+00  0.00000000E+00
  0.00000000E+00  0.00000000E+00  0.00000000E+00
  0.00000000E+00  0.00000000E+00  0.00000000E+00
  0.00000000E+00  0.00000000E+00  0.00000000E+00
  0.00000000E+00  0.00000000E+00  0.00000000E+00
  0.00000000E+00  0.00000000E+00  0.00000000E+00
  0.00000000E+00  0.00000000E+00  0.00000000E+00
  0.00000000E+00  0.00000000E+00  0.00000000E+00
  0.00000000E+00  0.00000000E+00  0.00000000E+00
  0.00000000E+00  0.00000000E+00  0.00000000E+00
  0.00000000E+00  0.00000000E+00  0.00000000E+00
  0.00000000E+00  0.00000000E+00  0.00000000E+00
  0.00000000E+00  0.00000000E+00  0.00000000E+00
  0.00000000E+00  0.00000000E+00  0.00000000E+00
  0.00000000E+00  0.00000000E+00  0.00000000E+00
  0.00000000E+00  0.00000000E+00  0.00000000E+00
  0.00000000E+00  0.00000000E+00  0.00000000E+00
  0.00000000E+00  0.00000000E+00  0.00000000E+00
  0.00000000E+00  0.00000000E+00  0.00000000E+00
  0.00000000E+00  0.00000000E+00  0.00000000E+00
  0.00000000E+00  0.00000000E+00  0.00000000E+00
  0.00000000E+00  0.00000000E+00  0.00000000E+00
  0.00000000E+00  0.00000000E+00  0.00000000E+00
  0.00000000E+00  0.00000000E+00  0.00000000E+00
  0.00000000E+00  0.00000000E+00  0.00000000E+00
  0.00000000E+00  0.00000000E+00  0.00000000E+00
  0.00000000E+00  0.00000000E+00  0.00000000E+00
  0.00000000E+00  0.00000000E+00  0.00000000E+00
  0.00000000E+00  0.00000000E+00  0.00000000E+00
  0.00000000E+00  0.00000000E+00  0.00000000E+00
  0.00000000E+00  0.00000000E+00  0.00000000E+00
  0.00000000E+00  0.00000000E+00  0.00000000E+00
  0.00000000E+00  0.00000000E+00  0.00000000E+00
  0.00000000E+00  0.00000000E+00  0.00000000E+00
  0.00000000E+00  0.00000000E+00  0.00000000E+00
  0.00000000E+00  0.00000000E+00  0.00000000E+00
  0.00000000E+00  0.00000000E+00  0.00000000E+00
  0.00000000E+00  0.00000000E+00  0.00000000E+00
  0.00000000E+00  0.00000000E+00  0.00000000E+00
  0.00000000E+00  0.00000000E+00  0.00000000E+00
  0.00000000E+00  0.00000000E+00  0.00000000E+00
  0.00000000E+00  0.00000000E+00  0.00000000E+00
  0.00000000E+00  0.00000000E+00  0.00000000E+00
  0.00000000E+00  0.00000000E+00  0.00000000E+00
  0.00000000E+00  0.00000000E+00  0.00000000E+00
  0.00000000E+00  0.00000000E+00  0.00000000E+00
  0.00000000E+00  0.00000000E+00  0.00000000E+00
  0.00000000E+00  0.00000000E+00  0.00000000E+00
  0.00000000E+00  0.00000000E+00  0.00000000E+00
  0.00000000E+00  0.00000000E+00  0.00000000E+00
  0.00000000E+00  0.00000000E+00  0.00000000E+00
  0.00000000E+00  0.00000000E+00  0.00000000E+00
  0.00000000E+00  0.00000000E+00  0.00000000E+00
  0.00000000E+00  0.00000000E+00  0.00000000E+00
  0.00000000E+00  0.00000000E+00  0.00000000E+00
  0.00000000E+00  0.00000000E+00  0.00000000E+00
  0.00000000E+00  0.00000000E+00  0.00000000E+00
  0.00000000E+00  0.00000000E+00  0.00000000E+00
  0.00000000E+00  0.00000000E+00  0.00000000E+00
  0.00000000E+00  0.00000000E+00  0.00000000E+00
  0.00000000E+00  0.00000000E+00  0.00000000E+00
  0.00000000E+00  0.00000000E+00  0.00000000E+00
  0.00000000E+00  0.00000000E+00  0.00000000E+00
  0.00000000E+00  0.00000000E+00  0.00000000E+00
  0.00000000E+00  0.00000000E+00  0.00000000E+00
  0.00000000E+00  0.00000000E+00  0.00000000E+00
  0.00000000E+00  0.00000000E+00  0.00000000E+00
  0.00000000E+00  0.00000000E+00  0.00000000E+00
  0.00000000E+00  0.00000000E+00  0.00000000E+00
  0.00000000E+00  0.00000000E+00  0.00000000E+00
  0.00000000E+00  0.00000000E+00  0.00000000E+00
  0.00000000E+00  0.00000000E+00  0.00000000E+00
  0.00000000E+00  0.00000000E+00  0.00000000E+00
  0.00000000E+00  0.00000000E+00  0.00000000E+00
  0.00000000E+00  0.00000000E+00  0.00000000E+00
  0.00000000E+00  0.00000000E+00  0.00000000E+00
  0.00000000E+00  0.00000000E+00  0.00000000E+00
  0.00000000E+00  0.00000000E+00  0.00000000E+00
  0.00000000E+00  0.00000000E+00  0.00000000E+00
  0.00000000E+00  0.00000000E+00  0.00000000E+00
  0.00000000E+00  0.00000000E+00  0.00000000E+00
  0.00000000E+00  0.00000000E+00  0.00000000E+00
  0.00000000E+00  0.00000000E+00  0.00000000E+00
  0.00000000E+00  0.00000000E+00  0.00000000E+00
  0.00000000E+00  0.00000000E+00  0.00000000E+00
  0.00000000E+00  0.00000000E+00  0.00000000E+00
  0.00000000E+00  0.00000000E+00  0.00000000E+00
  0.00000000E+00  0.00000000E+00  0.00000000E+00
  0.00000000E+00  0.00000000E+00  0.00000000E+00
  0.00000000E+00  0.00000000E+00  0.00000000E+00
  0.00000000E+00  0.00000000E+00  0.00000000E+00
  0.00000000E+00  0.00000000E+00  0.00000000E+00
  0.00000000E+00  0.00000000E+00  0.00000000E+00
  0.00000000E+00  0.00000000E+00  0.00000000E+00
  0.00000000E+00  0.00000000E+00  0.00000000E+00
  0.00000000E+00  0.00000000E+00  0.00000000E+00
  0.00000000E+00  0.00000000E+00  0.00000000E+00
  0.00000000E+00  0.00000000E+00  0.00000000E+00
  0.00000000E+00  0.00000000E+00  0.00000000E+00
  0.00000000E+00  0.00000000E+00  0.00000000E+00
  0.00000000E+00  0.00000000E+00  0.00000000E+00
  0.00000000E+00  0.00000000E+00  0.00000000E+00
  0.00000000E+00  0.00000000E+00  0.00000000E+00
  0.00000000E+00  0.00000000E+00  0.00000000E+00
  0.00000000E+00  0.00000000E+00  0.00000000E+00
  0.00000000E+00  0.00000000E+00  0.00000000E+00
  0.00000000E+00  0.00000000E+00  0.00000000E+00
  0.00000000E+00  0.00000000E+00  0.00000000E+00
  0.00000000E+00  0.00000000E+00  0.00000000E+00
  0.00000000E+00  0.00000000E+00  0.00000000E+00
  0.00000000E+00  0.00000000E+00  0.00000000E+00
  0.00000000E+00  0.00000000E+00  0.00000000E+00
  0.00000000E+00  0.00000000E+00  0.00000000E+00
  0.00000000E+00  0.00000000E+00  0.00000000E+00
  0.00000000E+00  0.00000000E+00  0.00000000E+00
  0.00000000E+00  0.00000000E+00  0.00000000E+00
  0.00000000E+00  0.00000000E+00  0.00000000E+00
  0.00000000E+00  0.00000000E+00  0.00000000E+00
  0.00000000E+00  0.00000000E+00  0.00000000E+00
  0.00000000E+00  0.00000000E+00  0.00000000E+00