 B N C 
 1.0
 14.936314146199660   0.000000000000000   0.000000000000000
 -7.468157073099825  12.935227489513863   0.000000000000000
  0.000000000000001   0.000000000000001  13.341276283792837
 B N C 
 142 142   4
Cartesian
  1.251386160109031   0.725708302816869   5.002978606422314 
  6.217544546345057   0.725580218673751   5.002978606422314 
  9.958198496737527   7.189684440023665   5.002978606422314 
 11.200489397077318   0.720858349244360   5.002978606422314 
 -3.734461699722442   9.342033783724311  11.673616748318732 
  1.245063592418355   9.341953608524614  11.673616748318732 
  2.489872362121515   2.874752013379083  11.673616748318732 
  6.223448434972480   9.341255186190908  11.673616748318732 
  7.467775939979551   2.874900171190037  11.673616748318732 
 12.446802262834892   2.874455877849845  11.673616748318732 
 -1.241896324245339   9.342094245705415   5.002978606422314 
  0.001013137847731   2.874544409676538   5.002978606422314 
  4.973816491782419   2.898221672572928   5.002978606422314 
  3.746012490799017   9.338121903002522   5.002978606422314 
  8.705386419182526   9.337211095378260   5.002978606422314 
  9.960395722905073   2.870138055189154   5.002978606422314 
 -4.978954258593864  11.497699476221815  11.673616748318732 
  0.000029101605673  11.497941372778334  11.673616748318732 
  1.245361230278100   5.030581060440343  11.673616748318732 
  6.223249778381462   5.030880125071751  11.673616748318732 
  4.978930285465096  11.497164227764445  11.673616748318732 
 11.201724476861571   5.030641491787493  11.673616748318732 
 -1.238996811611712   5.031258203078870   5.002978606422314 
 -2.488821318559872  11.499615381031738   5.002978606422314 
  2.490267545184630  11.492275944310684   5.002978606422314 
  7.472193699991011  11.498249097554556   5.002978606422314 
  8.724713113446066   5.018838467769314   5.002978606422314 
  0.000325223404708   7.186315835310892  11.673616748318732 
  1.244827600460747   0.718368212710583  11.673616748318732 
  4.979271992482559   7.186147053854479  11.673616748318732 
  6.223401949404167   0.718805426663299  11.673616748318732 
  9.956791275556416   7.186425745589736  11.673616748318732 
 -2.484753041025102   7.187834441802984   5.002978606422314 
 11.202170799995121   0.718331165174792  11.673616748318732 
  3.735762151390706   0.724057905659770   5.002978606422314 
  2.503827113401868   7.168207493360030   5.002978606422314 
  7.463578340390707   7.164042051886077   5.002978606422314 
  8.712071193977263   0.714452543838907   5.002978606422314 
  2.490193861478538   7.186229059266679  11.673616748318732 
 13.693761166280549   0.719240565208190   5.002978606422314 
 -1.244712270085313   9.342123012435545  11.673616748318732 
  0.000272682169951   2.874434620483144  11.673616748318732 
  4.978915631147654   2.874948304971683  11.673616748318732 
  3.734587560153701   9.341560564899904  11.673616748318732 
  8.712362195199328   9.341728575147407  11.673616748318732 
  9.957107373772159   2.874697305260538  11.673616748318732 
 -3.733817340514852   9.343654701175847   5.002978606422314 
  1.251200628633719   9.334664781729016   5.002978606422314 
  2.494216324044376   2.889838708759409   5.002978606422314 
  6.205601066542110   9.349097891156871   5.002978606422314 
  7.468992403012344   2.869086200118917   5.002978606422314 
 12.449012350673453   2.874757737411171   5.002978606422314 
 -1.244628595956677   5.030510774159702  11.673616748318732 
 -2.489486089909810  11.497972311475900  11.673616748318732 
  2.489552586260372  11.497624961360605  11.673616748318732 
  3.734821847852169   5.030817702751318  11.673616748318732 
  7.468071116914484  11.497214305484791  11.673616748318732 
 -4.977058175776643  11.498346896432246   5.002978606422314 
  8.712092589485668   5.030832992498937  11.673616748318732 
 -0.000610025045708  11.496731678836404   5.002978606422314 
  1.248289756816490   5.025501660119647   5.002978606422314 
  0.006996112186582   7.184407490969100   5.002978606422314 
  6.237261719866215   5.029458356488277   5.002978606422314 
  4.971926026245788  11.508512256495534   5.002978606422314 
 11.207269743565373   5.030914209429766   5.002978606422314 
 -2.489670018259842   7.186369438307967  11.673616748318732 
  3.734188836990586   0.718707844816466  11.673616748318732 
  7.467530667644943   7.186337533317889  11.673616748318732 
  8.712670073790180   0.718634170132585  11.673616748318732 
 13.691705300824420   0.718110572280141  11.673616748318732 
 -0.000343942078812   1.437151757514536   1.668724220864198 
  3.737480074279009   7.903805433217690   1.671321458543462 
  4.978465142107993   1.439193678205949   1.669475970600758 
  8.709682174162101   7.903775899236702   1.670798304138783 
  9.957788758528000   1.437644426572588   1.668568902514878 
 -4.981065614627457  10.059556044956786   8.336150641846137 
  0.000839979327474  10.060180472830650   8.337488222426837 
  1.244895026504503   3.593396533523579   8.336915222635358 
  4.980715971523959  10.059406580585497   8.335922653708318 
  6.222999914874395   3.596292214489850   8.336214451049633 
 11.201922866712158   3.593444357905487   8.337284354961394 
 -2.490235322011693  10.060261065187358   1.668606949586662 
 -1.244700513128703   3.592917664883907   1.668475588720628 
  3.734350181810586   3.595822358223451   1.670514046451153 
  2.491776890031173  10.059702905424675   1.669609112143548 
  7.466096428219719  10.059072467825789   1.670657217329248 
  8.712169622070160   3.594543562914119   1.669322625895814 
 -6.224639133332144  12.215999883369191   8.336559404822246 
 -1.244803935586666  12.217059927724657   8.337421496505677 
  0.000814305936898   5.748437867353559   8.336938040199934 
  4.978794088273355   5.751476411673603   8.327808563495481 
  3.735289299539855  12.216067284775443   8.336953090113203 
  9.956081618718393   5.749372498830445   8.336319947077525 
 -2.489802730498697   5.748755209978391   1.668677838552852 
 -3.735067664432056  12.216751125275811   1.668707176201988 
  1.245560104640488  12.216522328460783   1.668537535899096 
  2.491488384588458   5.748681303947139   1.670785038764129 
  6.223423937714363  12.215884796081838   1.669431184693711 
  7.466213147315388   5.751025245225235   1.670468833082650 
 -1.244524558439799   7.904219859380168   8.337452508141716 
 -0.000343942078811   1.437151757514537   8.337232991980443 
  3.737480074279010   7.903805433217691   8.334635754301166 
  4.978465142107994   1.439193678205950   8.336481242243869 
  8.709682174162101   7.903775899236703   8.335158908705845 
 -3.735659796517896   7.904215043713357   1.669246914331624 
  9.957788758528000   1.437644426572588   8.337388310329748 
  2.489009314925147   1.438115868367640   1.669365139692376 
  1.246749397119136   7.903875116317147   1.669604534550081 
  6.222633126463637   7.904564251567524   1.684463088455991 
  7.468172779386900   1.438648300150535   1.668758737447673 
  1.246749397119137   7.903875116317148   8.336352678294546 
 12.447128070711003   1.437114666113539   1.668594991734822 
 -2.490235322011693  10.060261065187358   8.337350263257967 
 -1.244700513128703   3.592917664883908   8.337481624123999 
  3.734350181810587   3.595822358223452   8.335443166393461 
  2.491776890031173  10.059702905424675   8.336348100701080 
  7.466096428219720  10.059072467825789   8.335299995515381 
  8.712169622070160   3.594543562914120   8.336634586948813 
 -4.981065614627457  10.059556044956786   1.669806570998504 
  0.000839979327473  10.060180472830650   1.668468990417792 
  1.244895026504503   3.593396533523578   1.669041990209270 
  4.980715971523958  10.059406580585497   1.670034559136309 
  6.222999914874394   3.596292214489849   1.669742761794994 
 11.201922866712158   3.593444357905486   1.668672857883234 
 -2.489802730498697   5.748755209978392   8.337279374291775 
 -3.735067664432056  12.216751125275811   8.337250036642640 
  1.245560104640488  12.216522328460783   8.337419676945531 
  2.491488384588459   5.748681303947140   8.335172174080499 
  6.223423937714363  12.215884796081838   8.336526028150915 
 -6.224639133332145  12.215999883369191   1.669397808022382 
  7.466213147315389   5.751025245225236   8.335488379761976 
 -1.244803935586666  12.217059927724657   1.668535716338951 
  0.000814305936898   5.748437867353558   1.669019172644694 
 -1.244524558439799   7.904219859380167   1.668504704702912 
  4.978794088273354   5.751476411673602   1.678148649349148 
  3.735289299539855  12.216067284775443   1.669004122731425 
  9.956081618718393   5.749372498830444   1.669637265767102 
 -3.735659796517896   7.904215043713358   8.336710298513005 
  2.489009314925148   1.438115868367641   8.336592073152252 
  6.222633126463638   7.904564251567525   8.321494124388638 
  7.468172779386901   1.438648300150536   8.337198475396942 
 12.447128070711003   1.437114666113540   8.337362221109805 
  1.244415994877542   0.718860365091241   1.666680849931996 
  4.978180164466354   7.186670981832697   1.658875276545442 
  6.223429795961445   0.718827221402307   1.666682853533980 
  9.957625843020500   7.185975511309755   1.665670277852441 
 11.202300130464598   0.718982482185952   1.666176128764811 
 -3.734259838875126   9.341933472807694   8.339779772467352 
  1.244981527643408   9.341955458673821   8.339216161893182 
  2.488839769005240   2.874685140235014   8.338920500471669 
  6.223253274692924   9.343486610616271   8.346938067039806 
  7.468358099504896   2.874523903824293   8.340078767865830 
 12.446802075668991   2.874596754615843   8.339719557822777 
 -1.244648724703836   9.341929887866284   1.666539057708400 
 -0.000531441144407   2.874329828700774   1.666043244560593 
  4.978635228327618   2.874860928148097   1.666664871171162 
  3.734384236932073   9.342614856514510   1.665944896536250 
  8.712563407498006   9.342019311857182   1.665506576061607 
  9.957715717103104   2.874559764803633   1.666470044464739 
 -4.979070750430380  11.498021355445070   8.339631511028669 
  0.000073206010842  11.497966677137866   8.339416871033595 
  1.244289790028805   5.029928205323673   8.339330047183921 
  6.223412762587473   5.030166752785258   8.343735563116470 
  4.978923232841846  11.498927996765053   8.340626827156980 
 11.202416099144017   5.030296591406080   8.339667839873757 
 -1.244773467402842   5.030178561075160   1.666643437261968 
 -2.489505047719484  11.498023215967102   1.666460651780395 
  2.489593454335625  11.498171177358840   1.666481370743187 
  3.733306528277191   5.030317256143754   1.661348097419627 
  7.467985593505243  11.498512484516610   1.665844008472278 
  8.712990100181068   5.030313122932263   1.665805279928023 
  0.000143888945259   7.185960297395271   8.339187850224253 
  1.244415994877543   0.718860365091241   8.339276362912631 
  4.978180164466355   7.186670981832698   8.347081936299185 
  6.223429795961446   0.718827221402308   8.339274359310648 
  9.957625843020500   7.185975511309755   8.340286934992186 
 -2.489330888507634   7.186021514007250   1.666468556645381 
 11.202300130464598   0.718982482185953   8.339781084079817 
  3.733856817106209   0.718870949359541   1.666552366553109 
  2.489518544868329   7.186100408305461   1.667871587479055 
  7.468569850774143   7.185755979596615   1.658728771639445 
  8.712982710781223   0.718625170084889   1.666419640173227 
  2.489518544868329   7.186100408305462   8.338085625365572 
 13.691484974500225   0.719056825004769   1.666230011299313 
 -1.244648724703836   9.341929887866284   8.339418155136228 
 -0.000531441144407   2.874329828700775   8.339913968284035 
  4.978635228327619   2.874860928148098   8.339292341673465 
  3.734384236932074   9.342614856514510   8.340012316308378 
  8.712563407498006   9.342019311857182   8.340450636783022 
  9.957715717103104   2.874559764803634   8.339487168379902 
 -3.734259838875126   9.341933472807694   1.666177440377275 
  1.244981527643407   9.341955458673821   1.666741050951446 
  2.488839769005240   2.874685140235013   1.667036712372958 
  6.223253274692923   9.343486610616271   1.659019145804835 
  7.468358099504895   2.874523903824292   1.665878444978798 
 12.446802075668991   2.874596754615842   1.666237655021851 
 -1.244773467402842   5.030178561075161   8.339313775582674 
 -2.489505047719483  11.498023215967102   8.339496561064232 
  2.489593454335626  11.498171177358840   8.339475842101439 
  3.733306528277191   5.030317256143755   8.344609115424987 
  7.467985593505244  11.498512484516610   8.340113204372349 
 -4.979070750430381  11.498021355445070   1.666325701815959 
  8.712990100181068   5.030313122932264   8.340151932916605 
  0.000073206010842  11.497966677137866   1.666540341811032 
  1.244289790028805   5.029928205323672   1.666627165660707 
  0.000143888945258   7.185960297395270   1.666769362620389 
  6.223412762587472   5.030166752785257   1.662221649728159 
  4.978923232841845  11.498927996765053   1.665330385687648 
 11.202416099144017   5.030296591406079   1.666289372970871 
 -2.489330888507633   7.186021514007251   8.339488656199247 
  3.733856817106209   0.718870949359542   8.339404846291506 
  7.468569850774144   7.185755979596616   8.347228441205196 
  8.712982710781223   0.718625170084890   8.339537572671402 
 13.691484974500225   0.719056825004770   8.339727201545314 
  0.002259208979949   1.439619764562278   5.002978606422314 
  3.738631152152010   7.895800308934693   5.002978606422314 
  4.972029108987374   1.450154664396645   5.002978606422314 
  8.724870034825543   7.901549567404568   5.002978606422314 
  9.956555979280431   1.434697749858026   5.002978606422314 
 -4.978652805367701  10.060761037002923  11.673616748318732 
 -0.000057354454881  10.060765745812050  11.673616748318732 
  1.244706293939086   3.593050737648889  11.673616748318732 
  4.978697226569251  10.060714572313286  11.673616748318732 
  6.223483949519299   3.592898155630482  11.673616748318732 
 11.202191581760760   3.593133622565234  11.673616748318732 
 -2.485416189309992  10.062317006367914   5.002978606422314 
 -1.243479840439246   3.593826907692681   5.002978606422314 
  3.722897334884792   3.630691759984786   5.002978606422314 
  2.489284516496574  10.054429010660911   5.002978606422314 
  7.471366366254931  10.073576320623006   5.002978606422314 
  8.720622436680488   3.579804997675382   5.002978606422314 
 -6.223412501531865  12.216578864413886  11.673616748318732 
 -1.244671327355035  12.216548328945496  11.673616748318732 
 -0.000003824986998   5.749015225431518  11.673616748318732 
  4.978775688378771   5.748901211377724  11.673616748318732 
  3.734002744316962  12.216572354605171  11.673616748318732 
  9.957555733382730   5.749010943949296  11.673616748318732 
 -2.481821289054983   5.749705899584772   5.002978606422314 
 -3.731045245304005  12.220344261302502   5.002978606422314 
  1.243610143009274  12.212179393736324   5.002978606422314 
  2.493321478297348   5.722032252619162   5.002978606422314 
  6.224310321494461  12.224814081793911   5.002978606422314 
  7.493275329392655   5.720079576843913   5.002978606422314 
 -1.244726668407233   7.904884306285391  11.673616748318732 
  0.000039500836665   1.437137741233767  11.673616748318732 
  3.733985895662309   7.904838470929031  11.673616748318732 
  4.978832885399549   1.437089521028206  11.673616748318732 
  8.712961172602814   7.904889038454584  11.673616748318732 
 -3.725064683109841   7.906542179712679   5.002978606422314 
  9.957447644866292   1.437175548654735  11.673616748318732 
  2.496638975682378   1.448940543348040   5.002978606422314 
  1.255359076367540   7.893351110189895   5.002978606422314 
  7.468560392219894   1.430476085826104   5.002978606422314 
  1.244654090592952   7.904876124370526  11.673616748318732 
 12.447475997600366   1.439357115971455   5.002978606422314 
 -2.489342135881193  10.060745552172696  11.673616748318732 
 -1.244708269810489   3.593109749285579  11.673616748318732 
  3.734128286863390   3.593022470720609  11.673616748318732 
  2.489263563959449  10.060738374222643  11.673616748318732 
  7.468247923682536  10.060726135233578  11.673616748318732 
  8.712811864479972   3.593049111926887  11.673616748318732 
 -4.975213172478919  10.062916946796344   5.002978606422314 
  0.003406083800828  10.057362674017398   5.002978606422314 
  1.239499910146506   3.590482340437209   5.002978606422314 
  4.962251184018108  10.091903344587385   5.002978606422314 
  6.230150919395568   3.582819854930789   5.002978606422314 
 11.205998649753369   3.591630321246004   5.002978606422314 
 -2.489411296010582   5.749029197536469  11.673616748318732 
 -3.734005215202556  12.216564439528966  11.673616748318732 
  1.244587029327835  12.216565284588025  11.673616748318732 
  2.489388275738714   5.748993249403705  11.673616748318732 
  6.223510924968624  12.216546880801298  11.673616748318732 
 -6.216939687712016  12.225696453233605   5.002978606422314 
  7.468165377530315   5.748876805529012  11.673616748318732 
 -1.245791350896013  12.219480999148109   5.002978606422314 
  0.005230812257399   5.749326306710163   5.002978606422314 
 -1.237638430850839   7.904894718172848   5.002978606422314 
  3.726119159299080  12.225787802644845   5.002978606422314 
  9.969725845940495   5.745507739604701   5.002978606422314 
 -3.734035507155361   7.904865973808219  11.673616748318732 
  2.489442597466735   1.437162658543547  11.673616748318732 
  6.223442092401998   7.904807739208766  11.673616748318732 
  7.468123728621027   1.437074839053919  11.673616748318732 
 12.446925897953193   1.437189500857416  11.673616748318732 
  6.165254122932855   7.876320722863944   5.002978606422314 
  4.953604185370293   7.165803171906130   5.002978606422314 
  3.724494023409056   5.040006180070831   5.002978606422314 
  4.914224512709142   5.767942735477404   5.002978606422314 
Generated by cif2cell 2.0.0.  :  Failed to get author information, No journal information. Species order: B N C 
 1.0
 14.936314146199660   0.000000000000000   0.000000000000000
 -7.468157073099825  12.935227489513863   0.000000000000000
  0.000000000000001   0.000000000000001  13.341276283792837
 B N C 
 142 142   4
Cartesian
  1.251386160109031   0.725708302816869   5.002978606422314 
  6.217544546345057   0.725580218673751   5.002978606422314 
  9.958198496737527   7.189684440023665   5.002978606422314 
 11.200489397077318   0.720858349244360   5.002978606422314 
 -3.734461699722442   9.342033783724311  11.673616748318732 
  1.245063592418355   9.341953608524614  11.673616748318732 
  2.489872362121515   2.874752013379083  11.673616748318732 
  6.223448434972480   9.341255186190908  11.673616748318732 
  7.467775939979551   2.874900171190037  11.673616748318732 
 12.446802262834892   2.874455877849845  11.673616748318732 
 -1.241896324245339   9.342094245705415   5.002978606422314 
  0.001013137847731   2.874544409676538   5.002978606422314 
  4.973816491782419   2.898221672572928   5.002978606422314 
  3.746012490799017   9.338121903002522   5.002978606422314 
  8.705386419182526   9.337211095378260   5.002978606422314 
  9.960395722905073   2.870138055189154   5.002978606422314 
 -4.978954258593864  11.497699476221815  11.673616748318732 
  0.000029101605673  11.497941372778334  11.673616748318732 
  1.245361230278100   5.030581060440343  11.673616748318732 
  6.223249778381462   5.030880125071751  11.673616748318732 
  4.978930285465096  11.497164227764445  11.673616748318732 
 11.201724476861571   5.030641491787493  11.673616748318732 
 -1.238996811611712   5.031258203078870   5.002978606422314 
 -2.488821318559872  11.499615381031738   5.002978606422314 
  2.490267545184630  11.492275944310684   5.002978606422314 
  7.472193699991011  11.498249097554556   5.002978606422314 
  8.724713113446066   5.018838467769314   5.002978606422314 
  0.000325223404708   7.186315835310892  11.673616748318732 
  1.244827600460747   0.718368212710583  11.673616748318732 
  4.979271992482559   7.186147053854479  11.673616748318732 
  6.223401949404167   0.718805426663299  11.673616748318732 
  9.956791275556416   7.186425745589736  11.673616748318732 
 -2.484753041025102   7.187834441802984   5.002978606422314 
 11.202170799995121   0.718331165174792  11.673616748318732 
  3.735762151390706   0.724057905659770   5.002978606422314 
  2.503827113401868   7.168207493360030   5.002978606422314 
  7.463578340390707   7.164042051886077   5.002978606422314 
  8.712071193977263   0.714452543838907   5.002978606422314 
  2.490193861478538   7.186229059266679  11.673616748318732 
 13.693761166280549   0.719240565208190   5.002978606422314 
 -1.244712270085313   9.342123012435545  11.673616748318732 
  0.000272682169951   2.874434620483144  11.673616748318732 
  4.978915631147654   2.874948304971683  11.673616748318732 
  3.734587560153701   9.341560564899904  11.673616748318732 
  8.712362195199328   9.341728575147407  11.673616748318732 
  9.957107373772159   2.874697305260538  11.673616748318732 
 -3.733817340514852   9.343654701175847   5.002978606422314 
  1.251200628633719   9.334664781729016   5.002978606422314 
  2.494216324044376   2.889838708759409   5.002978606422314 
  6.205601066542110   9.349097891156871   5.002978606422314 
  7.468992403012344   2.869086200118917   5.002978606422314 
 12.449012350673453   2.874757737411171   5.002978606422314 
 -1.244628595956677   5.030510774159702  11.673616748318732 
 -2.489486089909810  11.497972311475900  11.673616748318732 
  2.489552586260372  11.497624961360605  11.673616748318732 
  3.734821847852169   5.030817702751318  11.673616748318732 
  7.468071116914484  11.497214305484791  11.673616748318732 
 -4.977058175776643  11.498346896432246   5.002978606422314 
  8.712092589485668   5.030832992498937  11.673616748318732 
 -0.000610025045708  11.496731678836404   5.002978606422314 
  1.248289756816490   5.025501660119647   5.002978606422314 
  0.006996112186582   7.184407490969100   5.002978606422314 
  6.237261719866215   5.029458356488277   5.002978606422314 
  4.971926026245788  11.508512256495534   5.002978606422314 
 11.207269743565373   5.030914209429766   5.002978606422314 
 -2.489670018259842   7.186369438307967  11.673616748318732 
  3.734188836990586   0.718707844816466  11.673616748318732 
  7.467530667644943   7.186337533317889  11.673616748318732 
  8.712670073790180   0.718634170132585  11.673616748318732 
 13.691705300824420   0.718110572280141  11.673616748318732 
 -0.000343942078812   1.437151757514536   1.668724220864198 
  3.737480074279009   7.903805433217690   1.671321458543462 
  4.978465142107993   1.439193678205949   1.669475970600758 
  8.709682174162101   7.903775899236702   1.670798304138783 
  9.957788758528000   1.437644426572588   1.668568902514878 
 -4.981065614627457  10.059556044956786   8.336150641846137 
  0.000839979327474  10.060180472830650   8.337488222426837 
  1.244895026504503   3.593396533523579   8.336915222635358 
  4.980715971523959  10.059406580585497   8.335922653708318 
  6.222999914874395   3.596292214489850   8.336214451049633 
 11.201922866712158   3.593444357905487   8.337284354961394 
 -2.490235322011693  10.060261065187358   1.668606949586662 
 -1.244700513128703   3.592917664883907   1.668475588720628 
  3.734350181810586   3.595822358223451   1.670514046451153 
  2.491776890031173  10.059702905424675   1.669609112143548 
  7.466096428219719  10.059072467825789   1.670657217329248 
  8.712169622070160   3.594543562914119   1.669322625895814 
 -6.224639133332144  12.215999883369191   8.336559404822246 
 -1.244803935586666  12.217059927724657   8.337421496505677 
  0.000814305936898   5.748437867353559   8.336938040199934 
  4.978794088273355   5.751476411673603   8.327808563495481 
  3.735289299539855  12.216067284775443   8.336953090113203 
  9.956081618718393   5.749372498830445   8.336319947077525 
 -2.489802730498697   5.748755209978391   1.668677838552852 
 -3.735067664432056  12.216751125275811   1.668707176201988 
  1.245560104640488  12.216522328460783   1.668537535899096 
  2.491488384588458   5.748681303947139   1.670785038764129 
  6.223423937714363  12.215884796081838   1.669431184693711 
  7.466213147315388   5.751025245225235   1.670468833082650 
 -1.244524558439799   7.904219859380168   8.337452508141716 
 -0.000343942078811   1.437151757514537   8.337232991980443 
  3.737480074279010   7.903805433217691   8.334635754301166 
  4.978465142107994   1.439193678205950   8.336481242243869 
  8.709682174162101   7.903775899236703   8.335158908705845 
 -3.735659796517896   7.904215043713357   1.669246914331624 
  9.957788758528000   1.437644426572588   8.337388310329748 
  2.489009314925147   1.438115868367640   1.669365139692376 
  1.246749397119136   7.903875116317147   1.669604534550081 
  6.222633126463637   7.904564251567524   1.684463088455991 
  7.468172779386900   1.438648300150535   1.668758737447673 
  1.246749397119137   7.903875116317148   8.336352678294546 
 12.447128070711003   1.437114666113539   1.668594991734822 
 -2.490235322011693  10.060261065187358   8.337350263257967 
 -1.244700513128703   3.592917664883908   8.337481624123999 
  3.734350181810587   3.595822358223452   8.335443166393461 
  2.491776890031173  10.059702905424675   8.336348100701080 
  7.466096428219720  10.059072467825789   8.335299995515381 
  8.712169622070160   3.594543562914120   8.336634586948813 
 -4.981065614627457  10.059556044956786   1.669806570998504 
  0.000839979327473  10.060180472830650   1.668468990417792 
  1.244895026504503   3.593396533523578   1.669041990209270 
  4.980715971523958  10.059406580585497   1.670034559136309 
  6.222999914874394   3.596292214489849   1.669742761794994 
 11.201922866712158   3.593444357905486   1.668672857883234 
 -2.489802730498697   5.748755209978392   8.337279374291775 
 -3.735067664432056  12.216751125275811   8.337250036642640 
  1.245560104640488  12.216522328460783   8.337419676945531 
  2.491488384588459   5.748681303947140   8.335172174080499 
  6.223423937714363  12.215884796081838   8.336526028150915 
 -6.224639133332145  12.215999883369191   1.669397808022382 
  7.466213147315389   5.751025245225236   8.335488379761976 
 -1.244803935586666  12.217059927724657   1.668535716338951 
  0.000814305936898   5.748437867353558   1.669019172644694 
 -1.244524558439799   7.904219859380167   1.668504704702912 
  4.978794088273354   5.751476411673602   1.678148649349148 
  3.735289299539855  12.216067284775443   1.669004122731425 
  9.956081618718393   5.749372498830444   1.669637265767102 
 -3.735659796517896   7.904215043713358   8.336710298513005 
  2.489009314925148   1.438115868367641   8.336592073152252 
  6.222633126463638   7.904564251567525   8.321494124388638 
  7.468172779386901   1.438648300150536   8.337198475396942 
 12.447128070711003   1.437114666113540   8.337362221109805 
  1.244415994877542   0.718860365091241   1.666680849931996 
  4.978180164466354   7.186670981832697   1.658875276545442 
  6.223429795961445   0.718827221402307   1.666682853533980 
  9.957625843020500   7.185975511309755   1.665670277852441 
 11.202300130464598   0.718982482185952   1.666176128764811 
 -3.734259838875126   9.341933472807694   8.339779772467352 
  1.244981527643408   9.341955458673821   8.339216161893182 
  2.488839769005240   2.874685140235014   8.338920500471669 
  6.223253274692924   9.343486610616271   8.346938067039806 
  7.468358099504896   2.874523903824293   8.340078767865830 
 12.446802075668991   2.874596754615843   8.339719557822777 
 -1.244648724703836   9.341929887866284   1.666539057708400 
 -0.000531441144407   2.874329828700774   1.666043244560593 
  4.978635228327618   2.874860928148097   1.666664871171162 
  3.734384236932073   9.342614856514510   1.665944896536250 
  8.712563407498006   9.342019311857182   1.665506576061607 
  9.957715717103104   2.874559764803633   1.666470044464739 
 -4.979070750430380  11.498021355445070   8.339631511028669 
  0.000073206010842  11.497966677137866   8.339416871033595 
  1.244289790028805   5.029928205323673   8.339330047183921 
  6.223412762587473   5.030166752785258   8.343735563116470 
  4.978923232841846  11.498927996765053   8.340626827156980 
 11.202416099144017   5.030296591406080   8.339667839873757 
 -1.244773467402842   5.030178561075160   1.666643437261968 
 -2.489505047719484  11.498023215967102   1.666460651780395 
  2.489593454335625  11.498171177358840   1.666481370743187 
  3.733306528277191   5.030317256143754   1.661348097419627 
  7.467985593505243  11.498512484516610   1.665844008472278 
  8.712990100181068   5.030313122932263   1.665805279928023 
  0.000143888945259   7.185960297395271   8.339187850224253 
  1.244415994877543   0.718860365091241   8.339276362912631 
  4.978180164466355   7.186670981832698   8.347081936299185 
  6.223429795961446   0.718827221402308   8.339274359310648 
  9.957625843020500   7.185975511309755   8.340286934992186 
 -2.489330888507634   7.186021514007250   1.666468556645381 
 11.202300130464598   0.718982482185953   8.339781084079817 
  3.733856817106209   0.718870949359541   1.666552366553109 
  2.489518544868329   7.186100408305461   1.667871587479055 
  7.468569850774143   7.185755979596615   1.658728771639445 
  8.712982710781223   0.718625170084889   1.666419640173227 
  2.489518544868329   7.186100408305462   8.338085625365572 
 13.691484974500225   0.719056825004769   1.666230011299313 
 -1.244648724703836   9.341929887866284   8.339418155136228 
 -0.000531441144407   2.874329828700775   8.339913968284035 
  4.978635228327619   2.874860928148098   8.339292341673465 
  3.734384236932074   9.342614856514510   8.340012316308378 
  8.712563407498006   9.342019311857182   8.340450636783022 
  9.957715717103104   2.874559764803634   8.339487168379902 
 -3.734259838875126   9.341933472807694   1.666177440377275 
  1.244981527643407   9.341955458673821   1.666741050951446 
  2.488839769005240   2.874685140235013   1.667036712372958 
  6.223253274692923   9.343486610616271   1.659019145804835 