 Sb B N 
 1.0
 17.527899999999772   0.000000000000000   0.000000000000000
 -8.763949999999658  15.179606674993195   0.000000000000000
  0.000000000000001   0.000000000000002  15.000000000000000
 Sb B N 
   1  49  47
Cartesian
  4.351297511162173   7.665122264205631   1.338993232701345 
  7.529570267553639  14.461262080847170   1.659974199170400 
 15.007098489348033   1.427211551484194   1.647078867519825 
 13.744353640944349   3.593457685305664   1.665959640140850 
 12.499625915823367   5.764885104310248   1.710889048502325 
 11.287852958191085   7.941860208404739   1.750483993461780 
 10.080332078240419  10.126822367298049   1.730172918113835 
  8.821952097805925  12.316318472317654   1.720038412161840 
 -7.488761146049535  14.440493237178575   1.692079922727465 
 -0.012713981401396   1.410733658486027   1.690664666677815 
 -1.285478723029047   3.576517523354600   1.688633952425880 
 -2.532409926677313   5.751108955966133   1.674609906562920 
 -3.750866566697582   7.926229152943995   1.693050487542870 
 -4.968753610714696  10.103229679928388   1.717113644022915 
 -6.216551227968296  12.278047335853785   1.714729748506455 
 -4.982634952061185  14.427427646929422   1.676030128969275 
  2.495431828715174   1.387017971929849   1.719565669908540 
  1.206723707022523   3.538584493541488   1.745150118631305 
 -0.046544719896685   5.728082811933453   1.657646644872405 
 -1.259161592096794   7.909803714874233   1.618642837836645 
 -2.477634668728719  10.087312971028100   1.622569274601255 
 -3.719726450345080  12.261732794415755   1.649748038758680 
 -2.479918413033642  14.425136994094196   1.662359013468840 
  5.014906967956565   1.405020765324031   1.732578278984535 
  3.709292061032974   3.505305020509216   1.740064166156205 
  2.401939188584587   5.657838533195033   1.528220917664655 
  1.242545511389490   7.872057148777089   1.488402256372875 
  0.026395112745296  10.064753200559501   1.597566527552955 
 -1.217485873733652  12.250306885121011   1.620904947678240 
  0.014915352247496  14.431884684845233   1.646722146203205 
  7.511943823366050   1.427161041072103   1.717629701416665 
  6.238492006459408   3.595252000130079   1.743528455128905 
  4.880671537658799   5.633871290846178   1.670826800232075 
  3.913433515066759   9.414189875324526   2.353794846995865 
  2.497363727803691  10.064579037157124   1.921010412814605 
  1.282940430630794  12.253456285803978   1.635658748772630 
  2.508126115631034  14.439869478484285   1.633008710624430 
 10.005285102025507   1.435550312883159   1.687410154758375 
  8.737799940052426   3.616856723960624   1.724665928686710 
  7.466625616270859   5.808174842580669   1.601660806638120 
  6.457764601452685   8.150270032227690   1.193678800735695 
  5.181211963288119  10.214138219357320   1.809090933835725 
  3.780594526640907  12.269850007257823   1.659067317380955 
  5.008806186334214  14.451345849109790   1.620270155377395 
 12.503361448838982   1.433258306693175   1.649954474269680 
 11.243483972004835   3.604095380034027   1.699342957132560 
  9.993784947207356   5.780006972849867   1.712826224463465 
  8.810984799332534   7.969908440398498   1.614075147175050 
  7.640521814765337  10.206309908694870   1.569185108508255 
  6.311860796855917  12.335204183949042   1.611648588984630 
  8.793323002975807  13.748325522192856   1.701522831978105 
 16.266449629896947   0.713786725069707   1.658311025455860 
 14.991815477790304   2.866601988661351   1.658918383235385 
 13.741800215398362   5.035073993427660   1.680447175592100 
 12.523509117226030   7.207833681078880   1.731936045750600 
 11.313504113552316   9.386626603429141   1.763948651387820 
 10.067884807162564  11.571582837794478   1.750996759787085 
 -6.232198726371692  13.717856392397229   1.686856011394140 
  1.246387414756357   0.689888212446854   1.688224311656730 
 -0.041421179980007   2.839094341772523   1.720169067591285 
 -1.298160357502429   5.014257070234172   1.681017341580240 
 -2.517809718195122   7.193167218168874   1.665347923705125 
 -3.733046871745633   9.370996165230968   1.677234637057980 
 -4.970392531401714  11.547564267918508   1.692491861490525 
 -3.730235523080715  13.706371250777933   1.650409184312220 
  3.763941944549131   0.685072847942444   1.702417858852830 
  2.461908664071354   2.807594630674359   1.759707274893960 
  1.170086805666543   4.958927670004847   1.709872785776355 
 -0.036073764283649   7.167800676878880   1.593476019712530 
 -1.244654658748075   9.356430319542444   1.584197515093635 
 -2.476316117003694  11.535211424212308   1.619265252279930 
 -1.231844173754906  13.703511304038743   1.637527300402500 
  6.270380910828596   0.691446699081272   1.707402623716395 
  4.997335071787361   2.841824451694699   1.771656778430355 
  3.663125898787004   4.910822106854738   1.651896736510245 
  2.363994470841667   7.029796730669253   1.247445963618135 
  1.253635078357605   9.331104219101970   1.624940808649305 
  0.023283473415555  11.525754743652145   1.621415748391065 
  1.261807101195425  13.713745489339932   1.621354788957210 
  8.762446074912042   0.705284440636319   1.687393192044915 
  7.496536206780083   2.877228247685768   1.742657965354770 
  6.212098097507126   5.047704291689654   1.690912158762330 
  2.521525156454238  11.541310835391986   1.705558308570705 
  3.758320444991169  13.729873604808317   1.622901128057760 
 11.256052956482529   0.713501012409083   1.654183657863600 
  9.991573599953680   2.886837393386268   1.714409564490150 
  8.726076358356940   5.069726280761877   1.694714035979265 
  7.557949335369977   7.260935226748228   1.441109311567800 
  6.430463136012548   9.540450532892159   1.406639503849410 
  5.080194783189351  11.639343856329264   1.609933408984440 
  6.283880656130742  13.767989382858088   1.620432764002875 
 13.756824055831295   0.716756612783991   1.630192984393620 
 12.492818582229944   2.878549489699354   1.667045962370655 
 11.242659928111209   5.048641322265743   1.717513675913490 
 10.035671486041945   7.224551299010531   1.728890840232990 
  8.849038633366636   9.417498439759026   1.634728446086535 
  7.588418059150812  11.631925618164306   1.675558847557665 
