As B N                                  
   1.0000000000000000     
     8.7639499999999995  -15.1796066749929999    0.0000000000000000
     8.7639499999999995   15.1796066749929999    0.0000000000000000
     0.0000000000000000    0.0000000000000000   15.0000000000000000
   As   B    N 
     1    49    47
Selective dynamics
Direct
  0.5228162377709001  0.4910561660081285  0.1107706952371167   T   T   T
  0.9068323517378017  0.9536516638821596  0.1110073630256524   T   T   T
  0.9034167155841551  0.0938971067343647  0.1110556851174394   T   T   T
  0.9027198762556289  0.2361422210045960  0.1110515604904071   T   T   T
  0.9035917661989638  0.3794259866304506  0.1110000673421236   T   T   T
  0.9072185034037248  0.5237147483644863  0.1110100558188716   T   T   T
  0.9109339834981586  0.6687079831490524  0.1110039727983941   T   T   T
  0.9112314828210661  0.8133881245732361  0.1110134379682338   T   T   T
  0.0499895872020142  0.9539438078415359  0.1109890524980474   T   T   T
  0.0476555304929709  0.0954891237602911  0.1109868357029964   T   T   T
  0.0452216182154642  0.2365440524092077  0.1109778636726606   T   T   T
  0.0447232061670841  0.3792691222329106  0.1109753041869843   T   T   T
  0.0462947709188425  0.5232577077939214  0.1110078405730818   T   T   T
  0.0494543603099102  0.6674940564879942  0.1110302367163976   T   T   T
  0.0508827488382032  0.8112844044818071  0.1110337719651491   T   T   T
  0.1918090411262237  0.9531892915797471  0.1110338535885604   T   T   T
  0.1899046059496635  0.0947494379045154  0.1110572550843454   T   T   T
  0.1890117552574944  0.2380747818235337  0.1110421061307230   T   T   T
  0.1860549646310160  0.3791929774375880  0.1109970568815190   T   T   T
  0.1853734028710259  0.5230295419115677  0.1109916236913403   T   T   T
  0.1888231787686979  0.6669193600369093  0.1110517622794932   T   T   T
  0.1914702036107339  0.8103477693712431  0.1110189302062452   T   T   T
  0.3336250397209483  0.9523607808812525  0.1110520104773047   T   T   T
  0.3332840112558461  0.0948789397222076  0.1111076125041418   T   T   T
  0.3293255366157677  0.2349420814087310  0.1110763330830634   T   T   T
  0.3308668236757161  0.3827225335426854  0.1110674802499588   T   T   T
  0.3226404587782464  0.5226038368722281  0.1110626558225997   T   T   T
  0.3282488611622247  0.6668487021600841  0.1110497132359774   T   T   T
  0.3326088277486527  0.8095781695226686  0.1110306206836588   T   T   T
  0.4754470239582819  0.9501806139478352  0.1110307286136262   T   T   T
  0.4758429571365395  0.0935497603172113  0.1110800639468569   T   T   T
  0.4755350650756346  0.2357333687906626  0.1110574223548988   T   T   T
  0.4668494530558938  0.3688074773552009  0.1110084821059044   T   T   T
  0.4648583551000427  0.5543706395682989  0.1110719645497826   T   T   T
  0.4662331370069103  0.6572549181424537  0.1110659675700772   T   T   T
  0.4739294643279777  0.8054292706600985  0.1110063751270263   T   T   T
  0.6172201186875567  0.9497682247806536  0.1110595311955820   T   T   T
  0.6179514973275848  0.0931796374346013  0.1110572400362465   T   T   T
  0.6185350849272141  0.2364957450871824  0.1109835866676776   T   T   T
  0.6198733703548918  0.3801399234925190  0.1109863133469224   T   T   T
  0.6401098564454414  0.5328135018968321  0.1109798509760814   T   T   T
  0.6463055666897531  0.6779309005241647  0.1111098954194088   T   T   T
  0.6156199335861094  0.8066361081940463  0.1110328194227965   T   T   T
  0.7607450171166343  0.9508579883374781  0.1110679479895962   T   T   T
  0.7601938379073727  0.0931020711489570  0.1110998658428631   T   T   T
  0.7606414674334511  0.2361192690055131  0.1110379148646798   T   T   T
  0.7622640820754417  0.3796193071582737  0.1109624705907652   T   T   T
  0.7691559558223324  0.5245423062867578  0.1109773044916199   T   T   T
  0.7768062834267336  0.6735486916336707  0.1110210711818804   T   T   T
  0.7679936549100120  0.8127550711890349  0.1110497573266094   T   T   T
  0.9552691316818404  0.9070487814573454  0.1109732821867717   T   T   T
  0.9523748991491177  0.0477102569210690  0.1109904215761089   T   T   T
  0.9502285333293230  0.1886007922958258  0.1110136394051202   T   T   T
  0.9500712206630617  0.3312396303456622  0.1109916842385835   T   T   T
  0.9520417507268506  0.4748304115286249  0.1109943511293059   T   T   T
  0.9551475335479479  0.6192488881130090  0.1110002955064742   T   T   T
  0.9562523423523160  0.7637952025324347  0.1110115705100994   T   T   T
  0.0970448082440647  0.9060304422916299  0.1109974088116141   T   T   T
  0.0954420052779609  0.0481326333110073  0.1109821712937479   T   T   T
  0.0940554129246161  0.1902821339311389  0.1109759822582666   T   T   T
  0.0917797030624124  0.3313551077247319  0.1109537425630900   T   T   T
  0.0916621212859128  0.4745572590979013  0.1109610345991057   T   T   T
  0.0945786466477250  0.6186286194379287  0.1110194061863794   T   T   T
  0.0968209810824205  0.7626683331315256  0.1110139719642837   T   T   T
  0.2388628480625170  0.9052703231161565  0.1110055236654239   T   T   T
  0.2383804990319817  0.0479946291009471  0.1110614615027099   T   T   T
  0.2355586630054680  0.1892296368081010  0.1110521633244412   T   T   T
  0.2358875012212842  0.3337787960726578  0.1110221048652831   T   T   T
  0.2304780299105988  0.4740512970175363  0.1109893933065477   T   T   T
  0.2342103372912006  0.6182909751078262  0.1110206323261658   T   T   T
  0.2378425357435323  0.7620299482714659  0.1110232386645681   T   T   T
  0.3807245038590439  0.9042286925366624  0.1110125801248521   T   T   T
  0.3809763768633756  0.0472819423676711  0.1110878134796158   T   T   T
  0.3801068782580775  0.1899885187037395  0.1110710465631660   T   T   T
  0.3743979793252931  0.3295945178808239  0.1110474892271007   T   T   T
  0.3740409903301860  0.4803843250320683  0.1110728447113087   T   T   T
  0.3729556783085237  0.6178971763433139  0.1110514406879695   T   T   T
  0.3792646057452008  0.7611120240035900  0.1110062890224359   T   T   T
  0.5223694422357804  0.9010111525877537  0.1110031344782787   T   T   T
  0.5230934884422880  0.0454198334677097  0.1110383767299030   T   T   T
  0.5234188898650747  0.1887890127673801  0.1110199830853035   T   T   T
  0.5233061708749125  0.3312494618173296  0.1110039020432432   T   T   T
  0.5203840474272846  0.7540433736441470  0.1110082776079715   T   T   T
  0.6645626018334175  0.9010806054740023  0.1110335862308760   T   T   T
  0.6650493595952123  0.0448255546672051  0.1110646298115820   T   T   T
  0.6656125825850198  0.1885312368612685  0.1110030083468991   T   T   T
  0.6666431237006875  0.3322784073405934  0.1109423699684383   T   T   T
  0.6747449495345976  0.4768710242365956  0.1109650883105697   T   T   T
  0.6828648612164239  0.6263479281755933  0.1110382419203847   T   T   T
  0.6686642262938430  0.7627947094143752  0.1110360304580365   T   T   T
  0.8108520674061660  0.9054349641303029  0.1110262116406159   T   T   T
  0.8078135627312438  0.0453568920708719  0.1110705041897708   T   T   T
  0.8076686914300798  0.1881251927855594  0.1110664139020485   T   T   T
  0.8085425552991157  0.3314443407013489  0.1109795242019155   T   T   T
  0.8127680021812603  0.4753499129590136  0.1109580710461976   T   T   T
  0.8167467226429829  0.6207113015700045  0.1109710662704574   T   T   T
  0.8165708719318374  0.7665701025510525  0.1110134190815562   T   T   T

  0.00000000E+00  0.00000000E+00  0.00000000E+00
  0.00000000E+00  0.00000000E+00  0.00000000E+00
  0.00000000E+00  0.00000000E+00  0.00000000E+00
  0.00000000E+00  0.00000000E+00  0.00000000E+00
  0.00000000E+00  0.00000000E+00  0.00000000E+00
  0.00000000E+00  0.00000000E+00  0.00000000E+00
  0.00000000E+00  0.00000000E+00  0.00000000E+00
  0.00000000E+00  0.00000000E+00  0.00000000E+00
  0.00000000E+00  0.00000000E+00  0.00000000E+00
  0.00000000E+00  0.00000000E+00  0.00000000E+00
  0.00000000E+00  0.00000000E+00  0.00000000E+00
  0.00000000E+00  0.00000000E+00  0.00000000E+00
  0.00000000E+00  0.00000000E+00  0.00000000E+00
  0.00000000E+00  0.00000000E+00  0.00000000E+00
  0.00000000E+00  0.00000000E+00  0.00000000E+00
  0.00000000E+00  0.00000000E+00  0.00000000E+00
  0.00000000E+00  0.00000000E+00  0.00000000E+00
  0.00000000E+00  0.00000000E+00  0.00000000E+00
  0.00000000E+00  0.00000000E+00  0.00000000E+00
  0.00000000E+00  0.00000000E+00  0.00000000E+00
  0.00000000E+00  0.00000000E+00  0.00000000E+00
  0.00000000E+00  0.00000000E+00  0.00000000E+00
  0.00000000E+00  0.00000000E+00  0.00000000E+00
  0.00000000E+00  0.00000000E+00  0.00000000E+00
  0.00000000E+00  0.00000000E+00  0.00000000E+00
  0.00000000E+00  0.00000000E+00  0.00000000E+00
  0.00000000E+00  0.00000000E+00  0.00000000E+00
  0.00000000E+00  0.00000000E+00  0.00000000E+00
  0.00000000E+00  0.00000000E+00  0.00000000E+00
  0.00000000E+00  0.00000000E+00  0.00000000E+00
  0.00000000E+00  0.00000000E+00  0.00000000E+00
  0.00000000E+00  0.00000000E+00  0.00000000E+00
  0.00000000E+00  0.00000000E+00  0.00000000E+00
  0.00000000E+00  0.00000000E+00  0.00000000E+00
  0.00000000E+00  0.00000000E+00  0.00000000E+00
  0.00000000E+00  0.00000000E+00  0.00000000E+00
  0.00000000E+00  0.00000000E+00  0.00000000E+00
  0.00000000E+00  0.00000000E+00  0.00000000E+00
  0.00000000E+00  0.00000000E+00  0.00000000E+00
  0.00000000E+00  0.00000000E+00  0.00000000E+00
  0.00000000E+00  0.00000000E+00  0.00000000E+00
  0.00000000E+00  0.00000000E+00  0.00000000E+00
  0.00000000E+00  0.00000000E+00  0.00000000E+00
  0.00000000E+00  0.00000000E+00  0.00000000E+00
  0.00000000E+00  0.00000000E+00  0.00000000E+00
  0.00000000E+00  0.00000000E+00  0.00000000E+00
  0.00000000E+00  0.00000000E+00  0.00000000E+00
  0.00000000E+00  0.00000000E+00  0.00000000E+00
  0.00000000E+00  0.00000000E+00  0.00000000E+00
  0.00000000E+00  0.00000000E+00  0.00000000E+00
  0.00000000E+00  0.00000000E+00  0.00000000E+00
  0.00000000E+00  0.00000000E+00  0.00000000E+00
  0.00000000E+00  0.00000000E+00  0.00000000E+00
  0.00000000E+00  0.00000000E+00  0.00000000E+00
  0.00000000E+00  0.00000000E+00  0.00000000E+00
  0.00000000E+00  0.00000000E+00  0.00000000E+00
  0.00000000E+00  0.00000000E+00  0.00000000E+00
  0.00000000E+00  0.00000000E+00  0.00000000E+00
  0.00000000E+00  0.00000000E+00  0.00000000E+00
  0.00000000E+00  0.00000000E+00  0.00000000E+00
  0.00000000E+00  0.00000000E+00  0.00000000E+00
  0.00000000E+00  0.00000000E+00  0.00000000E+00
  0.00000000E+00  0.00000000E+00  0.00000000E+00
  0.00000000E+00  0.00000000E+00  0.00000000E+00
  0.00000000E+00  0.00000000E+00  0.00000000E+00
  0.00000000E+00  0.00000000E+00  0.00000000E+00
  0.00000000E+00  0.00000000E+00  0.00000000E+00
  0.00000000E+00  0.00000000E+00  0.00000000E+00
  0.00000000E+00  0.00000000E+00  0.00000000E+00
  0.00000000E+00  0.00000000E+00  0.00000000E+00
  0.00000000E+00  0.00000000E+00  0.00000000E+00
  0.00000000E+00  0.00000000E+00  0.00000000E+00
  0.00000000E+00  0.00000000E+00  0.00000000E+00
  0.00000000E+00  0.00000000E+00  0.00000000E+00
  0.00000000E+00  0.00000000E+00  0.00000000E+00
  0.00000000E+00  0.00000000E+00  0.00000000E+00
  0.00000000E+00  0.00000000E+00  0.00000000E+00
  0.00000000E+00  0.00000000E+00  0.00000000E+00
  0.00000000E+00  0.00000000E+00  0.00000000E+00
  0.00000000E+00  0.00000000E+00  0.00000000E+00
  0.00000000E+00  0.00000000E+00  0.00000000E+00
  0.00000000E+00  0.00000000E+00  0.00000000E+00
  0.00000000E+00  0.00000000E+00  0.00000000E+00
  0.00000000E+00  0.00000000E+00  0.00000000E+00
  0.00000000E+00  0.00000000E+00  0.00000000E+00
  0.00000000E+00  0.00000000E+00  0.00000000E+00
  0.00000000E+00  0.00000000E+00  0.00000000E+00
  0.00000000E+00  0.00000000E+00  0.00000000E+00
  0.00000000E+00  0.00000000E+00  0.00000000E+00
  0.00000000E+00  0.00000000E+00  0.00000000E+00
  0.00000000E+00  0.00000000E+00  0.00000000E+00
  0.00000000E+00  0.00000000E+00  0.00000000E+00
  0.00000000E+00  0.00000000E+00  0.00000000E+00
  0.00000000E+00  0.00000000E+00  0.00000000E+00
  0.00000000E+00  0.00000000E+00  0.00000000E+00
  0.00000000E+00  0.00000000E+00  0.00000000E+00
  0.00000000E+00  0.00000000E+00  0.00000000E+00
