 N B Ge 
 1.0
 14.936314146199660   0.000000000000000   0.000000000000000
 -7.468157073099825  12.935227489513863   0.000000000000000
  0.000000000000001   0.000000000000001  13.341276283792837
 N B Ge 
 143 143   1
Cartesian
  1.245742022373499   0.718911397394523   1.667402091143106 
  4.979586080307022   7.187231731746664   1.703908953901831 
  6.223941310258498   0.718530808859287   1.669358205690809 
  9.958267977625965   7.186767630061106   1.672018976143112 
 11.202829547949834   0.718966659854881   1.669193573320673 
 -3.733481720220561   9.342453314495032   8.335873215347329 
  1.244850897969868   9.342568378422321   8.336599007153833 
  2.490783416187663   2.874998790085853   8.327297199028576 
  6.224306062668518   9.342452177888569   8.330239962708164 
  7.468560674592529   2.874616262457182   8.331404737381330 
 12.447805520372029   2.875134070778526   8.336743395785309 
 -1.244385687689253   9.342516562347269   1.669707531303616 
  0.001343066485501   2.875270417466644   1.668696093328402 
  4.979541573913149   2.874630083708340   1.685416734283743 
  3.734385355682817   9.342397639178559   1.674552475463299 
  8.713671636508259   9.342471727791311   1.672018976143112 
  9.958017945526295   2.874979246636975   1.670239983625858 
 -4.978000553378389  11.498116999170822   8.336412003460076 
  0.000289126522172  11.498146917954363   8.336414481290786 
  1.245828005124447   5.031324815205156   8.327297199028576 
  6.224732611698449   5.030574676508543   8.302048258942785 
  4.979428344670553  11.498149385353239   8.335717229218771 
 11.202953469937354   5.031003342671726   8.336070309790593 
 -1.243919146632671   5.031131035744563   1.667402091143106 
 -2.488878929708155  11.498042087200133   1.669707531303616 
  2.489680344842916  11.498213579613646   1.669212710118670 
  3.736040673601243   5.031499086276782   1.761111969860633 
  7.469067745213557  11.498283127549524   1.669886903054034 
  8.713568259993735   5.030923578760716   1.675717250136489 
  0.000379386808405   7.186922986494640   8.336372702863374 
  1.245742022373499   0.718911397394523   8.338555121701535 
  4.979586080307023   7.187231731746665   8.302048258942785 
  6.223941310258499   0.718530808859288   8.336599007153833 
  9.958267977625965   7.186767630061107   8.333938236701528 
 -2.488881623854701   7.186836547154306   1.669545209384552 
 11.202829547949834   0.718966659854881   8.336763639523955 
  3.734861883717565   0.718609561871246   1.669584509981255 
  2.489887774897667   7.186836956860059   1.685416734283743 
  7.468960872003049   7.186701567687511   1.682219915229401 
  8.713199539472773   0.718762132634518   1.669212710118670 
  2.489887774897668   7.186836956860060   8.320540478560899 
 13.692613286832909   0.719063773611934   1.669213817059293 
 -1.244385687689253   9.342516562347269   8.336249681540984 
  0.001343066485501   2.875270417466645   8.337261119516212 
  4.979541573913150   2.874630083708341   8.320540478560899 
  3.734385355682817   9.342397639178559   8.331404737381330 
  8.713671636508259   9.342471727791311   8.333938236701528 
  9.958017945526295   2.874979246636976   8.335717229218771 
 -3.733481720220562   9.342453314495032   1.670083997497299 
  1.244850897969868   9.342568378422321   1.669358205690809 
  2.490783416187663   2.874998790085852   1.678660013816051 
  6.224306062668517   9.342452177888569   1.675717250136489 
  7.468560674592528   2.874616262457181   1.674552475463299 
 12.447805520372029   2.875134070778525   1.669213817059293 
 -1.243919146632670   5.031131035744564   8.338555121701535 
 -2.488878929708154  11.498042087200133   8.336249681540984 
  2.489680344842916  11.498213579613646   8.336744502725944 
  3.736040673601244   5.031499086276783   8.244845242984010 
  7.469067745213558  11.498283127549524   8.336070309790593 
 -4.978000553378390  11.498116999170822   1.669545209384552 
  8.713568259993735   5.030923578760717   8.330239962708164 
  0.000289126522172  11.498146917954363   1.669542731553841 
  1.245828005124447   5.031324815205156   1.678660013816051 
  0.000379386808405   7.186922986494639   1.669584509981255 
  6.224732611698448   5.030574676508542   1.703908953901831 
  4.979428344670552  11.498149385353239   1.670239983625858 
 11.202953469937354   5.031003342671725   1.669886903054034 
 -2.488881623854700   7.186836547154307   8.336412003460076 
  3.734861883717565   0.718609561871247   8.336372702863374 
  7.468960872003050   7.186701567687511   8.323737297615226 
  8.713199539472773   0.718762132634518   8.336744502725944 
 13.692613286832909   0.719063773611935   8.336743395785309 
  0.021330760888161   1.450848341079676   5.002978606422314 
  3.707395076880643   7.944556096522876   5.002978606422314 
  5.009149976879278   1.380840120489084   5.002978606422314 
  8.710948450898897   7.903763430693310   5.002978606422314 
  9.981270630510766   1.444329185752316   5.002978606422314 
 -4.979172782322130  10.060566013435887  11.673616748318732 
 -0.000107806483651  10.060587672314625  11.673616748318732 
  1.244366334817184   3.592930236046976  11.673616748318732 
  4.978527869637346  10.060633222521565  11.673616748318732 
  6.223178535396996   3.593063665418172  11.673616748318732 
 11.202021784726705   3.592939887043398  11.673616748318732 
 -2.490499713479574  10.060089310684857   5.002978606422314 
 -1.222248790175721   3.604791306776029   5.002978606422314 
  3.797066810258014   3.487597359525163   5.002978606422314 
  2.489326825601302  10.090417229095632   5.002978606422314 
  7.474744235623407  10.067371986306471   5.002978606422314 
  8.735533865961209   3.591102095879244   5.002978606422314 
 -6.223831384877781  12.216502073672121  11.673616748318732 
 -1.244872166149994  12.216582786707683  11.673616748318732 
 -0.000224747388326   5.748678308066056  11.673616748318732 
  4.978342380821508   5.748742311355138  11.673616748318732 
  3.733914316936096  12.216541143236903  11.673616748318732 
  9.957268170701123   5.748730012674928  11.673616748318732 
 -2.483310996515316   5.756391953249086   5.002978606422314 
 -3.728633591681221  12.203069471050346   5.002978606422314 
  1.259852414301211  12.225356121214942   5.002978606422314 
  2.429495625616007   5.856300134292294   5.002978606422314 
  6.239948262578320  12.231698884823018   5.002978606422314 
  7.471362506993225   5.755239517719011   5.002978606422314 
 -1.244877292635790   7.904581111207111  11.673616748318732 
 -0.000351427630014   1.437088598787516  11.673616748318732 
  3.733887988332167   7.904641367735412  11.673616748318732 
  4.978511193923620   1.437339872010399  11.673616748318732 
  8.712400669089188   7.904601869256388  11.673616748318732 
 -3.737029579370961   7.906290858745704   5.002978606422314 
  9.957406443855621   1.437136578907313  11.673616748318732 
  2.504589279958032   1.427505807167337   5.002978606422314 
  1.211031920314605   7.959373567603906   5.002978606422314 
  6.230479189672059   7.904512469583899   5.002978606422314 
  7.493835376948300   1.422354151249652   5.002978606422314 
  1.244642748961742   7.904589727462611  11.673616748318732 
 12.469423905252631   1.450235252997777   5.002978606422314 
 -2.489632920837398  10.060589753650186  11.673616748318732 
 -1.245006170809339   3.592893851855715  11.673616748318732 
  3.733763011417789   3.593199150259739  11.673616748318732 
  2.489260104682403  10.060623848354183  11.673616748318732 
  7.467794624791778  10.060624678288598  11.673616748318732 
  8.712642192646681   3.592957493798687  11.673616748318732 
 -4.979008820436161  10.057462006216479   5.002978606422314 
 -0.004554510839578  10.079497445461453   5.002978606422314 
  1.276675862728213   3.611584150683798   5.002978606422314 
  4.988366884562272  10.081385692106748   5.002978606422314 
  6.244499248786337   3.550162766687220   5.002978606422314 
 11.223550405954319   3.599846767786572   5.002978606422314 
 -2.489657315386685   5.748722861007264  11.673616748318732 
 -3.734413361871068  12.216584070397953  11.673616748318732 
  1.244558068237256  12.216525926397855  11.673616748318732 
  2.489297559657172   5.748676540973298  11.673616748318732 
  6.223202417780016  12.216507992303040  11.673616748318732 
 -6.214016596736735  12.218163600914371   5.002978606422314 
  7.467771855804193   5.748735288388913  11.673616748318732 
 -1.230719174402987  12.203276941198890   5.002978606422314 
 -0.000834757997562   5.767027535410833   5.002978606422314 
 -1.253691393897869   7.916343838693372   5.002978606422314 
  3.752075390510889  12.233611831698381   5.002978606422314 
  9.966586316267568   5.751374898192611   5.002978606422314 
 -3.734423411208430   7.904596859977537  11.673616748318732 
  2.489003388242259   1.437208705523902  11.673616748318732 
  6.223051036245637   7.904654989103118  11.673616748318732 
  7.468000191902118   1.437193059609672  11.673616748318732 
 12.446729731438298   1.437132765637045  11.673616748318732 
  1.253291275982384   0.716927607861644   5.002978606422314 
  4.964026058277528   7.401114241071065   5.002978606422314 
  6.257655849940747   0.683030544076458   5.002978606422314 
  9.968149112183220   7.188243576154545   5.002978606422314 
 11.228341824390464   0.733696179525537   5.002978606422314 
 -3.734181381380026   9.342049364936273  11.673616748318732 
  1.244062280939645   9.342617049100506  11.673616748318732 
  2.487976653319526   2.873401288581268  11.673616748318732 
  6.223460206999452   9.343270035327723  11.673616748318732 
  7.468978250134342   2.873448829789665  11.673616748318732 
 12.446646923102630   2.874060410854269  11.673616748318732 
 -1.247692514810642   9.352110701609739   5.002978606422314 
  0.018927026548427   2.885422521542394   5.002978606422314 
  5.017093881960752   2.771270293951140   5.002978606422314 
  3.729808858744455   9.414826228364769   5.002978606422314 
  8.719890410598413   9.350291068289399   5.002978606422314 
  9.993476497642785   2.873052012272013   5.002978606422314 
 -4.979133371315163  11.497860199202158  11.673616748318732 
 -0.000124580132247  11.497908064306063  11.673616748318732 
  1.243041146804831   5.029692838011229  11.673616748318732 
  6.224200204572868   5.029653576152855  11.673616748318732 
  4.978543948905927  11.498851067488244  11.673616748318732 
 11.202519390919639   5.029871775159001  11.673616748318732 
 -1.241862531959455   5.038660775915896   5.002978606422314 
 -2.482223574940091  11.490381221275829   5.002978606422314 
  2.504611457399485  11.527578542602637   5.002978606422314 
  7.478575577056778  11.513157321373525   5.002978606422314 
  8.757157843267908   5.017395297201510   5.002978606422314 
 -0.000999939189633   7.186102608574411  11.673616748318732 
  1.243792365339578   0.718164383378366  11.673616748318732 
  4.978522180436764   7.187231203828611  11.673616748318732 
  6.223589151787120   0.717823511138153  11.673616748318732 
  9.957969706413071   7.186131611068024  11.673616748318732 
 -2.491644676784372   7.191471861452810   5.002978606422314 
 11.202269305899815   0.718643203956501  11.673616748318732 
  3.740828574800230   0.690397754266150   5.002978606422314 
  2.419151725261923   7.271038104478609   5.002978606422314 
  7.492600769158203   7.200350068673707   5.002978606422314 
  8.746095899680698   0.717010373920802   5.002978606422314 
  2.488252467717061   7.186672444474544  11.673616748318732 
 13.711638086353663   0.735403749005029   5.002978606422314 
 -1.245087561760484   9.342055390950213  11.673616748318732 
 -0.001229100988656   2.873785375883040  11.673616748318732 
  4.978581448417761   2.873296122339689  11.673616748318732 
  3.733583117106423   9.343342986539572  11.673616748318732 
  8.712971692296499   9.342531426840296  11.673616748318732 
  9.958183422198299   2.873862496370271  11.673616748318732 
 -3.732679427805386   9.342916518236928   5.002978606422314 
  1.230964036667996   9.389516158655450   5.002978606422314 
  2.493459933051827   2.852760513201951   5.002978606422314 
  6.234385018805759   9.386966005124021   5.002978606422314 
  7.528997424318853   2.834438605255141   5.002978606422314 
 12.471468753920032   2.883440042768869   5.002978606422314 
 -1.245540908264606   5.029816090232599  11.673616748318732 
 -2.489629252889115  11.497664832122709  11.673616748318732 
  2.489211859372011  11.498524369123025  11.673616748318732 
  3.732881900180153   5.029675367591816  11.673616748318732 
  7.467870739492578  11.498472987849308  11.673616748318732 
 -4.975367779906197  11.493406467992473   5.002978606422314 
  8.713853617478161   5.029782117543834  11.673616748318732 
  0.013893580166533  11.506001452928105   5.002978606422314 
  1.227907350838685   5.044761885245117   5.002978606422314 
 -0.021069409722971   7.206196196351338   5.002978606422314 
  6.402180287183823   4.910158047485304   5.002978606422314 
  4.995488586809707  11.529821009449989   5.002978606422314 
 11.220588815571364   5.031800269670863   5.002978606422314 
 -2.489670428119628   7.185983898027507  11.673616748318732 
  3.733461752598895   0.717825219477012  11.673616748318732 
  7.468727957929908   7.186567094684713  11.673616748318732 
  8.713234448347679   0.718201017560710  11.673616748318732 
 13.691104171428762   0.718597228906035  11.673616748318732 
  0.000462544429641   1.436961029640236   1.663297061977920 
  3.731780008415137   7.909132307896250   1.673115756010813 
  4.979388237470380   1.432593147216348   1.664549874699558 
  8.717234238044849   7.907392531594092   1.665993619649137 
  9.958667428944050   1.436746930409222   1.663956353051906 
 -4.976493042084242  10.061737255520100   8.341010944047833 
 -0.001437586631772  10.061787687175368   8.342144702818551 
  1.243226710334221   3.592272273544970   8.337800828364747 
  4.979423290286047  10.063873271699190   8.341362431539535 
  6.226013813704630   3.588992631178963   8.332841456833815 
 11.203991148912568   3.593495833675879   8.341618283193041 
 -2.488975289503093  10.060969437278064   1.665046822103958 
 -1.244709662901795   3.593662556910985   1.663297061977920 
  3.733440756243255   3.586291376003876   1.694398260393006 
  2.487602703526658  10.063189796159111   1.663240563214976 
  7.470992281178516  10.063261262520724   1.664773826490297 
  8.715895867868383   3.592112926238696   1.664594781305092 
 -6.222072306417600  12.216645811014523   8.342353876306994 
 -1.244497812869729  12.214831155887589   8.342144702818551 
 -0.002376059019402   5.750448456513254   8.342407196553328 
  4.983156210286240   5.751521577092451   8.307170995849873 
  3.734207363982432  12.217828012606294   8.342000859792721 
  9.961150347818718   5.750180972222379   8.341183386354331 
 -2.488653295966618   5.750174398969852   1.663603336537633 
 -3.733284930690979  12.214878595297543   1.663986034894644 
  1.244480916031899  12.216481382551340   1.663781210383156 
  2.483154124080720   5.751851346933582   1.694398260393006 
  6.224668563779830  12.217935538401045   1.664338929651587 
  7.473876821421952   5.750525209082618   1.671933925765117 
 -1.245790061808222   7.906411098825697   8.341971177949983 
  0.000462544429641   1.436961029640237   8.342660150866708 
  3.731780008415137   7.909132307896251   8.332841456833815 
  4.979388237470381   1.432593147216349   8.341407338145082 
  8.717234238044849   7.907392531594093   8.339963593195478 
 -3.732069215690593   7.906331962057009   1.664946268796809 
  9.958667428944050   1.436746930409223   8.342000859792721 
  2.489460725950470   1.434460540776321   1.663550016291286 
  1.240970486478695   7.907722631851367   1.664549874699558 
  6.227653635846019   7.909047084070488   1.671933925765117 
  7.469393667308123   1.434474734202031   1.663240563214976 
  1.240970486478695   7.907722631851368   8.341407338145082 
 12.447752610722906   1.437723325267378   1.664581575600016 
 -2.488975289503092  10.060969437278064   8.340910390740671 
 -1.244709662901794   3.593662556910985   8.342660150866708 
  3.733440756243256   3.586291376003877   8.311558952451634 
  2.487602703526659  10.063189796159111   8.342716649629651 
  7.470992281178517  10.063261262520724   8.341183386354331 
  8.715895867868383   3.592112926238697   8.341362431539535 
 -4.976493042084243  10.061737255520100   1.664946268796809 
 -0.001437586631773  10.061787687175368   1.663812510026078 
  1.243226710334221   3.592272273544969   1.668156384479854 
  4.979423290286046  10.063873271699190   1.664594781305092 
  6.226013813704629   3.588992631178962   1.673115756010813 
 11.203991148912568   3.593495833675878   1.664338929651587 
 -2.488653295966618   5.750174398969853   8.342353876306994 
 -3.733284930690978  12.214878595297543   8.341971177949983 
  1.244480916031899  12.216481382551340   8.342176002461473 
  2.483154124080721   5.751851346933583   8.311558952451634 
  6.224668563779831  12.217935538401045   8.341618283193041 
 -6.222072306417601  12.216645811014523   1.663603336537633 
  7.473876821421952   5.750525209082619   8.334023287079511 
 -1.244497812869730  12.214831155887589   1.663812510026078 
 -0.002376059019402   5.750448456513253   1.663550016291286 
 -1.245790061808223   7.906411098825696   1.663986034894644 
  4.983156210286239   5.751521577092451   1.698786216994755 
  3.734207363982431  12.217828012606294   1.663956353051906 
  9.961150347818718   5.750180972222378   1.664773826490297 
 -3.732069215690592   7.906331962057010   8.341010944047833 
  2.489460725950471   1.434460540776322   8.342407196553328 
  6.227653635846019   7.909047084070489   8.334023287079511 
  7.469393667308124   1.434474734202032   8.342716649629651 
 12.447752610722906   1.437723325267379   8.341375637244612 
  4.063044488702658   5.220294826951612   5.002978606422314 
Generated by cif2cell 2.0.0.  :  Failed to get author information, No journal information. Species order: N B Ge 
 1.0
 14.936314146199660   0.000000000000000   0.000000000000000
 -7.468157073099825  12.935227489513863   0.000000000000000
  0.000000000000001   0.000000000000001  13.341276283792837
 N B Ge 
 143 143   1
Cartesian
  1.245742022373499   0.718911397394523   1.667402091143106 
  4.979586080307022   7.187231731746664   1.703908953901831 
  6.223941310258498   0.718530808859287   1.669358205690809 
  9.958267977625965   7.186767630061106   1.672018976143112 
 11.202829547949834   0.718966659854881   1.669193573320673 
 -3.733481720220561   9.342453314495032   8.335873215347329 
  1.244850897969868   9.342568378422321   8.336599007153833 
  2.490783416187663   2.874998790085853   8.327297199028576 
  6.224306062668518   9.342452177888569   8.330239962708164 
  7.468560674592529   2.874616262457182   8.331404737381330 
 12.447805520372029   2.875134070778526   8.336743395785309 
 -1.244385687689253   9.342516562347269   1.669707531303616 
  0.001343066485501   2.875270417466644   1.668696093328402 
  4.979541573913149   2.874630083708340   1.685416734283743 
  3.734385355682817   9.342397639178559   1.674552475463299 
  8.713671636508259   9.342471727791311   1.672018976143112 
  9.958017945526295   2.874979246636975   1.670239983625858 
 -4.978000553378389  11.498116999170822   8.336412003460076 
  0.000289126522172  11.498146917954363   8.336414481290786 
  1.245828005124447   5.031324815205156   8.327297199028576 
  6.224732611698449   5.030574676508543   8.302048258942785 
  4.979428344670553  11.498149385353239   8.335717229218771 
 11.202953469937354   5.031003342671726   8.336070309790593 
 -1.243919146632671   5.031131035744563   1.667402091143106 
 -2.488878929708155  11.498042087200133   1.669707531303616 
  2.489680344842916  11.498213579613646   1.669212710118670 
  3.736040673601243   5.031499086276782   1.761111969860633 
  7.469067745213557  11.498283127549524   1.669886903054034 
  8.713568259993735   5.030923578760716   1.675717250136489 
  0.000379386808405   7.186922986494640   8.336372702863374 
  1.245742022373499   0.718911397394523   8.338555121701535 
  4.979586080307023   7.187231731746665   8.302048258942785 
  6.223941310258499   0.718530808859288   8.336599007153833 
  9.958267977625965   7.186767630061107   8.333938236701528 
 -2.488881623854701   7.186836547154306   1.669545209384552 
 11.202829547949834   0.718966659854881   8.336763639523955 
  3.734861883717565   0.718609561871246   1.669584509981255 
  2.489887774897667   7.186836956860059   1.685416734283743 
  7.468960872003049   7.186701567687511   1.682219915229401 
  8.713199539472773   0.718762132634518   1.669212710118670 
  2.489887774897668   7.186836956860060   8.320540478560899 
 13.692613286832909   0.719063773611934   1.669213817059293 
 -1.244385687689253   9.342516562347269   8.336249681540984 
  0.001343066485501   2.875270417466645   8.337261119516212 
  4.979541573913150   2.874630083708341   8.320540478560899 
  3.734385355682817   9.342397639178559   8.331404737381330 
  8.713671636508259   9.342471727791311   8.333938236701528 
  9.958017945526295   2.874979246636976   8.335717229218771 
 -3.733481720220562   9.342453314495032   1.670083997497299 
  1.244850897969868   9.342568378422321   1.669358205690809 
  2.490783416187663   2.874998790085852   1.678660013816051 
  6.224306062668517   9.342452177888569   1.675717250136489 
  7.468560674592528   2.874616262457181   1.674552475463299 
 12.447805520372029   2.875134070778525   1.669213817059293 
 -1.243919146632670   5.031131035744564   8.338555121701535 
 -2.488878929708154  11.498042087200133   8.336249681540984 
  2.489680344842916  11.498213579613646   8.336744502725944 
  3.736040673601244   5.031499086276783   8.244845242984010 
  7.469067745213558  11.498283127549524   8.336070309790593 
 -4.978000553378390  11.498116999170822   1.669545209384552 
  8.713568259993735   5.030923578760717   8.330239962708164 
  0.000289126522172  11.498146917954363   1.669542731553841 
  1.245828005124447   5.031324815205156   1.678660013816051 
  0.000379386808405   7.186922986494639   1.669584509981255 
  6.224732611698448   5.030574676508542   1.703908953901831 
  4.979428344670552  11.498149385353239   1.670239983625858 
 11.202953469937354   5.031003342671725   1.669886903054034 
 -2.488881623854700   7.186836547154307   8.336412003460076 
  3.734861883717565   0.718609561871247   8.336372702863374 
  7.468960872003050   7.186701567687511   8.323737297615226 
  8.713199539472773   0.718762132634518   8.336744502725944 
 13.692613286832909   0.719063773611935   8.336743395785309 
  0.021330760888161   1.450848341079676   5.002978606422314 
  3.707395076880643   7.944556096522876   5.002978606422314 
  5.009149976879278   1.380840120489084   5.002978606422314 
  8.710948450898897   7.903763430693310   5.002978606422314 
  9.981270630510766   1.444329185752316   5.002978606422314 
 -4.979172782322130  10.060566013435887  11.673616748318732 
 -0.000107806483651  10.060587672314625  11.673616748318732 
  1.244366334817184   3.592930236046976  11.673616748318732 
  4.978527869637346  10.060633222521565  11.673616748318732 
  6.223178535396996   3.593063665418172  11.673616748318732 
 11.202021784726705   3.592939887043398  11.673616748318732 
 -2.490499713479574  10.060089310684857   5.002978606422314 
 -1.222248790175721   3.604791306776029   5.002978606422314 
  3.797066810258014   3.487597359525163   5.002978606422314 
  2.489326825601302  10.090417229095632   5.002978606422314 
  7.474744235623407  10.067371986306471   5.002978606422314 
  8.735533865961209   3.591102095879244   5.002978606422314 
 -6.223831384877781  12.216502073672121  11.673616748318732 
 -1.244872166149994  12.216582786707683  11.673616748318732 
 -0.000224747388326   5.748678308066056  11.673616748318732 
  4.978342380821508   5.748742311355138  11.673616748318732 
  3.733914316936096  12.216541143236903  11.673616748318732 
  9.957268170701123   5.748730012674928  11.673616748318732 
 -2.483310996515316   5.756391953249086   5.002978606422314 
 -3.728633591681221  12.203069471050346   5.002978606422314 
  1.259852414301211  12.225356121214942   5.002978606422314 
  2.429495625616007   5.856300134292294   5.002978606422314 
  6.239948262578320  12.231698884823018   5.002978606422314 
  7.471362506993225   5.755239517719011   5.002978606422314 
 -1.244877292635790   7.904581111207111  11.673616748318732 
 -0.000351427630014   1.437088598787516  11.673616748318732 
  3.733887988332167   7.904641367735412  11.673616748318732 
  4.978511193923620   1.437339872010399  11.673616748318732 
  8.712400669089188   7.904601869256388  11.673616748318732 
 -3.737029579370961   7.906290858745704   5.002978606422314 
  9.957406443855621   1.437136578907313  11.673616748318732 
  2.504589279958032   1.427505807167337   5.002978606422314 
  1.211031920314605   7.959373567603906   5.002978606422314 
  6.230479189672059   7.904512469583899   5.002978606422314 
  7.493835376948300   1.422354151249652   5.002978606422314 
  1.244642748961742   7.904589727462611  11.673616748318732 
 12.469423905252631   1.450235252997777   5.002978606422314 
 -2.489632920837398  10.060589753650186  11.673616748318732 
 -1.245006170809339   3.592893851855715  11.673616748318732 
  3.733763011417789   3.593199150259739  11.673616748318732 
  2.489260104682403  10.060623848354183  11.673616748318732 
  7.467794624791778  10.060624678288598  11.673616748318732 
  8.712642192646681   3.592957493798687  11.673616748318732 
 -4.979008820436161  10.057462006216479   5.002978606422314 
 -0.004554510839578  10.079497445461453   5.002978606422314 
  1.276675862728213   3.611584150683798   5.002978606422314 
  4.988366884562272  10.081385692106748   5.002978606422314 
  6.244499248786337   3.550162766687220   5.002978606422314 
 11.223550405954319   3.599846767786572   5.002978606422314 
 -2.489657315386685   5.748722861007264  11.673616748318732 
 -3.734413361871068  12.216584070397953  11.673616748318732 
  1.244558068237256  12.216525926397855  11.673616748318732 
  2.489297559657172   5.748676540973298  11.673616748318732 
  6.223202417780016  12.216507992303040  11.673616748318732 
 -6.214016596736735  12.218163600914371   5.002978606422314 
  7.467771855804193   5.748735288388913  11.673616748318732 
 -1.230719174402987  12.203276941198890   5.002978606422314 
 -0.000834757997562   5.767027535410833   5.002978606422314 
 -1.253691393897869   7.916343838693372   5.002978606422314 
  3.752075390510889  12.233611831698381   5.002978606422314 
  9.966586316267568   5.751374898192611   5.002978606422314 
 -3.734423411208430   7.904596859977537  11.673616748318732 
  2.489003388242259   1.437208705523902  11.673616748318732 
  6.223051036245637   7.904654989103118  11.673616748318732 
  7.468000191902118   1.437193059609672  11.673616748318732 
 12.446729731438298   1.437132765637045  11.673616748318732 
  1.253291275982384   0.716927607861644   5.002978606422314 
  4.964026058277528   7.401114241071065   5.002978606422314 
  6.257655849940747   0.683030544076458   5.002978606422314 
  9.968149112183220   7.188243576154545   5.002978606422314 
 11.228341824390464   0.733696179525537   5.002978606422314 
 -3.734181381380026   9.342049364936273  11.673616748318732 
  1.244062280939645   9.342617049100506  11.673616748318732 
  2.487976653319526   2.873401288581268  11.673616748318732 
  6.223460206999452   9.343270035327723  11.673616748318732 
  7.468978250134342   2.873448829789665  11.673616748318732 
 12.446646923102630   2.874060410854269  11.673616748318732 
 -1.247692514810642   9.352110701609739   5.002978606422314 
  0.018927026548427   2.885422521542394   5.002978606422314 
  5.017093881960752   2.771270293951140   5.002978606422314 
  3.729808858744455   9.414826228364769   5.002978606422314 
  8.719890410598413   9.350291068289399   5.002978606422314 
  9.993476497642785   2.873052012272013   5.002978606422314 
 -4.979133371315163  11.497860199202158  11.673616748318732 
 -0.000124580132247  11.497908064306063  11.673616748318732 
  1.243041146804831   5.029692838011229  11.673616748318732 
  6.224200204572868   5.029653576152855  11.673616748318732 
  4.978543948905927  11.498851067488244  11.673616748318732 
 11.202519390919639   5.029871775159001  11.673616748318732 
 -1.241862531959455   5.038660775915896   5.002978606422314 
 -2.482223574940091  11.490381221275829   5.002978606422314 
  2.504611457399485  11.527578542602637   5.002978606422314 
  7.478575577056778  11.513157321373525   5.002978606422314 
  8.757157843267908   5.017395297201510   5.002978606422314 
 -0.000999939189633   7.186102608574411  11.673616748318732 
  1.243792365339578   0.718164383378366  11.673616748318732 
  4.978522180436764   7.187231203828611  11.673616748318732 
  6.223589151787120   0.717823511138153  11.673616748318732 
  9.957969706413071   7.186131611068024  11.673616748318732 
 -2.491644676784372   7.191471861452810   5.002978606422314 
 11.202269305899815   0.718643203956501  11.673616748318732 
  3.740828574800230   0.690397754266150   5.002978606422314 
  2.419151725261923   7.271038104478609   5.002978606422314 
  7.492600769158203   7.200350068673707   5.002978606422314 
  8.746095899680698   0.717010373920802   5.002978606422314 
  2.488252467717061   7.186672444474544  11.673616748318732 
 13.711638086353663   0.735403749005029   5.002978606422314 
 -1.245087561760484   9.342055390950213  11.673616748318732 
 -0.001229100988656   2.873785375883040  11.673616748318732 
  4.978581448417761   2.873296122339689  11.673616748318732 
  3.733583117106423   9.343342986539572  11.673616748318732 
  8.712971692296499   9.342531426840296  11.673616748318732 
  9.958183422198299   2.873862496370271  11.673616748318732 
 -3.732679427805386   9.342916518236928   5.002978606422314 
  1.230964036667996   9.389516158655450   5.002978606422314 
  2.493459933051827   2.852760513201951   5.002978606422314 
  6.234385018805759   9.386966005124021   5.002978606422314 
  7.528997424318853   2.834438605255141   5.002978606422314 