B C N                                   
   1.0000000000000000     
     8.7639499999999995  -15.1796066749929999    0.0000000000000000
     8.7639499999999995   15.1796066749929999    0.0000000000000000
     0.0000000000000000    0.0000000000000000   15.0000000000000000
   B    C    N 
    47     4    47
Selective dynamics
Direct
  0.9047721066757700  0.9522736688985606  0.1109962477163819   T   T   T
  0.9049128819951803  0.0952647019418024  0.1110330969031940   T   T   T
  0.9048710330951459  0.2381399276320442  0.1110343321220712   T   T   T
  0.9047146600578362  0.3809947784788289  0.1109844312217371   T   T   T
  0.9046221263311434  0.5239925093455657  0.1109843610869394   T   T   T
  0.9069735471710462  0.6677608465135709  0.1111203494639498   T   T   T
  0.9042697205511333  0.8088253894857820  0.1110150445573257   T   T   T
  0.0476563213994202  0.9525335792649116  0.1109928010792234   T   T   T
  0.0479020242196722  0.0954603581747842  0.1110005726492307   T   T   T
  0.0479517753232886  0.2382087031406458  0.1109922972695490   T   T   T
  0.0477929043405728  0.3808890204115228  0.1110121439471525   T   T   T
  0.0474967729058240  0.5236904154141850  0.1109983629583341   T   T   T
  0.0483319818225455  0.6665951910673595  0.1110303289439510   T   T   T
  0.0483046472245390  0.8103002173399928  0.1110087280057943   T   T   T
  0.1906295274885273  0.9525605460362195  0.1109935443770991   T   T   T
  0.1909939347795168  0.0957514784347228  0.1110124785546460   T   T   T
  0.1911233866213620  0.2385415473014590  0.1109938820301383   T   T   T
  0.1910799754326757  0.3810261083792316  0.1109842832948688   T   T   T
  0.1901890959905289  0.5237531046992131  0.1110432168646889   T   T   T
  0.1906205676708243  0.6666573407380828  0.1110523269197151   T   T   T
  0.1905288837513135  0.8095589370417030  0.1109994382466652   T   T   T
  0.3332891527373473  0.9522635257243903  0.1110137303996263   T   T   T
  0.3330128280768075  0.0946199263369401  0.1110451909842044   T   T   T
  0.3345649120965674  0.2384467281784285  0.1110464763306120   T   T   T
  0.3349768776789467  0.3823087881432579  0.1110247240401453   T   T   T
  0.3326661235540894  0.5241026183115934  0.1110253724020645   T   T   T
  0.3330650892066098  0.6668439816070650  0.1110647437196381   T   T   T
  0.3332995396011157  0.8096112848128538  0.1110560166074923   T   T   T
  0.4762082092278906  0.9525729478627243  0.1110031622564923   T   T   T
  0.4760838280159768  0.0953879779706749  0.1109798665401649   T   T   T
  0.4748706580920364  0.2371906653819452  0.1110033212672027   T   T   T
  0.4749670481441631  0.5241940452555470  0.1111005371327149   T   T   T
  0.4754418172181843  0.6670342486687473  0.1110301846086004   T   T   T
  0.4761262110172608  0.8097572740875597  0.1110472063182998   T   T   T
  0.6190760328139678  0.9522170230456585  0.1110113982111878   T   T   T
  0.6190367874793885  0.0954997162354345  0.1109848438775935   T   T   T
  0.6188644989488382  0.2387865504214347  0.1109940501218883   T   T   T
  0.6173294200191073  0.3814956808107642  0.1110300348598657   T   T   T
  0.6166422478078609  0.6642253277261926  0.1110291668935777   T   T   T
  0.6188499440778619  0.8086390562117889  0.1109888461818726   T   T   T
  0.7618846142331402  0.9523200066498347  0.1109927648419460   T   T   T
  0.7619279678223104  0.0952489052030106  0.1110338513273632   T   T   T
  0.7618409521812644  0.2380752678115730  0.1110378069108904   T   T   T
  0.7617555329080529  0.3808366243483393  0.1109860629841252   T   T   T
  0.7622492243027271  0.5236361866714484  0.1110859391199729   T   T   T
  0.7610227217474393  0.6659343645175325  0.1111167849381400   T   T   T
  0.7617548642702654  0.8094028805966439  0.1109874096788618   T   T   T
  0.4774526450450118  0.3812285072872739  0.1111866897739162   T   T   T
  0.5248002451427711  0.4734425050534609  0.1112608981786815   T   T   T
  0.6190812543768128  0.5222946967908975  0.1111649721565083   T   T   T
  0.8096636420713337  0.6190009934777025  0.1111907044120146   T   T   T
  0.9524438226752301  0.9050063300400802  0.1109811498284781   T   T   T
  0.9527009320992010  0.0478963562357149  0.1109978955952565   T   T   T
  0.9527018397920193  0.1906051953589038  0.1110090333786273   T   T   T
  0.9525145048710379  0.3332230914482724  0.1109976271896226   T   T   T
  0.9523614069373987  0.4758744052528698  0.1109495370365326   T   T   T
  0.9542651957225635  0.6191079955326390  0.1110225668507237   T   T   T
  0.9542765534259924  0.7636887422434895  0.1110251324964990   T   T   T
  0.0960931208789495  0.9057789179193586  0.1109748937092178   T   T   T
  0.0959441764916385  0.0483587843929473  0.1109832503220902   T   T   T
  0.0960659504845089  0.1909539305187774  0.1109770035990118   T   T   T
  0.0959075181614713  0.3333811542348366  0.1109780154273260   T   T   T
  0.0952708001860968  0.4759609118788098  0.1110048356031153   T   T   T
  0.0959681971301334  0.6188935722733733  0.1110091065845507   T   T   T
  0.0959696582274052  0.7623105174531416  0.1109925119537123   T   T   T
  0.2384523296109503  0.9051297259676933  0.1109763605184299   T   T   T
  0.2384853556193656  0.0481148071827032  0.1110117104842141   T   T   T
  0.2397420487716192  0.1918344065480009  0.1110000300877604   T   T   T
  0.2398229926045194  0.3337436376479929  0.1109714414792570   T   T   T
  0.2379769197694375  0.4760830197035021  0.1109995790941238   T   T   T
  0.2381874624998708  0.6189491720898732  0.1110448944223185   T   T   T
  0.2383977429887838  0.7620339405536992  0.1110221583732199   T   T   T
  0.3811121832357898  0.9049799503172544  0.1110115682162175   T   T   T
  0.3810703556385346  0.0478337268280399  0.1110053500665592   T   T   T
  0.3808460673640701  0.1903216087555756  0.1110131458553836   T   T   T
  0.3855735761269264  0.3353822696665236  0.1110790093815485   T   T   T
  0.3804555028885995  0.4764199234261827  0.1110062398820839   T   T   T
  0.3804952871019685  0.6190735256333434  0.1110309823681493   T   T   T
  0.3809798807923575  0.7620416676000578  0.1110489175355611   T   T   T
  0.5238052568448223  0.9049646232289764  0.1110094040416756   T   T   T
  0.5237528103423580  0.0480365753189802  0.1109588043607686   T   T   T
  0.5234378618892215  0.1912582473405883  0.1109599095127100   T   T   T
  0.5210662233087395  0.3338519063525344  0.1110530800955386   T   T   T
  0.5222818302616515  0.6187115304784939  0.1110104827359373   T   T   T
  0.5235228465050820  0.7618958721200515  0.1110078869397382   T   T   T
  0.6664366100079975  0.9042180254003923  0.1109785504945749   T   T   T
  0.6665443136915522  0.0476806516339011  0.1109926596852273   T   T   T
  0.6662652721703364  0.1909046539953445  0.1109964549881945   T   T   T
  0.6650570694131005  0.3340623376999189  0.1109751813725678   T   T   T
  0.6639018066167225  0.4768538162869667  0.1110681932318846   T   T   T
  0.6624001221144888  0.6130392473132142  0.1110750717847832   T   T   T
  0.6656377261090338  0.7598356741607381  0.1109717424544852   T   T   T
  0.8092751268150961  0.9049086261474889  0.1109700829011901   T   T   T
  0.8095292597694776  0.0476922333278201  0.1110126401836955   T   T   T
  0.8094477131130626  0.1904215898181853  0.1110270321528682   T   T   T
  0.8090475983927924  0.3327970481812963  0.1109919391674649   T   T   T
  0.8087493108309501  0.4743170683186296  0.1109649663917273   T   T   T
  0.8083009612370774  0.7622561775249623  0.1110069448770269   T   T   T

  0.00000000E+00  0.00000000E+00  0.00000000E+00
  0.00000000E+00  0.00000000E+00  0.00000000E+00
  0.00000000E+00  0.00000000E+00  0.00000000E+00
  0.00000000E+00  0.00000000E+00  0.00000000E+00
  0.00000000E+00  0.00000000E+00  0.00000000E+00
  0.00000000E+00  0.00000000E+00  0.00000000E+00
  0.00000000E+00  0.00000000E+00  0.00000000E+00
  0.00000000E+00  0.00000000E+00  0.00000000E+00
  0.00000000E+00  0.00000000E+00  0.00000000E+00
  0.00000000E+00  0.00000000E+00  0.00000000E+00
  0.00000000E+00  0.00000000E+00  0.00000000E+00
  0.00000000E+00  0.00000000E+00  0.00000000E+00
  0.00000000E+00  0.00000000E+00  0.00000000E+00
  0.00000000E+00  0.00000000E+00  0.00000000E+00
  0.00000000E+00  0.00000000E+00  0.00000000E+00
  0.00000000E+00  0.00000000E+00  0.00000000E+00
  0.00000000E+00  0.00000000E+00  0.00000000E+00
  0.00000000E+00  0.00000000E+00  0.00000000E+00
  0.00000000E+00  0.00000000E+00  0.00000000E+00
  0.00000000E+00  0.00000000E+00  0.00000000E+00
  0.00000000E+00  0.00000000E+00  0.00000000E+00
  0.00000000E+00  0.00000000E+00  0.00000000E+00
  0.00000000E+00  0.00000000E+00  0.00000000E+00
  0.00000000E+00  0.00000000E+00  0.00000000E+00
  0.00000000E+00  0.00000000E+00  0.00000000E+00
  0.00000000E+00  0.00000000E+00  0.00000000E+00
  0.00000000E+00  0.00000000E+00  0.00000000E+00
  0.00000000E+00  0.00000000E+00  0.00000000E+00
  0.00000000E+00  0.00000000E+00  0.00000000E+00
  0.00000000E+00  0.00000000E+00  0.00000000E+00
  0.00000000E+00  0.00000000E+00  0.00000000E+00
  0.00000000E+00  0.00000000E+00  0.00000000E+00
  0.00000000E+00  0.00000000E+00  0.00000000E+00
  0.00000000E+00  0.00000000E+00  0.00000000E+00
  0.00000000E+00  0.00000000E+00  0.00000000E+00
  0.00000000E+00  0.00000000E+00  0.00000000E+00
  0.00000000E+00  0.00000000E+00  0.00000000E+00
  0.00000000E+00  0.00000000E+00  0.00000000E+00
  0.00000000E+00  0.00000000E+00  0.00000000E+00
  0.00000000E+00  0.00000000E+00  0.00000000E+00
  0.00000000E+00  0.00000000E+00  0.00000000E+00
  0.00000000E+00  0.00000000E+00  0.00000000E+00
  0.00000000E+00  0.00000000E+00  0.00000000E+00
  0.00000000E+00  0.00000000E+00  0.00000000E+00
  0.00000000E+00  0.00000000E+00  0.00000000E+00
  0.00000000E+00  0.00000000E+00  0.00000000E+00
  0.00000000E+00  0.00000000E+00  0.00000000E+00
  0.00000000E+00  0.00000000E+00  0.00000000E+00
  0.00000000E+00  0.00000000E+00  0.00000000E+00
  0.00000000E+00  0.00000000E+00  0.00000000E+00
  0.00000000E+00  0.00000000E+00  0.00000000E+00
  0.00000000E+00  0.00000000E+00  0.00000000E+00
  0.00000000E+00  0.00000000E+00  0.00000000E+00
  0.00000000E+00  0.00000000E+00  0.00000000E+00
  0.00000000E+00  0.00000000E+00  0.00000000E+00
  0.00000000E+00  0.00000000E+00  0.00000000E+00
  0.00000000E+00  0.00000000E+00  0.00000000E+00
  0.00000000E+00  0.00000000E+00  0.00000000E+00
  0.00000000E+00  0.00000000E+00  0.00000000E+00
  0.00000000E+00  0.00000000E+00  0.00000000E+00
  0.00000000E+00  0.00000000E+00  0.00000000E+00
  0.00000000E+00  0.00000000E+00  0.00000000E+00
  0.00000000E+00  0.00000000E+00  0.00000000E+00
  0.00000000E+00  0.00000000E+00  0.00000000E+00
  0.00000000E+00  0.00000000E+00  0.00000000E+00
  0.00000000E+00  0.00000000E+00  0.00000000E+00
  0.00000000E+00  0.00000000E+00  0.00000000E+00
  0.00000000E+00  0.00000000E+00  0.00000000E+00
  0.00000000E+00  0.00000000E+00  0.00000000E+00
  0.00000000E+00  0.00000000E+00  0.00000000E+00
  0.00000000E+00  0.00000000E+00  0.00000000E+00
  0.00000000E+00  0.00000000E+00  0.00000000E+00
  0.00000000E+00  0.00000000E+00  0.00000000E+00
  0.00000000E+00  0.00000000E+00  0.00000000E+00
  0.00000000E+00  0.00000000E+00  0.00000000E+00
  0.00000000E+00  0.00000000E+00  0.00000000E+00
  0.00000000E+00  0.00000000E+00  0.00000000E+00
  0.00000000E+00  0.00000000E+00  0.00000000E+00
  0.00000000E+00  0.00000000E+00  0.00000000E+00
  0.00000000E+00  0.00000000E+00  0.00000000E+00
  0.00000000E+00  0.00000000E+00  0.00000000E+00
  0.00000000E+00  0.00000000E+00  0.00000000E+00
  0.00000000E+00  0.00000000E+00  0.00000000E+00
  0.00000000E+00  0.00000000E+00  0.00000000E+00
  0.00000000E+00  0.00000000E+00  0.00000000E+00
  0.00000000E+00  0.00000000E+00  0.00000000E+00
  0.00000000E+00  0.00000000E+00  0.00000000E+00
  0.00000000E+00  0.00000000E+00  0.00000000E+00
  0.00000000E+00  0.00000000E+00  0.00000000E+00
  0.00000000E+00  0.00000000E+00  0.00000000E+00
  0.00000000E+00  0.00000000E+00  0.00000000E+00
  0.00000000E+00  0.00000000E+00  0.00000000E+00
  0.00000000E+00  0.00000000E+00  0.00000000E+00
  0.00000000E+00  0.00000000E+00  0.00000000E+00
  0.00000000E+00  0.00000000E+00  0.00000000E+00
  0.00000000E+00  0.00000000E+00  0.00000000E+00
  0.00000000E+00  0.00000000E+00  0.00000000E+00
  0.00000000E+00  0.00000000E+00  0.00000000E+00
