 N Al B 
 1.0
 17.527899999999772   0.000000000000000   0.000000000000000
 -8.763949999999658  15.179606674993195   0.000000000000000
  0.000000000000001   0.000000000000002  15.000000000000000
 N Al B 
  48   1  48
Cartesian
  8.783258862062743  13.747255914783418   1.664996645747340 
 16.272729216170998   0.724687376965133   1.665091379850495 
 15.009561013278464   2.888172788250024   1.665199763516820 
 13.757696792609956   5.059868891664398   1.664927383983195 
 12.524633362992514   7.225706132629412   1.664499965489865 
 11.293720812070369   9.395919809231206   1.665758877104940 
 10.046361797438649  11.572094750939309   1.665885418591650 
 -6.239339189889460  13.722036131219552   1.665204635146065 
  1.250118862842124   0.699474695604368   1.664996645747340 
 -0.022327960691415   2.860159626454779   1.664808368904930 
 -1.271087924428949   5.040368660362371   1.664568975016635 
 -2.498678283205938   7.215779392223484   1.665044303511150 
 -3.730004657292975   9.385900405256688   1.665194005592730 
 -4.979082849500495  11.554772815174095   1.665385618658595 
 -3.732305931309379  13.714253783184974   1.665385618658595 
  3.765415155744521   0.693176047896189   1.665885418591650 
  2.478089648145547   2.827603143906904   1.665014472934590 
  1.207039915961207   4.991135734750430   1.664555695604460 
  0.002514528223550   7.199292563677305   1.665386266680180 
 -1.219324255603962   9.377796637745114   1.665369072947970 
 -2.473337042632300  11.547733777731954   1.664955118276515 
 -1.229468230650106  13.716956542378785   1.665194005592730 
  6.273717445658606   0.701018924439593   1.665758877104940 
  5.007246912206658   2.850306994239016   1.665507740875665 
  3.698233837061734   4.941282171135560   1.665086674894305 
  2.477066050330783   7.115594964340345   1.664902465382880 
  1.302649415419067   9.367666979719498   1.666073600377530 
  0.032890038725699  11.546695417488271   1.665369072947970 
  1.265574882949033  13.735657128586212   1.665044303511150 
  8.768633896679679   0.720124223804767   1.664499965489865 
  7.506769371944313   2.885229359642395   1.664951542948395 
  6.229373893090779   5.048228403879213   1.665755948427390 
  3.840209309327755   9.476628346948441   1.664902465382880 
  2.530449301012512  11.577804028398431   1.665386266680180 
  3.763331019794575  13.760238058374989   1.664568975016635 
 11.264335113089439   0.735178589760952   1.664927383983195 
 10.003903579819042   2.900925117191100   1.664976867446265 
  8.738930297909594   5.074328210433710   1.664791140447735 
  7.506755191010283   7.260717712514029   1.665755948427390 
  6.333803317382066   9.506222417958590   1.665086674894305 
  5.045031904272113  11.638732857577702   1.664555695604460 
  6.275827410605182  13.768884723503126   1.664808368904930 
 13.767511787834867   0.736880424280365   1.665199763516820 
 12.507552593338350   2.898513113704015   1.665690221565375 
 11.253639230293661   5.065530759812821   1.664976867446265 
 10.018665051125183   7.235960299265839   1.664951542948395 
  8.799147476847157   9.418071429445334   1.665507740875665 
  7.554230955967895  11.619737795454398   1.665014472934590 
  4.237873512843510   7.673014556929449   1.665303359548350 
  7.526254449108356  14.468375513969114   1.665269930051940 
 15.019826186522559   1.448057545332033   1.665525376796655 
 13.760407402133023   3.614813736233817   1.665662881166685 
 12.509550872764541   5.782408529584138   1.664945825947200 
 11.273356489084041   7.950451902300456   1.665129937988760 
 10.044136252223300  10.124729228149715   1.666172241570045 
  8.798219461370079  12.310189833499518   1.665714134937960 
 -7.494489931387377  14.446704016627971   1.665184790713830 
 -0.002885808375140   1.427522050695527   1.665269930051940 
 -1.263896963006238   3.600065774032633   1.664905665603315 
 -2.511063835178485   5.772313772376973   1.665124360360170 
 -3.744080385444485   7.941049347032390   1.665075747912690 
 -4.980204005082736  10.109901209227640   1.665812900476050 
 -6.231582138631254  12.280465267787260   1.665858163231710 
 -4.987018247851052  14.436113159884135   1.665858163231710 
  2.502140323126226   1.405060877586632   1.665714134937960 
  1.231151901250859   3.564823038027635   1.665008784131685 
 -0.011641240268736   5.754202622049760   1.664849438674980 
 -1.232000559408911   7.929211184343088   1.665598076274990 
 -2.467740733386361  10.100404813266843   1.665339587991990 
 -3.724911609160515  12.270336957558875   1.665271004801655 
 -2.481565565805259  14.437669935770522   1.665812900476050 
  5.017763121773295   1.418795588381041   1.666172241570045 
  3.730623624472118   3.536598780763120   1.665220924268850 
  2.457487772281614   5.703809747655906   1.665037723681065 
  1.296214121398522   7.896460242253429   1.665964552857420 
  0.054907174104812  10.088057565562657   1.665699261144810 
 -1.217109809810666  12.266561114386493   1.665339587991990 
  0.014777053720097  14.451581410043458   1.665075747912690 
  7.515352639261603   1.441398299338306   1.665129937988760 
  6.246932332190896   3.607867922540320   1.665610416112650 
  4.923032709545907   5.700378172012003   1.666924587118800 
  2.573539604603463  10.108852876966754   1.665964552857420 
  1.281069116360999  12.281975545706842   1.665598076274990 
  2.509465430578336  14.468125541554075   1.665124360360170 
 10.011030468363273   1.454844245413438   1.664945825947200 
  8.746366562735613   3.627889809972999   1.665096183670800 
  7.467873698578043   5.808179347154208   1.665470982326400 
  6.288811760284263   8.065976879834196   1.666924587118800 
  5.053067459969503  10.199485641855251   1.665037723681065 
  3.774861444308319  12.312617654732996   1.664849438674980 
  5.014270816550537  14.474171346666692   1.664905665603315 
 12.513650889199800   1.455368111165832   1.665662881166685 
 11.254021972332598   3.622245622110132   1.665580547254980 
  9.995306257461181   5.791116816827210   1.665096183670800 
  8.762928605328529   7.965701299298808   1.665610416112650 
  7.566495138754154  10.180523134835864   1.665220924268850 
  6.292316353358250  12.331017014539013   1.665008784131685 
