 As B N 
 1.0
 14.936314146199660   0.000000000000000   0.000000000000000
 -7.468157073099825  12.935227489513863   0.000000000000000
  0.000000000000001   0.000000000000001  13.341276283792837
 As B N 
   1 143 144
Cartesian
  3.734078536549917   5.030366245922021   5.002978606422314 
  1.216142944905071   0.676177260430484   5.002978606422314 
  5.050162343982800   7.287842193284676   5.002978606422314 
  6.252014128194536   0.676177260430484   5.002978606422314 
  9.971324063280676   7.190036670483149   5.002978606422314 
 11.202235609649751   0.718623749417456   5.002978606422314 
 -3.734078536549858   9.342108742426666  11.673616748318732 
  1.244690482445080   9.341997046056862  11.673616748318732 
  2.489607844445796   2.874659543075767  11.673616748318732 
  6.223466590655177   9.341997046056862  11.673616748318732 
  7.467991855019904   2.874590386372754  11.673616748318732 
 12.446990515457641   2.874557333761171  11.673616748318732 
 -1.254873678287310   9.352144109431542   5.002978606422314 
 -0.015013800337658   2.865826776003074   5.002978606422314 
  5.031068151681431   2.761866261494646   5.002978606422314 
  3.734078536549764   9.359445185759617   5.002978606422314 
  8.723030751386938   9.352144109431542   5.002978606422314 
  9.963631810834594   2.867753208841581   5.002978606422314 
 -4.978775187613991  11.497994779962619  11.673616748318732 
 -0.000039235143020  11.497957338258574  11.673616748318732 
  1.244946422724784   5.030476363717486  11.673616748318732 
  6.223210650375483   5.030476363717486  11.673616748318732 
  4.978794336560237  11.497895076844419  11.673616748318732 
 11.202235609649748   5.030411550762779  11.673616748318732 
 -1.295727533586650   5.026864551210522   5.002978606422314 
 -2.485785224656170  11.484145447365597   5.002978606422314 
  2.492179728075090  11.506624154221141   5.002978606422314 
  7.463898696606003  11.500438565493969   5.002978606422314 
  8.763884606686172   5.026864551210522   5.002978606422314 
  0.000078136224455   7.186192382204353  11.673616748318732 
  1.244790758945938   0.718677551122107  11.673616748318732 
  4.978739958271519   7.185962830971971  11.673616748318732 
  6.223366314153775   0.718677551122107  11.673616748318732 
  9.957531859011262   7.186226803832101  11.673616748318732 
 -2.503166990180736   7.190036670483149   5.002978606422314 
 11.202235609649751   0.718623749417457  11.673616748318732 
  3.734078536549916   0.671448928560261   5.002978606422314 
  2.417994729116709   7.287842193284676   5.002978606422314 
  7.509011666381298   7.209824904602708   5.002978606422314 
  8.721733002359494   0.716721374703420   5.002978606422314 
  2.489417114829392   7.185962830971971  11.673616748318732 
 13.682738216940221   0.716721374703420   5.002978606422314 
 -1.244678134847822   9.342104643485650  11.673616748318732 
  0.000165218079930   2.874590386372754  11.673616748318732 
  4.978549228654367   2.874659543075767  11.673616748318732 
  3.734078536549861   9.341917965021024  11.673616748318732 
  8.712835207947347   9.342104643485650  11.673616748318732 
  9.957480703842375   2.874557333761171  11.673616748318732 
 -3.734078536549858   9.342108742426664   5.002978606422314 
  1.222208058057710   9.388056926125874   5.002978606422314 
  2.437088921418177   2.761866261494646   5.002978606422314 
  6.245949015041067   9.388056926125874   5.002978606422314 
  7.483170873437387   2.865826776003074   5.002978606422314 
 12.440839408465107   2.867753208841581   5.002978606422314 
 -1.244597295158997   5.030424140586904  11.673616748318732 
 -2.489381885486052  11.497994779962619  11.673616748318732 
  2.489362736540021  11.497895076844419  11.673616748318732 
  3.734078536549918   5.030366245922021  11.673616748318732 
  7.468196308242846  11.497957338258574  11.673616748318732 
 -4.982371848443336  11.484145447365597   5.002978606422314 
  8.712754368258935   5.030424140586904  11.673616748318732 
  0.004258376492867  11.500438565493969   5.002978606422314 
  1.121005113985245   5.041390282987195   5.002978606422314 
 -0.040854593281146   7.209824904602708   5.002978606422314 
  6.347151959114590   5.041390282987195   5.002978606422314 
  4.975977345025302  11.506624154221141   5.002978606422314 
 11.202235609649263   5.025449096292804   5.002978606422314 
 -2.489374785911845   7.186226803832101  11.673616748318732 
  3.734078536549856   0.718713973358187  11.673616748318732 
  7.468078936875052   7.186192382204353  11.673616748318732 
  8.712764903832117   0.718646327160374  11.673616748318732 
 13.691706315467478   0.718646327160374  11.673616748318732 
 -0.000059168060969   1.437449147266922   1.667689892846711 
  3.734078536549815   7.904198382284620   1.644783091940065 
  4.978545494717560   1.438174028743619   1.658351985818348 
  8.712529054462117   7.904675992586293   1.668378769612537 
  9.957516228758086   1.437262819041109   1.669719593940387 
 -4.978902362936628  10.060808113684919   8.336805046204990 
  0.000197326409511  10.060678037800075   8.335556547315061 
  1.245266900247958   3.593450177740812   8.361174120904856 
  4.978567165371890  10.060682908671552   8.338267319997716 
  6.222890172851861   3.593450177740812   8.361174120904856 
 11.202235609649538   3.593006900660351   8.335341789084943 
 -2.489254710163402  10.060808113684919   1.669152166639358 
 -1.244547796882407   3.592966681827393   1.667689892846711 
  3.734078536549925   3.595171749826636   1.605948760256012 
  2.489589907728488  10.060682908671552   1.667689892846711 
  7.467959746690848  10.060678037800075   1.670400665530219 
  8.712704869982449   3.592966681827393   1.667689892846711 
 -6.223515732202666  12.216801856801409   8.335556547315061 
 -1.244641340897064  12.216801856801409   8.335556547315061 
  0.000915342112767   5.748722354567689   8.347605227025799 
  4.976993429540228   5.747963493969707   8.400008452588709 
  3.734078536550606  12.216573099683741   8.336237618904708 
  9.957396942343440   5.748846332677975   8.335556547315061 
 -2.489239869243500   5.748846332677974   1.670400665530219 
 -3.734078536549902  12.216974242108051   1.668378769612537 
  1.244789707363467  12.216659663309969   1.670615423759498 
  2.491163643559728   5.747963493969706   1.605948760256012 
  6.223367365735954  12.216659663309969   1.670615423759498 
  7.467241730987605   5.748722354567688   1.658351985818348 
 -1.244371981362580   7.904675992586294   8.337578443232104 
 -0.000059168060968   1.437449147266923   8.338267319997716 
  3.734078536549815   7.904198382284621   8.361174120904856 
  4.978545494717561   1.438174028743620   8.347605227025799 
  8.712529054462117   7.904675992586294   8.337578443232104 
 -3.734078536549702   7.904709999910448   1.669152166639358 
  9.957516228758086   1.437262819041110   8.336237618904708 
  2.489611578382167   1.438174028743619   1.658351985818348 
  1.245382300280465   7.904202354454845   1.658351985818348 
  6.222774772819910   7.904202354454845   1.658351985818348 
  7.468216241160486   1.437449147266922   1.667689892846711 
  1.245382300280465   7.904202354454846   8.347605227025799 
 12.446954990542135   1.437262819041109   1.669719593940387 
 -2.489254710163401  10.060808113684919   8.336805046204990 
 -1.244547796882406   3.592966681827394   8.338267319997716 
  3.734078536549925   3.595171749826637   8.400008452588709 
  2.489589907728488  10.060682908671552   8.338267319997716 
  7.467959746690849  10.060678037800075   8.335556547315061 
  8.712704869982449   3.592966681827394   8.338267319997716 
 -4.978902362936629  10.060808113684919   1.669152166639358 
  0.000197326409511  10.060678037800075   1.670400665530219 
  1.245266900247957   3.593450177740811   1.644783091940065 
  4.978567165371889  10.060682908671552   1.667689892846711 
  6.222890172851860   3.593450177740811   1.644783091940065 
 11.202235609649538   3.593006900660350   1.670615423759498 
 -2.489239869243500   5.748846332677975   8.335556547315061 
 -3.734078536549901  12.216974242108051   8.337578443232104 
  1.244789707363468  12.216659663309969   8.335341789084943 
  2.491163643559728   5.747963493969707   8.400008452588709 
  6.223367365735955  12.216659663309969   8.335341789084943 
 -6.223515732202666  12.216801856801409   1.670400665530219 
  7.467241730987606   5.748722354567689   8.347605227025799 
 -1.244641340897064  12.216801856801409   1.670400665530219 
  0.000915342112767   5.748722354567688   1.658351985818348 
 -1.244371981362581   7.904675992586293   1.668378769612537 
  4.976993429540227   5.747963493969706   1.605948760256012 
  3.734078536550606  12.216573099683741   1.669719593940387 
  9.957396942343440   5.748846332677974   1.670400665530219 
 -3.734078536549702   7.904709999910449   8.336805046204990 
  2.489611578382167   1.438174028743620   8.347605227025799 
  6.222774772819911   7.904202354454846   8.347605227025799 
  7.468216241160487   1.437449147266923   8.338267319997716 
 12.446954990542135   1.437262819041110   8.336237618904708 
  1.244769580974859   0.718853337425970   1.669257890221182 
  4.978505602991045   7.185850013118356   1.638255403248939 
  6.223387492125179   0.718853337425970   1.669257890221182 
  9.957458562083321   7.186175512548941   1.670223274784478 
 11.202235609649751   0.718623749417456   1.669682445764564 
 -3.734078536549858   9.342108742426664   8.337112646462327 
  1.244853306835567   9.341927493566168   8.336699322623058 
  2.489588369933429   2.874918909629157   8.367701809595221 
  6.223303766264795   9.341927493566168   8.336699322623058 
  7.468056042650216   2.874553327627294   8.341468951641634 
 12.446917850751884   2.874497137268405   8.335487857672035 
 -1.244597066829845   9.342066812125440   1.670223274784478 
  0.000101030450259   2.874553327627293   1.664488261202713 
  4.978568703166508   2.874918909629156   1.638255403248939 
  3.734078536550711   9.341992082511009   1.664488261202713 
  8.712754139929267   9.342066812125440   1.670223274784478 
  9.957553368547821   2.874497137268404   1.670469355172405 
 -4.978782958704017  11.498083902605815   8.335733938060150 
  0.000020802563362  11.497992001044816   8.334338752100466 
  1.245161303492616   5.030329815018550   8.367701809595221 
  6.222995769607636   5.030329815018550   8.367701809595221 
  4.978778537220849  11.497988104571943   8.335487857672035 
 11.202235609649485   5.030342225190745   8.334338752100466 
 -1.244455648739588   5.030317906773732   1.669257890221182 
 -2.489374114396115  11.498083902605815   1.670223274784478 
  2.489378535879633  11.497988104571943   1.670469355172405 
  3.734078536549917   5.030366245922020   1.544781297150518 
  7.468136270535941  11.497992001044816   1.671618460744550 
  8.712612721839960   5.030317906773732   1.669257890221182 
  0.000233256484209   7.186102823480566   8.341264842728817 
  1.244769580974860   0.718853337425971   8.336699322623058 
  4.978505602990943   7.185850013118357   8.367701809595221 
  6.223387492125180   0.718853337425971   8.336699322623058 
  9.957458562083321   7.186175512548942   8.335733938060150 
 -2.489301488983695   7.186175512548941   1.670223274784478 
 11.202235609649751   0.718623749417456   8.336274767079585 
  3.734078536549870   0.718893090805552   1.664692370115998 
  2.489651470109105   7.185850013118356   1.638255403248939 
  7.467923816615417   7.186102823480566   1.664692370115998 
  8.712853367877369   0.718613495925611   1.670469355172405 
  2.489651470109105   7.185850013118357   8.367701809595221 
 13.691617851422647   0.718613495925611   1.670469355172405 
 -1.244597066829845   9.342066812125440   8.335733938060150 
  0.000101030450259   2.874553327627294   8.341468951641634 
  4.978568703166509   2.874918909629157   8.367701809595221 
  3.734078536550711   9.341992082511009   8.341468951641634 
  8.712754139929267   9.342066812125440   8.335733938060150 
  9.957553368547821   2.874497137268405   8.335487857672035 
 -3.734078536549859   9.342108742426664   1.668844566382208 
  1.244853306835567   9.341927493566168   1.669257890221182 
  2.489588369933428   2.874918909629156   1.638255403248939 
  6.223303766264794   9.341927493566168   1.669257890221182 
  7.468056042650216   2.874553327627293   1.664488261202713 
 12.446917850751884   2.874497137268404   1.670469355172405 
 -1.244455648739587   5.030317906773733   8.336699322623058 
 -2.489374114396114  11.498083902605815   8.335733938060150 
  2.489378535879634  11.497988104571943   8.335487857672035 
  3.734078536549917   5.030366245922021   8.461175915694296 
  7.468136270535942  11.497992001044816   8.334338752100466 
 -4.978782958704018  11.498083902605815   1.670223274784478 
  8.712612721839960   5.030317906773733   8.336699322623058 
  0.000020802563362  11.497992001044816   1.671618460744550 
  1.245161303492616   5.030329815018549   1.638255403248939 
  0.000233256484209   7.186102823480566   1.664692370115998 
  6.222995769607532   5.030329815018549   1.638255403248939 
  4.978778537220848  11.497988104571943   1.670469355172405 
 11.202235609649485   5.030342225190744   1.671618460744550 
 -2.489301488983694   7.186175512548942   8.335733938060150 
  3.734078536549870   0.718893090805553   8.341264842728817 
  7.467923816615418   7.186102823480566   8.341264842728817 
  8.712853367877369   0.718613495925612   8.335487857672035 
 13.691617851422647   0.718613495925612   8.335487857672035 
 -0.010532949373501   1.428351897332062   5.002978606422314 
  3.734078536550448   7.916737868509270   5.002978606422314 
  5.007868781871439   1.353024270705555   5.002978606422314 
  8.738890473630219   7.919895765038682   5.002978606422314 
  9.961811066157750   1.434783193511927   5.002978606422314 
 -4.978755171421787  10.060723132623833  11.673616748318732 
 -0.000057854931112  10.060764575181802  11.673616748318732 
  1.244588942301009   3.593058758537686  11.673616748318732 
  4.978841391570040  10.060759991080632  11.673616748318732 
  6.223568130799259   3.593058758537686  11.673616748318732 
 11.202235609649851   3.593170365366249  11.673616748318732 
 -2.494380025950132  10.057849011235467   5.002978606422314 
 -1.257663137086883   3.588444746104565   5.002978606422314 
  3.734078536549700   3.293759206017439   5.002978606422314 
  2.486948348836544  10.074302094329965   5.002978606422314 
  7.484303311199820  10.079411499315938   5.002978606422314 
  8.725820210185880   3.588444746104565   5.002978606422314 
 -6.223463085102826  12.216537594587434  11.673616748318732 
 -1.244693987996677  12.216537594587434  11.673616748318732 
 -0.000176922415209   5.749063569230732  11.673616748318732 
  4.979098938686097   5.749179110241927  11.673616748318732 
  3.734078536550301  12.216590425551523  11.673616748318732 
  9.957599476584187   5.749024057510679  11.673616748318732 
 -2.513635305071550   5.753633543973761   5.002978606422314 
 -3.734078536550118  12.186534697202381   5.002978606422314 
  1.248029311883184  12.218530049850573   5.002978606422314 
  2.230132723601337   5.898669765874500   5.002978606422314 
  6.220127761217836  12.218530049850573   5.002978606422314 
  7.555645228151078   5.765902521988983   5.002978606422314 
 -1.244791492528372   7.904918197470360  11.673616748318732 
  0.000011189714514   1.437173119208220  11.673616748318732 
  3.734078536550398   7.904981220690772  11.673616748318732 
  4.978796126415209   1.437057492583219  11.673616748318732 
  8.712948565628105   7.904918197470360  11.673616748318732 
 -3.734078536549799   7.910628204808980   5.002978606422314 
  9.957531233399425   1.437254156107213  11.673616748318732 
  2.460288291228079   1.353024270705555   5.002978606422314 
  1.186302090270186   7.972171945071874   5.002978606422314 
  6.281854982829339   7.972171945071874   5.002978606422314 
  7.478690022473347   1.428351897332062   5.002978606422314 
  1.244540667450033   7.904977675952385  11.673616748318732 
 12.442660153141741   1.434783193511927   5.002978606422314 
 -2.489401901677823  10.060723132623833  11.673616748318732 
 -1.244751665305659   3.593165627477667  11.673616748318732 
  3.734078536549812   3.592740517282394  11.673616748318732 
  2.489315681529798  10.060759991080632  11.673616748318732 
  7.468214928030967  10.060764575181802  11.673616748318732 
  8.712908738405492   3.593165627477667  11.673616748318732 
 -4.973777047149689  10.057849011235467   5.002978606422314 
 -0.016146238100088  10.079411499315938   5.002978606422314 
  1.234407386626055   3.587180434628481   5.002978606422314 
  4.981208724262459  10.074302094329965   5.002978606422314 
  6.233749686473449   3.587180434628481   5.002978606422314 
 11.202235609650277   3.589266127577863   5.002978606422314 
 -2.489442403484039   5.749024057510679  11.673616748318732 
 -3.734078536550125  12.216489832339013  11.673616748318732 
  1.244648142775912  12.216577930956737  11.673616748318732 
  2.489058134413737   5.749179110241927  11.673616748318732 
  6.223508930324363  12.216577930956737  11.673616748318732 
 -6.231567603521422  12.193281183990319   5.002978606422314 
  7.468333995515358   5.749063569230732  11.673616748318732 
 -1.236589469578621  12.193281183990319   5.002978606422314 
 -0.087488155051436   5.765902521988983   5.002978606422314 
 -1.270733400530485   7.919895765038682   5.002978606422314 
  5.238024349498497   5.898669765874500   5.002978606422314 
  3.734078536549929  12.221532350742196   5.002978606422314 
  9.981792378171159   5.753633543973761   5.002978606422314 
 -3.734078536549859   7.904879962031782  11.673616748318732 
  2.489360946684518   1.437057492583219  11.673616748318732 
  6.223616405649909   7.904977675952385  11.673616748318732 
  7.468145883385423   1.437173119208220  11.673616748318732 
 12.446939985900498   1.437254156107213  11.673616748318732 
Generated by cif2cell 2.0.0.  :  Failed to get author information, No journal information. Species order: As B N 
 1.0
 14.936314146199660   0.000000000000000   0.000000000000000
 -7.468157073099825  12.935227489513863   0.000000000000000
  0.000000000000001   0.000000000000001  13.341276283792837
 As B N 
   1 143 144
Cartesian
  3.734078536549917   5.030366245922021   5.002978606422314 
  1.216142944905071   0.676177260430484   5.002978606422314 
  5.050162343982800   7.287842193284676   5.002978606422314 
  6.252014128194536   0.676177260430484   5.002978606422314 
  9.971324063280676   7.190036670483149   5.002978606422314 
 11.202235609649751   0.718623749417456   5.002978606422314 
 -3.734078536549858   9.342108742426666  11.673616748318732 
  1.244690482445080   9.341997046056862  11.673616748318732 
  2.489607844445796   2.874659543075767  11.673616748318732 
  6.223466590655177   9.341997046056862  11.673616748318732 
  7.467991855019904   2.874590386372754  11.673616748318732 
 12.446990515457641   2.874557333761171  11.673616748318732 
 -1.254873678287310   9.352144109431542   5.002978606422314 
 -0.015013800337658   2.865826776003074   5.002978606422314 
  5.031068151681431   2.761866261494646   5.002978606422314 
  3.734078536549764   9.359445185759617   5.002978606422314 
  8.723030751386938   9.352144109431542   5.002978606422314 
  9.963631810834594   2.867753208841581   5.002978606422314 
 -4.978775187613991  11.497994779962619  11.673616748318732 
 -0.000039235143020  11.497957338258574  11.673616748318732 
  1.244946422724784   5.030476363717486  11.673616748318732 
  6.223210650375483   5.030476363717486  11.673616748318732 
  4.978794336560237  11.497895076844419  11.673616748318732 
 11.202235609649748   5.030411550762779  11.673616748318732 
 -1.295727533586650   5.026864551210522   5.002978606422314 
 -2.485785224656170  11.484145447365597   5.002978606422314 
  2.492179728075090  11.506624154221141   5.002978606422314 
  7.463898696606003  11.500438565493969   5.002978606422314 
  8.763884606686172   5.026864551210522   5.002978606422314 
  0.000078136224455   7.186192382204353  11.673616748318732 
  1.244790758945938   0.718677551122107  11.673616748318732 
  4.978739958271519   7.185962830971971  11.673616748318732 
  6.223366314153775   0.718677551122107  11.673616748318732 
  9.957531859011262   7.186226803832101  11.673616748318732 
 -2.503166990180736   7.190036670483149   5.002978606422314 
 11.202235609649751   0.718623749417457  11.673616748318732 
  3.734078536549916   0.671448928560261   5.002978606422314 
  2.417994729116709   7.287842193284676   5.002978606422314 
  7.509011666381298   7.209824904602708   5.002978606422314 
  8.721733002359494   0.716721374703420   5.002978606422314 
  2.489417114829392   7.185962830971971  11.673616748318732 
 13.682738216940221   0.716721374703420   5.002978606422314 
 -1.244678134847822   9.342104643485650  11.673616748318732 
  0.000165218079930   2.874590386372754  11.673616748318732 
  4.978549228654367   2.874659543075767  11.673616748318732 
  3.734078536549861   9.341917965021024  11.673616748318732 
  8.712835207947347   9.342104643485650  11.673616748318732 
  9.957480703842375   2.874557333761171  11.673616748318732 
 -3.734078536549858   9.342108742426664   5.002978606422314 
  1.222208058057710   9.388056926125874   5.002978606422314 
  2.437088921418177   2.761866261494646   5.002978606422314 
  6.245949015041067   9.388056926125874   5.002978606422314 
  7.483170873437387   2.865826776003074   5.002978606422314 
 12.440839408465107   2.867753208841581   5.002978606422314 
 -1.244597295158997   5.030424140586904  11.673616748318732 
 -2.489381885486052  11.497994779962619  11.673616748318732 
  2.489362736540021  11.497895076844419  11.673616748318732 
  3.734078536549918   5.030366245922021  11.673616748318732 
  7.468196308242846  11.497957338258574  11.673616748318732 
 -4.982371848443336  11.484145447365597   5.002978606422314 
  8.712754368258935   5.030424140586904  11.673616748318732 
  0.004258376492867  11.500438565493969   5.002978606422314 
  1.121005113985245   5.041390282987195   5.002978606422314 
 -0.040854593281146   7.209824904602708   5.002978606422314 
  6.347151959114590   5.041390282987195   5.002978606422314 
  4.975977345025302  11.506624154221141   5.002978606422314 
 11.202235609649263   5.025449096292804   5.002978606422314 
 -2.489374785911845   7.186226803832101  11.673616748318732 
  3.734078536549856   0.718713973358187  11.673616748318732 
  7.468078936875052   7.186192382204353  11.673616748318732 
  8.712764903832117   0.718646327160374  11.673616748318732 
 13.691706315467478   0.718646327160374  11.673616748318732 
 -0.000059168060969   1.437449147266922   1.667689892846711 
  3.734078536549815   7.904198382284620   1.644783091940065 
  4.978545494717560   1.438174028743619   1.658351985818348 
  8.712529054462117   7.904675992586293   1.668378769612537 
  9.957516228758086   1.437262819041109   1.669719593940387 
 -4.978902362936628  10.060808113684919   8.336805046204990 
  0.000197326409511  10.060678037800075   8.335556547315061 
  1.245266900247958   3.593450177740812   8.361174120904856 
  4.978567165371890  10.060682908671552   8.338267319997716 
  6.222890172851861   3.593450177740812   8.361174120904856 
 11.202235609649538   3.593006900660351   8.335341789084943 
 -2.489254710163402  10.060808113684919   1.669152166639358 
 -1.244547796882407   3.592966681827393   1.667689892846711 
  3.734078536549925   3.595171749826636   1.605948760256012 
  2.489589907728488  10.060682908671552   1.667689892846711 
  7.467959746690848  10.060678037800075   1.670400665530219 
  8.712704869982449   3.592966681827393   1.667689892846711 
 -6.223515732202666  12.216801856801409   8.335556547315061 
 -1.244641340897064  12.216801856801409   8.335556547315061 
  0.000915342112767   5.748722354567689   8.347605227025799 
  4.976993429540228   5.747963493969707   8.400008452588709 
  3.734078536550606  12.216573099683741   8.336237618904708 
  9.957396942343440   5.748846332677975   8.335556547315061 
 -2.489239869243500   5.748846332677974   1.670400665530219 
 -3.734078536549902  12.216974242108051   1.668378769612537 
  1.244789707363467  12.216659663309969   1.670615423759498 
  2.491163643559728   5.747963493969706   1.605948760256012 
  6.223367365735954  12.216659663309969   1.670615423759498 
  7.467241730987605   5.748722354567688   1.658351985818348 
 -1.244371981362580   7.904675992586294   8.337578443232104 
 -0.000059168060968   1.437449147266923   8.338267319997716 
  3.734078536549815   7.904198382284621   8.361174120904856 
  4.978545494717561   1.438174028743620   8.347605227025799 
  8.712529054462117   7.904675992586294   8.337578443232104 
 -3.734078536549702   7.904709999910448   1.669152166639358 
  9.957516228758086   1.437262819041110   8.336237618904708 
  2.489611578382167   1.438174028743619   1.658351985818348 
  1.245382300280465   7.904202354454845   1.658351985818348 
  6.222774772819910   7.904202354454845   1.658351985818348 
  7.468216241160486   1.437449147266922   1.667689892846711 
  1.245382300280465   7.904202354454846   8.347605227025799 
 12.446954990542135   1.437262819041109   1.669719593940387 
 -2.489254710163401  10.060808113684919   8.336805046204990 
 -1.244547796882406   3.592966681827394   8.338267319997716 
  3.734078536549925   3.595171749826637   8.400008452588709 
  2.489589907728488  10.060682908671552   8.338267319997716 
  7.467959746690849  10.060678037800075   8.335556547315061 
  8.712704869982449   3.592966681827394   8.338267319997716 
 -4.978902362936629  10.060808113684919   1.669152166639358 
  0.000197326409511  10.060678037800075   1.670400665530219 
  1.245266900247957   3.593450177740811   1.644783091940065 
  4.978567165371889  10.060682908671552   1.667689892846711 
  6.222890172851860   3.593450177740811   1.644783091940065 
 11.202235609649538   3.593006900660350   1.670615423759498 
 -2.489239869243500   5.748846332677975   8.335556547315061 
 -3.734078536549901  12.216974242108051   8.337578443232104 
  1.244789707363468  12.216659663309969   8.335341789084943 
  2.491163643559728   5.747963493969707   8.400008452588709 
  6.223367365735955  12.216659663309969   8.335341789084943 
 -6.223515732202666  12.216801856801409   1.670400665530219 
  7.467241730987606   5.748722354567689   8.347605227025799 
 -1.244641340897064  12.216801856801409   1.670400665530219 
  0.000915342112767   5.748722354567688   1.658351985818348 
 -1.244371981362581   7.904675992586293   1.668378769612537 
  4.976993429540227   5.747963493969706   1.605948760256012 
  3.734078536550606  12.216573099683741   1.669719593940387 
  9.957396942343440   5.748846332677974   1.670400665530219 
 -3.734078536549702   7.904709999910449   8.336805046204990 
  2.489611578382167   1.438174028743620   8.347605227025799 
  6.222774772819911   7.904202354454846   8.347605227025799 
  7.468216241160487   1.437449147266923   8.338267319997716 
 12.446954990542135   1.437262819041110   8.336237618904708 
  1.244769580974859   0.718853337425970   1.669257890221182 
  4.978505602991045   7.185850013118356   1.638255403248939 
  6.223387492125179   0.718853337425970   1.669257890221182 
  9.957458562083321   7.186175512548941   1.670223274784478 
 11.202235609649751   0.718623749417456   1.669682445764564 
 -3.734078536549858   9.342108742426664   8.337112646462327 
  1.244853306835567   9.341927493566168   8.336699322623058 
  2.489588369933429   2.874918909629157   8.367701809595221 
  6.223303766264795   9.341927493566168   8.336699322623058 
  7.468056042650216   2.874553327627294   8.341468951641634 
 12.446917850751884   2.874497137268405   8.335487857672035 
 -1.244597066829845   9.342066812125440   1.670223274784478 
  0.000101030450259   2.874553327627293   1.664488261202713 
  4.978568703166508   2.874918909629156   1.638255403248939 
  3.734078536550711   9.341992082511009   1.664488261202713 
  8.712754139929267   9.342066812125440   1.670223274784478 
  9.957553368547821   2.874497137268404   1.670469355172405 
 -4.978782958704017  11.498083902605815   8.335733938060150 
  0.000020802563362  11.497992001044816   8.334338752100466 
  1.245161303492616   5.030329815018550   8.367701809595221 
  6.222995769607636   5.030329815018550   8.367701809595221 
  4.978778537220849  11.497988104571943   8.335487857672035 
 11.202235609649485   5.030342225190745   8.334338752100466 
 -1.244455648739588   5.030317906773732   1.669257890221182 
 -2.489374114396115  11.498083902605815   1.670223274784478 
  2.489378535879633  11.497988104571943   1.670469355172405 
  3.734078536549917   5.030366245922020   1.544781297150518 
  7.468136270535941  11.497992001044816   1.671618460744550 
  8.712612721839960   5.030317906773732   1.669257890221182 
  0.000233256484209   7.186102823480566   8.341264842728817 
  1.244769580974860   0.718853337425971   8.336699322623058 
  4.978505602990943   7.185850013118357   8.367701809595221 
  6.223387492125180   0.718853337425971   8.336699322623058 
  9.957458562083321   7.186175512548942   8.335733938060150 
 -2.489301488983695   7.186175512548941   1.670223274784478 
 11.202235609649751   0.718623749417456   8.336274767079585 
  3.734078536549870   0.718893090805552   1.664692370115998 
  2.489651470109105   7.185850013118356   1.638255403248939 
  7.467923816615417   7.186102823480566   1.664692370115998 
  8.712853367877369   0.718613495925611   1.670469355172405 
  2.489651470109105   7.185850013118357   8.367701809595221 
 13.691617851422647   0.718613495925611   1.670469355172405 
 -1.244597066829845   9.342066812125440   8.335733938060150 
  0.000101030450259   2.874553327627294   8.341468951641634 
  4.978568703166509   2.874918909629157   8.367701809595221 
  3.734078536550711   9.341992082511009   8.341468951641634 
  8.712754139929267   9.342066812125440   8.335733938060150 
  9.957553368547821   2.874497137268405   8.335487857672035 
 -3.734078536549859   9.342108742426664   1.668844566382208 
  1.244853306835567   9.341927493566168   1.669257890221182 