 B P N 
 1.0
 17.527899999999772   0.000000000000000   0.000000000000000
 -8.763949999999658  15.179606674993195   0.000000000000000
  0.000000000000001   0.000000000000002  15.000000000000000
 B P N 
  48   1  48
Cartesian
  7.553602867275337  14.494637468385900   1.652831326478220 
 15.058814360848254   1.486072471792659   1.651624249983675 
 13.803001588067817   3.653033503544233   1.649391935832975 
 12.538342995826948   5.812200475594342   1.652807874295305 
 11.250739186879766   7.965316673427265   1.655436285226980 
 10.032636511481435  10.127562716545935   1.655912271777105 
  8.803602950566219  12.314325005516862   1.653507150150660 
 -7.480199146419814  14.437977551668363   1.645885095505305 
  0.030152589024465   1.440145410897185   1.647499454443665 
 -1.215785406367972   3.636269096115284   1.649220606503160 
 -2.465604852852938   5.809486358874837   1.649750427718650 
 -3.738040002778750   7.965195098162781   1.653728370996990 
 -4.987228074278886  10.119737783328796   1.655660346215730 
 -6.229853977227754  12.274934485815470   1.651589291096475 
 -4.972755055492250  14.412339854775977   1.647336876794730 
  2.526495170032821   1.365096565155221   1.674004269975885 
  1.273426710081054   3.558962941426124   1.682679114378585 
  0.061170551892593   5.794794693690445   1.670946841539585 
 -1.212479843448588   7.973901200063199   1.660863064871625 
 -2.472866708957429  10.125869648300638   1.659478569453270 
 -3.722260550887670  12.270992619374598   1.652006293189395 
 -2.459790744202047  14.422410180985269   1.648088498086860 
  5.062503780260895   1.351224022407379   1.691061210796830 
  3.784717594030298   3.402902226597149   1.735238789476770 
  2.605682866194940   5.542516050330767   1.771490955778395 
  1.246142793762703   8.097823431027185   1.645430335043055 
  0.021989978335219  10.183915772044021   1.660564100508600 
 -1.217329602851406  12.299665246472015   1.656534842535030 
  0.048419725966472  14.455829675033179   1.650724738824150 
  7.566375606158396   1.405063324173491   1.677099424385565 
  6.332536660595722   3.505160012533860   1.719003671211000 
  5.053225072622794   5.128745785344154   1.318919960811270 
  2.583470353636950  10.159915380023570   1.653394279058985 
  1.306141184752709  12.314154646331332   1.657926489824715 
  2.541052501579649  14.505181164635458   1.653853276006320 
 10.052666711969199   1.472810681444036   1.655594983556655 
  8.799089577734899   3.633064402586673   1.697398938301545 
  7.507711967872300   5.807462807429208   1.715421408278310 
  6.124884310925143   8.118895667460341   1.676982091404465 
  5.092776940955434  10.289761081937296   1.652357957629455 
  3.799385908195546  12.371362344151175   1.654502638153620 
  5.046813920997456  14.518190498703406   1.656591642831450 
 12.552888018985255   1.493055463058838   1.653126426467460 
 11.294912923749520   3.652026931310347   1.658985585921510 
 10.017588287284443   5.811597062864910   1.681987015106820 
  8.688608737579653   7.978954195734576   1.666366849193790 
  7.556751781146574  10.189845191675628   1.657279495761480 
  6.316807243418975  12.375068372400374   1.653893775856620 
  2.899146442561449   7.305147200168911   1.643798527525140 
  8.793388581098526  13.748282193112438   1.650482749335540 
 16.305675906252397   0.750529790688905   1.649625803764290 
 15.058008585391173   2.930396812600808   1.648401189051825 
 13.802956650644168   5.096925451895393   1.647619715226120 
 12.521597060056385   7.252657249145467   1.652163476798025 
 11.277039330366314   9.404013946034903   1.654136907470550 
 10.038844771605937  11.567797544968643   1.654428195151785 
 -6.230523933572262  13.712565687856710   1.645657022883285 
  1.271654791903478   0.692853126385212   1.646368445560530 
  0.023618930648163   2.882757139132650   1.648970472902490 
 -1.198059126166292   5.089153825803277   1.651930227301830 
 -2.466915350934517   7.252801846685981   1.653755868214515 
 -3.728011943829106   9.404451305311701   1.656824096062410 
 -4.978762191752514  11.555855632960480   1.654243030723665 
 -3.715612120810286  13.707995376274022   1.645032423124710 
  3.792092059967514   0.668378732229084   1.662518859716655 
  2.513285297909552   2.796611587370555   1.714579986021120 
  1.292571314328961   5.008879876599103   1.702480409859000 
  0.069239950517811   7.260636449995223   1.663999198197030 
 -1.206328860988487   9.419090540982602   1.661138444604825 
 -2.463842269412494  11.564580524311983   1.657576814896545 
 -1.203695948231975  13.730881282990062   1.648605607055730 
  6.317244031293242   0.676807335289088   1.661429401687785 
  5.071574545955684   2.782544076380187   1.745171562910920 
  3.788998069242759   4.833400984034225   1.725257031572475 
  1.293118463051075   9.500232753534446   1.650993541752855 
  0.043585011897161  11.605521206397965   1.662168020814075 
  1.305606226800316  13.752728998223521   1.653494052438300 
  8.817626232771312   0.717802960118554   1.654129949146605 
  7.576145717430762   2.851000946931862   1.713583249296060 
  6.350175034846067   4.986539927305555   1.680434844786765 
  4.340403545289098   8.123154946089372   1.680162799180995 
  3.917459030163426   9.498449342949488   1.650450845008575 
  2.576909195840332  11.599231806326035   1.655834344243980 
  3.794044020861176  13.799668733152092   1.656328887632415 
 11.304134887899881   0.765327691206424   1.651304706539490 
 10.046443312600378   2.921880151352717   1.664247237697230 
  8.766103073662126   5.091368553973799   1.717609666598040 
  7.344318448279991   7.271444025690818   1.675384068924480 
  6.287242697312107   9.510337205501628   1.660990722671265 
  5.060004433379146  11.687954468504294   1.650103976444625 
  6.300601317467641  13.799560208365310   1.656461461236555 
 13.805770992874267   0.775336770887237   1.655288254548495 
 12.549241619727708   2.935942670363865   1.651697868055425 
 11.278208630186494   5.097311049451964   1.661898219943260 
  9.963823775539890   7.256659347838956   1.664578334834130 
  8.760245541145581   9.417809060537545   1.657909741279230 
  7.547313256997166  11.619283777935971   1.653992595189810 
