 B S N 
 1.0
 17.527899999999772   0.000000000000000   0.000000000000000
 -8.763949999999658  15.179606674993195   0.000000000000000
  0.000000000000001   0.000000000000002  15.000000000000000
 B S N 
  47   1  49
Cartesian
  7.517410499722375  14.462492780873172   1.665069096721605 
 15.021612812047794   1.444574933323661   1.665560050138080 
 13.767469516506091   3.610581694071151   1.665611354053155 
 12.518608543841184   5.779842445785314   1.664946096483090 
 11.275682453908839   7.950928928486773   1.665130553309865 
 10.032552253553487  10.123701046251689   1.666047767091390 
  8.777200945518089  12.294396381265756   1.665705065233350 
 -7.508893364657922  14.455854936523242   1.665082947988125 
 -0.001182760604931   1.442430866498542   1.665074395263450 
 -1.260190723157921   3.610037417869775   1.665073432705305 
 -2.517114566276985   5.780386806535004   1.665250046556330 
 -3.767400884014775   7.950685213359500   1.665148634029470 
 -5.008283027759674  10.119737783328796   1.665301647534030 
 -6.255261090109270  12.289765606188983   1.664973599640555 
 -5.007350718198989  14.451946328317176   1.665057610717230 
  2.503048667297234   1.435886551251058   1.665696565165245 
  1.243424580217189   3.601574827210303   1.665034373558370 
 -0.027001073403208   5.783998632462299   1.665130944169755 
 -1.286407925076713   7.955385312474084   1.665780765597375 
 -2.521241729033038  10.119737783328796   1.665904959489120 
 -3.759360996964267  12.287203577520652   1.665035672438400 
 -2.505883223843302  14.451392448873221   1.665515337133170 
  5.009107922415573   1.432300748963569   1.666139900476275 
  3.754909171463774   3.588946944432988   1.665483996355650 
  2.485519431807878   5.735243186702324   1.665170905768545 
  1.140411273584725   8.042437961545087   1.666069286424270 
 -0.008682370367292  10.104877552245979   1.666349121080295 
 -1.262873007013377  12.285908100894661   1.665746647453215 
 -0.007247768778635  14.455161803004032   1.665164472914475 
  7.515084673475745   1.433281769036384   1.665402608566920 
  6.272105833740026   3.583661017030055   1.665807731221920 
  5.033112070173008   5.705094577805686   1.665369551550960 
  1.215664581163567  12.279985090789234   1.665145630896555 
  2.496868008926606  14.452589793984940   1.665484810738980 
 10.016482329540736   1.439182927030010   1.665206025428985 
  8.772452112625974   3.601927269843893   1.665263977920375 
  7.535436147555333   5.765202141844980   1.665507127112055 
  6.338035102791541   7.962137345463787   1.665381483941535 
  5.079213506573028  10.168991117747412   1.665553107918480 
  3.759693124888958  12.287142718837133   1.664761765132140 
  5.007423370405638  14.460727673776383   1.665176348420025 
 12.516584973747797   1.442206738625565   1.665930337630950 
 11.269682041348451   3.608927985847063   1.665695723294280 
 10.026863987136366   5.776869217474330   1.665240090614625 
  8.794673636432311   7.951519616599895   1.665802281095820 
  7.551623335269964  10.130609554206714   1.665598071579450 
  6.280890755280194  12.308138119767342   1.664949758303790 
  3.756685625384670   8.038162588604955   1.665288993297840 
  8.769219808774046  13.737244587284149   1.665060877394775 
 16.277638745377477   0.725712294833715   1.664972813310405 
 15.020245155283682   2.888417217736799   1.665262418324790 
 13.764055304301481   5.053354200028720   1.665015603550680 
 12.513345657207028   7.222861492953315   1.664556532220250 
 11.270029258703991   9.394856566354957   1.665363057230085 
 10.022619530498492  11.566827090116789   1.665448679946120 
 -6.259944517045244  13.734649216227444   1.664589771089880 
  1.252051418654684   0.721658493820500   1.665084651306465 
 -0.003552044696868   2.887319386124628   1.664768709837840 
 -1.265399151710720   5.050511447058710   1.664934414427755 
 -2.529128480328914   7.218953165285843   1.665135054702825 
 -3.773184898499964   9.393691646317327   1.665154465858620 
 -5.012888206432638  11.566055965272112   1.664734553253480 
 -3.761077341183108  13.734863132534452   1.664838548467545 
  3.754856024154116   0.719949150178027   1.665494925823035 
  2.501844259154253   2.884909167441184   1.665269094801435 
  1.239722954039630   5.049313299429544   1.664638948150980 
 -0.046087518620069   7.210092431836062   1.665365074066020 
 -1.293323556975039   9.392092320941000   1.665941004618570 
 -2.521392792825353  11.566855392542344   1.665423622905150 
 -1.262084564734010  13.738359249872399   1.665179010235665 
  6.258478162333628   0.720669585190441   1.665550648233930 
  5.009961308313990   2.882195402742056   1.665706284544905 
  3.757526407161439   5.045511435545257   1.664827772684325 
  2.418019199825084   7.192949097727381   1.665942596494125 
  1.184990963861971   9.398684186310248   1.665772159918920 
 -0.033538734425337  11.568750615136448   1.665639970943415 
  1.239040892322832  13.746528632295577   1.665058923275880 
  8.762326373186159   0.723740366652632   1.664704667860350 
  7.518797300462301   2.880396054750957   1.665276360128895 
  6.281641531441252   5.032340208883178   1.665328281367065 
  5.103712151600125   7.155427293921972   1.665496731509670 
  3.816668043715774   9.520526771473500   1.666303774576470 
  2.490317293119111  11.701660922076954   1.663719272649645 
  3.760800407984667  13.746887849582420   1.665044514656040 
 11.267465872228822   0.723652203408749   1.665390614195370 
 10.018255314818065   2.887348358195692   1.665218228025810 
  8.773811984064880   5.050439655765611   1.665144739888110 
  7.543983765872195   7.214709211050386   1.665212713184145 
  6.306380562429810   9.396195267354093   1.664960222564010 
  5.042423738943678  11.588918646047658   1.664449989581730 
  6.270359632539687  13.745803664969834   1.664817258392055 
 13.772236246498807   0.726072963892083   1.665433645019160 
 12.518050025779132   2.888561314318172   1.665565233001800 
 11.268662818226776   5.054582482082377   1.665128733305325 
 10.026752907065855   7.222349802632466   1.665137848885245 
  8.785609073278120   9.394248892804530   1.665763995166830 
  7.530229527498991  11.570352246416769   1.665390013099755 
