 Ge B N 
 1.0
 14.936314146199660   0.000000000000000   0.000000000000000
 -7.468157073099825  12.935227489513863   0.000000000000000
  0.000000000000001   0.000000000000001  13.341276283792837
 Ge B N 
   1 143 143
Cartesian
  4.242643700418638   5.323986480182096   5.002978606422314 
  1.254512732598987   0.719671897120150   5.002978606422314 
  4.880115803719561   7.300779095306742   5.002978606422314 
  6.236434994543536   0.670896647290461   5.002978606422314 
  9.922736891104297   7.168699651956583   5.002978606422314 
 11.217718943855548   0.727563056589134   5.002978606422314 
 -3.733940031730712   9.342188708221274  11.673616748318732 
  1.244781558407217   9.342050393750574  11.673616748318732 
  2.489499815368783   2.874618878366373  11.673616748318732 
  6.223584841934565   9.342097937036550  11.673616748318732 
  7.468106465706554   2.874604978691039  11.673616748318732 
 12.447119915408290   2.874589222114217  11.673616748318732 
 -1.273959033301184   9.337723423905734   5.002978606422314 
  0.034982380679572   2.894692084571954   5.002978606422314 
  5.009123208907194   2.775525361119752   5.002978606422314 
  3.698872475820461   9.414245345604934   5.002978606422314 
  8.680258765213880   9.320734893291759   5.002978606422314 
  9.977737055712069   2.864903437073632   5.002978606422314 
 -4.978669223443611  11.498114773201660  11.673616748318732 
  0.000073103551925  11.498022197034334  11.673616748318732 
  1.244857191514740   5.030403140147427  11.673616748318732 
  6.223354228349025   5.030462110785305  11.673616748318732 
  4.978911479233687  11.498029472960729  11.673616748318732 
 11.202404197356545   5.030433502566520  11.673616748318732 
 -1.238875179437955   5.038346443746241   5.002978606422314 
 -2.507816582168347  11.474827387846073   5.002978606422314 
  2.482586740980376  11.522339980649461   5.002978606422314 
  7.460514389876044  11.497270694694718   5.002978606422314 
  8.703903229994328   5.004651398314391   5.002978606422314 
  0.000153140804047   7.186199378714430  11.673616748318732 
  1.244820408842652   0.718764999762358  11.673616748318732 
  4.978799403856421   7.186094299611476  11.673616748318732 
  6.223458052592682   0.718729751372393  11.673616748318732 
  9.957707775219657   7.186319910774768  11.673616748318732 
 -2.517870126326839   7.179956925905698   5.002978606422314 
 11.202382498361121   0.718708555654507  11.673616748318732 
  3.729518059315997   0.684191129450752   5.002978606422314 
  2.418851384997978   7.262007765544650   5.002978606422314 
  7.417458615979082   7.156966726308219   5.002978606422314 
  8.730546813740418   0.700555690967254   5.002978606422314 
  2.489476027370921   7.186133334039809  11.673616748318732 
 13.708823634324785   0.733771895415661   5.002978606422314 
 -1.244567898817625   9.342122365292775  11.673616748318732 
  0.000201242702655   2.874611185198252  11.673616748318732 
  4.978726344912773   2.874625311300333  11.673616748318732 
  3.734148479211691   9.342009924627771  11.673616748318732 
  8.713003799029373   9.342210437919359  11.673616748318732 
  9.957655665629735   2.874591584234541  11.673616748318732 
 -3.765342270037610   9.324058617481638   5.002978606422314 
  1.209845346105827   9.377205307184413   5.002978606422314 
  2.532892797451159   2.881936826396404   5.002978606422314 
  6.196721171989486   9.347218106603908   5.002978606422314 
  7.513026173630219   2.807937353121677   5.002978606422314 
 12.468648301241950   2.881818582608802   5.002978606422314 
 -1.244506737466603   5.030406093830461  11.673616748318732 
 -2.489311419935625  11.498081386261349  11.673616748318732 
  2.489472819378527  11.497989860390128  11.673616748318732 
  3.734159682345548   5.030413095468955  11.673616748318732 
  7.468299612915951  11.498092363593546  11.673616748318732 
 -4.998452731384163  11.476452030236574   5.002978606422314 
  8.712900868049836   5.030476103709415  11.673616748318732 
 -0.010524664669109  11.491903572699119   5.002978606422314 
  1.272891211453518   5.064323590961700   5.002978606422314 
 -0.032099762226974   7.199504315019780   5.002978606422314 
  6.273332374780506   4.887657208282272   5.002978606422314 
  4.980561992717897  11.520264540495802   5.002978606422314 
 11.197799999696716   5.024102136089232   5.002978606422314 
 -2.489217886633148   7.186258574875645  11.673616748318732 
  3.734122097995333   0.718775430974100  11.673616748318732 
  7.468227953755400   7.186278417139997  11.673616748318732 
  8.712902030209696   0.718694269922186  11.673616748318732 
 13.691798631566522   0.718742446628543  11.673616748318732 
  0.000243219796106   1.437467240700470   1.667741704662776 
  3.733729616819459   7.904811331343648   1.661452081883092 
  4.978730755520970   1.437274875891744   1.667499345424871 
  8.712691501402649   7.904769781370852   1.667641369854101 
  9.957785493562055   1.437207395911527   1.667621789617242 
 -4.978667483676414  10.060860035937582   8.338277550249520 
  0.000088472816637  10.060814770065582   8.338239506399443 
  1.244810209182060   3.593186507031014   8.338808479742040 
  4.978540494243104  10.060976555900904   8.339178620633275 
  6.223246542443080   3.592841529860839   8.344505130961537 
 11.202533832688800   3.593126295333586   8.338240022960200 
 -2.489227724703432  10.060823693747187   1.667631789791452 
 -1.244380933580716   3.593219510676538   1.667741704662776 
  3.733446165432291   3.592273557317739   1.663889015878641 
  2.489237798546160  10.060968951407430   1.667399061138235 
  7.468120386374232  10.060880188242043   1.667666681865561 
  8.712945840378060   3.592796760338274   1.666778592211339 
 -6.223333331420132  12.216810545244883   8.338229398763520 
 -1.244577354078361  12.216639220692462   8.338239506399443 
  0.000104128745534   5.748912883415134   8.338303881113358 
  4.978478797566788   5.748821071599766   8.341304434512601 
  3.734165171113997  12.216834001409836   8.338335423227386 
  9.957652329602940   5.748884375504213   8.338290530979066 
 -2.489141144439520   5.748999952167674   1.667727814081108 
 -3.733976866042677  12.216809742565198   1.667700506114296 
  1.244821675765541  12.216678120275279   1.667668751399239 
  2.488337549663088   5.748864940771769   1.663889015878641 
  6.223619876075842  12.216858234701075   1.667717189884429 
  7.467653001173231   5.748500321717085   1.662314342365274 
 -1.244463606891840   7.904846291599534   8.338256706730332 
  0.000243219796106   1.437467240700470   8.338215508181838 
  3.733729616819459   7.904811331343649   8.344505130961537 
  4.978730755520971   1.437274875891745   8.338457867419743 
  8.712691501402649   7.904769781370853   8.338315842990514 
 -3.733916130929813   7.904887450190362   1.667679662595107 
  9.957785493562055   1.437207395911528   8.338335423227386 
  2.489370974520591   1.437376232935983   1.667653331731257 
  1.244696241470515   7.904812371442939   1.667499345424871 
  6.222788121823303   7.904669541309275   1.662314342365274 
  7.468287906845054   1.437001190402364   1.667399061138235 
  1.244696241470515   7.904812371442940   8.338457867419743 
 12.447215974705205   1.437413498318092   1.667633775425605 
 -2.489227724703432  10.060823693747187   8.338325423053178 
 -1.244380933580715   3.593219510676539   8.338215508181838 
  3.733446165432292   3.592273557317740   8.342068196966000 
  2.489237798546160  10.060968951407430   8.338558151706392 
  7.468120386374233  10.060880188242043   8.338290530979066 
  8.712945840378060   3.592796760338275   8.339178620633275 
 -4.978667483676415  10.060860035937582   1.667679662595107 
  0.000088472816636  10.060814770065582   1.667717706445172 
  1.244810209182059   3.593186507031013   1.667148733102587 
  4.978540494243103  10.060976555900904   1.666778592211339 
  6.223246542443079   3.592841529860838   1.661452081883092 
 11.202533832688800   3.593126295333585   1.667717189884429 
 -2.489141144439519   5.748999952167675   8.338229398763520 
 -3.733976866042677  12.216809742565198   8.338256706730332 
  1.244821675765542  12.216678120275279   8.338288461445389 
  2.488337549663088   5.748864940771770   8.342068196966000 
  6.223619876075843  12.216858234701075   8.338240022960200 
 -6.223333331420132  12.216810545244883   1.667727814081108 
  7.467653001173232   5.748500321717086   8.343642870479353 
 -1.244577354078362  12.216639220692462   1.667717706445172 
  0.000104128745533   5.748912883415133   1.667653331731257 
 -1.244463606891840   7.904846291599533   1.667700506114296 
  4.978478797566787   5.748821071599765   1.664652778332012 
  3.734165171113997  12.216834001409836   1.667621789617242 
  9.957652329602940   5.748884375504212   1.667666681865561 
 -3.733916130929812   7.904887450190363   8.338277550249520 
  2.489370974520591   1.437376232935984   8.338303881113358 
  6.222788121823304   7.904669541309276   8.343642870479353 
  7.468287906845055   1.437001190402365   8.338558151706392 
 12.447215974705205   1.437413498318093   8.338323437419023 
  1.244662120857100   0.718391616603532   1.667531354047296 
  4.978619767367231   7.186948735477006   1.655638388590760 
  6.223747284815566   0.718521063220138   1.668032969189551 
  9.957399722729850   7.186199757053857   1.668469799898837 
 11.202439008043296   0.718741181534719   1.667688680591895 
 -3.734102762036059   9.342094755835694   8.338078950904382 
  1.244745445277331   9.342405220279323   8.337924243655078 
  2.489061699268247   2.874069880039007   8.341103247012255 
  6.223360064512243   9.342156821739399   8.338185586242048 
  7.468426018398161   2.874215573483532   8.339414356244948 
 12.446966113885299   2.874577926595603   8.338271267842959 
 -1.244622209811464   9.342240343301835   1.667850163826474 
 -0.000114701318195   2.874428774832765   1.667481963489607 
  4.979026503635607   2.874275548315393   1.664398552658748 
  3.733971020755420   9.342481367980312   1.666542856599680 
  8.712745716609787   9.342003733497966   1.668469799898837 
  9.957717972315196   2.874494871095491   1.668156910270772 
 -4.978743944828998  11.497863138981865   8.338278730577315 
  0.000213184561871  11.498103072843124   8.338086371064524 
  1.244162686966345   5.030298219638227   8.341103247012255 
  6.224004373269884   5.029879323089456   8.350318824253881 
  4.978858876541106  11.498131788702715   8.337800302573870 
 11.202165640426278   5.030437507975855   8.337800423400767 
 -1.244909240760267   5.030455703993271   1.667531354047296 
 -2.489236403479602  11.497975362556435   1.667850163826474 
  2.489523144668175  11.498249230896068   1.667939954870037 
  3.732876071939381   5.029672002655445   1.656527777773451 
  7.468183803237046  11.497883764527030   1.668156789443862 
  8.712839474987252   5.030251998400035   1.667771626602593 
 -0.000053183547909   7.186416919878096   8.338382116647182 
  1.244662120857100   0.718391616603533   8.338425858797358 
  4.978619767367232   7.186948735477007   8.350318824253881 
  6.223747284815567   0.718521063220139   8.337924243655078 
  9.957399722729850   7.186199757053858   8.337487412945803 
 -2.489473168952645   7.186319681367589   1.667678482267299 
 11.202439008043296   0.718741181534720   8.338268532252734 
  3.734207331993465   0.718487978262040   1.667575096197432 
  2.489323203102063   7.186568160611447   1.664398552658748 
  7.467928158371940   7.186105330194614   1.667213751832835 
  8.713151814301652   0.718608167648514   1.667939954870037 
  2.489323203102063   7.186568160611448   8.341558660185868 
 13.691711948598957   0.718614898361798   1.667685945001655 
 -1.244622209811463   9.342240343301835   8.338107049018166 
 -0.000114701318195   2.874428774832765   8.338475249355021 
  4.979026503635608   2.874275548315394   8.341558660185868 
  3.733971020755420   9.342481367980312   8.339414356244948 
  8.712745716609787   9.342003733497966   8.337487412945803 
  9.957717972315196   2.874494871095492   8.337800302573870 
 -3.734102762036059   9.342094755835694   1.667878261940246 
  1.244745445277331   9.342405220279323   1.668032969189551 
  2.489061699268246   2.874069880039006   1.664853965832386 
  6.223360064512242   9.342156821739399   1.667771626602593 
  7.468426018398160   2.874215573483531   1.666542856599680 
 12.446966113885299   2.874577926595602   1.667685945001655 
 -1.244909240760266   5.030455703993272   8.338425858797358 
 -2.489236403479601  11.497975362556435   8.338107049018166 
  2.489523144668176  11.498249230896068   8.338017257974590 
  3.732876071939382   5.029672002655446   8.349429435071176 
  7.468183803237046  11.497883764527030   8.337800423400767 
 -4.978743944828999  11.497863138981865   1.667678482267299 
  8.712839474987252   5.030251998400036   8.338185586242048 
  0.000213184561870  11.498103072843124   1.667870841780104 
  1.244162686966345   5.030298219638226   1.664853965832386 
 -0.000053183547910   7.186416919878095   1.667575096197432 
  6.224004373269883   5.029879323089455   1.655638388590760 
  4.978858876541105  11.498131788702715   1.668156910270772 
 11.202165640426278   5.030437507975854   1.668156789443862 
 -2.489473168952645   7.186319681367590   8.338278730577315 
  3.734207331993466   0.718487978262040   8.338382116647182 
  7.467928158371941   7.186105330194615   8.338743461011779 
  8.713151814301652   0.718608167648515   8.338017257974590 
 13.691711948598957   0.718614898361799   8.338271267842959 
  0.018347492343561   1.451620472619640   5.002978606422314 
  3.662977408400829   7.997913923378941   5.002978606422314 
  4.992968342402650   1.361537163765729   5.002978606422314 
  8.665838171499711   7.877718998738946   5.002978606422314 
  9.970513267228764   1.431718712599719   5.002978606422314 
 -4.978669910165008  10.060800041721690  11.673616748318732 
  0.000113732863156  10.060813845506813  11.673616748318732 
  1.244777386065884   3.593167556596063  11.673616748318732 
  4.978899963952276  10.060771697774930  11.673616748318732 
  6.223548986216129   3.593165402109449  11.673616748318732 
 11.202337105178612   3.593208718892782  11.673616748318732 
 -2.520406927366506  10.042822372696552   5.002978606422314 
 -1.223071738919342   3.601821654660100   5.002978606422314 
  3.812852412112994   3.514899467085435   5.002978606422314 
  2.456242516075708  10.101051841846029   5.002978606422314 
  7.445060798615017  10.053623640139618   5.002978606422314 
  8.727991122311037   3.568846982685434   5.002978606422314 
 -6.223384599059965  12.216632738487306  11.673616748318732 
 -1.244565524746493  12.216661558813851  11.673616748318732 
  0.000050570799153   5.749046143211578  11.673616748318732 
  4.978874088752282   5.749049293072109  11.673616748318732 
  3.734179156365428  12.216648593715854  11.673616748318732 
  9.957673876143536   5.749077642602100  11.673616748318732 
 -2.497390662509011   5.745426175734630   5.002978606422314 
 -3.752045336297528  12.186302410176603   5.002978606422314 
  1.238001450850392  12.212740461584575   5.002978606422314 
  2.461032745267555   5.856319812732584   5.002978606422314 
  6.227361308894229  12.229872840858585   5.002978606422314 
  7.433350101706397   5.711154388297627   5.002978606422314 
 -1.244614233560618   7.904915472664586  11.673616748318732 
  0.000081139738283   1.437273786489564  11.673616748318732 
  3.734161320300861   7.904911319210021  11.673616748318732 
  4.978878765480511   1.437287159604811  11.673616748318732 
  8.713009947603005   7.904953636370345  11.673616748318732 
 -3.769706909661030   7.888622810531584   5.002978606422314 
  9.957631918414723   1.437312211341537  11.673616748318732 
  2.502052486239609   1.430408621078359   5.002978606422314 
  1.186224252185698   7.955011339434097   5.002978606422314 
  6.173294145020593   7.893635325657262   5.002978606422314 
  7.486503066986764   1.388384992358608   5.002978606422314 
  1.244780884457846   7.904934409971395  11.673616748318732 
 12.462711033073367   1.446359574438060   5.002978606422314 
 -2.489279900044105  10.060793570300214  11.673616748318732 
 -1.244629509870749   3.593175872334485  11.673616748318732 
  3.734201713238915   3.593140728301484  11.673616748318732 
  2.489477097553703  10.060788173285021  11.673616748318732 
  7.468298533861017  10.060802214544621  11.673616748318732 
  8.712948162891379   3.593210499301297  11.673616748318732 
 -5.010648464169927  10.037996632164509   5.002978606422314 
 -0.033246555179431  10.067711493610238   5.002978606422314 
  1.285338108970980   3.616585300883845   5.002978606422314 
  4.965322019347234  10.085981041088397   5.002978606422314 
  6.268499648094506   3.485017023978806   5.002978606422314 
 11.215675528650648   3.589859168122107   5.002978606422314 
 -2.489320763428448   5.749044456467950  11.673616748318732 
 -3.733992266817268  12.216644705511024  11.673616748318732 
  1.244788156536232  12.216658767939190  11.673616748318732 
  2.489466315667755   5.749085678874193  11.673616748318732 
  6.223592893216882  12.216646651900032  11.673616748318732 
 -6.230553071633341  12.211453141244245   5.002978606422314 
  7.468304420398533   5.749103188850439  11.673616748318732 
 -1.255272130283853  12.184321877839688   5.002978606422314 
  0.000410755732630   5.763379200651006   5.002978606422314 
 -1.279917966869484   7.904452203545607   5.002978606422314 
  3.735775718766007  12.230600918394716   5.002978606422314 
  9.939838180722855   5.732542460755136   5.002978606422314 
 -3.733969300689147   7.904915345897533  11.673616748318732 
  2.489459601916432   1.437263220495610  11.673616748318732 
  6.223635929688545   7.904932253340224  11.673616748318732 
  7.468250997902372   1.437298818483201  11.673616748318732 
 12.447033075595686   1.437307901467978  11.673616748318732 
Generated by cif2cell 2.0.0.  :  Failed to get author information, No journal information. Species order: Ge B N 
 1.0
 14.936314146199660   0.000000000000000   0.000000000000000
 -7.468157073099825  12.935227489513863   0.000000000000000
  0.000000000000001   0.000000000000001  13.341276283792837
 Ge B N 
   1 143 143
Cartesian
  4.242643700418638   5.323986480182096   5.002978606422314 
  1.254512732598987   0.719671897120150   5.002978606422314 
  4.880115803719561   7.300779095306742   5.002978606422314 
  6.236434994543536   0.670896647290461   5.002978606422314 
  9.922736891104297   7.168699651956583   5.002978606422314 
 11.217718943855548   0.727563056589134   5.002978606422314 
 -3.733940031730712   9.342188708221274  11.673616748318732 
  1.244781558407217   9.342050393750574  11.673616748318732 
  2.489499815368783   2.874618878366373  11.673616748318732 
  6.223584841934565   9.342097937036550  11.673616748318732 
  7.468106465706554   2.874604978691039  11.673616748318732 
 12.447119915408290   2.874589222114217  11.673616748318732 
 -1.273959033301184   9.337723423905734   5.002978606422314 
  0.034982380679572   2.894692084571954   5.002978606422314 
  5.009123208907194   2.775525361119752   5.002978606422314 
  3.698872475820461   9.414245345604934   5.002978606422314 
  8.680258765213880   9.320734893291759   5.002978606422314 
  9.977737055712069   2.864903437073632   5.002978606422314 
 -4.978669223443611  11.498114773201660  11.673616748318732 
  0.000073103551925  11.498022197034334  11.673616748318732 
  1.244857191514740   5.030403140147427  11.673616748318732 
  6.223354228349025   5.030462110785305  11.673616748318732 
  4.978911479233687  11.498029472960729  11.673616748318732 
 11.202404197356545   5.030433502566520  11.673616748318732 
 -1.238875179437955   5.038346443746241   5.002978606422314 
 -2.507816582168347  11.474827387846073   5.002978606422314 
  2.482586740980376  11.522339980649461   5.002978606422314 
  7.460514389876044  11.497270694694718   5.002978606422314 
  8.703903229994328   5.004651398314391   5.002978606422314 
  0.000153140804047   7.186199378714430  11.673616748318732 
  1.244820408842652   0.718764999762358  11.673616748318732 
  4.978799403856421   7.186094299611476  11.673616748318732 
  6.223458052592682   0.718729751372393  11.673616748318732 
  9.957707775219657   7.186319910774768  11.673616748318732 
 -2.517870126326839   7.179956925905698   5.002978606422314 
 11.202382498361121   0.718708555654507  11.673616748318732 
  3.729518059315997   0.684191129450752   5.002978606422314 
  2.418851384997978   7.262007765544650   5.002978606422314 
  7.417458615979082   7.156966726308219   5.002978606422314 
  8.730546813740418   0.700555690967254   5.002978606422314 
  2.489476027370921   7.186133334039809  11.673616748318732 
 13.708823634324785   0.733771895415661   5.002978606422314 
 -1.244567898817625   9.342122365292775  11.673616748318732 
  0.000201242702655   2.874611185198252  11.673616748318732 
  4.978726344912773   2.874625311300333  11.673616748318732 
  3.734148479211691   9.342009924627771  11.673616748318732 
  8.713003799029373   9.342210437919359  11.673616748318732 
  9.957655665629735   2.874591584234541  11.673616748318732 
 -3.765342270037610   9.324058617481638   5.002978606422314 
  1.209845346105827   9.377205307184413   5.002978606422314 
  2.532892797451159   2.881936826396404   5.002978606422314 
  6.196721171989486   9.347218106603908   5.002978606422314 
  7.513026173630219   2.807937353121677   5.002978606422314 
 12.468648301241950   2.881818582608802   5.002978606422314 
 -1.244506737466603   5.030406093830461  11.673616748318732 
 -2.489311419935625  11.498081386261349  11.673616748318732 
  2.489472819378527  11.497989860390128  11.673616748318732 
  3.734159682345548   5.030413095468955  11.673616748318732 
  7.468299612915951  11.498092363593546  11.673616748318732 
 -4.998452731384163  11.476452030236574   5.002978606422314 
  8.712900868049836   5.030476103709415  11.673616748318732 
 -0.010524664669109  11.491903572699119   5.002978606422314 
  1.272891211453518   5.064323590961700   5.002978606422314 
 -0.032099762226974   7.199504315019780   5.002978606422314 
  6.273332374780506   4.887657208282272   5.002978606422314 
  4.980561992717897  11.520264540495802   5.002978606422314 
 11.197799999696716   5.024102136089232   5.002978606422314 
 -2.489217886633148   7.186258574875645  11.673616748318732 
  3.734122097995333   0.718775430974100  11.673616748318732 
  7.468227953755400   7.186278417139997  11.673616748318732 
  8.712902030209696   0.718694269922186  11.673616748318732 
 13.691798631566522   0.718742446628543  11.673616748318732 
  0.000243219796106   1.437467240700470   1.667741704662776 
  3.733729616819459   7.904811331343648   1.661452081883092 
  4.978730755520970   1.437274875891744   1.667499345424871 
  8.712691501402649   7.904769781370852   1.667641369854101 
  9.957785493562055   1.437207395911527   1.667621789617242 
 -4.978667483676414  10.060860035937582   8.338277550249520 
  0.000088472816637  10.060814770065582   8.338239506399443 
  1.244810209182060   3.593186507031014   8.338808479742040 
  4.978540494243104  10.060976555900904   8.339178620633275 
  6.223246542443080   3.592841529860839   8.344505130961537 
 11.202533832688800   3.593126295333586   8.338240022960200 
 -2.489227724703432  10.060823693747187   1.667631789791452 
 -1.244380933580716   3.593219510676538   1.667741704662776 
  3.733446165432291   3.592273557317739   1.663889015878641 
  2.489237798546160  10.060968951407430   1.667399061138235 
  7.468120386374232  10.060880188242043   1.667666681865561 
  8.712945840378060   3.592796760338274   1.666778592211339 
 -6.223333331420132  12.216810545244883   8.338229398763520 
 -1.244577354078361  12.216639220692462   8.338239506399443 
  0.000104128745534   5.748912883415134   8.338303881113358 
  4.978478797566788   5.748821071599766   8.341304434512601 
  3.734165171113997  12.216834001409836   8.338335423227386 
  9.957652329602940   5.748884375504213   8.338290530979066 
 -2.489141144439520   5.748999952167674   1.667727814081108 
 -3.733976866042677  12.216809742565198   1.667700506114296 
  1.244821675765541  12.216678120275279   1.667668751399239 
  2.488337549663088   5.748864940771769   1.663889015878641 
  6.223619876075842  12.216858234701075   1.667717189884429 
  7.467653001173231   5.748500321717085   1.662314342365274 
 -1.244463606891840   7.904846291599534   8.338256706730332 
  0.000243219796106   1.437467240700470   8.338215508181838 
  3.733729616819459   7.904811331343649   8.344505130961537 
  4.978730755520971   1.437274875891745   8.338457867419743 
  8.712691501402649   7.904769781370853   8.338315842990514 
 -3.733916130929813   7.904887450190362   1.667679662595107 
  9.957785493562055   1.437207395911528   8.338335423227386 
  2.489370974520591   1.437376232935983   1.667653331731257 
  1.244696241470515   7.904812371442939   1.667499345424871 
  6.222788121823303   7.904669541309275   1.662314342365274 
  7.468287906845054   1.437001190402364   1.667399061138235 
  1.244696241470515   7.904812371442940   8.338457867419743 
 12.447215974705205   1.437413498318092   1.667633775425605 
 -2.489227724703432  10.060823693747187   8.338325423053178 
 -1.244380933580715   3.593219510676539   8.338215508181838 
  3.733446165432292   3.592273557317740   8.342068196966000 
  2.489237798546160  10.060968951407430   8.338558151706392 
  7.468120386374233  10.060880188242043   8.338290530979066 
  8.712945840378060   3.592796760338275   8.339178620633275 
 -4.978667483676415  10.060860035937582   1.667679662595107 
  0.000088472816636  10.060814770065582   1.667717706445172 
  1.244810209182059   3.593186507031013   1.667148733102587 
  4.978540494243103  10.060976555900904   1.666778592211339 
  6.223246542443079   3.592841529860838   1.661452081883092 
 11.202533832688800   3.593126295333585   1.667717189884429 
 -2.489141144439519   5.748999952167675   8.338229398763520 
 -3.733976866042677  12.216809742565198   8.338256706730332 
  1.244821675765542  12.216678120275279   8.338288461445389 
  2.488337549663088   5.748864940771770   8.342068196966000 
  6.223619876075843  12.216858234701075   8.338240022960200 
 -6.223333331420132  12.216810545244883   1.667727814081108 
  7.467653001173232   5.748500321717086   8.343642870479353 
 -1.244577354078362  12.216639220692462   1.667717706445172 
  0.000104128745533   5.748912883415133   1.667653331731257 
 -1.244463606891840   7.904846291599533   1.667700506114296 
  4.978478797566787   5.748821071599765   1.664652778332012 
  3.734165171113997  12.216834001409836   1.667621789617242 
  9.957652329602940   5.748884375504212   1.667666681865561 
 -3.733916130929812   7.904887450190363   8.338277550249520 
  2.489370974520591   1.437376232935984   8.338303881113358 
  6.222788121823304   7.904669541309276   8.343642870479353 
  7.468287906845055   1.437001190402365   8.338558151706392 
 12.447215974705205   1.437413498318093   8.338323437419023 
  1.244662120857100   0.718391616603532   1.667531354047296 
  4.978619767367231   7.186948735477006   1.655638388590760 
  6.223747284815566   0.718521063220138   1.668032969189551 
  9.957399722729850   7.186199757053857   1.668469799898837 
 11.202439008043296   0.718741181534719   1.667688680591895 
 -3.734102762036059   9.342094755835694   8.338078950904382 
  1.244745445277331   9.342405220279323   8.337924243655078 
  2.489061699268247   2.874069880039007   8.341103247012255 
  6.223360064512243   9.342156821739399   8.338185586242048 
  7.468426018398161   2.874215573483532   8.339414356244948 
 12.446966113885299   2.874577926595603   8.338271267842959 
 -1.244622209811464   9.342240343301835   1.667850163826474 
 -0.000114701318195   2.874428774832765   1.667481963489607 
  4.979026503635607   2.874275548315393   1.664398552658748 
  3.733971020755420   9.342481367980312   1.666542856599680 
  8.712745716609787   9.342003733497966   1.668469799898837 
  9.957717972315196   2.874494871095491   1.668156910270772 
 -4.978743944828998  11.497863138981865   8.338278730577315 
  0.000213184561871  11.498103072843124   8.338086371064524 
  1.244162686966345   5.030298219638227   8.341103247012255 
  6.224004373269884   5.029879323089456   8.350318824253881 
  4.978858876541106  11.498131788702715   8.337800302573870 
 11.202165640426278   5.030437507975855   8.337800423400767 
 -1.244909240760267   5.030455703993271   1.667531354047296 
 -2.489236403479602  11.497975362556435   1.667850163826474 
  2.489523144668175  11.498249230896068   1.667939954870037 
  3.732876071939381   5.029672002655445   1.656527777773451 
  7.468183803237046  11.497883764527030   1.668156789443862 
  8.712839474987252   5.030251998400035   1.667771626602593 
 -0.000053183547909   7.186416919878096   8.338382116647182 
  1.244662120857100   0.718391616603533   8.338425858797358 
  4.978619767367232   7.186948735477007   8.350318824253881 
  6.223747284815567   0.718521063220139   8.337924243655078 
  9.957399722729850   7.186199757053858   8.337487412945803 
 -2.489473168952645   7.186319681367589   1.667678482267299 
 11.202439008043296   0.718741181534720   8.338268532252734 
  3.734207331993465   0.718487978262040   1.667575096197432 
  2.489323203102063   7.186568160611447   1.664398552658748 
  7.467928158371940   7.186105330194614   1.667213751832835 
  8.713151814301652   0.718608167648514   1.667939954870037 
  2.489323203102063   7.186568160611448   8.341558660185868 
 13.691711948598957   0.718614898361798   1.667685945001655 
 -1.244622209811463   9.342240343301835   8.338107049018166 
 -0.000114701318195   2.874428774832765   8.338475249355021 
  4.979026503635608   2.874275548315394   8.341558660185868 
  3.733971020755420   9.342481367980312   8.339414356244948 
  8.712745716609787   9.342003733497966   8.337487412945803 
  9.957717972315196   2.874494871095492   8.337800302573870 
 -3.734102762036059   9.342094755835694   1.667878261940246 
  1.244745445277331   9.342405220279323   1.668032969189551 
  2.489061699268246   2.874069880039006   1.664853965832386 