 O N B 
 1.0
 14.936314146199660   0.000000000000000   0.000000000000000
 -7.468157073099825  12.935227489513863   0.000000000000000
  0.000000000000001   0.000000000000001  13.341276283792837
 O N B 
   1 143 143
Cartesian
  5.110027886279796   5.824770973379854   5.002978606422314 
  1.241863413126818   0.717281124704989   1.632653013836096 
  4.976356886059510   7.184526392359750   1.644439698177338 
  6.221079193414069   0.717334639626603   1.632502813484635 
  9.955159937326993   7.184776105194189   1.641608723689795 
 11.199466617132723   0.717025070842805   1.642005839295021 
 -3.736372801419110   9.340784147992441   8.361155743261687 
  1.242383926607344   9.340687797138598   8.373454399362487 
  2.486448443969356   2.873001473703868   8.379037705552056 
  6.220871992525119   9.340628503989656   8.368660554611127 
  7.465649481689362   2.872992131526481   8.371362600547075 
 12.444102336855080   2.872749670795334   8.366013783831507 
 -1.246930037793559   9.340652220693672   1.638614329515067 
 -0.002956184762785   2.872788243601434   1.629133487698237 
  4.976470523886411   2.873179980588952   1.633609018647455 
  3.731523220590148   9.340688537627571   1.634594612294005 
  8.710392905233645   9.340775848366603   1.641608723689795 
  9.954949811441947   2.872828646794380   1.638378743872735 
 -4.981298867514565  11.496803976876475   8.365609221553649 
 -0.002404000477410  11.496592040345725   8.372460358194806 
  1.241930792286687   5.028569277334600   8.379037705552056 
  6.220775121941456   5.029130781946977   8.361517514666877 
  4.976031803532317  11.496567603213643   8.367578468970558 
 11.199743595482792   5.028698582935172   8.367035911363340 
 -1.247270308821610   5.028587197952718   1.632653013836096 
 -2.491765671997609  11.496770786207327   1.638614329515067 
  2.486781555517004  11.496590960374100   1.634550901549487 
  3.731895668080877   5.029105966226902   1.624506719472661 
  7.465466827501052  11.496655674603684   1.638921301480513 
  8.710271876999927   5.028861423723163   1.637296658231220 
 -0.002291952762583   7.184614465583775   8.373771468741008 
  1.241863413126818   0.717281124704990   8.373304199009693 
  4.976356886059511   7.184526392359751   8.361517514666877 
  6.221079193414026   0.717334639626682   8.373454399362487 
  9.955159937326993   7.184776105194190   8.364348489149977 
 -2.491667891579446   7.184636634459530   1.640347991280666 
 11.199466617132730   0.717025070842792   8.363951373548099 
  3.731526976182820   0.717450374387882   1.632185744103472 
  2.487096423745196   7.184902401082025   1.633609018647935 
  7.465621367006679   7.184773503573613   1.640155638794138 
  8.710344915324564   0.717063017063266   1.634550901549420 
  2.487096423745196   7.184902401082025   8.372348194203990 
 13.688696744116729   0.717048922602070   1.639943429013559 
 -1.246930037793559   9.340652220693672   8.367342883324945 
 -0.002956184762785   2.872788243601435   8.376823725142428 
  4.976470523886412   2.873179980588953   8.372348194203990 
  3.731523220590149   9.340688537627571   8.371362600547060 
  8.710392905233645   9.340775848366603   8.364348489149977 
  9.954949811441947   2.872828646794381   8.367578468970558 
 -3.736372801419110   9.340784147992441   1.644801469581593 
  1.242383926610354   9.340687797133386   1.632502813484648 
  2.486448443969356   2.873001473703868   1.626919507291183 
  6.220871992525118   9.340628503989656   1.637296658231206 
  7.465649481689361   2.872992131526480   1.634594612294005 
 12.444102336855080   2.872749670795333   1.639943429013559 
 -1.247270308821609   5.028587197952719   8.373304199009693 
 -2.491765671997638  11.496770786207378   8.367342883324945 
  2.486781555517004  11.496590960374100   8.371406311293740 
  3.731895668080892   5.029105966226903   8.381450493370405 
  7.465466827501053  11.496655674603684   8.367035911363340 
 -4.981298867514566  11.496803976876475   1.640347991280666 
  8.710271876999927   5.028861423723164   8.368660554611154 
 -0.002404000477410  11.496592040345725   1.633496854649622 
  1.241930792286671   5.028569277334599   1.626919507291183 
 -0.002291952762584   7.184614465583774   1.632185744103472 
  6.220775121941455   5.029130781946976   1.644439698177378 
  4.976031803532257  11.496567603213643   1.638378743872735 
 11.199743595482792   5.028698582935171   1.638921301480527 
 -2.491667891579446   7.184636634459530   8.365609221553649 
  3.731526976182813   0.717450374387896   8.373771468741008 
  7.465621367006680   7.184773503573614   8.365801574044941 
  8.710344915324526   0.717063017063253   8.371406311293740 
 13.688696744116722   0.717048922602084   8.366013783831507 
 -0.019278718926504   1.422090287606719   5.002978606422314 
  3.765297464910541   7.868438812690299   5.002978606422314 
  4.967214045799927   1.461526602999495   5.002978606422314 
  8.736839278511496   7.918711506983660   5.002978606422314 
  9.945925219625742   1.435823935949363   5.002978606422314 
 -4.974308642051285  10.063205645549802  11.673616748318732 
  0.004363216472749  10.063301042900592  11.673616748318732 
  1.249115026745740   3.595671894609166  11.673616748318732 
  4.983315930130481  10.063279683132421  11.673616748318732 
  6.227915899902601   3.595818262480490  11.673616748318732 
 11.206671682422281   3.595780451936505  11.673616748318732 
 -2.480809409036580  10.065684010563816   5.002978606422314 
 -1.267458734952241   3.584001492355445   5.002978606422314 
  3.678061019339619   3.569123507693290   5.002978606422314 
  2.497955612816685  10.041793216320270   5.002978606422314 
  7.480168175112190  10.067631274599936   5.002978606422314 
  8.705727557384691   3.601360919900906   5.002978606422314 
 -6.219010564381909  12.219032715104644  11.673616748318732 
 -1.240286806809827  12.219098120867736  11.673616748318732 
  0.004351504549556   5.751587899846704  11.673616748318732 
  4.983378566521014   5.751649954524481  11.673616748318732 
  3.738513917010179  12.219139198570332  11.673616748318732 
  9.961982345582703   5.751650327292863  11.673616748318732 
 -2.493147504819864   5.748947363910428   5.002978606422314 
 -3.731514530171551  12.223634106094224   5.002978606422314 
  1.241409156526952  12.214707901376462   5.002978606422314 
  2.440596445543490   5.712475022074638   5.002978606422314 
  6.215845776483219  12.207126366658411   5.002978606422314 
  7.502033969819736   5.768930708104550   5.002978606422314 
 -1.240399276303861   7.907454313555326  11.673616748318732 
  0.004466394740758   1.439761141343661  11.673616748318732 
  3.738642221615222   7.907366747218124  11.673616748318732 
  4.983185876088453   1.439818357270989  11.673616748318732 
  8.717375264319710   7.907473953156004  11.673616748318732 
 -3.721106455710478   7.911255845620642   5.002978606422314 
  9.961956225806809   1.439820921760736  11.673616748318732 
  2.471163631749178   1.426058199819558   5.002978606422314 
  1.259940498373949   7.882712744697339   5.002978606422314 
  6.257671839769182   7.924229140366755   5.002978606422314 
  7.456040140260883   1.454138906565733   5.002978606422314 
  1.249126521243601   7.907398878340179  11.673616748318732 
 12.431612846289703   1.428405027926970   5.002978606422314 
 -2.485018492667207  10.063253894990400  11.673616748318732 
 -1.240282769877980   3.595729937142247  11.673616748318732 
  3.738527244956355   3.595703006245961  11.673616748318732 
  2.493850193370807  10.063309122691900  11.673616748318732 
  7.472680778875090  10.063247116191286  11.673616748318732 
  8.717328125014314   3.595780845511795  11.673616748318732 
 -4.966747453839475  10.068769342370885   5.002978606422314 
  0.007728942415706  10.054990611085890   5.002978606422314 
  1.203400086360624   3.569278361467311   5.002978606422314 
  4.982348132489153  10.050443259676610   5.002978606422314 
  6.207530941331768   3.638366347583136   5.002978606422314 
 11.190218737943564   3.591259661612173   5.002978606422314 
 -2.485055305372295   5.751632493310940  11.673616748318732 
 -3.729686087479544  12.219025545122754  11.673616748318732 
  1.249167961219573  12.219187449356012  11.673616748318732 
  2.493848079316470   5.751550560256695  11.673616748318732 
  6.227987367979588  12.219114639397535  11.673616748318732 
 -6.225382054380964  12.213367229514214   5.002978606422314 
  7.472650512016293   5.751672830482730  11.673616748318732 
 -1.245800988906969  12.226168140945104   5.002978606422314 
 -0.018801246835069   5.738803878589574   5.002978606422314 
 -1.237322366772598   7.903566555247072   5.002978606422314 
  3.727036922675385  12.207254432862943   5.002978606422314 
  9.969522836259026   5.755942523435182   5.002978606422314 
 -3.729705352604220   7.907489512960607  11.673616748318732 
  2.493811294610131   1.439717060062008  11.673616748318732 
  6.228034350434906   7.907411258263062  11.673616748318732 
  7.472620752036112   1.439825555855448  11.673616748318732 
 12.451351773834626   1.439801303053398  11.673616748318732 
  1.236849961049854   0.717348181012707   5.002978606422314 
  5.027799557912054   7.180468098630030   5.002978606422314 
  6.204170715152819   0.740327481151527   5.002978606422314 
  9.974707500682580   7.193317357323037   5.002978606422314 
 11.189500688655482   0.711271239354263   5.002978606422314 
 -3.729664235866039   9.344657340120339  11.673616748318732 
  1.249157436273898   9.344045620527805  11.673616748318732 
  2.494084136679125   2.877534012083251  11.673616748318732 
  6.227811159892418   9.344456391920131  11.673616748318732 
  7.471950250603756   2.877307100500380  11.673616748318732 
 12.451825381454173   2.877311198998506  11.673616748318732 
 -1.236724509180077   9.339015614010737   5.002978606422314 
 -0.018283941667627   2.863938759027256   5.002978606422314 
  4.921034533470242   2.940935902952778   5.002978606422314 
  3.743698863927925   9.305794513955931   5.002978606422314 
  8.727563628229039   9.353433908760787   5.002978606422314 
  9.944760104217714   2.875124973394019   5.002978606422314 
 -4.974301273628111  11.500835316924030  11.673616748318732 
  0.004134116467329  11.500366823936751  11.673616748318732 
  1.249673932025083   5.032915712001329  11.673616748318732 
  6.227187253728470   5.032885421021544  11.673616748318732 
  4.983295278171892  11.500386273473511  11.673616748318732 
 11.206906998622792   5.033017459841958  11.673616748318732 
 -1.249718962394908   5.024211892940911   5.002978606422314 
 -2.488080250648086  11.506427336576367   5.002978606422314 
  2.485527017994736  11.481810628800464   5.002978606422314 
  7.469505170227252  11.500858836099361   5.002978606422314 
  8.728069416382382   5.037873019857099   5.002978606422314 
  0.004798009368045   7.188446934302513  11.673616748318732 
  1.249518889051812   0.721646472769441  11.673616748318732 
  4.982814564771381   7.188202141846626  11.673616748318732 
  6.227373908597658   0.721521759386688  11.673616748318732 
  9.961986758363494   7.188769640598252  11.673616748318732 
 -2.478611933651892   7.186260253876037   5.002978606422314 
 11.206916211431331   0.721326096114563  11.673616748318732 
  3.726796151832997   0.736756962078825   5.002978606422314 
  2.518056778559456   7.103015463916082   5.002978606422314 
  7.496832635854180   7.202793338057116   5.002978606422314 
  8.696917503947143   0.723366721480883   5.002978606422314 
  2.493838133819726   7.187941989738410  11.673616748318732 
 13.679528673065864   0.709840941851799   5.002978606422314 
 -1.240171217725788   9.344483907707732  11.673616748318732 
  0.005110247019840   2.877445400162223  11.673616748318732 
  4.982473739919871   2.877498678447963  11.673616748318732 
  3.738410477789458   9.343987679093953  11.673616748318732 
  8.717264818862516   9.344691281109636  11.673616748318732 
  9.961888614213159   2.877209665224277  11.673616748318732 
 -3.722776751200835   9.348633831243832   5.002978606422314 
  1.253842072343694   9.314548204660476   5.002978606422314 
  2.474420968820523   2.887637223858499   5.002978606422314 
  6.237575033398607   9.351535827149929   5.002978606422314 
  7.441518192415890   2.900983559804504   5.002978606422314 
 12.433276006890759   2.868413878735272   5.002978606422314 
 -1.239662068537608   5.033034360547296  11.673616748318732 
 -2.485067923666777  11.500708252572672  11.673616748318732 
  2.493742795529682  11.500230379274736  11.673616748318732 
  3.738144933045338   5.032713981033784  11.673616748318732 
  7.472788786195146  11.500699925234962  11.673616748318732 
 -4.973364792891591  11.507298958403720   5.002978606422314 
  8.717056508872631   5.032956974981849  11.673616748318732 
 -0.003009319213851  11.496242559426317   5.002978606422314 
  1.248591986153648   5.010835303228011   5.002978606422314 
  0.012062630457294   7.170864157680835   5.002978606422314 
  6.242981872397048   5.075710589482836   5.002978606422314 
  4.972925627093345  11.486594894596129   5.002978606422314 
 11.205402811475288   5.030094309580993   5.002978606422314 
 -2.484677851748150   7.188681058514448  11.673616748318732 
  3.738390972508489   0.721674227361584  11.673616748318732 
  7.472306760063258   7.188633317047283  11.673616748318732 
  8.716977364558472   0.721271918297788  11.673616748318732 
 13.696508665721288   0.721456511316152  11.673616748318732 
 -0.001924385210290   1.437049047045480   1.637404430568338 
  3.730096720840864   7.901342644594806   1.643116017699136 
  4.975427798313963   1.438329423026780   1.638228082722463 
  8.709875876307789   7.903144179464942   1.642730496874189 
  9.954616365018365   1.435654075826412   1.640512789322064 
 -4.981070182251306  10.060124023942198   8.361025426979337 
 -0.001576461778828  10.058757900311495   8.368639352248254 
  1.244037704354191   3.592740501159693   8.370445072997057 
  4.975316624856012  10.058575533200388   8.367209342801814 
  6.218426123613471   3.591429693025101   8.362841195142344 
 11.199958904304887   3.591302333727466   8.364409231714978 
 -2.491071662462108  10.059759095785001   1.643645956750354 
 -1.245826902413777   3.591551406504753   1.637404430568338 
  3.730626898073172   3.594326762308369   1.648095420634351 
  2.486819489997048  10.058231276909833   1.636381426003829 
  7.465048120158932  10.059456882442770   1.640994299231868 
  8.709254559029212   3.591205318903584   1.638747870044307 
 -6.225887422410585  12.216834570087904   8.365767955311989 
 -1.247191122835536  12.216225779917750   8.368639352248254 
  0.000305086368871   5.746215582983274   8.369703706871475 
  4.971789756317879   5.744959151834069   8.359621429411849 
  3.731235392185747  12.214866115630009   8.365444423524952 
  9.954883577512733   5.746935367819464   8.364962913614269 
 -2.490397383812107   5.746776032067867   1.640189257540150 
 -3.736465115269519  12.217292619388022   1.640339363435428 
  1.242041843723660  12.215073183501683   1.636020528545626 
  2.488706043664136   5.745396781124185   1.648095420634351 
  6.220752814797217  12.215540262111206   1.641547981133319 
  7.463768021420661   5.746513821479666   1.642928749764874 
 -1.245289547911469   7.902449966149628   8.365617849410548 
 -0.001924385210275   1.437049047045481   8.368552782277877 
  3.730096720840864   7.901342644594807   8.362841195142156 
  4.975427798313964   1.438329423026780   8.367729130129209 
  8.709875876307789   7.903144179464943   8.363226715970599 
 -3.735754885296755   7.903174658174175   1.644931785872415 
  9.954616365018358   1.435654075826426   8.365444423524979 
  2.487135522634927   1.438898917561757   1.636253505974742 
  1.243958027471752   7.901424653032930   1.638228082722450 
  6.219125272279278   7.902298300264761   1.642928749764874 
  7.464707856911781   1.436275711007207   1.636381426003829 
  1.243958027471753   7.901424653032930   8.367729130129156 
 12.444590224393552   1.435897520667249   1.643700290525683 
 -2.491071662462108  10.059759095785001   8.362311256102545 
 -1.245826902413896   3.591551406504754   8.368552782277877 
  3.730626898073173   3.594326762308370   8.357861792206194 
  2.486819489997048  10.058231276909833   8.369575786838050 
  7.465048120158933  10.059456882442770   8.364962913614269 
  8.709254559029212   3.591205318903585   8.367209342801814 
 -4.981070182251307  10.060124023942198   1.644931785872402 
 -0.001576461778828  10.058757900311495   1.637317860597974 
  1.244037704354206   3.592740501159692   1.635512139850090 
  4.975316624855981  10.058575533200440   1.638747870044307 
  6.218426123613486   3.591429693025074   1.643116017699136 
 11.199958904304887   3.591302333727465   1.641547981133332 
 -2.490397383812099   5.746776032067856   8.365767955311989 
 -3.736465115269519  12.217292619388022   8.365617849410548 
  1.242041843723661  12.215073183501683   8.369936684300818 
  2.488706043664136   5.745396781124186   8.357861792206235 
  6.220752814797190  12.215540262111206   8.364409231714978 
 -6.225887422410586  12.216834570087904   1.640189257540150 
  7.463768021422498   5.746513821476485   8.363028463069520 
 -1.247191122837770  12.216225779917840   1.637317860597974 
  0.000305086368870   5.746215582983273   1.636253505974742 
 -1.245289547911470   7.902449966149627   1.640339363435428 
  4.971789756317878   5.744959151834069   1.646335783432685 
  3.731235392185747  12.214866115630009   1.640512789322077 
  9.954883577512733   5.746935367819463   1.640994299231868 
 -3.735754885296754   7.903174658174176   8.361025426979337 
  2.487135522634920   1.438898917561770   8.369703706871475 
  6.219125272279279   7.902298300264762   8.363028463069520 
  7.464707856911768   1.436275711007234   8.369575786838050 
 12.444590224393552   1.435897520667250   8.362256922318972 
Generated by cif2cell 2.0.0.  :  Failed to get author information, No journal information. Species order: O N B 
 1.0
 14.936314146199660   0.000000000000000   0.000000000000000
 -7.468157073099825  12.935227489513863   0.000000000000000
  0.000000000000001   0.000000000000001  13.341276283792837
 O N B 
   1 143 143
Cartesian
  5.110027886279796   5.824770973379854   5.002978606422314 
  1.241863413126818   0.717281124704989   1.632653013836096 
  4.976356886059510   7.184526392359750   1.644439698177338 
  6.221079193414069   0.717334639626603   1.632502813484635 
  9.955159937326993   7.184776105194189   1.641608723689795 
 11.199466617132723   0.717025070842805   1.642005839295021 
 -3.736372801419110   9.340784147992441   8.361155743261687 
  1.242383926607344   9.340687797138598   8.373454399362487 
  2.486448443969356   2.873001473703868   8.379037705552056 
  6.220871992525119   9.340628503989656   8.368660554611127 
  7.465649481689362   2.872992131526481   8.371362600547075 
 12.444102336855080   2.872749670795334   8.366013783831507 
 -1.246930037793559   9.340652220693672   1.638614329515067 
 -0.002956184762785   2.872788243601434   1.629133487698237 
  4.976470523886411   2.873179980588952   1.633609018647455 
  3.731523220590148   9.340688537627571   1.634594612294005 
  8.710392905233645   9.340775848366603   1.641608723689795 
  9.954949811441947   2.872828646794380   1.638378743872735 
 -4.981298867514565  11.496803976876475   8.365609221553649 
 -0.002404000477410  11.496592040345725   8.372460358194806 
  1.241930792286687   5.028569277334600   8.379037705552056 
  6.220775121941456   5.029130781946977   8.361517514666877 
  4.976031803532317  11.496567603213643   8.367578468970558 
 11.199743595482792   5.028698582935172   8.367035911363340 
 -1.247270308821610   5.028587197952718   1.632653013836096 
 -2.491765671997609  11.496770786207327   1.638614329515067 
  2.486781555517004  11.496590960374100   1.634550901549487 
  3.731895668080877   5.029105966226902   1.624506719472661 
  7.465466827501052  11.496655674603684   1.638921301480513 
  8.710271876999927   5.028861423723163   1.637296658231220 
 -0.002291952762583   7.184614465583775   8.373771468741008 
  1.241863413126818   0.717281124704990   8.373304199009693 
  4.976356886059511   7.184526392359751   8.361517514666877 
  6.221079193414026   0.717334639626682   8.373454399362487 
  9.955159937326993   7.184776105194190   8.364348489149977 
 -2.491667891579446   7.184636634459530   1.640347991280666 
 11.199466617132730   0.717025070842792   8.363951373548099 
  3.731526976182820   0.717450374387882   1.632185744103472 
  2.487096423745196   7.184902401082025   1.633609018647935 
  7.465621367006679   7.184773503573613   1.640155638794138 
  8.710344915324564   0.717063017063266   1.634550901549420 
  2.487096423745196   7.184902401082025   8.372348194203990 
 13.688696744116729   0.717048922602070   1.639943429013559 
 -1.246930037793559   9.340652220693672   8.367342883324945 
 -0.002956184762785   2.872788243601435   8.376823725142428 
  4.976470523886412   2.873179980588953   8.372348194203990 
  3.731523220590149   9.340688537627571   8.371362600547060 
  8.710392905233645   9.340775848366603   8.364348489149977 
  9.954949811441947   2.872828646794381   8.367578468970558 
 -3.736372801419110   9.340784147992441   1.644801469581593 
  1.242383926610354   9.340687797133386   1.632502813484648 
  2.486448443969356   2.873001473703868   1.626919507291183 
  6.220871992525118   9.340628503989656   1.637296658231206 
  7.465649481689361   2.872992131526480   1.634594612294005 
 12.444102336855080   2.872749670795333   1.639943429013559 
 -1.247270308821609   5.028587197952719   8.373304199009693 
 -2.491765671997638  11.496770786207378   8.367342883324945 
  2.486781555517004  11.496590960374100   8.371406311293740 
  3.731895668080892   5.029105966226903   8.381450493370405 
  7.465466827501053  11.496655674603684   8.367035911363340 
 -4.981298867514566  11.496803976876475   1.640347991280666 
  8.710271876999927   5.028861423723164   8.368660554611154 
 -0.002404000477410  11.496592040345725   1.633496854649622 
  1.241930792286671   5.028569277334599   1.626919507291183 
 -0.002291952762584   7.184614465583774   1.632185744103472 
  6.220775121941455   5.029130781946976   1.644439698177378 
  4.976031803532257  11.496567603213643   1.638378743872735 
 11.199743595482792   5.028698582935171   1.638921301480527 
 -2.491667891579446   7.184636634459530   8.365609221553649 
  3.731526976182813   0.717450374387896   8.373771468741008 
  7.465621367006680   7.184773503573614   8.365801574044941 
  8.710344915324526   0.717063017063253   8.371406311293740 
 13.688696744116722   0.717048922602084   8.366013783831507 
 -0.019278718926504   1.422090287606719   5.002978606422314 
  3.765297464910541   7.868438812690299   5.002978606422314 
  4.967214045799927   1.461526602999495   5.002978606422314 
  8.736839278511496   7.918711506983660   5.002978606422314 
  9.945925219625742   1.435823935949363   5.002978606422314 
 -4.974308642051285  10.063205645549802  11.673616748318732 
  0.004363216472749  10.063301042900592  11.673616748318732 
  1.249115026745740   3.595671894609166  11.673616748318732 
  4.983315930130481  10.063279683132421  11.673616748318732 
  6.227915899902601   3.595818262480490  11.673616748318732 
 11.206671682422281   3.595780451936505  11.673616748318732 
 -2.480809409036580  10.065684010563816   5.002978606422314 
 -1.267458734952241   3.584001492355445   5.002978606422314 
  3.678061019339619   3.569123507693290   5.002978606422314 
  2.497955612816685  10.041793216320270   5.002978606422314 
  7.480168175112190  10.067631274599936   5.002978606422314 
  8.705727557384691   3.601360919900906   5.002978606422314 
 -6.219010564381909  12.219032715104644  11.673616748318732 
 -1.240286806809827  12.219098120867736  11.673616748318732 
  0.004351504549556   5.751587899846704  11.673616748318732 
  4.983378566521014   5.751649954524481  11.673616748318732 
  3.738513917010179  12.219139198570332  11.673616748318732 
  9.961982345582703   5.751650327292863  11.673616748318732 
 -2.493147504819864   5.748947363910428   5.002978606422314 
 -3.731514530171551  12.223634106094224   5.002978606422314 
  1.241409156526952  12.214707901376462   5.002978606422314 
  2.440596445543490   5.712475022074638   5.002978606422314 
  6.215845776483219  12.207126366658411   5.002978606422314 
  7.502033969819736   5.768930708104550   5.002978606422314 
 -1.240399276303861   7.907454313555326  11.673616748318732 
  0.004466394740758   1.439761141343661  11.673616748318732 
  3.738642221615222   7.907366747218124  11.673616748318732 
  4.983185876088453   1.439818357270989  11.673616748318732 
  8.717375264319710   7.907473953156004  11.673616748318732 
 -3.721106455710478   7.911255845620642   5.002978606422314 
  9.961956225806809   1.439820921760736  11.673616748318732 
  2.471163631749178   1.426058199819558   5.002978606422314 
  1.259940498373949   7.882712744697339   5.002978606422314 
  6.257671839769182   7.924229140366755   5.002978606422314 
  7.456040140260883   1.454138906565733   5.002978606422314 
  1.249126521243601   7.907398878340179  11.673616748318732 
 12.431612846289703   1.428405027926970   5.002978606422314 
 -2.485018492667207  10.063253894990400  11.673616748318732 
 -1.240282769877980   3.595729937142247  11.673616748318732 
  3.738527244956355   3.595703006245961  11.673616748318732 
  2.493850193370807  10.063309122691900  11.673616748318732 
  7.472680778875090  10.063247116191286  11.673616748318732 
  8.717328125014314   3.595780845511795  11.673616748318732 
 -4.966747453839475  10.068769342370885   5.002978606422314 
  0.007728942415706  10.054990611085890   5.002978606422314 
  1.203400086360624   3.569278361467311   5.002978606422314 
  4.982348132489153  10.050443259676610   5.002978606422314 
  6.207530941331768   3.638366347583136   5.002978606422314 
 11.190218737943564   3.591259661612173   5.002978606422314 
 -2.485055305372295   5.751632493310940  11.673616748318732 
 -3.729686087479544  12.219025545122754  11.673616748318732 
  1.249167961219573  12.219187449356012  11.673616748318732 
  2.493848079316470   5.751550560256695  11.673616748318732 
  6.227987367979588  12.219114639397535  11.673616748318732 
 -6.225382054380964  12.213367229514214   5.002978606422314 
  7.472650512016293   5.751672830482730  11.673616748318732 
 -1.245800988906969  12.226168140945104   5.002978606422314 
 -0.018801246835069   5.738803878589574   5.002978606422314 
 -1.237322366772598   7.903566555247072   5.002978606422314 
  3.727036922675385  12.207254432862943   5.002978606422314 
  9.969522836259026   5.755942523435182   5.002978606422314 
 -3.729705352604220   7.907489512960607  11.673616748318732 
  2.493811294610131   1.439717060062008  11.673616748318732 
  6.228034350434906   7.907411258263062  11.673616748318732 
  7.472620752036112   1.439825555855448  11.673616748318732 
 12.451351773834626   1.439801303053398  11.673616748318732 
  1.236849961049854   0.717348181012707   5.002978606422314 
  5.027799557912054   7.180468098630030   5.002978606422314 
  6.204170715152819   0.740327481151527   5.002978606422314 
  9.974707500682580   7.193317357323037   5.002978606422314 
 11.189500688655482   0.711271239354263   5.002978606422314 
 -3.729664235866039   9.344657340120339  11.673616748318732 
  1.249157436273898   9.344045620527805  11.673616748318732 
  2.494084136679125   2.877534012083251  11.673616748318732 
  6.227811159892418   9.344456391920131  11.673616748318732 
  7.471950250603756   2.877307100500380  11.673616748318732 
 12.451825381454173   2.877311198998506  11.673616748318732 
 -1.236724509180077   9.339015614010737   5.002978606422314 
 -0.018283941667627   2.863938759027256   5.002978606422314 
  4.921034533470242   2.940935902952778   5.002978606422314 
  3.743698863927925   9.305794513955931   5.002978606422314 
  8.727563628229039   9.353433908760787   5.002978606422314 
  9.944760104217714   2.875124973394019   5.002978606422314 
 -4.974301273628111  11.500835316924030  11.673616748318732 
  0.004134116467329  11.500366823936751  11.673616748318732 
  1.249673932025083   5.032915712001329  11.673616748318732 
  6.227187253728470   5.032885421021544  11.673616748318732 
  4.983295278171892  11.500386273473511  11.673616748318732 
 11.206906998622792   5.033017459841958  11.673616748318732 
 -1.249718962394908   5.024211892940911   5.002978606422314 
 -2.488080250648086  11.506427336576367   5.002978606422314 
  2.485527017994736  11.481810628800464   5.002978606422314 
  7.469505170227252  11.500858836099361   5.002978606422314 
  8.728069416382382   5.037873019857099   5.002978606422314 
  0.004798009368045   7.188446934302513  11.673616748318732 
  1.249518889051812   0.721646472769441  11.673616748318732 
  4.982814564771381   7.188202141846626  11.673616748318732 
  6.227373908597658   0.721521759386688  11.673616748318732 
  9.961986758363494   7.188769640598252  11.673616748318732 
 -2.478611933651892   7.186260253876037   5.002978606422314 
 11.206916211431331   0.721326096114563  11.673616748318732 
  3.726796151832997   0.736756962078825   5.002978606422314 
  2.518056778559456   7.103015463916082   5.002978606422314 
  7.496832635854180   7.202793338057116   5.002978606422314 
  8.696917503947143   0.723366721480883   5.002978606422314 
  2.493838133819726   7.187941989738410  11.673616748318732 
 13.679528673065864   0.709840941851799   5.002978606422314 
 -1.240171217725788   9.344483907707732  11.673616748318732 
  0.005110247019840   2.877445400162223  11.673616748318732 
  4.982473739919871   2.877498678447963  11.673616748318732 
  3.738410477789458   9.343987679093953  11.673616748318732 
  8.717264818862516   9.344691281109636  11.673616748318732 
  9.961888614213159   2.877209665224277  11.673616748318732 
 -3.722776751200835   9.348633831243832   5.002978606422314 
  1.253842072343694   9.314548204660476   5.002978606422314 
  2.474420968820523   2.887637223858499   5.002978606422314 
  6.237575033398607   9.351535827149929   5.002978606422314 