Al As B N                               
   1.0000000000000000     
     8.7639499999999995  -15.1796066749929999    0.0000000000000000
     8.7639499999999995   15.1796066749929999    0.0000000000000000
     0.0000000000000000    0.0000000000000000   15.0000000000000000
   Al   As   B    N 
     1     1    48    48
Selective dynamics
Direct
  0.5423414327365464  0.4576599691804403  0.1108709880496175   T   T   T
  0.4739147018259771  0.5260873193710196  0.1106720041045505   T   T   T
  0.9062764233093443  0.9545492878416946  0.1110042605222447   T   T   T
  0.9040981191985084  0.0959039019974799  0.1110071775452258   T   T   T
  0.9036595361038120  0.2382244903348411  0.1110341572283989   T   T   T
  0.9046764470909708  0.3811452123752133  0.1109527710183006   T   T   T
  0.9081150314372267  0.5249035458036611  0.1110012664364266   T   T   T
  0.9089923225557963  0.6691403561115319  0.1110916771988144   T   T   T
  0.9100659750825073  0.8140369573139252  0.1110334525984715   T   T   T
  0.0479197890478512  0.9520822321481582  0.1109702178835794   T   T   T
  0.0454527333543090  0.0937255978866473  0.1110042605222447   T   T   T
  0.0446624157440108  0.2368862815799764  0.1109926789688716   T   T   T
  0.0452851953062155  0.3806072948308266  0.1109825734843720   T   T   T
  0.0472786264208070  0.5242871359577140  0.1109712344428768   T   T   T
  0.0491645155926640  0.6674236794757291  0.1110129519038965   T   T   T
  0.0493700297221816  0.8101344353742266  0.1110287456589171   T   T   T
  0.1898675858217719  0.9506319914738226  0.1110287456589171   T   T   T
  0.1859650638820759  0.0899360461134933  0.1110334525984715   T   T   T
  0.1841595546733297  0.2328303099487360  0.1110898132150984   T   T   T
  0.1849254515902611  0.3788020503085989  0.1110624304110089   T   T   T
  0.1864469257257989  0.5240058116732954  0.1110476573278643   T   T   T
  0.1903625177914847  0.6670980899323493  0.1110364409592027   T   T   T
  0.1907583374671036  0.8092436837289053  0.1110055135145302   T   T   T
  0.3325783417212737  0.9508375056033407  0.1110129519038965   T   T   T
  0.3308616650854687  0.0910096986401949  0.1110916771988144   T   T   T
  0.3225754093067656  0.2263215409937988  0.1111968570960890   T   T   T
  0.3218601952514597  0.3717937263785229  0.1110060591256173   T   T   T
  0.3236479832100850  0.5229416119571797  0.1109966772139746   T   T   T
  0.3324244204729953  0.6675776007240000  0.1110563835186894   T   T   T
  0.3329039312646487  0.8096395034045148  0.1110364409592027   T   T   T
  0.4757148852392804  0.9527233947751909  0.1109712344428768   T   T   T
  0.4750984753933309  0.0918869897587643  0.1110012664364266   T   T   T
  0.4738314149441015  0.2292432331785454  0.1112337953453342   T   T   T
  0.4546791926936105  0.3498337097962430  0.1107771709495362   T   T   T
  0.4770604092398252  0.6763540379869146  0.1109966772139746   T   T   T
  0.4759962095236974  0.8135550954702062  0.1110476573278643   T   T   T
  0.6193947263651789  0.9547168258897875  0.1109825734843720   T   T   T
  0.6188568088207925  0.0953255741050218  0.1109527710183006   T   T   T
  0.6189495070557779  0.2363333722978570  0.1110096767891079   T   T   T
  0.6212819412709174  0.3787200799250879  0.1112107064220775   T   T   T
  0.6501683113997516  0.5453228285033883  0.1107771709495365   T   T   T
  0.6282082948174704  0.6781418259455316  0.1110060591256173   T   T   T
  0.6211999708874031  0.8150765696057338  0.1110624304110089   T   T   T
  0.7631157396160382  0.9553396054520020  0.1109926789688716   T   T   T
  0.7617775308611670  0.0963424850921848  0.1110341572283989   T   T   T
  0.7618320650202868  0.2381699561757157  0.1110028200898837   T   T   T
  0.7636686488981506  0.3810525141402245  0.1110096767891079   T   T   T
  0.7707587880174599  0.5261706062528922  0.1112337953453342   T   T   T
  0.7736804802022026  0.6774266118902348  0.1111968570960890   T   T   T
  0.7671717112472674  0.8158424665226720  0.1110898132150984   T   T   T
  0.9544667513060792  0.9074961418144869  0.1109533482325035   T   T   T
  0.9515859703417684  0.0484154315762334  0.1109952182147621   T   T   T
  0.9505455485266404  0.1903748538690480  0.1110039151597784   T   T   T
  0.9510045365307931  0.3330356269204770  0.1109733602419472   T   T   T
  0.9532847260010902  0.4762248581951640  0.1109303799222907   T   T   T
  0.9548825812366190  0.6200821266724784  0.1110132885453380   T   T   T
  0.9553607558990720  0.7640767509402818  0.1110179799984019   T   T   T
  0.0955073409109765  0.9044940610070218  0.1110044067777068   T   T   T
  0.0925052601035003  0.0455346506119345  0.1109533482325035   T   T   T
  0.0907081148014709  0.1879131436607358  0.1109909478123245   T   T   T
  0.0911581927448696  0.3318123045412730  0.1109852924159657   T   T   T
  0.0926374304058861  0.4757598352545853  0.1109720426550769   T   T   T
  0.0956697009730451  0.6193178474405543  0.1109916608453193   T   T   T
  0.0962870059995597  0.7621775294717337  0.1109972301786110   T   T   T
  0.2378238724462790  0.9037143959184357  0.1109972301786110   T   T   T
  0.2359246509777229  0.0446406460189364  0.1110179799984019   T   T   T
  0.2296077912409883  0.1828220750335430  0.1111099675345358   T   T   T
  0.2289812687240418  0.3275150420846831  0.1110971207633000   T   T   T
  0.2304740847946997  0.4747016345646480  0.1110780536339011   T   T   T
  0.2371438028752446  0.6193123676649233  0.1110376805638081   T   T   T
  0.2381070612751489  0.7618943406428533  0.1110059333983753   T   T   T
  0.3806835544774367  0.9043317009449590  0.1109916608453193   T   T   T
  0.3799192752455133  0.0451188206813851  0.1110132885453380   T   T   T
  0.3772477744623805  0.1847521774922825  0.1111884409669416   T   T   T
  0.3639870317489186  0.3181164820643683  0.1110658252250716   T   T   T
  0.3594260723416404  0.4671055619683965  0.1108240682856155   T   T   T
  0.3799664117633491  0.6200349901546498  0.1109929731336304   T   T   T
  0.3806890342530727  0.7628575990427577  0.1110376805638081   T   T   T
  0.5242415666624063  0.9073639715121130  0.1109720426550769   T   T   T
  0.5237765437218318  0.0467166759169198  0.1109303799222907   T   T   T
  0.5234963614192316  0.1856143655844543  0.1110436454683123   T   T   T
  0.5219018558708644  0.3222516805301777  0.1112577885560983   T   T   T
  0.5328958399485987  0.6405753295763634  0.1108240682856156   T   T   T
  0.5252997673523431  0.7695273171233036  0.1110780536339011   T   T   T
  0.6681890973757296  0.9088432091731328  0.1109852924159657   T   T   T
  0.6669657749965184  0.0489968653872116  0.1109733602419472   T   T   T
  0.6669082066694053  0.1900555743386885  0.1109455452133370   T   T   T
  0.6680736786402497  0.3319277232767506  0.1110526913506121   T   T   T
  0.6777497213868279  0.4780995460461341  0.1112577885560982   T   T   T
  0.6818849198526299  0.6360143701690857  0.1110658252250718   T   T   T
  0.6724863598323115  0.7710201331939596  0.1110971207633000   T   T   T
  0.8120882582572575  0.9092932871165221  0.1109909478123245   T   T   T
  0.8096265480489577  0.0494558533913691  0.1110039151597784   T   T   T
  0.8090965593200388  0.1909048425979570  0.1110331057709412   T   T   T
  0.8099458275793127  0.3330931952475950  0.1109455452133370   T   T   T
  0.8143870363335423  0.4765050404977540  0.1110436454683123   T   T   T
  0.8152492244257273  0.6227536274556169  0.1111884409669416   T   T   T
  0.8171793268844583  0.7703936106770167  0.1111099675345358   T   T   T

  0.00000000E+00  0.00000000E+00  0.00000000E+00
  0.00000000E+00  0.00000000E+00  0.00000000E+00
  0.00000000E+00  0.00000000E+00  0.00000000E+00
  0.00000000E+00  0.00000000E+00  0.00000000E+00
  0.00000000E+00  0.00000000E+00  0.00000000E+00
  0.00000000E+00  0.00000000E+00  0.00000000E+00
  0.00000000E+00  0.00000000E+00  0.00000000E+00
  0.00000000E+00  0.00000000E+00  0.00000000E+00
  0.00000000E+00  0.00000000E+00  0.00000000E+00
  0.00000000E+00  0.00000000E+00  0.00000000E+00
  0.00000000E+00  0.00000000E+00  0.00000000E+00
  0.00000000E+00  0.00000000E+00  0.00000000E+00
  0.00000000E+00  0.00000000E+00  0.00000000E+00
  0.00000000E+00  0.00000000E+00  0.00000000E+00
  0.00000000E+00  0.00000000E+00  0.00000000E+00
  0.00000000E+00  0.00000000E+00  0.00000000E+00
  0.00000000E+00  0.00000000E+00  0.00000000E+00
  0.00000000E+00  0.00000000E+00  0.00000000E+00
  0.00000000E+00  0.00000000E+00  0.00000000E+00
  0.00000000E+00  0.00000000E+00  0.00000000E+00
  0.00000000E+00  0.00000000E+00  0.00000000E+00
  0.00000000E+00  0.00000000E+00  0.00000000E+00
  0.00000000E+00  0.00000000E+00  0.00000000E+00
  0.00000000E+00  0.00000000E+00  0.00000000E+00
  0.00000000E+00  0.00000000E+00  0.00000000E+00
  0.00000000E+00  0.00000000E+00  0.00000000E+00
  0.00000000E+00  0.00000000E+00  0.00000000E+00
  0.00000000E+00  0.00000000E+00  0.00000000E+00
  0.00000000E+00  0.00000000E+00  0.00000000E+00
  0.00000000E+00  0.00000000E+00  0.00000000E+00
  0.00000000E+00  0.00000000E+00  0.00000000E+00
  0.00000000E+00  0.00000000E+00  0.00000000E+00
  0.00000000E+00  0.00000000E+00  0.00000000E+00
  0.00000000E+00  0.00000000E+00  0.00000000E+00
  0.00000000E+00  0.00000000E+00  0.00000000E+00
  0.00000000E+00  0.00000000E+00  0.00000000E+00
  0.00000000E+00  0.00000000E+00  0.00000000E+00
  0.00000000E+00  0.00000000E+00  0.00000000E+00
  0.00000000E+00  0.00000000E+00  0.00000000E+00
  0.00000000E+00  0.00000000E+00  0.00000000E+00
  0.00000000E+00  0.00000000E+00  0.00000000E+00
  0.00000000E+00  0.00000000E+00  0.00000000E+00
  0.00000000E+00  0.00000000E+00  0.00000000E+00
  0.00000000E+00  0.00000000E+00  0.00000000E+00
  0.00000000E+00  0.00000000E+00  0.00000000E+00
  0.00000000E+00  0.00000000E+00  0.00000000E+00
  0.00000000E+00  0.00000000E+00  0.00000000E+00
  0.00000000E+00  0.00000000E+00  0.00000000E+00
  0.00000000E+00  0.00000000E+00  0.00000000E+00
  0.00000000E+00  0.00000000E+00  0.00000000E+00
  0.00000000E+00  0.00000000E+00  0.00000000E+00
  0.00000000E+00  0.00000000E+00  0.00000000E+00
  0.00000000E+00  0.00000000E+00  0.00000000E+00
  0.00000000E+00  0.00000000E+00  0.00000000E+00
  0.00000000E+00  0.00000000E+00  0.00000000E+00
  0.00000000E+00  0.00000000E+00  0.00000000E+00
  0.00000000E+00  0.00000000E+00  0.00000000E+00
  0.00000000E+00  0.00000000E+00  0.00000000E+00
  0.00000000E+00  0.00000000E+00  0.00000000E+00
  0.00000000E+00  0.00000000E+00  0.00000000E+00
  0.00000000E+00  0.00000000E+00  0.00000000E+00
  0.00000000E+00  0.00000000E+00  0.00000000E+00
  0.00000000E+00  0.00000000E+00  0.00000000E+00
  0.00000000E+00  0.00000000E+00  0.00000000E+00
  0.00000000E+00  0.00000000E+00  0.00000000E+00
  0.00000000E+00  0.00000000E+00  0.00000000E+00
  0.00000000E+00  0.00000000E+00  0.00000000E+00
  0.00000000E+00  0.00000000E+00  0.00000000E+00
  0.00000000E+00  0.00000000E+00  0.00000000E+00
  0.00000000E+00  0.00000000E+00  0.00000000E+00
  0.00000000E+00  0.00000000E+00  0.00000000E+00
  0.00000000E+00  0.00000000E+00  0.00000000E+00
  0.00000000E+00  0.00000000E+00  0.00000000E+00
  0.00000000E+00  0.00000000E+00  0.00000000E+00
  0.00000000E+00  0.00000000E+00  0.00000000E+00
  0.00000000E+00  0.00000000E+00  0.00000000E+00
  0.00000000E+00  0.00000000E+00  0.00000000E+00
  0.00000000E+00  0.00000000E+00  0.00000000E+00
  0.00000000E+00  0.00000000E+00  0.00000000E+00
  0.00000000E+00  0.00000000E+00  0.00000000E+00
  0.00000000E+00  0.00000000E+00  0.00000000E+00
  0.00000000E+00  0.00000000E+00  0.00000000E+00
  0.00000000E+00  0.00000000E+00  0.00000000E+00
  0.00000000E+00  0.00000000E+00  0.00000000E+00
  0.00000000E+00  0.00000000E+00  0.00000000E+00
  0.00000000E+00  0.00000000E+00  0.00000000E+00
  0.00000000E+00  0.00000000E+00  0.00000000E+00
  0.00000000E+00  0.00000000E+00  0.00000000E+00
  0.00000000E+00  0.00000000E+00  0.00000000E+00
  0.00000000E+00  0.00000000E+00  0.00000000E+00
  0.00000000E+00  0.00000000E+00  0.00000000E+00
  0.00000000E+00  0.00000000E+00  0.00000000E+00
  0.00000000E+00  0.00000000E+00  0.00000000E+00
  0.00000000E+00  0.00000000E+00  0.00000000E+00
  0.00000000E+00  0.00000000E+00  0.00000000E+00
  0.00000000E+00  0.00000000E+00  0.00000000E+00
  0.00000000E+00  0.00000000E+00  0.00000000E+00
  0.00000000E+00  0.00000000E+00  0.00000000E+00
