 As B N Al 
 1.0
 17.527899999999772   0.000000000000000   0.000000000000000
 -8.763949999999658  15.179606674993195   0.000000000000000
  0.000000000000001   0.000000000000002  15.000000000000000
 As B N Al 
   1  48  48   1
Cartesian
  3.696126539533963   7.985798584753613   1.660080061568250 
  7.519500288943746  14.489682741331794   1.665063907833675 
 15.006444421588540   1.455783510918841   1.665107663178390 
 13.751466460803851   3.616154063633604   1.665512358425985 
 12.516740712970005   5.785634409912482   1.664291565274515 
 11.317121029282550   7.967829367608850   1.665018996546405 
 10.068413906582096  10.157287416137935   1.666375157982210 
  8.817366212597371  12.356760830933606   1.665501788977065 
 -7.504067807982707  14.452233806258601   1.664553268253685 
 -0.024715488637665   1.422717711297875   1.665063907833675 
 -1.293221170533310   3.595840581085721   1.664890184533080 
 -2.541868926724701   5.777469033165125   1.664738602265580 
 -3.766131209135176   7.958472508596781   1.664568516643155 
 -4.987517042884443  10.131228940018294   1.665194278558440 
 -6.234624740930258  12.297522082848459   1.665431184883755 
 -5.003311184151292  14.430219723238119   1.665431184883755 
  2.471382031882281   1.365193805906874   1.665501788977065 
  1.187417063483474   3.534272527038568   1.666347198226470 
 -0.078447405873023   5.750066131365517   1.665936456165135 
 -1.324337663784805   7.954202116611175   1.665714859917960 
 -2.509759129665055  10.126286618812296   1.665546614388045 
 -3.748578118726052  12.284000823227368   1.665082702717950 
 -2.503692441375834  14.433339346890355   1.665194278558440 
  5.001705731053811   1.381491428967823   1.666375157982210 
  3.670598847595462   3.435471974364217   1.667952856441335 
  2.383151688053063   5.643682530656021   1.665090886884255 
  1.089835344796025   7.938047983496912   1.664950158209625 
 -0.023914714256339  10.133565404025973   1.665845752780335 
 -1.260533309048157  12.290009210217351   1.665546614388045 
 -0.011337258654240  14.461966402751665   1.664568516643155 
  7.522185582950369   1.394808363087165   1.665018996546405 
  6.296193424583587   3.479822112554063   1.668506930180010 
  4.903646280645576   5.310338116360683   1.661657564243040 
  2.434334175899427  10.266788269684776   1.664950158209625 
  1.213257781964465  12.349446357674266   1.665714859917960 
  2.489598297999608  14.492225903004927   1.664738602265580 
 10.011831694152161   1.447004720982151   1.664291565274515 
  8.777671206573107   3.587447635656202   1.665145151836620 
  7.570683893943018   5.748821853184822   1.668160596331170 
  6.616903142521483   8.277786047576198   1.661657564243040 
  5.067971115235875  10.293926187714870   1.665090886884255 
  3.745040667521274  12.372541736617757   1.665936456165135 
  5.003267837215031  14.501679451804575   1.664890184533080 
 12.508019660957652   1.462441029790764   1.665512358425985 
 11.266006665042831   3.615326256547736   1.665042301348260 
 10.045982529722632   5.784227287165899   1.665145151836620 
  8.898450075821208   7.987062846861616   1.668506930180010 
  7.624061133660825  10.283069519667036   1.667952856441335 
  6.296906453089703  12.384167750570464   1.666347198226470 
  8.776546958162841  13.775434491817759   1.664300223487545 
 16.254993307990748   0.734927208327263   1.664928273221430 
 14.992631619454297   2.889815402541455   1.665058727396670 
 13.750404833308266   5.055349825412616   1.664600403629205 
 12.535468502894942   7.228906036256999   1.663955698834365 
 11.302717641606064   9.412602789081523   1.665199328180070 
 10.049137351920301  11.598384548780219   1.665269699976030 
 -6.252897605208707  13.729864085953894   1.665066101665605 
  1.222359547337673   0.691198086372397   1.664300223487545 
 -0.056938629956760   2.852447609831463   1.664864217184875 
 -1.310174759771590   5.036780272859582   1.664779386239490 
 -2.545795791767949   7.221847170924161   1.664580639826155 
 -3.750781697391018   9.401001330951051   1.664874912679785 
 -4.991976746953878  11.569555113898957   1.664958452679165 
 -3.751554726257989  13.718029076570936   1.664958452679165 
  3.744035300194738   0.677627448285050   1.665269699976030 
  2.422298879602705   2.775167190515276   1.666649513018040 
  1.143235326990138   4.971549518989332   1.666456811449500 
 -0.120534679369715   7.205784100667711   1.666170804508515 
 -1.270989762179838   9.400918150112306   1.665565208457120 
 -2.503687147352041  11.565256418861791   1.665089000975625 
 -1.252934535971283  13.727399524072050   1.664874912679785 
  6.263767976065131   0.684885951582973   1.665199328180070 
  4.993202420065651   2.804465386681387   1.667826614504130 
  3.591971350803885   4.828883074569633   1.665987378376080 
  2.206294463584185   7.090478706381911   1.662361024284240 
  1.226057616781085   9.411887275280865   1.664894597004450 
 -0.012966531646167  11.579878302498731   1.665565208457120 
  1.236761278168593  13.773428198613606   1.664580639826155 
  8.771280268799705   0.709140765581973   1.663955698834365 
  7.549076854056223   2.817553062800405   1.665654682024680 
  6.323645923936454   4.891653760803664   1.668866828341470 
  3.726574833394380   9.723681548673326   1.662361024284240 
  2.463302861272496  11.681121999594511   1.666170804508515 
  3.746895236859335  13.795882444486727   1.664779386239490 
 11.261103329151075   0.743753144885467   1.664600403629205 
 10.023862804955032   2.884968864851214   1.664183178200055 
  8.800930661427117   5.038532283867064   1.665790370259180 
  7.689488824925174   7.257363060473113   1.668866828341470 
  6.378012547241614   9.654447978810252   1.665987378376080 
  5.030091770199686  11.703782360385178   1.666456811449500 
  6.265200878282675  13.802714450640462   1.664864217184875 
 13.757624545217872   0.750720402257110   1.665058727396670 
 12.508683086819227   2.897860422988474   1.665496586564115 
 11.277437362737208   5.056223689975205   1.664183178200055 
 10.098428184480378   7.233159093407609   1.665654682024680 
  8.831825227472072   9.453155120201510   1.667826614504130 
  7.571746439405326  11.694271995004955   1.666649513018040 
  5.495197311964019   6.947098323048587   1.663064820744255 
