Species order: X N B                    
   2.51242800000000     
     5.9449720136058266    0.0000000000000000    0.0000000000000000
    -2.9724860068029120    5.1484967885702053   -0.0000000000000001
     0.0000000000000000    0.0000000000000009    5.3101128803662583
   P    N    B 
     1   143   143
Direct
  0.4970697290281699  0.4152015311807523  0.3750000000000000
  0.1111313263620340  0.0555577107402000  0.1233227918082360
  0.6111262725489504  0.5555837035840369  0.1218704162796720
  0.4444680408304056  0.0555525483019281  0.1231644483791968
  0.9444456715905080  0.5555587947303948  0.1233693465320900
  0.7778168011068487  0.0555750672200881  0.1231518032920281
  0.1111148175900613  0.7222240754616928  0.6267196215581951
  0.4444680408304056  0.7222488258618253  0.6268355516208075
  0.2777994557334225  0.2222248013077862  0.6271542783316076
  0.7777884092014742  0.7222269703366239  0.6269141036118249
  0.6111317351483907  0.2222147608738108  0.6271412661605630
  0.9444801843852353  0.2222431554194551  0.6267203099485760
  0.2777918096029176  0.7222327725830163  0.1232327358504691
  0.1111446026697475  0.2222389680015382  0.1232719318693985
  0.4444679387759618  0.2222192260454777  0.1225602774931635
  0.6111317351483907  0.7222503076079191  0.1228587338394417
  0.9444456715905080  0.7222202101934226  0.1233693465320900
  0.7778105996323670  0.2222335807410415  0.1231895722680075
  0.1111176870290561  0.8888855543736071  0.6266732761937343
  0.4444664741326141  0.8888999037329595  0.6267705493224415
  0.2777994557334225  0.3889079877589611  0.6271542783316076
  0.6111262725489504  0.3888759022982446  0.6281295837203273
  0.7778105996323670  0.8889103522246556  0.6268104277319919
  0.9444574979977467  0.3889000327450712  0.6266271637761303
  0.1111313263620340  0.3889069489551649  0.1233227918082355
  0.2777918096029176  0.8888923703532248  0.1232327358504691
  0.6111431038315457  0.8889137210782891  0.1231632372218827
  0.4444458358589514  0.3888895845961395  0.1217719766032151
  0.9444574979977467  0.8888907985860102  0.1233728362238715
  0.7777884092014742  0.3888947721981785  0.1230858963881722
  0.2777942072859257  0.5555745225381643  0.6268293503349607
  0.1111313263620340  0.0555577107402000  0.6266772081917582
  0.6111262725489504  0.5555837035840369  0.6281295837203273
  0.4444680408304056  0.0555525483019281  0.6268355516208075
  0.9444456715905080  0.5555587947303948  0.6266306534679144
  0.1111176870290561  0.5555654659887823  0.1233267238062672
  0.7778168011068487  0.0555750672200881  0.6268481967079684
  0.2777942072859257  0.0555530180810981  0.1231706496650389
  0.4444679387759618  0.5555820460638216  0.1225602774931635
  0.7777659254341888  0.5555496293837590  0.1229244299658356
  0.6111431038315457  0.0555627160865849  0.1231632372218827
  0.4444679387759618  0.5555820460638216  0.6274397225068352
  0.9444801843852353  0.0555703622991146  0.1232796900514228
  0.2777918096029176  0.7222327725830163  0.6267672641495282
  0.1111446026697475  0.2222389680015382  0.6267280681306029
  0.4444679387759618  0.2222192260454777  0.6274397225068352
  0.6111317351483907  0.7222503076079191  0.6271412661605630
  0.9444456715905080  0.7222202101934226  0.6266306534679144
  0.7778105996323670  0.2222335807410415  0.6268104277319919
  0.1111148175900613  0.7222240754616928  0.1232803784418049
  0.4444680408304056  0.7222488258618253  0.1231644483791968
  0.2777994557334225  0.2222248013077862  0.1228457216683877
  0.7777884092014742  0.7222269703366239  0.1230858963881722
  0.6111317351483907  0.2222147608738108  0.1228587338394417
  0.9444801843852353  0.2222431554194551  0.1232796900514228
  0.1111313263620340  0.3889069489551649  0.6266772081917582
  0.2777918096029176  0.8888923703532248  0.6267672641495282
  0.6111431038315457  0.8889137210782891  0.6268367627781284
  0.4444458358589514  0.3888895845961395  0.6282280233967845
  0.9444574979977467  0.8888907985860102  0.6266271637761303
  0.1111176870290561  0.8888855543736071  0.1233267238062672
  0.7777884092014742  0.3888947721981785  0.6269141036118249
  0.4444664741326141  0.8888999037329595  0.1232294506775600
  0.2777994557334225  0.3889079877589611  0.1228457216683877
  0.2777942072859257  0.5555745225381643  0.1231706496650389
  0.6111262725489504  0.3888759022982446  0.1218704162796720
  0.7778105996323670  0.8889103522246556  0.1231895722680075
  0.9444574979977467  0.3889000327450712  0.1233728362238715
  0.1111176870290561  0.5555654659887823  0.6266732761937343
  0.2777942072859257  0.0555530180810981  0.6268293503349607
  0.7777659254341888  0.5555496293837590  0.6270755700341677
  0.6111431038315457  0.0555627160865849  0.6268367627781284
  0.9444801843852353  0.0555703622991146  0.6267203099485760
  0.0581689050285799  0.1127774947340549  0.3750000000000000
  0.5544790333948595  0.6198258064217661  0.3750000000000000
  0.3872098803900230  0.1070463737084313  0.3750000000000000
  0.8823098235093541  0.6078215784213492  0.3750000000000000
  0.7229083203184040  0.1105827377455158  0.3750000000000000
  0.0555854154740368  0.7777930265084885  0.8750000000000000
  0.3889174639075835  0.7777938904340631  0.8750000000000000
  0.2222459935502582  0.2777896634417950  0.8750000000000000
  0.7222577235746828  0.7777996209009761  0.8750000000000000
  0.5555856120662931  0.2777873784026957  0.8750000000000000
  0.8889210731690776  0.2777933047410815  0.8750000000000000
  0.2189266902888676  0.7761300118110965  0.3750000000000000
  0.0581689050285798  0.2787247436278592  0.3750000000000000
  0.3969733985623872  0.2804318394798695  0.3750000000000000
  0.5546331394602119  0.7812369605764602  0.3750000000000000
  0.8856667476420769  0.7764220827450143  0.3750000000000000
  0.7220476780501283  0.2754229575557778  0.3750000000000000
  0.0555823552162755  0.9444571231899276  0.8750000000000000
  0.3889174639075835  0.9444569068068610  0.8750000000000000
  0.2222448490945388  0.4444589706329414  0.8750000000000000
  0.5555885646406890  0.4444609489870052  0.8750000000000000
  0.7222510015784783  0.9444610976472110  0.8750000000000000
  0.8889256981769266  0.4444604859078323  0.8750000000000000
  0.0551587371419362  0.4439270403692790  0.3750000000000000
  0.2197949140276992  0.9425553881704564  0.3750000000000000
  0.5546282346487723  0.9439807839910490  0.3750000000000000
  0.3969733985623872  0.4498748924158505  0.3750000000000000
  0.8898937928581665  0.9457004927852395  0.3750000000000000
  0.7141955726459986  0.4395135352020187  0.3750000000000000
  0.2222468841617860  0.6111252290070832  0.8750000000000000
  0.0555805137468254  0.1111226376126125  0.8750000000000000
  0.5555856120662931  0.6111315669969414  0.8750000000000000
  0.3889162030529084  0.1111182938971125  0.8750000000000000
  0.8889283851719588  0.6111308592526473  0.8750000000000000
  0.0515838907716741  0.6093112793863676  0.3750000000000000
  0.7222510015784783  0.1111232372645997  0.8750000000000000
  0.2249624456612181  0.1129959371427496  0.3750000000000000
  0.3872098803900230  0.6134968400149436  0.3750000000000000
  0.7141955726459986  0.6080153707773160  0.3750000000000000
  0.5546331394602119  0.1067295122170847  0.3750000000000000
  0.3889162030529084  0.6111312424891360  0.8750000000000000
  0.8907645043583600  0.1120489188458497  0.3750000000000000
  0.2222502120315544  0.7777917726824544  0.8750000000000000
  0.0555805137468254  0.2777912094675538  0.8750000000000000
  0.3889171740597603  0.2777882207551197  0.8750000000000000
  0.5555848379295669  0.7777977718591758  0.8750000000000000
  0.8889256981769266  0.7777985456024300  0.8750000000000000
  0.7222577235746828  0.2777914360070546  0.8750000000000000
  0.0515838907716741  0.7756059447186378  0.3750000000000000
  0.3866143593903480  0.7777681497270446  0.3750000000000000
  0.2271694503762896  0.2802513918548118  0.3750000000000000
  0.7220476780501283  0.7799580538276895  0.3750000000000000
  0.5544790333948595  0.2679865603064210  0.3750000000000000
  0.8898937928581665  0.2775266334062681  0.3750000000000000
  0.0555823552162755  0.4444585653596688  0.8750000000000000
  0.2222468841617860  0.9444549884880283  0.8750000000000000
  0.5555830430617192  0.9444581881975144  0.8750000000000000
  0.3889171740597603  0.4444622866379744  0.8750000000000000
  0.8889210731690776  0.9444611017613199  0.8750000000000000
  0.0551587371419362  0.9445650301059917  0.3750000000000000
  0.7222607157329406  0.4444625549110723  0.8750000000000000
  0.3866143593903480  0.9421795429966364  0.3750000000000000
  0.2249624456612181  0.4452998418518044  0.3750000000000000
  0.2197949140276992  0.6105728591905878  0.3750000000000000
  0.7229083203184040  0.9456589159062260  0.3750000000000000
  0.8856667476420769  0.4425779982304124  0.3750000000000000
  0.0555854154740368  0.6111257222989013  0.8750000000000000
  0.2222448490945388  0.1111192117949319  0.8750000000000000
  0.7222607157329406  0.6111314941551937  0.8750000000000000
  0.5555848379295669  0.1111203994037161  0.8750000000000000
  0.8889173770579015  0.1111253551956201  0.8750000000000000
  0.1129169689244380  0.0565065499115477  0.3750000000000000
  0.6020079893453817  0.5595886929555308  0.3750000000000000
  0.4432138354012526  0.0525386029285996  0.3750000000000000
  0.9398137509808914  0.5536951698685233  0.3750000000000000
  0.7795834818289231  0.0564584075811296  0.3750000000000000
  0.1111328108669640  0.7222330721001380  0.8750000000000000
  0.4444748307636179  0.7222406269415981  0.8750000000000000
  0.2778087409513280  0.2222335737455895  0.8750000000000000
  0.7778123110818203  0.7222354884118216  0.8750000000000000
  0.6111359500934069  0.2222356806868017  0.8750000000000000
  0.9444779171230017  0.2222429763593249  0.8750000000000000
  0.2751803835153823  0.7216110395775501  0.3750000000000000
  0.1152349179464385  0.2242841256398870  0.3750000000000000
  0.4438578821241111  0.2167435514700879  0.3750000000000000
  0.6117011173785163  0.7287255290579537  0.3750000000000000
  0.9398137509808914  0.7194519144457078  0.3750000000000000
  0.7787973496999064  0.2215604987265851  0.3750000000000000
  0.1111403674076096  0.8889011095947199  0.8750000000000000
  0.4444637051960437  0.8888985192646899  0.8750000000000000
  0.2778087409513280  0.3889085005390638  0.8750000000000000
  0.6111451907063987  0.3888997869950593  0.8750000000000000
  0.7778121536817730  0.8889093280674488  0.8750000000000000
  0.9444717827668876  0.3889027668986592  0.8750000000000000
  0.1129169689244380  0.3897437523462201  0.3750000000000000
  0.2751803835153823  0.8869026772711622  0.3750000000000000
  0.6113921181464778  0.8910458746398053  0.3750000000000000
  0.9437421937406716  0.8886020621219685  0.3750000000000000
  0.7738840652076405  0.3862375756851811  0.3750000000000000
  0.2777982111773316  0.5555644448150421  0.8750000000000000
  0.1111425621239696  0.0555749582365256  0.8750000000000000
  0.6111451907063987  0.5555787370446627  0.8750000000000000
  0.4444748307636179  0.0555675371553471  0.8750000000000000
  0.9444783416238923  0.5555681325456645  0.8750000000000000
  0.1085174993359848  0.5546438451494049  0.3750000000000000
  0.7778034839168930  0.0555684086251165  0.8750000000000000
  0.2767455436886087  0.0537121865885565  0.3750000000000000
  0.4438578821241111  0.5604476639873527  0.3750000000000000
  0.7699008226583135  0.5516170779958216  0.3750000000000000
  0.6113921181464778  0.0536795768399976  0.3750000000000000
  0.4444738536014832  0.5555670284467575  0.8750000000000000
  0.9465890032868871  0.0570366419071943  0.3750000000000000
  0.2778064080332852  0.7222317207123968  0.8750000000000000
  0.1111362519946759  0.2222347926640052  0.8750000000000000
  0.4444738536014832  0.2222401584880577  0.8750000000000000
  0.6111359500934069  0.7222336027399379  0.8750000000000000
  0.9444783416238923  0.7222435424115659  0.8750000000000000
  0.7778121536817730  0.2222361589476556  0.8750000000000000
  0.1076716384785546  0.7205024859059411  0.3750000000000000
  0.4432138354012526  0.7240085658059897  0.3750000000000000
  0.2839444195255836  0.2259877868955522  0.3750000000000000
  0.7738840652076405  0.7209798228557814  0.3750000000000000
  0.6117011173785163  0.2163089216538883  0.3750000000000000
  0.9465890032868871  0.2228856947130355  0.3750000000000000
  0.1111425621239696  0.3889009372207730  0.8750000000000000
  0.2778064080332852  0.8889080206542226  0.8750000000000000
  0.6111400464004192  0.8888994442371293  0.8750000000000000
  0.4444646271226765  0.3888989802280026  0.8750000000000000
  0.9444717827668876  0.8889023492015558  0.8750000000000000
  0.1085174993359848  0.8872069875199152  0.3750000000000000
  0.7778123110818203  0.3889101560033426  0.8750000000000000
  0.4433011670331203  0.8883172501832329  0.3750000000000000
  0.2839444195255836  0.3912899659633630  0.3750000000000000
  0.2767455436886087  0.5563666904333840  0.3750000000000000
  0.6020079893453817  0.3757526297231748  0.3750000000000000
  0.7787973496999064  0.8905701843066385  0.3750000000000000
  0.9437421937406716  0.3884734649520336  0.3750000000000000
  0.1111403674076096  0.5555725911462271  0.8750000000000000
  0.2777982111773316  0.0555670996956288  0.8750000000000000
  0.7778077052648582  0.5555705192991032  0.8750000000000000
  0.6111400464004192  0.0555739354966253  0.8750000000000000
  0.9444779171230017  0.0555682740970133  0.8750000000000000
  0.0555882191760651  0.1111250661882781  0.1233426915159391
  0.5555704303130218  0.6111381667047308  0.1224235627409676
  0.3889031605411388  0.1111054293165977  0.1230545031075788
  0.8888885302763602  0.6111109318048589  0.1233267019548080
  0.7222547669939601  0.1111221886012397  0.1231915267755824
  0.0555592991935352  0.7777796307768071  0.6266129417121072
  0.3889011369963113  0.7777901517138223  0.6267411393450230
  0.2222631965448257  0.2777982649390815  0.6269262947526404
  0.7222431506550894  0.7777958600220266  0.6269066415057234
  0.5555704303130218  0.2777655969416337  0.6275764372590300
  0.8889186067880663  0.2777933240616100  0.6266709464839729
  0.2222277564879336  0.7777805449106320  0.1233035124103283
  0.0555882191760651  0.2777964863211140  0.1233426915159391
  0.3888890494813588  0.2777582171198448  0.1224695921281029
  0.5555777814717726  0.7778026859506371  0.1231083521168651
  0.8888996240879663  0.7777830152327659  0.1233522042235468
  0.7222431506550894  0.2777806239663866  0.1230933584942688
  0.0555706232638492  0.9444501068876153  0.6265687638499647
  0.3889011369963117  0.9444443186158230  0.6267411393450230
  0.2222442683682289  0.4444581965952359  0.6268025433904256
  0.5555873785446893  0.4444603559390054  0.6281430207242715
  0.7222547669939601  0.9444659117260534  0.6268084732244112
  0.8888996240879663  0.4444499421885357  0.6266477957764593
  0.0555706232638492  0.4444538497095730  0.1234312361500342
  0.2222305032531837  0.9444442317163300  0.1232989918085285
  0.5555792924271089  0.9444563128802140  0.1232519263239338
  0.3888890494813588  0.4444641656948531  0.1224695921281029
  0.8889186067880663  0.9444586160597807  0.1233290535160267
  0.7222259315715865  0.4444398934117305  0.1226614889252436
  0.2222305032531837  0.6111196048701936  0.6267010081914746
  0.0555882191760651  0.1111250661882781  0.6266573084840638
  0.5555704303130218  0.6111381667047308  0.6275764372590300
  0.3889031605411388  0.1111054293165977  0.6269454968924209
  0.8888885302763602  0.6111109318048589  0.6266732980451882
  0.0555592991935352  0.6111130017500488  0.1233870582878950
  0.7222547669939601  0.1111221886012397  0.6268084732244112
  0.2222442683682289  0.1111194051063304  0.1231974566095716
  0.3889031605411388  0.6111310645578860  0.1230545031075788
  0.7222259315715865  0.6111193714931891  0.1226614889252436
  0.5555777814717726  0.1111084288544841  0.1231083521168651
  0.3889031605411388  0.6111310645578860  0.6269454968924209
  0.8889281927877960  0.1111307630605700  0.1232827626426159
  0.2222277564879336  0.7777805449106320  0.6266964875896723
  0.0555882191760651  0.2777964863211140  0.6266573084840638
  0.3888890494813588  0.2777582171198448  0.6275304078719015
  0.5555777814717726  0.7778026859506371  0.6268916478831442
  0.8888996240879663  0.7777830152327659  0.6266477957764593
  0.7222431506550894  0.2777806239663866  0.6269066415057234
  0.0555592991935352  0.7777796307768071  0.1233870582878950
  0.3889011369963117  0.7777901517138223  0.1232588606549728
  0.2222631965448257  0.2777982649390815  0.1230737052473612
  0.7222431506550894  0.7777958600220266  0.1230933584942688
  0.5555704303130218  0.2777655969416337  0.1224235627409676
  0.8889186067880663  0.2777933240616100  0.1233290535160267
  0.0555706232638492  0.4444538497095730  0.6265687638499647
  0.2222305032531837  0.9444442317163300  0.6267010081914746
  0.5555792924271089  0.9444563128802140  0.6267480736760607
  0.3888890494813588  0.4444641656948531  0.6275304078719015
  0.8889186067880663  0.9444586160597807  0.6266709464839729
  0.0555706232638492  0.9444501068876153  0.1234312361500342
  0.7222259315715865  0.4444398934117305  0.6273385110747486
  0.3889011369963117  0.9444443186158230  0.1232588606549728
  0.2222442683682289  0.4444581965952359  0.1231974566095716
  0.2222305032531837  0.6111196048701936  0.1232989918085285
  0.5555873785446893  0.4444603559390054  0.1218569792757187
  0.7222547669939601  0.9444659117260534  0.1231915267755824
  0.8888996240879663  0.4444499421885357  0.1233522042235468
  0.0555592991935352  0.6111130017500488  0.6266129417121072
  0.2222442683682289  0.1111194051063304  0.6268025433904256
  0.7222259315715865  0.6111193714931891  0.6273385110747486
  0.5555777814717726  0.1111084288544841  0.6268916478831442
  0.8889281927877960  0.1111307630605700  0.6267172373573819
 
  0.00000000E+00  0.00000000E+00  0.00000000E+00
  0.00000000E+00  0.00000000E+00  0.00000000E+00
  0.00000000E+00  0.00000000E+00  0.00000000E+00
  0.00000000E+00  0.00000000E+00  0.00000000E+00
  0.00000000E+00  0.00000000E+00  0.00000000E+00
  0.00000000E+00  0.00000000E+00  0.00000000E+00
  0.00000000E+00  0.00000000E+00  0.00000000E+00
  0.00000000E+00  0.00000000E+00  0.00000000E+00
  0.00000000E+00  0.00000000E+00  0.00000000E+00
  0.00000000E+00  0.00000000E+00  0.00000000E+00
  0.00000000E+00  0.00000000E+00  0.00000000E+00
  0.00000000E+00  0.00000000E+00  0.00000000E+00
  0.00000000E+00  0.00000000E+00  0.00000000E+00
  0.00000000E+00  0.00000000E+00  0.00000000E+00
  0.00000000E+00  0.00000000E+00  0.00000000E+00
  0.00000000E+00  0.00000000E+00  0.00000000E+00
  0.00000000E+00  0.00000000E+00  0.00000000E+00
  0.00000000E+00  0.00000000E+00  0.00000000E+00
  0.00000000E+00  0.00000000E+00  0.00000000E+00
  0.00000000E+00  0.00000000E+00  0.00000000E+00
  0.00000000E+00  0.00000000E+00  0.00000000E+00
  0.00000000E+00  0.00000000E+00  0.00000000E+00
  0.00000000E+00  0.00000000E+00  0.00000000E+00
  0.00000000E+00  0.00000000E+00  0.00000000E+00
  0.00000000E+00  0.00000000E+00  0.00000000E+00
  0.00000000E+00  0.00000000E+00  0.00000000E+00
  0.00000000E+00  0.00000000E+00  0.00000000E+00
  0.00000000E+00  0.00000000E+00  0.00000000E+00
  0.00000000E+00  0.00000000E+00  0.00000000E+00
  0.00000000E+00  0.00000000E+00  0.00000000E+00
  0.00000000E+00  0.00000000E+00  0.00000000E+00
  0.00000000E+00  0.00000000E+00  0.00000000E+00
  0.00000000E+00  0.00000000E+00  0.00000000E+00
  0.00000000E+00  0.00000000E+00  0.00000000E+00
  0.00000000E+00  0.00000000E+00  0.00000000E+00
  0.00000000E+00  0.00000000E+00  0.00000000E+00
  0.00000000E+00  0.00000000E+00  0.00000000E+00
  0.00000000E+00  0.00000000E+00  0.00000000E+00
  0.00000000E+00  0.00000000E+00  0.00000000E+00
  0.00000000E+00  0.00000000E+00  0.00000000E+00
  0.00000000E+00  0.00000000E+00  0.00000000E+00
  0.00000000E+00  0.00000000E+00  0.00000000E+00
  0.00000000E+00  0.00000000E+00  0.00000000E+00
  0.00000000E+00  0.00000000E+00  0.00000000E+00
  0.00000000E+00  0.00000000E+00  0.00000000E+00
  0.00000000E+00  0.00000000E+00  0.00000000E+00
  0.00000000E+00  0.00000000E+00  0.00000000E+00
  0.00000000E+00  0.00000000E+00  0.00000000E+00
  0.00000000E+00  0.00000000E+00  0.00000000E+00
  0.00000000E+00  0.00000000E+00  0.00000000E+00
  0.00000000E+00  0.00000000E+00  0.00000000E+00
  0.00000000E+00  0.00000000E+00  0.00000000E+00
  0.00000000E+00  0.00000000E+00  0.00000000E+00
  0.00000000E+00  0.00000000E+00  0.00000000E+00
  0.00000000E+00  0.00000000E+00  0.00000000E+00
  0.00000000E+00  0.00000000E+00  0.00000000E+00
  0.00000000E+00  0.00000000E+00  0.00000000E+00
  0.00000000E+00  0.00000000E+00  0.00000000E+00
  0.00000000E+00  0.00000000E+00  0.00000000E+00
  0.00000000E+00  0.00000000E+00  0.00000000E+00
  0.00000000E+00  0.00000000E+00  0.00000000E+00
  0.00000000E+00  0.00000000E+00  0.00000000E+00
  0.00000000E+00  0.00000000E+00  0.00000000E+00
  0.00000000E+00  0.00000000E+00  0.00000000E+00
  0.00000000E+00  0.00000000E+00  0.00000000E+00
  0.00000000E+00  0.00000000E+00  0.00000000E+00
  0.00000000E+00  0.00000000E+00  0.00000000E+00
  0.00000000E+00  0.00000000E+00  0.00000000E+00
  0.00000000E+00  0.00000000E+00  0.00000000E+00
  0.00000000E+00  0.00000000E+00  0.00000000E+00
  0.00000000E+00  0.00000000E+00  0.00000000E+00
  0.00000000E+00  0.00000000E+00  0.00000000E+00
  0.00000000E+00  0.00000000E+00  0.00000000E+00
  0.00000000E+00  0.00000000E+00  0.00000000E+00
  0.00000000E+00  0.00000000E+00  0.00000000E+00
  0.00000000E+00  0.00000000E+00  0.00000000E+00
  0.00000000E+00  0.00000000E+00  0.00000000E+00
  0.00000000E+00  0.00000000E+00  0.00000000E+00
  0.00000000E+00  0.00000000E+00  0.00000000E+00
  0.00000000E+00  0.00000000E+00  0.00000000E+00
  0.00000000E+00  0.00000000E+00  0.00000000E+00
  0.00000000E+00  0.00000000E+00  0.00000000E+00
  0.00000000E+00  0.00000000E+00  0.00000000E+00
  0.00000000E+00  0.00000000E+00  0.00000000E+00
  0.00000000E+00  0.00000000E+00  0.00000000E+00
  0.00000000E+00  0.00000000E+00  0.00000000E+00
  0.00000000E+00  0.00000000E+00  0.00000000E+00
  0.00000000E+00  0.00000000E+00  0.00000000E+00
  0.00000000E+00  0.00000000E+00  0.00000000E+00
  0.00000000E+00  0.00000000E+00  0.00000000E+00
  0.00000000E+00  0.00000000E+00  0.00000000E+00
  0.00000000E+00  0.00000000E+00  0.00000000E+00
  0.00000000E+00  0.00000000E+00  0.00000000E+00
  0.00000000E+00  0.00000000E+00  0.00000000E+00
  0.00000000E+00  0.00000000E+00  0.00000000E+00
  0.00000000E+00  0.00000000E+00  0.00000000E+00
  0.00000000E+00  0.00000000E+00  0.00000000E+00
  0.00000000E+00  0.00000000E+00  0.00000000E+00
  0.00000000E+00  0.00000000E+00  0.00000000E+00
  0.00000000E+00  0.00000000E+00  0.00000000E+00
  0.00000000E+00  0.00000000E+00  0.00000000E+00
  0.00000000E+00  0.00000000E+00  0.00000000E+00
  0.00000000E+00  0.00000000E+00  0.00000000E+00
  0.00000000E+00  0.00000000E+00  0.00000000E+00
  0.00000000E+00  0.00000000E+00  0.00000000E+00
  0.00000000E+00  0.00000000E+00  0.00000000E+00
  0.00000000E+00  0.00000000E+00  0.00000000E+00
  0.00000000E+00  0.00000000E+00  0.00000000E+00
  0.00000000E+00  0.00000000E+00  0.00000000E+00
  0.00000000E+00  0.00000000E+00  0.00000000E+00
  0.00000000E+00  0.00000000E+00  0.00000000E+00
  0.00000000E+00  0.00000000E+00  0.00000000E+00
  0.00000000E+00  0.00000000E+00  0.00000000E+00
  0.00000000E+00  0.00000000E+00  0.00000000E+00
  0.00000000E+00  0.00000000E+00  0.00000000E+00
  0.00000000E+00  0.00000000E+00  0.00000000E+00
  0.00000000E+00  0.00000000E+00  0.00000000E+00
  0.00000000E+00  0.00000000E+00  0.00000000E+00
  0.00000000E+00  0.00000000E+00  0.00000000E+00
  0.00000000E+00  0.00000000E+00  0.00000000E+00
  0.00000000E+00  0.00000000E+00  0.00000000E+00
  0.00000000E+00  0.00000000E+00  0.00000000E+00
  0.00000000E+00  0.00000000E+00  0.00000000E+00
  0.00000000E+00  0.00000000E+00  0.00000000E+00
  0.00000000E+00  0.00000000E+00  0.00000000E+00
  0.00000000E+00  0.00000000E+00  0.00000000E+00
  0.00000000E+00  0.00000000E+00  0.00000000E+00
  0.00000000E+00  0.00000000E+00  0.00000000E+00
  0.00000000E+00  0.00000000E+00  0.00000000E+00
  0.00000000E+00  0.00000000E+00  0.00000000E+00
  0.00000000E+00  0.00000000E+00  0.00000000E+00
  0.00000000E+00  0.00000000E+00  0.00000000E+00
  0.00000000E+00  0.00000000E+00  0.00000000E+00
  0.00000000E+00  0.00000000E+00  0.00000000E+00
  0.00000000E+00  0.00000000E+00  0.00000000E+00
  0.00000000E+00  0.00000000E+00  0.00000000E+00
  0.00000000E+00  0.00000000E+00  0.00000000E+00
  0.00000000E+00  0.00000000E+00  0.00000000E+00
  0.00000000E+00  0.00000000E+00  0.00000000E+00
  0.00000000E+00  0.00000000E+00  0.00000000E+00
  0.00000000E+00  0.00000000E+00  0.00000000E+00
  0.00000000E+00  0.00000000E+00  0.00000000E+00
  0.00000000E+00  0.00000000E+00  0.00000000E+00
  0.00000000E+00  0.00000000E+00  0.00000000E+00
  0.00000000E+00  0.00000000E+00  0.00000000E+00
  0.00000000E+00  0.00000000E+00  0.00000000E+00
  0.00000000E+00  0.00000000E+00  0.00000000E+00
  0.00000000E+00  0.00000000E+00  0.00000000E+00
  0.00000000E+00  0.00000000E+00  0.00000000E+00
  0.00000000E+00  0.00000000E+00  0.00000000E+00
  0.00000000E+00  0.00000000E+00  0.00000000E+00
  0.00000000E+00  0.00000000E+00  0.00000000E+00
  0.00000000E+00  0.00000000E+00  0.00000000E+00
  0.00000000E+00  0.00000000E+00  0.00000000E+00
  0.00000000E+00  0.00000000E+00  0.00000000E+00
  0.00000000E+00  0.00000000E+00  0.00000000E+00
  0.00000000E+00  0.00000000E+00  0.00000000E+00
  0.00000000E+00  0.00000000E+00  0.00000000E+00
  0.00000000E+00  0.00000000E+00  0.00000000E+00
  0.00000000E+00  0.00000000E+00  0.00000000E+00
  0.00000000E+00  0.00000000E+00  0.00000000E+00
  0.00000000E+00  0.00000000E+00  0.00000000E+00
  0.00000000E+00  0.00000000E+00  0.00000000E+00
  0.00000000E+00  0.00000000E+00  0.00000000E+00
  0.00000000E+00  0.00000000E+00  0.00000000E+00
  0.00000000E+00  0.00000000E+00  0.00000000E+00
  0.00000000E+00  0.00000000E+00  0.00000000E+00
  0.00000000E+00  0.00000000E+00  0.00000000E+00
  0.00000000E+00  0.00000000E+00  0.00000000E+00
  0.00000000E+00  0.00000000E+00  0.00000000E+00
  0.00000000E+00  0.00000000E+00  0.00000000E+00
  0.00000000E+00  0.00000000E+00  0.00000000E+00
  0.00000000E+00  0.00000000E+00  0.00000000E+00
  0.00000000E+00  0.00000000E+00  0.00000000E+00
  0.00000000E+00  0.00000000E+00  0.00000000E+00
  0.00000000E+00  0.00000000E+00  0.00000000E+00
  0.00000000E+00  0.00000000E+00  0.00000000E+00
  0.00000000E+00  0.00000000E+00  0.00000000E+00
  0.00000000E+00  0.00000000E+00  0.00000000E+00
  0.00000000E+00  0.00000000E+00  0.00000000E+00
  0.00000000E+00  0.00000000E+00  0.00000000E+00
  0.00000000E+00  0.00000000E+00  0.00000000E+00
  0.00000000E+00  0.00000000E+00  0.00000000E+00
  0.00000000E+00  0.00000000E+00  0.00000000E+00
  0.00000000E+00  0.00000000E+00  0.00000000E+00
  0.00000000E+00  0.00000000E+00  0.00000000E+00
  0.00000000E+00  0.00000000E+00  0.00000000E+00
  0.00000000E+00  0.00000000E+00  0.00000000E+00
  0.00000000E+00  0.00000000E+00  0.00000000E+00
  0.00000000E+00  0.00000000E+00  0.00000000E+00
  0.00000000E+00  0.00000000E+00  0.00000000E+00
  0.00000000E+00  0.00000000E+00  0.00000000E+00
  0.00000000E+00  0.00000000E+00  0.00000000E+00
  0.00000000E+00  0.00000000E+00  0.00000000E+00
  0.00000000E+00  0.00000000E+00  0.00000000E+00
  0.00000000E+00  0.00000000E+00  0.00000000E+00
  0.00000000E+00  0.00000000E+00  0.00000000E+00
  0.00000000E+00  0.00000000E+00  0.00000000E+00
  0.00000000E+00  0.00000000E+00  0.00000000E+00
  0.00000000E+00  0.00000000E+00  0.00000000E+00
  0.00000000E+00  0.00000000E+00  0.00000000E+00
  0.00000000E+00  0.00000000E+00  0.00000000E+00
  0.00000000E+00  0.00000000E+00  0.00000000E+00
  0.00000000E+00  0.00000000E+00  0.00000000E+00
  0.00000000E+00  0.00000000E+00  0.00000000E+00
  0.00000000E+00  0.00000000E+00  0.00000000E+00
  0.00000000E+00  0.00000000E+00  0.00000000E+00
  0.00000000E+00  0.00000000E+00  0.00000000E+00
  0.00000000E+00  0.00000000E+00  0.00000000E+00
  0.00000000E+00  0.00000000E+00  0.00000000E+00
  0.00000000E+00  0.00000000E+00  0.00000000E+00
  0.00000000E+00  0.00000000E+00  0.00000000E+00
  0.00000000E+00  0.00000000E+00  0.00000000E+00
  0.00000000E+00  0.00000000E+00  0.00000000E+00
  0.00000000E+00  0.00000000E+00  0.00000000E+00
  0.00000000E+00  0.00000000E+00  0.00000000E+00
  0.00000000E+00  0.00000000E+00  0.00000000E+00
  0.00000000E+00  0.00000000E+00  0.00000000E+00
  0.00000000E+00  0.00000000E+00  0.00000000E+00
  0.00000000E+00  0.00000000E+00  0.00000000E+00
  0.00000000E+00  0.00000000E+00  0.00000000E+00
  0.00000000E+00  0.00000000E+00  0.00000000E+00
  0.00000000E+00  0.00000000E+00  0.00000000E+00
  0.00000000E+00  0.00000000E+00  0.00000000E+00
  0.00000000E+00  0.00000000E+00  0.00000000E+00
  0.00000000E+00  0.00000000E+00  0.00000000E+00
  0.00000000E+00  0.00000000E+00  0.00000000E+00
  0.00000000E+00  0.00000000E+00  0.00000000E+00
  0.00000000E+00  0.00000000E+00  0.00000000E+00
  0.00000000E+00  0.00000000E+00  0.00000000E+00
  0.00000000E+00  0.00000000E+00  0.00000000E+00
  0.00000000E+00  0.00000000E+00  0.00000000E+00
  0.00000000E+00  0.00000000E+00  0.00000000E+00
  0.00000000E+00  0.00000000E+00  0.00000000E+00
  0.00000000E+00  0.00000000E+00  0.00000000E+00
  0.00000000E+00  0.00000000E+00  0.00000000E+00
  0.00000000E+00  0.00000000E+00  0.00000000E+00
  0.00000000E+00  0.00000000E+00  0.00000000E+00
  0.00000000E+00  0.00000000E+00  0.00000000E+00
  0.00000000E+00  0.00000000E+00  0.00000000E+00
  0.00000000E+00  0.00000000E+00  0.00000000E+00
  0.00000000E+00  0.00000000E+00  0.00000000E+00
  0.00000000E+00  0.00000000E+00  0.00000000E+00
  0.00000000E+00  0.00000000E+00  0.00000000E+00
  0.00000000E+00  0.00000000E+00  0.00000000E+00
  0.00000000E+00  0.00000000E+00  0.00000000E+00
  0.00000000E+00  0.00000000E+00  0.00000000E+00
  0.00000000E+00  0.00000000E+00  0.00000000E+00