 P N B 
 1.0
 14.936314146199660   0.000000000000000   0.000000000000000
 -7.468157073099825  12.935227489513863   0.000000000000000
  0.000000000000001   0.000000000000001  13.341276283792837
 P N B 
   1 143 143
Cartesian
  4.323599373481677   5.370726259817512   5.002978606422314 
  1.244978691597521   0.718651627221095   1.645283437602340 
  4.978787624167029   7.186601595326157   1.625906894407949 
  6.223839129259078   0.718584849907646   1.643170934167808 
  9.957536902505730   7.186279393637796   1.645904537035592 
 11.202672758176298   0.718876137236863   1.643002232566254 
 -3.734037015699401   9.342132714500826   8.361239623681969 
  1.244846608390809   9.342452866556991   8.362786278676886 
  2.489690218772747   2.874528358728230   8.367038499784693 
  6.223587562203192   9.342170160366612   8.363834262491686 
  7.468520842721520   2.874398483430671   8.366864900815731 
 12.447305945744620   2.874765773338037   8.361248807688233 
 -1.244562053519881   9.342245213743643   1.644081976188769 
  0.000375180330806   2.874711608134686   1.644604901106526 
  4.979144676701300   2.874456241441962   1.635110523454618 
  3.734176837577853   9.342472033279797   1.639092312028964 
  8.712883273802689   9.342082716376446   1.645904537035592 
  9.957948174461457   2.874641922694612   1.643506118909759 
 -4.978648259406435  11.497936857965250   8.360621317370223 
  0.000246781757397  11.498122470192799   8.361919065055291 
  1.244874000910588   5.030613294151235   8.367038499784693 
  6.223787669480437   5.030198261417767   8.380050318436666 
  4.979101328034743  11.498257623809820   8.362451093934869 
 11.202347357554231   5.030510394236885   8.360006118866854 
 -1.244525779590008   5.030599856987815   1.645283437602327 
 -2.489202107407439  11.498025024212174   1.644081976188769 
  2.489678093665179  11.498301200697943   1.643154775783459 
  3.734094123503074   5.030375245053604   1.624593583487048 
  7.468337783154624  11.498004693045687   1.645951093977801 
  8.712964775422737   5.030442347866104   1.642122950352901 
  0.000103747889650   7.186482836409199   8.362703545609087 
  1.244978691597521   0.718651627221096   8.360673775242207 
  4.978787624167030   7.186601595326158   8.380050318436666 
  6.223839129259079   0.718584849907647   8.362786278676886 
  9.957536902505730   7.186279393637797   8.360052675809088 
 -2.489361483729047   7.186365687882672   1.645335895474419 
 11.202672758176298   0.718876137236864   8.362954980278321 
  3.734342883102703   0.718590926608080   1.643253667235541 
  2.489538774472801   7.186580154925108   1.635110523454618 
  7.468024300354442   7.186160837794038   1.639968782201961 
  8.713274295968821   0.718716372515249   1.643154775783459 
  2.489538774472801   7.186580154925108   8.370846689389996 
 13.692044544579591   0.718815278013757   1.644708405156381 
 -1.244562053519881   9.342245213743643   8.361875236655818 
  0.000375180330806   2.874711608134687   8.361352311738115 
  4.979144676701301   2.874456241441963   8.370846689389996 
  3.734176837577853   9.342472033279797   8.366864900815731 
  8.712883273802689   9.342082716376446   8.360052675809088 
  9.957948174461457   2.874641922694613   8.362451093934869 
 -3.734037015699401   9.342132714500826   1.644717589162659 
  1.244846608390809   9.342452866556991   1.643170934167808 
  2.489690218772747   2.874528358728230   1.638918713059881 
  6.223587562203191   9.342170160366612   1.642122950352901 
  7.468520842721519   2.874398483430670   1.639092312028964 
 12.447305945744620   2.874765773338036   1.644708405156381 
 -1.244525779590008   5.030599856987815   8.360673775242207 
 -2.489202107407439  11.498025024212174   8.361875236655818 
  2.489678093665180  11.498301200697943   8.362802437061317 
  3.734094123503074   5.030375245053605   8.381363629357578 
  7.468337783154625  11.498004693045687   8.360006118866854 
 -4.978648259406436  11.497936857965250   1.645335895474419 
  8.712964775422737   5.030442347866105   8.363834262491686 
  0.000246781757396  11.498122470192799   1.644038147789350 
  1.244874000910587   5.030613294151234   1.638918713059881 
  0.000103747889650   7.186482836409198   1.643253667235541 
  6.223787669480436   5.030198261417766   1.625906894407949 
  4.979101328034742  11.498257623809820   1.643506118909759 
 11.202347357554231   5.030510394236885   1.645951093977801 
 -2.489361483729046   7.186365687882673   8.360621317370223 
  3.734342883102703   0.718590926608080   8.362703545609087 
  7.468024300354442   7.186160837794039   8.365988430642719 
  8.713274295968821   0.718716372515249   8.362802437061317 
 13.692044544579591   0.718815278013758   8.361248807688233 
  0.026588994062713   1.458802550082454   5.002978606422314 
  3.652916549948233   8.017587809936925   5.002978606422314 
  4.984049281057473   1.384669195846071   5.002978606422314 
  8.639149678143593   7.862310389915541   5.002978606422314 
  9.971736516120295   1.430412869151501   5.002978606422314 
 -4.978439264859839  10.060929737644781  11.673616748318732 
  0.000306473607966  10.060940912718628  11.673616748318732 
  1.244959137534057   3.593272490855112  11.673616748318732 
  4.979138513544516  10.061015037611767  11.673616748318732 
  6.223841462094818   3.593242933354544  11.673616748318732 
 11.202600366368403   3.593319591889734  11.673616748318732 
 -2.526303016209803  10.039418264215621   5.002978606422314 
 -1.212731126525006   3.605367965782786   5.002978606422314 
  3.835010363078359   3.627449638974941   5.002978606422314 
  2.449774473974595  10.105477808272884   5.002978606422314 
  7.430154702661924  10.043196268188913   5.002978606422314 
  8.727829039326489   3.562658611818710   5.002978606422314 
 -6.223158626294429  12.216767742553539  11.673616748318732 
 -1.244359110940697  12.216764943589343  11.673616748318732 
  0.000229478215707   5.749177894892254  11.673616748318732 
  4.979141157615525   5.749203485352127  11.673616748318732 
  3.734384025321853  12.216819153062643  11.673616748318732 
  9.957972759054483   5.749197495317678  11.673616748318732 
 -2.491448640614495   5.742297255923229   5.002978606422314 
 -3.756225805298883  12.192168367451893   5.002978606422314 
  1.234304778233126  12.210606186653866   5.002978606422314 
  2.569583028806884   5.819234075219596   5.002978606422314 
  6.229093422654624  12.232851011122431   5.002978606422314 
  7.385093318223534   5.685207562558577   5.002978606422314 
 -1.244429921704514   7.905043861787876  11.673616748318732 
  0.000286701661611   1.437396596753947  11.673616748318732 
  3.734374702267985   7.905125845128516  11.673616748318732 
  4.979125712826900   1.437340409805818  11.673616748318732 
  8.713292365285124   7.905116690295068  11.673616748318732 
 -3.779959143419835   7.881580010789410   5.002978606422314 
  9.957882061620122   1.437404353388827  11.673616748318732 
  2.516238352289152   1.461628152332281   5.002978606422314 
  1.201797648935784   7.935721189691193   5.002978606422314 
  6.126695143041576   7.864817138125703   5.002978606422314 
  7.487102045298176   1.380570520372844   5.002978606422314 
  1.244950474157885   7.905121647546236  11.673616748318732 
 12.467939541568477   1.449378255225147   5.002978606422314 
 -2.489072142594545  10.060913519119799  11.673616748318732 
 -1.244420372100321   3.593292489050009  11.673616748318732 
  3.734423022952625   3.593253829374775  11.673616748318732 
  2.489673742830050  10.060991119835448  11.673616748318732 
  7.468551770812901  10.061001128380457  11.673616748318732 
  8.713278176167856   3.593295419389991  11.673616748318732 
 -5.021873824539795  10.032639337154896   5.002978606422314 
 -0.033901183329820  10.060607950817607   5.002978606422314 
  1.300112860913197   3.625115507894887   5.002978606422314 
  4.959881691476316  10.088934858539657   5.002978606422314 
  6.280507304418656   3.466467121695882   5.002978606422314 
 11.219120756636094   3.589870137508995   5.002978606422314 
 -2.489090860094669   5.749172652590286  11.673616748318732 
 -3.733788922646797  12.216740129698842  11.673616748318732 
  1.245000767037100  12.216781518668943  11.673616748318732 
  2.489674918927283   5.749220788171712  11.673616748318732 
  6.223820542643828  12.216819206279579  11.673616748318732 
 -6.230291784729205  12.218163543060518   5.002978606422314 
  7.468596772459077   5.749224258345264  11.673616748318732 
 -1.261751292874313  12.187306724627694   5.002978606422314 
  0.034540595917540   5.760054755397632   5.002978606422314 
 -1.276928133352315   7.897898832553173   5.002978606422314 
  3.735256449612220  12.232313204734092   5.002978606422314 
  9.923354763742186   5.724847088964045   5.002978606422314 
 -3.733741658072532   7.905050242629761  11.673616748318732 
  2.489663155927174   1.437352283022919  11.673616748318732 
  6.223886954977043   7.905124902903947  11.673616748318732 
  7.468525077408899   1.437367645012708  11.673616748318732 
 12.447247586347739   1.437431749308377  11.673616748318732 
  1.264563529893675   0.730925077753443   5.002978606422314 
  4.812684192062108   7.238407043939519   5.002978606422314 
  6.227614540423135   0.679598780862681   5.002978606422314 
  9.902270924374029   7.162172982094368   5.002978606422314 
 11.222463531871959   0.730302345757611   5.002978606422314 
 -3.733835450772095   9.342249088065754  11.673616748318732 
  1.245009255790381   9.342346811658686  11.673616748318732 
  2.489763391760866   2.874641832206851  11.673616748318732 
  6.223880953873184   9.342280343607072  11.673616748318732 
  7.468427566015031   2.874669085970748  11.673616748318732 
 12.447273418452834   2.874763457154522  11.673616748318732 
 -1.278923934190549   9.334202955880201   5.002978606422314 
  0.046195855778022   2.901166187438648   5.002978606422314 
  5.010925876712466   2.803627145150746   5.002978606422314 
  3.694323338564296   9.426230495780979   5.002978606422314 
  8.664373519945922   9.306274181121498   5.002978606422314 
  9.977713265661038   2.865935453718524   5.002978606422314 
 -4.978425666981977  11.498138068289000  11.673616748318732 
  0.000215763477432  11.498104561780789  11.673616748318732 
  1.245008858319780   5.030619927078519  11.673616748318732 
  6.223891862355713   5.030507215404574  11.673616748318732 
  4.979132188371759  11.498244376103367  11.673616748318732 
 11.202540300265170   5.030545761135537  11.673616748318732 
 -1.224104240488818   5.041424099215109   5.002978606422314 
 -2.513347847356351  11.472287891561377   5.002978606422314 
  2.477474191998533  11.525881092058729   5.002978606422314 
  7.459810103327034  11.494269821198786   5.002978606422314 
  8.674492627929173   4.996070906486146   5.002978606422314 
  0.000238813288712   7.186352478768040  11.673616748318732 
  1.245017705455789   0.718874727509697  11.673616748318732 
  4.979107282605910   7.186537352009520  11.673616748318732 
  6.223828606722885   0.718778734136429  11.673616748318732 
  9.957955136116365   7.186400180402567  11.673616748318732 
 -2.521315894761528   7.174444312666255   5.002978606422314 
 11.202523575876707   0.718790006796141  11.673616748318732 
  3.732427332910905   0.694779352482188   5.002978606422314 
  2.444089577763157   7.249518029643038   5.002978606422314 
  7.379917565964961   7.135292390976871   5.002978606422314 
  8.731057231687576   0.694357537966214   5.002978606422314 
  2.489739274088001   7.186385898632035  11.673616748318732 
 13.712592119745894   0.737781938307495   5.002978606422314 
 -1.244336151242875   9.342231607557899  11.673616748318732 
  0.000281634101128   2.874657599193853  11.673616748318732 
  4.979076695624292   2.874727007348647  11.673616748318732 
  3.734364547898689   9.342255952012282  11.673616748318732 
  8.713196995014524   9.342384523925961  11.673616748318732 
  9.957952131779617   2.874675272383694  11.673616748318732 
 -3.772608319352722   9.319863561953603   5.002978606422314 
  1.212971387786278   9.365215503057149   5.002978606422314 
  2.553370760956239   2.923203433345746   5.002978606422314 
  6.174584947056728   9.326038023988934   5.002978606422314 
  7.521131049522786   2.798005109604473   5.002978606422314 
 12.474005342967047   2.883077165271446   5.002978606422314 
 -1.244313062143338   5.030522093835849  11.673616748318732 
 -2.489100939571530  11.498227464415864  11.673616748318732 
  2.489739048605678  11.498116526509708  11.673616748318732 
  3.734304627666714   5.030496779689174  11.673616748318732 
  7.468464883142833  11.498154102885421  11.673616748318732 
 -5.004949678708156  11.476224213856387   5.002978606422314 
  8.713206892742916   5.030641340885568  11.673616748318732 
 -0.012807262928889  11.490585713979520   5.002978606422314 
  1.318868123152152   5.061424724100238   5.002978606422314 
 -0.021475455303330   7.196729708343760   5.002978606422314 
  6.185600787981654   4.860445745252338   5.002978606422314 
  4.981443850324076  11.519727929384652   5.002978606422314 
 11.194849023741170   5.024992642794252   5.002978606422314 
 -2.489075934264979   7.186457853415123  11.673616748318732 
  3.734297522773391   0.718773075495459  11.673616748318732 
  7.468492327861257   7.186431053601249  11.673616748318732 
  8.713144840900581   0.718861498136415  11.673616748318732 
 13.692026275059927   0.718788266644525  11.673616748318732 
  0.000383655388832   1.437428010932661   1.645548925100773 
  3.734098655177426   7.905211213850142   1.633286574173501 
  4.979026980481827   1.437174003530298   1.641704123923056 
  8.712845901354337   7.904858924224643   1.645335603948068 
  9.957946134631340   1.437390788689704   1.643532194535302 
 -4.978729304401445  10.060756460808097   8.359816378381396 
  0.000090531082166  10.060892551521789   8.361526698421056 
  1.245151849532384   3.593383753179257   8.363996907869513 
  4.978948934674157  10.060966389787001   8.363734708472519 
  6.223777370031165   3.592961185200653   8.372670638671101 
 11.202563383438060   3.593319841805171   8.360590236068640 
 -2.489323694884830  10.060768285337080   1.645026225828265 
 -1.244344689759799   3.593360746351236   1.645548925100773 
  3.734227017275395   3.592865725526979   1.633900664944443 
  2.489531646152774  10.061054684726397   1.642422538433549 
  7.468278303269155  10.060800239515855   1.645675836761178 
  8.713141256480762   3.593155563184322   1.642222504372001 
 -6.223281459573666  12.216676985086984   8.359226989316932 
 -1.244508964228556  12.216602112474584   8.361526698421056 
  0.000226584940269   5.749167882538455   8.362345906755721 
  4.979127870688679   5.749195814141335   8.380229585218721 
  3.734404314453427  12.216881424267614   8.362425018309231 
  9.957662050422522   5.749061109910000   8.360281376083529 
 -2.489230875006034   5.749111654583532   1.646730223527682 
 -3.733953259783037  12.216600988409873   1.644965915230695 
  1.244958751544474  12.216757261013051   1.644338001597283 
  2.489240808297133   5.749245094199907   1.633900664944443 
  6.223802267611759  12.216787053164699   1.645366976775989 
  7.468246464934372   5.748931126696035   1.636460813133076 
 -1.244632590163708   7.904971112297785   8.360991297613985 
  0.000383655388833   1.437428010932662   8.360408287743894 
  3.734098655177427   7.905211213850143   8.372670638671101 
  4.979026980481828   1.437174003530299   8.364253088921572 
  8.712845901354337   7.904858924224644   8.360621608896507 
 -3.734036739985557   7.904885699436567   1.646140834463258 
  9.957946134631340   1.437390788689705   8.362425018309231 
  2.489653038336689   1.437354783549827   1.643611306088880 
  1.244756995923369   7.905119345965039   1.641704123923056 
  6.223457941759745   7.904968093513133   1.636460813133076 
  7.468509077880442   1.437212803235217   1.642422538433549 
  1.244756995923370   7.905119345965040   8.364253088921572 
 12.447368746702278   1.437501701271737   1.644749397444395 
 -2.489323694884830  10.060768285337080   8.360930987016364 
 -1.244344689759799   3.593360746351236   8.360408287743894 
  3.734227017275395   3.592865725526980   8.372056547900252 
  2.489531646152775  10.061054684726397   8.363534674411198 
  7.468278303269156  10.060800239515855   8.360281376083529 
  8.713141256480762   3.593155563184323   8.363734708472519 
 -4.978729304401446  10.060756460808097   1.646140834463258 
  0.000090531082181  10.060892551521789   1.644430514423517 
  1.245151849532383   3.593383753179256   1.641960304975127 
  4.978948934674156  10.060966389787001   1.642222504372001 
  6.223777370031164   3.592961185200652   1.633286574173501 
 11.202563383438060   3.593319841805171   1.645366976775989 
 -2.489230875006034   5.749111654583533   8.359226989316932 
 -3.733953259783037  12.216600988409873   8.360991297613985 
  1.244958751544475  12.216757261013051   8.361619211247278 
  2.489240808297133   5.749245094199908   8.372056547900252 
  6.223802267611759  12.216787053164699   8.360590236068640 
 -6.223281459573667  12.216676985086984   1.646730223527682 
  7.468246464934373   5.748931126696036   8.369496399711458 
 -1.244508964228556  12.216602112474584   1.644430514423517 
  0.000226584940268   5.749167882538454   1.643611306088880 
 -1.244632590163708   7.904971112297784   1.644965915230695 
  4.979127870688679   5.749195814141334   1.625727627625785 
  3.734404314453426  12.216881424267614   1.643532194535302 
  9.957662050422522   5.749061109909999   1.645675836761178 
 -3.734036739985557   7.904885699436568   8.359816378381396 
  2.489653038336689   1.437354783549828   8.362345906755721 
  6.223457941759746   7.904968093513133   8.369496399711458 
  7.468509077880443   1.437212803235218   8.363534674411198 
 12.447368746702278   1.437501701271738   8.361207815400208 
Generated by cif2cell 2.0.0.  :  Failed to get author information, No journal information. Species order: P N B 
 1.0
 14.936314146199660   0.000000000000000   0.000000000000000
 -7.468157073099825  12.935227489513863   0.000000000000000
  0.000000000000001   0.000000000000001  13.341276283792837
 P N B 
   1 143 143
Cartesian
  4.323599373481677   5.370726259817512   5.002978606422314 
  1.244978691597521   0.718651627221095   1.645283437602340 
  4.978787624167029   7.186601595326157   1.625906894407949 
  6.223839129259078   0.718584849907646   1.643170934167808 
  9.957536902505730   7.186279393637796   1.645904537035592 
 11.202672758176298   0.718876137236863   1.643002232566254 
 -3.734037015699401   9.342132714500826   8.361239623681969 
  1.244846608390809   9.342452866556991   8.362786278676886 
  2.489690218772747   2.874528358728230   8.367038499784693 
  6.223587562203192   9.342170160366612   8.363834262491686 
  7.468520842721520   2.874398483430671   8.366864900815731 
 12.447305945744620   2.874765773338037   8.361248807688233 
 -1.244562053519881   9.342245213743643   1.644081976188769 
  0.000375180330806   2.874711608134686   1.644604901106526 
  4.979144676701300   2.874456241441962   1.635110523454618 
  3.734176837577853   9.342472033279797   1.639092312028964 
  8.712883273802689   9.342082716376446   1.645904537035592 
  9.957948174461457   2.874641922694612   1.643506118909759 
 -4.978648259406435  11.497936857965250   8.360621317370223 
  0.000246781757397  11.498122470192799   8.361919065055291 
  1.244874000910588   5.030613294151235   8.367038499784693 
  6.223787669480437   5.030198261417767   8.380050318436666 
  4.979101328034743  11.498257623809820   8.362451093934869 
 11.202347357554231   5.030510394236885   8.360006118866854 
 -1.244525779590008   5.030599856987815   1.645283437602327 
 -2.489202107407439  11.498025024212174   1.644081976188769 
  2.489678093665179  11.498301200697943   1.643154775783459 
  3.734094123503074   5.030375245053604   1.624593583487048 
  7.468337783154624  11.498004693045687   1.645951093977801 
  8.712964775422737   5.030442347866104   1.642122950352901 
  0.000103747889650   7.186482836409199   8.362703545609087 
  1.244978691597521   0.718651627221096   8.360673775242207 
  4.978787624167030   7.186601595326158   8.380050318436666 
  6.223839129259079   0.718584849907647   8.362786278676886 
  9.957536902505730   7.186279393637797   8.360052675809088 
 -2.489361483729047   7.186365687882672   1.645335895474419 
 11.202672758176298   0.718876137236864   8.362954980278321 
  3.734342883102703   0.718590926608080   1.643253667235541 
  2.489538774472801   7.186580154925108   1.635110523454618 
  7.468024300354442   7.186160837794038   1.639968782201961 
  8.713274295968821   0.718716372515249   1.643154775783459 
  2.489538774472801   7.186580154925108   8.370846689389996 
 13.692044544579591   0.718815278013757   1.644708405156381 
 -1.244562053519881   9.342245213743643   8.361875236655818 
  0.000375180330806   2.874711608134687   8.361352311738115 
  4.979144676701301   2.874456241441963   8.370846689389996 
  3.734176837577853   9.342472033279797   8.366864900815731 
  8.712883273802689   9.342082716376446   8.360052675809088 
  9.957948174461457   2.874641922694613   8.362451093934869 
 -3.734037015699401   9.342132714500826   1.644717589162659 
  1.244846608390809   9.342452866556991   1.643170934167808 
  2.489690218772747   2.874528358728230   1.638918713059881 
  6.223587562203191   9.342170160366612   1.642122950352901 
  7.468520842721519   2.874398483430670   1.639092312028964 
 12.447305945744620   2.874765773338036   1.644708405156381 
 -1.244525779590008   5.030599856987815   8.360673775242207 
 -2.489202107407439  11.498025024212174   8.361875236655818 
  2.489678093665180  11.498301200697943   8.362802437061317 
  3.734094123503074   5.030375245053605   8.381363629357578 
  7.468337783154625  11.498004693045687   8.360006118866854 
 -4.978648259406436  11.497936857965250   1.645335895474419 
  8.712964775422737   5.030442347866105   8.363834262491686 
  0.000246781757396  11.498122470192799   1.644038147789350 
  1.244874000910587   5.030613294151234   1.638918713059881 
  0.000103747889650   7.186482836409198   1.643253667235541 
  6.223787669480436   5.030198261417766   1.625906894407949 
  4.979101328034742  11.498257623809820   1.643506118909759 
 11.202347357554231   5.030510394236885   1.645951093977801 
 -2.489361483729046   7.186365687882673   8.360621317370223 
  3.734342883102703   0.718590926608080   8.362703545609087 
  7.468024300354442   7.186160837794039   8.365988430642719 
  8.713274295968821   0.718716372515249   8.362802437061317 
 13.692044544579591   0.718815278013758   8.361248807688233 
  0.026588994062713   1.458802550082454   5.002978606422314 
  3.652916549948233   8.017587809936925   5.002978606422314 
  4.984049281057473   1.384669195846071   5.002978606422314 
  8.639149678143593   7.862310389915541   5.002978606422314 
  9.971736516120295   1.430412869151501   5.002978606422314 
 -4.978439264859839  10.060929737644781  11.673616748318732 
  0.000306473607966  10.060940912718628  11.673616748318732 
  1.244959137534057   3.593272490855112  11.673616748318732 
  4.979138513544516  10.061015037611767  11.673616748318732 
  6.223841462094818   3.593242933354544  11.673616748318732 
 11.202600366368403   3.593319591889734  11.673616748318732 
 -2.526303016209803  10.039418264215621   5.002978606422314 
 -1.212731126525006   3.605367965782786   5.002978606422314 
  3.835010363078359   3.627449638974941   5.002978606422314 
  2.449774473974595  10.105477808272884   5.002978606422314 
  7.430154702661924  10.043196268188913   5.002978606422314 
  8.727829039326489   3.562658611818710   5.002978606422314 
 -6.223158626294429  12.216767742553539  11.673616748318732 
 -1.244359110940697  12.216764943589343  11.673616748318732 
  0.000229478215707   5.749177894892254  11.673616748318732 
  4.979141157615525   5.749203485352127  11.673616748318732 
  3.734384025321853  12.216819153062643  11.673616748318732 
  9.957972759054483   5.749197495317678  11.673616748318732 
 -2.491448640614495   5.742297255923229   5.002978606422314 
 -3.756225805298883  12.192168367451893   5.002978606422314 
  1.234304778233126  12.210606186653866   5.002978606422314 
  2.569583028806884   5.819234075219596   5.002978606422314 
  6.229093422654624  12.232851011122431   5.002978606422314 
  7.385093318223534   5.685207562558577   5.002978606422314 
 -1.244429921704514   7.905043861787876  11.673616748318732 
  0.000286701661611   1.437396596753947  11.673616748318732 
  3.734374702267985   7.905125845128516  11.673616748318732 
  4.979125712826900   1.437340409805818  11.673616748318732 
  8.713292365285124   7.905116690295068  11.673616748318732 
 -3.779959143419835   7.881580010789410   5.002978606422314 
  9.957882061620122   1.437404353388827  11.673616748318732 
  2.516238352289152   1.461628152332281   5.002978606422314 
  1.201797648935784   7.935721189691193   5.002978606422314 
  6.126695143041576   7.864817138125703   5.002978606422314 
  7.487102045298176   1.380570520372844   5.002978606422314 
  1.244950474157885   7.905121647546236  11.673616748318732 
 12.467939541568477   1.449378255225147   5.002978606422314 
 -2.489072142594545  10.060913519119799  11.673616748318732 
 -1.244420372100321   3.593292489050009  11.673616748318732 
  3.734423022952625   3.593253829374775  11.673616748318732 
  2.489673742830050  10.060991119835448  11.673616748318732 
  7.468551770812901  10.061001128380457  11.673616748318732 
  8.713278176167856   3.593295419389991  11.673616748318732 
 -5.021873824539795  10.032639337154896   5.002978606422314 
 -0.033901183329820  10.060607950817607   5.002978606422314 
  1.300112860913197   3.625115507894887   5.002978606422314 
  4.959881691476316  10.088934858539657   5.002978606422314 
  6.280507304418656   3.466467121695882   5.002978606422314 
 11.219120756636094   3.589870137508995   5.002978606422314 
 -2.489090860094669   5.749172652590286  11.673616748318732 
 -3.733788922646797  12.216740129698842  11.673616748318732 
  1.245000767037100  12.216781518668943  11.673616748318732 
  2.489674918927283   5.749220788171712  11.673616748318732 
  6.223820542643828  12.216819206279579  11.673616748318732 
 -6.230291784729205  12.218163543060518   5.002978606422314 
  7.468596772459077   5.749224258345264  11.673616748318732 
 -1.261751292874313  12.187306724627694   5.002978606422314 
  0.034540595917540   5.760054755397632   5.002978606422314 
 -1.276928133352315   7.897898832553173   5.002978606422314 
  3.735256449612220  12.232313204734092   5.002978606422314 
  9.923354763742186   5.724847088964045   5.002978606422314 
 -3.733741658072532   7.905050242629761  11.673616748318732 
  2.489663155927174   1.437352283022919  11.673616748318732 
  6.223886954977043   7.905124902903947  11.673616748318732 
  7.468525077408899   1.437367645012708  11.673616748318732 
 12.447247586347739   1.437431749308377  11.673616748318732 
  1.264563529893675   0.730925077753443   5.002978606422314 
  4.812684192062108   7.238407043939519   5.002978606422314 
  6.227614540423135   0.679598780862681   5.002978606422314 
  9.902270924374029   7.162172982094368   5.002978606422314 
 11.222463531871959   0.730302345757611   5.002978606422314 
 -3.733835450772095   9.342249088065754  11.673616748318732 
  1.245009255790381   9.342346811658686  11.673616748318732 
  2.489763391760866   2.874641832206851  11.673616748318732 
  6.223880953873184   9.342280343607072  11.673616748318732 
  7.468427566015031   2.874669085970748  11.673616748318732 
 12.447273418452834   2.874763457154522  11.673616748318732 
 -1.278923934190549   9.334202955880201   5.002978606422314 
  0.046195855778022   2.901166187438648   5.002978606422314 
  5.010925876712466   2.803627145150746   5.002978606422314 
  3.694323338564296   9.426230495780979   5.002978606422314 
  8.664373519945922   9.306274181121498   5.002978606422314 
  9.977713265661038   2.865935453718524   5.002978606422314 
 -4.978425666981977  11.498138068289000  11.673616748318732 
  0.000215763477432  11.498104561780789  11.673616748318732 
  1.245008858319780   5.030619927078519  11.673616748318732 
  6.223891862355713   5.030507215404574  11.673616748318732 
  4.979132188371759  11.498244376103367  11.673616748318732 
 11.202540300265170   5.030545761135537  11.673616748318732 
 -1.224104240488818   5.041424099215109   5.002978606422314 
 -2.513347847356351  11.472287891561377   5.002978606422314 
  2.477474191998533  11.525881092058729   5.002978606422314 
  7.459810103327034  11.494269821198786   5.002978606422314 
  8.674492627929173   4.996070906486146   5.002978606422314 
  0.000238813288712   7.186352478768040  11.673616748318732 
  1.245017705455789   0.718874727509697  11.673616748318732 
  4.979107282605910   7.186537352009520  11.673616748318732 
  6.223828606722885   0.718778734136429  11.673616748318732 
  9.957955136116365   7.186400180402567  11.673616748318732 
 -2.521315894761528   7.174444312666255   5.002978606422314 
 11.202523575876707   0.718790006796141  11.673616748318732 
  3.732427332910905   0.694779352482188   5.002978606422314 
  2.444089577763157   7.249518029643038   5.002978606422314 
  7.379917565964961   7.135292390976871   5.002978606422314 
  8.731057231687576   0.694357537966214   5.002978606422314 
  2.489739274088001   7.186385898632035  11.673616748318732 
 13.712592119745894   0.737781938307495   5.002978606422314 
 -1.244336151242875   9.342231607557899  11.673616748318732 
  0.000281634101128   2.874657599193853  11.673616748318732 
  4.979076695624292   2.874727007348647  11.673616748318732 
  3.734364547898689   9.342255952012282  11.673616748318732 
  8.713196995014524   9.342384523925961  11.673616748318732 
  9.957952131779617   2.874675272383694  11.673616748318732 
 -3.772608319352722   9.319863561953603   5.002978606422314 
  1.212971387786278   9.365215503057149   5.002978606422314 
  2.553370760956239   2.923203433345746   5.002978606422314 
  6.174584947056728   9.326038023988934   5.002978606422314 