 C B N 
 1.0
 14.936314146199660   0.000000000000000   0.000000000000000
 -7.468157073099825  12.935227489513863   0.000000000000000
  0.000000000000001   0.000000000000001  13.341276283792837
 C B N 
   3 142 142
Cartesian
  2.616147837088924   5.643000546914098   5.002978606422314 
  3.729333570025490   4.845933421300474   5.002978606422314 
  5.167625021635045   5.183108110396799   5.002978606422314 
  1.191339468684186   0.682900345170590   5.002978606422314 
  5.100533141081336   7.086725478264163   5.002978606422314 
  6.192771482793014   0.771865043528849   5.002978606422314 
 10.013235112452215   7.223712501374381   5.002978606422314 
 11.159354185405471   0.731361260594511   5.002978606422314 
 -3.734902611699240   9.343877142276643  11.673616748318732 
  1.246046284472240   9.340744819196503  11.673616748318732 
  2.486795255769331   2.872804616839383  11.673616748318732 
  6.220860596421132   9.340697671321896  11.673616748318732 
  7.467602829514941   2.876230217498892  11.673616748318732 
 12.448403556633920   2.873010245075951  11.673616748318732 
 -1.206509582788592   9.355504480299569   5.002978606422314 
 -0.075575241038272   2.834831535724397   5.002978606422314 
  4.853708393730289   2.881048949137796   5.002978606422314 
  3.776769414631982   9.313277098829230   5.002978606422314 
  8.743969004398544   9.375531521169316   5.002978606422314 
  9.916525854184716   2.906244554189989   5.002978606422314 
 -4.981370307164391  11.496199717831582  11.673616748318732 
 -0.000779251363430  11.499692343329508  11.673616748318732 
  1.245845530734945   5.029089876237052  11.673616748318732 
  6.220975636386166   5.029033788047496  11.673616748318732 
  4.980221013878094  11.496610061549417  11.673616748318732 
 11.201524414514376   5.032244693933551  11.673616748318732 
 -1.238580375780015   5.024930677760201   5.002978606422314 
 -2.476827937969164  11.523175168428814   5.002978606422314 
  2.474618869285313  11.513038073870440   5.002978606422314 
  7.447806067085575  11.488005758861073   5.002978606422314 
  8.772815187666493   5.071165265651036   5.002978606422314 
 -0.001051994637371   7.188003479237447  11.673616748318732 
  1.245987400660932   0.717027802229648  11.673616748318732 
  4.979921646374466   7.185204252702429  11.673616748318732 
  6.220839895654392   0.716736180709723  11.673616748318732 
  9.955056338669744   7.184597326115545  11.673616748318732 
 -2.442552847477962   7.201394366699108   5.002978606422314 
 11.201611287984447   0.720417901710776  11.673616748318732 
  3.698044239823711   0.717488492106461   5.002978606422314 
  2.578020548910014   7.180157933490502   5.002978606422314 
  7.528901275275730   7.257373981431753   5.002978606422314 
  8.653820540257239   0.797859528189143   5.002978606422314 
  2.486769426279400   7.184757592557302  11.673616748318732 
 13.642842314152135   0.703180163581822   5.002978606422314 
 -1.247363295986474   9.340327904993451  11.673616748318732 
 -0.001017648634607   2.876305978408018  11.673616748318732 
  4.979778245252164   2.872981097713041  11.673616748318732 
  3.733219625739949   9.344065918741050  11.673616748318732 
  8.714339393627178   9.340678774999878  11.673616748318732 
  9.955192791515376   2.872759200747170  11.673616748318732 
 -3.696334326806410   9.367607764387646   5.002978606422314 
  1.277974541267408   9.339883499684570   5.002978606422314 
  2.368262563017526   2.800974568463692   5.002978606422314 
  6.232015984746833   9.343009333260497   5.002978606422314 
  7.376755132720066   3.058862599749386   5.002978606422314 
 12.402332160275545   2.875590272948712   5.002978606422314 
 -1.247304785256195   5.028720830044969  11.673616748318732 
 -2.488139265441718  11.496327585377767  11.673616748318732 
  2.486904670759800  11.496281671370685  11.673616748318732 
  3.732980849569093   5.032344793859338  11.673616748318732 
  7.467364091285233  11.499901004206205  11.673616748318732 
 -4.977883289369219  11.507691990439282   5.002978606422314 
  8.714421646036927   5.029085910298696  11.673616748318732 
  0.002042838669485  11.527600518948603   5.002978606422314 
  1.225046776589650   4.956694850893635   5.002978606422314 
  0.052368856485441   7.173836515891214   5.002978606422314 
  4.958585722841137  11.497797926326571   5.002978606422314 
 11.229208139793052   5.049775099403721   5.002978606422314 
 -2.488019421593699   7.184747738573166  11.673616748318732 
  3.733078889478909   0.720256371685913  11.673616748318732 
  7.467543506052910   7.188202874041026  11.673616748318732 
  8.714428575364025   0.716980452885122  11.673616748318732 
 13.689058195748030   0.716903406565304  11.673616748318732 
 -0.000109419616830   1.435673294108312   1.669145195651010 
  3.734564201294269   7.904230937204193   1.677294865598582 
  4.979189223339291   1.434834066226012   1.670056015181108 
  8.715109833734983   7.904731995095929   1.670886556337903 
  9.958258712250661   1.436564521348590   1.668817793378669 
 -4.977384210617822  10.060027075921187   8.337302184698958 
  0.000297581525426  10.059220952371847   8.333806063672546 
  1.244657281915226   3.591277664179395   8.338084450073284 
  4.979456144097113  10.060041591738557   8.333151759801321 
  6.224668106698704   3.593818118145506   8.341448408907910 
 11.203551106714144   3.592897493999804   8.336170375424452 
 -2.488382269311746  10.059276855384942   1.669042345579205 
 -1.244213642190215   3.592374848328198   1.669850896951870 
  3.733588042114842   3.591647302213032   1.660135762226331 
  2.489607018429822  10.059823428361060   1.673265002226560 
  7.469460715600658  10.060256157629530   1.671149344927161 
  8.714990465654015   3.593720231845145   1.670639392991926 
 -6.222856552222893  12.215135869850704   8.337446454208500 
 -1.244126908797270  12.214546268584414   8.336613376433554 
  0.000358001344507   5.747989363394667   8.331608185747266 
  4.980244048281338   5.747353615495004   8.347649528186471 
  3.734115606224941  12.215520991091040   8.336651269571290 
  9.959610731104314   5.749246006373718   8.335504555756170 
 -2.487942806157004   5.748441958444974   1.670834848491978 
 -3.733627297322677  12.214673655053309   1.669191929112126 
  1.245036108879636  12.215080510921901   1.669555747006140 
  2.490506672499587   5.747191855050316   1.665106434203464 
  6.223866942211663  12.215741823375787   1.668333712913443 
  7.470312111605153   5.749346038316268   1.673276821332968 
 -1.243943664613139   7.904089150281842   8.333530245809294 
 -0.000109419616829   1.435673294108313   8.336812017193576 
  3.734564201294269   7.904230937204193   8.328662347246366 
  4.979189223339292   1.434834066226012   8.335901197663507 
  8.715109833734983   7.904731995095930   8.335070656506645 
 -3.732636316237047   7.904306080209065   1.670330702800786 
  9.958258712250661   1.436564521348590   8.337139419465773 
  2.489222953481420   1.435257800339135   1.667916685716827 
  1.245010396282789   7.903811100371902   1.676176703850997 
  6.225842661378556   7.904799715580119   1.673666666914157 
  7.468734785061433   1.435861499646677   1.672206394289592 
  1.245010396282789   7.903811100371903   8.329780508993055 
 12.447419403613948   1.436272647093618   1.667888741894248 
 -2.488382269311745  10.059276855384942   8.336914867265703 
 -1.244213642190214   3.592374848328199   8.336106315892371 
  3.733588042114842   3.591647302213032   8.345821450618351 
  2.489607018429823  10.059823428361060   8.332692210617788 
  7.469460715600659  10.060256157629530   8.334807867917680 
  8.714990465654015   3.593720231845146   8.335317819853062 
 -4.977384210617823  10.060027075921187   1.668655028146017 
  0.000297581525426  10.059220952371847   1.672151149171800 
  1.244657281915226   3.591277664179394   1.667872762771451 
  4.979456144097112  10.060041591738557   1.672805453042733 
  6.224668106698703   3.593818118145505   1.664508803936971 
 11.203551106714144   3.592897493999803   1.669786837419923 
 -2.487942806157003   5.748441958444975   8.335122364352850 
 -3.733627297322677  12.214673655053309   8.336765283732875 
  1.245036108879636  12.215080510921901   8.336401465838273 
  2.490506672499588   5.747191855050317   8.340850778641522 
  6.223866942211664  12.215741823375787   8.337623499930544 
 -6.222856552222894  12.215135869850704   1.668510758636328 
  7.470312111605154   5.749346038316269   8.332680391511833 
 -1.244126908797270  12.214546268584414   1.669343836411220 
  0.000358001344506   5.747989363394666   1.674349027097054 
 -1.243943664613139   7.904089150281841   1.672426967035548 
  4.980244048281337   5.747353615495003   1.658307684657462 
  3.734115606224955  12.215520991091040   1.669305943273218 
  9.959610731104314   5.749246006373717   1.670452657088564 
 -3.732636316237047   7.904306080209066   8.335626510044589 
  2.489222953481420   1.435257800339136   8.338040527128362 
  6.225842661378557   7.904799715580120   8.332290545930057 
  7.468734785061434   1.435861499646678   8.333750818554822 
 12.447419403613948   1.436272647093618   8.338068470950914 
  1.245023861496125   0.717514417965800   1.668205278713088 
  4.979922097648453   7.184429392337690   1.679817987975803 
  6.224070239734959   0.718004983356047   1.672466922338841 
  9.958904227213731   7.185806858569061   1.669228498422113 
 11.202154585780592   0.717746393888712   1.667392925404944 
 -3.732970402191858   9.341319052239360   8.338399505349955 
  1.245531071077403   9.340495439641238   8.332122183816583 
  2.489984163576171   2.873135639452924   8.339036362509217 
  6.224193351229535   9.341032962958394   8.331560156093509 
  7.468403107048945   2.874641000579279   8.328741823646094 
 12.447558548520966   2.873684343203780   8.338110425179380 
 -1.243645562067579   9.340945893025204   1.669664120933038 
  0.000711584133683   2.873266017710895   1.669375103351846 
  4.979919588094504   2.873928711186658   1.673759884964752 
  3.734734701018790   9.340434421634413   1.675979658504777 
  8.713811914730428   9.341607409027221   1.669243475559133 
  9.958023024371215   2.874155880524931   1.670653637817059 
 -4.978055629802295  11.497208181932185   8.338435922670172 
  0.000473254490232  11.496868246499435   8.337086182699473 
  1.246343398918617   5.029022946528281   8.334028683164988 
  6.224772234082633   5.030219445070125   8.342435149429978 
  4.978872102722868  11.496758005581196   8.337072862867876 
 11.203502204254287   5.029770509273113   8.336866299810982 
 -1.243403591975913   5.029413951267600   1.671139910595462 
 -2.488586750803250  11.497077081330092   1.667841870529789 
  2.489507863119463  11.496769659140103   1.669134018851170 
  3.735903576407497   5.028402340559440   1.652261758086044 
  7.468557896261022  11.497069563424976   1.667896148332140 
  8.714274859215662   5.030031600686713   1.671605573279890 
  0.001477279161637   7.184851396545981   8.330862784021940 
  1.245023861496125   0.717514417965801   8.337751934131353 
  4.979922097648454   7.184429392337691   8.326139224868639 
  6.224070239734960   0.718004983356047   8.333490290505813 
  9.958904227213731   7.185806858569062   8.336728714422662 
 -2.488043201743304   7.185398360596439   1.669715212074717 
 11.202154585780592   0.717746393888712   8.338564287439871 
  3.734770353425822   0.717699169460233   1.669536893634859 
  2.490991749350343   7.184125860296281   1.678090425175018 
  7.469299373708736   7.186116228786718   1.672621099712462 
  8.712784179250814   0.718067547676897   1.670547996024449 
  2.490991749350343   7.184125860296282   8.327866787669810 
 13.691746830732894   0.717531336667506   1.666974063022453 
 -1.243645562067579   9.340945893025204   8.336293091911644 
  0.000711584133683   2.873266017710896   8.336582109491902 
  4.979919588094504   2.873928711186659   8.332197327879236 
  3.734734701018791   9.340434421634413   8.329977554339610 
  8.713811914730428   9.341607409027221   8.336713737285507 
  9.958023024371215   2.874155880524932   8.335303575027783 
 -3.732970402191858   9.341319052239360   1.667557707494819 
  1.245531071077402   9.340495439641238   1.673835029028539 
  2.489984163576170   2.873135639452923   1.666920850335383 
  6.224193351229534   9.341032962958394   1.674397056751053 
  7.468403107048944   2.874641000579278   1.677215389198614 
 12.447558548520966   2.873684343203780   1.667846787665167 
 -1.243403591975912   5.029413951267601   8.334817302249579 
 -2.488586750803249  11.497077081330092   8.338115342315026 
  2.489507863119463  11.496769659140103   8.336823193993791 
  3.735903576407498   5.028402340559441   8.353695454758078 
  7.468557896261022  11.497069563424976   8.338061064512647 
 -4.978055629802296  11.497208181932185   1.667521290174549 
  8.714274859215662   5.030031600686714   8.334351639564684 
  0.000473254490231  11.496868246499435   1.668871030144782 
  1.246343398918616   5.029022946528280   1.671928529680268 
  0.001477279161652   7.184851396545980   1.675094428822474 
  6.224772234082632   5.030219445070125   1.663522063414716 
  4.978872102722868  11.496758005581196   1.668884349976205 
 11.203502204254287   5.029770509273112   1.669090913033846 
 -2.488043201743304   7.185398360596440   8.336242000769511 
  3.734770353425823   0.717699169460234   8.336420319209475 
  7.469299373708737   7.186116228786719   8.333336113132006 
  8.712784179250814   0.718067547676898   8.335409216819832 
 13.691746830732894   0.717531336667507   8.338983149822122 
 -0.051132308601869   1.407268121851814   5.002978606422314 
  3.843003100741968   7.837334100603448   5.002978606422314 
  4.939664829228910   1.470408780755215   5.002978606422314 
  8.774256060325927   7.950920096363613   5.002978606422314 
  9.910515789308240   1.475966038688979   5.002978606422314 
 -4.979480881493505  10.060263438711019  11.673616748318732 
 -0.000706542412255  10.060367885874751  11.673616748318732 
  1.244030830571347   3.592795701668151  11.673616748318732 
  4.978115064417753  10.060356967498320  11.673616748318732 
  6.222731620749699   3.592708858313631  11.673616748318732 
 11.201564836339157   3.592726186553939  11.673616748318732 
 -2.452152527754286  10.084907642735057   5.002978606422314 
 -1.287046738694664   3.585883255502588   5.002978606422314 
  3.598417810488956   3.496563256530863   5.002978606422314 
  2.519526575608803  10.051683132976017   5.002978606422314 
  7.472775025372028  10.054769949757766   5.002978606422314 
  8.658518533780953   3.653442665443263   5.002978606422314 
 -6.224120177290148  12.216235937327141  11.673616748318732 
 -1.245373393067930  12.216255360416186  11.673616748318732 
 -0.000768685833837   5.748611023953019  11.673616748318732 
  4.978033230248268   5.748787243562325  11.673616748318732 
  3.733442452477703  12.216268842848683  11.673616748318732 
  9.956856123319806   5.748555920552084  11.673616748318732 
 -2.463647042820835   5.761934323861011   5.002978606422314 
 -3.733310494400322  12.227569863326771   5.002978606422314 
  1.223869168241151  12.272673430795992   5.002978606422314 
  6.198027299352905  12.205298401580459   5.002978606422314 
  7.659065574949933   5.884769645988801   5.002978606422314 
 -1.245396212625334   7.904385234174894  11.673616748318732 
 -0.000669351651631   1.436802748074303  11.673616748318732 
  3.733351691234907   7.904597130259037  11.673616748318732 
  4.978097768614871   1.436868712420695  11.673616748318732 
  8.712184554702560   7.904416733994025  11.673616748318732 
 -3.680702561453662   7.932341927015258   5.002978606422314 
  9.956840465678455   1.436814015056912  11.673616748318732 
  2.433478684384951   1.391014752476676   5.002978606422314 
  1.317166956837435   7.886286055115180   5.002978606422314 
  6.255092976747709   7.886936020755949   5.002978606422314 
  7.381919037455440   1.590064832847085   5.002978606422314 
  1.244053396646848   7.904435214626817  11.673616748318732 
 12.403178421821830   1.438648952285799   5.002978606422314 
 -2.490041499578108  10.060304468138311  11.673616748318732 
 -1.245355432392933   3.592669473697309  11.673616748318732 
  3.733384694570489   3.592755102393170  11.673616748318732 
  2.488688833751893  10.060354691329994  11.673616748318732 
  7.467492004644085  10.060387251269329  11.673616748318732 
  8.712156085962196   3.592646669729926  11.673616748318732 
 -4.949618801162700  10.080335962999140   5.002978606422314 
  0.033447563536231  10.079307571457480   5.002978606422314 
  1.164846953604442   3.539575632024505   5.002978606422314 
  4.990752607544016  10.054391541823883   5.002978606422314 
  5.893059753228830   3.963200957714510   5.002978606422314 
 11.167877326748044   3.611595018090735   5.002978606422314 
 -2.490094205490695   5.748564284427661  11.673616748318732 
 -3.734778773173783  12.216162513476183  11.673616748318732 
  1.244042301559294  12.216177470313912  11.673616748318732 
  2.488649067125907   5.748742816832759  11.673616748318732 
  6.222813660466183  12.216173839599660  11.673616748318732 
 -6.243928655371138  12.195687547932588   5.002978606422314 
  7.467510394606445   5.748639491403778  11.673616748318732 
 -1.241733014150434  12.266762469657285   5.002978606422314 
  0.021526837748265   5.728447113510548   5.002978606422314 
 -1.187993605266157   7.910617230767712   5.002978606422314 
  3.711957436690278  12.226713998409501   5.002978606422314 
 10.009498802706670   5.788636829047547   5.002978606422314 
 -3.734766050496771   7.904418781094243  11.673616748318732 
  2.488721361651861   1.436820243157224  11.673616748318732 
  6.222676374748676   7.904475179763808  11.673616748318732 
  7.467486642504317   1.436803551871603  11.673616748318732 
 12.446323313697162   1.436830234320599  11.673616748318732 
Generated by cif2cell 2.0.0.  :  Failed to get author information, No journal information. Species order: C B N 
 1.0
 14.936314146199660   0.000000000000000   0.000000000000000
 -7.468157073099825  12.935227489513863   0.000000000000000
  0.000000000000001   0.000000000000001  13.341276283792837
 C B N 
   3 142 142
Cartesian
  2.616147837088924   5.643000546914098   5.002978606422314 
  3.729333570025490   4.845933421300474   5.002978606422314 
  5.167625021635045   5.183108110396799   5.002978606422314 
  1.191339468684186   0.682900345170590   5.002978606422314 
  5.100533141081336   7.086725478264163   5.002978606422314 
  6.192771482793014   0.771865043528849   5.002978606422314 
 10.013235112452215   7.223712501374381   5.002978606422314 
 11.159354185405471   0.731361260594511   5.002978606422314 
 -3.734902611699240   9.343877142276643  11.673616748318732 
  1.246046284472240   9.340744819196503  11.673616748318732 
  2.486795255769331   2.872804616839383  11.673616748318732 
  6.220860596421132   9.340697671321896  11.673616748318732 
  7.467602829514941   2.876230217498892  11.673616748318732 
 12.448403556633920   2.873010245075951  11.673616748318732 
 -1.206509582788592   9.355504480299569   5.002978606422314 
 -0.075575241038272   2.834831535724397   5.002978606422314 
  4.853708393730289   2.881048949137796   5.002978606422314 
  3.776769414631982   9.313277098829230   5.002978606422314 
  8.743969004398544   9.375531521169316   5.002978606422314 
  9.916525854184716   2.906244554189989   5.002978606422314 
 -4.981370307164391  11.496199717831582  11.673616748318732 
 -0.000779251363430  11.499692343329508  11.673616748318732 
  1.245845530734945   5.029089876237052  11.673616748318732 
  6.220975636386166   5.029033788047496  11.673616748318732 
  4.980221013878094  11.496610061549417  11.673616748318732 
 11.201524414514376   5.032244693933551  11.673616748318732 
 -1.238580375780015   5.024930677760201   5.002978606422314 
 -2.476827937969164  11.523175168428814   5.002978606422314 
  2.474618869285313  11.513038073870440   5.002978606422314 
  7.447806067085575  11.488005758861073   5.002978606422314 
  8.772815187666493   5.071165265651036   5.002978606422314 
 -0.001051994637371   7.188003479237447  11.673616748318732 
  1.245987400660932   0.717027802229648  11.673616748318732 
  4.979921646374466   7.185204252702429  11.673616748318732 
  6.220839895654392   0.716736180709723  11.673616748318732 
  9.955056338669744   7.184597326115545  11.673616748318732 
 -2.442552847477962   7.201394366699108   5.002978606422314 
 11.201611287984447   0.720417901710776  11.673616748318732 
  3.698044239823711   0.717488492106461   5.002978606422314 
  2.578020548910014   7.180157933490502   5.002978606422314 
  7.528901275275730   7.257373981431753   5.002978606422314 
  8.653820540257239   0.797859528189143   5.002978606422314 
  2.486769426279400   7.184757592557302  11.673616748318732 
 13.642842314152135   0.703180163581822   5.002978606422314 
 -1.247363295986474   9.340327904993451  11.673616748318732 
 -0.001017648634607   2.876305978408018  11.673616748318732 
  4.979778245252164   2.872981097713041  11.673616748318732 
  3.733219625739949   9.344065918741050  11.673616748318732 
  8.714339393627178   9.340678774999878  11.673616748318732 
  9.955192791515376   2.872759200747170  11.673616748318732 
 -3.696334326806410   9.367607764387646   5.002978606422314 
  1.277974541267408   9.339883499684570   5.002978606422314 
  2.368262563017526   2.800974568463692   5.002978606422314 
  6.232015984746833   9.343009333260497   5.002978606422314 
  7.376755132720066   3.058862599749386   5.002978606422314 
 12.402332160275545   2.875590272948712   5.002978606422314 
 -1.247304785256195   5.028720830044969  11.673616748318732 
 -2.488139265441718  11.496327585377767  11.673616748318732 
  2.486904670759800  11.496281671370685  11.673616748318732 
  3.732980849569093   5.032344793859338  11.673616748318732 
  7.467364091285233  11.499901004206205  11.673616748318732 
 -4.977883289369219  11.507691990439282   5.002978606422314 
  8.714421646036927   5.029085910298696  11.673616748318732 
  0.002042838669485  11.527600518948603   5.002978606422314 
  1.225046776589650   4.956694850893635   5.002978606422314 
  0.052368856485441   7.173836515891214   5.002978606422314 
  4.958585722841137  11.497797926326571   5.002978606422314 
 11.229208139793052   5.049775099403721   5.002978606422314 
 -2.488019421593699   7.184747738573166  11.673616748318732 
  3.733078889478909   0.720256371685913  11.673616748318732 
  7.467543506052910   7.188202874041026  11.673616748318732 
  8.714428575364025   0.716980452885122  11.673616748318732 
 13.689058195748030   0.716903406565304  11.673616748318732 
 -0.000109419616830   1.435673294108312   1.669145195651010 
  3.734564201294269   7.904230937204193   1.677294865598582 
  4.979189223339291   1.434834066226012   1.670056015181108 
  8.715109833734983   7.904731995095929   1.670886556337903 
  9.958258712250661   1.436564521348590   1.668817793378669 
 -4.977384210617822  10.060027075921187   8.337302184698958 
  0.000297581525426  10.059220952371847   8.333806063672546 
  1.244657281915226   3.591277664179395   8.338084450073284 
  4.979456144097113  10.060041591738557   8.333151759801321 
  6.224668106698704   3.593818118145506   8.341448408907910 
 11.203551106714144   3.592897493999804   8.336170375424452 
 -2.488382269311746  10.059276855384942   1.669042345579205 
 -1.244213642190215   3.592374848328198   1.669850896951870 
  3.733588042114842   3.591647302213032   1.660135762226331 
  2.489607018429822  10.059823428361060   1.673265002226560 
  7.469460715600658  10.060256157629530   1.671149344927161 
  8.714990465654015   3.593720231845145   1.670639392991926 
 -6.222856552222893  12.215135869850704   8.337446454208500 
 -1.244126908797270  12.214546268584414   8.336613376433554 
  0.000358001344507   5.747989363394667   8.331608185747266 
  4.980244048281338   5.747353615495004   8.347649528186471 
  3.734115606224941  12.215520991091040   8.336651269571290 
  9.959610731104314   5.749246006373718   8.335504555756170 
 -2.487942806157004   5.748441958444974   1.670834848491978 
 -3.733627297322677  12.214673655053309   1.669191929112126 
  1.245036108879636  12.215080510921901   1.669555747006140 
  2.490506672499587   5.747191855050316   1.665106434203464 
  6.223866942211663  12.215741823375787   1.668333712913443 
  7.470312111605153   5.749346038316268   1.673276821332968 
 -1.243943664613139   7.904089150281842   8.333530245809294 
 -0.000109419616829   1.435673294108313   8.336812017193576 
  3.734564201294269   7.904230937204193   8.328662347246366 
  4.979189223339292   1.434834066226012   8.335901197663507 
  8.715109833734983   7.904731995095930   8.335070656506645 
 -3.732636316237047   7.904306080209065   1.670330702800786 
  9.958258712250661   1.436564521348590   8.337139419465773 
  2.489222953481420   1.435257800339135   1.667916685716827 
  1.245010396282789   7.903811100371902   1.676176703850997 
  6.225842661378556   7.904799715580119   1.673666666914157 
  7.468734785061433   1.435861499646677   1.672206394289592 
  1.245010396282789   7.903811100371903   8.329780508993055 
 12.447419403613948   1.436272647093618   1.667888741894248 
 -2.488382269311745  10.059276855384942   8.336914867265703 
 -1.244213642190214   3.592374848328199   8.336106315892371 
  3.733588042114842   3.591647302213032   8.345821450618351 
  2.489607018429823  10.059823428361060   8.332692210617788 
  7.469460715600659  10.060256157629530   8.334807867917680 
  8.714990465654015   3.593720231845146   8.335317819853062 
 -4.977384210617823  10.060027075921187   1.668655028146017 
  0.000297581525426  10.059220952371847   1.672151149171800 
  1.244657281915226   3.591277664179394   1.667872762771451 
  4.979456144097112  10.060041591738557   1.672805453042733 
  6.224668106698703   3.593818118145505   1.664508803936971 
 11.203551106714144   3.592897493999803   1.669786837419923 
 -2.487942806157003   5.748441958444975   8.335122364352850 
 -3.733627297322677  12.214673655053309   8.336765283732875 
  1.245036108879636  12.215080510921901   8.336401465838273 
  2.490506672499588   5.747191855050317   8.340850778641522 
  6.223866942211664  12.215741823375787   8.337623499930544 
 -6.222856552222894  12.215135869850704   1.668510758636328 
  7.470312111605154   5.749346038316269   8.332680391511833 
 -1.244126908797270  12.214546268584414   1.669343836411220 
  0.000358001344506   5.747989363394666   1.674349027097054 
 -1.243943664613139   7.904089150281841   1.672426967035548 
  4.980244048281337   5.747353615495003   1.658307684657462 
  3.734115606224955  12.215520991091040   1.669305943273218 
  9.959610731104314   5.749246006373717   1.670452657088564 
 -3.732636316237047   7.904306080209066   8.335626510044589 
  2.489222953481420   1.435257800339136   8.338040527128362 
  6.225842661378557   7.904799715580120   8.332290545930057 
  7.468734785061434   1.435861499646678   8.333750818554822 
 12.447419403613948   1.436272647093618   8.338068470950914 
  1.245023861496125   0.717514417965800   1.668205278713088 
  4.979922097648453   7.184429392337690   1.679817987975803 
  6.224070239734959   0.718004983356047   1.672466922338841 
  9.958904227213731   7.185806858569061   1.669228498422113 
 11.202154585780592   0.717746393888712   1.667392925404944 
 -3.732970402191858   9.341319052239360   8.338399505349955 
  1.245531071077403   9.340495439641238   8.332122183816583 
  2.489984163576171   2.873135639452924   8.339036362509217 
  6.224193351229535   9.341032962958394   8.331560156093509 
  7.468403107048945   2.874641000579279   8.328741823646094 
 12.447558548520966   2.873684343203780   8.338110425179380 
 -1.243645562067579   9.340945893025204   1.669664120933038 
  0.000711584133683   2.873266017710895   1.669375103351846 
  4.979919588094504   2.873928711186658   1.673759884964752 
  3.734734701018790   9.340434421634413   1.675979658504777 
  8.713811914730428   9.341607409027221   1.669243475559133 
  9.958023024371215   2.874155880524931   1.670653637817059 
 -4.978055629802295  11.497208181932185   8.338435922670172 
  0.000473254490232  11.496868246499435   8.337086182699473 
  1.246343398918617   5.029022946528281   8.334028683164988 
  6.224772234082633   5.030219445070125   8.342435149429978 
  4.978872102722868  11.496758005581196   8.337072862867876 
 11.203502204254287   5.029770509273113   8.336866299810982 
 -1.243403591975913   5.029413951267600   1.671139910595462 
 -2.488586750803250  11.497077081330092   1.667841870529789 
  2.489507863119463  11.496769659140103   1.669134018851170 
  3.735903576407497   5.028402340559440   1.652261758086044 
  7.468557896261022  11.497069563424976   1.667896148332140 
  8.714274859215662   5.030031600686713   1.671605573279890 
  0.001477279161637   7.184851396545981   8.330862784021940 
  1.245023861496125   0.717514417965801   8.337751934131353 
  4.979922097648454   7.184429392337691   8.326139224868639 
  6.224070239734960   0.718004983356047   8.333490290505813 
  9.958904227213731   7.185806858569062   8.336728714422662 
 -2.488043201743304   7.185398360596439   1.669715212074717 
 11.202154585780592   0.717746393888712   8.338564287439871 
  3.734770353425822   0.717699169460233   1.669536893634859 
  2.490991749350343   7.184125860296281   1.678090425175018 
  7.469299373708736   7.186116228786718   1.672621099712462 
  8.712784179250814   0.718067547676897   1.670547996024449 
  2.490991749350343   7.184125860296282   8.327866787669810 
 13.691746830732894   0.717531336667506   1.666974063022453 
 -1.243645562067579   9.340945893025204   8.336293091911644 
  0.000711584133683   2.873266017710896   8.336582109491902 
  4.979919588094504   2.873928711186659   8.332197327879236 
  3.734734701018791   9.340434421634413   8.329977554339610 
  8.713811914730428   9.341607409027221   8.336713737285507 
  9.958023024371215   2.874155880524932   8.335303575027783 
 -3.732970402191858   9.341319052239360   1.667557707494819 
  1.245531071077402   9.340495439641238   1.673835029028539 