Species order:X N B                     
   2.51242800000000     
     5.9449720136058266    0.0000000000000000    0.0000000000000000
    -2.9724860068029120    5.1484967885702053   -0.0000000000000001
     0.0000000000000000    0.0000000000000009    5.3101128803662583
   C    N    B 
     3   142   142
Direct
  0.3932788012082325  0.4362505840340789  0.3750000000000000
  0.4369976736830384  0.3746307071312738  0.3750000000000000
  0.5463258073269548  0.4006970974881239  0.3750000000000000
  0.1110903926909102  0.0554697950652559  0.1250409063741262
  0.6111182619716734  0.5554157743388630  0.1259113410323771
  0.4444610996511587  0.0555077198246504  0.1253603393530330
  0.9445189498068175  0.5555222638638820  0.1251176021629886
  0.7777384397380123  0.0554877287214754  0.1249800161496185
  0.1111547769385329  0.7221611726436235  0.6250076325515835
  0.4444382035984236  0.7220975005822857  0.6245371137346554
  0.2777653012532695  0.2221171325963981  0.6250553684012666
  0.7777850099556549  0.7221390555775571  0.6244949867513652
  0.6111332269266329  0.2222335094539036  0.6242837376633866
  0.9444552946300285  0.2221595519316055  0.6249859644469424
  0.2778029454349658  0.7221323243520524  0.1251502543996758
  0.1111112471703554  0.2221272119133700  0.1251285909864429
  0.4444994285835341  0.2221784435964847  0.1254572538159681
  0.6110903225090357  0.7220927833860190  0.1256236377130409
  0.9444894723632632  0.7221834650067137  0.1251187247794988
  0.7777968233642910  0.2221960056639828  0.1252244239815790
  0.1111291977872405  0.8888292216934390  0.6250103622244760
  0.4444331557617439  0.8888029418747794  0.6249091919959324
  0.2778363597764435  0.3887850407428186  0.6246800160558308
  0.6111930088923229  0.3888775399696636  0.6253101256560053
  0.7777372863444209  0.8887944193406123  0.6249081936033256
  0.9445062164372452  0.3888428335219129  0.6248927105976148
  0.1111606177001118  0.3888152686409859  0.1252608727266662
  0.2777963663848235  0.8888190865332963  0.1250136669874612
  0.6110725063289698  0.8887953202570366  0.1251105204139171
  0.4444907194866704  0.3887370627718598  0.1238458542450869
  0.9444360881486558  0.8888185053370923  0.1250177353989979
  0.7778602434430300  0.3888630180462144  0.1252957766349967
  0.2778231045776925  0.5554483987522052  0.6244427149854013
  0.1110903926909102  0.0554697950652559  0.6249590936258603
  0.6111182619716734  0.5554157743388630  0.6240886589676092
  0.4444610996511587  0.0555077198246504  0.6246396606469686
  0.9445189498068175  0.5555222638638820  0.6248823978370220
  0.1111685560258653  0.5554906835941918  0.1251540839539548
  0.7777384397380123  0.0554877287214754  0.6250199838503956
  0.2777883567189530  0.0554840778828243  0.1251407180333288
  0.4444703481530391  0.5553923088032428  0.1257818509623091
  0.7778495684480997  0.5555461807387815  0.1253718957716496
  0.6110852103040918  0.0555125565637720  0.1252165055643028
  0.4444703481530391  0.5553923088032428  0.6242181490377062
  0.9444106225295851  0.0554711030207380  0.1249486201741824
  0.2778029454349658  0.7221323243520524  0.6248497456003279
  0.1111112471703554  0.2221272119133700  0.6248714090134914
  0.4444994285835341  0.2221784435964847  0.6245427461839840
  0.6110903225090357  0.7220927833860190  0.6243763622869409
  0.9444894723632632  0.7221834650067137  0.6248812752205016
  0.7777968233642910  0.2221960056639828  0.6247755760184375
  0.1111547769385329  0.7221611726436235  0.1249923674484274
  0.4444382035984236  0.7220975005822857  0.1254628862653817
  0.2777653012532695  0.2221171325963981  0.1249446315987307
  0.7777850099556549  0.7221390555775571  0.1255050132486296
  0.6111332269266329  0.2222335094539036  0.1257162623366186
  0.9444552946300285  0.2221595519316055  0.1250140355530523
  0.1111606177001118  0.3888152686409859  0.6247391272733654
  0.2777963663848235  0.8888190865332963  0.6249863330125535
  0.6110725063289698  0.8887953202570366  0.6248894795861083
  0.4444907194866704  0.3887370627718598  0.6261541457548754
  0.9444360881486559  0.8888185053370923  0.6249822646010136
  0.1111291977872405  0.8888292216934390  0.1249896377755309
  0.7778602434430297  0.3888630180462144  0.6247042233649993
  0.4444331557617439  0.8888029418747794  0.1250908080040403
  0.2778363597764435  0.3887850407428186  0.1253199839442159
  0.2778231045776927  0.5554483987522052  0.1255572850145830
  0.6111930088923229  0.3888775399696636  0.1246898743439999
  0.7777372863444209  0.8887944193406123  0.1250918063966329
  0.9445062164372452  0.3888428335219129  0.1251072894024002
  0.1111685560258653  0.5554906835941918  0.6248459160460154
  0.2777883567189530  0.0554840778828243  0.6248592819666490
  0.7778495684480997  0.5555461807387815  0.6246281042283377
  0.6110852103040918  0.0555125565637720  0.6247834944356707
  0.9444106225295851  0.0554711030207380  0.6250513798258143
  0.0509733735457733  0.1087934574782417  0.3750000000000000
  0.5602379523855603  0.6058907048180564  0.3750000000000000
  0.3875524897211374  0.1136747522954060  0.3750000000000000
  0.8947804516864091  0.6146718411260373  0.3750000000000000
  0.7205703544872534  0.1141043742667447  0.3750000000000000
  0.0554899230728677  0.7777415160936691  0.8750000000000000
  0.3888274916955885  0.7777495907227250  0.8750000000000000
  0.2221654126709080  0.2777528036967811  0.8750000000000000
  0.7221637655827596  0.7777487466419816  0.8750000000000000
  0.5554906629577055  0.2777460899876795  0.8750000000000000
  0.8888288059104950  0.2777474296038806  0.8750000000000000
  0.2256494863151239  0.7796467167593725  0.3750000000000000
  0.0524402417146270  0.2772184144739271  0.3750000000000000
  0.3760740094847829  0.2703132402862961  0.3750000000000000
  0.5572237204423637  0.7770781875405407  0.3750000000000000
  0.8889675881571339  0.7773168239916007  0.3750000000000000
  0.7209164546718636  0.2824413152690958  0.3750000000000000
  0.0554974220209823  0.9444160102503346  0.8750000000000000
  0.3888298592886247  0.9444175118156585  0.8750000000000000
  0.2221561091868261  0.4444151468239128  0.8750000000000000
  0.5554982984168096  0.4444287700562409  0.8750000000000000
  0.7221666906446028  0.9444185541191282  0.8750000000000000
  0.8888261388690725  0.4444108868755682  0.8750000000000000
  0.0577791335711044  0.4454451480294415  0.3750000000000000
  0.2226975293347470  0.9452922164097407  0.3750000000000000
  0.5563287164324793  0.9487790949749448  0.3750000000000000
  0.8867488650414465  0.9435704483338133  0.3750000000000000
  0.7402521670310270  0.4549413337151883  0.3750000000000000
  0.2221567314147771  0.6110743116487668  0.8750000000000000
  0.0554935503905658  0.1110767282012684  0.8750000000000000
  0.5554966835199133  0.6110906929674805  0.8750000000000000
  0.3888291481870572  0.1110818277904668  0.8750000000000000
  0.8888271600285539  0.6110767468451447  0.8750000000000000
  0.0601913682728392  0.6132355950790755  0.3750000000000000
  0.7221584467538424  0.1110775992321503  0.8750000000000000
  0.2166921098802408  0.1075369376846540  0.3750000000000000
  0.3930230896461266  0.6096750955101725  0.3750000000000000
  0.7236469121910230  0.6097253432264419  0.3750000000000000
  0.5556888610862853  0.1229251541293795  0.3750000000000000
  0.3888296094174780  0.6110781755508105  0.8750000000000000
  0.8860139557964879  0.1112194550464658  0.3750000000000000
  0.2221617703505109  0.7777446880075245  0.8750000000000000
  0.0554938284801969  0.2777430452313082  0.8750000000000000
  0.3888283791585391  0.2777496650372550  0.8750000000000000
  0.5554942967670106  0.7777485706753565  0.8750000000000000
  0.8888310169677387  0.7777510878277889  0.8750000000000000
  0.7221575217456454  0.2777412822961453  0.8750000000000000
  0.0582651028947526  0.7792932881289425  0.3750000000000000
  0.3918462376912009  0.7792137849626856  0.3750000000000000
  0.2148068034835194  0.2736384524272116  0.3750000000000000
  0.7227792723883416  0.7772875699306115  0.3750000000000000
  0.5477398783219526  0.3063881915433908  0.3750000000000000
  0.8873027544093723  0.2792061462404530  0.3750000000000000
  0.0554916643734589  0.4444115334722805  0.8750000000000000
  0.2221582855024599  0.9444103339797769  0.8750000000000000
  0.5554955239492126  0.9444114902669583  0.8750000000000000
  0.3888300167684869  0.4444253355028404  0.8750000000000000
  0.8888287153898747  0.9444112095827374  0.8750000000000000
  0.0533769459839001  0.9428274499091112  0.3750000000000000
  0.7221653780753519  0.4444173475931519  0.8750000000000000
  0.3910258945161101  0.9483221288223586  0.3750000000000000
  0.2228693965719159  0.4428563098835642  0.3750000000000000
  0.2262407813130682  0.6115560964954481  0.3750000000000000
  0.7211319974625114  0.9452260509775550  0.3750000000000000
  0.8938999075347751  0.4475094723877249  0.3750000000000000
  0.0554924228589808  0.6110769051029119  0.8750000000000000
  0.2221612295601095  0.1110780807157824  0.8750000000000000
  0.7221545517862870  0.6110812651862276  0.8750000000000000
  0.5554935092243659  0.1110767903414435  0.8750000000000000
  0.8888322451118107  0.1110788531152916  0.8750000000000000
  0.1061581961438294  0.0527938411384096  0.3750000000000000
  0.6154166224448951  0.5478624542173008  0.3750000000000000
  0.4444475329371340  0.0596715476519122  0.3750000000000000
  0.9496216624017668  0.5584526833587113  0.3750000000000000
  0.7753991843450446  0.0565402704503960  0.3750000000000000
  0.1111242944827348  0.7223589341471883  0.8750000000000000
  0.4444823371605433  0.7221167796831336  0.8750000000000000
  0.2775390055441144  0.2220915418123313  0.8750000000000000
  0.7775489185417713  0.7221131347627295  0.8750000000000000
  0.6111410774097702  0.2223563690573323  0.8750000000000000
  0.9444858120236058  0.2221074385746206  0.8750000000000000
  0.2808519830432472  0.7232578234811676  0.3750000000000000
  0.1045181223385449  0.2191559087787591  0.3750000000000000
  0.4363246994052848  0.2227288968418500  0.3750000000000000
  0.6128548425722313  0.7199932978665565  0.3750000000000000
  0.9478198244473499  0.7248060792722612  0.3750000000000000
  0.7762589094195785  0.2246767253645895  0.3750000000000000
  0.1108682957772856  0.8887512590830846  0.8750000000000000
  0.4444584623539657  0.8890212679020836  0.8750000000000000
  0.2778056141524689  0.3887902149625094  0.8750000000000000
  0.6108929926330376  0.3887858788818644  0.8750000000000000
  0.7778218785414169  0.8887829820441355  0.8750000000000000
  0.9444694390532932  0.3890341084463352  0.8750000000000000
  0.1113102394212190  0.3884686745427355  0.3750000000000000
  0.2795924286652018  0.8908366843776231  0.3750000000000000
  0.6107045159294309  0.8900530031809383  0.3750000000000000
  0.9426963805523945  0.8881177983281701  0.3750000000000000
  0.7833695585381246  0.3920429903348865  0.3750000000000000
  0.2777756083880941  0.5556920807975364  0.8750000000000000
  0.1111360928169157  0.0554321756467694  0.8750000000000000
  0.6111481833138329  0.5554756774496017  0.8750000000000000
  0.4441957806714445  0.0554096308929052  0.8750000000000000
  0.9442145766939384  0.5554287570079338  0.8750000000000000
  0.1148324889184792  0.5567273070796028  0.3750000000000000
  0.7778053302676486  0.0556942583572489  0.8750000000000000
  0.2753213660097085  0.0554677907820408  0.3750000000000000
  0.4501436297351476  0.5550855552645828  0.3750000000000000
  0.7845943773247988  0.5610549939933455  0.3750000000000000
  0.6102218301261292  0.0616811361714309  0.3750000000000000
  0.4442120787940645  0.5554411469285514  0.8750000000000000
  0.9405816879165890  0.0543616387227720  0.3750000000000000
  0.2775301519307916  0.7220845487692676  0.8750000000000000
  0.1111129804867723  0.2223622260018027  0.8750000000000000
  0.4444533363729871  0.2221051852425533  0.8750000000000000
  0.6111292591936518  0.7223735281282034  0.8750000000000000
  0.9444888920186861  0.7221116739208517  0.8750000000000000
  0.7775533492202754  0.2220880307730198  0.8750000000000000
  0.1146237633239125  0.7241935073798773  0.3750000000000000
  0.4465866698249102  0.7220501925656957  0.3750000000000000
  0.2668266042815756  0.2165384853675237  0.3750000000000000
  0.7783851373602809  0.7222918453374355  0.3750000000000000
  0.6121182367087329  0.2364753617382529  0.3750000000000000
  0.9415010183097656  0.2223068960541940  0.3750000000000000
  0.1108726372142537  0.3887616846415403  0.8750000000000000
  0.2777973548262529  0.8887611443012841  0.8750000000000000
  0.6108793574569353  0.8887575947690377  0.8750000000000000
  0.4444474323437969  0.3890418469979663  0.8750000000000000
  0.9444656086928235  0.8890373991125221  0.8750000000000000
  0.1115459786634216  0.8896397067440956  0.3750000000000000
  0.7778335161142581  0.3887899083626942  0.8750000000000000
  0.4457261702070449  0.8911788005501737  0.3750000000000000
  0.2736147514735915  0.3831934811283259  0.3750000000000000
  0.2808045719314714  0.5545968574349998  0.3750000000000000
  0.7764192917463720  0.8888748138096094  0.3750000000000000
  0.9470005125983348  0.3903893536853059  0.3750000000000000
  0.1111449988987704  0.5554403851341299  0.8750000000000000
  0.2777739580827535  0.0556817707512145  0.8750000000000000
  0.7778126689526054  0.5557074956639343  0.8750000000000000
  0.6111532834332852  0.0554285151510749  0.8750000000000000
  0.9442063438455306  0.0554225588337327  0.8750000000000000
  0.0554873802929373  0.1109894120742879  0.1251113581748332
  0.5555637073111094  0.6110623832176029  0.1257222195177967
  0.3888235746029071  0.1109245328224167  0.1251796289692250
  0.8890351963006926  0.6111011191340870  0.1252418824702494
  0.7222437557062429  0.1110583113063274  0.1250868176237365
  0.0556211607220071  0.7777232432963775  0.6249253825008649
  0.3888503849989630  0.7776609232830657  0.6246633295344142
  0.2221486757432800  0.2776354468516863  0.6249840174738385
  0.7222413615269955  0.7777243654890402  0.6246142859603729
  0.5556631899537446  0.2778318449411796  0.6252361641772772
  0.8889684102837400  0.2777606730853736  0.6248405473433862
  0.2222331358665384  0.7776652450480405  0.1251036490119603
  0.0555588838986255  0.2777202682550739  0.1251642542610728
  0.3887991724088964  0.2776640229268986  0.1244360529616708
  0.5555352345682528  0.7777074996567485  0.1254201597083527
  0.8889577566700390  0.7777409532058888  0.1252615798802768
  0.7223887836911440  0.2778242775210912  0.1252233562557606
  0.0555395007297891  0.9443309659418890  0.6249361962720869
  0.3888472490970458  0.9442853848907042  0.6248737526379680
  0.2222075121822455  0.4443670873244682  0.6244985868307534
  0.5555908990724304  0.4443179387571022  0.6257009712277156
  0.7221828513473902  0.9443607389969554  0.6248765929312746
  0.8890372370683024  0.4444642362134278  0.6247906405987750
  0.0556309741371863  0.4444020766627440  0.1252380066906893
  0.2221778273410301  0.9442952329176520  0.1251148610976513
  0.5555196582514610  0.9443266862391284  0.1251421311943246
  0.3888944340779829  0.4443054333377098  0.1248086314070462
  0.8888825343611727  0.9443778111578370  0.1250505332042447
  0.7223802665690872  0.4444719695093932  0.1254210456135815
  0.2222425359770196  0.6110514219165766  0.6246426555106256
  0.0554873802929373  0.1109894120742879  0.6248886418251643
  0.5555637073111094  0.6110623832176029  0.6242777804822272
  0.3888235746029071  0.1109245328224167  0.6248203710307745
  0.8890351963006926  0.6111011191340870  0.6247581175297445
  0.0556306541758323  0.6110681923929684  0.1252002182752127
  0.7222437557062429  0.1110583113063274  0.6249131823762497
  0.2221344167234126  0.1109572909717007  0.1250192747858039
  0.3888695568300071  0.6110299263603397  0.1256384073154414
  0.7223790822452718  0.6111063544872530  0.1254502666245918
  0.5555406593073500  0.1110039619180007  0.1253408113825668
  0.3888695568300071  0.6110299263603397  0.6243615926845159
  0.8888840762914194  0.1110357470139548  0.1250171802468724
  0.2222331358665384  0.7776652450480405  0.6248963509880611
  0.0555588838986255  0.2777202682550739  0.6248357457388981
  0.3887991724088964  0.2776640229268986  0.6255639470383333
  0.5555352345682528  0.7777074996567485  0.6245798402916263
  0.8889577566700390  0.7777409532058888  0.6247384201197391
  0.7223887836911437  0.2778242775210912  0.6247766437442664
  0.0556211607220071  0.7777232432963775  0.1250746174991609
  0.3888503849989630  0.7776609232830657  0.1253366704655651
  0.2221486757432800  0.2776354468516863  0.1250159825261704
  0.7222413615269955  0.7777243654890402  0.1253857140395840
  0.5556631899537446  0.2778318449411797  0.1247638358227424
  0.8889684102837400  0.2777606730853736  0.1251594526565945
  0.0556309741371863  0.4444020766627440  0.6247619933093260
  0.2221778273410301  0.9442952329176520  0.6248851389023768
  0.5555196582514610  0.9443266862391284  0.6248578688056591
  0.3888944340779829  0.4443054333377098  0.6251913685929814
  0.8888825343611727  0.9443778111578370  0.6249494667957072
  0.0555395007297891  0.9443309659418890  0.1250638037279282
  0.7223802665690872  0.4444719695093932  0.6245789543864320
  0.3888472490970458  0.9442853848907042  0.1251262473620431
  0.2222075121822455  0.4443670873244682  0.1255014131692236
  0.2222425359770196  0.6110514219165766  0.1253573444893903
  0.5555908990724302  0.4443179387571022  0.1242990287722323
  0.7221828513473912  0.9443607389969554  0.1251234070687159
  0.8890372370683024  0.4444642362134281  0.1252093594012333
  0.0556306541758323  0.6110681923929684  0.6247997817248425
  0.2221344167234126  0.1109572909717007  0.6249807252142384
  0.7223790822452718  0.6111063544872530  0.6245497333753773
  0.5555406593073500  0.1110039619180007  0.6246591886174170
  0.8888840762914194  0.1110357470139548  0.6249828197531679
 
  0.00000000E+00  0.00000000E+00  0.00000000E+00
  0.00000000E+00  0.00000000E+00  0.00000000E+00
  0.00000000E+00  0.00000000E+00  0.00000000E+00
  0.00000000E+00  0.00000000E+00  0.00000000E+00
  0.00000000E+00  0.00000000E+00  0.00000000E+00
  0.00000000E+00  0.00000000E+00  0.00000000E+00
  0.00000000E+00  0.00000000E+00  0.00000000E+00
  0.00000000E+00  0.00000000E+00  0.00000000E+00
  0.00000000E+00  0.00000000E+00  0.00000000E+00
  0.00000000E+00  0.00000000E+00  0.00000000E+00
  0.00000000E+00  0.00000000E+00  0.00000000E+00
  0.00000000E+00  0.00000000E+00  0.00000000E+00
  0.00000000E+00  0.00000000E+00  0.00000000E+00
  0.00000000E+00  0.00000000E+00  0.00000000E+00
  0.00000000E+00  0.00000000E+00  0.00000000E+00
  0.00000000E+00  0.00000000E+00  0.00000000E+00
  0.00000000E+00  0.00000000E+00  0.00000000E+00
  0.00000000E+00  0.00000000E+00  0.00000000E+00
  0.00000000E+00  0.00000000E+00  0.00000000E+00
  0.00000000E+00  0.00000000E+00  0.00000000E+00
  0.00000000E+00  0.00000000E+00  0.00000000E+00
  0.00000000E+00  0.00000000E+00  0.00000000E+00
  0.00000000E+00  0.00000000E+00  0.00000000E+00
  0.00000000E+00  0.00000000E+00  0.00000000E+00
  0.00000000E+00  0.00000000E+00  0.00000000E+00
  0.00000000E+00  0.00000000E+00  0.00000000E+00
  0.00000000E+00  0.00000000E+00  0.00000000E+00
  0.00000000E+00  0.00000000E+00  0.00000000E+00
  0.00000000E+00  0.00000000E+00  0.00000000E+00
  0.00000000E+00  0.00000000E+00  0.00000000E+00
  0.00000000E+00  0.00000000E+00  0.00000000E+00
  0.00000000E+00  0.00000000E+00  0.00000000E+00
  0.00000000E+00  0.00000000E+00  0.00000000E+00
  0.00000000E+00  0.00000000E+00  0.00000000E+00
  0.00000000E+00  0.00000000E+00  0.00000000E+00
  0.00000000E+00  0.00000000E+00  0.00000000E+00
  0.00000000E+00  0.00000000E+00  0.00000000E+00
  0.00000000E+00  0.00000000E+00  0.00000000E+00
  0.00000000E+00  0.00000000E+00  0.00000000E+00
  0.00000000E+00  0.00000000E+00  0.00000000E+00
  0.00000000E+00  0.00000000E+00  0.00000000E+00
  0.00000000E+00  0.00000000E+00  0.00000000E+00
  0.00000000E+00  0.00000000E+00  0.00000000E+00
  0.00000000E+00  0.00000000E+00  0.00000000E+00
  0.00000000E+00  0.00000000E+00  0.00000000E+00
  0.00000000E+00  0.00000000E+00  0.00000000E+00
  0.00000000E+00  0.00000000E+00  0.00000000E+00
  0.00000000E+00  0.00000000E+00  0.00000000E+00
  0.00000000E+00  0.00000000E+00  0.00000000E+00
  0.00000000E+00  0.00000000E+00  0.00000000E+00
  0.00000000E+00  0.00000000E+00  0.00000000E+00
  0.00000000E+00  0.00000000E+00  0.00000000E+00
  0.00000000E+00  0.00000000E+00  0.00000000E+00
  0.00000000E+00  0.00000000E+00  0.00000000E+00
  0.00000000E+00  0.00000000E+00  0.00000000E+00
  0.00000000E+00  0.00000000E+00  0.00000000E+00
  0.00000000E+00  0.00000000E+00  0.00000000E+00
  0.00000000E+00  0.00000000E+00  0.00000000E+00
  0.00000000E+00  0.00000000E+00  0.00000000E+00
  0.00000000E+00  0.00000000E+00  0.00000000E+00
  0.00000000E+00  0.00000000E+00  0.00000000E+00
  0.00000000E+00  0.00000000E+00  0.00000000E+00
  0.00000000E+00  0.00000000E+00  0.00000000E+00
  0.00000000E+00  0.00000000E+00  0.00000000E+00
  0.00000000E+00  0.00000000E+00  0.00000000E+00
  0.00000000E+00  0.00000000E+00  0.00000000E+00
  0.00000000E+00  0.00000000E+00  0.00000000E+00
  0.00000000E+00  0.00000000E+00  0.00000000E+00
  0.00000000E+00  0.00000000E+00  0.00000000E+00
  0.00000000E+00  0.00000000E+00  0.00000000E+00
  0.00000000E+00  0.00000000E+00  0.00000000E+00
  0.00000000E+00  0.00000000E+00  0.00000000E+00
  0.00000000E+00  0.00000000E+00  0.00000000E+00
  0.00000000E+00  0.00000000E+00  0.00000000E+00
  0.00000000E+00  0.00000000E+00  0.00000000E+00
  0.00000000E+00  0.00000000E+00  0.00000000E+00
  0.00000000E+00  0.00000000E+00  0.00000000E+00
  0.00000000E+00  0.00000000E+00  0.00000000E+00
  0.00000000E+00  0.00000000E+00  0.00000000E+00
  0.00000000E+00  0.00000000E+00  0.00000000E+00
  0.00000000E+00  0.00000000E+00  0.00000000E+00
  0.00000000E+00  0.00000000E+00  0.00000000E+00
  0.00000000E+00  0.00000000E+00  0.00000000E+00
  0.00000000E+00  0.00000000E+00  0.00000000E+00
  0.00000000E+00  0.00000000E+00  0.00000000E+00
  0.00000000E+00  0.00000000E+00  0.00000000E+00
  0.00000000E+00  0.00000000E+00  0.00000000E+00
  0.00000000E+00  0.00000000E+00  0.00000000E+00
  0.00000000E+00  0.00000000E+00  0.00000000E+00
  0.00000000E+00  0.00000000E+00  0.00000000E+00
  0.00000000E+00  0.00000000E+00  0.00000000E+00
  0.00000000E+00  0.00000000E+00  0.00000000E+00
  0.00000000E+00  0.00000000E+00  0.00000000E+00
  0.00000000E+00  0.00000000E+00  0.00000000E+00
  0.00000000E+00  0.00000000E+00  0.00000000E+00
  0.00000000E+00  0.00000000E+00  0.00000000E+00
  0.00000000E+00  0.00000000E+00  0.00000000E+00
  0.00000000E+00  0.00000000E+00  0.00000000E+00
  0.00000000E+00  0.00000000E+00  0.00000000E+00
  0.00000000E+00  0.00000000E+00  0.00000000E+00
  0.00000000E+00  0.00000000E+00  0.00000000E+00
  0.00000000E+00  0.00000000E+00  0.00000000E+00
  0.00000000E+00  0.00000000E+00  0.00000000E+00
  0.00000000E+00  0.00000000E+00  0.00000000E+00
  0.00000000E+00  0.00000000E+00  0.00000000E+00
  0.00000000E+00  0.00000000E+00  0.00000000E+00
  0.00000000E+00  0.00000000E+00  0.00000000E+00
  0.00000000E+00  0.00000000E+00  0.00000000E+00
  0.00000000E+00  0.00000000E+00  0.00000000E+00
  0.00000000E+00  0.00000000E+00  0.00000000E+00
  0.00000000E+00  0.00000000E+00  0.00000000E+00
  0.00000000E+00  0.00000000E+00  0.00000000E+00
  0.00000000E+00  0.00000000E+00  0.00000000E+00
  0.00000000E+00  0.00000000E+00  0.00000000E+00
  0.00000000E+00  0.00000000E+00  0.00000000E+00
  0.00000000E+00  0.00000000E+00  0.00000000E+00
  0.00000000E+00  0.00000000E+00  0.00000000E+00
  0.00000000E+00  0.00000000E+00  0.00000000E+00
  0.00000000E+00  0.00000000E+00  0.00000000E+00
  0.00000000E+00  0.00000000E+00  0.00000000E+00
  0.00000000E+00  0.00000000E+00  0.00000000E+00
  0.00000000E+00  0.00000000E+00  0.00000000E+00
  0.00000000E+00  0.00000000E+00  0.00000000E+00
  0.00000000E+00  0.00000000E+00  0.00000000E+00
  0.00000000E+00  0.00000000E+00  0.00000000E+00
  0.00000000E+00  0.00000000E+00  0.00000000E+00
  0.00000000E+00  0.00000000E+00  0.00000000E+00
  0.00000000E+00  0.00000000E+00  0.00000000E+00
  0.00000000E+00  0.00000000E+00  0.00000000E+00
  0.00000000E+00  0.00000000E+00  0.00000000E+00
  0.00000000E+00  0.00000000E+00  0.00000000E+00
  0.00000000E+00  0.00000000E+00  0.00000000E+00
  0.00000000E+00  0.00000000E+00  0.00000000E+00
  0.00000000E+00  0.00000000E+00  0.00000000E+00
  0.00000000E+00  0.00000000E+00  0.00000000E+00
  0.00000000E+00  0.00000000E+00  0.00000000E+00
  0.00000000E+00  0.00000000E+00  0.00000000E+00
  0.00000000E+00  0.00000000E+00  0.00000000E+00
  0.00000000E+00  0.00000000E+00  0.00000000E+00
  0.00000000E+00  0.00000000E+00  0.00000000E+00
  0.00000000E+00  0.00000000E+00  0.00000000E+00
  0.00000000E+00  0.00000000E+00  0.00000000E+00
  0.00000000E+00  0.00000000E+00  0.00000000E+00
  0.00000000E+00  0.00000000E+00  0.00000000E+00
  0.00000000E+00  0.00000000E+00  0.00000000E+00
  0.00000000E+00  0.00000000E+00  0.00000000E+00
  0.00000000E+00  0.00000000E+00  0.00000000E+00
  0.00000000E+00  0.00000000E+00  0.00000000E+00
  0.00000000E+00  0.00000000E+00  0.00000000E+00
  0.00000000E+00  0.00000000E+00  0.00000000E+00
  0.00000000E+00  0.00000000E+00  0.00000000E+00
  0.00000000E+00  0.00000000E+00  0.00000000E+00
  0.00000000E+00  0.00000000E+00  0.00000000E+00
  0.00000000E+00  0.00000000E+00  0.00000000E+00
  0.00000000E+00  0.00000000E+00  0.00000000E+00
  0.00000000E+00  0.00000000E+00  0.00000000E+00
  0.00000000E+00  0.00000000E+00  0.00000000E+00
  0.00000000E+00  0.00000000E+00  0.00000000E+00
  0.00000000E+00  0.00000000E+00  0.00000000E+00
  0.00000000E+00  0.00000000E+00  0.00000000E+00
  0.00000000E+00  0.00000000E+00  0.00000000E+00
  0.00000000E+00  0.00000000E+00  0.00000000E+00
  0.00000000E+00  0.00000000E+00  0.00000000E+00
  0.00000000E+00  0.00000000E+00  0.00000000E+00
  0.00000000E+00  0.00000000E+00  0.00000000E+00
  0.00000000E+00  0.00000000E+00  0.00000000E+00
  0.00000000E+00  0.00000000E+00  0.00000000E+00
  0.00000000E+00  0.00000000E+00  0.00000000E+00
  0.00000000E+00  0.00000000E+00  0.00000000E+00
  0.00000000E+00  0.00000000E+00  0.00000000E+00
  0.00000000E+00  0.00000000E+00  0.00000000E+00
  0.00000000E+00  0.00000000E+00  0.00000000E+00
  0.00000000E+00  0.00000000E+00  0.00000000E+00
  0.00000000E+00  0.00000000E+00  0.00000000E+00
  0.00000000E+00  0.00000000E+00  0.00000000E+00
  0.00000000E+00  0.00000000E+00  0.00000000E+00
  0.00000000E+00  0.00000000E+00  0.00000000E+00
  0.00000000E+00  0.00000000E+00  0.00000000E+00
  0.00000000E+00  0.00000000E+00  0.00000000E+00
  0.00000000E+00  0.00000000E+00  0.00000000E+00
  0.00000000E+00  0.00000000E+00  0.00000000E+00
  0.00000000E+00  0.00000000E+00  0.00000000E+00
  0.00000000E+00  0.00000000E+00  0.00000000E+00
  0.00000000E+00  0.00000000E+00  0.00000000E+00
  0.00000000E+00  0.00000000E+00  0.00000000E+00
  0.00000000E+00  0.00000000E+00  0.00000000E+00
  0.00000000E+00  0.00000000E+00  0.00000000E+00
  0.00000000E+00  0.00000000E+00  0.00000000E+00
  0.00000000E+00  0.00000000E+00  0.00000000E+00
  0.00000000E+00  0.00000000E+00  0.00000000E+00
  0.00000000E+00  0.00000000E+00  0.00000000E+00
  0.00000000E+00  0.00000000E+00  0.00000000E+00
  0.00000000E+00  0.00000000E+00  0.00000000E+00
  0.00000000E+00  0.00000000E+00  0.00000000E+00
  0.00000000E+00  0.00000000E+00  0.00000000E+00
  0.00000000E+00  0.00000000E+00  0.00000000E+00
  0.00000000E+00  0.00000000E+00  0.00000000E+00
  0.00000000E+00  0.00000000E+00  0.00000000E+00
  0.00000000E+00  0.00000000E+00  0.00000000E+00
  0.00000000E+00  0.00000000E+00  0.00000000E+00
  0.00000000E+00  0.00000000E+00  0.00000000E+00
  0.00000000E+00  0.00000000E+00  0.00000000E+00
  0.00000000E+00  0.00000000E+00  0.00000000E+00
  0.00000000E+00  0.00000000E+00  0.00000000E+00
  0.00000000E+00  0.00000000E+00  0.00000000E+00
  0.00000000E+00  0.00000000E+00  0.00000000E+00
  0.00000000E+00  0.00000000E+00  0.00000000E+00
  0.00000000E+00  0.00000000E+00  0.00000000E+00
  0.00000000E+00  0.00000000E+00  0.00000000E+00
  0.00000000E+00  0.00000000E+00  0.00000000E+00
  0.00000000E+00  0.00000000E+00  0.00000000E+00
  0.00000000E+00  0.00000000E+00  0.00000000E+00
  0.00000000E+00  0.00000000E+00  0.00000000E+00
  0.00000000E+00  0.00000000E+00  0.00000000E+00
  0.00000000E+00  0.00000000E+00  0.00000000E+00
  0.00000000E+00  0.00000000E+00  0.00000000E+00
  0.00000000E+00  0.00000000E+00  0.00000000E+00
  0.00000000E+00  0.00000000E+00  0.00000000E+00
  0.00000000E+00  0.00000000E+00  0.00000000E+00
  0.00000000E+00  0.00000000E+00  0.00000000E+00
  0.00000000E+00  0.00000000E+00  0.00000000E+00
  0.00000000E+00  0.00000000E+00  0.00000000E+00
  0.00000000E+00  0.00000000E+00  0.00000000E+00
  0.00000000E+00  0.00000000E+00  0.00000000E+00
  0.00000000E+00  0.00000000E+00  0.00000000E+00
  0.00000000E+00  0.00000000E+00  0.00000000E+00
  0.00000000E+00  0.00000000E+00  0.00000000E+00
  0.00000000E+00  0.00000000E+00  0.00000000E+00
  0.00000000E+00  0.00000000E+00  0.00000000E+00
  0.00000000E+00  0.00000000E+00  0.00000000E+00
  0.00000000E+00  0.00000000E+00  0.00000000E+00
  0.00000000E+00  0.00000000E+00  0.00000000E+00
  0.00000000E+00  0.00000000E+00  0.00000000E+00
  0.00000000E+00  0.00000000E+00  0.00000000E+00
  0.00000000E+00  0.00000000E+00  0.00000000E+00
  0.00000000E+00  0.00000000E+00  0.00000000E+00
  0.00000000E+00  0.00000000E+00  0.00000000E+00
  0.00000000E+00  0.00000000E+00  0.00000000E+00
  0.00000000E+00  0.00000000E+00  0.00000000E+00
  0.00000000E+00  0.00000000E+00  0.00000000E+00
  0.00000000E+00  0.00000000E+00  0.00000000E+00
  0.00000000E+00  0.00000000E+00  0.00000000E+00
  0.00000000E+00  0.00000000E+00  0.00000000E+00
  0.00000000E+00  0.00000000E+00  0.00000000E+00
  0.00000000E+00  0.00000000E+00  0.00000000E+00
  0.00000000E+00  0.00000000E+00  0.00000000E+00
  0.00000000E+00  0.00000000E+00  0.00000000E+00
  0.00000000E+00  0.00000000E+00  0.00000000E+00