 N Si B 
 1.0
 17.527899999999772   0.000000000000000   0.000000000000000
 -8.763949999999658  15.179606674993195   0.000000000000000
  0.000000000000001   0.000000000000002  15.000000000000000
 N Si B 
  48   1  48
Cartesian
  8.774302409693863  13.743575959501751   1.812487022329575 
 16.272488058691263   0.726362380415262   1.807859894994615 
 15.013939540879928   2.893010230915563   1.765546100058210 
 13.763603316570375   5.059868891664398   1.727805951834510 
 12.519065933974147   7.230410199842109   1.708489476142080 
 11.281187046913896   9.399129693080619   1.717974768280320 
 10.033167360065669  11.571558377680329   1.762242403897860 
 -6.248484843602696  13.728817967592981   1.799024330690700 
  1.250158362945881   0.711317033359221   1.814016277368240 
 -0.013820600343686   2.875145131640070   1.766418763849065 
 -1.261945670535389   5.052214252792235   1.713116626695420 
 -2.500865831699820   7.224256877910881   1.686880708215900 
 -3.741480818949923   9.393042396467864   1.696319192253525 
 -4.991744130641764  11.561332873791532   1.742246702564460 
 -3.742995232160707  13.724122991021222   1.742828575083345 
  3.760750515866412   0.707108635496222   1.764465879062055 
  2.487539219833714   2.854232803325859   1.716065338712115 
  1.226955562812318   5.017728969682733   1.638323438152110 
  0.004971951033896   7.214107102060939   1.636390574008815 
 -1.231949889699199   9.387889531487218   1.650976641886110 
 -2.486814895291068  11.556970394222789   1.688108707481775 
 -1.240052177355516  13.725518911076561   1.695912190234215 
  6.266135180415930   0.712408210343275   1.719678692485125 
  5.003896099913798   2.868308867198818   1.640835719620380 
  3.713676595352751   4.974860345450762   1.399188962784990 
  2.486509356701823   7.152872143311636   1.473082193663985 
  1.285586698070165   9.379025436243600   1.591103743188435 
  0.019164548977818  11.554876433715821   1.650284401347045 
  1.258523214578287  13.735573631616793   1.685826600498540 
  8.763228881321208   0.724808422564672   1.708968301453815 
  7.501956149314583   2.894669570424431   1.670149491538995 
  6.231138009662125   5.059868891664398   1.455887479166865 
  3.813920162951353   9.451819710159695   1.472474224307925 
  2.520234103395481  11.570501978971645   1.635164483838525 
  3.759067279166534  13.748702823207418   1.711226806761420 
 11.262463888420385   0.732315893503600   1.727742491901285 
 10.002737131259440   2.902370470557206   1.708788266352840 
  8.738496055404127   5.076077033216152   1.619102489037375 
  7.496286286204681   7.255526850869352   1.454413223933895 
  6.313628713038532   9.478158855743169   1.397397927381195 
  5.033280940058854  11.610385191089778   1.636148294964030 
  6.268450628039317  13.756352138733780   1.763777638940220 
 13.766877715158016   0.733027958420038   1.764807077630925 
 12.508852130131460   2.899324541026916   1.742836989228885 
 11.253059266663815   5.068256948703259   1.708051408799940 
 10.009256112630782   7.237787548262453   1.668244031177565 
  8.783090219985468   9.414369386190469   1.637864918284500 
  7.537147506244056  11.600581937143179   1.712744011462590 
  4.064394686321544   7.774317954816486   1.092419285843490 
  7.520549924041401  14.466897866618941   1.799892282577605 
 15.019348036938570   1.449906041023041   1.781573114609445 
 13.761910889580392   3.617815634445697   1.745800546820565 
 12.509661932112476   5.786052903865693   1.715982887650200 
 11.267930129978044   7.954472290936319   1.701270638838885 
 10.034775653884221  10.127356448868767   1.712124309688305 
  8.786933785412380  12.305380931059167   1.770232520694630 
 -7.501654091582675  14.452334826779373   1.814500362893625 
 -0.003124978166003   1.435514026240179   1.801398057707940 
 -1.261327019821546   3.607559978265023   1.749884365911210 
 -2.511115715955174   5.779672545596147   1.710126196460100 
 -3.752018849705573   7.948526837007853   1.697598370802355 
 -4.993887285703168  10.119737783328796   1.720882906720935 
 -6.242689388679699  12.286340345606671   1.772535860674680 
 -4.996328305266747  14.445006905675747   1.773562102280745 
  2.502053577807216   1.419433182255074   1.772693109456030 
  1.236712790467120   3.578693795396635   1.708122419287890 
 -0.010384430561893   5.766457359082992   1.664592967152615 
 -1.244337014381478   7.941956602781918   1.658776306866090 
 -2.485830249520078  10.111859837495354   1.678069167901785 
 -3.739237336032110  12.280070251106450   1.725646026042750 
 -2.492536661106378  14.446715571855290   1.721613072748215 
  5.012357719395894   1.427802226061645   1.714612061568735 
  3.736376591372464   3.555332955111439   1.599115225207470 
  2.466090805369886   5.710400898145267   1.486652178479865 
  1.266676466912964   7.925789785883892   1.577622507188310 
  0.026478728105242  10.106008872315067   1.631721532816935 
 -1.234885128237167  12.278625975438940   1.677566454734595 
  0.005707055166127  14.456947942143445   1.697200116515700 
  7.510643867188833   1.446262335908504   1.702709166524295 
  6.247552123783798   3.609305295376596   1.603173676885845 
  4.954324930474497   5.655248728894052   1.169105734432740 
  2.535977993951236  10.119737783328796   1.577047928792880 
  1.265252080189613  12.288535890820226   1.657694210902860 
  2.504473994472191  14.466753974748530   1.709138731718700 
 10.009395134986763   1.455177872758991   1.716520585063290 
  8.748802458725475   3.627225874991211   1.665425432830005 
  7.484179668922120   5.800190267758046   1.497815771444190 
  6.344478137322564   8.063400108628779   1.168317749375505 
  5.052867476787650  10.190778251514129   1.485249027633510 
  3.766267293416636  12.307644808917534   1.662741455940780 
  5.010472028549852  14.470588987562053   1.748044350539115 
 12.513123771305555   1.454897390892038   1.745603318878590 
 11.255258214414766   3.623189526516572   1.719988452992520 
  9.998324711889918   5.791736341739545   1.664536366618470 
  8.763193428988872   7.966797639500234   1.600890943805310 
  7.554353687773589  10.168490933326218   1.596347392575675 
  6.284372725598638  12.321564598420485   1.705256089266660 
