 N B C 
 1.0
 17.527899999999772   0.000000000000000   0.000000000000000
 -8.763949999999658  15.179606674993195   0.000000000000000
  0.000000000000001   0.000000000000002  15.000000000000000
 N B C 
  47  48   3
Cartesian
  8.769849265974702  13.741226014062223   1.665184183546005 
 16.277418508238092   0.726354537666928   1.665143959218405 
 15.025963832859681   2.893325583251575   1.665506836118910 
 13.774960737969881   5.059868891664398   1.665267710486340 
 12.523737670084902   7.227954089578546   1.664521988471955 
 11.277367542675179   9.398544237055487   1.665444906585075 
 10.025820873792600  11.571247874390449   1.665867344546805 
 -6.257393125913900  13.735177320787518   1.664765536294875 
  1.250214341165233   0.720142087118147   1.665334861334925 
  0.001291806792093   2.892861355072097   1.664726685427200 
 -1.244127211076386   5.064371778070337   1.664942160851025 
 -2.501986046690133   7.228651770698832   1.665372485680455 
 -3.759064103529502   9.396671508964545   1.665498295580520 
 -5.005559428057213  11.567260706591473   1.664948288561505 
 -3.756339575101959  13.733658771754897   1.664814802415970 
  3.755032359153081   0.716533348369864   1.665857638025625 
  2.495994194214648   2.874352969994642   1.665572881231590 
  1.262017310418469   5.064239635335684   1.665271232461290 
  0.009007957908430   7.234504517184027   1.665787735422630 
 -1.270525612450209   9.398265309504405   1.666332936056790 
 -2.509693320620060  11.567590347703989   1.665595976336805 
 -1.255777888119883  13.736829248320243   1.665415189314945 
  6.260614959796032   0.718000197997988   1.665645458789790 
  5.008175875784139   2.874579974397300   1.666055245930095 
  3.745676729719957   5.013257720294766   1.665236308846395 
  2.536467662959890   7.246783357453070   1.665245867213805 
  1.206592176133324   9.410948057082766   1.665217793948280 
 -0.014324987467021  11.573896677510854   1.666078021669290 
  1.245644890755650  13.740383377482495   1.665362643805740 
  8.763651599636997   0.722716584343695   1.664616421929615 
  7.514346661527502   2.882796307396035   1.665340115288970 
  6.258897102386687   5.037647986291771   1.664892283957920 
  2.484153159052082  11.575601358099563   1.664429152701345 
  3.759447373620172  13.727921707166379   1.664985409747440 
 11.268773563459501   0.721387215756602   1.665321335251725 
 10.015453504342439   2.892201236292656   1.665369049784475 
  8.761892423724811   5.063432718313407   1.664983693544220 
  7.522221714370285   7.238774829435651   1.664871673939515 
  6.309473458714741   9.425688345426243   1.664359260618420 
  5.021904577878884  11.569332400979794   1.664570354657370 
  6.265463614923192  13.740022708545958   1.665031799362500 
 13.772208552379444   0.722205489129443   1.665584150548320 
 12.519782162235064   2.891491441179646   1.665929680338240 
 11.267786661044321   5.059868891664398   1.665374654248950 
 10.023941997930081   7.230213500710687   1.665255278190300 
  8.787297122197050   9.404166894517612   1.665938943297975 
  7.529737920100915  11.582153793949429   1.665528218960910 
  7.518425626617628  14.462747845939099   1.665243695189895 
 15.024347507598629   1.445623812037182   1.665808882791105 
 13.770940777389907   3.613787039992541   1.665948319594305 
 12.519889881497251   5.783159240514101   1.665118674233445 
 11.276471300924003   7.953895043148946   1.665209435568735 
 10.037355595279635  10.128459622612819   1.666382268407745 
  8.781977456840778  12.302485874155396   1.666013829158100 
 -7.507394200102135  14.456752847804900   1.665321098778420 
  0.000517350380741   1.442851673555040   1.665252739861800 
 -1.252462972555800   3.611088667616986   1.665099063003945 
 -2.507101805383768   5.783740365826426   1.665414002428830 
 -3.758064259834125   7.952925661259392   1.665310770442425 
 -5.005429260173523  10.124011256646506   1.665559897345380 
 -6.252258093510163  12.292900717530138   1.665298333347900 
 -5.006974374015620  14.452259418204218   1.665190118631885 
  2.500836421420868   1.427350557235732   1.665993261106800 
  1.251276156450068   3.600012612305524   1.665371221573065 
 -0.002919123086894   5.780714486811173   1.665452783435730 
 -1.264446593707396   7.957492139304487   1.666131084371220 
 -2.521173002386597  10.125910358314155   1.666239833215215 
 -3.759138633813184  12.291376036984316   1.665065508174060 
 -2.506964777992727  14.454900691558192   1.665551634347055 
  5.008889481578946   1.428411432843424   1.666479797211030 
  3.749693143516610   3.566816226170968   1.665678700794195 
  2.518014438383622   5.735841691613924   1.665764252190870 
  1.218714302050761   7.986308946482711   1.665618698657895 
 -0.043982506366699  10.137831041008923   1.666359436527690 
 -1.266282336662957  12.297602664411263   1.666148939356665 
 -0.006187829809765  14.461520467015569   1.665357321224850 
  7.512989157916552   1.437977692757492   1.665352657303215 
  6.265106063630745   3.587751103647630   1.665944771372385 
  4.999357845999917   5.703867023575142   1.664966347292295 
  2.431274530058232  10.151587932982821   1.663266556565970 
  1.231562319262239  12.306032334594065   1.665756969400050 
  2.501222801562507  14.458535064323272   1.665480428544255 
 10.014981603979081   1.445339248310574   1.665177752170350 
  8.764022543158148   3.611325441449347   1.665355782423825 
  7.514201468446403   5.783645721220210   1.664985278505405 
  6.303796007449401   7.991744622319253   1.664508756722910 
  5.064639811387845  10.137617046717946   1.663422927843150 
  3.757851867421645  12.289978021527633   1.664684847340890 
  5.010954654001306  14.458570659774338   1.665290945313990 
 12.519518872531517   1.445701652029167   1.666017653057760 
 11.267516007103929   3.614167801363206   1.666006171396695 
 10.018883957576447   5.784365295942623   1.665330239370030 
  8.784137308146430   7.957706045646933   1.665811587571380 
  7.561517510089377  10.148467393814505   1.665503785517610 
  6.275484303215713  12.302672673860968   1.665338029175955 
  3.713545718670990   7.926332716485907   1.664255798373405 
  4.958702218783595   7.229728275315275   1.664549637310095 
  3.732353899327005   9.353347826466175   1.660613025796335 
