B N P                                   
   1.0000000000000000     
     8.7639499999999995  -15.1796066749929999    0.0000000000000000
     8.7639499999999995   15.1796066749929999    0.0000000000000000
     0.0000000000000000    0.0000000000000000   15.0000000000000000
   B    N    P 
    48    48     1
Selective dynamics
Direct
  0.9053100876612162  0.9534674294751512  0.1109951344189204   T   T   T
  0.9041362189225760  0.0958658022734166  0.1109918174673195   T   T   T
  0.9037879934757496  0.2387642685394329  0.1110649655446358   T   T   T
  0.9038149987568107  0.3816302343142328  0.1110007494812021   T   T   T
  0.9046408504038812  0.5245214307949807  0.1109999257131579   T   T   T
  0.9065033963956389  0.6678280848412351  0.1110838980939056   T   T   T
  0.9070388876447157  0.8114736977064457  0.1110544550093459   T   T   T
  0.0477651160230441  0.9522369051729613  0.1109911507012816   T   T   T
  0.0465345917208555  0.0946919335347795  0.1109951344189204   T   T   T
  0.0463309678101106  0.2379672137391581  0.1109975102520192   T   T   T
  0.0468165468901567  0.3811247656926651  0.1110017749811507   T   T   T
  0.0478165062603939  0.5238682433624208  0.1110025803455689   T   T   T
  0.0484709027096979  0.6667151324574991  0.1110368207930826   T   T   T
  0.0485756320596594  0.8096538940546314  0.1110144079244545   T   T   T
  0.1903481271413827  0.9514263891363504  0.1110144079244545   T   T   T
  0.1885283234895649  0.0929631335512841  0.1110544550093463   T   T   T
  0.1876953816465532  0.2357944683549851  0.1109961867521222   T   T   T
  0.1889761762097878  0.3801165680457321  0.1109769169688326   T   T   T
  0.1913113428371571  0.5233052100988103  0.1110289784771726   T   T   T
  0.1912689638114049  0.6661495282808053  0.1110703889116325   T   T   T
  0.1910402679885039  0.8089617532074979  0.1110008023093777   T   T   T
  0.3332868887395081  0.9515311184863062  0.1110368207930826   T   T   T
  0.3321739363557631  0.0934986248003650  0.1110838980939056   T   T   T
  0.3286183521744224  0.2328277734281202  0.1109765458373625   T   T   T
  0.3282730167210620  0.3763368248963254  0.1109708931284745   T   T   T
  0.3351626352622763  0.5224576448217463  0.1110728955403828   T   T   T
  0.3343907302584984  0.6656112909384941  0.1110963888624396   T   T   T
  0.3338524929161878  0.8087330573845982  0.1110703889116325   T   T   T
  0.4761337778345730  0.9521855149356109  0.1110025803455686   T   T   T
  0.4754805904020154  0.0953611707921257  0.1109999257131579   T   T   T
  0.4740554294684367  0.2379218990022822  0.1110138971277865   T   T   T
  0.4660061343960893  0.3736457435172477  0.1110666444820583   T   T   T
  0.4775443763752414  0.6648393859347173  0.1110728955403828   T   T   T
  0.4766968110981890  0.8086906783588460  0.1110289784771729   T   T   T
  0.6188772555033436  0.9531854743058441  0.1110017749811507   T   T   T
  0.6183717868817703  0.0961870224391825  0.1110007494812021   T   T   T
  0.6177428579202999  0.2394343973549857  0.1110184955434035   T   T   T
  0.6169922431620928  0.3830097780339036  0.1110484027212488   T   T   T
  0.6263562776787590  0.5339958868009093  0.1110666444820583   T   T   T
  0.6236651962996832  0.6717290044759294  0.1109708931284745   T   T   T
  0.6198854531502708  0.8110258449862178  0.1109769169688326   T   T   T
  0.7620348074568472  0.9536710533858869  0.1109975102520192   T   T   T
  0.7612377526565730  0.0962140277202475  0.1110649655446358   T   T   T
  0.7608161920578782  0.2391858291381296  0.1110735347092818   T   T   T
  0.7605676238410113  0.3822591632757056  0.1110184955434035   T   T   T
  0.7620801221937124  0.5259465917285521  0.1110138971277865   T   T   T
  0.7671742477678920  0.6713836690225818  0.1109765458373625   T   T   T
  0.7642075528410170  0.8123066395494503  0.1109961867521222   T   T   T
  0.9530767540792598  0.9058297906636328  0.1109951030016685   T   T   T
  0.9518418006832421  0.0481596012347616  0.1109694213474773   T   T   T
  0.9514200211202068  0.1910030786185586  0.1110023096026088   T   T   T
  0.9515115913762502  0.3340072094776857  0.1110028398106265   T   T   T
  0.9520783325696852  0.4767607241876483  0.1109627489536861   T   T   T
  0.9529893520259394  0.6195211453187466  0.1110341138757386   T   T   T
  0.9534423873226906  0.7626732125041457  0.1110580098694597   T   T   T
  0.0954345171861937  0.9045668847318036  0.1109645665153984   T   T   T
  0.0941716112543678  0.0469246478387454  0.1109951030016685   T   T   T
  0.0935150191969021  0.1897412935063552  0.1109823541210907   T   T   T
  0.0943215413715487  0.3333009107319319  0.1109786830083647   T   T   T
  0.0958025741075530  0.4762616766311699  0.1109889387438433   T   T   T
  0.0959480024241831  0.6189120885876876  0.1110208998019751   T   T   T
  0.0958879247092599  0.7617370213356821  0.1109846231434979   T   T   T
  0.2382643805823236  0.9041134772087412  0.1109846231434979   T   T   T
  0.2373281894138603  0.0465590145953164  0.1110580098694597   T   T   T
  0.2349996515558315  0.1878162442239944  0.1110073783815420   T   T   T
  0.2351889248401895  0.3311656147775677  0.1109418545824042   T   T   T
  0.2397074773346944  0.4753952216525558  0.1109923176592346   T   T   T
  0.2392938357213666  0.6183280745921305  0.1110676027586951   T   T   T
  0.2387629309102239  0.7612384710077785  0.1110416460654469   T   T   T
  0.3810893133303115  0.9040533994938174  0.1110208998019751   T   T   T
  0.3804802565992615  0.0470120498920629  0.1110341138757386   T   T   T
  0.3792373860205662  0.1891379786421665  0.1110197342883594   T   T   T
  0.3745429767531634  0.3279244655991081  0.1108981531104132   T   T   T
  0.3818521228794755  0.4714290279482189  0.1110709320261511   T   T   T
  0.3827936074371389  0.6172077944808584  0.1110864082608307   T   T   T
  0.3816733273258699  0.7607075661966427  0.1110676027586951   T   T   T
  0.5237397252858226  0.9041988278104504  0.1109889387438433   T   T   T
  0.5232406777293500  0.0479230693483233  0.1109627489536861   T   T   T
  0.5224827046287606  0.1915847302653503  0.1109807248605872   T   T   T
  0.5210121074031302  0.3357986736040862  0.1110390621296287   T   T   T
  0.5285723739687712  0.6181492790385174  0.1110709320261511   T   T   T
  0.5246061802644350  0.7602939245833167  0.1109923176592346   T   T   T
  0.6667004911850702  0.9056798605464440  0.1109786830083647   T   T   T
  0.6659941924393109  0.0484898105417513  0.1110028398106265   T   T   T
  0.6654123810341467  0.1918852429726549  0.1110155213675998   T   T   T
  0.6644692141824204  0.3355321877345809  0.1110016205678199   T   T   T
  0.6642027283129036  0.4789892945138621  0.1110390621296287   T   T   T
  0.6720769363178974  0.6254584251648370  0.1108981531104132   T   T   T
  0.6688357871394249  0.7648124770778220  0.1109418545824042   T   T   T
  0.8102601084116406  0.9064863827210925  0.1109823541210907   T   T   T
  0.8089983232994353  0.0485813807977980  0.1110023096026088   T   T   T
  0.8084846259808547  0.1915167759371376  0.1110767775388459   T   T   T
  0.8081161589453426  0.3345890208828444  0.1110155213675998   T   T   T
  0.8084166716526469  0.4775186972882342  0.1109807248605872   T   T   T
  0.8108634232758382  0.6207640158974326  0.1110197342883594   T   T   T
  0.8121851576940032  0.7650017503621783  0.1110073783815420   T   T   T
  0.4925517665629980  0.5074502546339890  0.1116256757635335   T   T   T

  0.00000000E+00  0.00000000E+00  0.00000000E+00
  0.00000000E+00  0.00000000E+00  0.00000000E+00
  0.00000000E+00  0.00000000E+00  0.00000000E+00
  0.00000000E+00  0.00000000E+00  0.00000000E+00
  0.00000000E+00  0.00000000E+00  0.00000000E+00
  0.00000000E+00  0.00000000E+00  0.00000000E+00
  0.00000000E+00  0.00000000E+00  0.00000000E+00
  0.00000000E+00  0.00000000E+00  0.00000000E+00
  0.00000000E+00  0.00000000E+00  0.00000000E+00
  0.00000000E+00  0.00000000E+00  0.00000000E+00
  0.00000000E+00  0.00000000E+00  0.00000000E+00
  0.00000000E+00  0.00000000E+00  0.00000000E+00
  0.00000000E+00  0.00000000E+00  0.00000000E+00
  0.00000000E+00  0.00000000E+00  0.00000000E+00
  0.00000000E+00  0.00000000E+00  0.00000000E+00
  0.00000000E+00  0.00000000E+00  0.00000000E+00
  0.00000000E+00  0.00000000E+00  0.00000000E+00
  0.00000000E+00  0.00000000E+00  0.00000000E+00
  0.00000000E+00  0.00000000E+00  0.00000000E+00
  0.00000000E+00  0.00000000E+00  0.00000000E+00
  0.00000000E+00  0.00000000E+00  0.00000000E+00
  0.00000000E+00  0.00000000E+00  0.00000000E+00
  0.00000000E+00  0.00000000E+00  0.00000000E+00
  0.00000000E+00  0.00000000E+00  0.00000000E+00
  0.00000000E+00  0.00000000E+00  0.00000000E+00
  0.00000000E+00  0.00000000E+00  0.00000000E+00
  0.00000000E+00  0.00000000E+00  0.00000000E+00
  0.00000000E+00  0.00000000E+00  0.00000000E+00
  0.00000000E+00  0.00000000E+00  0.00000000E+00
  0.00000000E+00  0.00000000E+00  0.00000000E+00
  0.00000000E+00  0.00000000E+00  0.00000000E+00
  0.00000000E+00  0.00000000E+00  0.00000000E+00
  0.00000000E+00  0.00000000E+00  0.00000000E+00
  0.00000000E+00  0.00000000E+00  0.00000000E+00
  0.00000000E+00  0.00000000E+00  0.00000000E+00
  0.00000000E+00  0.00000000E+00  0.00000000E+00
  0.00000000E+00  0.00000000E+00  0.00000000E+00
  0.00000000E+00  0.00000000E+00  0.00000000E+00
  0.00000000E+00  0.00000000E+00  0.00000000E+00
  0.00000000E+00  0.00000000E+00  0.00000000E+00
  0.00000000E+00  0.00000000E+00  0.00000000E+00
  0.00000000E+00  0.00000000E+00  0.00000000E+00
  0.00000000E+00  0.00000000E+00  0.00000000E+00
  0.00000000E+00  0.00000000E+00  0.00000000E+00
  0.00000000E+00  0.00000000E+00  0.00000000E+00
  0.00000000E+00  0.00000000E+00  0.00000000E+00
  0.00000000E+00  0.00000000E+00  0.00000000E+00
  0.00000000E+00  0.00000000E+00  0.00000000E+00
  0.00000000E+00  0.00000000E+00  0.00000000E+00
  0.00000000E+00  0.00000000E+00  0.00000000E+00
  0.00000000E+00  0.00000000E+00  0.00000000E+00
  0.00000000E+00  0.00000000E+00  0.00000000E+00
  0.00000000E+00  0.00000000E+00  0.00000000E+00
  0.00000000E+00  0.00000000E+00  0.00000000E+00
  0.00000000E+00  0.00000000E+00  0.00000000E+00
  0.00000000E+00  0.00000000E+00  0.00000000E+00
  0.00000000E+00  0.00000000E+00  0.00000000E+00
  0.00000000E+00  0.00000000E+00  0.00000000E+00
  0.00000000E+00  0.00000000E+00  0.00000000E+00
  0.00000000E+00  0.00000000E+00  0.00000000E+00
  0.00000000E+00  0.00000000E+00  0.00000000E+00
  0.00000000E+00  0.00000000E+00  0.00000000E+00
  0.00000000E+00  0.00000000E+00  0.00000000E+00
  0.00000000E+00  0.00000000E+00  0.00000000E+00
  0.00000000E+00  0.00000000E+00  0.00000000E+00
  0.00000000E+00  0.00000000E+00  0.00000000E+00
  0.00000000E+00  0.00000000E+00  0.00000000E+00
  0.00000000E+00  0.00000000E+00  0.00000000E+00
  0.00000000E+00  0.00000000E+00  0.00000000E+00
  0.00000000E+00  0.00000000E+00  0.00000000E+00
  0.00000000E+00  0.00000000E+00  0.00000000E+00
  0.00000000E+00  0.00000000E+00  0.00000000E+00
  0.00000000E+00  0.00000000E+00  0.00000000E+00
  0.00000000E+00  0.00000000E+00  0.00000000E+00
  0.00000000E+00  0.00000000E+00  0.00000000E+00
  0.00000000E+00  0.00000000E+00  0.00000000E+00
  0.00000000E+00  0.00000000E+00  0.00000000E+00
  0.00000000E+00  0.00000000E+00  0.00000000E+00
  0.00000000E+00  0.00000000E+00  0.00000000E+00
  0.00000000E+00  0.00000000E+00  0.00000000E+00
  0.00000000E+00  0.00000000E+00  0.00000000E+00
  0.00000000E+00  0.00000000E+00  0.00000000E+00
  0.00000000E+00  0.00000000E+00  0.00000000E+00
  0.00000000E+00  0.00000000E+00  0.00000000E+00
  0.00000000E+00  0.00000000E+00  0.00000000E+00
  0.00000000E+00  0.00000000E+00  0.00000000E+00
  0.00000000E+00  0.00000000E+00  0.00000000E+00
  0.00000000E+00  0.00000000E+00  0.00000000E+00
  0.00000000E+00  0.00000000E+00  0.00000000E+00
  0.00000000E+00  0.00000000E+00  0.00000000E+00
  0.00000000E+00  0.00000000E+00  0.00000000E+00
  0.00000000E+00  0.00000000E+00  0.00000000E+00
  0.00000000E+00  0.00000000E+00  0.00000000E+00
  0.00000000E+00  0.00000000E+00  0.00000000E+00
  0.00000000E+00  0.00000000E+00  0.00000000E+00
  0.00000000E+00  0.00000000E+00  0.00000000E+00
  0.00000000E+00  0.00000000E+00  0.00000000E+00
