B C N O                                 
   1.0000000000000000     
     8.7639499999999995  -15.1796066749929999    0.0000000000000000
     8.7639499999999995   15.1796066749929999    0.0000000000000000
     0.0000000000000000    0.0000000000000000   15.0000000000000000
   B    C    N    O 
    48     1    48     1
Selective dynamics
Direct
  0.9046119631598725  0.9521883806254866  0.1112358314091949   T   T   T
  0.9048434006564956  0.0951586205394958  0.1111081363032391   T   T   T
  0.9048914413068587  0.2380496620203333  0.1109993370070540   T   T   T
  0.9048148214856904  0.3808824336216085  0.1110937148178420   T   T   T
  0.9044117701415048  0.5236306388533949  0.1115383775495559   T   T   T
  0.9043113627171966  0.6663981145031918  0.1109569523669422   T   T   T
  0.9043978553141991  0.8092685493833909  0.1113303997185534   T   T   T
  0.0475819991732879  0.9524200220227185  0.1112696603187800   T   T   T
  0.0478136405705186  0.0953900580361267  0.1112358314091949   T   T   T
  0.0478372697529575  0.2381664723302905  0.1111601310439594   T   T   T
  0.0478169022137874  0.3809547757297003  0.1110044646538893   T   T   T
  0.0476452583340736  0.5237514665655337  0.1110523063534809   T   T   T
  0.0474130484755921  0.6665783296464590  0.1111710073454835   T   T   T
  0.0474453705035238  0.8094807809248304  0.1111302752500053   T   T   T
  0.1905212402711764  0.9525566506924769  0.1111302752500053   T   T   T
  0.1907334718126131  0.0956041658817993  0.1113303997185534   T   T   T
  0.1910155618177410  0.2386740145270966  0.1110017146900680   T   T   T
  0.1907779864193531  0.3809942651558346  0.1111127901678148   T   T   T
  0.1908689336422783  0.5237958737215878  0.1109072953623408   T   T   T
  0.1904099444305146  0.6666505477140551  0.1111130413869417   T   T   T
  0.1904161600801710  0.8095858611158352  0.1110415477066521   T   T   T
  0.3334236915505346  0.9525889727204140  0.1111710073454835   T   T   T
  0.3336039066938021  0.0956906584787998  0.1109569523669422   T   T   T
  0.3338117047395076  0.2387480648301967  0.1091481905795982   T   T   T
  0.3342819464246566  0.3814601800935908  0.1102485548333411   T   T   T
  0.3340576166462806  0.5241002518504438  0.1113993068661013   T   T   T
  0.3333154144487762  0.6666866067482173  0.1111853246597887   T   T   T
  0.3333514734829415  0.8095920767654868  0.1111130413869417   T   T   T
  0.4762505546314669  0.9523567628619320  0.1110523063534809   T   T   T
  0.4763713823436020  0.0955902510544905  0.1115383775495559   T   T   T
  0.4766103714348663  0.2389334867590247  0.1111937087531677   T   T   T
  0.4761411868993662  0.3804262130386339  0.0989563447440519   T   T   T
  0.4759017693465548  0.6659444045507118  0.1113993068661013   T   T   T
  0.4762061474754138  0.8091330875537200  0.1109072953623408   T   T   T
  0.6190472454663065  0.9521851189822153  0.1110044646538893   T   T   T
  0.6191195875743951  0.0951871997103041  0.1110937148178420   T   T   T
  0.6192952141971225  0.2381821145613612  0.1123893885890796   T   T   T
  0.6192311307293664  0.3807708904666353  0.1132559967143571   T   T   T
  0.6195758081573715  0.5238608342976342  0.0989563447440519   T   T   T
  0.6185418411024145  0.6657200747723440  0.1102485548333411   T   T   T
  0.6190077560401656  0.8092240347766471  0.1111127901678148   T   T   T
  0.7618355488657084  0.9521647514430475  0.1111601310439594   T   T   T
  0.7619523591756724  0.0951105798891403  0.1109993370070540   T   T   T
  0.7619989552928466  0.2380030659031561  0.1112548481281484   T   T   T
  0.7618199066346432  0.3807068069988828  0.1123893885890796   T   T   T
  0.7610685344369774  0.5233916497621292  0.1111937087531677   T   T   T
  0.7612539563658017  0.6661903164574908  0.1091481905795982   T   T   T
  0.7613280066689058  0.8089864593782640  0.1110017146900680   T   T   T
  0.4747359604639661  0.5252660607330341  0.1177399996980221   T   T   T
  0.9522224683594475  0.9045922585095193  0.1113414060462355   T   T   T
  0.9524565879482426  0.0475448139697638  0.1111489058548027   T   T   T
  0.9525696464788065  0.1904532819960456  0.1110750340931389   T   T   T
  0.9525843535107412  0.3333398008142404  0.1109189255787458   T   T   T
  0.9523489161240647  0.4761640131988554  0.1111437850673191   T   T   T
  0.9521037020617880  0.6189119037774257  0.1112967760683722   T   T   T
  0.9520838716929035  0.7617157192233147  0.1112267072797298   T   T   T
  0.0952045156992897  0.9047968862187051  0.1111201626188054   T   T   T
  0.0954091434084809  0.0477789335585592  0.1113414060462355   T   T   T
  0.0956671938587771  0.1907957617380233  0.1111890215194930   T   T   T
  0.0955750910355413  0.3334490808341692  0.1111589443596730   T   T   T
  0.0955923233865087  0.4762343233371881  0.1109418666144263   T   T   T
  0.0951878165069584  0.6190146153735122  0.1111173846948961   T   T   T
  0.0951250483698633  0.7618779137977661  0.1110309792703630   T   T   T
  0.2381234881202407  0.9048763535481362  0.1110309792703630   T   T   T
  0.2382856826946890  0.0479175302251047  0.1112267072797298   T   T   T
  0.2385713413758777  0.1910499472021132  0.1110552903103870   T   T   T
  0.2390141781494604  0.3342076859240981  0.1111259716352377   T   T   T
  0.2389807074138994  0.4762289853462702  0.1107831497215402   T   T   T
  0.2381856545819510  0.6190133565904059  0.1110316577826629   T   T   T
  0.2380858975903039  0.7619155043277013  0.1111203311251231   T   T   T
  0.3809867865444836  0.9048135854110417  0.1111173846948961   T   T   T
  0.3810894981405715  0.0478976998562134  0.1112967760683722   T   T   T
  0.3813321659303833  0.1911086934881658  0.1101297134527428   T   T   T
  0.3817199916232199  0.3343977345535228  0.1060177526386892   T   T   T
  0.3833858548776459  0.4772933306650539  0.1123201410421823   T   T   T
  0.3810255015410069  0.6189759003769942  0.1115444899492405   T   T   T
  0.3809880453275971  0.7618157473360528  0.1110316577826629   T   T   T
  0.5237670785798049  0.9044090785314917  0.1109418666144263   T   T   T
  0.5238373887181411  0.0476524857939362  0.1111437850673191   T   T   T
  0.5239778214781231  0.1909719815843378  0.1121815449334324   T   T   T
  0.5244456746205169  0.3347662822251668  0.1103908905514998   T   T   T
  0.5227080712519409  0.6166155470403542  0.1123201410421823   T   T   T
  0.5237724165707252  0.7610206945041027  0.1107831497215402   T   T   T
  0.6665523210828278  0.9044263108824577  0.1111589443596730   T   T   T
  0.6666616011027582  0.0474170484072652  0.1109189255787458   T   T   T
  0.6667673859584463  0.1903599131863636  0.1113772461867635   T   T   T
  0.6668360038416361  0.3331653980753569  0.1136840694942799   T   T   T
  0.6652351196918310  0.4755557272964803  0.1103908905514998   T   T   T
  0.6656036673634725  0.6182814102947828  0.1060177526386892   T   T   T
  0.6657937159928988  0.7609872237685419  0.1111259716352377   T   T   T
  0.8092056401799759  0.9043342080592190  0.1111890215194930   T   T   T
  0.8095481199219509  0.0474317554392004  0.1110750340931389   T   T   T
  0.8096433583421863  0.1903580435758123  0.1109668448916982   T   T   T
  0.8096414887316371  0.3332340159585547  0.1113772461867635   T   T   T
  0.8090294203336639  0.4760235804388713  0.1121815449334324   T   T   T
  0.8088927084298315  0.6186692359876136  0.1101297134527428   T   T   T
  0.8089514547158849  0.7614300605421315  0.1110552903103871   T   T   T
  0.5215895574631793  0.4784118444538172  0.1255250378650578   T   T   T

  0.00000000E+00  0.00000000E+00  0.00000000E+00
  0.00000000E+00  0.00000000E+00  0.00000000E+00
  0.00000000E+00  0.00000000E+00  0.00000000E+00
  0.00000000E+00  0.00000000E+00  0.00000000E+00
  0.00000000E+00  0.00000000E+00  0.00000000E+00
  0.00000000E+00  0.00000000E+00  0.00000000E+00
  0.00000000E+00  0.00000000E+00  0.00000000E+00
  0.00000000E+00  0.00000000E+00  0.00000000E+00
  0.00000000E+00  0.00000000E+00  0.00000000E+00
  0.00000000E+00  0.00000000E+00  0.00000000E+00
  0.00000000E+00  0.00000000E+00  0.00000000E+00
  0.00000000E+00  0.00000000E+00  0.00000000E+00
  0.00000000E+00  0.00000000E+00  0.00000000E+00
  0.00000000E+00  0.00000000E+00  0.00000000E+00
  0.00000000E+00  0.00000000E+00  0.00000000E+00
  0.00000000E+00  0.00000000E+00  0.00000000E+00
  0.00000000E+00  0.00000000E+00  0.00000000E+00
  0.00000000E+00  0.00000000E+00  0.00000000E+00
  0.00000000E+00  0.00000000E+00  0.00000000E+00
  0.00000000E+00  0.00000000E+00  0.00000000E+00
  0.00000000E+00  0.00000000E+00  0.00000000E+00
  0.00000000E+00  0.00000000E+00  0.00000000E+00
  0.00000000E+00  0.00000000E+00  0.00000000E+00
  0.00000000E+00  0.00000000E+00  0.00000000E+00
  0.00000000E+00  0.00000000E+00  0.00000000E+00
  0.00000000E+00  0.00000000E+00  0.00000000E+00
  0.00000000E+00  0.00000000E+00  0.00000000E+00
  0.00000000E+00  0.00000000E+00  0.00000000E+00
  0.00000000E+00  0.00000000E+00  0.00000000E+00
  0.00000000E+00  0.00000000E+00  0.00000000E+00
  0.00000000E+00  0.00000000E+00  0.00000000E+00
  0.00000000E+00  0.00000000E+00  0.00000000E+00
  0.00000000E+00  0.00000000E+00  0.00000000E+00
  0.00000000E+00  0.00000000E+00  0.00000000E+00
  0.00000000E+00  0.00000000E+00  0.00000000E+00
  0.00000000E+00  0.00000000E+00  0.00000000E+00
  0.00000000E+00  0.00000000E+00  0.00000000E+00
  0.00000000E+00  0.00000000E+00  0.00000000E+00
  0.00000000E+00  0.00000000E+00  0.00000000E+00
  0.00000000E+00  0.00000000E+00  0.00000000E+00
  0.00000000E+00  0.00000000E+00  0.00000000E+00
  0.00000000E+00  0.00000000E+00  0.00000000E+00
  0.00000000E+00  0.00000000E+00  0.00000000E+00
  0.00000000E+00  0.00000000E+00  0.00000000E+00
  0.00000000E+00  0.00000000E+00  0.00000000E+00
  0.00000000E+00  0.00000000E+00  0.00000000E+00
  0.00000000E+00  0.00000000E+00  0.00000000E+00
  0.00000000E+00  0.00000000E+00  0.00000000E+00
  0.00000000E+00  0.00000000E+00  0.00000000E+00
  0.00000000E+00  0.00000000E+00  0.00000000E+00
  0.00000000E+00  0.00000000E+00  0.00000000E+00
  0.00000000E+00  0.00000000E+00  0.00000000E+00
  0.00000000E+00  0.00000000E+00  0.00000000E+00
  0.00000000E+00  0.00000000E+00  0.00000000E+00
  0.00000000E+00  0.00000000E+00  0.00000000E+00
  0.00000000E+00  0.00000000E+00  0.00000000E+00
  0.00000000E+00  0.00000000E+00  0.00000000E+00
  0.00000000E+00  0.00000000E+00  0.00000000E+00
  0.00000000E+00  0.00000000E+00  0.00000000E+00
  0.00000000E+00  0.00000000E+00  0.00000000E+00
  0.00000000E+00  0.00000000E+00  0.00000000E+00
  0.00000000E+00  0.00000000E+00  0.00000000E+00
  0.00000000E+00  0.00000000E+00  0.00000000E+00
  0.00000000E+00  0.00000000E+00  0.00000000E+00
  0.00000000E+00  0.00000000E+00  0.00000000E+00
  0.00000000E+00  0.00000000E+00  0.00000000E+00
  0.00000000E+00  0.00000000E+00  0.00000000E+00
  0.00000000E+00  0.00000000E+00  0.00000000E+00
  0.00000000E+00  0.00000000E+00  0.00000000E+00
  0.00000000E+00  0.00000000E+00  0.00000000E+00
  0.00000000E+00  0.00000000E+00  0.00000000E+00
  0.00000000E+00  0.00000000E+00  0.00000000E+00
  0.00000000E+00  0.00000000E+00  0.00000000E+00
  0.00000000E+00  0.00000000E+00  0.00000000E+00
  0.00000000E+00  0.00000000E+00  0.00000000E+00
  0.00000000E+00  0.00000000E+00  0.00000000E+00
  0.00000000E+00  0.00000000E+00  0.00000000E+00
  0.00000000E+00  0.00000000E+00  0.00000000E+00
  0.00000000E+00  0.00000000E+00  0.00000000E+00
  0.00000000E+00  0.00000000E+00  0.00000000E+00
  0.00000000E+00  0.00000000E+00  0.00000000E+00
  0.00000000E+00  0.00000000E+00  0.00000000E+00
  0.00000000E+00  0.00000000E+00  0.00000000E+00
  0.00000000E+00  0.00000000E+00  0.00000000E+00
  0.00000000E+00  0.00000000E+00  0.00000000E+00
  0.00000000E+00  0.00000000E+00  0.00000000E+00
  0.00000000E+00  0.00000000E+00  0.00000000E+00
  0.00000000E+00  0.00000000E+00  0.00000000E+00
  0.00000000E+00  0.00000000E+00  0.00000000E+00
  0.00000000E+00  0.00000000E+00  0.00000000E+00
  0.00000000E+00  0.00000000E+00  0.00000000E+00
  0.00000000E+00  0.00000000E+00  0.00000000E+00
  0.00000000E+00  0.00000000E+00  0.00000000E+00
  0.00000000E+00  0.00000000E+00  0.00000000E+00
  0.00000000E+00  0.00000000E+00  0.00000000E+00
  0.00000000E+00  0.00000000E+00  0.00000000E+00
  0.00000000E+00  0.00000000E+00  0.00000000E+00
  0.00000000E+00  0.00000000E+00  0.00000000E+00
