 C B O N 
 1.0
 17.527899999999772   0.000000000000000   0.000000000000000
 -8.763949999999658  15.179606674993195   0.000000000000000
  0.000000000000001   0.000000000000002  15.000000000000000
 C B O N 
   1  47   1  49
Cartesian
  3.700969444691260   7.923213842045776   1.740527481548805 
  7.534642785060745  14.469553020233676   1.717147843612920 
 15.022702864110562   1.438709554642068   1.696331202272400 
 13.760975728456959   3.606126702474824   1.667504574847740 
 12.503859652362566   5.779328911770675   1.663866800198550 
 11.252680394094099   7.953310651593230   1.687033065253815 
 10.029765343768439  10.131416491441579   1.711644197494575 
  8.805154748295752  12.312560239256555   1.659686985918465 
 -7.489394331536427  14.471009207345162   1.672230712830555 
  0.007638818580862   1.450169049348854   1.675802116634625 
 -1.261111908556092   3.606196080686799   1.675194473959890 
 -2.520108331585382   5.772836868575875   1.674766879396890 
 -3.769909754707735   7.945381806932978   1.671391452061275 
 -5.005306659147058  10.119737783328796   1.678658300981730 
 -6.236730581561024  12.298108456727878   1.676204358762630 
 -4.989915000842322  14.464262781603301   1.660443040560720 
  2.514948968970595   1.453214377790278   1.668334483421025 
  1.248481898959420   3.612460972768208   1.700679720736260 
 -0.018088855262329   5.768040207270266   1.736869960825365 
 -1.268060334794848   7.938598314415719   1.713554837344080 
 -2.513577576111046  10.113892349430637   1.678177793808810 
 -3.741907284039483  12.290000349318076   1.666122019763670 
 -2.488715650820293  14.457834008218285   1.661550041632935 
  5.018945120911849   1.453175001605035   1.661199036318390 
  3.756723368762980   3.619127506906050   1.689020105709660 
  2.490467262298112   5.768151983578163   1.775832606130680 
  1.228934332134458   7.932882864158281   1.776843900781710 
 -0.025668483851601  10.104441447967160   1.696780224421425 
 -1.240343030709483  12.281381972853906   1.662096984978345 
  0.016223558855357  14.444337377660849   1.670805745809360 
  7.519434526026435   1.450190605253339   1.665722187682020 
  6.255210308273947   3.634141273854965   1.657428857154540 
  4.981487038390959   5.805550379881210   1.643991221333925 
  2.459477856580363  10.061224685306499   1.542644812446300 
  1.273194619155806  12.257295114374248   1.631178997787610 
  2.523677793241795  14.423630543200550   1.697418083834220 
 10.021315315302811   1.436558294899668   1.681487017250400 
  8.755461021333284   3.627091776295550   1.666605426017070 
  7.486174455761755   5.819927589400844   1.654356224264505 
  6.184026219116111   8.012000245976882   1.577182047221880 
  3.780409597150530  12.221235606687074   1.605873164167830 
  5.017565191095898  14.441023835061150   1.732302133313310 
 12.518747643321237   1.433451511129948   1.697741189434965 
 11.258151005450280   3.611974316412208   1.669877837405520 
  9.997841223252411   5.791252664456433   1.673651116105605 
  8.737750551874324   7.967875130600532   1.691351458031205 
  7.556539801166909  10.162697548818540   1.634971678029960 
  6.325855602550672  12.317653084398922   1.642917835105575 
  5.273025241132749  10.292993941001710   0.969931097012985 
  8.789128159298258  13.752216343674274   1.685299629250440 
 16.283961533776491   0.728737742334418   1.697354060091165 
 15.015146324021066   2.883054321105840   1.670986845445770 
 13.755476031654366   5.052206578817159   1.659748332277530 
 12.502699004464706   7.225536155024190   1.669278824857965 
 11.268891304498894   9.399789524581406   1.696464925297875 
 10.041988986809635  11.577015541458113   1.687454127165585 
 -6.240699859191017  13.743466980503095   1.663882850887875 
  1.264055776310163   0.732909033684542   1.667934949833330 
 -0.002557415184686   2.891693210500842   1.673385833160495 
 -1.268283500850083   5.048618592293548   1.688071089084795 
 -2.520397148948309   7.217511858509835   1.680159106602525 
 -3.764270739488907   9.391643507211271   1.670618226338370 
 -4.994145037511664  11.568126348171697   1.673454454654770 
 -3.741084134753512  13.737137607861261   1.660592413434285 
  3.768336547220876   0.730512479944101   1.660607381012805 
  2.505978095792247   2.896216239370059   1.685420166214770 
  1.238428967435809   5.054031252205920   1.750838263297275 
 -0.017769376896658   7.207693085583650   1.759391504546190 
 -1.274951780344906   9.383297497091236   1.702690018699185 
 -2.497013396769689  11.561621247615246   1.667795325761835 
 -1.239065867892561  13.729293921609235   1.662387237446685 
  6.270140819349081   0.726657190564678   1.661143934759115 
  5.011206855653221   2.901054514817084   1.663465581705855 
  3.748712440094006   5.059868891664398   1.714983081821190 
  2.491861405461258   7.203069422740555   1.841047711697430 
  1.196923087968597   9.369534135024498   1.723147613418390 
  0.005773252387781  11.552620388915384   1.654276832204385 
  1.269550425886965  13.708815609102595   1.670272164339165 
  8.771101891221321   0.716268354395983   1.674281350723020 
  7.507214571998691   2.903083209121105   1.662136317054570 
  6.239804794136465   5.091032218310267   1.642999130868660 
  4.934745505745790   7.264548083100013   1.585774002376965 
  3.531679250185193   9.188344543396560   1.336789403414235 
  2.526151061419336  11.517302410286932   1.558960827884190 
  3.784517866286790  13.684498340097013   1.710287484282360 
 11.274636740626487   0.700044046600411   1.699293892808430 
 10.007899559941901   2.890117008228303   1.671804163053240 
  8.740565837576586   5.080968066963338   1.667975810319030 
  7.458357983835155   7.277438426486849   1.647068763767370 
  6.298749180778190   9.475363719588074   1.567515496282770 
  5.098787307761565  11.583547270606338   1.562810184487440 
  6.285283324227243  13.745498863850806   1.751205762910185 
 13.772533299031602   0.709118572177482   1.717394080726185 
 12.510289972567634   2.882211631486669   1.674465347022255 
 11.250417382137396   5.059868891664398   1.665808277676090 
  9.991321682322084   7.237995609947616   1.689029353762635 
  8.774107095596584   9.413017637820898   1.730432785310400 
  7.562950733542385  11.596689408212406   1.598281748346000 
