 N B 
 1.0
 17.527899999999772   0.000000000000000   0.000000000000000
 -8.763949999999658  15.179606674993195   0.000000000000000
  0.000000000000001   0.000000000000002  15.000000000000000
 N B 
  48  49
Cartesian
  8.762007849500719  13.725713079978046   1.665010399685355 
 16.278947300959963   0.721100000621970   1.665243758378475 
 15.026195611992836   2.892674632789380   1.665350383570800 
 13.771898765426336   5.063502592312586   1.665142158453390 
 12.512047933312580   7.230944548895105   1.664787269710155 
 11.256107318160803   9.393059347377285   1.665267653530065 
 10.006702403125955  11.557034824020834   1.665197562041040 
 -6.260192153477447  13.734070714810759   1.664545524247080 
  1.257983944827598   0.728474752842156   1.664908692989370 
  0.007007889589739   2.895164129204109   1.664863395928950 
 -1.245324838969043   5.064003009277994   1.664777630368365 
 -2.496265912304107   7.230914811577064   1.664945319492345 
 -3.756144165395469   9.396742985911988   1.665216020615775 
 -5.010614534060512  11.563949180937442   1.664710352932965 
 -3.756115976486845  13.736701263753446   1.664636904997935 
  3.758423421307989   0.735217091146176   1.665038465142375 
  2.520734853051157   2.919563393549785   1.665141638038725 
  1.258692095789254   5.063977487403184   1.664834121406365 
  0.032068251916962   7.228854394010674   1.665245088814035 
 -1.240291088250483   9.392916818157987   1.665611566560105 
 -2.501690416328906  11.563973366371870   1.665314243122800 
 -1.251970541836240  13.734078069370767   1.665264814359375 
  6.257207946560178   0.735257587949169   1.665203394748350 
  5.007995693140177   2.917414909119495   1.665458603068545 
  3.781181789103791   5.127893120446351   1.665072396077310 
  2.574065883449229   7.216200518304478   1.665856806693255 
  1.274177630765549   9.383903137052741   1.666079769102465 
  0.009210615881910  11.556888966025955   1.665684623437935 
  1.253902079130898  13.725609145863880   1.665070502722575 
  8.757724566341434   0.728563727941284   1.664842628237265 
  7.495071370362906   2.919599882740921   1.664968245268125 
  6.234363274253784   5.128131277714941   1.665277861613565 
  3.801690667838375   9.340274833271559   1.665619943555340 
  2.519848237120240  11.536572388478056   1.665258918963855 
  3.755911221293288  13.725602288101642   1.664842845294105 
 11.264937620858786   0.721104835027810   1.665247049026500 
 10.008833401125226   2.895278801306992   1.665213098890215 
  8.757083820576693   5.064123178879994   1.664956230456855 
  7.442369571817363   7.216393009263428   1.665496560839445 
  6.214666747528090   9.341021824016854   1.664993527690650 
  5.008066557235988  11.556482941125410   1.664714826035445 
  6.260225902376900  13.725671914929679   1.664918431017555 
 13.772047780200275   0.720032898632677   1.665400796702940 
 12.517769656286386   2.892756378999704   1.665706576382370 
 11.261184306787499   5.064148519155463   1.665272874479250 
  9.984073874472685   7.228988379673868   1.665075675881400 
  8.742004609460501   9.384064545000326   1.665541752295155 
  7.496308203247628  11.536885190616207   1.665178963217850 
  7.513937779397352  14.454318131067140   1.665266643522915 
 15.025012069416787   1.444862862790592   1.665759521158035 
 13.771951754136584   3.615460149533025   1.665755070490680 
 12.519085087667666   5.785988535001095   1.665162319875705 
 11.254641017097793   7.950755613019473   1.665240260878305 
 10.003162840647574  10.112463105469384   1.665788862568245 
  8.756391380577224  12.276550805399832   1.665361417984350 
 -7.511932982462945  14.456392054055305   1.665053683737360 
  0.002680697820176   1.444442887818320   1.665186069023925 
 -1.250378841224269   3.615135987979122   1.665095351219310 
 -2.503641335291736   5.785913976466669   1.665232747472850 
 -3.756225595520408   7.951772756865009   1.665191886206325 
 -5.010741364955926  10.119737783328796   1.665343950009630 
 -6.261844339679593  12.286790810779639   1.664935247368380 
 -5.007953133357487  14.458429445319899   1.664842417361700 
  2.509807679935299   1.457493960055380   1.665239082948660 
  1.254188555086395   3.621117342285348   1.665114264152310 
  0.006855989668873   5.781592607548506   1.665041448707760 
 -1.239131080706755   7.950610428770266   1.665485936427570 
 -2.502992586731184  10.119737783328796   1.665766024426890 
 -3.756303832411177  12.288146850180871   1.664981353327695 
 -2.505086876521890  14.458675530839146   1.665290067865530 
  5.007892342095251   1.460834554000783   1.665680510117490 
  3.772745691419306   3.649759249690324   1.665568224236520 
  2.504410274327157   5.781971945196765   1.665546478958130 
  1.289980677230453   7.948088897766630   1.666048028666445 
  0.012941071468696  10.112255551357164   1.666377520903470 
 -1.251234375463201  12.286939293808112   1.665818827736535 
 -0.000266693611973  14.456504980833472   1.665280358136375 
  7.505923151824261   1.457775290608996   1.665210257662380 
  6.243479033853848   3.649929692532411   1.665542827235940 
  5.008091924816872   5.924384592736985   1.664976072416325 
  3.875511176653369   7.881600280588237   1.667165884193655 
  2.526431818031277  10.087595046479429   1.665976876285890 
  1.259640349527281  12.276666709611458   1.665578694024300 
  2.502133970618043  14.454288966968406   1.665347214838080 
 10.012987506966814   1.444820216335295   1.665191042982420 
  8.761516606685996   3.621182290718820   1.665161825270295 
  7.513853951963895   5.782211969950659   1.665388846418130 
  6.142940607125881   7.882853717075183   1.665383430106125 
  5.008566702981121  10.119737783328796   1.665310725072165 
  3.760724625797043  12.282240461594792   1.665024893577840 
  5.008223235283342  14.454164638702750   1.665133098507855 
 12.519036367953541   1.444962379620726   1.665818443787085 
 11.266216556497929   3.615465320935999   1.665890309199930 
 10.008994018454970   5.782037245652480   1.665279477340410 
  8.726588565913328   7.948111394311813   1.665641147312565 
  7.490091062712303  10.088059058315554   1.665575360767275 
  6.255575242706191  12.282271585682643   1.665106436552790 
