 B N C 
 1.0
 17.527899999999772   0.000000000000000   0.000000000000000
 -8.763949999999658  15.179606674993195   0.000000000000000
  0.000000000000001   0.000000000000002  15.000000000000000
 B N C 
  47  48   2
Cartesian
  7.520553660569545  14.443200688152981   1.665186778106880 
 15.050234808587101   1.435864568385814   1.666143475578645 
 13.800166220285998   3.606167724750201   1.665929144769870 
 12.540143888039310   5.780725985306290   1.665307013463480 
 11.261560959749746   7.952826569027144   1.664971977634065 
  9.994869518016559  10.114294094566404   1.665924248754180 
  8.744160080484221  12.265271923977515   1.665320636197575 
 -7.504282523203140  14.487462667518697   1.664809301618430 
  0.028146939776408   1.471849174893508   1.665015696892845 
 -1.227847782283165   3.628355640813633   1.665553092899565 
 -2.507325405338793   5.793868378643677   1.665558649337760 
 -3.785137992723410   7.966612760253666   1.665203874139230 
 -5.034717310597694  10.136621906709614   1.665035336977605 
 -6.276868946898698  12.305985546988284   1.664615495824425 
 -5.012230992882031  14.494079907226711   1.664453436167070 
  2.547932050071809   1.535984763910930   1.665295210881510 
  1.292682619122425   3.679226123486911   1.665080397875880 
 -0.022729387705212   5.826839494968780   1.664828085937305 
 -1.317542752308105   7.982509437560494   1.665815240419065 
 -2.547041707135607  10.148556007096003   1.666225360012995 
 -3.780054523139521  12.316277630337160   1.665184639034970 
 -2.511064442956692  14.481264120966223   1.665397110593040 
  5.023708844810215   1.484694710943494   1.665587415741825 
  3.881781121496891   3.770504782101315   1.665953143737810 
  2.458614265389359   5.929668545744416   1.665071993373240 
  1.117999807724316   8.028902423889171   1.664680138890525 
 -0.066079272387625  10.164535417116774   1.666305511208430 
 -1.280875751588072  12.316069736876376   1.666631384227050 
  0.009470032682796  14.446687218918184   1.665391387269735 
  7.547969731330838   1.425132148822565   1.665285563282970 
  6.336047873117783   3.574675120866215   1.664523166885755 
  2.447957393878218  10.108200394871877   1.665059780779245 
  1.239845277205456  12.282020222738108   1.665874412671485 
  2.522853493610581  14.427941987275965   1.664951178552555 
 10.053310425651572   1.418186690954895   1.665176963919735 
  8.829715749860705   3.580922112913350   1.665367781690955 
  7.617553681064081   5.752754893797791   1.664403077438940 
  6.208312723228488   7.729905143258379   1.666197042224940 
  4.978091855789996  10.016487647683075   1.665405561896610 
  3.755688270091698  12.243852211338018   1.664817406973730 
  5.024723602438231  14.424620557955176   1.665573492720375 
 12.551238505147339   1.421818572865634   1.666053140080800 
 11.311071855098675   3.594062173547951   1.665342883711455 
 10.069463267584661   5.768094981204441   1.665324958798995 
  8.766923002641223   7.927754680340874   1.666832481880020 
  7.462216132338733  10.027812700783590   1.666111877078115 
  6.249071560879824  12.230891399674666   1.665270517440510 
  8.770440844022289  13.729636493833281   1.664836355082585 
 16.307289486899876   0.723459227091514   1.665136242186960 
 15.059124557004621   2.888838093487134   1.665757035398610 
 13.789159200271278   5.055242907407298   1.665331346474745 
 12.509700223379838   7.229156598482654   1.664610049952115 
 11.247014115790812   9.399994278505602   1.664973314503350 
  9.999976386304731  11.562589930344199   1.665173726253705 
 -6.261582447381736  13.762803623556509   1.664099076443550 
  1.292585315595944   0.781905863789225   1.664753256783675 
  0.051577463148917   2.933748636682580   1.664813816775885 
 -1.242316923714099   5.076615848939953   1.665054762571650 
 -2.538479408384787   7.239945465747660   1.665339510567075 
 -3.787584587434200   9.413950937708286   1.665109297461930 
 -5.029311590078063  11.586172110022241   1.664534370515565 
 -3.768277059556256  13.767409894082720   1.664603595433425 
  3.770475449874683   0.781015328759932   1.664802362016810 
  2.597983028977749   3.046399385779451   1.665367737742605 
  1.284349380067606   5.137364478261759   1.664503023024735 
 -0.073232697758233   7.259958408643691   1.664854949335950 
 -1.301785068378916   9.425461685492669   1.666149249288135 
 -2.532621438521686  11.593395155800081   1.666034034047235 
 -1.262170811155560  13.755238015963416   1.665704062629900 
  6.266167447906133   0.751127928965461   1.665083269778745 
  5.042121429381733   2.960155515220874   1.666161027121470 
  3.945801552592333   5.555863787429788   1.666078936899375 
  2.351073612204694   7.339185567422572   1.664054969971950 
  1.177258673029832   9.445731944624040   1.665421898545455 
 -0.031169172294267  11.593825286218012   1.666440873911205 
  1.260657929973509  13.719012469167758   1.665017056625145 
  8.792296697359735   0.705522805457038   1.664766501883455 
  7.578999167596726   2.858759675904113   1.665233985138075 
  6.492361385376812   4.946639916742015   1.657616417279985 
  3.689035966185340   9.297214227365700   1.664822873295825 
  2.493356986756357  11.538295681495390   1.664954736167205 
  3.772066875465784  13.690437073466743   1.664679044121375 
 11.300377059041546   0.692912469965866   1.665035682716940 
 10.068232292826707   2.860860639651345   1.665024588200010 
  8.845465504055589   5.022214803331700   1.665053188232610 
  7.515150999212389   7.173433191396731   1.666681523724615 
  6.191937027719863   9.224787083462299   1.665994502373225 
  4.991374558816305  11.471271775106425   1.664718135539430 
  6.269028468028744  13.689845215238861   1.665109871514150 
 13.802082611544552   0.696886384278498   1.665958527734475 
 12.558156182160722   2.870703307704031   1.665690550584975 
 11.307115673987965   5.043023321700717   1.664980619244540 
 10.019941077105887   7.214642236448798   1.665331813557780 
  8.740458445553848   9.363812355570946   1.666345942090215 
  7.486110492902586  11.496045239582898   1.665360053000355 
  3.559667316870752   7.933506266783702   1.670393959798935 
  4.688589679517586   6.763216902812277   1.666439505680970 
