Species order: X N B                    
   2.51242800000000     
     5.9449720136058266    0.0000000000000000    0.0000000000000000
    -2.9724860068029120    5.1484967885702053   -0.0000000000000001
     0.0000000000000000    0.0000000000000009    5.3101128803662583
   C    N    B 
     1   143   143
Direct
  0.4405016583248449  0.3869174958290864  0.3750000000000000
  0.1110701877587069  0.0555540541373855  0.1249382704293847
  0.6111523611097684  0.5556592937470157  0.1238504885151874
  0.4444368421818352  0.0555700577941952  0.1248768449475356
  0.9444238599717767  0.5555362104760178  0.1248885116074587
  0.7777477857093966  0.0555405595213660  0.1249190368589362
  0.1110901730861587  0.7222117532097433  0.6251078974803959
  0.4444368421818352  0.7222001177209751  0.6251231550524642
  0.2777177362979482  0.2222178188814194  0.6251502421508398
  0.7777826912662911  0.7222535788848015  0.6252295868040642
  0.6111161096328326  0.2222196486655536  0.6251788660836184
  0.9443991918538647  0.2221900563278477  0.6251184140118419
  0.2777652459816593  0.7222035199505152  0.1248867465311075
  0.1110301338388839  0.2221817335861065  0.1248716491686809
  0.4444254578873352  0.2222285786735737  0.1245982971776617
  0.6111161096328321  0.7222297943006073  0.1248211339163818
  0.9444238599717767  0.7222209828290946  0.1248885116074587
  0.7777656021464003  0.2221989188041110  0.1249195272888203
  0.1110875468355941  0.8888953524026588  0.6251119782615556
  0.4444344742695091  0.8888839038014188  0.6251072913054804
  0.2777177362979482  0.3888332507498577  0.6251502421508398
  0.6111523611097684  0.3888264006960817  0.6261495114848125
  0.7777656021464003  0.8889000166756159  0.6250804727111805
  0.9444256604532799  0.3888593533020079  0.6250863167523893
  0.1110701877587069  0.3888494669546501  0.1249382704293847
  0.2777652459816593  0.8888950593644733  0.1248867465311075
  0.6110929383462798  0.8888776168252196  0.1249560875270493
  0.4443426540050200  0.3888379936691749  0.1240097081543615
  0.9444256604532799  0.8888996404846007  0.1249136832476112
  0.7777826912662911  0.3888624457148189  0.1247704131959353
  0.2777538050435727  0.5555143677447696  0.6251138002531155
  0.1110701877587069  0.0555540541373855  0.6250617295706155
  0.6111523611097684  0.5556592937470157  0.6261495114848125
  0.4444368421818352  0.0555700577941952  0.6251231550524642
  0.9444238599717767  0.5555362104760178  0.6251114883925410
  0.1110875468355941  0.5555255277662642  0.1248880217384440
  0.7777477857093966  0.0555405595213660  0.6250809631410633
  0.2777538050435727  0.0555727706321387  0.1248861997468839
  0.4444254578873352  0.5555302125470974  0.1245982971776617
  0.7777649973562348  0.5555491653447857  0.1247391289660912
  0.6110929383462798  0.0555486548543878  0.1249560875270493
  0.4444254578873352  0.5555302125470974  0.6254017028223378
  0.9443991918538647  0.0555424688593522  0.1248815859881585
  0.2777652459816593  0.7222035199505152  0.6251132534688926
  0.1110301338388840  0.2221817335861065  0.6251283508313185
  0.4444254578873352  0.2222285786735737  0.6254017028223378
  0.6111161096328321  0.7222297943006073  0.6251788660836184
  0.9444238599717767  0.7222209828290946  0.6251114883925410
  0.7777656021464003  0.2221989188041110  0.6250804727111805
  0.1110901730861587  0.7222117532097433  0.1248921025196039
  0.4444368421818352  0.7222001177209751  0.1248768449475356
  0.2777177362979482  0.2222178188814194  0.1248497578491610
  0.7777826912662911  0.7222535788848015  0.1247704131959353
  0.6111161096328326  0.2222196486655536  0.1248211339163818
  0.9443991918538647  0.2221900563278477  0.1248815859881585
  0.1110701877587069  0.3888494669546501  0.6250617295706155
  0.2777652459816593  0.8888950593644733  0.6251132534688926
  0.6110929383462798  0.8888776168252196  0.6250439124729503
  0.4443426540050200  0.3888379936691749  0.6259902918456388
  0.9444256604532799  0.8888996404846007  0.6250863167523893
  0.1110875468355941  0.8888953524026588  0.1248880217384440
  0.7777826912662911  0.3888624457148189  0.6252295868040643
  0.4444344742695091  0.8888839038014188  0.1248927086945201
  0.2777177362979482  0.3888332507498577  0.1248497578491610
  0.2777538050435727  0.5555143677447696  0.1248861997468839
  0.6111523611097684  0.3888264006960817  0.1238504885151874
  0.7777656021464003  0.8889000166756159  0.1249195272888203
  0.9444256604532799  0.3888593533020079  0.1249136832476112
  0.1110875468355941  0.5555255277662642  0.6251119782615556
  0.2777538050435727  0.0555727706321387  0.6251138002531155
  0.7777649973562348  0.5555491653447857  0.6252608710339096
  0.6110929383462798  0.0555486548543878  0.6250439124729503
  0.9443991918538647  0.0555424688593522  0.6251184140118419
  0.0535211095561791  0.1098346832718925  0.3750000000000000
  0.5555399465899976  0.5991720964565347  0.3750000000000000
  0.3897993390107807  0.1146467807491145  0.3750000000000000
  0.8936509136447488  0.6134921234890452  0.3750000000000000
  0.7210516851348645  0.1116729518769692  0.3750000000000000
  0.0555610633027630  0.7777796327553229  0.8750000000000000
  0.3888849259943952  0.7777819758611798  0.8750000000000000
  0.2222267328606728  0.2777800330970044  0.8750000000000000
  0.7222190440427653  0.7777733307461310  0.8750000000000000
  0.5555458922375907  0.2777652006655611  0.8750000000000000
  0.8888903776004130  0.2777838952831924  0.8750000000000000
  0.2245709543123054  0.7789521438228199  0.3750000000000000
  0.0535211095561791  0.2770197596176223  0.3750000000000000
  0.3867539896303701  0.2799972846610376  0.3750000000000000
  0.5557972094858857  0.7731749847023573  0.3750000000000000
  0.8896676109644729  0.7771774403894932  0.3750000000000000
  0.7212198636123393  0.2803542428999565  0.3750000000000000
  0.0555575747805036  0.9444406064885618  0.8750000000000000
  0.3888849259943952  0.9444362834665520  0.8750000000000000
  0.2222229768867499  0.4444516470593698  0.8750000000000000
  0.5555548095209643  0.4444440714271464  0.8750000000000000
  0.7222156208546436  0.9444396335748396  0.8750000000000000
  0.8888956032512690  0.4444504943850954  0.8750000000000000
  0.0556334263869125  0.4445879400633715  0.3750000000000000
  0.2238882222027164  0.9460585062137294  0.3750000000000000
  0.5558949024942619  0.9446141179137942  0.3750000000000000
  0.3867539896303701  0.4400900383026681  0.3750000000000000
  0.8874015685902397  0.9427163959837956  0.3750000000000000
  0.7242612955421830  0.4485868151115824  0.3750000000000000
  0.2222192829408106  0.6111167020623524  0.8750000000000000
  0.0555588494172652  0.1111084644624463  0.8750000000000000
  0.5555458922375907  0.6111140249053645  0.8750000000000000
  0.3888814959210205  0.1110932896414679  0.8750000000000000
  0.8889033051023815  0.6111183192178622  0.8750000000000000
  0.0583296903768429  0.6122620310154321  0.3750000000000000
  0.7222156208546436  0.1111093206131391  0.8750000000000000
  0.2216464898664640  0.1113684874649760  0.3750000000000000
  0.3897993390107807  0.6084858915950098  0.3750000000000000
  0.7242612955421830  0.6090078137639351  0.3750000000000000
  0.5557972094858857  0.1159555581168645  0.3750000000000000
  0.3888814959210205  0.6111215396128962  0.8750000000000000
  0.8869531070001067  0.1101432201667248  0.3750000000000000
  0.2222214436914099  0.7777773885123724  0.8750000000000000
  0.0555588494172652  0.2777837182881541  0.8750000000000000
  0.3888877218332369  0.2777691824064402  0.8750000000000000
  0.5555478505972512  0.7777784703211836  0.8750000000000000
  0.8888956032512690  0.7777784421995108  0.8750000000000000
  0.7222190440427653  0.2777790466299698  0.8750000000000000
  0.0583296903768429  0.7794009926947458  0.3750000000000000
  0.3904555208253506  0.7774491191227193  0.3750000000000000
  0.2191154078749703  0.2762243706041529  0.3750000000000000
  0.7212198636123393  0.7741989540457176  0.3750000000000000
  0.5555399465899976  0.2897011834667980  0.3750000000000000
  0.8874015685902397  0.2780185059397787  0.3750000000000000
  0.0555575747805036  0.4444503016252712  0.8750000000000000
  0.2222192829408106  0.9444359142117934  0.8750000000000000
  0.5555477767574077  0.9444405550453683  0.8750000000000000
  0.3888877218332369  0.4444518727601324  0.8750000000000000
  0.8888903776004130  0.9444398156505569  0.8750000000000000
  0.0556334263869125  0.9443788196568706  0.3750000000000000
  0.7222309249942429  0.4444511841586666  0.8750000000000000
  0.3904555208253506  0.9463397350359669  0.3750000000000000
  0.2216464898664640  0.4436113357348239  0.3750000000000000
  0.2238882222027164  0.6111630493223232  0.3750000000000000
  0.7210516851348645  0.9427120665912315  0.3750000000000000
  0.8896676109644729  0.4458235039083170  0.3750000000000000
  0.0555610633027630  0.6111147638807767  0.8750000000000000
  0.2222229768867499  0.1111046631607158  0.8750000000000000
  0.7222309249942429  0.6111130741689121  0.8750000000000000
  0.5555478505972512  0.1111027136094035  0.8750000000000000
  0.8888888878756374  0.1111111106044901  0.8750000000000000
  0.1104074839018629  0.0553554004195290  0.3750000000000000
  0.6108456933300170  0.5348656286601823  0.3750000000000000
  0.4450111255311050  0.0586457308278602  0.3750000000000000
  0.9471687824048484  0.5568800656585724  0.3750000000000000
  0.7757150012456752  0.0545241672895056  0.3750000000000000
  0.1110995651532838  0.7222164492433056  0.8750000000000000
  0.4444464017431558  0.7221991841811660  0.8750000000000000
  0.2778527017274718  0.2222656990967096  0.8750000000000000
  0.7777312444430057  0.7221460461342785  0.8750000000000000
  0.6110851684441275  0.2222674051119493  0.8750000000000000
  0.9444460655884946  0.2222352004337419  0.8750000000000000
  0.2795399339186336  0.7224772441039193  0.3750000000000000
  0.1085918287629536  0.2209625810481412  0.3750000000000000
  0.4454527762912373  0.2275870848549054  0.3750000000000000
  0.6097576550943908  0.7129121623930731  0.3750000000000000
  0.9471687824048484  0.7236220500796124  0.3750000000000000
  0.7757776389714974  0.2234694643921776  0.3750000000000000
  0.1111113139066522  0.8888787332027684  0.8750000000000000
  0.4444377624084026  0.8888855478708655  0.8750000000000000
  0.2778527017274718  0.3889203359640904  0.8750000000000000
  0.6110850788703455  0.3889223799048585  0.8750000000000000
  0.7777499683437555  0.8888351173548377  0.8750000000000000
  0.9444274023601977  0.3889093867451128  0.8750000000000000
  0.1104074839018629  0.3883854168156629  0.3750000000000000
  0.2795399339186336  0.8903960231480434  0.3750000000000000
  0.6100721896261152  0.8859090989993874  0.3750000000000000
  0.9440452553704427  0.8878784330648529  0.3750000000000000
  0.7773389198651250  0.3918273640356153  0.3750000000000000
  0.2778086163181581  0.5555639884182513  0.8750000000000000
  0.1111373511444556  0.0555610122091141  0.8750000000000000
  0.6110850788703455  0.5554960322988153  0.8750000000000000
  0.4444464017431558  0.0555805508953249  0.8750000000000000
  0.9444118893498711  0.5555558015516179  0.8750000000000000
  0.1127984857184323  0.5559469625649143  0.3750000000000000
  0.7777611246520661  0.0555472289927008  0.8750000000000000
  0.2789575133745585  0.0575305642067424  0.3750000000000000
  0.4454527762912373  0.5511990247696669  0.3750000000000000
  0.7828604682488043  0.5580969007910691  0.3750000000000000
  0.6100721896261152  0.0574964239600571  0.3750000000000000
  0.4444762102839973  0.5555387263134027  0.8750000000000000
  0.9423006326285336  0.0539525273604894  0.3750000000000000
  0.2777822589070362  0.7222215124274501  0.8750000000000000
  0.1111552561015018  0.2222442947174150  0.8750000000000000
  0.4444762102839973  0.2222708173039305  0.8750000000000000
  0.6110851684441275  0.7221510966655057  0.8750000000000000
  0.9444118893498711  0.7221894211315878  0.8750000000000000
  0.7777499683437555  0.2222481843222463  0.8750000000000000
  0.1135280991854808  0.7234307162594041  0.3750000000000000
  0.4450111255311050  0.7196987280365796  0.3750000000000000
  0.2760121354047627  0.2223646225233867  0.3750000000000000
  0.7773389198651250  0.7188448891628375  0.3750000000000000
  0.6097576550943908  0.2301788260346464  0.3750000000000000
  0.9423006326285336  0.2216814386013803  0.3750000000000000
  0.1111373511444556  0.3889096722686697  0.8750000000000000
  0.2777822589070362  0.8888940798129160  0.8750000000000000
  0.6110911819190402  0.8888580171939409  0.8750000000000000
  0.4445184189606747  0.3889258761470018  0.8750000000000000
  0.9444274023601977  0.8888513489484147  0.8750000000000000
  0.1127984857184323  0.8901848564868468  0.3750000000000000
  0.7777312444430057  0.3889185316420558  0.8750000000000000
  0.4451065657267634  0.8892199495300456  0.3750000000000000
  0.2760121354047627  0.3869808462147050  0.3750000000000000
  0.2789575133745585  0.5547602825011522  0.3750000000000000
  0.6108456933300170  0.4093133980031641  0.3750000000000000
  0.7757776389714974  0.8856415079126491  0.3750000000000000
  0.9440452553704427  0.3895001556389198  0.3750000000000000
  0.1111113139066522  0.5555659140372132  0.8750000000000000
  0.2778086163181581  0.0555779612332420  0.8750000000000000
  0.7777255411401105  0.5555294372367231  0.8750000000000000
  0.6110911819190402  0.0555664980584285  0.8750000000000000
  0.9444460655884946  0.0555441984880882  0.8750000000000000
  0.0555258795344891  0.1111087265867197  0.1250364365427362
  0.5556434933066053  0.6109191250840393  0.1250618136380832
  0.3889927148979913  0.1113440298627085  0.1250943499773259
  0.8886436357934993  0.6109884845634225  0.1251883092071776
  0.7221916864842757  0.1111354213420690  0.1250998868304211
  0.0554428348286736  0.7777289962368088  0.6249291181238441
  0.3889286622816973  0.7777331807901110  0.6249324876307938
  0.2222710251102430  0.2778021792217893  0.6249580987440051
  0.7221594100601394  0.7776430838375674  0.6248583078517890
  0.5556434933066053  0.2780577015559014  0.6249381863619170
  0.8888224690916301  0.2777692230108032  0.6249268630983229
  0.2222029622380039  0.7777681477856700  0.1250374131663867
  0.0555258795344891  0.2777504862811048  0.1250364365427362
  0.3890750390531048  0.2780467271057125  0.1250166310923546
  0.5555867880516502  0.7776661894712615  0.1251468561798117
  0.8887347006632619  0.7776704805543888  0.1251392736612628
  0.7221594100601394  0.2778496595559081  0.1251416921482119
  0.0555028274863590  0.9444363437245781  0.6249246482344895
  0.3889286622816973  0.9445288148249213  0.6249324876307938
  0.2222743429164978  0.4443873116489273  0.6249119316990014
  0.5555958245991963  0.4444645789662625  0.6232955976465232
  0.7221916864842757  0.9443895984755438  0.6249001131695784
  0.8887347006632619  0.4443975534422083  0.6248607263387373
  0.0555028274863590  0.4443998170951092  0.1250753517655119
  0.2222306278155681  0.9445177601798653  0.1250578756670847
  0.5555662371601092  0.9444497852467197  0.1251145551048726
  0.3890750390531048  0.4443616452807286  0.1250166310923546
  0.8888224690916301  0.9443865794141627  0.1250731369016767
  0.7219787283238009  0.4443817933659124  0.1251917778082759
  0.2222306278155681  0.6110462009690376  0.6249421243329161
  0.0555258795344891  0.1111087265867197  0.6249635634572639
  0.5556434933066053  0.6109191250840393  0.6249381863619170
  0.3889927148979913  0.1113440298627085  0.6249056500226745
  0.8886436357934993  0.6109884845634225  0.6248116907928222
  0.0554428348286736  0.6110471719252009  0.1250708818761565
  0.7221916864842757  0.1111354213420690  0.6249001131695784
  0.2222743429164978  0.1112203646009070  0.1250880683009986
  0.3889927148979913  0.6109820183686259  0.1250943499773259
  0.7219787283238009  0.6109302682912222  0.1251917778082759
  0.5555867880516502  0.1112539319137249  0.1251468561798117
  0.3889927148979913  0.6109820183686259  0.6249056500226745
  0.8888414231956198  0.1110873782644822  0.1250243110696456
  0.2222029622380039  0.7777681477856700  0.6249625868336129
  0.0555258795344891  0.2777504862811048  0.6249635634572639
  0.3890750390531048  0.2780467271057125  0.6249833689076454
  0.5555867880516502  0.7776661894712615  0.6248531438201876
  0.8887347006632619  0.7776704805543888  0.6248607263387373
  0.7221594100601394  0.2778496595559081  0.6248583078517890
  0.0554428348286736  0.7777289962368088  0.1250708818761565
  0.3889286622816973  0.7777331807901110  0.1250675123692067
  0.2222710251102430  0.2778021792217893  0.1250419012559958
  0.7221594100601394  0.7776430838375674  0.1251416921482119
  0.5556434933066053  0.2780577015559014  0.1250618136380832
  0.8888224690916301  0.2777692230108032  0.1250731369016767
  0.0555028274863590  0.4443998170951092  0.6249246482344895
  0.2222306278155681  0.9445177601798653  0.6249421243329161
  0.5555662371601092  0.9444497852467197  0.6248854448951264
  0.3890750390531048  0.4443616452807286  0.6249833689076454
  0.8888224690916301  0.9443865794141627  0.6249268630983229
  0.0555028274863590  0.9444363437245781  0.1250753517655119
  0.7219787283238009  0.4443817933659124  0.6248082221917247
  0.3889286622816973  0.9445288148249213  0.1250675123692067
  0.2222743429164978  0.4443873116489273  0.1250880683009986
  0.2222306278155681  0.6110462009690376  0.1250578756670847
  0.5555958245991963  0.4444645789662625  0.1267044023534766
  0.7221916864842757  0.9443895984755438  0.1250998868304211
  0.8887347006632619  0.4443975534422083  0.1251392736612628
  0.0554428348286736  0.6110471719252009  0.6249291181238441
  0.2222743429164978  0.1112203646009070  0.6249119316990014
  0.7219787283238009  0.6109302682912222  0.6248082221917247
  0.5555867880516502  0.1112539319137249  0.6248531438201876
  0.8888414231956198  0.1110873782644822  0.6249756889303533
 
  0.00000000E+00  0.00000000E+00  0.00000000E+00
  0.00000000E+00  0.00000000E+00  0.00000000E+00
  0.00000000E+00  0.00000000E+00  0.00000000E+00
  0.00000000E+00  0.00000000E+00  0.00000000E+00
  0.00000000E+00  0.00000000E+00  0.00000000E+00
  0.00000000E+00  0.00000000E+00  0.00000000E+00
  0.00000000E+00  0.00000000E+00  0.00000000E+00
  0.00000000E+00  0.00000000E+00  0.00000000E+00
  0.00000000E+00  0.00000000E+00  0.00000000E+00
  0.00000000E+00  0.00000000E+00  0.00000000E+00
  0.00000000E+00  0.00000000E+00  0.00000000E+00
  0.00000000E+00  0.00000000E+00  0.00000000E+00
  0.00000000E+00  0.00000000E+00  0.00000000E+00
  0.00000000E+00  0.00000000E+00  0.00000000E+00
  0.00000000E+00  0.00000000E+00  0.00000000E+00
  0.00000000E+00  0.00000000E+00  0.00000000E+00
  0.00000000E+00  0.00000000E+00  0.00000000E+00
  0.00000000E+00  0.00000000E+00  0.00000000E+00
  0.00000000E+00  0.00000000E+00  0.00000000E+00
  0.00000000E+00  0.00000000E+00  0.00000000E+00
  0.00000000E+00  0.00000000E+00  0.00000000E+00
  0.00000000E+00  0.00000000E+00  0.00000000E+00
  0.00000000E+00  0.00000000E+00  0.00000000E+00
  0.00000000E+00  0.00000000E+00  0.00000000E+00
  0.00000000E+00  0.00000000E+00  0.00000000E+00
  0.00000000E+00  0.00000000E+00  0.00000000E+00
  0.00000000E+00  0.00000000E+00  0.00000000E+00
  0.00000000E+00  0.00000000E+00  0.00000000E+00
  0.00000000E+00  0.00000000E+00  0.00000000E+00
  0.00000000E+00  0.00000000E+00  0.00000000E+00
  0.00000000E+00  0.00000000E+00  0.00000000E+00
  0.00000000E+00  0.00000000E+00  0.00000000E+00
  0.00000000E+00  0.00000000E+00  0.00000000E+00
  0.00000000E+00  0.00000000E+00  0.00000000E+00
  0.00000000E+00  0.00000000E+00  0.00000000E+00
  0.00000000E+00  0.00000000E+00  0.00000000E+00
  0.00000000E+00  0.00000000E+00  0.00000000E+00
  0.00000000E+00  0.00000000E+00  0.00000000E+00
  0.00000000E+00  0.00000000E+00  0.00000000E+00
  0.00000000E+00  0.00000000E+00  0.00000000E+00
  0.00000000E+00  0.00000000E+00  0.00000000E+00
  0.00000000E+00  0.00000000E+00  0.00000000E+00
  0.00000000E+00  0.00000000E+00  0.00000000E+00
  0.00000000E+00  0.00000000E+00  0.00000000E+00
  0.00000000E+00  0.00000000E+00  0.00000000E+00
  0.00000000E+00  0.00000000E+00  0.00000000E+00
  0.00000000E+00  0.00000000E+00  0.00000000E+00
  0.00000000E+00  0.00000000E+00  0.00000000E+00
  0.00000000E+00  0.00000000E+00  0.00000000E+00
  0.00000000E+00  0.00000000E+00  0.00000000E+00
  0.00000000E+00  0.00000000E+00  0.00000000E+00
  0.00000000E+00  0.00000000E+00  0.00000000E+00
  0.00000000E+00  0.00000000E+00  0.00000000E+00
  0.00000000E+00  0.00000000E+00  0.00000000E+00
  0.00000000E+00  0.00000000E+00  0.00000000E+00
  0.00000000E+00  0.00000000E+00  0.00000000E+00
  0.00000000E+00  0.00000000E+00  0.00000000E+00
  0.00000000E+00  0.00000000E+00  0.00000000E+00
  0.00000000E+00  0.00000000E+00  0.00000000E+00
  0.00000000E+00  0.00000000E+00  0.00000000E+00
  0.00000000E+00  0.00000000E+00  0.00000000E+00
  0.00000000E+00  0.00000000E+00  0.00000000E+00
  0.00000000E+00  0.00000000E+00  0.00000000E+00
  0.00000000E+00  0.00000000E+00  0.00000000E+00
  0.00000000E+00  0.00000000E+00  0.00000000E+00
  0.00000000E+00  0.00000000E+00  0.00000000E+00
  0.00000000E+00  0.00000000E+00  0.00000000E+00
  0.00000000E+00  0.00000000E+00  0.00000000E+00
  0.00000000E+00  0.00000000E+00  0.00000000E+00
  0.00000000E+00  0.00000000E+00  0.00000000E+00
  0.00000000E+00  0.00000000E+00  0.00000000E+00
  0.00000000E+00  0.00000000E+00  0.00000000E+00
  0.00000000E+00  0.00000000E+00  0.00000000E+00
  0.00000000E+00  0.00000000E+00  0.00000000E+00
  0.00000000E+00  0.00000000E+00  0.00000000E+00
  0.00000000E+00  0.00000000E+00  0.00000000E+00
  0.00000000E+00  0.00000000E+00  0.00000000E+00
  0.00000000E+00  0.00000000E+00  0.00000000E+00
  0.00000000E+00  0.00000000E+00  0.00000000E+00
  0.00000000E+00  0.00000000E+00  0.00000000E+00
  0.00000000E+00  0.00000000E+00  0.00000000E+00
  0.00000000E+00  0.00000000E+00  0.00000000E+00
  0.00000000E+00  0.00000000E+00  0.00000000E+00
  0.00000000E+00  0.00000000E+00  0.00000000E+00
  0.00000000E+00  0.00000000E+00  0.00000000E+00
  0.00000000E+00  0.00000000E+00  0.00000000E+00
  0.00000000E+00  0.00000000E+00  0.00000000E+00
  0.00000000E+00  0.00000000E+00  0.00000000E+00
  0.00000000E+00  0.00000000E+00  0.00000000E+00
  0.00000000E+00  0.00000000E+00  0.00000000E+00
  0.00000000E+00  0.00000000E+00  0.00000000E+00
  0.00000000E+00  0.00000000E+00  0.00000000E+00
  0.00000000E+00  0.00000000E+00  0.00000000E+00
  0.00000000E+00  0.00000000E+00  0.00000000E+00
  0.00000000E+00  0.00000000E+00  0.00000000E+00
  0.00000000E+00  0.00000000E+00  0.00000000E+00
  0.00000000E+00  0.00000000E+00  0.00000000E+00
  0.00000000E+00  0.00000000E+00  0.00000000E+00
  0.00000000E+00  0.00000000E+00  0.00000000E+00
  0.00000000E+00  0.00000000E+00  0.00000000E+00
  0.00000000E+00  0.00000000E+00  0.00000000E+00
  0.00000000E+00  0.00000000E+00  0.00000000E+00
  0.00000000E+00  0.00000000E+00  0.00000000E+00
  0.00000000E+00  0.00000000E+00  0.00000000E+00
  0.00000000E+00  0.00000000E+00  0.00000000E+00
  0.00000000E+00  0.00000000E+00  0.00000000E+00
  0.00000000E+00  0.00000000E+00  0.00000000E+00
  0.00000000E+00  0.00000000E+00  0.00000000E+00
  0.00000000E+00  0.00000000E+00  0.00000000E+00
  0.00000000E+00  0.00000000E+00  0.00000000E+00
  0.00000000E+00  0.00000000E+00  0.00000000E+00
  0.00000000E+00  0.00000000E+00  0.00000000E+00
  0.00000000E+00  0.00000000E+00  0.00000000E+00
  0.00000000E+00  0.00000000E+00  0.00000000E+00
  0.00000000E+00  0.00000000E+00  0.00000000E+00
  0.00000000E+00  0.00000000E+00  0.00000000E+00
  0.00000000E+00  0.00000000E+00  0.00000000E+00
  0.00000000E+00  0.00000000E+00  0.00000000E+00
  0.00000000E+00  0.00000000E+00  0.00000000E+00
  0.00000000E+00  0.00000000E+00  0.00000000E+00
  0.00000000E+00  0.00000000E+00  0.00000000E+00
  0.00000000E+00  0.00000000E+00  0.00000000E+00
  0.00000000E+00  0.00000000E+00  0.00000000E+00
  0.00000000E+00  0.00000000E+00  0.00000000E+00
  0.00000000E+00  0.00000000E+00  0.00000000E+00
  0.00000000E+00  0.00000000E+00  0.00000000E+00
  0.00000000E+00  0.00000000E+00  0.00000000E+00
  0.00000000E+00  0.00000000E+00  0.00000000E+00
  0.00000000E+00  0.00000000E+00  0.00000000E+00
  0.00000000E+00  0.00000000E+00  0.00000000E+00
  0.00000000E+00  0.00000000E+00  0.00000000E+00
  0.00000000E+00  0.00000000E+00  0.00000000E+00
  0.00000000E+00  0.00000000E+00  0.00000000E+00
  0.00000000E+00  0.00000000E+00  0.00000000E+00
  0.00000000E+00  0.00000000E+00  0.00000000E+00
  0.00000000E+00  0.00000000E+00  0.00000000E+00
  0.00000000E+00  0.00000000E+00  0.00000000E+00
  0.00000000E+00  0.00000000E+00  0.00000000E+00
  0.00000000E+00  0.00000000E+00  0.00000000E+00
  0.00000000E+00  0.00000000E+00  0.00000000E+00
  0.00000000E+00  0.00000000E+00  0.00000000E+00
  0.00000000E+00  0.00000000E+00  0.00000000E+00
  0.00000000E+00  0.00000000E+00  0.00000000E+00
  0.00000000E+00  0.00000000E+00  0.00000000E+00
  0.00000000E+00  0.00000000E+00  0.00000000E+00
  0.00000000E+00  0.00000000E+00  0.00000000E+00
  0.00000000E+00  0.00000000E+00  0.00000000E+00
  0.00000000E+00  0.00000000E+00  0.00000000E+00
  0.00000000E+00  0.00000000E+00  0.00000000E+00
  0.00000000E+00  0.00000000E+00  0.00000000E+00
  0.00000000E+00  0.00000000E+00  0.00000000E+00
  0.00000000E+00  0.00000000E+00  0.00000000E+00
  0.00000000E+00  0.00000000E+00  0.00000000E+00
  0.00000000E+00  0.00000000E+00  0.00000000E+00
  0.00000000E+00  0.00000000E+00  0.00000000E+00
  0.00000000E+00  0.00000000E+00  0.00000000E+00
  0.00000000E+00  0.00000000E+00  0.00000000E+00
  0.00000000E+00  0.00000000E+00  0.00000000E+00
  0.00000000E+00  0.00000000E+00  0.00000000E+00
  0.00000000E+00  0.00000000E+00  0.00000000E+00
  0.00000000E+00  0.00000000E+00  0.00000000E+00
  0.00000000E+00  0.00000000E+00  0.00000000E+00
  0.00000000E+00  0.00000000E+00  0.00000000E+00
  0.00000000E+00  0.00000000E+00  0.00000000E+00
  0.00000000E+00  0.00000000E+00  0.00000000E+00
  0.00000000E+00  0.00000000E+00  0.00000000E+00
  0.00000000E+00  0.00000000E+00  0.00000000E+00
  0.00000000E+00  0.00000000E+00  0.00000000E+00
  0.00000000E+00  0.00000000E+00  0.00000000E+00
  0.00000000E+00  0.00000000E+00  0.00000000E+00
  0.00000000E+00  0.00000000E+00  0.00000000E+00
  0.00000000E+00  0.00000000E+00  0.00000000E+00
  0.00000000E+00  0.00000000E+00  0.00000000E+00
  0.00000000E+00  0.00000000E+00  0.00000000E+00
  0.00000000E+00  0.00000000E+00  0.00000000E+00
  0.00000000E+00  0.00000000E+00  0.00000000E+00
  0.00000000E+00  0.00000000E+00  0.00000000E+00
  0.00000000E+00  0.00000000E+00  0.00000000E+00
  0.00000000E+00  0.00000000E+00  0.00000000E+00
  0.00000000E+00  0.00000000E+00  0.00000000E+00
  0.00000000E+00  0.00000000E+00  0.00000000E+00
  0.00000000E+00  0.00000000E+00  0.00000000E+00
  0.00000000E+00  0.00000000E+00  0.00000000E+00
  0.00000000E+00  0.00000000E+00  0.00000000E+00
  0.00000000E+00  0.00000000E+00  0.00000000E+00
  0.00000000E+00  0.00000000E+00  0.00000000E+00
  0.00000000E+00  0.00000000E+00  0.00000000E+00
  0.00000000E+00  0.00000000E+00  0.00000000E+00
  0.00000000E+00  0.00000000E+00  0.00000000E+00
  0.00000000E+00  0.00000000E+00  0.00000000E+00
  0.00000000E+00  0.00000000E+00  0.00000000E+00
  0.00000000E+00  0.00000000E+00  0.00000000E+00
  0.00000000E+00  0.00000000E+00  0.00000000E+00
  0.00000000E+00  0.00000000E+00  0.00000000E+00
  0.00000000E+00  0.00000000E+00  0.00000000E+00
  0.00000000E+00  0.00000000E+00  0.00000000E+00
  0.00000000E+00  0.00000000E+00  0.00000000E+00
  0.00000000E+00  0.00000000E+00  0.00000000E+00
  0.00000000E+00  0.00000000E+00  0.00000000E+00
  0.00000000E+00  0.00000000E+00  0.00000000E+00
  0.00000000E+00  0.00000000E+00  0.00000000E+00
  0.00000000E+00  0.00000000E+00  0.00000000E+00
  0.00000000E+00  0.00000000E+00  0.00000000E+00
  0.00000000E+00  0.00000000E+00  0.00000000E+00
  0.00000000E+00  0.00000000E+00  0.00000000E+00
  0.00000000E+00  0.00000000E+00  0.00000000E+00
  0.00000000E+00  0.00000000E+00  0.00000000E+00
  0.00000000E+00  0.00000000E+00  0.00000000E+00
  0.00000000E+00  0.00000000E+00  0.00000000E+00
  0.00000000E+00  0.00000000E+00  0.00000000E+00
  0.00000000E+00  0.00000000E+00  0.00000000E+00
  0.00000000E+00  0.00000000E+00  0.00000000E+00
  0.00000000E+00  0.00000000E+00  0.00000000E+00
  0.00000000E+00  0.00000000E+00  0.00000000E+00
  0.00000000E+00  0.00000000E+00  0.00000000E+00
  0.00000000E+00  0.00000000E+00  0.00000000E+00
  0.00000000E+00  0.00000000E+00  0.00000000E+00
  0.00000000E+00  0.00000000E+00  0.00000000E+00
  0.00000000E+00  0.00000000E+00  0.00000000E+00
  0.00000000E+00  0.00000000E+00  0.00000000E+00
  0.00000000E+00  0.00000000E+00  0.00000000E+00
  0.00000000E+00  0.00000000E+00  0.00000000E+00
  0.00000000E+00  0.00000000E+00  0.00000000E+00
  0.00000000E+00  0.00000000E+00  0.00000000E+00
  0.00000000E+00  0.00000000E+00  0.00000000E+00
  0.00000000E+00  0.00000000E+00  0.00000000E+00
  0.00000000E+00  0.00000000E+00  0.00000000E+00
  0.00000000E+00  0.00000000E+00  0.00000000E+00
  0.00000000E+00  0.00000000E+00  0.00000000E+00
  0.00000000E+00  0.00000000E+00  0.00000000E+00
  0.00000000E+00  0.00000000E+00  0.00000000E+00
  0.00000000E+00  0.00000000E+00  0.00000000E+00
  0.00000000E+00  0.00000000E+00  0.00000000E+00
  0.00000000E+00  0.00000000E+00  0.00000000E+00
  0.00000000E+00  0.00000000E+00  0.00000000E+00
  0.00000000E+00  0.00000000E+00  0.00000000E+00
  0.00000000E+00  0.00000000E+00  0.00000000E+00
  0.00000000E+00  0.00000000E+00  0.00000000E+00
  0.00000000E+00  0.00000000E+00  0.00000000E+00
  0.00000000E+00  0.00000000E+00  0.00000000E+00
  0.00000000E+00  0.00000000E+00  0.00000000E+00
  0.00000000E+00  0.00000000E+00  0.00000000E+00
  0.00000000E+00  0.00000000E+00  0.00000000E+00
  0.00000000E+00  0.00000000E+00  0.00000000E+00
  0.00000000E+00  0.00000000E+00  0.00000000E+00
  0.00000000E+00  0.00000000E+00  0.00000000E+00
  0.00000000E+00  0.00000000E+00  0.00000000E+00
  0.00000000E+00  0.00000000E+00  0.00000000E+00