 B C N 
 1.0
 14.936314146199660   0.000000000000000   0.000000000000000
 -7.468157073099825  12.935227489513863   0.000000000000000
  0.000000000000001   0.000000000000001  13.341276283792837
 B C N 
 143   1 143
Cartesian
  1.235678038472329   0.716034697199739   5.002978606422314 
  5.129322642593750   6.918608583041300   5.002978606422314 
  6.208850439997286   0.758595869547166   5.002978606422314 
  9.988342682255880   7.203370333669046   5.002978606422314 
 11.179127900927062   0.705282507566071   5.002978606422314 
 -3.734207877089808   9.342034067631108  11.673616748318732 
  1.244894132054341   9.341810740124707  11.673616748318732 
  2.490180086555263   2.875057380931781  11.673616748318732 
  6.223338086066756   9.341123387399861  11.673616748318732 
  7.467432152358486   2.875079448626998  11.673616748318732 
 12.446855745761042   2.874662873788164  11.673616748318732 
 -1.220277271291740   9.345407508481230   5.002978606422314 
 -0.028221594431266   2.858201252527849   5.002978606422314 
  4.953766506477386   2.943890716273492   5.002978606422314 
  3.783391881465167   9.221681000595650   5.002978606422314 
  8.743087351919190   9.360215834208175   5.002978606422314 
  9.918353462153069   2.890628358872640   5.002978606422314 
 -4.978692508789506  11.497848624568705  11.673616748318732 
 -0.000074853742060  11.497936773850807  11.673616748318732 
  1.245577081469257   5.030773020993665  11.673616748318732 
  6.222825285689380   5.030799459832488  11.673616748318732 
  4.978757585886135  11.497284443653584  11.673616748318732 
 11.201827982515791   5.030631390355365  11.673616748318732 
 -1.251442434031009   5.023853720120266   5.002978606422314 
 -2.474321088716401  11.517475115178389   5.002978606422314 
  2.496121572299778  11.459435730587328   5.002978606422314 
  7.469740902496147  11.484909514726981   5.002978606422314 
  8.684350005016391   5.068376090417244   5.002978606422314 
  0.000397636183747   7.186346575171724  11.673616748318732 
  1.245044023752018   0.718694332472548  11.673616748318732 
  4.978827085371386   7.185467547307513  11.673616748318732 
  6.223306793288133   0.718947069823534  11.673616748318732 
  9.957054673876268   7.186240676189398  11.673616748318732 
 -2.467105622841409   7.191300432881412   5.002978606422314 
 11.202049057411875   0.718516043432709  11.673616748318732 
  3.736949763205088   0.744170935614292   5.002978606422314 
  2.536981708463402   7.129884777393830   5.002978606422314 
  7.525094569287187   7.219110372925128   5.002978606422314 
  8.682837550840295   0.743729323756873   5.002978606422314 
  2.489985839015771   7.186019804098650  11.673616748318732 
 13.671572320283614   0.697888215042147   5.002978606422314 
 -1.244620613103455   9.342099561069832  11.673616748318732 
  0.000494522583366   2.874780510416329  11.673616748318732 
  4.978882930922048   2.875123586106523  11.673616748318732 
  3.734222225555539   9.341188717170239  11.673616748318732 
  8.712608629193888   9.341684452857423  11.673616748318732 
  9.956933504649406   2.874830823339662  11.673616748318732 
 -3.707002866675082   9.357740887717346   5.002978606422314 
  1.272002823199145   9.309466771066932   5.002978606422314 
  2.461950034063733   2.876336977959890   5.002978606422314 
  6.242131761709922   9.298422170995687   5.002978606422314 
  7.388520261811429   2.977415478027383   5.002978606422314 
 12.418946465436621   2.867499838511551   5.002978606422314 
 -1.244456129680105   5.030635083667529  11.673616748318732 
 -2.489357526114929  11.498047136462164  11.673616748318732 
  2.489318577026811  11.497580658281853  11.673616748318732 
  3.734907216509858   5.030844684519966  11.673616748318732 
  7.468182881347798  11.497494403009020  11.673616748318732 
 -4.963246714432482  11.514743626377616   5.002978606422314 
  8.711933505373318   5.030749681677690  11.673616748318732 
  0.007417238606716  11.502262335385181   5.002978606422314 
  1.232570218756433   5.005685279871790   5.002978606422314 
  0.023560125569257   7.175950456299378   5.002978606422314 
  6.066966422018419   5.294561917676857   5.002978606422314 
  4.973148631726700  11.455974379006207   5.002978606422314 
 11.191708160133935   5.038273120390487   5.002978606422314 
 -2.489460020783423   7.186371483491055  11.673616748318732 
  3.734371821556554   0.718913571955369  11.673616748318732 
  7.467571905977215   7.185899647778626  11.673616748318732 
  8.712470529612789   0.718765293181398  11.673616748318732 
 13.691730330963575   0.718476843166131  11.673616748318732 
 -0.000425442370561   1.437216654469420   1.668145645457572 
  3.736825784230917   7.902377860656820   1.668484208297876 
  4.978582686132853   1.440260355873353   1.668918284588980 
  8.710102535657875   7.903275041301193   1.670171820633848 
  9.956905120135179   1.437561957202637   1.668992153275864 
 -4.980090706043817  10.060101491514397   8.337352022677212 
  0.000927125198529  10.060155619663298   8.337396976200372 
  1.245239546966674   3.593434385316543   8.337738661137656 
  4.978839115383770  10.058990195086031   8.336407323273995 
  6.222687178714659   3.596739624836933   8.337473004546752 
 11.201307431035850   3.593008089230247   8.337321937758709 
 -2.489601445914333  10.060607925705481   1.668158674863525 
 -1.244932278705984   3.592765725369193   1.668145645457572 
  3.734850378055297   3.596597667827165   1.667881415472114 
  2.490685548407098  10.059289071714165   1.669618784342959 
  7.466655381842001  10.059344577850590   1.669517623868070 
  8.711374912021622   3.594048554239650   1.669549889570645 
 -6.224191293140660  12.216498955442125   8.337292388648370 
 -1.244728868880708  12.217695090161268   8.337396976200372 
  0.001205167754173   5.748250969632365   8.337122733835052 
  4.979222485381205   5.749250439959612   8.315558774674040 
  3.734032043485844  12.215894295011816   8.336965059568751 
  9.955589949727518   5.748383449558356   8.336439588976559 
 -2.489839969984523   5.748412730423587   1.668664824196272 
 -3.734500521395162  12.217552095812653   1.668431670738795 
  1.244812503367549  12.216672824588837   1.669187846777934 
  2.492784445524525   5.747918969320894   1.667881415472114 
  6.222904305760991  12.215855242766049   1.668635275085918 
  7.464988059835609   5.748179589386214   1.670218096199415 
 -1.244082537797197   7.904021616137713   8.337525542105846 
 -0.000425442370561   1.437216654469421   8.337811567387057 
  3.736825784230918   7.902377860656821   8.337473004546752 
  4.978582686132854   1.440260355873354   8.337038928255661 
  8.710102535657875   7.903275041301194   8.335785392210779 
 -3.735284660853900   7.904034175676563   1.668605190167429 
  9.956905120135179   1.437561957202637   8.336965059568751 
  2.489348259873918   1.438660717579407   1.668834479009577 
  1.247207708283012   7.903191399600515   1.668918284588980 
  6.221177888808167   7.902522000576695   1.670218096199415 
  7.467556963285841   1.439094918406919   1.669618784342959 
  1.247207708283013   7.903191399600516   8.337038928255661 
 12.446396733286969   1.436940509064753   1.667983876171007 
 -2.489601445914333  10.060607925705481   8.337798537981103 
 -1.244932278705983   3.592765725369194   8.337811567387057 
  3.734850378055298   3.596597667827166   8.338075797372515 
  2.490685548407099  10.059289071714165   8.336338428501669 
  7.466655381842002  10.059344577850590   8.336439588976559 
  8.711374912021622   3.594048554239651   8.336407323273995 
 -4.980090706043818  10.060101491514397   1.668605190167429 
  0.000927125198529  10.060155619663298   1.668560236644268 
  1.245239546966673   3.593434385316542   1.668218551706985 
  4.978839115383769  10.058990195086031   1.669549889570645 
  6.222687178714658   3.596739624836932   1.668484208297876 
 11.201307431035850   3.593008089230246   1.668635275085918 
 -2.489839969984523   5.748412730423587   8.337292388648370 
 -3.734500521395162  12.217552095812653   8.337525542105846 
  1.244812503367549  12.216672824588837   8.336769366066680 
  2.492784445524526   5.747918969320895   8.338075797372515 
  6.222904305760992  12.215855242766049   8.337321937758709 
 -6.224191293140660  12.216498955442125   1.668664824196272 
  7.464988059835610   5.748179589386215   8.335739116645227 
 -1.244728868880708  12.217695090161268   1.668560236644268 
  0.001205167754173   5.748250969632364   1.668834479009577 
 -1.244082537797198   7.904021616137713   1.668431670738795 
  4.979222485381204   5.749250439959611   1.690398438170588 
  3.734032043485843  12.215894295011816   1.668992153275864 
  9.955589949727518   5.748383449558355   1.669517623868070 
 -3.735284660853899   7.904034175676564   8.337352022677212 
  2.489348259873919   1.438660717579408   8.337122733835052 
  6.221177888808167   7.902522000576695   8.335739116645227 
  7.467556963285841   1.439094918406920   8.336338428501669 
 12.446396733286969   1.436940509064753   8.337973336673608 
  3.689910517479731   5.004865828222260   5.002978606422314 
  1.244092814295945   0.718604328231844   1.666835984217650 
  4.978612771896721   7.187579371280259   1.652323585163821 
  6.223242372804564   0.718811339173345   1.666016489893437 
  9.957379780075392   7.185987261169747   1.666172138026779 
 11.201899631433315   0.718429772303755   1.666579383840366 
 -3.734313089238601   9.341973323368670   8.339737167466811 
  1.244744375621422   9.341822815674504   8.339940722951189 
  2.488521777469503   2.874438039454745   8.340302099414352 
  6.223303440509756   9.342514347990448   8.341360658354654 
  7.468250952315971   2.874461708128788   8.340683979209871 
 12.446492768209144   2.874078924508614   8.339877471418379 
 -1.244740352857547   9.341866824287576   1.666148589655505 
 -0.000907126482494   2.873971267950844   1.665947171572223 
  4.978440321907891   2.874577219814009   1.662300307137314 
  3.734096646569862   9.342206688983154   1.665273233634757 
  8.712551718448726   9.342092710594629   1.666172138026779 
  9.957534938664715   2.874193562655195   1.666585926800946 
 -4.979171616024379  11.498063597699989   8.339791610295720 
 -0.000111688248676  11.497915507438512   8.339729080319781 
  1.244211561473639   5.029646553936601   8.340302099414352 
  6.224547022160761   5.029557946932693   8.353633627680793 
  4.978506418952217  11.498123931131760   8.339371286043693 
 11.202175622458867   5.029984196386718   8.339449253012065 
 -1.245009680367038   5.029856314234602   1.666835984217650 
 -2.489618951957795  11.498059807184388   1.666148589655505 
  2.489198438450877  11.497834183971158   1.667073687040161 
  3.732938256064688   5.029707904676930   1.654447778359861 
  7.467796214901319  11.498119065015402   1.666507959832563 
  8.713120789801923   5.030024197449919   1.664596554489960 
 -0.000050467248580   7.185704720472064   8.339815917988496 
  1.244092814295946   0.718604328231845   8.339121228626977 
  4.978612771896722   7.187579371280260   8.353633627680793 
  6.223242372804565   0.718811339173346   8.339940722951189 
  9.957379780075392   7.185987261169748   8.339785074817849 
 -2.489513402208037   7.185849077888875   1.666165602548907 
 11.201899631433315   0.718429772303755   8.339377829004247 
  3.733591907364938   0.718846430349293   1.666141294856119 
  2.489291367419612   7.185909676594688   1.662300307137314 
  7.468013903806506   7.186154835344359   1.664179182936286 
  8.712630020012281   0.718534487277998   1.667073687040161 
  2.489291367419612   7.185909676594689   8.343656905707313 
 13.691043127277014   0.718454470024958   1.666079741426262 
 -1.244740352857546   9.341866824287576   8.339808623189123 
 -0.000907126482493   2.873971267950845   8.340010041272391 
  4.978440321907891   2.874577219814010   8.343656905707313 
  3.734096646569862   9.342206688983154   8.340683979209871 
  8.712551718448726   9.342092710594629   8.339785074817849 
  9.957534938664715   2.874193562655196   8.339371286043693 
 -3.734313089238602   9.341973323368670   1.666220045377816 
  1.244744375621422   9.341822815674504   1.666016489893437 
  2.488521777469503   2.874438039454744   1.665655113430290 
  6.223303440509755   9.342514347990448   1.664596554489960 
  7.468250952315970   2.874461708128787   1.665273233634757 
 12.446492768209144   2.874078924508613   1.666079741426262 
 -1.245009680367038   5.029856314234602   8.339121228626977 
 -2.489618951957795  11.498059807184388   8.339808623189123 
  2.489198438450877  11.497834183971158   8.338883525804453 
  3.732938256064688   5.029707904676931   8.351509434484781 
  7.467796214901320  11.498119065015402   8.339449253012065 
 -4.979171616024380  11.498063597699989   1.666165602548907 
  8.713120789801923   5.030024197449920   8.341360658354654 
 -0.000111688248676  11.497915507438512   1.666228132524847 
  1.244211561473638   5.029646553936600   1.665655113430290 
 -0.000050467248580   7.185704720472063   1.666141294856119 
  6.224547022160760   5.029557946932692   1.652323585163821 
  4.978506418952216  11.498123931131760   1.666585926800946 
 11.202175622458867   5.029984196386717   1.666507959832563 
 -2.489513402208037   7.185849077888876   8.339791610295720 
  3.733591907364939   0.718846430349294   8.339815917988496 
  7.468013903806507   7.186154835344360   8.341778029908356 
  8.712630020012281   0.718534487277998   8.338883525804453 
 13.691043127277014   0.718454470024959   8.339877471418379 
 -0.020854560964401   1.420736614360626   5.002978606422314 
  3.823007832875267   7.750427373034225   5.002978606422314 
  4.965965214886385   1.482982189930209   5.002978606422314 
  8.766195241910573   7.935660180355730   5.002978606422314 
  9.935863339387064   1.444515036954129   5.002978606422314 
 -4.978702969887696  10.060756486400653  11.673616748318732 
 -0.000090542983338  10.060786795007946  11.673616748318732 
  1.244743374751310   3.593147920154438  11.673616748318732 
  4.978757122910620  10.060674968478112  11.673616748318732 
  6.223413821079942   3.592956059279500  11.673616748318732 
 11.202212159021414   3.593197878411387  11.673616748318732 
 -2.463074640776226  10.075923183792698   5.002978606422314 
 -1.269418971392498   3.583313609744387   5.002978606422314 
  3.685615384525176   3.621828573536698   5.002978606422314 
  2.527369491713579  10.001194316326389   5.002978606422314 
  7.484271724565904  10.052966991156191   5.002978606422314 
  8.678636929306315   3.626445909561358   5.002978606422314 
 -6.223405405347655  12.216554095263994  11.673616748318732 
 -1.244691089088950  12.216498175990852  11.673616748318732 
 -0.000042518353136   5.749083162802077  11.673616748318732 
  4.978763024811310   5.748985170275883  11.673616748318732 
  3.734015864779841  12.216541510403673  11.673616748318732 
  9.957597870051849   5.749068252698109  11.673616748318732 
 -2.489294235654739   5.750846143814059   5.002978606422314 
 -3.721248704292394  12.237481996264249   5.002978606422314 
  1.248494289877472  12.218798505021399   5.002978606422314 
  2.490017554064409   5.692664761313881   5.002978606422314 
  6.214154481700609  12.194251040145035   5.002978606422314 
  7.467677437976716   5.802572502264809   5.002978606422314 
 -1.244778501649211   7.904933563817990  11.673616748318732 
  0.000068963741196   1.437213263832307  11.673616748318732 
  3.733912441523946   7.904898934183326  11.673616748318732 
  4.978794051910575   1.437016974070844  11.673616748318732 
  8.713011412436575   7.904954482092397  11.673616748318732 
 -3.701238437999276   7.919748654376407   5.002978606422314 
  9.957457535753258   1.437224338336286  11.673616748318732 
  2.478864244665977   1.440576720522538   5.002978606422314 
  1.277897166249279   7.870903431941127   5.002978606422314 
  6.269628222217409   7.877654613927992   5.002978606422314 
  7.435587400946631   1.499911522915195   5.002978606422314 
  1.244504540136728   7.904996138634768  11.673616748318732 
 12.425243370359320   1.424727609284199   5.002978606422314 
 -2.489394412318862  10.060727456607539  11.673616748318732 
 -1.244688012027974   3.593195588940306  11.673616748318732 
  3.734125296623327   3.593007564003575  11.673616748318732 
  2.489265435332624  10.060741450050623  11.673616748318732 
  7.468252398919770  10.060741086290387  11.673616748318732 
  8.712792972342211   3.593135159978943  11.673616748318732 
 -4.949458456855206  10.081729146059473   5.002978606422314 
  0.025854181213885  10.056481217374532   5.002978606422314 
  1.209889579203270   3.573025071912506   5.002978606422314 
  4.990527056750153  10.014439592725052   5.002978606422314 
  6.134185220638232   3.747350712124425   5.002978606422314 
 11.178222730707363   3.596232620625803   5.002978606422314 
 -2.489399273601530   5.749065759305934  11.673616748318732 
 -3.734058733463120  12.216493399596542  11.673616748318732 
  1.244605705587054  12.216553429834576  11.673616748318732 
  2.489312783695094   5.749086082292778  11.673616748318732 
  6.223521032006005  12.216543865594492  11.673616748318732 
 -6.221811028161718  12.215754868540213   5.002978606422314 
  7.468236727192235   5.749077175076179  11.673616748318732 
 -1.235447466598824  12.241119755056506   5.002978606422314 
 -0.002377532627320   5.738213544657060   5.002978606422314 
 -1.220196829159844   7.905533076169231   5.002978606422314 
  3.729532696811125  12.194195038467328   5.002978606422314 
  9.958874968997268   5.766828443226254   5.002978606422314 
 -3.734023550564999   7.904908492998402  11.673616748318732 
  2.489445117246090   1.437164093129673  11.673616748318732 
  6.223579554496039   7.904886636191036  11.673616748318732 
  7.468104703283881   1.437138875239950  11.673616748318732 
 12.446928443815661   1.437247492281616  11.673616748318732 
Generated by cif2cell 2.0.0.  :  Failed to get author information, No journal information. Species order: B C N 
 1.0
 14.936314146199660   0.000000000000000   0.000000000000000
 -7.468157073099825  12.935227489513863   0.000000000000000
  0.000000000000001   0.000000000000001  13.341276283792837
 B C N 
 143   1 143
Cartesian
  1.235678038472329   0.716034697199739   5.002978606422314 
  5.129322642593750   6.918608583041300   5.002978606422314 
  6.208850439997286   0.758595869547166   5.002978606422314 
  9.988342682255880   7.203370333669046   5.002978606422314 
 11.179127900927062   0.705282507566071   5.002978606422314 
 -3.734207877089808   9.342034067631108  11.673616748318732 
  1.244894132054341   9.341810740124707  11.673616748318732 
  2.490180086555263   2.875057380931781  11.673616748318732 
  6.223338086066756   9.341123387399861  11.673616748318732 
  7.467432152358486   2.875079448626998  11.673616748318732 
 12.446855745761042   2.874662873788164  11.673616748318732 
 -1.220277271291740   9.345407508481230   5.002978606422314 
 -0.028221594431266   2.858201252527849   5.002978606422314 
  4.953766506477386   2.943890716273492   5.002978606422314 
  3.783391881465167   9.221681000595650   5.002978606422314 
  8.743087351919190   9.360215834208175   5.002978606422314 
  9.918353462153069   2.890628358872640   5.002978606422314 
 -4.978692508789506  11.497848624568705  11.673616748318732 
 -0.000074853742060  11.497936773850807  11.673616748318732 
  1.245577081469257   5.030773020993665  11.673616748318732 
  6.222825285689380   5.030799459832488  11.673616748318732 
  4.978757585886135  11.497284443653584  11.673616748318732 
 11.201827982515791   5.030631390355365  11.673616748318732 
 -1.251442434031009   5.023853720120266   5.002978606422314 
 -2.474321088716401  11.517475115178389   5.002978606422314 
  2.496121572299778  11.459435730587328   5.002978606422314 
  7.469740902496147  11.484909514726981   5.002978606422314 
  8.684350005016391   5.068376090417244   5.002978606422314 
  0.000397636183747   7.186346575171724  11.673616748318732 
  1.245044023752018   0.718694332472548  11.673616748318732 
  4.978827085371386   7.185467547307513  11.673616748318732 
  6.223306793288133   0.718947069823534  11.673616748318732 
  9.957054673876268   7.186240676189398  11.673616748318732 
 -2.467105622841409   7.191300432881412   5.002978606422314 
 11.202049057411875   0.718516043432709  11.673616748318732 
  3.736949763205088   0.744170935614292   5.002978606422314 
  2.536981708463402   7.129884777393830   5.002978606422314 
  7.525094569287187   7.219110372925128   5.002978606422314 
  8.682837550840295   0.743729323756873   5.002978606422314 
  2.489985839015771   7.186019804098650  11.673616748318732 
 13.671572320283614   0.697888215042147   5.002978606422314 
 -1.244620613103455   9.342099561069832  11.673616748318732 
  0.000494522583366   2.874780510416329  11.673616748318732 
  4.978882930922048   2.875123586106523  11.673616748318732 
  3.734222225555539   9.341188717170239  11.673616748318732 
  8.712608629193888   9.341684452857423  11.673616748318732 
  9.956933504649406   2.874830823339662  11.673616748318732 
 -3.707002866675082   9.357740887717346   5.002978606422314 
  1.272002823199145   9.309466771066932   5.002978606422314 
  2.461950034063733   2.876336977959890   5.002978606422314 
  6.242131761709922   9.298422170995687   5.002978606422314 
  7.388520261811429   2.977415478027383   5.002978606422314 
 12.418946465436621   2.867499838511551   5.002978606422314 
 -1.244456129680105   5.030635083667529  11.673616748318732 
 -2.489357526114929  11.498047136462164  11.673616748318732 
  2.489318577026811  11.497580658281853  11.673616748318732 
  3.734907216509858   5.030844684519966  11.673616748318732 
  7.468182881347798  11.497494403009020  11.673616748318732 
 -4.963246714432482  11.514743626377616   5.002978606422314 
  8.711933505373318   5.030749681677690  11.673616748318732 
  0.007417238606716  11.502262335385181   5.002978606422314 
  1.232570218756433   5.005685279871790   5.002978606422314 
  0.023560125569257   7.175950456299378   5.002978606422314 
  6.066966422018419   5.294561917676857   5.002978606422314 
  4.973148631726700  11.455974379006207   5.002978606422314 
 11.191708160133935   5.038273120390487   5.002978606422314 
 -2.489460020783423   7.186371483491055  11.673616748318732 
  3.734371821556554   0.718913571955369  11.673616748318732 
  7.467571905977215   7.185899647778626  11.673616748318732 
  8.712470529612789   0.718765293181398  11.673616748318732 
 13.691730330963575   0.718476843166131  11.673616748318732 
 -0.000425442370561   1.437216654469420   1.668145645457572 
  3.736825784230917   7.902377860656820   1.668484208297876 
  4.978582686132853   1.440260355873353   1.668918284588980 
  8.710102535657875   7.903275041301193   1.670171820633848 
  9.956905120135179   1.437561957202637   1.668992153275864 
 -4.980090706043817  10.060101491514397   8.337352022677212 
  0.000927125198529  10.060155619663298   8.337396976200372 
  1.245239546966674   3.593434385316543   8.337738661137656 
  4.978839115383770  10.058990195086031   8.336407323273995 
  6.222687178714659   3.596739624836933   8.337473004546752 
 11.201307431035850   3.593008089230247   8.337321937758709 
 -2.489601445914333  10.060607925705481   1.668158674863525 
 -1.244932278705984   3.592765725369193   1.668145645457572 
  3.734850378055297   3.596597667827165   1.667881415472114 
  2.490685548407098  10.059289071714165   1.669618784342959 
  7.466655381842001  10.059344577850590   1.669517623868070 
  8.711374912021622   3.594048554239650   1.669549889570645 
 -6.224191293140660  12.216498955442125   8.337292388648370 
 -1.244728868880708  12.217695090161268   8.337396976200372 
  0.001205167754173   5.748250969632365   8.337122733835052 
  4.979222485381205   5.749250439959612   8.315558774674040 
  3.734032043485844  12.215894295011816   8.336965059568751 
  9.955589949727518   5.748383449558356   8.336439588976559 
 -2.489839969984523   5.748412730423587   1.668664824196272 
 -3.734500521395162  12.217552095812653   1.668431670738795 
  1.244812503367549  12.216672824588837   1.669187846777934 
  2.492784445524525   5.747918969320894   1.667881415472114 
  6.222904305760991  12.215855242766049   1.668635275085918 
  7.464988059835609   5.748179589386214   1.670218096199415 
 -1.244082537797197   7.904021616137713   8.337525542105846 
 -0.000425442370561   1.437216654469421   8.337811567387057 
  3.736825784230918   7.902377860656821   8.337473004546752 
  4.978582686132854   1.440260355873354   8.337038928255661 
  8.710102535657875   7.903275041301194   8.335785392210779 
 -3.735284660853900   7.904034175676563   1.668605190167429 
  9.956905120135179   1.437561957202637   8.336965059568751 
  2.489348259873918   1.438660717579407   1.668834479009577 
  1.247207708283012   7.903191399600515   1.668918284588980 
  6.221177888808167   7.902522000576695   1.670218096199415 
  7.467556963285841   1.439094918406919   1.669618784342959 
  1.247207708283013   7.903191399600516   8.337038928255661 
 12.446396733286969   1.436940509064753   1.667983876171007 
 -2.489601445914333  10.060607925705481   8.337798537981103 
 -1.244932278705983   3.592765725369194   8.337811567387057 
  3.734850378055298   3.596597667827166   8.338075797372515 
  2.490685548407099  10.059289071714165   8.336338428501669 
  7.466655381842002  10.059344577850590   8.336439588976559 
  8.711374912021622   3.594048554239651   8.336407323273995 
 -4.980090706043818  10.060101491514397   1.668605190167429 
  0.000927125198529  10.060155619663298   1.668560236644268 
  1.245239546966673   3.593434385316542   1.668218551706985 
  4.978839115383769  10.058990195086031   1.669549889570645 
  6.222687178714658   3.596739624836932   1.668484208297876 
 11.201307431035850   3.593008089230246   1.668635275085918 
 -2.489839969984523   5.748412730423587   8.337292388648370 
 -3.734500521395162  12.217552095812653   8.337525542105846 
  1.244812503367549  12.216672824588837   8.336769366066680 
  2.492784445524526   5.747918969320895   8.338075797372515 
  6.222904305760992  12.215855242766049   8.337321937758709 
 -6.224191293140660  12.216498955442125   1.668664824196272 
  7.464988059835610   5.748179589386215   8.335739116645227 
 -1.244728868880708  12.217695090161268   1.668560236644268 
  0.001205167754173   5.748250969632364   1.668834479009577 
 -1.244082537797198   7.904021616137713   1.668431670738795 
  4.979222485381204   5.749250439959611   1.690398438170588 
  3.734032043485843  12.215894295011816   1.668992153275864 
  9.955589949727518   5.748383449558355   1.669517623868070 
 -3.735284660853899   7.904034175676564   8.337352022677212 
  2.489348259873919   1.438660717579408   8.337122733835052 
  6.221177888808167   7.902522000576695   8.335739116645227 
  7.467556963285841   1.439094918406920   8.336338428501669 
 12.446396733286969   1.436940509064753   8.337973336673608 
  3.689910517479731   5.004865828222260   5.002978606422314 
  1.244092814295945   0.718604328231844   1.666835984217650 
  4.978612771896721   7.187579371280259   1.652323585163821 
  6.223242372804564   0.718811339173345   1.666016489893437 
  9.957379780075392   7.185987261169747   1.666172138026779 
 11.201899631433315   0.718429772303755   1.666579383840366 
 -3.734313089238601   9.341973323368670   8.339737167466811 
  1.244744375621422   9.341822815674504   8.339940722951189 
  2.488521777469503   2.874438039454745   8.340302099414352 
  6.223303440509756   9.342514347990448   8.341360658354654 
  7.468250952315971   2.874461708128788   8.340683979209871 
 12.446492768209144   2.874078924508614   8.339877471418379 
 -1.244740352857547   9.341866824287576   1.666148589655505 
 -0.000907126482494   2.873971267950844   1.665947171572223 
  4.978440321907891   2.874577219814009   1.662300307137314 
  3.734096646569862   9.342206688983154   1.665273233634757 
  8.712551718448726   9.342092710594629   1.666172138026779 
  9.957534938664715   2.874193562655195   1.666585926800946 
 -4.979171616024379  11.498063597699989   8.339791610295720 
 -0.000111688248676  11.497915507438512   8.339729080319781 
  1.244211561473639   5.029646553936601   8.340302099414352 
  6.224547022160761   5.029557946932693   8.353633627680793 
  4.978506418952217  11.498123931131760   8.339371286043693 
 11.202175622458867   5.029984196386718   8.339449253012065 
 -1.245009680367038   5.029856314234602   1.666835984217650 
 -2.489618951957795  11.498059807184388   1.666148589655505 
  2.489198438450877  11.497834183971158   1.667073687040161 
  3.732938256064688   5.029707904676930   1.654447778359861 
  7.467796214901319  11.498119065015402   1.666507959832563 
  8.713120789801923   5.030024197449919   1.664596554489960 
 -0.000050467248580   7.185704720472064   8.339815917988496 
  1.244092814295946   0.718604328231845   8.339121228626977 
  4.978612771896722   7.187579371280260   8.353633627680793 
  6.223242372804565   0.718811339173346   8.339940722951189 
  9.957379780075392   7.185987261169748   8.339785074817849 
 -2.489513402208037   7.185849077888875   1.666165602548907 
 11.201899631433315   0.718429772303755   8.339377829004247 
  3.733591907364938   0.718846430349293   1.666141294856119 
  2.489291367419612   7.185909676594688   1.662300307137314 
  7.468013903806506   7.186154835344359   1.664179182936286 
  8.712630020012281   0.718534487277998   1.667073687040161 
  2.489291367419612   7.185909676594689   8.343656905707313 
 13.691043127277014   0.718454470024958   1.666079741426262 
 -1.244740352857546   9.341866824287576   8.339808623189123 
 -0.000907126482493   2.873971267950845   8.340010041272391 
  4.978440321907891   2.874577219814010   8.343656905707313 
  3.734096646569862   9.342206688983154   8.340683979209871 
  8.712551718448726   9.342092710594629   8.339785074817849 
  9.957534938664715   2.874193562655196   8.339371286043693 
 -3.734313089238602   9.341973323368670   1.666220045377816 
  1.244744375621422   9.341822815674504   1.666016489893437 
  2.488521777469503   2.874438039454744   1.665655113430290 