B N Ge                                  
   1.0000000000000000     
     8.7639499999999995  -15.1796066749929999    0.0000000000000000
     8.7639499999999995   15.1796066749929999    0.0000000000000000
     0.0000000000000000    0.0000000000000000   15.0000000000000000
   B    N    Ge
    49    47     1
Selective dynamics
Direct
  0.9042799780366881  0.9513642573960920  0.1049872062590444   T   T   T
  0.9041136263674761  0.0937786316823624  0.1067430015989101   T   T   T
  0.9043359508545061  0.2366691589786146  0.1063450577927889   T   T   T
  0.9046088085220050  0.3797976082878849  0.1050603068430573   T   T   T
  0.9056627068092109  0.5232421272189905  0.1034780482009790   T   T   T
  0.9058920857191619  0.6666204222762107  0.1025726935617251   T   T   T
  0.9052885507197781  0.8094308950712685  0.1014584063353541   T   T   T
  0.0480855213202160  0.9528568767566453  0.1037717338612732   T   T   T
  0.0481911538030194  0.0956986238244845  0.1053725929788147   T   T   T
  0.0475766492689462  0.2376562369297347  0.1054141848649485   T   T   T
  0.0471450998573277  0.3801914256672296  0.1032855569508135   T   T   T
  0.0471434675617839  0.5234034213844745  0.1024154871683116   T   T   T
  0.0477635983178357  0.6668243722462501  0.1028553610040134   T   T   T
  0.0481558176838304  0.8100119561605557  0.1027959237449771   T   T   T
  0.1910090091906406  0.9532156931029735  0.1054875286410189   T   T   T
  0.1912473052830770  0.0963803234355448  0.1060988938414591   T   T   T
  0.1924411241997019  0.2405371322769692  0.1072163733821283   T   T   T
  0.1903562083030745  0.3812843333496305  0.1042486932083627   T   T   T
  0.1887607752603794  0.5237780453739318  0.1004518544382400   T   T   T
  0.1894208221053630  0.6668808825846072  0.1028059497612870   T   T   T
  0.1905546542928770  0.8100594264071449  0.1050453647435732   T   T   T
  0.3335573247804130  0.9527522903599134  0.1081449602256722   T   T   T
  0.3340163527845315  0.0961674239460087  0.1093105140034049   T   T   T
  0.3340848989939543  0.2396418505690579  0.1128103889722203   T   T   T
  0.3376012876323791  0.3874673241912580  0.1172267192488550   T   T   T
  0.3297118788070676  0.5245446647404601  0.1061222428693190   T   T   T
  0.3308750580670933  0.6671364048478079  0.1041450294222110   T   T   T
  0.3328706161576586  0.8096614896300749  0.1081320116050615   T   T   T
  0.4759117602344258  0.9507835282663969  0.1110375617808035   T   T   T
  0.4764590844475688  0.0946694356265226  0.1106134966876363   T   T   T
  0.4769239128366955  0.2381477936354955  0.1181647679535577   T   T   T
  0.4734026869258456  0.3766306251735311  0.1451692488313843   T   T   T
  0.4720331993600746  0.5591401870454376  0.1501996456440724   T   T   T
  0.4687580648609535  0.6586795693368394  0.1281207219900398   T   T   T
  0.4747907404823623  0.8060610500891964  0.1161980527993537   T   T   T
  0.6179283733493437  0.9495367220055448  0.1131082386232782   T   T   T
  0.6187567690006031  0.0935079039392682  0.1105668104990408   T   T   T
  0.6193043581474179  0.2370671363767491  0.1133533599098593   T   T   T
  0.6204517022504745  0.3804680100317303  0.1272715246497675   T   T   T
  0.6346449683976718  0.5296931736527741  0.1497950180494722   T   T   T
  0.6198229059169393  0.6623276770885644  0.1092595708200066   T   T   T
  0.6158632516857538  0.8046826587818984  0.1163627094819131   T   T   T
  0.7602866895110714  0.9495593790990998  0.1093884024510850   T   T   T
  0.7611476245030816  0.0931238561942682  0.1092188936549779   T   T   T
  0.7617033288919483  0.2364902104694604  0.1087276514838327   T   T   T
  0.7623162494072092  0.3797353682929460  0.1099915270274845   T   T   T
  0.7647974822852540  0.5230921554032592  0.1116209049975671   T   T   T
  0.7640187412676116  0.6663378212234142  0.1051533220170347   T   T   T
  0.7605927685807095  0.8069453451787790  0.1058463594724423   T   T   T
  0.9525668098912309  0.9045460770804611  0.1029808569170883   T   T   T
  0.9523367949318023  0.0468606478672508  0.1056768116092876   T   T   T
  0.9520328908337883  0.1891848935473030  0.1061945096155605   T   T   T
  0.9519182329549494  0.3320165747026114  0.1048380076539041   T   T   T
  0.9522911217597009  0.4751880694105736  0.1034290136913754   T   T   T
  0.9528294652565357  0.6186830630041589  0.1025809877176204   T   T   T
  0.9528897190319651  0.7619371785075000  0.1013911965418940   T   T   T
  0.0956973628609378  0.9053275326944187  0.1037692585367009   T   T   T
  0.0958413628501106  0.0482009505685283  0.1048815130217556   T   T   T
  0.0964222111321432  0.1913459311150217  0.1057928718615884   T   T   T
  0.0949824068687862  0.3327920707109411  0.1039985448337472   T   T   T
  0.0939987192062865  0.4754752669634574  0.1016627783860642   T   T   T
  0.0945130711347312  0.6188088268822242  0.1026108652758224   T   T   T
  0.0953748161963916  0.7622099609057352  0.1035455243977957   T   T   T
  0.2383368536373922  0.9053663778234194  0.1062988545091271   T   T   T
  0.2387544026541516  0.0486062865033278  0.1066023070559591   T   T   T
  0.2391077721850877  0.1918965137472184  0.1074529912884438   T   T   T
  0.2410609993233001  0.3366545616234246  0.1084617416194299   T   T   T
  0.2356594027674447  0.4759430293085283  0.1008842305431583   T   T   T
  0.2360397915885689  0.6190133991847651  0.1007808119186561   T   T   T
  0.2376606397292109  0.7621899365458416  0.1051673018172475   T   T   T
  0.3807866882834173  0.9047073118829193  0.1093818516512327   T   T   T
  0.3812886911002347  0.0480212938726651  0.1091664927671964   T   T   T
  0.3817185513483581  0.1916133290375024  0.1132183149151352   T   T   T
  0.3818468062309783  0.3351175118544293  0.1216709634021571   T   T   T
  0.3833701332855853  0.4845590539821761  0.1184907994807711   T   T   T
  0.3767525694988666  0.6192641271646846  0.1056669695620958   T   T   T
  0.3798723540472788  0.7616887390135724  0.1100047280084669   T   T   T
  0.5228466446119686  0.9019595064778004  0.1137499910115211   T   T   T
  0.5236289910613545  0.0462950177998399  0.1104107008855856   T   T   T
  0.5241388556738324  0.1900399316544127  0.1132767959197133   T   T   T
  0.5243674506839954  0.3331050754511977  0.1308716676728456   T   T   T
  0.5208410492413312  0.7557448896068950  0.1244197959833355   T   T   T
  0.6646714551278003  0.9006831927743241  0.1131713535380373   T   T   T
  0.6658789787079763  0.0451856586816031  0.1108953413808512   T   T   T
  0.6664973136287498  0.1889851585498195  0.1103436854703155   T   T   T
  0.6670615278693559  0.3324735492951811  0.1161776781612660   T   T   T
  0.6717066477392132  0.4759053148355841  0.1287098659143647   T   T   T
  0.6688020732678873  0.6175312667209988  0.1142093163394937   T   T   T
  0.6637143128215724  0.7567492791948147  0.1094189072068180   T   T   T
  0.8083151183289741  0.9023525944424520  0.1067594847736813   T   T   T
  0.8084925388415422  0.0451916968611943  0.1083812912011019   T   T   T
  0.8090071567944948  0.1885878770934342  0.1079661171802613   T   T   T
  0.8094030721717752  0.3318354255543416  0.1074528457796503   T   T   T
  0.8108765032219487  0.4750183370965894  0.1061590040871706   T   T   T
  0.8110416506059246  0.6184390474167398  0.1054916303640097   T   T   T
  0.8096862111235216  0.7610301823870402  0.1013359457539612   T   T   T
  0.5246801819625387  0.4929711531787525  0.2201717621022727   T   T   T

  0.00000000E+00  0.00000000E+00  0.00000000E+00
  0.00000000E+00  0.00000000E+00  0.00000000E+00
  0.00000000E+00  0.00000000E+00  0.00000000E+00
  0.00000000E+00  0.00000000E+00  0.00000000E+00
  0.00000000E+00  0.00000000E+00  0.00000000E+00
  0.00000000E+00  0.00000000E+00  0.00000000E+00
  0.00000000E+00  0.00000000E+00  0.00000000E+00
  0.00000000E+00  0.00000000E+00  0.00000000E+00
  0.00000000E+00  0.00000000E+00  0.00000000E+00
  0.00000000E+00  0.00000000E+00  0.00000000E+00
  0.00000000E+00  0.00000000E+00  0.00000000E+00
  0.00000000E+00  0.00000000E+00  0.00000000E+00
  0.00000000E+00  0.00000000E+00  0.00000000E+00
  0.00000000E+00  0.00000000E+00  0.00000000E+00
  0.00000000E+00  0.00000000E+00  0.00000000E+00
  0.00000000E+00  0.00000000E+00  0.00000000E+00
  0.00000000E+00  0.00000000E+00  0.00000000E+00
  0.00000000E+00  0.00000000E+00  0.00000000E+00
  0.00000000E+00  0.00000000E+00  0.00000000E+00
  0.00000000E+00  0.00000000E+00  0.00000000E+00
  0.00000000E+00  0.00000000E+00  0.00000000E+00
  0.00000000E+00  0.00000000E+00  0.00000000E+00
  0.00000000E+00  0.00000000E+00  0.00000000E+00
  0.00000000E+00  0.00000000E+00  0.00000000E+00
  0.00000000E+00  0.00000000E+00  0.00000000E+00
  0.00000000E+00  0.00000000E+00  0.00000000E+00
  0.00000000E+00  0.00000000E+00  0.00000000E+00
  0.00000000E+00  0.00000000E+00  0.00000000E+00
  0.00000000E+00  0.00000000E+00  0.00000000E+00
  0.00000000E+00  0.00000000E+00  0.00000000E+00
  0.00000000E+00  0.00000000E+00  0.00000000E+00
  0.00000000E+00  0.00000000E+00  0.00000000E+00
  0.00000000E+00  0.00000000E+00  0.00000000E+00
  0.00000000E+00  0.00000000E+00  0.00000000E+00
  0.00000000E+00  0.00000000E+00  0.00000000E+00
  0.00000000E+00  0.00000000E+00  0.00000000E+00
  0.00000000E+00  0.00000000E+00  0.00000000E+00
  0.00000000E+00  0.00000000E+00  0.00000000E+00
  0.00000000E+00  0.00000000E+00  0.00000000E+00
  0.00000000E+00  0.00000000E+00  0.00000000E+00
  0.00000000E+00  0.00000000E+00  0.00000000E+00
  0.00000000E+00  0.00000000E+00  0.00000000E+00
  0.00000000E+00  0.00000000E+00  0.00000000E+00
  0.00000000E+00  0.00000000E+00  0.00000000E+00
  0.00000000E+00  0.00000000E+00  0.00000000E+00
  0.00000000E+00  0.00000000E+00  0.00000000E+00
  0.00000000E+00  0.00000000E+00  0.00000000E+00
  0.00000000E+00  0.00000000E+00  0.00000000E+00
  0.00000000E+00  0.00000000E+00  0.00000000E+00
  0.00000000E+00  0.00000000E+00  0.00000000E+00
  0.00000000E+00  0.00000000E+00  0.00000000E+00
  0.00000000E+00  0.00000000E+00  0.00000000E+00
  0.00000000E+00  0.00000000E+00  0.00000000E+00
  0.00000000E+00  0.00000000E+00  0.00000000E+00
  0.00000000E+00  0.00000000E+00  0.00000000E+00
  0.00000000E+00  0.00000000E+00  0.00000000E+00
  0.00000000E+00  0.00000000E+00  0.00000000E+00
  0.00000000E+00  0.00000000E+00  0.00000000E+00
  0.00000000E+00  0.00000000E+00  0.00000000E+00
  0.00000000E+00  0.00000000E+00  0.00000000E+00
  0.00000000E+00  0.00000000E+00  0.00000000E+00
  0.00000000E+00  0.00000000E+00  0.00000000E+00
  0.00000000E+00  0.00000000E+00  0.00000000E+00
  0.00000000E+00  0.00000000E+00  0.00000000E+00
  0.00000000E+00  0.00000000E+00  0.00000000E+00
  0.00000000E+00  0.00000000E+00  0.00000000E+00
  0.00000000E+00  0.00000000E+00  0.00000000E+00
  0.00000000E+00  0.00000000E+00  0.00000000E+00
  0.00000000E+00  0.00000000E+00  0.00000000E+00
  0.00000000E+00  0.00000000E+00  0.00000000E+00
  0.00000000E+00  0.00000000E+00  0.00000000E+00
  0.00000000E+00  0.00000000E+00  0.00000000E+00
  0.00000000E+00  0.00000000E+00  0.00000000E+00
  0.00000000E+00  0.00000000E+00  0.00000000E+00
  0.00000000E+00  0.00000000E+00  0.00000000E+00
  0.00000000E+00  0.00000000E+00  0.00000000E+00
  0.00000000E+00  0.00000000E+00  0.00000000E+00
  0.00000000E+00  0.00000000E+00  0.00000000E+00
  0.00000000E+00  0.00000000E+00  0.00000000E+00
  0.00000000E+00  0.00000000E+00  0.00000000E+00
  0.00000000E+00  0.00000000E+00  0.00000000E+00
  0.00000000E+00  0.00000000E+00  0.00000000E+00
  0.00000000E+00  0.00000000E+00  0.00000000E+00
  0.00000000E+00  0.00000000E+00  0.00000000E+00
  0.00000000E+00  0.00000000E+00  0.00000000E+00
  0.00000000E+00  0.00000000E+00  0.00000000E+00
  0.00000000E+00  0.00000000E+00  0.00000000E+00
  0.00000000E+00  0.00000000E+00  0.00000000E+00
  0.00000000E+00  0.00000000E+00  0.00000000E+00
  0.00000000E+00  0.00000000E+00  0.00000000E+00
  0.00000000E+00  0.00000000E+00  0.00000000E+00
  0.00000000E+00  0.00000000E+00  0.00000000E+00
  0.00000000E+00  0.00000000E+00  0.00000000E+00
  0.00000000E+00  0.00000000E+00  0.00000000E+00
  0.00000000E+00  0.00000000E+00  0.00000000E+00
  0.00000000E+00  0.00000000E+00  0.00000000E+00
  0.00000000E+00  0.00000000E+00  0.00000000E+00
