Species order: X N B                    
   2.51242800000000     
     5.9449720136058266    0.0000000000000000    0.0000000000000000
    -2.9724860068029120    5.1484967885702053   -0.0000000000000001
     0.0000000000000000    0.0000000000000009    5.3101128803662583
   In   N    B 
     1   143   143
Direct
  0.4929224695324202  0.4131279014328740  0.3750000000000000
  0.1111519403981719  0.0555815380169948  0.1249038871548665
  0.6112950261471244  0.5557808949912540  0.1216330232676062
  0.4445255453382025  0.0555847851274696  0.1248822862531744
  0.9444837955833787  0.5555629306507933  0.1249432808256912
  0.7778576839899117  0.0555955086616240  0.1248340276792659
  0.1111513463178858  0.7222423398256059  0.6250959723469199
  0.4445255453382025  0.7222740935440679  0.6251177137468247
  0.2777956533367295  0.2222265083734571  0.6255369062298636
  0.7778576098057910  0.7223119607712272  0.6255305583933090
  0.6112095539353762  0.2222137407766343  0.6256594967265238
  0.9445038471522015  0.2222412955036109  0.6251161800120064
  0.2778376128837267  0.7222494054795299  0.1249220452418295
  0.1111472260792459  0.2222402797062875  0.1248399320375009
  0.4445490167463308  0.2222597352152381  0.1242048265751035
  0.6112095539353762  0.7223291464920699  0.1243405032734764
  0.9444837955833787  0.7222541982659216  0.1249432808256912
  0.7778600439900655  0.2222239167301461  0.1248637989779347
  0.1111582502210019  0.8889227471343629  0.6250635413618220
  0.4445178027523922  0.8889255680428605  0.6250961187771524
  0.2777956533367295  0.3889024782966025  0.6255369062298636
  0.6112950261471244  0.3888474644891980  0.6283669767323935
  0.7778600439900655  0.8889694605932482  0.6251362010220654
  0.9445006953780166  0.3888947980870770  0.6250153528950769
  0.1111519403981719  0.3889037357145058  0.1249038871548665
  0.2778376128837267  0.8889215407375266  0.1249220452418295
  0.6111930418377102  0.8889505894928336  0.1248981993720501
  0.4444227373533078  0.3888780353433186  0.1237296160269165
  0.9445006953780166  0.8889392306242691  0.1249846471049226
  0.7778576098057910  0.3888789823678918  0.1244694416066909
  0.2778486783440491  0.5555851897571484  0.6250584247988301
  0.1111519403981719  0.0555815380169948  0.6250961128451327
  0.6112950261471244  0.5557808949912540  0.6283669767323935
  0.4445255453382025  0.0555847851274696  0.6251177137468247
  0.9444837955833787  0.5555629306507933  0.6250567191743089
  0.1111582502210019  0.5555688364199679  0.1249364586381770
  0.7778576839899117  0.0555955086616240  0.6251659723207347
  0.2778486783440491  0.0555968219202366  0.1249415752011687
  0.4445490167463308  0.5556226148644280  0.1242048265751035
  0.7778373414203510  0.5555853373768439  0.1240230078856881
  0.6111930418377102  0.0555757856782046  0.1248981993720501
  0.4445490167463308  0.5556226148644280  0.6257951734248963
  0.9445038471522015  0.0555958849819284  0.1248838199879943
  0.2778376128837267  0.7222494054795299  0.6250779547581714
  0.1111472260792459  0.2222402797062875  0.6251600679624998
  0.4445490167463308  0.2222597352152381  0.6257951734248963
  0.6112095539353762  0.7223291464920699  0.6256594967265238
  0.9444837955833787  0.7222541982659216  0.6250567191743089
  0.7778600439900655  0.2222239167301461  0.6251362010220654
  0.1111513463178858  0.7222423398256059  0.1249040276530807
  0.4445255453382025  0.7222740935440679  0.1248822862531744
  0.2777956533367295  0.2222265083734571  0.1244630937701353
  0.7778576098057909  0.7223119607712272  0.1244694416066909
  0.6112095539353762  0.2222137407766343  0.1243405032734764
  0.9445038471522015  0.2222412955036109  0.1248838199879943
  0.1111519403981719  0.3889037357145058  0.6250961128451327
  0.2778376128837267  0.8889215407375266  0.6250779547581714
  0.6111930418377102  0.8889505894928336  0.6251018006279503
  0.4444227373533078  0.3888780353433186  0.6262703839730828
  0.9445006953780166  0.8889392306242691  0.6250153528950769
  0.1111582502210019  0.8889227471343629  0.1249364586381770
  0.7778576098057909  0.3888789823678918  0.6255305583933090
  0.4445178027523922  0.8889255680428605  0.1249038812228469
  0.2777956533367295  0.3889024782966025  0.1244630937701353
  0.2778486783440491  0.5555851897571484  0.1249415752011687
  0.6112950261471244  0.3888474644891980  0.1216330232676062
  0.7778600439900655  0.8889694605932482  0.1248637989779347
  0.9445006953780166  0.3888947980870770  0.1249846471049226
  0.1111582502210019  0.5555688364199679  0.6250635413618220
  0.2778486783440491  0.0555968219202366  0.6250584247988301
  0.7778373414203510  0.5555853373768439  0.6259769921143103
  0.6111930418377102  0.0555757856782046  0.6251018006279503
  0.9445038471522015  0.0555958849819284  0.6251161800120064
  0.0561605884358143  0.1114655509917324  0.3750000000000000
  0.5544378186292608  0.6189039004858744  0.3750000000000000
  0.3861758453239023  0.1025925821410315  0.3750000000000000
  0.8872635336267047  0.6102984334800234  0.3750000000000000
  0.7226735789790905  0.1105229334004891  0.3750000000000000
  0.0555669974490679  0.7777824792541335  0.8750000000000000
  0.3888865276430361  0.7777816651112391  0.8750000000000000
  0.2222268501018777  0.2777800917176074  0.8750000000000000
  0.7222248528066721  0.7777751765840913  0.8750000000000000
  0.5555464096350912  0.2777626107635810  0.8750000000000000
  0.8888935538398028  0.2777853857098084  0.8750000000000000
  0.2195915257246077  0.7764624295289708  0.3750000000000000
  0.0561605884358143  0.2780283707774180  0.3750000000000000
  0.3843037343204225  0.2619959356091562  0.3750000000000000
  0.5548005197897127  0.7812805957534052  0.3750000000000000
  0.8885149749715961  0.7781676505359495  0.3750000000000000
  0.7226464524833985  0.2759586342400001  0.3750000000000000
  0.0555588049725045  0.9444415688415380  0.8750000000000000
  0.3888865276430361  0.9444381958651326  0.8750000000000000
  0.2222220049071902  0.4444505618010337  0.8750000000000000
  0.5555506514099579  0.4444419923716432  0.8750000000000000
  0.7222206517013502  0.9444419461798327  0.8750000000000000
  0.8889022418156093  0.4444545010331296  0.8750000000000000
  0.0541414626121524  0.4443458483616968  0.3750000000000000
  0.2194774835412810  0.9412341565636753  0.3750000000000000
  0.5548818246338648  0.9441075789835970  0.3750000000000000
  0.3843037343204226  0.4556411320446034  0.3750000000000000
  0.8893369390218258  0.9453079439124487  0.3750000000000000
  0.7232182844035697  0.4432684342889595  0.3750000000000000
  0.2222208826617962  0.6111160440769700  0.8750000000000000
  0.0555576542957819  0.1111092411386045  0.8750000000000000
  0.5555464096350912  0.6111171322048444  0.8750000000000000
  0.3888835961079510  0.1110967102511537  0.8750000000000000
  0.8889156129806436  0.6111244731569927  0.8750000000000000
  0.0533484520030229  0.6103685945092464  0.3750000000000000
  0.7222206517013502  0.1111120388548545  0.8750000000000000
  0.2196283012455941  0.1072002737787677  0.3750000000000000
  0.3861758453239023  0.6169165965162140  0.3750000000000000
  0.7232182844035697  0.6132831834479463  0.3750000000000000
  0.5548005197897127  0.1068532573696443  0.3750000000000000
  0.3888835961079510  0.6111202191901414  0.8750000000000000
  0.8896515998412793  0.1114924665873109  0.3750000000000000
  0.2222251836258841  0.7777792584796097  0.8750000000000000
  0.0555576542957819  0.2777817464905129  0.8750000000000000
  0.3888917045196813  0.2777699818180627  0.8750000000000000
  0.5555504283896291  0.7777797008183364  0.8750000000000000
  0.8889022418156093  0.7777810741158145  0.8750000000000000
  0.7222248528066721  0.2777830095559173  0.8750000000000000
  0.0533484520030229  0.7763131908271119  0.3750000000000000
  0.3867386618745959  0.7788747160257911  0.3750000000000000
  0.2239689197834534  0.2786511265583953  0.3750000000000000
  0.7226464524833985  0.7800211515767349  0.3750000000000000
  0.5544378186292608  0.2688672514767213  0.3750000000000000
  0.8893369390218258  0.2773623284427134  0.3750000000000000
  0.0555588049725045  0.4444505694642951  0.8750000000000000
  0.2222208826617962  0.9444381719181612  0.8750000000000000
  0.5555507617968293  0.9444420475650797  0.8750000000000000
  0.3888917045196813  0.4444550560349547  0.8750000000000000
  0.8888935538398028  0.9444415014633302  0.8750000000000000
  0.0541414626121525  0.9431289475837831  0.3750000000000000
  0.7222431359873788  0.4444586025043852  0.8750000000000000
  0.3867386618745959  0.9411972791821428  0.3750000000000000
  0.2196283012455941  0.4457613608001622  0.3750000000000000
  0.2194774835412810  0.6115766603109414  0.3750000000000000
  0.7226735789790905  0.9454839789119366  0.3750000000000000
  0.8885149749715961  0.4436806577689809  0.3750000000000000
  0.0555669974490679  0.6111178515282693  0.8750000000000000
  0.2222220049071902  0.1111047764394921  0.8750000000000000
  0.7222431359873788  0.6111178668163301  0.8750000000000000
  0.5555504283896291  0.1111040609046272  0.8750000000000000
  0.8888914036432620  0.1111123684883022  0.8750000000000000
  0.1100182687229225  0.0540803414424424  0.3750000000000000
  0.6138734439998541  0.5673407933203353  0.3750000000000000
  0.4433558478973139  0.0508590997380958  0.3750000000000000
  0.9425724982425590  0.5547383611657050  0.3750000000000000
  0.7786846979185685  0.0560090156259518  0.3750000000000000
  0.1111128864696505  0.7222231099014891  0.8750000000000000
  0.4444395527167146  0.7221916099377603  0.8750000000000000
  0.2778334348580122  0.2222613663016249  0.8750000000000000
  0.7777454327226445  0.7221659521050799  0.8750000000000000
  0.6110825878302374  0.2222569934734318  0.8750000000000000
  0.9444627426054465  0.2222383814539403  0.8750000000000000
  0.2756513781924427  0.7221192606345980  0.3750000000000000
  0.1133128019723354  0.2233230676528320  0.3750000000000000
  0.4414831560099070  0.2121491441855992  0.3750000000000000
  0.6111012308253940  0.7272913468649506  0.3750000000000000
  0.9425724982425590  0.7211674704101881  0.3750000000000000
  0.7784011942389790  0.2214471323086894  0.3750000000000000
  0.1111222651473502  0.8888980045244457  0.8750000000000000
  0.4444367631058346  0.8888850482195818  0.8750000000000000
  0.2778334348580122  0.3889054018897161  0.8750000000000000
  0.6110768207389498  0.3889091445038250  0.8750000000000000
  0.7777634228982756  0.8888517419337668  0.8750000000000000
  0.9444469941996619  0.3889048545254649  0.8750000000000000
  0.1100182687229226  0.3892712606138091  0.3750000000000000
  0.2756513781924427  0.8868654508911721  0.3750000000000000
  0.6114190298528422  0.8906683604573731  0.3750000000000000
  0.9438308447887142  0.8888260633669289  0.3750000000000000
  0.7779817538364103  0.3875226505892885  0.3750000000000000
  0.2778008774980442  0.5555466511677849  0.8750000000000000
  0.1111458674240422  0.0555773295819417  0.8750000000000000
  0.6110768207389498  0.5555010095684545  0.8750000000000000
  0.4444395527167146  0.0555812761122909  0.8750000000000000
  0.9444338110785054  0.5555597446666916  0.8750000000000000
  0.1089589381600612  0.5552550370250036  0.3750000000000000
  0.7777728766862931  0.0555531050098143  0.8750000000000000
  0.2754849616068726  0.0518638165302695  0.3750000000000000
  0.4414831560099070  0.5626673451576444  0.3750000000000000
  0.7758741601027219  0.5546037467180300  0.3750000000000000
  0.6114190298528422  0.0540840027287983  0.3750000000000000
  0.4444579651950312  0.5555293731112979  0.8750000000000000
  0.9454709834949587  0.0563671889521429  0.3750000000000000
  0.2777834765229559  0.7222148181389034  0.8750000000000000
  0.1111631947503286  0.2222482640418286  0.8750000000000000
  0.4444579651950312  0.2222619254170687  0.8750000000000000
  0.6110825878302374  0.7221589276901345  0.8750000000000000
  0.9444338110785054  0.7222073997451466  0.8750000000000000
  0.7777634228982756  0.2222450142978379  0.8750000000000000
  0.1087884496181651  0.7210608914757467  0.3750000000000000
  0.4433558478973139  0.7258300814925542  0.3750000000000000
  0.2777356028686264  0.2191997886416443  0.3750000000000000
  0.7779817538364103  0.7237924365804516  0.3750000000000000
  0.6111012308253940  0.2171432172937711  0.3750000000000000
  0.9454709834949587  0.2224371278761518  0.3750000000000000
  0.1111458674240422  0.3889018711754290  0.8750000000000000
  0.2777834765229559  0.8889019917173808  0.8750000000000000
  0.6110944520264021  0.8888623388089091  0.8750000000000000
  0.4444858940736059  0.3889096137034671  0.8750000000000000
  0.9444469941996619  0.8888754730075266  0.8750000000000000
  0.1089589381600612  0.8870372344683870  0.3750000000000000
  0.7777454327226445  0.3889128139508941  0.8750000000000000
  0.4435056001833758  0.8884194667583520  0.3750000000000000
  0.2777356028686264  0.3918691475603109  0.3750000000000000
  0.2754849616068726  0.5569544784099382  0.3750000000000000
  0.6138734439998541  0.3798659840128479  0.3750000000000000
  0.7784011942389790  0.8902873952636194  0.3750000000000000
  0.9438308447887142  0.3883381147551162  0.3750000000000000
  0.1111222651473502  0.5555575939562344  0.8750000000000000
  0.2778008774980442  0.0555875596635955  0.8750000000000000
  0.7777429096965827  0.5555381215149584  0.8750000000000000
  0.6110944520264021  0.0555654465508215  0.8750000000000000
  0.9444627426054465  0.0555576944848431  0.8750000000000000
  0.0556739838466260  0.1112003480712526  0.1251260512997303
  0.5556762946037873  0.6110488373214270  0.1238904689200857
  0.3890341957085534  0.1113154161595727  0.1251154926158935
  0.8887756007669845  0.6110544670501626  0.1249647412590669
  0.7222887840597355  0.1111471566513198  0.1250418986002408
  0.0555635710106601  0.7778075661320744  0.6248966713230139
  0.3889931629235818  0.7777807497287821  0.6248946737938901
  0.2223885124325967  0.2778609228829664  0.6249216252561540
  0.7222351735112994  0.7777704679635195  0.6252007690368732
  0.5556762946037873  0.2779607906156960  0.6261095310799134
  0.8889445266302910  0.2777821181031411  0.6249053621007351
  0.2222922976624387  0.7778128154978886  0.1250555384235479
  0.0556739838466260  0.2778069691087097  0.1251260512997303
  0.3889782824436948  0.2778552092937804  0.1248625166028216
  0.5556425758499982  0.7777622154471884  0.1250092454596613
  0.8888647951006896  0.7777838046888039  0.1250396037994197
  0.7222351735112994  0.2777980388811172  0.1247992309631254
  0.0556277043219250  0.9445360547326787  0.6248469340277368
  0.3889931629235817  0.9445457465281347  0.6248946737938901
  0.2223652869334739  0.4444257699640395  0.6248313523116882
  0.5557835102349370  0.4445584217841329  0.6253753566221809
  0.7222887840597355  0.9444749607417510  0.6249581013997597
  0.8888647951006896  0.4444143237452229  0.6249603962005819
  0.0556277043219250  0.4444249829225742  0.1251530659722619
  0.2223269599948216  0.9445799335880408  0.1251530622983204
  0.5556424403057281  0.9444878868195302  0.1250933441083854
  0.3889782824436948  0.4444564064832503  0.1248625166028216
  0.8889445266302910  0.9444957418604857  0.1250946378992653
  0.7221001269733203  0.4443853743680259  0.1237203157103183
  0.2223269599948216  0.6110803597401175  0.6248469377016795
  0.0556739838466260  0.1112003480712526  0.6248739487002702
  0.5556762946037873  0.6110488373214270  0.6261095310799134
  0.3890341957085534  0.1113154161595727  0.6248845073841083
  0.8887756007669845  0.6110544670501626  0.6250352587409341
  0.0555635710106601  0.6110893382119225  0.1251033286769853
  0.7222887840597355  0.1111471566513198  0.6249581013997597
  0.2223652869334739  0.1112728503027698  0.1251686476883123
  0.3890341957085534  0.6110521128823222  0.1251154926158935
  0.7221001269733203  0.6110480859386289  0.1237203157103183
  0.5556425758499982  0.1112136937361465  0.1250092454596613
  0.3890341957085534  0.6110521128823222  0.6248845073841083
  0.8889725866787268  0.1111529600060349  0.1250400461075605
  0.2222922976624387  0.7778128154978886  0.6249444615764518
  0.0556739838466260  0.2778069691087097  0.6248739487002702
  0.3889782824436948  0.2778552092937804  0.6251374833971797
  0.5556425758499982  0.7777622154471884  0.6249907545403389
  0.8888647951006896  0.7777838046888039  0.6249603962005819
  0.7222351735112994  0.2777980388811172  0.6252007690368732
  0.0555635710106601  0.7778075661320744  0.1251033286769853
  0.3889931629235818  0.7777807497287821  0.1251053262061100
  0.2223885124325967  0.2778609228829664  0.1250783747438455
  0.7222351735112994  0.7777704679635195  0.1247992309631254
  0.5556762946037873  0.2779607906156960  0.1238904689200857
  0.8889445266302910  0.2777821181031411  0.1250946378992653
  0.0556277043219250  0.4444249829225742  0.6248469340277368
  0.2223269599948216  0.9445799335880408  0.6248469377016795
  0.5556424403057281  0.9444878868195302  0.6249066558916130
  0.3889782824436948  0.4444564064832503  0.6251374833971797
  0.8889445266302910  0.9444957418604857  0.6249053621007351
  0.0556277043219250  0.9445360547326787  0.1251530659722619
  0.7221001269733203  0.4443853743680259  0.6262796842896822
  0.3889931629235817  0.9445457465281347  0.1251053262061100
  0.2223652869334739  0.4444257699640395  0.1251686476883123
  0.2223269599948216  0.6110803597401175  0.1251530622983204
  0.5557835102349371  0.4445584217841329  0.1246246433778187
  0.7222887840597355  0.9444749607417510  0.1250418986002408
  0.8888647951006896  0.4444143237452229  0.1250396037994197
  0.0555635710106602  0.6110893382119225  0.6248966713230139
  0.2223652869334739  0.1112728503027698  0.6248313523116882
  0.7221001269733203  0.6110480859386289  0.6262796842896822
  0.5556425758499982  0.1112136937361465  0.6249907545403389
  0.8889725866787268  0.1111529600060349  0.6249599538924386
 
  0.00000000E+00  0.00000000E+00  0.00000000E+00
  0.00000000E+00  0.00000000E+00  0.00000000E+00
  0.00000000E+00  0.00000000E+00  0.00000000E+00
  0.00000000E+00  0.00000000E+00  0.00000000E+00
  0.00000000E+00  0.00000000E+00  0.00000000E+00
  0.00000000E+00  0.00000000E+00  0.00000000E+00
  0.00000000E+00  0.00000000E+00  0.00000000E+00
  0.00000000E+00  0.00000000E+00  0.00000000E+00
  0.00000000E+00  0.00000000E+00  0.00000000E+00
  0.00000000E+00  0.00000000E+00  0.00000000E+00
  0.00000000E+00  0.00000000E+00  0.00000000E+00
  0.00000000E+00  0.00000000E+00  0.00000000E+00
  0.00000000E+00  0.00000000E+00  0.00000000E+00
  0.00000000E+00  0.00000000E+00  0.00000000E+00
  0.00000000E+00  0.00000000E+00  0.00000000E+00
  0.00000000E+00  0.00000000E+00  0.00000000E+00
  0.00000000E+00  0.00000000E+00  0.00000000E+00
  0.00000000E+00  0.00000000E+00  0.00000000E+00
  0.00000000E+00  0.00000000E+00  0.00000000E+00
  0.00000000E+00  0.00000000E+00  0.00000000E+00
  0.00000000E+00  0.00000000E+00  0.00000000E+00
  0.00000000E+00  0.00000000E+00  0.00000000E+00
  0.00000000E+00  0.00000000E+00  0.00000000E+00
  0.00000000E+00  0.00000000E+00  0.00000000E+00
  0.00000000E+00  0.00000000E+00  0.00000000E+00
  0.00000000E+00  0.00000000E+00  0.00000000E+00
  0.00000000E+00  0.00000000E+00  0.00000000E+00
  0.00000000E+00  0.00000000E+00  0.00000000E+00
  0.00000000E+00  0.00000000E+00  0.00000000E+00
  0.00000000E+00  0.00000000E+00  0.00000000E+00
  0.00000000E+00  0.00000000E+00  0.00000000E+00
  0.00000000E+00  0.00000000E+00  0.00000000E+00
  0.00000000E+00  0.00000000E+00  0.00000000E+00
  0.00000000E+00  0.00000000E+00  0.00000000E+00
  0.00000000E+00  0.00000000E+00  0.00000000E+00
  0.00000000E+00  0.00000000E+00  0.00000000E+00
  0.00000000E+00  0.00000000E+00  0.00000000E+00
  0.00000000E+00  0.00000000E+00  0.00000000E+00
  0.00000000E+00  0.00000000E+00  0.00000000E+00
  0.00000000E+00  0.00000000E+00  0.00000000E+00
  0.00000000E+00  0.00000000E+00  0.00000000E+00
  0.00000000E+00  0.00000000E+00  0.00000000E+00
  0.00000000E+00  0.00000000E+00  0.00000000E+00
  0.00000000E+00  0.00000000E+00  0.00000000E+00
  0.00000000E+00  0.00000000E+00  0.00000000E+00
  0.00000000E+00  0.00000000E+00  0.00000000E+00
  0.00000000E+00  0.00000000E+00  0.00000000E+00
  0.00000000E+00  0.00000000E+00  0.00000000E+00
  0.00000000E+00  0.00000000E+00  0.00000000E+00
  0.00000000E+00  0.00000000E+00  0.00000000E+00
  0.00000000E+00  0.00000000E+00  0.00000000E+00
  0.00000000E+00  0.00000000E+00  0.00000000E+00
  0.00000000E+00  0.00000000E+00  0.00000000E+00
  0.00000000E+00  0.00000000E+00  0.00000000E+00
  0.00000000E+00  0.00000000E+00  0.00000000E+00
  0.00000000E+00  0.00000000E+00  0.00000000E+00
  0.00000000E+00  0.00000000E+00  0.00000000E+00
  0.00000000E+00  0.00000000E+00  0.00000000E+00
  0.00000000E+00  0.00000000E+00  0.00000000E+00
  0.00000000E+00  0.00000000E+00  0.00000000E+00
  0.00000000E+00  0.00000000E+00  0.00000000E+00
  0.00000000E+00  0.00000000E+00  0.00000000E+00
  0.00000000E+00  0.00000000E+00  0.00000000E+00
  0.00000000E+00  0.00000000E+00  0.00000000E+00
  0.00000000E+00  0.00000000E+00  0.00000000E+00
  0.00000000E+00  0.00000000E+00  0.00000000E+00
  0.00000000E+00  0.00000000E+00  0.00000000E+00
  0.00000000E+00  0.00000000E+00  0.00000000E+00
  0.00000000E+00  0.00000000E+00  0.00000000E+00
  0.00000000E+00  0.00000000E+00  0.00000000E+00
  0.00000000E+00  0.00000000E+00  0.00000000E+00
  0.00000000E+00  0.00000000E+00  0.00000000E+00
  0.00000000E+00  0.00000000E+00  0.00000000E+00
  0.00000000E+00  0.00000000E+00  0.00000000E+00
  0.00000000E+00  0.00000000E+00  0.00000000E+00
  0.00000000E+00  0.00000000E+00  0.00000000E+00
  0.00000000E+00  0.00000000E+00  0.00000000E+00
  0.00000000E+00  0.00000000E+00  0.00000000E+00
  0.00000000E+00  0.00000000E+00  0.00000000E+00
  0.00000000E+00  0.00000000E+00  0.00000000E+00
  0.00000000E+00  0.00000000E+00  0.00000000E+00
  0.00000000E+00  0.00000000E+00  0.00000000E+00
  0.00000000E+00  0.00000000E+00  0.00000000E+00
  0.00000000E+00  0.00000000E+00  0.00000000E+00
  0.00000000E+00  0.00000000E+00  0.00000000E+00
  0.00000000E+00  0.00000000E+00  0.00000000E+00
  0.00000000E+00  0.00000000E+00  0.00000000E+00
  0.00000000E+00  0.00000000E+00  0.00000000E+00
  0.00000000E+00  0.00000000E+00  0.00000000E+00
  0.00000000E+00  0.00000000E+00  0.00000000E+00
  0.00000000E+00  0.00000000E+00  0.00000000E+00
  0.00000000E+00  0.00000000E+00  0.00000000E+00
  0.00000000E+00  0.00000000E+00  0.00000000E+00
  0.00000000E+00  0.00000000E+00  0.00000000E+00
  0.00000000E+00  0.00000000E+00  0.00000000E+00
  0.00000000E+00  0.00000000E+00  0.00000000E+00
  0.00000000E+00  0.00000000E+00  0.00000000E+00
  0.00000000E+00  0.00000000E+00  0.00000000E+00
  0.00000000E+00  0.00000000E+00  0.00000000E+00
  0.00000000E+00  0.00000000E+00  0.00000000E+00
  0.00000000E+00  0.00000000E+00  0.00000000E+00
  0.00000000E+00  0.00000000E+00  0.00000000E+00
  0.00000000E+00  0.00000000E+00  0.00000000E+00
  0.00000000E+00  0.00000000E+00  0.00000000E+00
  0.00000000E+00  0.00000000E+00  0.00000000E+00
  0.00000000E+00  0.00000000E+00  0.00000000E+00
  0.00000000E+00  0.00000000E+00  0.00000000E+00
  0.00000000E+00  0.00000000E+00  0.00000000E+00
  0.00000000E+00  0.00000000E+00  0.00000000E+00
  0.00000000E+00  0.00000000E+00  0.00000000E+00
  0.00000000E+00  0.00000000E+00  0.00000000E+00
  0.00000000E+00  0.00000000E+00  0.00000000E+00
  0.00000000E+00  0.00000000E+00  0.00000000E+00
  0.00000000E+00  0.00000000E+00  0.00000000E+00
  0.00000000E+00  0.00000000E+00  0.00000000E+00
  0.00000000E+00  0.00000000E+00  0.00000000E+00
  0.00000000E+00  0.00000000E+00  0.00000000E+00
  0.00000000E+00  0.00000000E+00  0.00000000E+00
  0.00000000E+00  0.00000000E+00  0.00000000E+00
  0.00000000E+00  0.00000000E+00  0.00000000E+00
  0.00000000E+00  0.00000000E+00  0.00000000E+00
  0.00000000E+00  0.00000000E+00  0.00000000E+00
  0.00000000E+00  0.00000000E+00  0.00000000E+00
  0.00000000E+00  0.00000000E+00  0.00000000E+00
  0.00000000E+00  0.00000000E+00  0.00000000E+00
  0.00000000E+00  0.00000000E+00  0.00000000E+00
  0.00000000E+00  0.00000000E+00  0.00000000E+00
  0.00000000E+00  0.00000000E+00  0.00000000E+00
  0.00000000E+00  0.00000000E+00  0.00000000E+00
  0.00000000E+00  0.00000000E+00  0.00000000E+00
  0.00000000E+00  0.00000000E+00  0.00000000E+00
  0.00000000E+00  0.00000000E+00  0.00000000E+00
  0.00000000E+00  0.00000000E+00  0.00000000E+00
  0.00000000E+00  0.00000000E+00  0.00000000E+00
  0.00000000E+00  0.00000000E+00  0.00000000E+00
  0.00000000E+00  0.00000000E+00  0.00000000E+00
  0.00000000E+00  0.00000000E+00  0.00000000E+00
  0.00000000E+00  0.00000000E+00  0.00000000E+00
  0.00000000E+00  0.00000000E+00  0.00000000E+00
  0.00000000E+00  0.00000000E+00  0.00000000E+00
  0.00000000E+00  0.00000000E+00  0.00000000E+00
  0.00000000E+00  0.00000000E+00  0.00000000E+00
  0.00000000E+00  0.00000000E+00  0.00000000E+00
  0.00000000E+00  0.00000000E+00  0.00000000E+00
  0.00000000E+00  0.00000000E+00  0.00000000E+00
  0.00000000E+00  0.00000000E+00  0.00000000E+00
  0.00000000E+00  0.00000000E+00  0.00000000E+00
  0.00000000E+00  0.00000000E+00  0.00000000E+00
  0.00000000E+00  0.00000000E+00  0.00000000E+00
  0.00000000E+00  0.00000000E+00  0.00000000E+00
  0.00000000E+00  0.00000000E+00  0.00000000E+00
  0.00000000E+00  0.00000000E+00  0.00000000E+00
  0.00000000E+00  0.00000000E+00  0.00000000E+00
  0.00000000E+00  0.00000000E+00  0.00000000E+00
  0.00000000E+00  0.00000000E+00  0.00000000E+00
  0.00000000E+00  0.00000000E+00  0.00000000E+00
  0.00000000E+00  0.00000000E+00  0.00000000E+00
  0.00000000E+00  0.00000000E+00  0.00000000E+00
  0.00000000E+00  0.00000000E+00  0.00000000E+00
  0.00000000E+00  0.00000000E+00  0.00000000E+00
  0.00000000E+00  0.00000000E+00  0.00000000E+00
  0.00000000E+00  0.00000000E+00  0.00000000E+00
  0.00000000E+00  0.00000000E+00  0.00000000E+00
  0.00000000E+00  0.00000000E+00  0.00000000E+00
  0.00000000E+00  0.00000000E+00  0.00000000E+00
  0.00000000E+00  0.00000000E+00  0.00000000E+00
  0.00000000E+00  0.00000000E+00  0.00000000E+00
  0.00000000E+00  0.00000000E+00  0.00000000E+00
  0.00000000E+00  0.00000000E+00  0.00000000E+00
  0.00000000E+00  0.00000000E+00  0.00000000E+00
  0.00000000E+00  0.00000000E+00  0.00000000E+00
  0.00000000E+00  0.00000000E+00  0.00000000E+00
  0.00000000E+00  0.00000000E+00  0.00000000E+00
  0.00000000E+00  0.00000000E+00  0.00000000E+00
  0.00000000E+00  0.00000000E+00  0.00000000E+00
  0.00000000E+00  0.00000000E+00  0.00000000E+00
  0.00000000E+00  0.00000000E+00  0.00000000E+00
  0.00000000E+00  0.00000000E+00  0.00000000E+00
  0.00000000E+00  0.00000000E+00  0.00000000E+00
  0.00000000E+00  0.00000000E+00  0.00000000E+00
  0.00000000E+00  0.00000000E+00  0.00000000E+00
  0.00000000E+00  0.00000000E+00  0.00000000E+00
  0.00000000E+00  0.00000000E+00  0.00000000E+00
  0.00000000E+00  0.00000000E+00  0.00000000E+00
  0.00000000E+00  0.00000000E+00  0.00000000E+00
  0.00000000E+00  0.00000000E+00  0.00000000E+00
  0.00000000E+00  0.00000000E+00  0.00000000E+00
  0.00000000E+00  0.00000000E+00  0.00000000E+00
  0.00000000E+00  0.00000000E+00  0.00000000E+00
  0.00000000E+00  0.00000000E+00  0.00000000E+00
  0.00000000E+00  0.00000000E+00  0.00000000E+00
  0.00000000E+00  0.00000000E+00  0.00000000E+00
  0.00000000E+00  0.00000000E+00  0.00000000E+00
  0.00000000E+00  0.00000000E+00  0.00000000E+00
  0.00000000E+00  0.00000000E+00  0.00000000E+00
  0.00000000E+00  0.00000000E+00  0.00000000E+00
  0.00000000E+00  0.00000000E+00  0.00000000E+00
  0.00000000E+00  0.00000000E+00  0.00000000E+00
  0.00000000E+00  0.00000000E+00  0.00000000E+00
  0.00000000E+00  0.00000000E+00  0.00000000E+00
  0.00000000E+00  0.00000000E+00  0.00000000E+00
  0.00000000E+00  0.00000000E+00  0.00000000E+00
  0.00000000E+00  0.00000000E+00  0.00000000E+00
  0.00000000E+00  0.00000000E+00  0.00000000E+00
  0.00000000E+00  0.00000000E+00  0.00000000E+00
  0.00000000E+00  0.00000000E+00  0.00000000E+00
  0.00000000E+00  0.00000000E+00  0.00000000E+00
  0.00000000E+00  0.00000000E+00  0.00000000E+00
  0.00000000E+00  0.00000000E+00  0.00000000E+00
  0.00000000E+00  0.00000000E+00  0.00000000E+00
  0.00000000E+00  0.00000000E+00  0.00000000E+00
  0.00000000E+00  0.00000000E+00  0.00000000E+00
  0.00000000E+00  0.00000000E+00  0.00000000E+00
  0.00000000E+00  0.00000000E+00  0.00000000E+00
  0.00000000E+00  0.00000000E+00  0.00000000E+00
  0.00000000E+00  0.00000000E+00  0.00000000E+00
  0.00000000E+00  0.00000000E+00  0.00000000E+00
  0.00000000E+00  0.00000000E+00  0.00000000E+00
  0.00000000E+00  0.00000000E+00  0.00000000E+00
  0.00000000E+00  0.00000000E+00  0.00000000E+00
  0.00000000E+00  0.00000000E+00  0.00000000E+00
  0.00000000E+00  0.00000000E+00  0.00000000E+00
  0.00000000E+00  0.00000000E+00  0.00000000E+00
  0.00000000E+00  0.00000000E+00  0.00000000E+00
  0.00000000E+00  0.00000000E+00  0.00000000E+00
  0.00000000E+00  0.00000000E+00  0.00000000E+00
  0.00000000E+00  0.00000000E+00  0.00000000E+00
  0.00000000E+00  0.00000000E+00  0.00000000E+00
  0.00000000E+00  0.00000000E+00  0.00000000E+00
  0.00000000E+00  0.00000000E+00  0.00000000E+00
  0.00000000E+00  0.00000000E+00  0.00000000E+00
  0.00000000E+00  0.00000000E+00  0.00000000E+00
  0.00000000E+00  0.00000000E+00  0.00000000E+00
  0.00000000E+00  0.00000000E+00  0.00000000E+00
  0.00000000E+00  0.00000000E+00  0.00000000E+00
  0.00000000E+00  0.00000000E+00  0.00000000E+00
  0.00000000E+00  0.00000000E+00  0.00000000E+00
  0.00000000E+00  0.00000000E+00  0.00000000E+00
  0.00000000E+00  0.00000000E+00  0.00000000E+00
  0.00000000E+00  0.00000000E+00  0.00000000E+00
  0.00000000E+00  0.00000000E+00  0.00000000E+00
  0.00000000E+00  0.00000000E+00  0.00000000E+00
  0.00000000E+00  0.00000000E+00  0.00000000E+00
  0.00000000E+00  0.00000000E+00  0.00000000E+00
  0.00000000E+00  0.00000000E+00  0.00000000E+00
  0.00000000E+00  0.00000000E+00  0.00000000E+00
  0.00000000E+00  0.00000000E+00  0.00000000E+00
  0.00000000E+00  0.00000000E+00  0.00000000E+00