 B N In 
 1.0
 14.936314146199660   0.000000000000000   0.000000000000000
 -7.468157073099825  12.935227489513863   0.000000000000000
  0.000000000000001   0.000000000000001  13.341276283792837
 B N In 
 143 143   1
Cartesian
  1.239386939007564   0.699541519268572   5.002978606422314 
  4.932016447097999   7.338682225679802   5.002978606422314 
  6.242278477308445   0.657874025024147   5.002978606422314 
  9.935685723659624   7.175666898838498   5.002978606422314 
 11.212395142746018   0.724489358585426   5.002978606422314 
 -3.734058648565246   9.342120224759935  11.673616748318732 
  1.244848398483289   9.341712765563189  11.673616748318732 
  2.489924668534655   2.875001335241691  11.673616748318732 
  6.223401345751996   9.341380875660583  11.673616748318732 
  7.467471363250552   2.874944771714242  11.673616748318732 
 12.447081082566752   2.874704021008074  11.673616748318732 
 -1.275684484414670   9.340776910868078   5.002978606422314 
  0.024663859767060   2.888734683745477   5.002978606422314 
  5.009767976717890   2.744197441746401   5.002978606422314 
  3.696073942443574   9.407679022853078   5.002978606422314 
  8.692766994285734   9.328465287793041   5.002978606422314 
  9.972642801461562   2.864469033313368   5.002978606422314 
 -4.978672858875448  11.498097903498634  11.673616748318732 
 -0.000086048164879  11.497930310747796  11.673616748318732 
  1.245400835467555   5.030579845344292  11.673616748318732 
  6.222800783698450   5.030628256909198  11.673616748318732 
  4.978834392372428  11.497499486363948  11.673616748318732 
 11.202154459712951   5.030572765063186  11.673616748318732 
 -1.263871494840912   5.035312311169458   5.002978606422314 
 -2.506034910445552  11.471806359867594   5.002978606422314 
  2.480695488910724  11.520997860228453   5.002978606422314 
  7.459461346748042  11.497167328260291   5.002978606422314 
  8.726099851327209   5.012693642711834   5.002978606422314 
  0.000411524045099   7.186122313892903  11.673616748318732 
  1.245049364875971   0.718905401402109  11.673616748318732 
  4.978666568295149   7.185531929422571  11.673616748318732 
  6.223199078043400   0.718956450669968  11.673616748318732 
  9.957352655899042   7.186291681279898  11.673616748318732 
 -2.519286902737575   7.182350218616871   5.002978606422314 
 11.202180706468182   0.718592051050798  11.673616748318732 
  3.727402800855521   0.670870265293453   5.002978606422314 
  2.392042994878286   7.278230110534944   5.002978606422314 
  7.446832299393146   7.173925630334447   5.002978606422314 
  8.728438877326054   0.699588878840491   5.002978606422314 
  2.489783175817807   7.185898818301666  11.673616748318732 
 13.700892604733358   0.729122412040383   5.002978606422314 
 -1.244552432411202   9.342012968924596  11.673616748318732 
  0.000583453197945   2.874831854530604  11.673616748318732 
  4.978676822549390   2.875008567527152  11.673616748318732 
  3.734125197373805   9.341290013255277  11.673616748318732 
  8.712801791909378   9.341917010313756  11.673616748318732 
  9.957158140342619   2.874789818352797  11.673616748318732 
 -3.760097537835338   9.327086665030455   5.002978606422314 
  1.201489165781757   9.388777222838572   5.002978606422314 
  2.511327762063869   2.835399131733022   5.002978606422314 
  6.214784270607534   9.362419822357682   5.002978606422314 
  7.505940304629228   2.808796913499869   5.002978606422314 
 12.460656215728765   2.877274851192112   5.002978606422314 
 -1.244270668063186   5.030534174751789  11.673616748318732 
 -2.489398426766331  11.498149478746294  11.673616748318732 
  2.489335145878273  11.497636559354586  11.673616748318732 
  3.734542865061738   5.030634326113304  11.673616748318732 
  7.468295348954046  11.497806453201603  11.673616748318732 
 -4.997088467302979  11.474028419517834   5.002978606422314 
  8.712188126590892   5.030675722041796  11.673616748318732 
 -0.010517154613232  11.491907908631884   5.002978606422314 
  1.221805867947813   5.068916569814500   5.002978606422314 
 -0.044693598217794   7.204332879536086   5.002978606422314 
  6.332107770255749   4.913652918734226   5.002978606422314 
  4.977638660900755  11.516069988781659   5.002978606422314 
 11.197183960174575   5.023241857206367   5.002978606422314 
 -2.489234313940456   7.186263861350860  11.673616748318732 
  3.734184549522678   0.719037729835527  11.673616748318732 
  7.467766472639036   7.186011980893178  11.673616748318732 
  8.712527225787614   0.718751691691294  11.673616748318732 
 13.691878633904151   0.718651416954355  11.673616748318732 
  0.001102446524161   1.438401799214782   1.669341220689734 
  3.736347003346914   7.904055717955607   1.652856974791517 
  4.979415948179901   1.439890231113985   1.669200354371471 
  8.711580838383085   7.904128539777512   1.667189138869899 
  9.958267758892296   1.437713756097458   1.668218516275824 
 -4.978874124819917  10.061117810983475   8.336919140942813 
  0.001535274742560  10.060770934706444   8.336892491354885 
  1.246555667632831   3.594194247937434   8.337252058259203 
  4.979019417429866  10.060637937733773   8.340976192560678 
  6.223900855317325   3.595486059779159   8.353100238053097 
 11.203034218202152   3.593174890183137   8.337035087009511 
 -2.488600689441536  10.061185712724470   1.668400488927025 
 -1.243141968801986   3.593496343593514   1.669341220689734 
  3.734835476043233   3.594120341361531   1.665825331487918 
  2.490801675417436  10.060531189557670   1.667782881705813 
  7.467752190792114  10.060810451309299   1.668187900704055 
  8.712892050036507   3.593380829068066   1.664981020283924 
 -6.223070750965478  12.217788740015120   8.336255581944915 
 -1.243891915649999  12.217914105594126   8.336892491354885 
  0.002276323423421   5.748748436687203   8.336047701966129 
  4.981324984093326   5.750464318157017   8.343305413771992 
  3.734844824563600  12.216998475344225   8.337738696568818 
  9.957407837856536   5.748600377242923   8.337769312140599 
 -2.488162712691310   5.748738256126808   1.669701630899699 
 -3.733525994481466  12.218356322991209   1.669701581884624 
  1.245666148958964  12.217165677100843   1.668904865013533 
  2.490631566865794   5.749144727032683   1.665825331487918 
  6.223912153206721  12.217267283842549   1.668922125835117 
  7.466774564715482   5.748225910463200   1.650586913809428 
 -1.242898793173321   7.904463467612396   8.336255630960004 
  0.001102446524161   1.438401799214783   8.336615992154893 
  3.736347003346915   7.904055717955608   8.353100238053097 
  4.979415948179902   1.439890231113985   8.336756858473169 
  8.711580838383085   7.904128539777513   8.338768073974743 
 -3.733796211763366   7.904579606187689   1.669038071901800 
  9.958267758892296   1.437713756097459   8.337738696568818 
  2.490314656815584   1.439339632072952   1.669909510878498 
  1.247303801862362   7.904098088080939   1.669200354371471 
  6.222111256477488   7.904045998648184   1.650586913809428 
  7.468690732397986   1.438574428426172   1.667782881705813 
  1.247303801862362   7.904098088080940   8.336756858473169 
 12.447866057528120   1.437788823810899   1.668193801659166 
 -2.488600689441535  10.061185712724470   8.337556723917602 
 -1.243141968801986   3.593496343593515   8.336615992154893 
  3.734835476043234   3.594120341361532   8.340131881356736 
  2.490801675417436  10.060531189557670   8.338174331138815 
  7.467752190792114  10.060810451309299   8.337769312140599 
  8.712892050036507   3.593380829068066   8.340976192560678 
 -4.978874124819918  10.061117810983475   1.669038071901800 
  0.001535274742559  10.060770934706444   1.669064721489742 
  1.246555667632830   3.594194247937433   1.668705154585426 
  4.979019417429865  10.060637937733773   1.664981020283924 
  6.223900855317324   3.595486059779158   1.652856974791517 
 11.203034218202152   3.593174890183136   1.668922125835117 
 -2.488162712691309   5.748738256126809   8.336255581944915 
 -3.733525994481465  12.218356322991209   8.336255630960004 
  1.245666148958965  12.217165677100843   8.337052347831067 
  2.490631566865794   5.749144727032684   8.340131881356736 
  6.223912153206722  12.217267283842549   8.337035087009511 
 -6.223070750965479  12.217788740015120   1.669701630899699 
  7.466774564715483   5.748225910463201   8.355370299035199 
 -1.243891915649999  12.217914105594126   1.669064721489742 
  0.002276323423420   5.748748436687202   1.669909510878498 
 -1.242898793173322   7.904463467612395   1.669701581884624 
  4.981324984093325   5.750464318157016   1.662651799072637 
  3.734844824563599  12.216998475344225   1.668218516275824 
  9.957407837856536   5.748600377242922   1.668187900704055 
 -3.733796211763365   7.904579606187689   8.336919140942813 
  2.490314656815584   1.439339632072952   8.336047701966129 
  6.222111256477489   7.904045998648185   8.355370299035199 
  7.468690732397987   1.438574428426172   8.338174331138815 
 12.447866057528120   1.437788823810900   8.337763411185461 
  1.245108643471370   0.718959838466894   1.666377267452751 
  4.979835524520094   7.189152311037487   1.622739768646134 
  6.224457284975656   0.719001840579572   1.666089083855299 
  9.958075446736583   7.186332892709022   1.666902829299060 
 11.203130737864738   0.719140551933345   1.665445252887730 
 -3.733627812283788   9.342368968202992   8.339578070966388 
  1.245516810764209   9.342779709774936   8.339868128989316 
  2.489620676346668   2.874550440011025   8.345460691721629 
  6.223986442253050   9.343269530972634   8.345376003480343 
  7.469690786816351   2.874385288241625   8.347096205407336 
 12.447673270409261   2.874741714903484   8.339847667009350 
 -1.244002138412538   9.342460364043861   1.666619519507709 
  0.000404568382096   2.874728575334027   1.665524024562222 
  4.980053153894399   2.874980236768219   1.657050907119024 
  3.734750382256428   9.343491832181311   1.658861007437291 
  8.713198877472683   9.342522359826150   1.666902829299060 
  9.958758863272111   2.874516916515224   1.665842440008600 
 -4.978320156208065  11.498417954786593   8.339145400234038 
  0.000821777049578  11.498454443879730   8.339580024532568 
  1.244858352649351   5.030542028002289   8.345460691721629 
  6.226520604260844   5.029830411888440   8.383217444198493 
  4.979398413913097  11.499022204004092   8.340114772836028 
 11.203031660444356   5.030442682744903   8.338502504585502 
 -1.244193884884475   5.030558292988912   1.666377267452751 
 -2.488735824228200  11.498402349769078   1.666619519507709 
  2.490148644302220  11.498778102027261   1.666301385170760 
  3.733835368600618   5.030225852841044   1.650710991902689 
  7.468621294727538  11.498631172478349   1.667454708259126 
  8.714116298320656   5.030238102819333   1.660581209364284 
  0.000837680258746   7.186620819313438   8.339077138753540 
  1.245108643471371   0.718959838466894   8.339579945391863 
  4.979835524520095   7.189152311037488   8.383217444198493 
  6.224457284975657   0.719001840579572   8.339868128989316 
  9.958075446736583   7.186332892709022   8.339054383545569 
 -2.488780790060870   7.186409285176802   1.666811812610576 
 11.203130737864738   0.719140551933346   8.340511959956912 
  3.734829345987609   0.719157539232257   1.666880074091075 
  2.490446806333376   7.187104921589923   1.657050907119024 
  7.468824319057693   7.186622728807786   1.654625213749981 
  8.713922579953620   0.718885430656048   1.666301385170760 
  2.490446806333377   7.187104921589924   8.348906305725590 
 13.692207371696393   0.719145419722086   1.666109545835278 
 -1.244002138412538   9.342460364043861   8.339337693336919 
  0.000404568382096   2.874728575334028   8.340433188282420 
  4.980053153894400   2.874980236768220   8.348906305725590 
  3.734750382256429   9.343491832181311   8.347096205407336 
  8.713198877472683   9.342522359826150   8.339054383545569 
  9.958758863272111   2.874516916515225   8.340114772836028 
 -3.733627812283789   9.342368968202992   1.666379141878254 
  1.245516810764208   9.342779709774936   1.666089083855299 
  2.489620676346667   2.874550440011024   1.660496521122986 
  6.223986442253049   9.343269530972634   1.660581209364284 
  7.469690786816350   2.874385288241624   1.658861007437291 
 12.447673270409261   2.874741714903483   1.666109545835278 
 -1.244193884884474   5.030558292988913   8.339579945391863 
 -2.488735824228199  11.498402349769078   8.339337693336919 
  2.490148644302220  11.498778102027261   8.339655827673868 
  3.733835368600619   5.030225852841045   8.355246220941925 
  7.468621294727539  11.498631172478349   8.338502504585502 
 -4.978320156208066  11.498417954786593   1.666811812610576 
  8.714116298320656   5.030238102819334   8.345376003480343 
  0.000821777049578  11.498454443879730   1.666377188312046 
  1.244858352649350   5.030542028002288   1.660496521122986 
  0.000837680258745   7.186620819313437   1.666880074091075 
  6.226520604260843   5.029830411888439   1.622739768646134 
  4.979398413913096  11.499022204004092   1.665842440008600 
 11.203031660444356   5.030442682744902   1.667454708259126 
 -2.488780790060870   7.186409285176802   8.339145400234038 
  3.734829345987609   0.719157539232257   8.339077138753540 
  7.468824319057694   7.186622728807787   8.351331999094620 
  8.713922579953620   0.718885430656049   8.339655827673868 
 13.692207371696393   0.719145419722087   8.339847667009350 
  0.006389948466874   1.441832259322061   5.002978606422314 
  3.659185891597664   8.005662746932229   5.002978606422314 
  5.001866223467894   1.327058388730874   5.002978606422314 
  8.694642306020075   7.894349073558042   5.002978606422314 
  9.968676973975517   1.429639286343716   5.002978606422314 
 -4.978635593714515  10.060793306510309  11.673616748318732 
 -0.000064299526715  10.060782775386766  11.673616748318732 
  1.244744688114908   3.593148678425274  11.673616748318732 
  4.978830099425319  10.060698844812036  11.673616748318732 
  6.223440890886332   3.592922558308214  11.673616748318732 
 11.202248469590673   3.593217157418721  11.673616748318732 
 -2.518855373017030  10.043718163017868   5.002978606422314 
 -1.237527352231049   3.596360224544811   5.002978606422314 
  3.783454503724550   3.388977028432460   5.002978606422314 
  2.451948644802579  10.106042239213213   5.002978606422314 
  7.459660546370967  10.065775584663026   5.002978606422314 
  8.732772004746369   3.569587711589950   5.002978606422314 
 -6.223394217816666  12.216566543518663  11.673616748318732 
 -1.244681448454686  12.216522913301549  11.673616748318732 
 -0.000048931265470   5.749069124738616  11.673616748318732 
  4.978716444672128   5.748958277219988  11.673616748318732 
  3.734073736189328  12.216571424475351  11.673616748318732 
  9.957667103457448   5.749120079601912  11.673616748318732 
 -2.509770696435123   5.747714632579583   5.002978606422314 
 -3.751099881594218  12.175077936051846   5.002978606422314 
  1.237145552994376  12.212246308727005   5.002978606422314 
  2.337281760293377   5.893821696576565   5.002978606422314 
  6.223707695462394  12.227773302152139   5.002978606422314 
  7.491817199310311   5.733778036448326   5.002978606422314 
 -1.244749693775848   7.904925052627388  11.673616748318732 
  0.000045312691733   1.437223310315109  11.673616748318732 
  3.733896963734956   7.904939127808976  11.673616748318732 
  4.978799875311907   1.437061220435285  11.673616748318732 
  8.713149288188735   7.905034084695014  11.673616748318732 
 -3.761499297951618   7.895256622431940   5.002978606422314 
  9.957512377803983   1.437259499411254  11.673616748318732 
  2.479848819941223   1.386659928266532   5.002978606422314 
  1.160813697646774   7.979956517993865   5.002978606422314 
  6.222120347847337   7.932957493392445   5.002978606422314 
  7.488677942245152   1.382171192071919   5.002978606422314 
  1.244545770313017   7.904979058666051  11.673616748318732 
 12.455472522957082   1.442180418673892   5.002978606422314 
 -2.489352516691727  10.060751645059163  11.673616748318732 
 -1.244691137043388   3.593170083289257  11.673616748318732 
  3.734178813147634   3.593017904574776  11.673616748318732 
  2.489294748503375  10.060757366811210  11.673616748318732 
  7.468331899037869  10.060775130726512  11.673616748318732 
  8.712850138111286   3.593186421327591  11.673616748318732 
 -5.000799608685585  10.041787726459081   5.002978606422314 
 -0.040308573306772  10.074921637624115   5.002978606422314 
  1.264259763136334   3.604415712242159   5.002978606422314 
  4.968353950613529  10.089751042277642   5.002978606422314 
  6.273314567739529   3.477859062331719   5.002978606422314 
 11.212030468078719   3.587744815427755   5.002978606422314 
 -2.489382899331259   5.749069223864641  11.673616748318732 
 -3.734051700433723  12.216522603542019  11.673616748318732 
  1.244639144701943  12.216572735916584  11.673616748318732 
  2.489348497154583   5.749127258676776  11.673616748318732 
  6.223555883400754  12.216565671966215  11.673616748318732 
 -6.234761226833196  12.199587488942029   5.002978606422314 
  7.468363713050707   5.749173133065637  11.673616748318732 
 -1.252558971466576  12.174600918732510   5.002978606422314 
 -0.048578556773967   5.766024607985364   5.002978606422314 
 -1.289165919253984   7.910883228399167   5.002978606422314 
  3.733056736176372  12.230050354916633   5.002978606422314 
  9.957661947263489   5.739110240938917   5.002978606422314 
 -3.733957975328055   7.904948432421119  11.673616748318732 
  2.489429753470346   1.437165558416410  11.673616748318732 
  6.223726149481843   7.904948630175665  11.673616748318732 
  7.468133144188292   1.437156302810155  11.673616748318732 
 12.446956626037339   1.437263763294879  11.673616748318732 
  4.277140795475951   5.343903387299687   5.002978606422314 
Generated by cif2cell 2.0.0.  :  Failed to get author information, No journal information. Species order: B N In 
 1.0
 14.936314146199660   0.000000000000000   0.000000000000000
 -7.468157073099825  12.935227489513863   0.000000000000000
  0.000000000000001   0.000000000000001  13.341276283792837
 B N In 
 143 143   1
Cartesian
  1.239386939007564   0.699541519268572   5.002978606422314 
  4.932016447097999   7.338682225679802   5.002978606422314 
  6.242278477308445   0.657874025024147   5.002978606422314 
  9.935685723659624   7.175666898838498   5.002978606422314 
 11.212395142746018   0.724489358585426   5.002978606422314 
 -3.734058648565246   9.342120224759935  11.673616748318732 
  1.244848398483289   9.341712765563189  11.673616748318732 
  2.489924668534655   2.875001335241691  11.673616748318732 
  6.223401345751996   9.341380875660583  11.673616748318732 
  7.467471363250552   2.874944771714242  11.673616748318732 
 12.447081082566752   2.874704021008074  11.673616748318732 
 -1.275684484414670   9.340776910868078   5.002978606422314 
  0.024663859767060   2.888734683745477   5.002978606422314 
  5.009767976717890   2.744197441746401   5.002978606422314 
  3.696073942443574   9.407679022853078   5.002978606422314 
  8.692766994285734   9.328465287793041   5.002978606422314 
  9.972642801461562   2.864469033313368   5.002978606422314 
 -4.978672858875448  11.498097903498634  11.673616748318732 
 -0.000086048164879  11.497930310747796  11.673616748318732 
  1.245400835467555   5.030579845344292  11.673616748318732 
  6.222800783698450   5.030628256909198  11.673616748318732 
  4.978834392372428  11.497499486363948  11.673616748318732 
 11.202154459712951   5.030572765063186  11.673616748318732 
 -1.263871494840912   5.035312311169458   5.002978606422314 
 -2.506034910445552  11.471806359867594   5.002978606422314 
  2.480695488910724  11.520997860228453   5.002978606422314 
  7.459461346748042  11.497167328260291   5.002978606422314 
  8.726099851327209   5.012693642711834   5.002978606422314 
  0.000411524045099   7.186122313892903  11.673616748318732 
  1.245049364875971   0.718905401402109  11.673616748318732 
  4.978666568295149   7.185531929422571  11.673616748318732 
  6.223199078043400   0.718956450669968  11.673616748318732 
  9.957352655899042   7.186291681279898  11.673616748318732 
 -2.519286902737575   7.182350218616871   5.002978606422314 
 11.202180706468182   0.718592051050798  11.673616748318732 
  3.727402800855521   0.670870265293453   5.002978606422314 
  2.392042994878286   7.278230110534944   5.002978606422314 
  7.446832299393146   7.173925630334447   5.002978606422314 
  8.728438877326054   0.699588878840491   5.002978606422314 
  2.489783175817807   7.185898818301666  11.673616748318732 
 13.700892604733358   0.729122412040383   5.002978606422314 
 -1.244552432411202   9.342012968924596  11.673616748318732 
  0.000583453197945   2.874831854530604  11.673616748318732 
  4.978676822549390   2.875008567527152  11.673616748318732 
  3.734125197373805   9.341290013255277  11.673616748318732 
  8.712801791909378   9.341917010313756  11.673616748318732 
  9.957158140342619   2.874789818352797  11.673616748318732 
 -3.760097537835338   9.327086665030455   5.002978606422314 
  1.201489165781757   9.388777222838572   5.002978606422314 
  2.511327762063869   2.835399131733022   5.002978606422314 
  6.214784270607534   9.362419822357682   5.002978606422314 
  7.505940304629228   2.808796913499869   5.002978606422314 
 12.460656215728765   2.877274851192112   5.002978606422314 
 -1.244270668063186   5.030534174751789  11.673616748318732 
 -2.489398426766331  11.498149478746294  11.673616748318732 
  2.489335145878273  11.497636559354586  11.673616748318732 
  3.734542865061738   5.030634326113304  11.673616748318732 
  7.468295348954046  11.497806453201603  11.673616748318732 
 -4.997088467302979  11.474028419517834   5.002978606422314 
  8.712188126590892   5.030675722041796  11.673616748318732 
 -0.010517154613232  11.491907908631884   5.002978606422314 
  1.221805867947813   5.068916569814500   5.002978606422314 
 -0.044693598217794   7.204332879536086   5.002978606422314 
  6.332107770255749   4.913652918734226   5.002978606422314 
  4.977638660900755  11.516069988781659   5.002978606422314 
 11.197183960174575   5.023241857206367   5.002978606422314 
 -2.489234313940456   7.186263861350860  11.673616748318732 
  3.734184549522678   0.719037729835527  11.673616748318732 
  7.467766472639036   7.186011980893178  11.673616748318732 
  8.712527225787614   0.718751691691294  11.673616748318732 
 13.691878633904151   0.718651416954355  11.673616748318732 
  0.001102446524161   1.438401799214782   1.669341220689734 
  3.736347003346914   7.904055717955607   1.652856974791517 
  4.979415948179901   1.439890231113985   1.669200354371471 
  8.711580838383085   7.904128539777512   1.667189138869899 
  9.958267758892296   1.437713756097458   1.668218516275824 
 -4.978874124819917  10.061117810983475   8.336919140942813 
  0.001535274742560  10.060770934706444   8.336892491354885 
  1.246555667632831   3.594194247937434   8.337252058259203 
  4.979019417429866  10.060637937733773   8.340976192560678 
  6.223900855317325   3.595486059779159   8.353100238053097 
 11.203034218202152   3.593174890183137   8.337035087009511 
 -2.488600689441536  10.061185712724470   1.668400488927025 
 -1.243141968801986   3.593496343593514   1.669341220689734 
  3.734835476043233   3.594120341361531   1.665825331487918 
  2.490801675417436  10.060531189557670   1.667782881705813 
  7.467752190792114  10.060810451309299   1.668187900704055 
  8.712892050036507   3.593380829068066   1.664981020283924 
 -6.223070750965478  12.217788740015120   8.336255581944915 
 -1.243891915649999  12.217914105594126   8.336892491354885 
  0.002276323423421   5.748748436687203   8.336047701966129 
  4.981324984093326   5.750464318157017   8.343305413771992 
  3.734844824563600  12.216998475344225   8.337738696568818 
  9.957407837856536   5.748600377242923   8.337769312140599 
 -2.488162712691310   5.748738256126808   1.669701630899699 
 -3.733525994481466  12.218356322991209   1.669701581884624 
  1.245666148958964  12.217165677100843   1.668904865013533 
  2.490631566865794   5.749144727032683   1.665825331487918 
  6.223912153206721  12.217267283842549   1.668922125835117 
  7.466774564715482   5.748225910463200   1.650586913809428 
 -1.242898793173321   7.904463467612396   8.336255630960004 
  0.001102446524161   1.438401799214783   8.336615992154893 
  3.736347003346915   7.904055717955608   8.353100238053097 
  4.979415948179902   1.439890231113985   8.336756858473169 
  8.711580838383085   7.904128539777513   8.338768073974743 
 -3.733796211763366   7.904579606187689   1.669038071901800 
  9.958267758892296   1.437713756097459   8.337738696568818 
  2.490314656815584   1.439339632072952   1.669909510878498 
  1.247303801862362   7.904098088080939   1.669200354371471 
  6.222111256477488   7.904045998648184   1.650586913809428 
  7.468690732397986   1.438574428426172   1.667782881705813 
  1.247303801862362   7.904098088080940   8.336756858473169 
 12.447866057528120   1.437788823810899   1.668193801659166 
 -2.488600689441535  10.061185712724470   8.337556723917602 
 -1.243141968801986   3.593496343593515   8.336615992154893 
  3.734835476043234   3.594120341361532   8.340131881356736 
  2.490801675417436  10.060531189557670   8.338174331138815 
  7.467752190792114  10.060810451309299   8.337769312140599 
  8.712892050036507   3.593380829068066   8.340976192560678 
 -4.978874124819918  10.061117810983475   1.669038071901800 
  0.001535274742559  10.060770934706444   1.669064721489742 
  1.246555667632830   3.594194247937433   1.668705154585426 
  4.979019417429865  10.060637937733773   1.664981020283924 
  6.223900855317324   3.595486059779158   1.652856974791517 
 11.203034218202152   3.593174890183136   1.668922125835117 
 -2.488162712691309   5.748738256126809   8.336255581944915 
 -3.733525994481465  12.218356322991209   8.336255630960004 
  1.245666148958965  12.217165677100843   8.337052347831067 
  2.490631566865794   5.749144727032684   8.340131881356736 
  6.223912153206722  12.217267283842549   8.337035087009511 
 -6.223070750965479  12.217788740015120   1.669701630899699 
  7.466774564715483   5.748225910463201   8.355370299035199 
 -1.243891915649999  12.217914105594126   1.669064721489742 
  0.002276323423420   5.748748436687202   1.669909510878498 
 -1.242898793173322   7.904463467612395   1.669701581884624 
  4.981324984093325   5.750464318157016   1.662651799072637 
  3.734844824563599  12.216998475344225   1.668218516275824 
  9.957407837856536   5.748600377242922   1.668187900704055 
 -3.733796211763365   7.904579606187689   8.336919140942813 
  2.490314656815584   1.439339632072952   8.336047701966129 
  6.222111256477489   7.904045998648185   8.355370299035199 
  7.468690732397987   1.438574428426172   8.338174331138815 
 12.447866057528120   1.437788823810900   8.337763411185461 
  1.245108643471370   0.718959838466894   1.666377267452751 
  4.979835524520094   7.189152311037487   1.622739768646134 
  6.224457284975656   0.719001840579572   1.666089083855299 
  9.958075446736583   7.186332892709022   1.666902829299060 
 11.203130737864738   0.719140551933345   1.665445252887730 
 -3.733627812283788   9.342368968202992   8.339578070966388 
  1.245516810764209   9.342779709774936   8.339868128989316 
  2.489620676346668   2.874550440011025   8.345460691721629 
  6.223986442253050   9.343269530972634   8.345376003480343 
  7.469690786816351   2.874385288241625   8.347096205407336 
 12.447673270409261   2.874741714903484   8.339847667009350 
 -1.244002138412538   9.342460364043861   1.666619519507709 
  0.000404568382096   2.874728575334027   1.665524024562222 
  4.980053153894399   2.874980236768219   1.657050907119024 
  3.734750382256428   9.343491832181311   1.658861007437291 
  8.713198877472683   9.342522359826150   1.666902829299060 
  9.958758863272111   2.874516916515224   1.665842440008600 
 -4.978320156208065  11.498417954786593   8.339145400234038 
  0.000821777049578  11.498454443879730   8.339580024532568 
  1.244858352649351   5.030542028002289   8.345460691721629 
  6.226520604260844   5.029830411888440   8.383217444198493 
  4.979398413913097  11.499022204004092   8.340114772836028 
 11.203031660444356   5.030442682744903   8.338502504585502 
 -1.244193884884475   5.030558292988912   1.666377267452751 
 -2.488735824228200  11.498402349769078   1.666619519507709 
  2.490148644302220  11.498778102027261   1.666301385170760 
  3.733835368600618   5.030225852841044   1.650710991902689 
  7.468621294727538  11.498631172478349   1.667454708259126 
  8.714116298320656   5.030238102819333   1.660581209364284 
  0.000837680258746   7.186620819313438   8.339077138753540 
  1.245108643471371   0.718959838466894   8.339579945391863 
  4.979835524520095   7.189152311037488   8.383217444198493 
  6.224457284975657   0.719001840579572   8.339868128989316 
  9.958075446736583   7.186332892709022   8.339054383545569 
 -2.488780790060870   7.186409285176802   1.666811812610576 
 11.203130737864738   0.719140551933346   8.340511959956912 
  3.734829345987609   0.719157539232257   1.666880074091075 
  2.490446806333376   7.187104921589923   1.657050907119024 
  7.468824319057693   7.186622728807786   1.654625213749981 
  8.713922579953620   0.718885430656048   1.666301385170760 
  2.490446806333377   7.187104921589924   8.348906305725590 
 13.692207371696393   0.719145419722086   1.666109545835278 
 -1.244002138412538   9.342460364043861   8.339337693336919 
  0.000404568382096   2.874728575334028   8.340433188282420 
  4.980053153894400   2.874980236768220   8.348906305725590 
  3.734750382256429   9.343491832181311   8.347096205407336 
  8.713198877472683   9.342522359826150   8.339054383545569 
  9.958758863272111   2.874516916515225   8.340114772836028 
 -3.733627812283789   9.342368968202992   1.666379141878254 
  1.245516810764208   9.342779709774936   1.666089083855299 
  2.489620676346667   2.874550440011024   1.660496521122986 
  6.223986442253049   9.343269530972634   1.660581209364284 