 B C N 
 1.0
 17.527899999999772   0.000000000000000   0.000000000000000
 -8.763949999999658  15.179606674993195   0.000000000000000
  0.000000000000001   0.000000000000002  15.000000000000000
 B C N 
  48   1  48
Cartesian
  7.513362106703712  14.432100982964135   1.742121164707620 
 15.048957188529418   1.432356815115362   1.755136346453040 
 13.806210087621682   3.603486451517148   1.759921344697290 
 12.551864420739470   5.772707884857357   1.754261263333065 
 11.274730638722641   7.938845224816773   1.723735719289410 
  9.989998578159813  10.097025589705122   1.710634257760710 
  8.733247307321154  12.244399662558312   1.722164511530175 
 -7.515420410173671  14.460390811062169   1.761252634170165 
  0.023347334352809   1.459013697628920   1.744864543404360 
 -1.216697222990976   3.622017327844274   1.708785642153765 
 -2.475799743096585   5.785057090416570   1.704453622917015 
 -3.753889468691972   7.952509950562614   1.723570136933490 
 -5.026589006236055  10.119737783328796   1.730977662598380 
 -6.279828107690022  12.286646940427806   1.748774481903675 
 -5.015025040740732  14.477373456393073   1.745897591040495 
  2.527905649427153   1.496773783851916   1.722745134073665 
  1.297654341926136   3.665806120160599   1.655999954019360 
  0.033939475147299   5.806467071126050   1.579417523238525 
 -1.259911596540489   7.965457917252254   1.613504619905850 
 -2.528353285036111  10.132223779687193   1.678249883634990 
 -3.775676820890614  12.301194754155850   1.731307241427960 
 -2.514834176482738  14.475558349607951   1.733123766968955 
  5.015844652606018   1.482394554588374   1.710751568929935 
  3.817946559960612   3.730867964866835   1.665768777823665 
  2.575588963155768   5.868430091976439   1.465329081054795 
  1.220131897225024   7.999896233589542   1.436259616304805 
 -0.043247434440014  10.146098758258900   1.552068432901050 
 -1.273706166195438  12.305476118662183   1.679726833641285 
  0.000895769391066  14.456828133321608   1.726043658159510 
  7.526863464099330   1.448913042172262   1.724721629244405 
  6.293802015535467   3.630943416253576   1.649936168281515 
  5.187299510707533   5.976464939050008   1.693184462008215 
  2.447211410734821  10.125238368552752   1.433829893570805 
  1.236746720590333  12.290156290078748   1.612971575536155 
  2.517014340783104  14.433313280079824   1.703663250067950 
 10.041493764876813   1.425257886669348   1.749287969219805 
  8.805331373098204   3.588809013989607   1.687059647141160 
  7.586180228091271   5.741620224517461   1.631778077218785 
  6.184448084585620   7.701911393025369   1.697851292179395 
  4.970815072545040  10.016773610305084   1.462741079485815 
  3.753479502219318  12.248906376504751   1.578347104657380 
  5.019828066801729  14.424001651057257   1.707509108041530 
 12.547389875907156   1.423246891482192   1.759027463638500 
 11.304796873642394   3.594182545000346   1.747160936522700 
 10.060218608079307   5.761716414975110   1.690294980172815 
  8.768863227364285   7.915889861620140   1.654737520157550 
  7.443825213043171  10.010068906403204   1.662639250544880 
  6.239554861571256  12.224883053622655   1.651019600993220 
  3.656533524760382   8.009303896836606   0.931191643239735 
  8.758954404114814  13.707039952864527   1.753991524718430 
 16.298863335676650   0.710873285393120   1.755445969142100 
 15.059913773797154   2.884699943303215   1.750015389173430 
 13.806066426387659   5.052559541876535   1.756663459187250 
 12.532133251008837   7.220738831879943   1.754906536111845 
 11.253550841830819   9.386735862030944   1.724872125284670 
  9.996099847238241  11.545492029196048   1.731990756859215 
 -6.266128304724768  13.739149790482530   1.760974380656310 
  1.274216507969607   0.743074817585604   1.754374976779005 
  0.042861445268970   2.915852331409791   1.710253800572115 
 -1.214880292281947   5.071720251110646   1.663380413249235 
 -2.498080199150891   7.232997304803363   1.687251728159025 
 -3.771150002839057   9.400452142494114   1.715551122505395 
 -5.025535018268346  11.568662922478936   1.741247061926640 
 -3.766269652818276  13.749968779508713   1.739344147544520 
  3.764699367511593   0.752706076644734   1.727046931779765 
  2.557720963341303   2.965603410162221   1.680534624725235 
  1.313511168972832   5.120712579843214   1.558836720549660 
 -0.001001196335716   7.251990708789696   1.543342747769895 
 -1.278246068661816   9.411510381549721   1.611233220652005 
 -2.524174968201057  11.578654929606865   1.699907499030270 
 -1.261516915280318  13.747625024179646   1.721108762201250 
  6.262727751562909   0.743063310176323   1.727304409883205 
  5.031388770989926   2.937784587289208   1.677982729692585 
  3.865189809311152   5.228020576464333   1.634839492093320 
  2.502486878803920   7.328579119704250   1.265450650514130 
  1.199610066919621   9.428583044732376   1.441236328749000 
 -0.024706744454453  11.583321426761101   1.609643757086235 
  1.252054397151760  13.728562819292049   1.688961874884675 
  8.777578074576269   0.718765536890446   1.753848106287210 
  7.540527951953949   2.889946814436898   1.683204680682810 
  6.319477591635591   5.069561340217242   1.617624733009425 
  3.669684620550384   9.350618334026533   1.261732062965265 
  2.483976090344547  11.556645244653668   1.540874307951915 
  3.765329997832214  13.697792837402028   1.663575062398140 
 11.292222713389302   0.699009980406913   1.752100309444410 
 10.053651018545956   2.867525306251589   1.730900817787545 
  8.824183773888850   5.026710432847627   1.651948798637100 
  7.535773846353565   7.174460439550805   1.632025516278690 
  6.170790211270302   9.220431172656092   1.633313870857755 
  4.987205280337112  11.483361437148773   1.557608609933700 
  6.261390403069861  13.686513780605283   1.703684263408410 
 13.796785086884915   0.696705411364572   1.752366202681380 
 12.555838454047272   2.871909683492368   1.768406395108395 
 11.308699127254853   5.040934488028636   1.738136991428850 
 10.033609764311066   7.206465770240999   1.683566579192685 
  8.737459297033466   9.355860598055131   1.675831214594850 
  7.476290037033017  11.484253805456143   1.674441444881625 
