B N                                     
   1.0000000000000000     
     8.7639499999999995  -15.1796066749929999    0.0000000000000000
     8.7639499999999995   15.1796066749929999    0.0000000000000000
     0.0000000000000000    0.0000000000000000   15.0000000000000000
   B    N 
    48    49
Selective dynamics
Direct
  0.9035735539648462  0.9506408879902243  0.1109777786024390   T   T   T
  0.9056672559941910  0.0943345128768110  0.1114650668836181   T   T   T
  0.9063733085458558  0.2372735287021939  0.1116262818189881   T   T   T
  0.9061706853453818  0.3801119854584231  0.1119920358029393   T   T   T
  0.9039633370592236  0.5226436892053188  0.1125352547465970   T   T   T
  0.9009289722346816  0.6645246937395014  0.1117563184965827   T   T   T
  0.9003606853200660  0.8060804576680911  0.1106237847731117   T   T   T
  0.0471335624889319  0.9528681596670679  0.1106429972469804   T   T   T
  0.0493608177767738  0.0964281482271553  0.1109777797924417   T   T   T
  0.0499235697774099  0.2387420426700486  0.1114500075786536   T   T   T
  0.0491747634125047  0.3811285589558300  0.1122809044046295   T   T   T
  0.0472208309954473  0.5239435660934250  0.1125572131681327   T   T   T
  0.0455817230307232  0.6666730036209242  0.1118766432650997   T   T   T
  0.0455617057245326  0.8094718771128486  0.1108619408643530   T   T   T
  0.1905298659071516  0.9544400463144720  0.1108619373283513   T   T   T
  0.1939212526419109  0.0996410581369325  0.1106237827121114   T   T   T
  0.1952661055812834  0.2422840233335970  0.1104199878509591   T   T   T
  0.1933433842990031  0.3828442099543343  0.1111721503572305   T   T   T
  0.1900346548951229  0.5249632076629480  0.1130658608858285   T   T   T
  0.1888033872380397  0.6677744511731138  0.1126359409777644   T   T   T
  0.1891951303008327  0.8108065060371586  0.1116817714598297   T   T   T
  0.3333286638410770  0.9544199183282759  0.1118766403821010   T   T   T
  0.3354770581074932  0.0990727675143139  0.1117563174925858   T   T   T
  0.3423162190483060  0.2481885802361037  0.1111093313828207   T   T   T
  0.3415493411453607  0.3877860873324527  0.1050128170514891   T   T   T
  0.3325913892116986  0.5276018759640386  0.1065199706197495   T   T   T
  0.3311599306015756  0.6688418920104239  0.1106110601376366   T   T   T
  0.3322272008528793  0.8111982973489581  0.1126359391957658   T   T   T
  0.4760580778225758  0.9527807604555558  0.1125572184641346   T   T   T
  0.4773580312156780  0.0960383321657763  0.1125352687665999   T   T   T
  0.4798645060576242  0.2405926550307950  0.1146286692121109   T   T   T
  0.4982383473445513  0.3989209064430028  0.1151947238011127   T   T   T
  0.4723998530249596  0.6674103730392970  0.1065199702907469   T   T   T
  0.4750385793480534  0.8099671749338802  0.1130658608608245   T   T   T
  0.6188731859341627  0.9508269643115003  0.1122809071376326   T   T   T
  0.6198896725785772  0.0938309285606192  0.1119920430209379   T   T   T
  0.6209447706762353  0.2362160196435507  0.1139378795035109   T   T   T
  0.6225125978120645  0.3774892014669335  0.1173443898714043   T   T   T
  0.6010808276219990  0.5017632883664500  0.1151947236271079   T   T   T
  0.6122155702935485  0.6584522567886339  0.1050128146374912   T   T   T
  0.6171575147756634  0.8066583793139968  0.1111721485222326   T   T   T
  0.7612596799319451  0.9500781784725900  0.1114500099326532   T   T   T
  0.7627281722008049  0.0936283804621461  0.1116262813229866   T   T   T
  0.7634782489349068  0.2365233742960934  0.1119546045245840   T   T   T
  0.7637857127364487  0.3790569539507619  0.1139378729265142   T   T   T
  0.7594092140642066  0.5201372659273809  0.1146286619781108   T   T   T
  0.7518132088418951  0.6576854735086931  0.1111093329418154   T   T   T
  0.7577176323353988  0.8047355581207175  0.1104199888709645   T   T   T
  0.9507161188341273  0.9029496460669171  0.1106607381030885   T   T   T
  0.9531270122891602  0.0468747078398389  0.1111764121738521   T   T   T
  0.9541640616046611  0.1899491508496674  0.1115572149753047   T   T   T
  0.9540513637788228  0.3326808925823744  0.1117749971866830   T   T   T
  0.9525344670040198  0.4755403571825235  0.1121625997696942   T   T   T
  0.9505453080579536  0.6182513402409082  0.1119377494937578   T   T   T
  0.9498461660621257  0.7604682995957988  0.1108216801548414   T   T   T
  0.0946332117811217  0.9053685537918816  0.1106122542533426   T   T   T
  0.0970520688520843  0.0492856076588690  0.1106607486100900   T   T   T
  0.0984314763948969  0.1923196530925352  0.1110464995387395   T   T   T
  0.0974984129578284  0.3341513633757850  0.1118438106101785   T   T   T
  0.0951821353384139  0.4765525938947865  0.1129771589509357   T   T   T
  0.0938115969648390  0.6194614158036019  0.1124923397061276   T   T   T
  0.0937170392769650  0.7623479359717680  0.1113531983513136   T   T   T
  0.2376537316552286  0.9062846131020330  0.1113531974283115   T   T   T
  0.2395334435762010  0.0501556112928699  0.1108216699478382   T   T   T
  0.2439312598925536  0.1961708479686618  0.1103439268553265   T   T   T
  0.2436844767706578  0.3380713065372346  0.1092651580870140   T   T   T
  0.2380582884530781  0.4780147890813359  0.1126605121293246   T   T   T
  0.2362944720391424  0.6203662743201719  0.1125844083614947   T   T   T
  0.2368019761641890  0.7631996732788037  0.1123180646100735   T   T   T
  0.3805402277873966  0.9061900262541602  0.1124923304221265   T   T   T
  0.3817503650730902  0.0494563227940511  0.1119377550537618   T   T   T
  0.3841813038057918  0.1942288634846272  0.1126488180924870   T   T   T
  0.3936074092024531  0.3456214168306824  0.1098956164196429   T   T   T
  0.3827192940586222  0.4840984590194390  0.0972991265558722   T   T   T
  0.3780827507064424  0.6219190041285552  0.1059294705896189   T   T   T
  0.3796355244528269  0.7637073868158584  0.1125844152434919   T   T   T
  0.5234491824222197  0.9048196677245863  0.1129771642189351   T   T   T
  0.5244612996384750  0.0474670771019788  0.1121626177666901   T   T   T
  0.5258484126516522  0.1903006425964250  0.1137182065324857   T   T   T
  0.5288747435981175  0.3336575029202634  0.1172433762249205   T   T   T
  0.4699621424003069  0.5300393963426857  0.0704478759820584   T   T   T
  0.5159030877545621  0.6172822059043760  0.0972991300888683   T   T   T
  0.5219869472206674  0.7619435246299248  0.1126605071023271   T   T   T
  0.6658503918502097  0.9025033711981767  0.1118438093151788   T   T   T
  0.6673208199076225  0.0459503106031756  0.1117749998976807   T   T   T
  0.6683918392063067  0.1884089388814026  0.1122297464674610   T   T   T
  0.6698491794818335  0.3301525786871651  0.1157079038484890   T   T   T
  0.6663444320467391  0.4711270314288845  0.1172433713819180   T   T   T
  0.6543803783583180  0.6063942389475510  0.1098956177276384   T   T   T
  0.6619302968417629  0.7563171730913493  0.1092651533020131   T   T   T
  0.8076820301654636  0.9015702316921013  0.1110465012117408   T   T   T
  0.8100526189853346  0.0458377215573446  0.1115572184413037   T   T   T
  0.8110869784771557  0.1889146789538440  0.1115378115659931   T   T   T
  0.8115926894425974  0.3316098040546943  0.1122297409514609   T   T   T
  0.8097010824445775  0.4741533053833490  0.1137181872034851   T   T   T
  0.8057729700643727  0.6158204472402080  0.1126488174624843   T   T   T
  0.8038308798753393  0.7560704337704482  0.1103439316073226   T   T   T

  0.00000000E+00  0.00000000E+00  0.00000000E+00
  0.00000000E+00  0.00000000E+00  0.00000000E+00
  0.00000000E+00  0.00000000E+00  0.00000000E+00
  0.00000000E+00  0.00000000E+00  0.00000000E+00
  0.00000000E+00  0.00000000E+00  0.00000000E+00
  0.00000000E+00  0.00000000E+00  0.00000000E+00
  0.00000000E+00  0.00000000E+00  0.00000000E+00
  0.00000000E+00  0.00000000E+00  0.00000000E+00
  0.00000000E+00  0.00000000E+00  0.00000000E+00
  0.00000000E+00  0.00000000E+00  0.00000000E+00
  0.00000000E+00  0.00000000E+00  0.00000000E+00
  0.00000000E+00  0.00000000E+00  0.00000000E+00
  0.00000000E+00  0.00000000E+00  0.00000000E+00
  0.00000000E+00  0.00000000E+00  0.00000000E+00
  0.00000000E+00  0.00000000E+00  0.00000000E+00
  0.00000000E+00  0.00000000E+00  0.00000000E+00
  0.00000000E+00  0.00000000E+00  0.00000000E+00
  0.00000000E+00  0.00000000E+00  0.00000000E+00
  0.00000000E+00  0.00000000E+00  0.00000000E+00
  0.00000000E+00  0.00000000E+00  0.00000000E+00
  0.00000000E+00  0.00000000E+00  0.00000000E+00
  0.00000000E+00  0.00000000E+00  0.00000000E+00
  0.00000000E+00  0.00000000E+00  0.00000000E+00
  0.00000000E+00  0.00000000E+00  0.00000000E+00
  0.00000000E+00  0.00000000E+00  0.00000000E+00
  0.00000000E+00  0.00000000E+00  0.00000000E+00
  0.00000000E+00  0.00000000E+00  0.00000000E+00
  0.00000000E+00  0.00000000E+00  0.00000000E+00
  0.00000000E+00  0.00000000E+00  0.00000000E+00
  0.00000000E+00  0.00000000E+00  0.00000000E+00
  0.00000000E+00  0.00000000E+00  0.00000000E+00
  0.00000000E+00  0.00000000E+00  0.00000000E+00
  0.00000000E+00  0.00000000E+00  0.00000000E+00
  0.00000000E+00  0.00000000E+00  0.00000000E+00
  0.00000000E+00  0.00000000E+00  0.00000000E+00
  0.00000000E+00  0.00000000E+00  0.00000000E+00
  0.00000000E+00  0.00000000E+00  0.00000000E+00
  0.00000000E+00  0.00000000E+00  0.00000000E+00
  0.00000000E+00  0.00000000E+00  0.00000000E+00
  0.00000000E+00  0.00000000E+00  0.00000000E+00
  0.00000000E+00  0.00000000E+00  0.00000000E+00
  0.00000000E+00  0.00000000E+00  0.00000000E+00
  0.00000000E+00  0.00000000E+00  0.00000000E+00
  0.00000000E+00  0.00000000E+00  0.00000000E+00
  0.00000000E+00  0.00000000E+00  0.00000000E+00
  0.00000000E+00  0.00000000E+00  0.00000000E+00
  0.00000000E+00  0.00000000E+00  0.00000000E+00
  0.00000000E+00  0.00000000E+00  0.00000000E+00
  0.00000000E+00  0.00000000E+00  0.00000000E+00
  0.00000000E+00  0.00000000E+00  0.00000000E+00
  0.00000000E+00  0.00000000E+00  0.00000000E+00
  0.00000000E+00  0.00000000E+00  0.00000000E+00
  0.00000000E+00  0.00000000E+00  0.00000000E+00
  0.00000000E+00  0.00000000E+00  0.00000000E+00
  0.00000000E+00  0.00000000E+00  0.00000000E+00
  0.00000000E+00  0.00000000E+00  0.00000000E+00
  0.00000000E+00  0.00000000E+00  0.00000000E+00
  0.00000000E+00  0.00000000E+00  0.00000000E+00
  0.00000000E+00  0.00000000E+00  0.00000000E+00
  0.00000000E+00  0.00000000E+00  0.00000000E+00
  0.00000000E+00  0.00000000E+00  0.00000000E+00
  0.00000000E+00  0.00000000E+00  0.00000000E+00
  0.00000000E+00  0.00000000E+00  0.00000000E+00
  0.00000000E+00  0.00000000E+00  0.00000000E+00
  0.00000000E+00  0.00000000E+00  0.00000000E+00
  0.00000000E+00  0.00000000E+00  0.00000000E+00
  0.00000000E+00  0.00000000E+00  0.00000000E+00
  0.00000000E+00  0.00000000E+00  0.00000000E+00
  0.00000000E+00  0.00000000E+00  0.00000000E+00
  0.00000000E+00  0.00000000E+00  0.00000000E+00
  0.00000000E+00  0.00000000E+00  0.00000000E+00
  0.00000000E+00  0.00000000E+00  0.00000000E+00
  0.00000000E+00  0.00000000E+00  0.00000000E+00
  0.00000000E+00  0.00000000E+00  0.00000000E+00
  0.00000000E+00  0.00000000E+00  0.00000000E+00
  0.00000000E+00  0.00000000E+00  0.00000000E+00
  0.00000000E+00  0.00000000E+00  0.00000000E+00
  0.00000000E+00  0.00000000E+00  0.00000000E+00
  0.00000000E+00  0.00000000E+00  0.00000000E+00
  0.00000000E+00  0.00000000E+00  0.00000000E+00
  0.00000000E+00  0.00000000E+00  0.00000000E+00
  0.00000000E+00  0.00000000E+00  0.00000000E+00
  0.00000000E+00  0.00000000E+00  0.00000000E+00
  0.00000000E+00  0.00000000E+00  0.00000000E+00
  0.00000000E+00  0.00000000E+00  0.00000000E+00
  0.00000000E+00  0.00000000E+00  0.00000000E+00
  0.00000000E+00  0.00000000E+00  0.00000000E+00
  0.00000000E+00  0.00000000E+00  0.00000000E+00
  0.00000000E+00  0.00000000E+00  0.00000000E+00
  0.00000000E+00  0.00000000E+00  0.00000000E+00
  0.00000000E+00  0.00000000E+00  0.00000000E+00
  0.00000000E+00  0.00000000E+00  0.00000000E+00
  0.00000000E+00  0.00000000E+00  0.00000000E+00
  0.00000000E+00  0.00000000E+00  0.00000000E+00
  0.00000000E+00  0.00000000E+00  0.00000000E+00
  0.00000000E+00  0.00000000E+00  0.00000000E+00
  0.00000000E+00  0.00000000E+00  0.00000000E+00
