 Al Sb N B 
 1.0
 17.527899999999772   0.000000000000000   0.000000000000000
 -8.763949999999658  15.179606674993195   0.000000000000000
  0.000000000000001   0.000000000000002  15.000000000000000
 Al Sb N B 
   1   1  48  48
Cartesian
  6.006426578587354   6.651939968345539   1.672080863979735 
  4.074048484204630   7.767605248265586   1.683419323416375 
  8.769741435560189  13.786404437779908   1.662780791971950 
 16.239787647245063   0.743706200652040   1.665170122242585 
 14.974199029797132   2.896808360042880   1.665217818755070 
 13.740055611367763   5.064636785431554   1.664141283363975 
 12.524989186117050   7.240591418188939   1.661679664355340 
 11.296098107719445   9.422837171007755   1.662469434931170 
 10.047195132740715  11.612624271712404   1.662701800924215 
 -6.256574105971839  13.731986714658577   1.663879360987500 
  1.209456534155569   0.691606868849837   1.662780791971950 
 -0.083450070180601   2.844505266305841   1.662931333706970 
 -1.330548390359728   5.039139714308803   1.663133317125135 
 -2.539201819921230   7.227796021503516   1.663816959725235 
 -3.745180754577648   9.404052011803971   1.664295994479150 
 -4.989705841717353  11.571260518036521   1.664826931426290 
 -3.751896196947076  13.715209712877781   1.664826931426290 
  3.730732228802258   0.672189597968562   1.662701800924215 
  2.399430237404949   2.769566219777976   1.664258711384100 
  1.093159599252890   4.942711898438350   1.662837861152040 
 -0.089641924545912   7.201533415562998   1.662850379237700 
 -1.250467629013835   9.394757290678120   1.666017985672395 
 -2.494615099851642  11.560018669794868   1.666330463391750 
 -1.252776031681777  13.721023624883779   1.664295994479150 
  6.251594974380465   0.685501445127184   1.662469434931170 
  4.954707298276000   2.797042424154419   1.668868030063035 
  3.526099283092770   4.826234969363993   1.666693616842950 
  2.253803029286092   7.030528954740428   1.677702453699390 
  1.267257262026981   9.388100649008267   1.668388790802285 
  0.002629995716169  11.565186043554265   1.666017985672395 
  1.234906408366581  13.764743226192891   1.663816959725130 
  8.755920772804476   0.712373429159873   1.661679664355340 
  7.515983233835447   2.837186449098487   1.665443091885900 
  6.207012732095969   4.886149457844926   1.678817098860810 
  3.802247124117801   9.712512799698443   1.677702453699390 
  2.482430439969731  11.656493431676282   1.662850379237595 
  3.734665085330913  13.812346805419175   1.663133317125135 
 11.247885974880569   0.748072353986956   1.664141283363975 
 10.016546000768363   2.879748069322761   1.662801795761565 
  8.846123504982117   5.012440183475088   1.664800635218205 
  7.635939095197802   7.361122519010078   1.678817098860810 
  6.347369839767288   9.712818915449507   1.666693616842950 
  5.030028018312654  11.761568022993222   1.662837861152040 
  6.258823429430481  13.829645203128443   1.662931333706970 
 13.742352171545841   0.763187014406584   1.665217818755070 
 12.495191212075857   2.905649960503622   1.665265932637620 
 11.278300302200034   5.065170626038280   1.662801795761565 
 10.064878363072808   7.252002316073973   1.665443091885900 
  8.819006140695883   9.490204354856774   1.668868030063035 
  7.565162701251634  11.716877305466571   1.664258711384100 
  7.511709175506359  14.504685350678072   1.664134296601980 
 14.990088514381164   1.465226598347820   1.665504250605000 
 13.736479491630835   3.625374213788880   1.665335591280495 
 12.512299439413642   5.796461934748069   1.663010022186135 
 11.298435065111232   7.976086774577386   1.662774039261345 
 10.068487783454474  10.177835841706013   1.664568886099395 
  8.814430815083210  12.371631311600165   1.663025970164085 
 -7.509711559580134  14.455492227762180   1.663156991035215 
 -0.041603686172982   1.421963708784293   1.664134296601980 
 -1.313281566215722   3.600125588971087   1.663961928552165 
 -2.551824100245429   5.784778785174579   1.663794989355240 
 -3.764687033621319   7.962568979269824   1.663382799668160 
 -4.984350027220478  10.133036206380691   1.663860411996615 
 -6.231780169545509  12.302394572586003   1.664082743739810 
 -5.006108598351737  14.425320007287686   1.664082743739810 
  2.457036119101256   1.360300694391445   1.663025970164085 
  1.154765344159097   3.520520913300745   1.662751935546135 
 -0.097779512825257   5.748179638911644   1.663001323321080 
 -1.299947149335947   7.949029896335393   1.664381024050110 
 -2.493331858443236  10.119737783328796   1.666119510517860 
 -3.740986735932077  12.279617936327949   1.665671128242990 
 -2.503674072125670  14.429692997689495   1.663860411996615 
  4.983947210941732   1.371153236935114   1.664568886099395 
  3.641790013571307   3.425696381617028   1.668640587605550 
  2.308892163949053   5.627790867286168   1.668803458289940 
  1.159148995368137   7.912034607592215   1.669468393884975 
  0.011414910808329  10.113167835483861   1.667043445860720 
 -1.246683642882063  12.279057193765921   1.666119510517860 
 -0.014162818566369  14.458667474733454   1.663382799668160 
  7.505691476660293   1.406862179269949   1.662774039261345 
  6.236962279573975   3.476005741476354   1.672943970054135 
  4.751841131617404   5.393396044834581   1.651047941815140 
  2.491519245556653  10.219767575413275   1.669468393884975 
  1.229932313341017  12.330909662688210   1.664381024050110 
  2.478290280303522  14.497192460168552   1.663794989355240 
 10.000234145806449   1.445437214288717   1.663010022186135 
  8.777166884815536   3.581667593839772   1.664294666946420 
  7.634451569855024   5.712005568330872   1.669386581392140 
  6.469070291962214   8.367724198823190   1.651047941815140 
  5.044603937368996  10.366182653748027   1.668803458289940 
  3.737008364434979  12.390227078574734   1.663001323321080 
  4.989526713688264  14.516909760132071   1.663961928552165 
 12.492541292110161   1.470810050742753   1.665335591280495 
 11.255364269791773   3.621470646310583   1.663960417663380 
 10.050736031891425   5.787554063527760   1.664294666946420 
  8.872139577621212   8.040266708672819   1.672943970054135 
  7.618122628305520  10.312906498158366   1.668640587605550 
  6.292489840265897  12.419320775851935   1.662751935546135 
