 N As B 
 1.0
 17.527899999999772   0.000000000000000   0.000000000000000
 -8.763949999999658  15.179606674993195   0.000000000000000
  0.000000000000001   0.000000000000002  15.000000000000000
 N As B 
  49   1  48
Cartesian
  8.764786653251448  13.733716313313804   1.580841599496120 
 16.276097369832883   0.722736030054596   1.535257721950320 
 15.023202309450838   2.890788198057616   1.507967100910590 
 13.770953582400320   5.059868891664398   1.507664898548460 
 12.520018529803915   7.228793300511528   1.535565654328815 
 11.268425712359821   9.397892890716861   1.581504177739245 
 10.017060678016424  11.566182016256251   1.615678417210815 
 -6.259739007023594  13.733807140008741   1.594040811312390 
  1.252634122963267   0.722208925814055   1.581205434709005 
 -0.002497834936110   2.886766562173539   1.568989255818720 
 -1.257108816853930   5.059868891664398   1.569470763433620 
 -2.509283374596039   7.228593035722436   1.569060660691140 
 -3.756180511661858   9.398047754478945   1.581419959843875 
 -5.008089313865534  11.566183139064862   1.593638845547580 
 -3.756655978197132  13.733684808835289   1.594247497466595 
  3.755948197322336   0.721462842882557   1.616682401329890 
  2.504350464044730   2.889365961027714   1.677524275840545 
  1.241063546711036   5.044642522850231   1.708907808317295 
 -0.018819190151778   7.226289113004537   1.709663946442350 
 -1.253648052598797   9.398168653516892   1.679619127147410 
 -2.505246692007547  11.566181905888353   1.616811359707305 
 -1.253014198264257  13.733579814786856   1.582159307822760 
  6.259419781605923   0.721925618837625   1.582711816405830 
  5.007851396710135   2.889182446821592   1.679969820122760 
  3.756120060561084   5.050840361593904   1.956969300075375 
  2.387060133584123   7.160899585663769   2.200448504507190 
  1.244273985697832   9.401377315481652   1.957164786777570 
 -0.001917528939543  11.566224371640496   1.679788215713460 
  1.249178153022783  13.738434659087208   1.569355537136265 
  8.763717327648457   0.722568875419057   1.536383307544485 
  7.514720720450178   2.886714269848595   1.572632395742850 
  6.271316674658417   5.044680318707694   1.713691641188655 
  5.124316408422583   7.161276406444409   2.203558777824225 
  3.756017375734416   9.532081230947192   2.200256584164825 
  2.496384199136861  11.582822967117067   1.709587648344930 
  3.753424959761086  13.738352833954526   1.569247951306965 
 11.267444345176568   0.723689489356992   1.507891955266575 
 10.016417002321859   2.890532408839309   1.509984518885415 
  8.763949999999962   5.059868891664398   1.574261308214520 
  7.530690846719417   7.226141434479900   1.712809582567365 
  6.267813232217140   9.401296897314470   1.955939235005295 
  5.015671993517928  11.582540100167304   1.708216159669110 
  6.262684119375578  13.738401281390779   1.568489735968215 
 13.772066487381155   0.723732879778974   1.507830222012360 
 12.520024298785161   2.891315665014645   1.487257160388765 
 11.268908090525454   5.059868891664398   1.509535104099600 
 10.021271725611879   7.228365072265488   1.571651531897760 
  8.765704375358530   9.398109766495741   1.678530175401675 
  7.513785994075395  11.566085362844323   1.676554044315180 
  3.754212952693887   7.952560355192201   3.136918482716580 
  7.514237441392272  14.458348629873569   1.558865596070280 
 15.024169663258784   1.445533283218255   1.513432328708280 
 13.771612606958007   3.614214431886669   1.497534221373630 
 12.520020247904156   5.783255187039648   1.513934697488775 
 11.270548530337596   7.952368194981913   1.560195635477355 
 10.017343001278100  10.119737783328796   1.621674457273515 
  8.765028222209576  12.288058475526567   1.620623950746990 
 -7.511274780604447  14.456363765182211   1.582523330326335 
 -0.000220763925149   1.442906991090800   1.559165142216000 
 -1.253273204914100   3.612128755795796   1.545338621264190 
 -2.506484688904651   5.782640964461999   1.544990864770200 
 -3.758488348078354   7.952598053669085   1.559312046884265 
 -5.007054527872790  10.119737783328796   1.582380028196280 
 -6.259492557129493  12.288880830851491   1.598571104767215 
 -5.008231157181163  14.456047291071613   1.599141943098765 
  2.504758380872730   1.444761234411897   1.621411561822980 
  1.247590595248250   3.604587487498385   1.644726943587960 
 -0.007406807605358   5.778202932977245   1.662495183493890 
 -1.262635899681055   7.952179310583054   1.645905289375920 
 -2.503767076640601  10.119737783328796   1.622402855054100 
 -3.756803883777297  12.288761897583752   1.598898834516615 
 -2.503546916645442  14.456008242091519   1.583350619938290 
  5.008674677252809   1.444458763743245   1.622948694915195 
  3.757101274317360   3.612247487029393   1.769202133483095 
  2.475511401442374   5.751999401786457   1.953785973681375 
  1.210925135267425   7.941593417761106   1.954278760055490 
  0.000000000000152  10.119737783328796   1.770541597236405 
 -1.251901651413130  12.288095049656057   1.622684303362200 
 -0.002387032286238  14.458305955903189   1.559972930384400 
  7.512361734251140   1.442836242409608   1.561258711890105 
  6.264508760215833   3.604634136068032   1.648649937317235 
  5.036775622812851   5.752251756245062   1.956876563046705 
  2.491772013358700  10.160199953413212   1.954202199428730 
  1.245836260205342  12.297002537819857   1.646030401515720 
  2.502812594501945  14.458981464907531   1.545086988541980 
 10.015597749592494   1.445356442824358   1.514519778916680 
  8.765798952178642   3.611977935430659   1.549004745597660 
  7.519794291735216   5.778159725407637   1.667077391485620 
  6.300697691386539   7.941531785127430   1.956164763834120 
  5.020372860695299  10.159825508055338   1.953131659479000 
  3.756168503362090  12.296939334001044   1.662172121244285 
  5.009116149017039  14.458889233458610   1.545070542399780 
 12.519787545116726   1.445953359336921   1.497551367639915 
 11.268437205619648   3.613931162292570   1.498911199475520 
 10.018761378035371   5.782267351280159   1.548489898171290 
  8.774409799872112   7.952078739528628   1.647454534539795 
  7.514139672880252  10.119737783328796   1.767974376329205 
  6.266051825769087  12.296873288539995   1.643926640758380 
