Sb B N                                  
   1.0000000000000000     
     8.7639499999999995  -15.1796066749929999    0.0000000000000000
     8.7639499999999995   15.1796066749929999    0.0000000000000000
     0.0000000000000000    0.0000000000000000   15.0000000000000000
   Sb   B    N 
     1    49    47
Selective dynamics
Direct
  0.5193732930815320  0.4924886582691918  0.1198347528975275   T   T   T
  0.9047561021391837  0.9519011337695180  0.1081379640320581   T   T   T
  0.9035570100426950  0.0937962984040454  0.1107519990308193   T   T   T
  0.9036392158057577  0.2364980807924598  0.1111189242924768   T   T   T
  0.9045170657666997  0.3795992611159675  0.1085041322266544   T   T   T
  0.9073218286164197  0.5234424685918668  0.1049633820341299   T   T   T
  0.9086987480513351  0.6676328106592435  0.1064324679892011   T   T   T
  0.9080195149705450  0.8112452149980708  0.1056095382536796   T   T   T
  0.0478543126647496  0.9521038947700891  0.1090650888662036   T   T   T
  0.0468056857960481  0.0945177490342844  0.1116353909249804   T   T   T
  0.0461703796574946  0.2368961126699917  0.1127662941488296   T   T   T
  0.0463012433581834  0.3796614208681837  0.1131130172442571   T   T   T
  0.0474436348941176  0.5230737679997651  0.1099497525326703   T   T   T
  0.0485782202335607  0.6667335637264044  0.1062980844619101   T   T   T
  0.0489777683278950  0.8098925140054773  0.1064080241729667   T   T   T
  0.1902178115169773  0.9516852323136600  0.1112376516686183   T   T   T
  0.1882270127085895  0.0927802705005970  0.1113738421458241   T   T   T
  0.1892052009833242  0.2375963907564606  0.1088340223233514   T   T   T
  0.1884339749829186  0.3801994875906707  0.1116431597667591   T   T   T
  0.1882381556621650  0.5232100111773293  0.1150391684237019   T   T   T
  0.1887969883780057  0.6665641350074432  0.1132617657215705   T   T   T
  0.1903272240572969  0.8094523578829942  0.1108645528244052   T   T   T
  0.3326737432864684  0.9515978646887695  0.1123762290468168   T   T   T
  0.3320839416120464  0.0931253694335971  0.1100146156641791   T   T   T
  0.3272806734706792  0.2315343404572555  0.1024788291460255   T   T   T
  0.3324401514377076  0.3826278895102556  0.1001438741665265   T   T   T
  0.3292725310425926  0.5245500066405051  0.1093710975076379   T   T   T
  0.3288610505706291  0.6675616866969676  0.1135285814070208   T   T   T
  0.3320633117579235  0.8096688641670211  0.1129325127133475   T   T   T
  0.4752357459880263  0.9511151846368275  0.1112272141965401   T   T   T
  0.4753883577322006  0.0929505089824772  0.1104310669881870   T   T   T
  0.4748658108340933  0.2335919687299703  0.1071107898114231   T   T   T
  0.4634753744510316  0.3616920047216856  0.0999938035398345   T   T   T
  0.4923657113826150  0.5877512156704223  0.0944345838774705   T   T   T
  0.4676944068681098  0.6658996991616243  0.0987970888885806   T   T   T
  0.4741267492394503  0.8086753383926467  0.1087209551522357   T   T   T
  0.6176801039842581  0.9503783712297122  0.1086307151693732   T   T   T
  0.6182622043273723  0.0934872412743366  0.1092396303212097   T   T   T
  0.6186653754331675  0.2363679852549740  0.1091236924333971   T   T   T
  0.6200650203588817  0.3799981415637432  0.1178108213163142   T   T   T
  0.6456912717419563  0.5354636744233813  0.1527059759457940   T   T   T
  0.6301284363968959  0.6691787924398092  0.1371320918383935   T   T   T
  0.6162335368084250  0.8067081649110983  0.1094349578633678   T   T   T
  0.7605906082200847  0.9505827926275255  0.1090474218076800   T   T   T
  0.7607676711138546  0.0934213195683415  0.1092876156348639   T   T   T
  0.7613043518877980  0.2363967364568781  0.1087688470733649   T   T   T
  0.7627173311128106  0.3797444158353213  0.1091133938753932   T   T   T
  0.7693874218213971  0.5245338581777014  0.1184584009230745   T   T   T
  0.7728789650177170  0.6723738423272336  0.1251534969517292   T   T   T
  0.7634292618903760  0.8094439981101714  0.1126707332576308   T   T   T
  0.9531613510921698  0.9052466178702585  0.1063034620095612   T   T   T
  0.9515306170564162  0.0466648947505082  0.1103490389584951   T   T   T
  0.9510481246062445  0.1888667497912741  0.1121354095787481   T   T   T
  0.9513243686017790  0.3316886932661312  0.1111656741772180   T   T   T
  0.9528480203107720  0.4748819001900288  0.1066987000635859   T   T   T
  0.9540357392221498  0.6186955176988299  0.1036538654160832   T   T   T
  0.9542175217573907  0.7624857376139600  0.1044018575310675   T   T   T
  0.0954206554764977  0.9046247375176109  0.1090296276018153   T   T   T
  0.0939429297615821  0.0465058139495775  0.1119275580495261   T   T   T
  0.0943121003382873  0.1899101119877845  0.1120708195254584   T   T   T
  0.0937136715603633  0.3320279725815841  0.1137322526701325   T   T   T
  0.0938367857309835  0.4749019970252547  0.1136102129689534   T   T   T
  0.0945151382916511  0.6183214707837957  0.1096331032462993   T   T   T
  0.0956285750937861  0.7617872565907553  0.1074665654649318   T   T   T
  0.2377910972593043  0.9043666886083481  0.1119034150006017   T   T   T
  0.2371752677328724  0.0465526949195596  0.1117296689472454   T   T   T
  0.2342961506006888  0.1872911639087196  0.1084955524907715   T   T   T
  0.2375219647090552  0.3340569036422501  0.1063767124137272   T   T   T
  0.2352888897080801  0.4751876351550822  0.1136602503609437   T   T   T
  0.2349790336900573  0.6184517809265085  0.1161516218467959   T   T   T
  0.2372264871974769  0.7616637601133220  0.1129094222699435   T   T   T
  0.3802944372094130  0.9043482429077477  0.1125778477081285   T   T   T
  0.3803632838969278  0.0464958949970830  0.1115097833928992   T   T   T
  0.3793315445394978  0.1881724919655615  0.1057863854869679   T   T   T
  0.3725850930236930  0.3257590711321817  0.0946288186565045   T   T   T
  0.3808971593599087  0.4815904372194388  0.1030415267629022   T   T   T
  0.3746746054976202  0.6195962983839970  0.1090462209252031   T   T   T
  0.3792078288245617  0.7620339089377447  0.1120231486396584   T   T   T
  0.5226901642347151  0.9033309799560586  0.1098157642756191   T   T   T
  0.5232152172451701  0.0460079550779352  0.1105162525652499   T   T   T
  0.5233515574768333  0.1880602192761772  0.1091466070118738   T   T   T
  0.5230273154426324  0.3294114329602458  0.1081329418908841   T   T   T
  0.5210915914797420  0.7598065919556370  0.1040333016027531   T   T   T
  0.6648502324291864  0.9015635658262966  0.1084728967766378   T   T   T
  0.6655834545317398  0.0455165062846802  0.1087805849873861   T   T   T
  0.6660566760443047  0.1889544873340487  0.1086224718186628   T   T   T
  0.6666752321729477  0.3324834929663689  0.1111802634907666   T   T   T
  0.6751741764878265  0.4765695018267950  0.1332152278549650   T   T   T
  0.6821870289263187  0.6280776945438863  0.1516495670558022   T   T   T
  0.6652303251508136  0.7587376652935248  0.1188573153609626   T   T   T
  0.8088031894026425  0.9034265000450347  0.1085221001018565   T   T   T
  0.8080960454626124  0.0454966019229539  0.1095321348138463   T   T   T
  0.8084398753621994  0.1886057908145851  0.1096469623458746   T   T   T
  0.8091506695287497  0.3317523098316267  0.1080196591620753   T   T   T
  0.8125753107730912  0.4752722525036087  0.1074088048210140   T   T   T
  0.8144753329324540  0.6200153883171433  0.1159566620598198   T   T   T
  0.8133420184005536  0.7643780840194074  0.1104341010178283   T   T   T

  0.00000000E+00  0.00000000E+00  0.00000000E+00
  0.00000000E+00  0.00000000E+00  0.00000000E+00
  0.00000000E+00  0.00000000E+00  0.00000000E+00
  0.00000000E+00  0.00000000E+00  0.00000000E+00
  0.00000000E+00  0.00000000E+00  0.00000000E+00
  0.00000000E+00  0.00000000E+00  0.00000000E+00
  0.00000000E+00  0.00000000E+00  0.00000000E+00
  0.00000000E+00  0.00000000E+00  0.00000000E+00
  0.00000000E+00  0.00000000E+00  0.00000000E+00
  0.00000000E+00  0.00000000E+00  0.00000000E+00
  0.00000000E+00  0.00000000E+00  0.00000000E+00
  0.00000000E+00  0.00000000E+00  0.00000000E+00
  0.00000000E+00  0.00000000E+00  0.00000000E+00
  0.00000000E+00  0.00000000E+00  0.00000000E+00
  0.00000000E+00  0.00000000E+00  0.00000000E+00
  0.00000000E+00  0.00000000E+00  0.00000000E+00
  0.00000000E+00  0.00000000E+00  0.00000000E+00
  0.00000000E+00  0.00000000E+00  0.00000000E+00
  0.00000000E+00  0.00000000E+00  0.00000000E+00
  0.00000000E+00  0.00000000E+00  0.00000000E+00
  0.00000000E+00  0.00000000E+00  0.00000000E+00
  0.00000000E+00  0.00000000E+00  0.00000000E+00
  0.00000000E+00  0.00000000E+00  0.00000000E+00
  0.00000000E+00  0.00000000E+00  0.00000000E+00
  0.00000000E+00  0.00000000E+00  0.00000000E+00
  0.00000000E+00  0.00000000E+00  0.00000000E+00
  0.00000000E+00  0.00000000E+00  0.00000000E+00
  0.00000000E+00  0.00000000E+00  0.00000000E+00
  0.00000000E+00  0.00000000E+00  0.00000000E+00
  0.00000000E+00  0.00000000E+00  0.00000000E+00
  0.00000000E+00  0.00000000E+00  0.00000000E+00
  0.00000000E+00  0.00000000E+00  0.00000000E+00
  0.00000000E+00  0.00000000E+00  0.00000000E+00
  0.00000000E+00  0.00000000E+00  0.00000000E+00
  0.00000000E+00  0.00000000E+00  0.00000000E+00
  0.00000000E+00  0.00000000E+00  0.00000000E+00
  0.00000000E+00  0.00000000E+00  0.00000000E+00
  0.00000000E+00  0.00000000E+00  0.00000000E+00
  0.00000000E+00  0.00000000E+00  0.00000000E+00
  0.00000000E+00  0.00000000E+00  0.00000000E+00
  0.00000000E+00  0.00000000E+00  0.00000000E+00
  0.00000000E+00  0.00000000E+00  0.00000000E+00
  0.00000000E+00  0.00000000E+00  0.00000000E+00
  0.00000000E+00  0.00000000E+00  0.00000000E+00
  0.00000000E+00  0.00000000E+00  0.00000000E+00
  0.00000000E+00  0.00000000E+00  0.00000000E+00
  0.00000000E+00  0.00000000E+00  0.00000000E+00
  0.00000000E+00  0.00000000E+00  0.00000000E+00
  0.00000000E+00  0.00000000E+00  0.00000000E+00
  0.00000000E+00  0.00000000E+00  0.00000000E+00
  0.00000000E+00  0.00000000E+00  0.00000000E+00
  0.00000000E+00  0.00000000E+00  0.00000000E+00
  0.00000000E+00  0.00000000E+00  0.00000000E+00
  0.00000000E+00  0.00000000E+00  0.00000000E+00
  0.00000000E+00  0.00000000E+00  0.00000000E+00
  0.00000000E+00  0.00000000E+00  0.00000000E+00
  0.00000000E+00  0.00000000E+00  0.00000000E+00
  0.00000000E+00  0.00000000E+00  0.00000000E+00
  0.00000000E+00  0.00000000E+00  0.00000000E+00
  0.00000000E+00  0.00000000E+00  0.00000000E+00
  0.00000000E+00  0.00000000E+00  0.00000000E+00
  0.00000000E+00  0.00000000E+00  0.00000000E+00
  0.00000000E+00  0.00000000E+00  0.00000000E+00
  0.00000000E+00  0.00000000E+00  0.00000000E+00
  0.00000000E+00  0.00000000E+00  0.00000000E+00
  0.00000000E+00  0.00000000E+00  0.00000000E+00
  0.00000000E+00  0.00000000E+00  0.00000000E+00
  0.00000000E+00  0.00000000E+00  0.00000000E+00
  0.00000000E+00  0.00000000E+00  0.00000000E+00
  0.00000000E+00  0.00000000E+00  0.00000000E+00
  0.00000000E+00  0.00000000E+00  0.00000000E+00
  0.00000000E+00  0.00000000E+00  0.00000000E+00
  0.00000000E+00  0.00000000E+00  0.00000000E+00
  0.00000000E+00  0.00000000E+00  0.00000000E+00
  0.00000000E+00  0.00000000E+00  0.00000000E+00
  0.00000000E+00  0.00000000E+00  0.00000000E+00
  0.00000000E+00  0.00000000E+00  0.00000000E+00
  0.00000000E+00  0.00000000E+00  0.00000000E+00
  0.00000000E+00  0.00000000E+00  0.00000000E+00
  0.00000000E+00  0.00000000E+00  0.00000000E+00
  0.00000000E+00  0.00000000E+00  0.00000000E+00
  0.00000000E+00  0.00000000E+00  0.00000000E+00
  0.00000000E+00  0.00000000E+00  0.00000000E+00
  0.00000000E+00  0.00000000E+00  0.00000000E+00
  0.00000000E+00  0.00000000E+00  0.00000000E+00
  0.00000000E+00  0.00000000E+00  0.00000000E+00
  0.00000000E+00  0.00000000E+00  0.00000000E+00
  0.00000000E+00  0.00000000E+00  0.00000000E+00
  0.00000000E+00  0.00000000E+00  0.00000000E+00
  0.00000000E+00  0.00000000E+00  0.00000000E+00
  0.00000000E+00  0.00000000E+00  0.00000000E+00
  0.00000000E+00  0.00000000E+00  0.00000000E+00
  0.00000000E+00  0.00000000E+00  0.00000000E+00
  0.00000000E+00  0.00000000E+00  0.00000000E+00
  0.00000000E+00  0.00000000E+00  0.00000000E+00
  0.00000000E+00  0.00000000E+00  0.00000000E+00
  0.00000000E+00  0.00000000E+00  0.00000000E+00
