 N As B 
 1.0
 17.527899999999772   0.000000000000000   0.000000000000000
 -8.763949999999658  15.179606674993195   0.000000000000000
  0.000000000000001   0.000000000000002  15.000000000000000
 N As B 
  49   1  47
Cartesian
  8.747052896646018  13.735290074759705   1.643775057879750 
 16.270301715829930   0.738360803319600   1.654818116316180 
 15.023970123852250   2.902968983122135   1.664823264737130 
 13.779920424387960   5.064786275931783   1.715268258781320 
 12.529247201412106   7.227203480751853   1.766754678378960 
 11.252499846379576   9.389741975625487   1.683161123645985 
  9.989426043028121  11.550805545676466   1.648438770763230 
 -6.282736024802881  13.728338584713542   1.666683170689305 
  1.239609713718802   0.723771091093087   1.646069199187170 
 -0.007448252330665   2.893030664629782   1.624481496145575 
 -1.253494372188138   5.066338065934290   1.627311309665940 
 -2.508443079661759   7.234993053935814   1.664038295017440 
 -3.771481088090686   9.400924388523926   1.690077811314270 
 -5.032518356154932  11.563812753558874   1.675772851046985 
 -3.779435937857297  13.733353150697546   1.663842703991175 
  3.740234322131975   0.718630541927994   1.642356372624870 
  2.499046903084045   2.889052099313929   1.611649162702455 
  1.241798824845727   5.043674862320273   1.629387418006290 
 -0.014140650945251   7.234047119119955   1.630377149219655 
 -1.268439278611412   9.406539895244457   1.654609058611920 
 -2.527951239896991  11.571112139025042   1.665657844775070 
 -1.274693496349739  13.740315434512501   1.657351832528790 
  6.245318986368508   0.718736687388164   1.636813978334070 
  5.007219260753809   2.880877928035861   1.600574939704560 
  3.778066226170237   5.050221409143912   1.740820341588105 
  2.428694258098069   7.169221536914320   1.808433781265805 
  1.236220016115747   9.413769225762110   1.699282450004370 
 -0.024377132368281  11.581064223875018   1.645136117817990 
  1.227886369925915  13.763027788070870   1.643204530726485 
  8.752878634205688   0.726263369101869   1.682452490232135 
  7.521788089302409   2.871747533387352   1.614948990808065 
  6.307446618652596   5.021911559758962   1.507431908162865 
  5.304381722957684   6.891156342514288   2.750001252635205 
  3.741890931822136   9.608194090582575   1.694172843648810 
  2.468479707097090  11.629393144494431   1.583880687987120 
  3.736729765383184  13.783828248088920   1.614579153338070 
 11.257695459386959   0.740575054861780   1.691607118623750 
 10.026613296805824   2.880836013162254   1.760564278403925 
  8.805282061156486   5.018385237295488   1.725387993157560 
  7.719627995630488   7.078683581790108   1.022409758472495 
  6.181554953217629   9.464011707720697   1.590931212746610 
  4.991675631092057  11.675087444961866   1.523449553347380 
  6.256297622664173  13.771410360507273   1.617194697322605 
 13.768229808330732   0.745132347632794   1.667581451490075 
 12.526358100343662   2.897218802174405   1.732118646640845 
 11.290769698668115   5.049070114693134   1.807886222345700 
 10.048932069892230   7.206188736633852   1.728269569107930 
  8.746827486312803   9.352836862462560   1.512692532709155 
  7.490598849073431  11.562304921913055   1.573467619952550 
  4.041096090959055   7.929929782767514   2.112664788123120 
  7.506527395635738  14.472378862810865   1.641436491671265 
 15.021054850775407   1.459808562925311   1.663338860730660 
 13.773026010345326   3.622934609826003   1.704602024824365 
 12.526001258478754   5.784014486953665   1.769202923492535 
 11.264785700424374   7.941230615429896   1.742075795761605 
  9.971912270847392  10.087623788760650   1.619991273800295 
  8.735127095428677  12.273623509313124   1.619393666527680 
 -7.532419736163786  14.452821959461412   1.655480326618365 
 -0.007581029716373   1.449961873601308   1.642133059816110 
 -1.254210002221081   3.621247485285637   1.637674377654930 
 -2.504842197995426   5.789956103532770   1.666650748833390 
 -3.764154765836722   7.955123003617822   1.708170451506420 
 -5.036892345591500  10.115332421621682   1.686034746396315 
 -6.294690184048585  12.275353353878980   1.668296701175685 
 -5.033036001028753  14.452552514672750   1.660030721175360 
  2.492723421494934   1.444539275846142   1.631263439457660 
  1.245731483275073   3.604466068069489   1.617399943132830 
 -0.002265309211119   5.784116418703690   1.624643998769385 
 -1.265038238965930   7.959696689714131   1.643375345818515 
 -2.526443569422527  10.125639522117542   1.668582638325510 
 -3.785668338200022  12.288135031142826   1.670444770543350 
 -2.527808010452175  14.458606688404366   1.654490229571875 
  4.995519631027981   1.443186394797636   1.625967298181565 
  3.758150603778506   3.610429995088809   1.631806138598010 
  2.500845768621665   5.739432204544807   1.732082343073215 
  1.231149613668527   7.958170643595405   1.708613560707990 
 -0.019612876666398  10.133478913058001   1.662876947035440 
 -1.278514515088615  12.297103916516715   1.655875569120630 
 -0.023752493536550  14.471126666278971   1.662782926100355 
  7.502292390479184   1.443449703823139   1.645605608227155 
  6.277081203490090   3.600007984893461   1.555961634889275 
  5.116386945402868   5.687344793635461   1.924753971303285 
  2.457660280948017  10.195638826233049   1.661451619299075 
  1.219796784624545  12.325794219563942   1.620909586796085 
  2.485258625984830  14.485768341365596   1.649244874225575 
 10.008056320524748   1.450847409364457   1.712648089045065 
  8.775992982935822   3.601951789852686   1.715234612008080 
  7.594011172121442   5.785969682941658   1.405905446717910 
  5.027032290800701  10.243061486691913   1.586876989634190 
  3.735776382825565  12.349001728456233   1.569393881197365 
  5.002732580574373  14.483338154850662   1.632312359704545 
 12.516010840533262   1.459116809300019   1.697441643969720 
 11.273241469378183   3.613075062185414   1.773377390582910 
 10.034337581068881   5.767911082832544   1.763516820270180 
  8.763854003336252   7.866912024214130   1.405107846305565 
  7.471202536215970  10.057408325666032   1.557758500829040 
  6.265201723198946  12.323894037204399   1.567155646677870 
