B N O                                   
   1.0000000000000000     
     8.7639499999999995  -15.1796066749929999    0.0000000000000000
     8.7639499999999995   15.1796066749929999    0.0000000000000000
     0.0000000000000000    0.0000000000000000   15.0000000000000000
   B    N    O 
    49    48     1
Selective dynamics
Direct
  0.9048545226253122  0.9524132390981767  0.1110210044825557   T   T   T
  0.9047731368612498  0.0952288843347465  0.1110358068088983   T   T   T
  0.9047731368612498  0.2381155588524952  0.1110358068088983   T   T   T
  0.9048545226253122  0.3810143014091373  0.1110210044825557   T   T   T
  0.9049867861493763  0.5239263766841208  0.1110328177255326   T   T   T
  0.9051790869230295  0.6668760524030131  0.1110425994849046   T   T   T
  0.9049867861493763  0.8096334273482590  0.1110328177255326   T   T   T
  0.0476579707212416  0.9523440504747618  0.1110226827891174   T   T   T
  0.0475887820978268  0.0951474985706841  0.1110210044825557   T   T   T
  0.0475722245828557  0.2380726212324287  0.1110257281324964   T   T   T
  0.0475887820978268  0.3810143014091373  0.1110210044825557   T   T   T
  0.0476579707212416  0.5238886496854790  0.1110226827891174   T   T   T
  0.0477728004203012  0.6667606004815969  0.1110287514606379   T   T   T
  0.0477728004203012  0.8095869293777035  0.1110287514606379   T   T   T
  0.1904150918182999  0.9522292207757023  0.1110287514606379   T   T   T
  0.1903685938477443  0.0950152350466200  0.1110328177255326   T   T   T
  0.1902523839580397  0.2378596246626399  0.1110180927676180   T   T   T
  0.1902523839580397  0.3809657771774015  0.1110180927676180   T   T   T
  0.1903685938477443  0.5239263766841208  0.1110328177255326   T   T   T
  0.1904150918182999  0.6667606004815969  0.1110287514606379   T   T   T
  0.1904764376510002  0.8095255835450033  0.1110167600709276   T   T   T
  0.3332414207154013  0.9522292207757023  0.1110287514606379   T   T   T
  0.3331259687939852  0.0948229342729668  0.1110425994849046   T   T   T
  0.3330113250041474  0.2374189781480812  0.1110353567265247   T   T   T
  0.3326061452642267  0.3805895815726132  0.1110262111403587   T   T   T
  0.3330113250041474  0.5241653647380679  0.1110353567265247   T   T   T
  0.3331259687939852  0.6668760524030131  0.1110425994849046   T   T   T
  0.3332414207154013  0.8095869293777035  0.1110287514606379   T   T   T
  0.4761133715115192  0.9523440504747618  0.1110226827891174   T   T   T
  0.4760756445128774  0.0950152350466200  0.1110328177255326   T   T   T
  0.4758366564589303  0.2374189781480812  0.1110353567265247   T   T   T
  0.4746503436010134  0.3778716838870232  0.1110287375035650   T   T   T
  0.4746503436010134  0.5253516775959848  0.1110287375035650   T   T   T
  0.4758366564589303  0.6669906961928508  0.1110353567265247   T   T   T
  0.4760756445128774  0.8096334273482590  0.1110328177255326   T   T   T
  0.6189877197868662  0.9524132390981767  0.1110210044825557   T   T   T
  0.6189877197868662  0.0951474985706841  0.1110210044825557   T   T   T
  0.6190362440186019  0.2378596246626399  0.1110180927676180   T   T   T
  0.6194124396233902  0.3805895815726132  0.1110262111403587   T   T   T
  0.6221303373089803  0.5253516775959848  0.1110287375035650   T   T   T
  0.6194124396233902  0.6673958759327716  0.1110262111403587   T   T   T
  0.6190362440186019  0.8097496372379638  0.1110180927676180   T   T   T
  0.7619293999635747  0.9524297966131477  0.1110257281324964   T   T   T
  0.7618864623435083  0.0952288843347465  0.1110358068088983   T   T   T
  0.7619293999635747  0.2380726212324287  0.1110257281324964   T   T   T
  0.7621423965333636  0.3809657771774015  0.1110180927676180   T   T   T
  0.7625830430479222  0.5241653647380679  0.1110353567265247   T   T   T
  0.7625830430479222  0.6669906961928508  0.1110353567265247   T   T   T
  0.7621423965333636  0.8097496372379638  0.1110180927676180   T   T   T
  0.9523002559402741  0.9046237851273551  0.1110086886846172   T   T   T
  0.9524221854681614  0.0475792164498443  0.1110104901870539   T   T   T
  0.9524683837635267  0.1905189892582634  0.1110142110486536   T   T   T
  0.9524221854681614  0.3334125637713172  0.1110104901870539   T   T   T
  0.9523002559402741  0.4762477771219148  0.1110086886846172   T   T   T
  0.9522507011305873  0.6190224951573388  0.1110158295959074   T   T   T
  0.9522507011305873  0.7617995122832462  0.1110158295959074   T   T   T
  0.0952389503236009  0.9047624515943977  0.1110103373774445   T   T   T
  0.0953776167906435  0.0477011459777316  0.1110086886846172   T   T   T
  0.0954863039970941  0.1905962868281890  0.1110081555864430   T   T   T
  0.0954863039970941  0.3334613234779080  0.1110081555864430   T   T   T
  0.0953776167906435  0.4762477771219148  0.1110086886846172   T   T   T
  0.0952389503236009  0.6190495165952106  0.1110103373774445   T   T   T
  0.0952091775232009  0.7618910976946042  0.1110079429328465   T   T   T
  0.2381103042234015  0.9047922243947977  0.1110079429328465   T   T   T
  0.2382018896347596  0.0477507007874184  0.1110158295959074   T   T   T
  0.2384839353844621  0.1907975867977565  0.1110132100783335   T   T   T
  0.2385131792164001  0.3335422427626943  0.1110059972152566   T   T   T
  0.2384839353844621  0.4762576548957014  0.1110132100783335   T   T   T
  0.2382018896347596  0.6190224951573388  0.1110158295959074   T   T   T
  0.2381103042234015  0.7618910976946042  0.1110079429328465   T   T   T
  0.3809518853227880  0.9047624515943977  0.1110103373774445   T   T   T
  0.3809789067606598  0.0477507007874184  0.1110158295959074   T   T   T
  0.3810965234799151  0.1907629513518222  0.1110170790909838   T   T   T
  0.3817027876959405  0.3341866251733284  0.1110100724855917   T   T   T
  0.3817027876959405  0.4760874688316079  0.1110100724855917   T   T   T
  0.3810965234799151  0.6189048784380834  0.1110170790909838   T   T   T
  0.3809789067606598  0.7617995122832462  0.1110158295959074   T   T   T
  0.5237536247950819  0.9046237851273551  0.1110086886846172   T   T   T
  0.5237536247950819  0.0477011459777316  0.1110086886846172   T   T   T
  0.5237437470212953  0.1907975867977565  0.1110132100783335   T   T   T
  0.5239139330853888  0.3341866251733284  0.1110100724855917   T   T   T
  0.5239139330853888  0.6182986142220580  0.1110100724855917   T   T   T
  0.5237437470212953  0.7615174665335436  0.1110132100783335   T   T   T
  0.6665400784390887  0.9045150979209045  0.1110081555864430   T   T   T
  0.6665888381456795  0.0475792164498443  0.1110104901870539   T   T   T
  0.6665400784390887  0.1905962868281890  0.1110081555864430   T   T   T
  0.6664591591543023  0.3335422427626943  0.1110059972152566   T   T   T
  0.6658147767436683  0.4760874688316079  0.1110100724855917   T   T   T
  0.6658147767436683  0.6182986142220580  0.1110100724855917   T   T   T
  0.6664591591543023  0.7614882227016057  0.1110059972152566   T   T   T
  0.8094051150898096  0.9045150979209045  0.1110081555864430   T   T   T
  0.8094824126597351  0.0475330181544790  0.1110142110486536   T   T   T
  0.8094824126597351  0.1905189892582634  0.1110142110486536   T   T   T
  0.8094051150898096  0.3334613234779080  0.1110081555864430   T   T   T
  0.8092038151202421  0.4762576548957014  0.1110132100783335   T   T   T
  0.8092384505661764  0.6189048784380834  0.1110170790909838   T   T   T
  0.8092038151202421  0.7615174665335436  0.1110132100783335   T   T   T
  0.5238104991749992  0.4761909027419975  0.1110478912318254   T   T   T

  0.00000000E+00  0.00000000E+00  0.00000000E+00
  0.00000000E+00  0.00000000E+00  0.00000000E+00
  0.00000000E+00  0.00000000E+00  0.00000000E+00
  0.00000000E+00  0.00000000E+00  0.00000000E+00
  0.00000000E+00  0.00000000E+00  0.00000000E+00
  0.00000000E+00  0.00000000E+00  0.00000000E+00
  0.00000000E+00  0.00000000E+00  0.00000000E+00
  0.00000000E+00  0.00000000E+00  0.00000000E+00
  0.00000000E+00  0.00000000E+00  0.00000000E+00
  0.00000000E+00  0.00000000E+00  0.00000000E+00
  0.00000000E+00  0.00000000E+00  0.00000000E+00
  0.00000000E+00  0.00000000E+00  0.00000000E+00
  0.00000000E+00  0.00000000E+00  0.00000000E+00
  0.00000000E+00  0.00000000E+00  0.00000000E+00
  0.00000000E+00  0.00000000E+00  0.00000000E+00
  0.00000000E+00  0.00000000E+00  0.00000000E+00
  0.00000000E+00  0.00000000E+00  0.00000000E+00
  0.00000000E+00  0.00000000E+00  0.00000000E+00
  0.00000000E+00  0.00000000E+00  0.00000000E+00
  0.00000000E+00  0.00000000E+00  0.00000000E+00
  0.00000000E+00  0.00000000E+00  0.00000000E+00
  0.00000000E+00  0.00000000E+00  0.00000000E+00
  0.00000000E+00  0.00000000E+00  0.00000000E+00
  0.00000000E+00  0.00000000E+00  0.00000000E+00
  0.00000000E+00  0.00000000E+00  0.00000000E+00
  0.00000000E+00  0.00000000E+00  0.00000000E+00
  0.00000000E+00  0.00000000E+00  0.00000000E+00
  0.00000000E+00  0.00000000E+00  0.00000000E+00
  0.00000000E+00  0.00000000E+00  0.00000000E+00
  0.00000000E+00  0.00000000E+00  0.00000000E+00
  0.00000000E+00  0.00000000E+00  0.00000000E+00
  0.00000000E+00  0.00000000E+00  0.00000000E+00
  0.00000000E+00  0.00000000E+00  0.00000000E+00
  0.00000000E+00  0.00000000E+00  0.00000000E+00
  0.00000000E+00  0.00000000E+00  0.00000000E+00
  0.00000000E+00  0.00000000E+00  0.00000000E+00
  0.00000000E+00  0.00000000E+00  0.00000000E+00
  0.00000000E+00  0.00000000E+00  0.00000000E+00
  0.00000000E+00  0.00000000E+00  0.00000000E+00
  0.00000000E+00  0.00000000E+00  0.00000000E+00
  0.00000000E+00  0.00000000E+00  0.00000000E+00
  0.00000000E+00  0.00000000E+00  0.00000000E+00
  0.00000000E+00  0.00000000E+00  0.00000000E+00
  0.00000000E+00  0.00000000E+00  0.00000000E+00
  0.00000000E+00  0.00000000E+00  0.00000000E+00
  0.00000000E+00  0.00000000E+00  0.00000000E+00
  0.00000000E+00  0.00000000E+00  0.00000000E+00
  0.00000000E+00  0.00000000E+00  0.00000000E+00
  0.00000000E+00  0.00000000E+00  0.00000000E+00
  0.00000000E+00  0.00000000E+00  0.00000000E+00
  0.00000000E+00  0.00000000E+00  0.00000000E+00
  0.00000000E+00  0.00000000E+00  0.00000000E+00
  0.00000000E+00  0.00000000E+00  0.00000000E+00
  0.00000000E+00  0.00000000E+00  0.00000000E+00
  0.00000000E+00  0.00000000E+00  0.00000000E+00
  0.00000000E+00  0.00000000E+00  0.00000000E+00
  0.00000000E+00  0.00000000E+00  0.00000000E+00
  0.00000000E+00  0.00000000E+00  0.00000000E+00
  0.00000000E+00  0.00000000E+00  0.00000000E+00
  0.00000000E+00  0.00000000E+00  0.00000000E+00
  0.00000000E+00  0.00000000E+00  0.00000000E+00
  0.00000000E+00  0.00000000E+00  0.00000000E+00
  0.00000000E+00  0.00000000E+00  0.00000000E+00
  0.00000000E+00  0.00000000E+00  0.00000000E+00
  0.00000000E+00  0.00000000E+00  0.00000000E+00
  0.00000000E+00  0.00000000E+00  0.00000000E+00
  0.00000000E+00  0.00000000E+00  0.00000000E+00
  0.00000000E+00  0.00000000E+00  0.00000000E+00
  0.00000000E+00  0.00000000E+00  0.00000000E+00
  0.00000000E+00  0.00000000E+00  0.00000000E+00
  0.00000000E+00  0.00000000E+00  0.00000000E+00
  0.00000000E+00  0.00000000E+00  0.00000000E+00
  0.00000000E+00  0.00000000E+00  0.00000000E+00
  0.00000000E+00  0.00000000E+00  0.00000000E+00
  0.00000000E+00  0.00000000E+00  0.00000000E+00
  0.00000000E+00  0.00000000E+00  0.00000000E+00
  0.00000000E+00  0.00000000E+00  0.00000000E+00
  0.00000000E+00  0.00000000E+00  0.00000000E+00
  0.00000000E+00  0.00000000E+00  0.00000000E+00
  0.00000000E+00  0.00000000E+00  0.00000000E+00
  0.00000000E+00  0.00000000E+00  0.00000000E+00
  0.00000000E+00  0.00000000E+00  0.00000000E+00
  0.00000000E+00  0.00000000E+00  0.00000000E+00
  0.00000000E+00  0.00000000E+00  0.00000000E+00
  0.00000000E+00  0.00000000E+00  0.00000000E+00
  0.00000000E+00  0.00000000E+00  0.00000000E+00
  0.00000000E+00  0.00000000E+00  0.00000000E+00
  0.00000000E+00  0.00000000E+00  0.00000000E+00
  0.00000000E+00  0.00000000E+00  0.00000000E+00
  0.00000000E+00  0.00000000E+00  0.00000000E+00
  0.00000000E+00  0.00000000E+00  0.00000000E+00
  0.00000000E+00  0.00000000E+00  0.00000000E+00
  0.00000000E+00  0.00000000E+00  0.00000000E+00
  0.00000000E+00  0.00000000E+00  0.00000000E+00
  0.00000000E+00  0.00000000E+00  0.00000000E+00
  0.00000000E+00  0.00000000E+00  0.00000000E+00
  0.00000000E+00  0.00000000E+00  0.00000000E+00
  0.00000000E+00  0.00000000E+00  0.00000000E+00
