 B O N 
 1.0
 17.527899999999772   0.000000000000000   0.000000000000000
 -8.763949999999658  15.179606674993195   0.000000000000000
  0.000000000000001   0.000000000000002  15.000000000000000
 B O N 
  49   1  48
Cartesian
  7.513297580329857  14.457258361566577   1.665315067238340 
 15.024191884724633   1.445537008299866   1.665537102133470 
 13.771940213584855   3.614500526577068   1.665537102133470 
 12.521009300289522   5.783647232938005   1.665315067238340 
 11.270853320006818   7.952996324719282   1.665492265882995 
 10.021420138220812  10.122916176449888   1.665638992273575 
  8.766931013338942  12.289916978073251   1.665492265882995 
 -7.510951496153119  14.456208105476755   1.665340241836755 
  0.000263493633978   1.444301604412461   1.665315067238340 
 -1.252615353584034   3.613848750392906   1.665385921987440 
 -2.505058873101985   5.783647232938005   1.665315067238340 
 -3.755989786406027   7.952423643718869   1.665340241836755 
 -5.005276464846123  10.119737783328796   1.665431271909570 
 -6.257822501232461  12.289211157169026   1.665431271909570 
 -5.007712591534952  14.454465035810415   1.665431271909570 
  2.504052906917035   1.442293896139721   1.665492265882995 
  1.250134903216023   3.610615546240386   1.665271391514270 
 -0.004040262115667   5.782910654186046   1.665271391514270 
 -1.254902892836795   7.952996324719282   1.665492265882995 
 -2.505056645451168  10.119737783328796   1.665431271909570 
 -3.755989786406033  12.288279951557490   1.665251401063920 
 -2.502655946083632  14.454465035810415   1.665431271909570 
  5.007975213602476   1.439374846032371   1.665638992273575 
  3.756261149999319   3.603926705466674   1.665530350897875 
  2.494419190153597   5.777200152872504   1.665393167105385 
  1.243230155244100   7.956624069378219   1.665530350897875 
 -0.005469711033144  10.122916176449888   1.665638992273575 
 -1.252546036386187  12.289211157169026   1.665431271909570 
 -0.001028076641321  14.456208105476755   1.665340241836755 
  7.511897520270354   1.442293896139721   1.665492265882995 
  6.259689277205576   3.603926705466674   1.665530350897875 
  5.007975213602542   5.735943535022374   1.665431062553475 
  3.715467922736934   7.974631831954887   1.665431062553475 
  2.494944218847261  10.124656424087359   1.665530350897875 
  1.249019413848648  12.289916978073251   1.665492265882995 
  2.502652846857924  14.457258361566577   1.665315067238340 
 10.015686933553553   1.444301604412461   1.665315067238340 
  8.765815523971451   3.610615546240386   1.665271391514270 
  7.521531237051505   5.777200152872504   1.665393167105385 
  6.300482504450775   7.974631831954887   1.665431062553475 
  5.007975213593887  10.130806893172037   1.665393167105385 
  3.753800048262135  12.291680998490717   1.665271391514270 
  5.007975213593900  14.457509698131352   1.665385921987440 
 12.519688542445135   1.445537008299866   1.665537102133470 
 11.268565780771507   3.613848750392906   1.665385921987440 
 10.019990689303224   5.782910654186046   1.665271391514270 
  8.772720271943488   7.956624069378219   1.665530350897875 
  7.521006208340390  10.124656424087359   1.665530350897875 
  6.262150378925599  12.291680998490717   1.665271391514270 
  5.007984786403784   7.228390605833453   1.665718368477375 
  8.763746034428738  13.731833247076807   1.665130330269255 
 16.276978950661569   0.722233791612998   1.665157352805810 
 15.025071687858620   2.892003321057686   1.665213165729810 
 13.772644158000610   5.059868891664398   1.665157352805810 
 12.518011949787869   7.229253936550493   1.665130330269255 
 11.265872867912647   9.396517999461286   1.665237443938605 
 10.014582228672102  11.563816961661322   1.665237443938605 
 -6.259954090273391  13.733938149505532   1.665155060661675 
  1.253718871053161   0.724084633888406   1.665130330269255 
  0.003298059882800   2.893176667766095   1.665122333796645 
 -1.247642278835911   5.059868891664398   1.665122333796645 
 -2.502042376962755   7.229253936550493   1.665130330269255 
 -3.755980213587364   9.396928174259976   1.665155060661675 
 -5.008358542931471  11.565207192182903   1.665119143992705 
 -3.755980213587185  13.734390088905217   1.665119143992705 
  3.756694147163180   0.724836856408293   1.665237443938605 
  2.507982060209129   2.896232322127811   1.665198151174995 
  1.257487615527085   5.063040054632791   1.665089958228855 
  0.006224296402241   7.229403877271388   1.665198151174995 
 -1.249903295104894   9.396517999461286   1.665237443938605 
 -2.503601884243068  11.565207192182903   1.665119143992705 
 -1.252006336901207  13.733938149505532   1.665155060661675 
  6.259275425644209   0.724836856408293   1.665237443938605 
  5.007984786403780   2.895706569681519   1.665256186364760 
  3.761653418767924   5.072821526174498   1.665151087283880 
  2.518041519988989   7.226820519756892   1.665151087283880 
  1.255770344516289   9.394732623924575   1.665256186364760 
  0.001387344135591  11.563816961661322   1.665237443938605 
  1.252223538379025  13.731833247076807   1.665130330269255 
  8.762250701754070   0.724084633888406   1.665130330269255 
  7.507987512598308   2.896232322127811   1.665198151174995 
  6.254316154039598   5.072821526174498   1.665151087283880 
  3.764372887616077   9.385529771584194   1.665151087283880 
  2.506227022588043  11.559535618116492   1.665198151174995 
  3.758141574242917  13.730183418032277   1.665122333796645 
 11.268284792660920   0.722233791612998   1.665157352805810 
 10.014890338718672   2.893176667766095   1.665122333796645 
  8.758481957280539   5.063040054632791   1.665089958228855 
  7.497928052818576   7.226820519756892   1.665151087283880 
  6.251596685173991   9.385529771584194   1.665151087283880 
  5.007984786395058  11.559091708250003   1.665089958228855 
  6.260046824358897  13.730183418032277   1.665122333796645 
 13.771949786403454   0.721532519660302   1.665213165729810 
 12.518827884948495   2.892003321057686   1.665213165729810 
 11.265855250115942   5.059868891664398   1.665122333796645 
 10.009745276422887   7.229403877271388   1.665198151174995 
  8.760199228291466   9.394732623924575   1.665256186364760 
  7.509742550219511  11.559535618116492   1.665198151174995 
