 N B P 
 1.0
 14.936314146199660   0.000000000000000   0.000000000000000
 -7.468157073099825  12.935227489513863   0.000000000000000
  0.000000000000001   0.000000000000001  13.341276283792837
 N B P 
 143 144   1
Cartesian
  1.244476428148261   0.718576969939887   1.667311915774822 
  4.978771382066760   7.187512315152950   1.649599287604787 
  6.223494536701282   0.718747327961113   1.668642200138089 
  9.957450896533363   7.186149456436881   1.668642200138089 
 11.202306028532048   0.718664405778157   1.666424596436834 
 -3.734174154265774   9.342053537512079   8.338131315157309 
  1.244815022233988   9.342073201620876   8.337315012706792 
  2.488982715961709   2.874315157181424   8.339986511946522 
  6.223418486478234   9.342547649320210   8.339986511946522 
  7.468560048171645   2.874315157181424   8.339986511946522 
 12.446928455166059   2.874413684948331   8.339532616408194 
 -1.244597227800408   9.342053537512079   1.667825897687612 
 -0.000305919148790   2.874318375166909   1.666664907767644 
  4.978771382066661   2.874677976931930   1.666716030598324 
  3.734124277654257   9.342547649320210   1.665970700897718 
  8.712727741899085   9.342073201620876   1.668642200138089 
  9.957848683281711   2.874318375166909   1.666664907767644 
 -4.978863591257610  11.498033227679780   8.338062847241945 
  0.000092209191999  11.498033227679780   8.338062847241945 
  1.244335611549371   5.030107179517094   8.339986511946522 
  6.224568254936146   5.029728835432734   8.356357925239040 
  4.978771382066084  11.498333235685362   8.339292305077144 
 11.202384330550386   5.030202212722163   8.338645297069645 
 -1.244841566416854   5.030202212722162   1.667311915774822 
 -2.489385691033240  11.498090400506943   1.667825897687612 
  2.489453387501510  11.498190803356316   1.667311915774822 
  3.732974509197208   5.029728835432733   1.649599287604787 
  7.468089376632356  11.498190803356316   1.667311915774822 
  8.713207152583282   5.030107179517093   1.665970700897718 
  0.000091867598693   7.186149456436882   8.337315012706792 
  1.244476428148262   0.718576969939888   8.338645297069645 
  4.978771382066761   7.187512315152951   8.356357925239040 
  6.223494536701283   0.718747327961114   8.337315012706792 
  9.957450896533363   7.186149456436882   8.337315012706792 
 -2.489385691033234   7.186131020171246   1.667894365602456 
 11.202306028532048   0.718664405778157   8.339532616408194 
  3.734048227431710   0.718747327961113   1.668642200138089 
  2.489544155722684   7.186146004543482   1.666716030598324 
  7.467998608410030   7.186146004543482   1.666716030598324 
  8.713066335984657   0.718576969939887   1.667311915774822 
  2.489544155722685   7.186146004543483   8.339241182246065 
 13.691550881800291   0.718664405778157   1.666424596436834 
 -1.244597227800407   9.342053537512079   8.338131315157309 
 -0.000305919148789   2.874318375166910   8.339292305077144 
  4.978771382066662   2.874677976931931   8.339241182246065 
  3.734124277654258   9.342547649320210   8.339986511946522 
  8.712727741899085   9.342073201620876   8.337315012706792 
  9.957848683281711   2.874318375166910   8.339292305077144 
 -3.734174154265774   9.342053537512079   1.667825897687612 
  1.244815022233988   9.342073201620876   1.668642200138089 
  2.488982715961709   2.874315157181424   1.665970700897718 
  6.223418486478233   9.342547649320210   1.665970700897718 
  7.468560048171644   2.874315157181424   1.665970700897718 
 12.446928455166059   2.874413684948330   1.666424596436834 
 -1.244841566416853   5.030202212722163   8.338645297069645 
 -2.489385691033239  11.498090400506943   8.338131315157309 
  2.489453387501511  11.498190803356316   8.338645297069645 
  3.732974509197208   5.029728835432734   8.356357925239040 
  7.468089376632356  11.498190803356316   8.338645297069645 
 -4.978863591257610  11.498033227679780   1.667894365602456 
  8.713207152583282   5.030107179517094   8.339986511946522 
  0.000092209191998  11.498033227679780   1.667894365602456 
  1.244335611549370   5.030107179517093   1.665970700897718 
  0.000091867598693   7.186149456436881   1.668642200138089 
  6.224568254936145   5.029728835432733   1.649599287604787 
  4.978771382066083  11.498333235685362   1.666664907767644 
 11.202384330550386   5.030202212722162   1.667311915774822 
 -2.489385691033233   7.186131020171246   8.338062847241945 
  3.734048227431710   0.718747327961114   8.337315012706792 
  7.467998608410031   7.186146004543483   8.339241182246065 
  8.713066335984657   0.718576969939888   8.338645297069645 
 13.691550881800291   0.718664405778157   8.339532616408194 
 -0.008933356404903   1.429623771352977   5.002978606422314 
  3.676341299196745   8.005583341792006   5.002978606422314 
  4.978771382066482   1.410162286911081   5.002978606422314 
  8.736306400209406   7.918403849553624   5.002978606422314 
  9.966476120537164   1.429623771352977   5.002978606422314 
 -4.978754447110407  10.060717378255028  11.673616748318732 
 -0.000016934956205  10.060717378255028  11.673616748318732 
  1.244730486059569   3.593140478865051  11.673616748318732 
  4.978771382066718  10.060689028288422  11.673616748318732 
  6.223404928266867   3.593083591389265  11.673616748318732 
 11.202254199433524   3.593178089167110  11.673616748318732 
 -2.489385691033300  10.060732491844131   5.002978606422314 
 -1.255761865390021   3.589194097240564   5.002978606422314 
  3.675719259462565   3.492755783695068   5.002978606422314 
  2.461793549679789  10.100166555378843   5.002978606422314 
  7.495749214452942  10.100166555378843   5.002978606422314 
  8.744686214397053   3.574738053148369   5.002978606422314 
 -6.223415090359657  12.216575370706964  11.673616748318732 
 -1.244714401746934  12.216596630788860  11.673616748318732 
 -0.000018197015284   5.749026018916386  11.673616748318732 
  4.978771382066590   5.748989995339477  11.673616748318732 
  3.734017849909128  12.216590168281801  11.673616748318732 
  9.957560961147774   5.749026018916386  11.673616748318732 
 -2.489385691033219   5.752835229106606   5.002978606422314 
 -3.732577687405343  12.205659632114918   5.002978606422314 
  1.241362775390857  12.214681123212838   5.002978606422314 
  2.373289176592766   5.748630860531718   5.002978606422314 
  6.225599891051457  12.228152117425251   5.002978606422314 
  7.584253587540156   5.748630860531718   5.002978606422314 
 -1.244688224242384   7.904883466488189  11.673616748318732 
  0.000042096856651   1.437201728570092  11.673616748318732 
  3.734018441164324   7.904827466726306  11.673616748318732 
  4.978771382066744   1.437190051132445  11.673616748318732 
  8.712899669785497   7.904889967443298  11.673616748318732 
 -3.725351085588729   7.911633071069103   5.002978606422314 
  9.957500667276179   1.437201728570092  11.673616748318732 
  2.469030860914219   1.393634971710908   5.002978606422314 
  1.221236363923726   7.918403849553624   5.002978606422314 
  6.281201464936343   8.005583341792006   5.002978606422314 
  7.488511903218416   1.393634971710908   5.002978606422314 
  1.244643094346979   7.904889967443298  11.673616748318732 
 12.446928455166319   1.437247498834912   5.002978606422314 
 -2.489385691033299  10.060732491844133  11.673616748318732 
 -1.244711435300499   3.593178089167110  11.673616748318732 
  3.734137835866189   3.593083591389265  11.673616748318732 
  2.489345395193214  10.060730239133857  11.673616748318732 
  7.468197368939189  10.060730239133857  11.673616748318732 
  8.712812278073248   3.593140478865051  11.673616748318732 
 -4.968543081960534  10.064904772348067   5.002978606422314 
 -0.010228300106110  10.064904772348067   5.002978606422314 
  1.212856549736198   3.574738053148369   5.002978606422314 
  4.978771382066718  10.097493879721782   5.002978606422314 
  6.281823504670355   3.492755783695068   5.002978606422314 
 11.213304629522927   3.589194097240564   5.002978606422314 
 -2.489385691033301   5.749046734117774  11.673616748318732 
 -3.734056980319812  12.216596630788860  11.673616748318732 
  1.244643708293807  12.216575370706964  11.673616748318732 
  2.489384894963483   5.749058927903547  11.673616748318732 
  6.223524914223622  12.216590168281801  11.673616748318732 
 -6.220134157457306  12.214681123212838   5.002978606422314 
  7.468157869168917   5.749058927903547  11.673616748318732 
 -1.246193694661492  12.205659632114918   5.002978606422314 
 -0.047946971472095   5.753168458928615   5.002978606422314 
 -1.253420296478156   7.911633071069103   5.002978606422314 
  3.731942873080576  12.228152117425251   5.002978606422314 
 10.005489735605256   5.753168458928615   5.002978606422314 
 -3.734083157823708   7.904883466488189  11.673616748318732 
  2.489407789858300   1.437213727969017  11.673616748318732 
  6.223524322969079   7.904827466726306  11.673616748318732 
  7.468134974275382   1.437213727969017  11.673616748318732 
 12.446928455166319   1.437247498834912  11.673616748318732 
  1.228698530831402   0.700976953006998   5.002978606422314 
  4.978771382066761   7.455675940103578   5.002978606422314 
  6.227740131099054   0.699247051233997   5.002978606422314 
  9.976461428758764   7.192222802197222   5.002978606422314 
 11.206378398169395   0.721015589484382   5.002978606422314 
 -3.734372020180452   9.341939299573495  11.673616748318732 
  1.244510515744156   9.341847859692834  11.673616748318732 
  2.489613648967686   2.874971937032060  11.673616748318732 
  6.223165164946648   9.341672855383335  11.673616748318732 
  7.467929115165759   2.874971937032060  11.673616748318732 
 12.446928455166244   2.874858204745137  11.673616748318732 
 -1.249509894493293   9.344889866950036   5.002978606422314 
 -0.020741586465140   2.862519837140728   5.002978606422314 
  4.978771382066363   2.840284152162516   5.002978606422314 
  3.703588885699666   9.417618822458556   5.002978606422314 
  8.727492679726200   9.355500132587379   5.002978606422314 
  9.978284350598328   2.862519837140728   5.002978606422314 
 -4.978730624563402  11.497956459323605  11.673616748318732 
 -0.000040757503195  11.497956459323605  11.673616748318732 
  1.245219866087755   5.030325193602947  11.673616748318732 
  6.223386658530013   5.030411030435492  11.673616748318732 
  4.978771382066428  11.497823414468849  11.673616748318732 
 11.202414372246187   5.030331022383810  11.673616748318732 
 -1.267972576846276   5.025338161294035   5.002978606422314 
 -2.489385691033239  11.492417741632170   5.002978606422314 
  2.482100274389440  11.520654871717385   5.002978606422314 
  3.500737997619126   4.895647022957278   5.002978606422314 
  7.475442489744428  11.520654871717385   5.002978606422314 
  8.793488391591325   5.019016018094506   5.002978606422314 
  0.000134766189033   7.186525837756144  11.673616748318732 
  1.244572959739123   0.718486548236190  11.673616748318732 
  4.978771382066074   7.186147925147433  11.673616748318732 
  6.223147131621904   0.718596288569739  11.673616748318732 
  9.957407997944713   7.186525837756144  11.673616748318732 
 -2.489385691033024   7.189280720015032   5.002978606422314 
 11.201921063095883   0.718442145879735  11.673616748318732 
  3.729802633034268   0.699247051233997   5.002978606422314 
  2.459758229738874   7.203342916927997   5.002978606422314 
  7.497784534394378   7.203342916927997   5.002978606422314 
  8.728844233301889   0.700976953006998   5.002978606422314 
  2.489604880989153   7.186110944794731  11.673616748318732 
 13.687478512163748   0.721015589484382   5.002978606422314 
 -1.244399361886116   9.341939299573495  11.673616748318732 
  0.000135598975287   2.874573285774637  11.673616748318732 
  4.978771382066663   2.874748096430004  11.673616748318732 
  3.734377599186876   9.341672855383335  11.673616748318732 
  8.713032248389247   9.341847859692834  11.673616748318732 
  9.957407165157470   2.874573285774637  11.673616748318732 
 -3.729261487573427   9.344889866950036   5.002978606422314 
  1.230050084406186   9.355500132587379   5.002978606422314 
  2.439236868908783   2.810335145465070   5.002978606422314 
  6.253953878433514   9.417618822458556   5.002978606422314 
  7.518305895224049   2.810335145465070   5.002978606422314 
 12.446928455166663   2.869711317535816   5.002978606422314 
 -1.244871608113788   5.030331022383810  11.673616748318732 
 -2.489385691033238  11.498318876384996  11.673616748318732 
  2.489326814214103  11.498152415398573  11.673616748318732 
  3.734156105602313   5.030411030435492  11.673616748318732 
  7.468215949918720  11.498152415398573  11.673616748318732 
 -4.976135871178814  11.496458377758625   5.002978606422314 
  8.712322898045599   5.030325193602947  11.673616748318732 
 -0.002635510887621  11.496458377758625   5.002978606422314 
  1.164054372542209   5.019016018094506   5.002978606422314 
 -0.018918664626036   7.192222802197222   5.002978606422314 
  6.456804766514048   4.895647022957278   5.002978606422314 
  4.978771382066769  11.521930311736948   5.002978606422314 
 11.225515340979198   5.025338161294035   5.002978606422314 
 -2.489385691033359   7.186284556885371  11.673616748318732 
  3.734395632511314   0.718596288569739  11.673616748318732 
  7.467937883143250   7.186110944794731  11.673616748318732 
  8.712969804394483   0.718486548236190  11.673616748318732 
 13.691935847237007   0.718442145879735  11.673616748318732 
 -0.000092585904983   1.436965848626201   1.667363860479578 
  3.735521577056233   7.904424815959653   1.662039320624405 
  4.978771382066429   1.437933982780983   1.669162189336857 
  8.712255406080164   7.904518001618420   1.669162189336857 
  9.957635350037826   1.436965848626201   1.667363860479578 
 -4.979134326306778  10.060256252596634   8.337569202561477 
  0.000362944240375  10.060256252596634   8.337569202561477 
  1.245108498805118   3.593358724625252   8.339235782352921 
  4.978771382066881  10.060252536768017   8.339235782352921 
  6.223807790419886   3.594586670640609   8.343917892220384 
 11.202525818837977   3.593179390445846   8.338593352364743 
 -2.489385691033300  10.060732491844131   1.667867999454371 
 -1.244983054704863   3.593179390445846   1.667363860479578 
  3.733734973713694   3.594586670640608   1.662039320624405 
  2.489830462029215  10.060557268419965   1.667911116473592 
  7.467712302103858  10.060557268419965   1.667911116473592 
  8.712434265328206   3.593358724625251   1.666721430492160 
 -6.223959798501666  12.216889858099451   8.338168612551547 
 -1.244923808683149  12.217156178652663   8.337569202561477 
  0.000374133434803   5.748692424069915   8.338046096371103 
  4.978771382066590   5.748989995339477   8.339361162166263 
  3.733880913266530  12.216824746946383   8.338593352364743 
  9.957168630698627   5.748692424069915   8.338046096371103 
 -2.489385691033265   5.748417759332940   1.667788600293015 
 -3.733847573383852  12.217156178652663   1.668388010283070 
  1.245188416435607  12.216889858099451   1.667788600293015 
  2.490485168703226   5.747958499418853   1.662039320624405 
  6.223661850866560  12.216824746946383   1.667363860479578 
  7.467057595429337   5.747958499418853   1.662039320624405 
 -1.244098938110194   7.904785044283384   8.337569202561477 
 -0.000092585904983   1.436965848626201   8.338593352364743 
  3.735521577056234   7.904424815959654   8.343917892220384 
  4.978771382066430   1.437933982780983   8.336795023507770 
  8.712255406080164   7.904518001618420   8.336795023507770 
 -3.734672443956646   7.904785044283384   1.668388010283070 
  9.957635350037826   1.436965848626201   8.338593352364743 
  2.489315053471817   1.437720293528550   1.667911116473592 
  1.245287358053329   7.904518001618420   1.669162189336857 
  6.222021187076154   7.904424815959653   1.662039320624405 
  7.468227710660997   1.437720293528550   1.667911116473592 
  1.245287358053330   7.904518001618420   8.336795023507770 
 12.446928455166319   1.437247498834911   1.666865863596515 
 -2.489385691033300  10.060732491844131   8.338089213390189 
 -1.244983054704863   3.593179390445846   8.338593352364743 
  3.733734973713695   3.594586670640609   8.343917892220384 
  2.489830462029216  10.060557268419965   8.338046096371103 
  7.467712302103859  10.060557268419965   8.338046096371103 
  8.712434265328206   3.593358724625252   8.339235782352921 
 -4.979134326306779  10.060256252596634   1.668388010283070 
  0.000362944240375  10.060256252596634   1.668388010283070 
  1.245108498805118   3.593358724625251   1.666721430492160 
  4.978771382066880  10.060252536768017   1.666721430492160 
  6.223807790419885   3.594586670640608   1.662039320624405 
 11.202525818837977   3.593179390445846   1.667363860479578 
 -2.489385691033264   5.748417759332940   8.338168612551547 
 -3.733847573383852  12.217156178652663   8.337569202561477 
  1.245188416435607  12.216889858099451   8.338168612551547 
  2.490485168703227   5.747958499418854   8.343917892220384 
  6.223661850866561  12.216824746946383   8.338593352364743 
 -6.223959798501667  12.216889858099451   1.667788600293015 
  7.467057595429338   5.747958499418854   8.343917892220384 
 -1.244923808683150  12.217156178652663   1.668388010283070 
  0.000374133434803   5.748692424069914   1.667911116473592 
 -1.244098938110194   7.904785044283384   1.668388010283070 
  4.978771382066589   5.748989995339476   1.666596050678672 
  3.733880913266529  12.216824746946383   1.667363860479578 
  9.957168630698627   5.748692424069914   1.667911116473592 
 -3.734672443956645   7.904785044283384   8.337569202561477 
  2.489315053471817   1.437720293528551   8.338046096371103 
  6.222021187076155   7.904424815959654   8.343917892220384 
  7.468227710660998   1.437720293528551   8.338046096371103 
 12.446928455166319   1.437247498834912   8.339091349247726 
  4.978771382066589   5.748989995339477   5.002978606422314 
Generated by cif2cell 2.0.0.  :  Failed to get author information, No journal information. Species order: N B P 
 1.0
 14.936314146199660   0.000000000000000   0.000000000000000
 -7.468157073099825  12.935227489513863   0.000000000000000
  0.000000000000001   0.000000000000001  13.341276283792837
 N B P 
 143 144   1
Cartesian
  1.244476428148261   0.718576969939887   1.667311915774822 
  4.978771382066760   7.187512315152950   1.649599287604787 
  6.223494536701282   0.718747327961113   1.668642200138089 
  9.957450896533363   7.186149456436881   1.668642200138089 
 11.202306028532048   0.718664405778157   1.666424596436834 
 -3.734174154265774   9.342053537512079   8.338131315157309 
  1.244815022233988   9.342073201620876   8.337315012706792 
  2.488982715961709   2.874315157181424   8.339986511946522 
  6.223418486478234   9.342547649320210   8.339986511946522 
  7.468560048171645   2.874315157181424   8.339986511946522 
 12.446928455166059   2.874413684948331   8.339532616408194 
 -1.244597227800408   9.342053537512079   1.667825897687612 
 -0.000305919148790   2.874318375166909   1.666664907767644 
  4.978771382066661   2.874677976931930   1.666716030598324 
  3.734124277654257   9.342547649320210   1.665970700897718 
  8.712727741899085   9.342073201620876   1.668642200138089 
  9.957848683281711   2.874318375166909   1.666664907767644 
 -4.978863591257610  11.498033227679780   8.338062847241945 
  0.000092209191999  11.498033227679780   8.338062847241945 
  1.244335611549371   5.030107179517094   8.339986511946522 
  6.224568254936146   5.029728835432734   8.356357925239040 
  4.978771382066084  11.498333235685362   8.339292305077144 
 11.202384330550386   5.030202212722163   8.338645297069645 
 -1.244841566416854   5.030202212722162   1.667311915774822 
 -2.489385691033240  11.498090400506943   1.667825897687612 
  2.489453387501510  11.498190803356316   1.667311915774822 
  3.732974509197208   5.029728835432733   1.649599287604787 
  7.468089376632356  11.498190803356316   1.667311915774822 
  8.713207152583282   5.030107179517093   1.665970700897718 
  0.000091867598693   7.186149456436882   8.337315012706792 
  1.244476428148262   0.718576969939888   8.338645297069645 
  4.978771382066761   7.187512315152951   8.356357925239040 
  6.223494536701283   0.718747327961114   8.337315012706792 
  9.957450896533363   7.186149456436882   8.337315012706792 
 -2.489385691033234   7.186131020171246   1.667894365602456 
 11.202306028532048   0.718664405778157   8.339532616408194 
  3.734048227431710   0.718747327961113   1.668642200138089 
  2.489544155722684   7.186146004543482   1.666716030598324 
  7.467998608410030   7.186146004543482   1.666716030598324 
  8.713066335984657   0.718576969939887   1.667311915774822 
  2.489544155722685   7.186146004543483   8.339241182246065 
 13.691550881800291   0.718664405778157   1.666424596436834 
 -1.244597227800407   9.342053537512079   8.338131315157309 
 -0.000305919148789   2.874318375166910   8.339292305077144 
  4.978771382066662   2.874677976931931   8.339241182246065 
  3.734124277654258   9.342547649320210   8.339986511946522 
  8.712727741899085   9.342073201620876   8.337315012706792 
  9.957848683281711   2.874318375166910   8.339292305077144 
 -3.734174154265774   9.342053537512079   1.667825897687612 
  1.244815022233988   9.342073201620876   1.668642200138089 
  2.488982715961709   2.874315157181424   1.665970700897718 
  6.223418486478233   9.342547649320210   1.665970700897718 
  7.468560048171644   2.874315157181424   1.665970700897718 
 12.446928455166059   2.874413684948330   1.666424596436834 
 -1.244841566416853   5.030202212722163   8.338645297069645 
 -2.489385691033239  11.498090400506943   8.338131315157309 
  2.489453387501511  11.498190803356316   8.338645297069645 
  3.732974509197208   5.029728835432734   8.356357925239040 
  7.468089376632356  11.498190803356316   8.338645297069645 
 -4.978863591257610  11.498033227679780   1.667894365602456 
  8.713207152583282   5.030107179517094   8.339986511946522 
  0.000092209191998  11.498033227679780   1.667894365602456 
  1.244335611549370   5.030107179517093   1.665970700897718 
  0.000091867598693   7.186149456436881   1.668642200138089 
  6.224568254936145   5.029728835432733   1.649599287604787 
  4.978771382066083  11.498333235685362   1.666664907767644 
 11.202384330550386   5.030202212722162   1.667311915774822 
 -2.489385691033233   7.186131020171246   8.338062847241945 
  3.734048227431710   0.718747327961114   8.337315012706792 
  7.467998608410031   7.186146004543483   8.339241182246065 
  8.713066335984657   0.718576969939888   8.338645297069645 
 13.691550881800291   0.718664405778157   8.339532616408194 
 -0.008933356404903   1.429623771352977   5.002978606422314 
  3.676341299196745   8.005583341792006   5.002978606422314 
  4.978771382066482   1.410162286911081   5.002978606422314 
  8.736306400209406   7.918403849553624   5.002978606422314 
  9.966476120537164   1.429623771352977   5.002978606422314 
 -4.978754447110407  10.060717378255028  11.673616748318732 
 -0.000016934956205  10.060717378255028  11.673616748318732 
  1.244730486059569   3.593140478865051  11.673616748318732 
  4.978771382066718  10.060689028288422  11.673616748318732 
  6.223404928266867   3.593083591389265  11.673616748318732 
 11.202254199433524   3.593178089167110  11.673616748318732 
 -2.489385691033300  10.060732491844131   5.002978606422314 
 -1.255761865390021   3.589194097240564   5.002978606422314 
  3.675719259462565   3.492755783695068   5.002978606422314 
  2.461793549679789  10.100166555378843   5.002978606422314 
  7.495749214452942  10.100166555378843   5.002978606422314 
  8.744686214397053   3.574738053148369   5.002978606422314 
 -6.223415090359657  12.216575370706964  11.673616748318732 
 -1.244714401746934  12.216596630788860  11.673616748318732 
 -0.000018197015284   5.749026018916386  11.673616748318732 
  4.978771382066590   5.748989995339477  11.673616748318732 
  3.734017849909128  12.216590168281801  11.673616748318732 
  9.957560961147774   5.749026018916386  11.673616748318732 
 -2.489385691033219   5.752835229106606   5.002978606422314 
 -3.732577687405343  12.205659632114918   5.002978606422314 
  1.241362775390857  12.214681123212838   5.002978606422314 
  2.373289176592766   5.748630860531718   5.002978606422314 
  6.225599891051457  12.228152117425251   5.002978606422314 
  7.584253587540156   5.748630860531718   5.002978606422314 
 -1.244688224242384   7.904883466488189  11.673616748318732 
  0.000042096856651   1.437201728570092  11.673616748318732 
  3.734018441164324   7.904827466726306  11.673616748318732 
  4.978771382066744   1.437190051132445  11.673616748318732 
  8.712899669785497   7.904889967443298  11.673616748318732 
 -3.725351085588729   7.911633071069103   5.002978606422314 
  9.957500667276179   1.437201728570092  11.673616748318732 
  2.469030860914219   1.393634971710908   5.002978606422314 
  1.221236363923726   7.918403849553624   5.002978606422314 
  6.281201464936343   8.005583341792006   5.002978606422314 
  7.488511903218416   1.393634971710908   5.002978606422314 
  1.244643094346979   7.904889967443298  11.673616748318732 
 12.446928455166319   1.437247498834912   5.002978606422314 
 -2.489385691033299  10.060732491844133  11.673616748318732 
 -1.244711435300499   3.593178089167110  11.673616748318732 
  3.734137835866189   3.593083591389265  11.673616748318732 
  2.489345395193214  10.060730239133857  11.673616748318732 
  7.468197368939189  10.060730239133857  11.673616748318732 
  8.712812278073248   3.593140478865051  11.673616748318732 
 -4.968543081960534  10.064904772348067   5.002978606422314 
 -0.010228300106110  10.064904772348067   5.002978606422314 
  1.212856549736198   3.574738053148369   5.002978606422314 
  4.978771382066718  10.097493879721782   5.002978606422314 
  6.281823504670355   3.492755783695068   5.002978606422314 
 11.213304629522927   3.589194097240564   5.002978606422314 
 -2.489385691033301   5.749046734117774  11.673616748318732 
 -3.734056980319812  12.216596630788860  11.673616748318732 
  1.244643708293807  12.216575370706964  11.673616748318732 
  2.489384894963483   5.749058927903547  11.673616748318732 
  6.223524914223622  12.216590168281801  11.673616748318732 
 -6.220134157457306  12.214681123212838   5.002978606422314 
  7.468157869168917   5.749058927903547  11.673616748318732 
 -1.246193694661492  12.205659632114918   5.002978606422314 
 -0.047946971472095   5.753168458928615   5.002978606422314 
 -1.253420296478156   7.911633071069103   5.002978606422314 
  3.731942873080576  12.228152117425251   5.002978606422314 
 10.005489735605256   5.753168458928615   5.002978606422314 
 -3.734083157823708   7.904883466488189  11.673616748318732 
  2.489407789858300   1.437213727969017  11.673616748318732 
  6.223524322969079   7.904827466726306  11.673616748318732 
  7.468134974275382   1.437213727969017  11.673616748318732 
 12.446928455166319   1.437247498834912  11.673616748318732 
  1.228698530831402   0.700976953006998   5.002978606422314 
  4.978771382066761   7.455675940103578   5.002978606422314 
  6.227740131099054   0.699247051233997   5.002978606422314 
  9.976461428758764   7.192222802197222   5.002978606422314 
 11.206378398169395   0.721015589484382   5.002978606422314 
 -3.734372020180452   9.341939299573495  11.673616748318732 
  1.244510515744156   9.341847859692834  11.673616748318732 
  2.489613648967686   2.874971937032060  11.673616748318732 
  6.223165164946648   9.341672855383335  11.673616748318732 
  7.467929115165759   2.874971937032060  11.673616748318732 
 12.446928455166244   2.874858204745137  11.673616748318732 
 -1.249509894493293   9.344889866950036   5.002978606422314 
 -0.020741586465140   2.862519837140728   5.002978606422314 
  4.978771382066363   2.840284152162516   5.002978606422314 
  3.703588885699666   9.417618822458556   5.002978606422314 
  8.727492679726200   9.355500132587379   5.002978606422314 
  9.978284350598328   2.862519837140728   5.002978606422314 
 -4.978730624563402  11.497956459323605  11.673616748318732 
 -0.000040757503195  11.497956459323605  11.673616748318732 
  1.245219866087755   5.030325193602947  11.673616748318732 
  6.223386658530013   5.030411030435492  11.673616748318732 
  4.978771382066428  11.497823414468849  11.673616748318732 
 11.202414372246187   5.030331022383810  11.673616748318732 
 -1.267972576846276   5.025338161294035   5.002978606422314 
 -2.489385691033239  11.492417741632170   5.002978606422314 
  2.482100274389440  11.520654871717385   5.002978606422314 
  3.500737997619126   4.895647022957278   5.002978606422314 
  7.475442489744428  11.520654871717385   5.002978606422314 
  8.793488391591325   5.019016018094506   5.002978606422314 
  0.000134766189033   7.186525837756144  11.673616748318732 
  1.244572959739123   0.718486548236190  11.673616748318732 
  4.978771382066074   7.186147925147433  11.673616748318732 
  6.223147131621904   0.718596288569739  11.673616748318732 
  9.957407997944713   7.186525837756144  11.673616748318732 
 -2.489385691033024   7.189280720015032   5.002978606422314 
 11.201921063095883   0.718442145879735  11.673616748318732 
  3.729802633034268   0.699247051233997   5.002978606422314 
  2.459758229738874   7.203342916927997   5.002978606422314 
  7.497784534394378   7.203342916927997   5.002978606422314 
  8.728844233301889   0.700976953006998   5.002978606422314 
  2.489604880989153   7.186110944794731  11.673616748318732 
 13.687478512163748   0.721015589484382   5.002978606422314 
 -1.244399361886116   9.341939299573495  11.673616748318732 
  0.000135598975287   2.874573285774637  11.673616748318732 
  4.978771382066663   2.874748096430004  11.673616748318732 
  3.734377599186876   9.341672855383335  11.673616748318732 
  8.713032248389247   9.341847859692834  11.673616748318732 
  9.957407165157470   2.874573285774637  11.673616748318732 
 -3.729261487573427   9.344889866950036   5.002978606422314 
  1.230050084406186   9.355500132587379   5.002978606422314 
  2.439236868908783   2.810335145465070   5.002978606422314 