B C N                                   
   1.0000000000000000     
     8.7639499999999995  -15.1796066749929999    0.0000000000000000
     8.7639499999999995   15.1796066749929999    0.0000000000000000
     0.0000000000000000    0.0000000000000000   15.0000000000000000
   B    C    N 
    46     3    47
Selective dynamics
Direct
  0.9066546051748494  0.9536853136853873  0.1110225017789589   T   T   T
  0.9044303516097615  0.0948692123672039  0.1110369320777254   T   T   T
  0.9036201489744086  0.2373117242308217  0.1110707972393776   T   T   T
  0.9032815967140518  0.3801966163955139  0.1110193091615649   T   T   T
  0.9035588017772406  0.5230073382085524  0.1110103794647942   T   T   T
  0.9046535163051947  0.6662070969877223  0.1110857661019522   T   T   T
  0.9067270262880434  0.8105194315498980  0.1110632914501320   T   T   T
  0.0492008227981454  0.9534459256232346  0.1109483936044264   T   T   T
  0.0486013954237609  0.0960395972041253  0.1109591006477155   T   T   T
  0.0467547970983648  0.2373938470757371  0.1109715556204866   T   T   T
  0.0460476463427103  0.3798788310276115  0.1110017819411507   T   T   T
  0.0462766888807856  0.5229796851189354  0.1109988737978280   T   T   T
  0.0474563230985554  0.6661945961015809  0.1110006705510003   T   T   T
  0.0484647547463673  0.8097158874274302  0.1109707410024065   T   T   T
  0.1915090838012620  0.9529244337643418  0.1109613996997242   T   T   T
  0.1919467426944613  0.0967238155156547  0.1109891217669949   T   T   T
  0.1910235366424166  0.2389722357762132  0.1109433394504233   T   T   T
  0.1885474324483870  0.3794158684361996  0.1108540728483851   T   T   T
  0.1881128734681939  0.5223400002080917  0.1109062376883700   T   T   T
  0.1902657104835888  0.6656991010784759  0.1110089662770855   T   T   T
  0.1911061247385249  0.8092291767274726  0.1109615845910105   T   T   T
  0.3341280587703080  0.9522988463044412  0.1109983047333739   T   T   T
  0.3342753436439055  0.0964659925939097  0.1110482114944467   T   T   T
  0.3350910562394035  0.2406364761604051  0.1110303799226514   T   T   T
  0.3340266430617939  0.3828545175875755  0.1112391084289917   T   T   T
  0.3278437201545397  0.5206514957864798  0.1111136783148635   T   T   T
  0.3329963351117606  0.6642277458168330  0.1109215882496219   T   T   T
  0.3339472736732290  0.8080598250620078  0.1110362074726660   T   T   T
  0.4763878605330250  0.9502731378190652  0.1110266561055728   T   T   T
  0.4765421710785868  0.0965743837185597  0.1109457873600846   T   T   T
  0.4763921947056626  0.2431391181992716  0.1109959721507395   T   T   T
  0.4725617658283112  0.6488600798282771  0.1112056844696887   T   T   T
  0.4762823835071742  0.8027641805001304  0.1111408018592138   T   T   T
  0.6183316528990547  0.9506765690022264  0.1110956933279143   T   T   T
  0.6184178109895762  0.0946389308962052  0.1110182017897684   T   T   T
  0.6185965021515119  0.2389973758858895  0.1109570851052456   T   T   T
  0.6204858093533622  0.3864809062875544  0.1110005357724983   T   T   T
  0.6423828714764982  0.6776846452435056  0.1107978987698185   T   T   T
  0.6180502696093123  0.8074544895334428  0.1110646141162783   T   T   T
  0.7616967119538681  0.9517705960362428  0.1110546762773369   T   T   T
  0.7610004685484948  0.0944097085173355  0.1110831394208959   T   T   T
  0.7607555116673309  0.2376073737007011  0.1110837465572413   T   T   T
  0.7603068056286263  0.3808701034450923  0.1110004164263263   T   T   T
  0.7579469323853117  0.5216195355656132  0.1110691321813861   T   T   T
  0.7628901956137704  0.6655538879194162  0.1109678081738860   T   T   T
  0.7663859754232946  0.8121623028658876  0.1109628894718271   T   T   T
  0.4772609649374898  0.3897287187050840  0.1113082699680729   T   T   T
  0.4710010492445749  0.5339480374933612  0.1115094393630726   T   T   T
  0.5124750805279371  0.4815674877478767  0.1115674620565765   T   T   T
  0.9543385758760776  0.9063043850053725  0.1109834300930378   T   T   T
  0.9534288063282289  0.0486171768238640  0.1109988257943172   T   T   T
  0.9516076124850582  0.1898286999836497  0.1110166372404628   T   T   T
  0.9511334447088775  0.3323139986146306  0.1110092950312993   T   T   T
  0.9517462950411041  0.4753980228263689  0.1109646307007947   T   T   T
  0.9530379518867099  0.6188985516198815  0.1110145382842365   T   T   T
  0.9539542505911475  0.7626306017982671  0.1110158754275491   T   T   T
  0.0965255084778428  0.9054738391177483  0.1109228214069935   T   T   T
  0.0966736130637608  0.0488850958541390  0.1109233063596813   T   T   T
  0.0956421787011298  0.1910073437777500  0.1109207993519553   T   T   T
  0.0936573589799007  0.3321049099476212  0.1109721112349033   T   T   T
  0.0935242918912965  0.4750592608848710  0.1109896502756675   T   T   T
  0.0952800063316008  0.6184742065646021  0.1109935866597748   T   T   T
  0.0961796294178769  0.7619564014940586  0.1109369451772888   T   T   T
  0.2389424849697889  0.9047819754082217  0.1109446734956544   T   T   T
  0.2389830383042908  0.0484326248869556  0.1109855661793940   T   T   T
  0.2393806635172021  0.1922788433358814  0.1110507031560551   T   T   T
  0.2382041824813372  0.3338991363116035  0.1108176630533881   T   T   T
  0.2340686798410858  0.4738179219242132  0.1107105341762280   T   T   T
  0.2376529377458398  0.6176396432945768  0.1109807650488936   T   T   T
  0.2387336993964964  0.7611561308651746  0.1109948531876436   T   T   T
  0.3812403797704487  0.9034671369224297  0.1109926369340579   T   T   T
  0.3812062449076290  0.0477868347358105  0.1109949807785690   T   T   T
  0.3810037585058549  0.1917908425792117  0.1110727360182781   T   T   T
  0.3829960065582432  0.3365623229944845  0.1109281221578740   T   T   T
  0.3778603337489932  0.4775354027079121  0.1119103148107851   T   T   T
  0.3791439862069106  0.6147395622486997  0.1107101883496849   T   T   T
  0.3811965844101011  0.7591480457819364  0.1110712376571742   T   T   T
  0.5231249166193296  0.9002322180207610  0.1110964673463390   T   T   T
  0.5231603568952143  0.0464553186261513  0.1109573604677925   T   T   T
  0.5229484765028385  0.1923338827776226  0.1108757844610726   T   T   T
  0.5211093579277000  0.3391616744253456  0.1110367998484393   T   T   T
  0.5227780859067234  0.7508303220966198  0.1112214660464154   T   T   T
  0.6657330945268317  0.9031544731275126  0.1111217670395142   T   T   T
  0.6656189474035509  0.0461466529176819  0.1110099366354606   T   T   T
  0.6655134546324906  0.1895422286388122  0.1110412869997015   T   T   T
  0.6650243758481493  0.3325041637079980  0.1109242788250091   T   T   T
  0.6672025266140943  0.4756321597903827  0.1110462777727372   T   T   T
  0.6704782693963747  0.6239195085219037  0.1106399622639651   T   T   T
  0.6701729588050873  0.7666452574133575  0.1107474264424623   T   T   T
  0.8116439466198276  0.9067461914812055  0.1110213145766150   T   T   T
  0.8089837032747801  0.0470031751724253  0.1110241441911482   T   T   T
  0.8084656542791060  0.1894753073705016  0.1110796294772697   T   T   T
  0.8084012335880626  0.3323798715691664  0.1110351544874236   T   T   T
  0.8097389736802731  0.4755999545927543  0.1110095211554996   T   T   T
  0.8111665773569685  0.6193684403174696  0.1110988702260454   T   T   T
  0.8124791425079786  0.7638993511548281  0.1110657529959011   T   T   T

  0.00000000E+00  0.00000000E+00  0.00000000E+00
  0.00000000E+00  0.00000000E+00  0.00000000E+00
  0.00000000E+00  0.00000000E+00  0.00000000E+00
  0.00000000E+00  0.00000000E+00  0.00000000E+00
  0.00000000E+00  0.00000000E+00  0.00000000E+00
  0.00000000E+00  0.00000000E+00  0.00000000E+00
  0.00000000E+00  0.00000000E+00  0.00000000E+00
  0.00000000E+00  0.00000000E+00  0.00000000E+00
  0.00000000E+00  0.00000000E+00  0.00000000E+00
  0.00000000E+00  0.00000000E+00  0.00000000E+00
  0.00000000E+00  0.00000000E+00  0.00000000E+00
  0.00000000E+00  0.00000000E+00  0.00000000E+00
  0.00000000E+00  0.00000000E+00  0.00000000E+00
  0.00000000E+00  0.00000000E+00  0.00000000E+00
  0.00000000E+00  0.00000000E+00  0.00000000E+00
  0.00000000E+00  0.00000000E+00  0.00000000E+00
  0.00000000E+00  0.00000000E+00  0.00000000E+00
  0.00000000E+00  0.00000000E+00  0.00000000E+00
  0.00000000E+00  0.00000000E+00  0.00000000E+00
  0.00000000E+00  0.00000000E+00  0.00000000E+00
  0.00000000E+00  0.00000000E+00  0.00000000E+00
  0.00000000E+00  0.00000000E+00  0.00000000E+00
  0.00000000E+00  0.00000000E+00  0.00000000E+00
  0.00000000E+00  0.00000000E+00  0.00000000E+00
  0.00000000E+00  0.00000000E+00  0.00000000E+00
  0.00000000E+00  0.00000000E+00  0.00000000E+00
  0.00000000E+00  0.00000000E+00  0.00000000E+00
  0.00000000E+00  0.00000000E+00  0.00000000E+00
  0.00000000E+00  0.00000000E+00  0.00000000E+00
  0.00000000E+00  0.00000000E+00  0.00000000E+00
  0.00000000E+00  0.00000000E+00  0.00000000E+00
  0.00000000E+00  0.00000000E+00  0.00000000E+00
  0.00000000E+00  0.00000000E+00  0.00000000E+00
  0.00000000E+00  0.00000000E+00  0.00000000E+00
  0.00000000E+00  0.00000000E+00  0.00000000E+00
  0.00000000E+00  0.00000000E+00  0.00000000E+00
  0.00000000E+00  0.00000000E+00  0.00000000E+00
  0.00000000E+00  0.00000000E+00  0.00000000E+00
  0.00000000E+00  0.00000000E+00  0.00000000E+00
  0.00000000E+00  0.00000000E+00  0.00000000E+00
  0.00000000E+00  0.00000000E+00  0.00000000E+00
  0.00000000E+00  0.00000000E+00  0.00000000E+00
  0.00000000E+00  0.00000000E+00  0.00000000E+00
  0.00000000E+00  0.00000000E+00  0.00000000E+00
  0.00000000E+00  0.00000000E+00  0.00000000E+00
  0.00000000E+00  0.00000000E+00  0.00000000E+00
  0.00000000E+00  0.00000000E+00  0.00000000E+00
  0.00000000E+00  0.00000000E+00  0.00000000E+00
  0.00000000E+00  0.00000000E+00  0.00000000E+00
  0.00000000E+00  0.00000000E+00  0.00000000E+00
  0.00000000E+00  0.00000000E+00  0.00000000E+00
  0.00000000E+00  0.00000000E+00  0.00000000E+00
  0.00000000E+00  0.00000000E+00  0.00000000E+00
  0.00000000E+00  0.00000000E+00  0.00000000E+00
  0.00000000E+00  0.00000000E+00  0.00000000E+00
  0.00000000E+00  0.00000000E+00  0.00000000E+00
  0.00000000E+00  0.00000000E+00  0.00000000E+00
  0.00000000E+00  0.00000000E+00  0.00000000E+00
  0.00000000E+00  0.00000000E+00  0.00000000E+00
  0.00000000E+00  0.00000000E+00  0.00000000E+00
  0.00000000E+00  0.00000000E+00  0.00000000E+00
  0.00000000E+00  0.00000000E+00  0.00000000E+00
  0.00000000E+00  0.00000000E+00  0.00000000E+00
  0.00000000E+00  0.00000000E+00  0.00000000E+00
  0.00000000E+00  0.00000000E+00  0.00000000E+00
  0.00000000E+00  0.00000000E+00  0.00000000E+00
  0.00000000E+00  0.00000000E+00  0.00000000E+00
  0.00000000E+00  0.00000000E+00  0.00000000E+00
  0.00000000E+00  0.00000000E+00  0.00000000E+00
  0.00000000E+00  0.00000000E+00  0.00000000E+00
  0.00000000E+00  0.00000000E+00  0.00000000E+00
  0.00000000E+00  0.00000000E+00  0.00000000E+00
  0.00000000E+00  0.00000000E+00  0.00000000E+00
  0.00000000E+00  0.00000000E+00  0.00000000E+00
  0.00000000E+00  0.00000000E+00  0.00000000E+00
  0.00000000E+00  0.00000000E+00  0.00000000E+00
  0.00000000E+00  0.00000000E+00  0.00000000E+00
  0.00000000E+00  0.00000000E+00  0.00000000E+00
  0.00000000E+00  0.00000000E+00  0.00000000E+00
  0.00000000E+00  0.00000000E+00  0.00000000E+00
  0.00000000E+00  0.00000000E+00  0.00000000E+00
  0.00000000E+00  0.00000000E+00  0.00000000E+00
  0.00000000E+00  0.00000000E+00  0.00000000E+00
  0.00000000E+00  0.00000000E+00  0.00000000E+00
  0.00000000E+00  0.00000000E+00  0.00000000E+00
  0.00000000E+00  0.00000000E+00  0.00000000E+00
  0.00000000E+00  0.00000000E+00  0.00000000E+00
  0.00000000E+00  0.00000000E+00  0.00000000E+00
  0.00000000E+00  0.00000000E+00  0.00000000E+00
  0.00000000E+00  0.00000000E+00  0.00000000E+00
  0.00000000E+00  0.00000000E+00  0.00000000E+00
  0.00000000E+00  0.00000000E+00  0.00000000E+00
  0.00000000E+00  0.00000000E+00  0.00000000E+00
  0.00000000E+00  0.00000000E+00  0.00000000E+00
  0.00000000E+00  0.00000000E+00  0.00000000E+00
  0.00000000E+00  0.00000000E+00  0.00000000E+00
