B N O S                                 
   1.0000000000000000     
     8.7639499999999995  -15.1796066749929999    0.0000000000000000
     8.7639499999999995   15.1796066749929999    0.0000000000000000
     0.0000000000000000    0.0000000000000000   15.0000000000000000
   B    N    O    S 
    49    47     1     1
Selective dynamics
Direct
  0.9052797899800374  0.9532314593951862  0.1110180905446551   T   T   T
  0.9050660558788424  0.0954278498613143  0.1110288698849956   T   T   T
  0.9052392355101047  0.2378565820701774  0.1110543800244326   T   T   T
  0.9059950623102236  0.3806151548654853  0.1110547273277953   T   T   T
  0.9092224070024639  0.5245475132366287  0.1112421017041900   T   T   T
  0.9092208693569188  0.6704877348632602  0.1110284154706320   T   T   T
  0.9059725171294007  0.8111470259431416  0.1110140299662742   T   T   T
  0.0480457276672703  0.9528710403560696  0.1110874031293657   T   T   T
  0.0476699337094082  0.0953590843500442  0.1109958922184371   T   T   T
  0.0476926513590591  0.2380611430622486  0.1109688757094132   T   T   T
  0.0480830132662120  0.3809677005947630  0.1110566785652917   T   T   T
  0.0493696726676345  0.5241910285986640  0.1111054640605399   T   T   T
  0.0493476912360049  0.6675311447447559  0.1110545543483837   T   T   T
  0.0493802829440126  0.8109530067659527  0.1111214212383630   T   T   T
  0.1905423625589754  0.9521613702938607  0.1110590291324146   T   T   T
  0.1899387840187430  0.0946835695087797  0.1110065562919962   T   T   T
  0.1897895654984438  0.2376862692788997  0.1109952220689084   T   T   T
  0.1899494787144914  0.3809598872202309  0.1109413002229568   T   T   T
  0.1905472165745127  0.5241402195940605  0.1110845380451080   T   T   T
  0.1910772333925899  0.6670572890697589  0.1111192236943599   T   T   T
  0.1910670479277515  0.8097479881013740  0.1110538570258393   T   T   T
  0.3330923532812514  0.9517040518972295  0.1110549658696333   T   T   T
  0.3318040490683985  0.0932065266988091  0.1109681165571235   T   T   T
  0.3314724170802198  0.2362448432751459  0.1110933507600257   T   T   T
  0.3313027651622928  0.3804266850140357  0.1107691337961071   T   T   T
  0.3316584028871413  0.5244258614812254  0.1108061793722321   T   T   T
  0.3331306565476118  0.6671311065440263  0.1110774026630864   T   T   T
  0.3333786685782266  0.8095445473611746  0.1111147062888663   T   T   T
  0.4758961689265117  0.9517389437599570  0.1110813017340249   T   T   T
  0.4753399316989852  0.0934671634849598  0.1110643003460938   T   T   T
  0.4721915021242550  0.2333043481914643  0.1106921178610082   T   T   T
  0.4716248758393680  0.3764561473597141  0.1103442713820004   T   T   T
  0.4709622827153946  0.5256243645006152  0.1118853738905475   T   T   T
  0.4754055356866271  0.6674677522619320  0.1109772997470689   T   T   T
  0.4759503961392547  0.8096953393241340  0.1110856709896615   T   T   T
  0.6189222359114888  0.9523026577479051  0.1109928534432123   T   T   T
  0.6187795397641841  0.0933386082915646  0.1109842121666268   T   T   T
  0.6185089039311548  0.2332820281597470  0.1108461719043746   T   T   T
  0.6115738072516990  0.3640598011930043  0.1131115024017365   T   T   T
  0.6115967542446115  0.5325621884629728  0.1109469609725911   T   T   T
  0.6197256350987248  0.6713529951001781  0.1108831650831599   T   T   T
  0.6189852134400027  0.8112257558414657  0.1110753652701655   T   T   T
  0.7621876734077686  0.9530522540146186  0.1109967131487332   T   T   T
  0.7621308443759975  0.0949210406027180  0.1110253653184575   T   T   T
  0.7623936624158569  0.2369157640440106  0.1109352624781663   T   T   T
  0.7632470638252231  0.3792575092583327  0.1111402703883429   T   T   T
  0.7785187149779162  0.5321667659113363  0.1094418150951091   T   T   T
  0.7628635782384332  0.6697690302292703  0.1111323527985877   T   T   T
  0.7625686926883473  0.8114673342025829  0.1110576164283552   T   T   T
  0.9530450212539073  0.9058153114514643  0.1110209151554826   T   T   T
  0.9527609984875338  0.0481116065223470  0.1109811871996699   T   T   T
  0.9527556449144472  0.1904892017031851  0.1110132037582696   T   T   T
  0.9530712884888474  0.3330458665700218  0.1110392903423372   T   T   T
  0.9546789580743401  0.4760373402209456  0.1111681689645289   T   T   T
  0.9544233868164165  0.6200553736542331  0.1109995231201192   T   T   T
  0.9547743026513805  0.7644785323503498  0.1111821357147437   T   T   T
  0.0959142238309924  0.9055246238500874  0.1110473134551323   T   T   T
  0.0952232133728573  0.0478013599172704  0.1110108540087940   T   T   T
  0.0951616574568747  0.1904693765553105  0.1109567437878223   T   T   T
  0.0952919311744394  0.3332303109289354  0.1109522080130300   T   T   T
  0.0959340129323513  0.4761593223757539  0.1110815174942089   T   T   T
  0.0962140842654517  0.6193518679913984  0.1111196273107887   T   T   T
  0.0962109048696998  0.7625530465570735  0.1110665280097873   T   T   T
  0.2381891633753490  0.9046739491249647  0.1109963417331072   T   T   T
  0.2373632905761509  0.0469533254688896  0.1110754545370209   T   T   T
  0.2372478864044971  0.1899665848099961  0.1110252038607938   T   T   T
  0.2373197151382202  0.3330469148186510  0.1109125108485562   T   T   T
  0.2374436528198918  0.4761527319017215  0.1108970831318262   T   T   T
  0.2382533720369527  0.6192200925129210  0.1110745111974088   T   T   T
  0.2384312775580388  0.7620523706976278  0.1110440416053893   T   T   T
  0.3808492378999450  0.9044503420356886  0.1111077355548974   T   T   T
  0.3803023136041417  0.0466364267931320  0.1110164070257375   T   T   T
  0.3783701801032899  0.1880936173491929  0.1106913222524695   T   T   T
  0.3791115929733707  0.3325608888143708  0.1108031537077009   T   T   T
  0.3784831850011611  0.4758964973018877  0.1107927776220437   T   T   T
  0.3804381758041341  0.6192938008183340  0.1109748605356279   T   T   T
  0.3808898947337566  0.7620256534979543  0.1111007890532908   T   T   T
  0.5237255317712119  0.9046095995471565  0.1110680931056169   T   T   T
  0.5235382399234947  0.0466452333437167  0.1109980899715338   T   T   T
  0.5227296699526857  0.1884768686642911  0.1109703476699473   T   T   T
  0.5182807320649531  0.3285290993713056  0.1109795098732463   T   T   T
  0.5229876628063935  0.6193777462809228  0.1111371609252600   T   T   T
  0.5235884144774201  0.7623106205991811  0.1109611502778206   T   T   T
  0.6669122397899887  0.9056724966882385  0.1109770073263631   T   T   T
  0.6668771028122773  0.0469681814379581  0.1109901094930456   T   T   T
  0.6669620945317127  0.1879236263725115  0.1108044430759069   T   T   T
  0.6672710617453989  0.3275917084857063  0.1113735709957181   T   T   T
  0.6673858265652448  0.6259014021041677  0.1111482751874014   T   T   T
  0.6672014200603307  0.7650777447780095  0.1110293310234700   T   T   T
  0.8101994579927981  0.9060663678906909  0.1109992844654784   T   T   T
  0.8099578996931840  0.0479174204514189  0.1110155100385621   T   T   T
  0.8100904192682497  0.1900017570811313  0.1109983639276970   T   T   T
  0.8106216876823717  0.3323714981075533  0.1109723146447859   T   T   T
  0.8143571703338034  0.4758448470411875  0.1109062837002310   T   T   T
  0.8146529144528643  0.6243767342260087  0.1103852702493257   T   T   T
  0.8106248149910935  0.7641046202492148  0.1110085046526651   T   T   T
  0.5150955381512583  0.4748665278207230  0.1114171819693385   T   T   T
  0.6651624765974606  0.4755079531694105  0.1109943395966279   T   T   T

  0.00000000E+00  0.00000000E+00  0.00000000E+00
  0.00000000E+00  0.00000000E+00  0.00000000E+00
  0.00000000E+00  0.00000000E+00  0.00000000E+00
  0.00000000E+00  0.00000000E+00  0.00000000E+00
  0.00000000E+00  0.00000000E+00  0.00000000E+00
  0.00000000E+00  0.00000000E+00  0.00000000E+00
  0.00000000E+00  0.00000000E+00  0.00000000E+00
  0.00000000E+00  0.00000000E+00  0.00000000E+00
  0.00000000E+00  0.00000000E+00  0.00000000E+00
  0.00000000E+00  0.00000000E+00  0.00000000E+00
  0.00000000E+00  0.00000000E+00  0.00000000E+00
  0.00000000E+00  0.00000000E+00  0.00000000E+00
  0.00000000E+00  0.00000000E+00  0.00000000E+00
  0.00000000E+00  0.00000000E+00  0.00000000E+00
  0.00000000E+00  0.00000000E+00  0.00000000E+00
  0.00000000E+00  0.00000000E+00  0.00000000E+00
  0.00000000E+00  0.00000000E+00  0.00000000E+00
  0.00000000E+00  0.00000000E+00  0.00000000E+00
  0.00000000E+00  0.00000000E+00  0.00000000E+00
  0.00000000E+00  0.00000000E+00  0.00000000E+00
  0.00000000E+00  0.00000000E+00  0.00000000E+00
  0.00000000E+00  0.00000000E+00  0.00000000E+00
  0.00000000E+00  0.00000000E+00  0.00000000E+00
  0.00000000E+00  0.00000000E+00  0.00000000E+00
  0.00000000E+00  0.00000000E+00  0.00000000E+00
  0.00000000E+00  0.00000000E+00  0.00000000E+00
  0.00000000E+00  0.00000000E+00  0.00000000E+00
  0.00000000E+00  0.00000000E+00  0.00000000E+00
  0.00000000E+00  0.00000000E+00  0.00000000E+00
  0.00000000E+00  0.00000000E+00  0.00000000E+00
  0.00000000E+00  0.00000000E+00  0.00000000E+00
  0.00000000E+00  0.00000000E+00  0.00000000E+00
  0.00000000E+00  0.00000000E+00  0.00000000E+00
  0.00000000E+00  0.00000000E+00  0.00000000E+00
  0.00000000E+00  0.00000000E+00  0.00000000E+00
  0.00000000E+00  0.00000000E+00  0.00000000E+00
  0.00000000E+00  0.00000000E+00  0.00000000E+00
  0.00000000E+00  0.00000000E+00  0.00000000E+00
  0.00000000E+00  0.00000000E+00  0.00000000E+00
  0.00000000E+00  0.00000000E+00  0.00000000E+00
  0.00000000E+00  0.00000000E+00  0.00000000E+00
  0.00000000E+00  0.00000000E+00  0.00000000E+00
  0.00000000E+00  0.00000000E+00  0.00000000E+00
  0.00000000E+00  0.00000000E+00  0.00000000E+00
  0.00000000E+00  0.00000000E+00  0.00000000E+00
  0.00000000E+00  0.00000000E+00  0.00000000E+00
  0.00000000E+00  0.00000000E+00  0.00000000E+00
  0.00000000E+00  0.00000000E+00  0.00000000E+00
  0.00000000E+00  0.00000000E+00  0.00000000E+00
  0.00000000E+00  0.00000000E+00  0.00000000E+00
  0.00000000E+00  0.00000000E+00  0.00000000E+00
  0.00000000E+00  0.00000000E+00  0.00000000E+00
  0.00000000E+00  0.00000000E+00  0.00000000E+00
  0.00000000E+00  0.00000000E+00  0.00000000E+00
  0.00000000E+00  0.00000000E+00  0.00000000E+00
  0.00000000E+00  0.00000000E+00  0.00000000E+00
  0.00000000E+00  0.00000000E+00  0.00000000E+00
  0.00000000E+00  0.00000000E+00  0.00000000E+00
  0.00000000E+00  0.00000000E+00  0.00000000E+00
  0.00000000E+00  0.00000000E+00  0.00000000E+00
  0.00000000E+00  0.00000000E+00  0.00000000E+00
  0.00000000E+00  0.00000000E+00  0.00000000E+00
  0.00000000E+00  0.00000000E+00  0.00000000E+00
  0.00000000E+00  0.00000000E+00  0.00000000E+00
  0.00000000E+00  0.00000000E+00  0.00000000E+00
  0.00000000E+00  0.00000000E+00  0.00000000E+00
  0.00000000E+00  0.00000000E+00  0.00000000E+00
  0.00000000E+00  0.00000000E+00  0.00000000E+00
  0.00000000E+00  0.00000000E+00  0.00000000E+00
  0.00000000E+00  0.00000000E+00  0.00000000E+00
  0.00000000E+00  0.00000000E+00  0.00000000E+00
  0.00000000E+00  0.00000000E+00  0.00000000E+00
  0.00000000E+00  0.00000000E+00  0.00000000E+00
  0.00000000E+00  0.00000000E+00  0.00000000E+00
  0.00000000E+00  0.00000000E+00  0.00000000E+00
  0.00000000E+00  0.00000000E+00  0.00000000E+00
  0.00000000E+00  0.00000000E+00  0.00000000E+00
  0.00000000E+00  0.00000000E+00  0.00000000E+00
  0.00000000E+00  0.00000000E+00  0.00000000E+00
  0.00000000E+00  0.00000000E+00  0.00000000E+00
  0.00000000E+00  0.00000000E+00  0.00000000E+00
  0.00000000E+00  0.00000000E+00  0.00000000E+00
  0.00000000E+00  0.00000000E+00  0.00000000E+00
  0.00000000E+00  0.00000000E+00  0.00000000E+00
  0.00000000E+00  0.00000000E+00  0.00000000E+00
  0.00000000E+00  0.00000000E+00  0.00000000E+00
  0.00000000E+00  0.00000000E+00  0.00000000E+00
  0.00000000E+00  0.00000000E+00  0.00000000E+00
  0.00000000E+00  0.00000000E+00  0.00000000E+00
  0.00000000E+00  0.00000000E+00  0.00000000E+00
  0.00000000E+00  0.00000000E+00  0.00000000E+00
  0.00000000E+00  0.00000000E+00  0.00000000E+00
  0.00000000E+00  0.00000000E+00  0.00000000E+00
  0.00000000E+00  0.00000000E+00  0.00000000E+00
  0.00000000E+00  0.00000000E+00  0.00000000E+00
  0.00000000E+00  0.00000000E+00  0.00000000E+00
  0.00000000E+00  0.00000000E+00  0.00000000E+00
  0.00000000E+00  0.00000000E+00  0.00000000E+00
