 N Al B 
 1.0
 14.936314146199660   0.000000000000000   0.000000000000000
 -7.468157073099825  12.935227489513863   0.000000000000000
  0.000000000000001   0.000000000000001  13.341276283792837
 N Al B 
 143   1 143
Cartesian
  1.245476433226207   0.718893593906014   1.663158893727490 
  4.979463213302514   7.186961973235640   1.685982434182335 
  6.224004219626559   0.718480351818906   1.663776599550166 
  9.958042266277838   7.186584142020321   1.667181210753510 
 11.202633560735121   0.718853506583717   1.665871255956854 
 -3.733661401630468   9.342349575384645   8.339611700487080 
  1.244838655575144   9.342648088053364   8.342180613294488 
  2.490505697722910   2.874927831285105   8.334873214012696 
  6.224069122588664   9.342449512007581   8.336919403530203 
  7.468578676664173   2.874496903491603   8.338259550221277 
 12.447561257343253   2.874929799184219   8.340527269914041 
 -1.244455644017822   9.342430699125414   1.665738602927816 
  0.001042417877005   2.875096837911606   1.664106072391375 
  4.979773096568794   2.874483297723081   1.674373459555017 
  3.734290988822248   9.342472908912766   1.667697662623350 
  8.713399875529563   9.342368000050342   1.667181210753510 
  9.957846147151177   2.874821339769023   1.666244683719929 
 -4.978258219432199  11.498154000688364   8.340279531469870 
  0.000288472456308  11.498146540329270   8.340285031946136 
  1.245627693768022   5.031119783359916   8.334873214012696 
  6.224437560472777   5.030603149816838   8.319974778662266 
  4.979205694123944  11.498079557029982   8.339712529124684 
 11.202815068455525   5.030759765016462   8.340158118718746 
 -1.244067359479649   5.030909930540306   1.663158893727490 
 -2.488988267603773  11.498024434853342   1.665738602927816 
  2.489589669543448  11.498250312499497   1.665373910852998 
  3.736284535144801   5.031639879804592   1.741655470388983 
  7.468787600035368  11.498285057178007   1.665799094125882 
  8.713447481233136   5.030719715572908   1.669037809314398 
  0.000365124636546   7.186831760771533   8.341964828539156 
  1.245476433226207   0.718893593906014   8.342798319117124 
  4.979463213302515   7.186961973235641   8.319974778662305 
  6.224004219626560   0.718480351818906   8.342180613294488 
  9.958042266277838   7.186584142020322   8.338776002091185 
 -2.488978412627458   7.186594901047283   1.665677681374771 
 11.202633560735121   0.718853506583718   8.340085956887775 
  3.734775748837952   0.718642823329644   1.663992384305458 
  2.489876415833351   7.187110854354001   1.674373459555017 
  7.468740327312300   7.186574236150958   1.673735325760382 
  8.713186013435333   0.718665239078770   1.665373910852998 
  2.489876415833351   7.187110854354002   8.331583753289584 
 13.692314250928579   0.718954371420961   1.665429942930599 
 -1.244455644017821   9.342430699125414   8.340218609916786 
  0.001042417877005   2.875096837911607   8.341851140453253 
  4.979773096568795   2.874483297723082   8.331583753289610 
  3.734290988822248   9.342472908912766   8.338259550221277 
  8.713399875529563   9.342368000050342   8.338776002091185 
  9.957846147151177   2.874821339769023   8.339712529124684 
 -3.733661401630468   9.342349575384645   1.666345512357534 
  1.244838655575143   9.342648088053364   1.663776599550179 
  2.490505697722909   2.874927831285104   1.671083998831945 
  6.224069122588663   9.342449512007581   1.669037809314398 
  7.468578676664172   2.874496903491602   1.667697662623350 
 12.447561257343253   2.874929799184218   1.665429942930599 
 -1.244067359479648   5.030909930540306   8.342798319117124 
 -2.488988267603772  11.498024434853342   8.340218609916786 
  2.489589669543448  11.498250312499497   8.340583301991630 
  3.736284535144801   5.031639879804593   8.264301742455606 
  7.468787600035369  11.498285057178007   8.340158118718746 
 -4.978258219432192  11.498154000688352   1.665677681374771 
  8.713447481233136   5.030719715572909   8.336919403530203 
  0.000288472456307  11.498146540329270   1.665672180898504 
  1.245627693768022   5.031119783359915   1.671083998831945 
  0.000365124636545   7.186831760771532   1.663992384305458 
  6.224437560472776   5.030603149816837   1.685982434182335 
  4.979205694123944  11.498079557029982   1.666244683719929 
 11.202815068455539   5.030759765016436   1.665799094125882 
 -2.488978412627457   7.186594901047284   8.340279531469870 
  3.734775748837953   0.718642823329645   8.341964828539156 
  7.468740327312287   7.186574236150959   8.332221887084259 
  8.713186013435333   0.718665239078771   8.340583301991630 
 13.692314250928563   0.718954371420962   8.340527269914041 
  0.020285753977072   1.449494270829825   5.002978606422314 
  3.747675361502105   7.903888450390917   5.002978606422314 
  5.012845926196037   1.389368429368778   5.002978606422314 
  8.722442218245419   7.910399360364853   5.002978606422314 
  9.977655759005133   1.445862346060354   5.002978606422314 
 -4.979159304276748  10.060576143162816  11.673616748318732 
 -0.000350054270547  10.060543121269269  11.673616748318732 
  1.244235312643299   3.592854590359604  11.673616748318732 
  4.978410656383017  10.060695240596489  11.673616748318732 
  6.223093030129067   3.592912903661793  11.673616748318732 
 11.201975979043912   3.592928456159647  11.673616748318732 
 -2.488041187735386  10.061508741185126   5.002978606422314 
 -1.223943952866131   3.604563339368796   5.002978606422314 
  3.785374788632602   3.481045254458040   5.002978606422314 
  2.502594360524544  10.075167624794831   5.002978606422314 
  7.477282160214948  10.068184127964411   5.002978606422314 
  8.730307172477785   3.598911913427878   5.002978606422314 
 -6.223850502726783  12.216449491066005  11.673616748318732 
 -1.245031872380470  12.216395269492875  11.673616748318732 
 -0.000299929295223   5.748677817258110  11.673616748318732 
  4.978274229667819   5.748702964268219  11.673616748318732 
  3.733688862772637  12.216457998902591  11.673616748318732 
  9.957212428966773   5.748715787934326  11.673616748318732 
 -2.485535151127970   5.756793261716664   5.002978606422314 
 -3.726157826087214  12.205301140729718   5.002978606422314 
  1.260680294425510  12.225834098027578   5.002978606422314 
  2.417975325366946   5.849450599076639   5.002978606422314 
  6.238488859754828  12.229271640433742   5.002978606422314 
  7.483492910089604   5.764263090016336   5.002978606422314 
 -1.245064282737282   7.904588974766122  11.673616748318732 
 -0.000396190431310   1.437021130426562  11.673616748318732 
  3.733714672187266   7.904642698879403  11.673616748318732 
  4.978407430190113   1.437012778969502  11.673616748318732 
  8.712579480353121   7.904705105987763  11.673616748318732 
 -3.732473053284674   7.907948743614768   5.002978606422314 
  9.957221711668199   1.436982902041524  11.673616748318732 
  2.501134741561215   1.419557296119670   5.002978606422314 
  1.220265627114097   7.958310199163511   5.002978606422314 
  6.244359034062610   7.910505920674911   5.002978606422314 
  7.487262599687752   1.441468975689203   5.002978606422314 
  1.244307596212156   7.904663411953877  11.673616748318732 
 12.467356814382885   1.449041817527724   5.002978606422314 
 -2.489755676458899  10.060518880659034  11.673616748318732 
 -1.245086981524533   3.592888820313138  11.673616748318732 
  3.733717535100364   3.593096992079753  11.673616748318732 
  2.489060929585300  10.060552698699340  11.673616748318732 
  7.467754434937864  10.060583516900927  11.673616748318732 
  8.712637295247889   3.592824975105328  11.673616748318732 
 -4.975294786979895  10.060579131125742   5.002978606422314 
 -0.000377540264014  10.078901544036890   5.002978606422314 
  1.274058867241550   3.610073227635122   5.002978606422314 
  4.992517038216577  10.072954333998030   5.002978606422314 
  6.229420176434628   3.605380339507055   5.002978606422314 
 11.220718649240236   3.599796510061735   5.002978606422314 
 -2.489712412183918   5.748732595767486  11.673616748318732 
 -3.734500046879948  12.216418200440300  11.673616748318732 
  1.244323298930165  12.216390382275200  11.673616748318732 
  2.489186349919387   5.748688236417130  11.673616748318732 
  6.223169615502895  12.216474038859992  11.673616748318732 
 -6.214781130715370  12.216036772284051   5.002978606422314 
  7.467784401945574   5.748760942341143  11.673616748318732 
 -1.229146754887020  12.207192254540457   5.002978606422314 
 -0.009445639685512   5.768010072924673   5.002978606422314 
 -1.250520828465674   7.917372079751909   5.002978606422314 
  3.751595710532871  12.229714680989133   5.002978606422314 
  9.968558613870593   5.753166734532791   5.002978606422314 
 -3.734407899584908   7.904603467443805  11.673616748318732 
  2.488965372236660   1.437143841486598  11.673616748318732 
  6.223079526290675   7.904653027404144  11.673616748318732 
  7.467838986945039   1.437056143743138  11.673616748318732 
 12.446602672630993   1.437059408200471  11.673616748318732 
  4.021702185375312   5.196425836996649   5.002978606422314 
  1.255502109723259   0.716637534622621   5.002978606422314 
  5.012456627629982   7.283821292433497   5.002978606422314 
  6.253813592698886   0.694333616558872   5.002978606422314 
  9.971341200374106   7.189457406479864   5.002978606422314 
 11.225245377141933   0.731908444873040   5.002978606422314 
 -3.736604936257251   9.340650124875522  11.673616748318732 
  1.244053778093658   9.344616974448090  11.673616748318732 
  2.490524796348271   2.872581181924828  11.673616748318732 
  6.225427703599095   9.341407258437549  11.673616748318732 
  7.466124826035617   2.872468228950049  11.673616748318732 
 12.446736761301375   2.876830958209836  11.673616748318732 
 -1.243828010608798   9.351553900233814   5.002978606422314 
  0.027097376830373   2.890139675477058   5.002978606422314 
  4.999411087445616   2.798020449607907   5.002978606422314 
  3.747334976826719   9.373397934722647   5.002978606422314 
  8.722537662591467   9.352448582591169   5.002978606422314 
  9.984715979768170   2.877701283736638   5.002978606422314 
 -4.976910993077012  11.496623438458915  11.673616748318732 
 -0.002635872259449  11.496458169120418  11.673616748318732 
  1.243604985120913   5.032309647934819  11.673616748318732 
  6.225650508678780   5.028555898923036  11.673616748318732 
  4.978446152935118  11.500850027133758  11.673616748318732 
 11.200013523569256   5.028639334537212  11.673616748318732 
 -1.241008325882984   5.040720450718575   5.002978606422314 
 -2.480773526975611  11.494006380775671   5.002978606422314 
  2.506904380105728  11.515620106672094   5.002978606422314 
  7.478762095850166  11.510141042499972   5.002978606422314 
  8.746588249850365   5.027604229118684   5.002978606422314 
 -0.002875266568284   7.184679617692566  11.673616748318732 
  1.244034702338703   0.721025522143508  11.673616748318732 
  4.978296716123601   7.189036042642350  11.673616748318732 
  6.225316886520806   0.716816184783732  11.673616748318732 
  9.959803964253297   7.184810711163546  11.673616748318732 
 -2.487532826565601   7.192370215806574   5.002978606422314 
 11.199773133491068   0.717202038144375  11.673616748318732 
  3.745110981102314   0.699554481550012   5.002978606422314 
  2.433476642358318   7.242349277390193   5.002978606422314 
  7.500418868888245   7.204863850657365   5.002978606422314 
  8.736886051728442   0.724975321198621   5.002978606422314 
  2.490675872237991   7.184940871227007  11.673616748318732 
 13.712874051446889   0.734730723397511   5.002978606422314 
 -1.242860575742863   9.340554076926109  11.673616748318732 
 -0.002892767960843   2.872824857308815  11.673616748318732 
  4.978293564257368   2.876260638842189  11.673616748318732 
  3.731307179818981   9.341362149202137  11.673616748318732 
  8.712744888343497   9.344780390679224  11.673616748318732 
  9.959865674047041   2.872778322752418  11.673616748318732 
 -3.730430434924096   9.344214974882389   5.002978606422314 
  1.238831655957645   9.380537130034929   5.002978606422314 
  2.508325029157899   2.854582628398555   5.002978606422314 
  6.237941416482781   9.372708002758145   5.002978606422314 
  7.501882528630431   2.870330815565207   5.002978606422314 
 12.471503879193136   2.884846932741553   5.002978606422314 
 -1.242941920910663   5.028595390847522  11.673616748318732 
 -2.489815935964243  11.500344115599907  11.673616748318732 
  2.491270077832674  11.496774479412530  11.673616748318732 
  3.731009306615714   5.028594225193287  11.673616748318732 
  7.465550480930276  11.496919063376231  11.673616748318732 
 -4.972533857104845  11.496518257561592   5.002978606422314 
  8.713224153669501   5.032417408026085  11.673616748318732 
  0.013721987244187  11.505902383708163   5.002978606422314 
  1.236917896940594   5.056724378504384   5.002978606422314 
 -0.010998248128585   7.205326505356350   5.002978606422314 
  6.324816898655088   5.010746625183136   5.002978606422314 
  4.995134715069849  11.519909542687966   5.002978606422314 
 11.218069900838655   5.033469939121010   5.002978606422314 
 -2.489630305222634   7.188526914410237  11.673616748318732 
  3.731291742656537   0.716912633767610  11.673616748318732 
  7.466038658380177   7.185014426865700  11.673616748318732 
  8.712748108634900   0.720858431889430  11.673616748318732 
 13.693548454920458   0.717289757390569  11.673616748318732 
  0.000673014188795   1.437620091745570   1.666725599278089 
  3.731934095327050   7.907624977534587   1.671720343838155 
  4.979123519159866   1.434401346278523   1.667153509314251 
  8.715800002666370   7.906564475412169   1.668423556130040 
  9.958318350970654   1.436853125283258   1.667225487401508 
 -4.977157407447993  10.061693630424157   8.338275582401328 
 -0.000755990661805  10.061389557957289   8.339252016353329 
  1.244349099344506   3.592920285142193   8.333558721224032 
  4.978983142668472  10.062818108405899   8.338621793603627 
  6.224785470775504   3.589879739539877   8.334236869006485 
 11.203679985857139   3.593256241390424   8.338663267227437 
 -2.488873193806449  10.061028382256023   1.668618665907421 
 -1.244033663496327   3.593515298016474   1.666725599278089 
  3.733695287187421   3.587945210004560   1.695545744363063 
  2.488051607398523  10.062329220804545   1.665750129985188 
  7.470016105115912  10.062693964733199   1.667104325064858 
  8.714761995842494   3.592259328867080   1.667335419241014 
 -6.222432717740679  12.217252071936828   8.338592414554014 
 -1.244501804901562  12.215620499921686   8.339252016353329 
 -0.000781390331430   5.749824663453892   8.339112576190312 
  4.981870293988066   5.750779152971528   8.315553978781912 
  3.734124792454401  12.217472604776413   8.338731725443132 
  9.960170965491939   5.749619227847309   8.338852887779783 
 -2.488308464268142   5.749559143147142   1.667364798290613 
 -3.733455686690008  12.216061298749919   1.666986163080091 
  1.244539505075948  12.216515208951632   1.667636748531613 
  2.484713651811038   5.751244860196937   1.695545744363063 
  6.224305489246354  12.217785859433066   1.667293945617217 
  7.471931074691842   5.749883060935836   1.670611748262096 
 -1.244851188572842   7.905671868066513   8.338971049764524 
  0.000673014188795   1.437620091745570   8.339231613566552 
  3.731934095327051   7.907624977534588   8.334236869006485 
  4.979123519159859   1.434401346278537   8.338803703530404 
  8.715800002666370   7.906564475412170   8.337533656714561 
 -3.732439178813780   7.905778417322551   1.667681630443312 
  9.958318350970654   1.436853125283259   8.338731725443132 
  2.489717839658337   1.436153460900419   1.666844636654315 
  1.242404073646409   7.906589279538476   1.667153509314251 
  6.226124645872864   7.907683092046259   1.670611748262096 
  7.468872839125129   1.435293784036208   1.665750129985188 
  1.242404073646410   7.906589279538477   8.338803703530404 
 12.447712968689387   1.437700437928638   1.668298351482494 
 -2.488873193806449  10.061028382256023   8.337338546937207 
 -1.244033663496327   3.593515298016475   8.339231613566552 
  3.733695287187421   3.587945210004561   8.310411468481551 
  2.488051607398523  10.062329220804545   8.340207082859425 
  7.470016105115913  10.062693964733199   8.338852887779783 
  8.714761995842480   3.592259328867081   8.338621793603627 
 -4.977157407447994  10.061693630424157   1.667681630443312 
 -0.000755990661806  10.061389557957289   1.666705196491311 
  1.244349099344505   3.592920285142192   1.672398491620583 
  4.978983142668485  10.062818108405899   1.667335419241014 
  6.224785470775503   3.589879739539876   1.671720343838155 
 11.203679985857139   3.593256241390423   1.667293945617217 
 -2.488308464268142   5.749559143147143   8.338592414554014 
 -3.733455686690008  12.216061298749919   8.338971049764524 
  1.244539505075955  12.216515208951620   8.338320464313028 
  2.484713651811038   5.751244860196937   8.310411468481551 
  6.224305489246355  12.217785859433066   8.338663267227437 
 -6.222432717740680  12.217252071936828   1.667364798290613 
  7.471931074691843   5.749883060935837   8.335345464582504 
 -1.244501804901563  12.215620499921686   1.666705196491311 
 -0.000781390331430   5.749824663453891   1.666844636654315 
 -1.244851188572842   7.905671868066512   1.666986163080091 
  4.981870293988065   5.750779152971527   1.690403234062689 
  3.734124792454400  12.217472604776413   1.667225487401508 
  9.960170965491939   5.749619227847308   1.667104325064858 
 -3.732439178813779   7.905778417322552   8.338275582401328 
  2.489717839658337   1.436153460900419   8.339112576190312 
  6.226124645872865   7.907683092046260   8.335345464582504 
  7.468872839125130   1.435293784036209   8.340207082859425 
 12.447712968689387   1.437700437928639   8.337658861362108 
Generated by cif2cell 2.0.0.  :  Failed to get author information, No journal information. Species order: N Al B 
 1.0
 14.936314146199660   0.000000000000000   0.000000000000000
 -7.468157073099825  12.935227489513863   0.000000000000000
  0.000000000000001   0.000000000000001  13.341276283792837
 N Al B 
 143   1 143
Cartesian
  1.245476433226207   0.718893593906014   1.663158893727490 
  4.979463213302514   7.186961973235640   1.685982434182335 
  6.224004219626559   0.718480351818906   1.663776599550166 
  9.958042266277838   7.186584142020321   1.667181210753510 
 11.202633560735121   0.718853506583717   1.665871255956854 
 -3.733661401630468   9.342349575384645   8.339611700487080 
  1.244838655575144   9.342648088053364   8.342180613294488 
  2.490505697722910   2.874927831285105   8.334873214012696 
  6.224069122588664   9.342449512007581   8.336919403530203 
  7.468578676664173   2.874496903491603   8.338259550221277 
 12.447561257343253   2.874929799184219   8.340527269914041 
 -1.244455644017822   9.342430699125414   1.665738602927816 
  0.001042417877005   2.875096837911606   1.664106072391375 
  4.979773096568794   2.874483297723081   1.674373459555017 
  3.734290988822248   9.342472908912766   1.667697662623350 
  8.713399875529563   9.342368000050342   1.667181210753510 
  9.957846147151177   2.874821339769023   1.666244683719929 
 -4.978258219432199  11.498154000688364   8.340279531469870 
  0.000288472456308  11.498146540329270   8.340285031946136 
  1.245627693768022   5.031119783359916   8.334873214012696 
  6.224437560472777   5.030603149816838   8.319974778662266 
  4.979205694123944  11.498079557029982   8.339712529124684 
 11.202815068455525   5.030759765016462   8.340158118718746 
 -1.244067359479649   5.030909930540306   1.663158893727490 
 -2.488988267603773  11.498024434853342   1.665738602927816 
  2.489589669543448  11.498250312499497   1.665373910852998 
  3.736284535144801   5.031639879804592   1.741655470388983 
  7.468787600035368  11.498285057178007   1.665799094125882 
  8.713447481233136   5.030719715572908   1.669037809314398 
  0.000365124636546   7.186831760771533   8.341964828539156 
  1.245476433226207   0.718893593906014   8.342798319117124 
  4.979463213302515   7.186961973235641   8.319974778662305 
  6.224004219626560   0.718480351818906   8.342180613294488 
  9.958042266277838   7.186584142020322   8.338776002091185 
 -2.488978412627458   7.186594901047283   1.665677681374771 
 11.202633560735121   0.718853506583718   8.340085956887775 
  3.734775748837952   0.718642823329644   1.663992384305458 
  2.489876415833351   7.187110854354001   1.674373459555017 
  7.468740327312300   7.186574236150958   1.673735325760382 
  8.713186013435333   0.718665239078770   1.665373910852998 
  2.489876415833351   7.187110854354002   8.331583753289584 
 13.692314250928579   0.718954371420961   1.665429942930599 
 -1.244455644017821   9.342430699125414   8.340218609916786 
  0.001042417877005   2.875096837911607   8.341851140453253 
  4.979773096568795   2.874483297723082   8.331583753289610 
  3.734290988822248   9.342472908912766   8.338259550221277 
  8.713399875529563   9.342368000050342   8.338776002091185 
  9.957846147151177   2.874821339769023   8.339712529124684 
 -3.733661401630468   9.342349575384645   1.666345512357534 
  1.244838655575143   9.342648088053364   1.663776599550179 
  2.490505697722909   2.874927831285104   1.671083998831945 
  6.224069122588663   9.342449512007581   1.669037809314398 
  7.468578676664172   2.874496903491602   1.667697662623350 
 12.447561257343253   2.874929799184218   1.665429942930599 
 -1.244067359479648   5.030909930540306   8.342798319117124 
 -2.488988267603772  11.498024434853342   8.340218609916786 
  2.489589669543448  11.498250312499497   8.340583301991630 
  3.736284535144801   5.031639879804593   8.264301742455606 
  7.468787600035369  11.498285057178007   8.340158118718746 
 -4.978258219432192  11.498154000688352   1.665677681374771 
  8.713447481233136   5.030719715572909   8.336919403530203 
  0.000288472456307  11.498146540329270   1.665672180898504 
  1.245627693768022   5.031119783359915   1.671083998831945 
  0.000365124636545   7.186831760771532   1.663992384305458 
  6.224437560472776   5.030603149816837   1.685982434182335 
  4.979205694123944  11.498079557029982   1.666244683719929 
 11.202815068455539   5.030759765016436   1.665799094125882 
 -2.488978412627457   7.186594901047284   8.340279531469870 
  3.734775748837953   0.718642823329645   8.341964828539156 
  7.468740327312287   7.186574236150959   8.332221887084259 
  8.713186013435333   0.718665239078771   8.340583301991630 
 13.692314250928563   0.718954371420962   8.340527269914041 
  0.020285753977072   1.449494270829825   5.002978606422314 
  3.747675361502105   7.903888450390917   5.002978606422314 
  5.012845926196037   1.389368429368778   5.002978606422314 
  8.722442218245419   7.910399360364853   5.002978606422314 
  9.977655759005133   1.445862346060354   5.002978606422314 
 -4.979159304276748  10.060576143162816  11.673616748318732 
 -0.000350054270547  10.060543121269269  11.673616748318732 
  1.244235312643299   3.592854590359604  11.673616748318732 
  4.978410656383017  10.060695240596489  11.673616748318732 
  6.223093030129067   3.592912903661793  11.673616748318732 
 11.201975979043912   3.592928456159647  11.673616748318732 
 -2.488041187735386  10.061508741185126   5.002978606422314 
 -1.223943952866131   3.604563339368796   5.002978606422314 
  3.785374788632602   3.481045254458040   5.002978606422314 
  2.502594360524544  10.075167624794831   5.002978606422314 
  7.477282160214948  10.068184127964411   5.002978606422314 
  8.730307172477785   3.598911913427878   5.002978606422314 
 -6.223850502726783  12.216449491066005  11.673616748318732 
 -1.245031872380470  12.216395269492875  11.673616748318732 
 -0.000299929295223   5.748677817258110  11.673616748318732 
  4.978274229667819   5.748702964268219  11.673616748318732 
  3.733688862772637  12.216457998902591  11.673616748318732 
  9.957212428966773   5.748715787934326  11.673616748318732 
 -2.485535151127970   5.756793261716664   5.002978606422314 
 -3.726157826087214  12.205301140729718   5.002978606422314 
  1.260680294425510  12.225834098027578   5.002978606422314 
  2.417975325366946   5.849450599076639   5.002978606422314 
  6.238488859754828  12.229271640433742   5.002978606422314 
  7.483492910089604   5.764263090016336   5.002978606422314 
 -1.245064282737282   7.904588974766122  11.673616748318732 
 -0.000396190431310   1.437021130426562  11.673616748318732 
  3.733714672187266   7.904642698879403  11.673616748318732 
  4.978407430190113   1.437012778969502  11.673616748318732 
  8.712579480353121   7.904705105987763  11.673616748318732 
 -3.732473053284674   7.907948743614768   5.002978606422314 
  9.957221711668199   1.436982902041524  11.673616748318732 
  2.501134741561215   1.419557296119670   5.002978606422314 
  1.220265627114097   7.958310199163511   5.002978606422314 
  6.244359034062610   7.910505920674911   5.002978606422314 
  7.487262599687752   1.441468975689203   5.002978606422314 
  1.244307596212156   7.904663411953877  11.673616748318732 
 12.467356814382885   1.449041817527724   5.002978606422314 
 -2.489755676458899  10.060518880659034  11.673616748318732 
 -1.245086981524533   3.592888820313138  11.673616748318732 
  3.733717535100364   3.593096992079753  11.673616748318732 
  2.489060929585300  10.060552698699340  11.673616748318732 
  7.467754434937864  10.060583516900927  11.673616748318732 
  8.712637295247889   3.592824975105328  11.673616748318732 
 -4.975294786979895  10.060579131125742   5.002978606422314 
 -0.000377540264014  10.078901544036890   5.002978606422314 
  1.274058867241550   3.610073227635122   5.002978606422314 
  4.992517038216577  10.072954333998030   5.002978606422314 
  6.229420176434628   3.605380339507055   5.002978606422314 
 11.220718649240236   3.599796510061735   5.002978606422314 
 -2.489712412183918   5.748732595767486  11.673616748318732 
 -3.734500046879948  12.216418200440300  11.673616748318732 
  1.244323298930165  12.216390382275200  11.673616748318732 
  2.489186349919387   5.748688236417130  11.673616748318732 
  6.223169615502895  12.216474038859992  11.673616748318732 
 -6.214781130715370  12.216036772284051   5.002978606422314 
  7.467784401945574   5.748760942341143  11.673616748318732 
 -1.229146754887020  12.207192254540457   5.002978606422314 
 -0.009445639685512   5.768010072924673   5.002978606422314 
 -1.250520828465674   7.917372079751909   5.002978606422314 
  3.751595710532871  12.229714680989133   5.002978606422314 
  9.968558613870593   5.753166734532791   5.002978606422314 
 -3.734407899584908   7.904603467443805  11.673616748318732 
  2.488965372236660   1.437143841486598  11.673616748318732 
  6.223079526290675   7.904653027404144  11.673616748318732 
  7.467838986945039   1.437056143743138  11.673616748318732 
 12.446602672630993   1.437059408200471  11.673616748318732 
  4.021702185375312   5.196425836996649   5.002978606422314 
  1.255502109723259   0.716637534622621   5.002978606422314 
  5.012456627629982   7.283821292433497   5.002978606422314 
  6.253813592698886   0.694333616558872   5.002978606422314 
  9.971341200374106   7.189457406479864   5.002978606422314 
 11.225245377141933   0.731908444873040   5.002978606422314 
 -3.736604936257251   9.340650124875522  11.673616748318732 
  1.244053778093658   9.344616974448090  11.673616748318732 
  2.490524796348271   2.872581181924828  11.673616748318732 
  6.225427703599095   9.341407258437549  11.673616748318732 
  7.466124826035617   2.872468228950049  11.673616748318732 
 12.446736761301375   2.876830958209836  11.673616748318732 
 -1.243828010608798   9.351553900233814   5.002978606422314 
  0.027097376830373   2.890139675477058   5.002978606422314 
  4.999411087445616   2.798020449607907   5.002978606422314 
  3.747334976826719   9.373397934722647   5.002978606422314 
  8.722537662591467   9.352448582591169   5.002978606422314 
  9.984715979768170   2.877701283736638   5.002978606422314 
 -4.976910993077012  11.496623438458915  11.673616748318732 
 -0.002635872259449  11.496458169120418  11.673616748318732 
  1.243604985120913   5.032309647934819  11.673616748318732 
  6.225650508678780   5.028555898923036  11.673616748318732 
  4.978446152935118  11.500850027133758  11.673616748318732 
 11.200013523569256   5.028639334537212  11.673616748318732 
 -1.241008325882984   5.040720450718575   5.002978606422314 
 -2.480773526975611  11.494006380775671   5.002978606422314 
  2.506904380105728  11.515620106672094   5.002978606422314 
  7.478762095850166  11.510141042499972   5.002978606422314 
  8.746588249850365   5.027604229118684   5.002978606422314 
 -0.002875266568284   7.184679617692566  11.673616748318732 
  1.244034702338703   0.721025522143508  11.673616748318732 
  4.978296716123601   7.189036042642350  11.673616748318732 
  6.225316886520806   0.716816184783732  11.673616748318732 
  9.959803964253297   7.184810711163546  11.673616748318732 
 -2.487532826565601   7.192370215806574   5.002978606422314 
 11.199773133491068   0.717202038144375  11.673616748318732 
  3.745110981102314   0.699554481550012   5.002978606422314 
  2.433476642358318   7.242349277390193   5.002978606422314 
  7.500418868888245   7.204863850657365   5.002978606422314 
  8.736886051728442   0.724975321198621   5.002978606422314 
  2.490675872237991   7.184940871227007  11.673616748318732 
 13.712874051446889   0.734730723397511   5.002978606422314 
 -1.242860575742863   9.340554076926109  11.673616748318732 
 -0.002892767960843   2.872824857308815  11.673616748318732 
  4.978293564257368   2.876260638842189  11.673616748318732 
  3.731307179818981   9.341362149202137  11.673616748318732 
  8.712744888343497   9.344780390679224  11.673616748318732 
  9.959865674047041   2.872778322752418  11.673616748318732 
 -3.730430434924096   9.344214974882389   5.002978606422314 
  1.238831655957645   9.380537130034929   5.002978606422314 
  2.508325029157899   2.854582628398555   5.002978606422314 
  6.237941416482781   9.372708002758145   5.002978606422314 