Species order: X N B                    
   2.51242800000000     
     5.9449720136058266    0.0000000000000000    0.0000000000000000
    -2.9724860068029120    5.1484967885702053   -0.0000000000000001
     0.0000000000000000    0.0000000000000009    5.3101128803662583
   Al   N    B 
     1   143   143
Direct
  0.4701200023284094  0.4017266678308683  0.3750000000000000
  0.1111740036352303  0.0555764167648997  0.1246626528338913
  0.6111854339598500  0.5556115637751142  0.1263733992399577
  0.4444750544996952  0.0555444697359477  0.1247089531884854
  0.9444912859453030  0.5555823542992371  0.1249641470043477
  0.7778133020337611  0.0555733176835476  0.1248659588873500
  0.1111483478675905  0.7222408406004583  0.6250984930593300
  0.4444750544996953  0.7222639180970817  0.6252910468115167
  0.2778694940660510  0.2222556838382404  0.6247433181589989
  0.7778314482085742  0.7222485665274286  0.6248966910053434
  0.6111394115262584  0.2222223695580040  0.6249971421662791
  0.9445036180089286  0.2222558359731070  0.6251671198838916
  0.2778061035937295  0.7222471121361406  0.1248560158334609
  0.1112041655614288  0.2222687494473788  0.1247336489397915
  0.4445110579024327  0.2222213177196403  0.1255032445126006
  0.6111394115262584  0.7222503753015849  0.1250028578337211
  0.9444912859453030  0.7222422649794037  0.1249641470043477
  0.7778107040213018  0.2222474511638503  0.1248939492950993
  0.1111521940284962  0.8889023413008792  0.6251485505627190
  0.4444701957735850  0.8889017645534579  0.6251489628528288
  0.2778694940660510  0.3889471435611372  0.6247433181589988
  0.6111854339598500  0.3889072035180652  0.6236266007600404
  0.7778107040213019  0.8888965861907785  0.6251060507049003
  0.9444984508849201  0.3889193111674857  0.6251394500277668
  0.1111740036352303  0.3889309202036603  0.1246626528338912
  0.2778061035937309  0.8888923247909162  0.1248560158334609
  0.6111352167159132  0.8889097869999372  0.1248286802122614
  0.4446413692969231  0.3889873513151253  0.1305463910154364
  0.9444984508849201  0.8889124730507653  0.1248605499722327
  0.7778314482085742  0.3889162150144738  0.1251033089946547
  0.2778251940686683  0.5556014972753781  0.6252748725901949
  0.1111740036352301  0.0555764167648997  0.6253373471661080
  0.6111854339598500  0.5556115637751142  0.6236266007600428
  0.4444750544996952  0.0555444697359476  0.6252910468115167
  0.9444912859453030  0.5555823542992371  0.6250358529956566
  0.1111521940284962  0.5555831860609491  0.1248514494372819
  0.7778133020337611  0.0555733176835476  0.6251340411126503
  0.2778251940686682  0.0555570301266235  0.1247251274098036
  0.4445110579024329  0.5556230735161278  0.1255032445126006
  0.7778298436539831  0.5555815884936592  0.1254554129722698
  0.6111352167159132  0.0555587630493059  0.1248286802122615
  0.4445110579024332  0.5556230735161278  0.6244967554873974
  0.9445036180089286  0.0555811153691569  0.1248328801161085
  0.2778061035937295  0.7222471121361406  0.6251439841665366
  0.1112041655614290  0.2222687494473785  0.6252663510602090
  0.4445110579024329  0.2222213177196403  0.6244967554873995
  0.6111394115262584  0.7222503753015849  0.6249971421662791
  0.9444912859453030  0.7222422649794037  0.6250358529956566
  0.7778107040213018  0.2222474511638503  0.6251060507049003
  0.1111483478675905  0.7222408406004583  0.1249015069406692
  0.4444750544996953  0.7222639180970817  0.1247089531884858
  0.2778694940660510  0.2222556838382404  0.1252566818410019
  0.7778314482085742  0.7222485665274286  0.1251033089946547
  0.6111394115262584  0.2222223695580040  0.1250028578337211
  0.9445036180089286  0.2222558359731069  0.1248328801161085
  0.1111740036352303  0.3889309202036603  0.6253373471661080
  0.2778061035937309  0.8888923247909162  0.6251439841665366
  0.6111352167159132  0.8889097869999372  0.6251713197877394
  0.4446413692969231  0.3889873513151253  0.6194536089845615
  0.9444984508849201  0.8889124730507653  0.6251394500277668
  0.1111521940284962  0.8889023413008783  0.1248514494372819
  0.7778314482085742  0.3889162150144738  0.6248966910053434
  0.4444701957735850  0.8889017645534583  0.1248510371471717
  0.2778694940660510  0.3889471435611372  0.1252566818410019
  0.2778251940686679  0.5556014972753781  0.1247251274098036
  0.6111854339598500  0.3889072035180653  0.1263733992399577
  0.7778107040213019  0.8888965861907785  0.1248939492950988
  0.9444984508849201  0.3889193111674844  0.1248605499722327
  0.1111521940284962  0.5555831860609491  0.6251485505627190
  0.2778251940686683  0.0555570301266235  0.6252748725901949
  0.7778298436539817  0.5555815884936592  0.6245445870277307
  0.6111352167159132  0.0555587630493060  0.6251713197877394
  0.9445036180089280  0.0555811153691569  0.6251671198838916
  0.0573870938331579  0.1120578878110091  0.3750000000000000
  0.5564282730418244  0.6110359061561397  0.3750000000000000
  0.3893194871222771  0.1074096633008645  0.3750000000000000
  0.8897451732916858  0.6115392533125174  0.3750000000000000
  0.7239018052164689  0.1117771100069530  0.3750000000000000
  0.0555235402833297  0.7777656907324261  0.8750000000000000
  0.3888581324774734  0.7777631378671147  0.8750000000000000
  0.2221813792254056  0.2777573562793704  0.8750000000000000
  0.7221966313905321  0.7777748979484387  0.8750000000000000
  0.5555227468447592  0.2777618643796134  0.8750000000000000
  0.8888641508497409  0.2777630667162451  0.8750000000000000
  0.2223422432023875  0.7778377882678625  0.3750000000000000
  0.0573870938331579  0.2786625393554840  0.3750000000000000
  0.3879911165921553  0.2691135704632952  0.3750000000000000
  0.5569978656981572  0.7788937328672737  0.3750000000000000
  0.8897878584140095  0.7783538508407633  0.3750000000000000
  0.7236149312804249  0.2782256374188540  0.3750000000000000
  0.0555237317161413  0.9444325197194597  0.8750000000000000
  0.3888581324774734  0.9444283279436934  0.8750000000000000
  0.2221900747064534  0.4444203104984706  0.8750000000000000
  0.5555111758070770  0.4444222545702028  0.8750000000000000
  0.7221904997041940  0.9444331774455493  0.8750000000000000
  0.8888561733955789  0.4444232459455861  0.8750000000000000
  0.0561149812456505  0.4450477014326570  0.3750000000000000
  0.2223156289129310  0.9435706600926912  0.3750000000000000
  0.5569827214772471  0.9451580274052880  0.3750000000000000
  0.3879911165921565  0.4522108794621959  0.3750000000000000
  0.8903844685628827  0.9454237778460085  0.3750000000000000
  0.7238393388733844  0.4456251809014736  0.3750000000000000
  0.2221868298425978  0.6110900624804696  0.8750000000000000
  0.0555202801664850  0.1110936109621188  0.8750000000000000
  0.5555227468447592  0.6110942157984791  0.8750000000000000
  0.3888554490824542  0.1110929653254597  0.8750000000000000
  0.8888647474342067  0.6110990403837759  0.8750000000000000
  0.0557823887756828  0.6113498003823636  0.3750000000000000
  0.7221904997041940  0.1110906555919821  0.8750000000000000
  0.2223250325416402  0.1097435122243076  0.3750000000000000
  0.3893194871222768  0.6152431571547565  0.3750000000000000
  0.7238393388733858  0.6115474913052500  0.3750000000000000
  0.5569978656981572  0.1114374661642209  0.3750000000000000
  0.3888554490824542  0.6110958170903379  0.8750000000000000
  0.8907124855287368  0.1120229094310407  0.3750000000000000
  0.2221891944018369  0.7777612638675847  0.8750000000000000
  0.0555202801664850  0.2777600025377026  0.8750000000000000
  0.3888638785881350  0.2777760959358886  0.8750000000000000
  0.5555268627291777  0.7777638782816211  0.8750000000000000
  0.8888561733955789  0.7777662607833288  0.8750000000000000
  0.7221966313905321  0.2777550667754317  0.8750000000000000
  0.0557823887756828  0.7777659217266567  0.3750000000000000
  0.3895659211748608  0.7791823956870885  0.3750000000000000
  0.2248436651866626  0.2790884992599997  0.3750000000000000
  0.7236149312804249  0.7787226271949080  0.3750000000000000
  0.5564282730418211  0.2787257002190195  0.3750000000000000
  0.8903844685628823  0.2782940240502121  0.3750000000000000
  0.0555237317161413  0.4444245453300126  0.8750000000000000
  0.2221868298425978  0.9444301006954626  0.8750000000000000
  0.5555225669094158  0.9444279501213725  0.8750000000000000
  0.3888638785881350  0.4444211159855821  0.8750000000000000
  0.8888641508497409  0.9444344174668334  0.8750000000000000
  0.0561149812456505  0.9444006131463221  0.3750000000000000
  0.7221884176999301  0.4444267367544529  0.8750000000000000
  0.3895659211748608  0.9437168588211072  0.3750000000000000
  0.2223250325416398  0.4459148536506675  0.3750000000000000
  0.2223156289129309  0.6120783021535764  0.3750000000000000
  0.7239018052164689  0.9454580285428560  0.3750000000000000
  0.8897878584140095  0.4447673409065814  0.3750000000000000
  0.0555235402833297  0.6110911828842426  0.8750000000000000
  0.2221900747064535  0.1111030975413180  0.8750000000000000
  0.7221884176999301  0.6110950142788110  0.8750000000000000
  0.5555268627291777  0.1110963177808901  0.8750000000000000
  0.8888598069675030  0.1110965701504237  0.8750000000000000
  0.1117580259031805  0.0554020047350215  0.3750000000000000
  0.6171383864399302  0.5630995897318571  0.3750000000000000
  0.4455374483951753  0.0536777275174896  0.3750000000000000
  0.9454927253873922  0.5558044813906914  0.3750000000000000
  0.7798318113023330  0.0565825723178332  0.3750000000000000
  0.1108855847255401  0.7221094590294340  0.8750000000000000
  0.4444986118248198  0.7224161292890626  0.8750000000000000
  0.2777800650408300  0.2220742684466530  0.8750000000000000
  0.7778821190517147  0.7221679917118040  0.8750000000000000
  0.6108967073098267  0.2220655362480989  0.8750000000000000
  0.9445219048922026  0.2224028112796614  0.8750000000000000
  0.2782007736553744  0.7229524109888903  0.3750000000000000
  0.1135300369197249  0.2234316851265268  0.3750000000000000
  0.4428702344150857  0.2163101075629453  0.3750000000000000
  0.6132080985984536  0.7246411354049500  0.3750000000000000
  0.9454927253873925  0.7230215773300375  0.3750000000000000
  0.7797209858192516  0.2224700946364868  0.3750000000000000
  0.1111832295192781  0.8887840161898064  0.8750000000000000
  0.4442091456745099  0.8887712395039197  0.8750000000000000
  0.2777800650408304  0.3890391299275047  0.8750000000000000
  0.6111875072525693  0.3887489341025904  0.8750000000000000
  0.7778669421576420  0.8891107664288934  0.8750000000000000
  0.9442289214712466  0.3887553843651962  0.8750000000000000
  0.1117580259031805  0.3896893545014892  0.3750000000000000
  0.2782007736553744  0.8885816959998161  0.3750000000000000
  0.6129658668773892  0.8902526156580857  0.3750000000000000
  0.9456245354039865  0.8898290387108263  0.3750000000000000
  0.7799298267889551  0.3886753621607653  0.3750000000000000
  0.2775250576664120  0.5554351188270119  0.8750000000000000
  0.1111598862603789  0.0557412324389364  0.8750000000000000
  0.6111875072525692  0.5557719064833028  0.8750000000000000
  0.4444986118248198  0.0554158158690930  0.8750000000000000
  0.9445406828169602  0.5554452534358607  0.8750000000000000
  0.1114722171309826  0.5560296656272318  0.3750000000000000
  0.7775579577128837  0.0554456455231096  0.8750000000000000
  0.2777793040991764  0.0540813435339356  0.3750000000000000
  0.4428702344150856  0.5598934601854746  0.3750000000000000
  0.7806577203992874  0.5569955268663115  0.3750000000000000
  0.6129658668773895  0.0560465845526364  0.3750000000000000
  0.4444807034298752  0.5554553158845941  0.8750000000000000
  0.9464899368080917  0.0568007577750859  0.3750000000000000
  0.2778403556814940  0.7221020337290682  0.8750000000000000
  0.1108528798024986  0.2220931065679138  0.8750000000000000
  0.4444807034298752  0.2223587208786142  0.8750000000000000
  0.6108967073098279  0.7221645043950595  0.8750000000000000
  0.9445406828169602  0.7224287627144335  0.8750000000000000
  0.7778669421576420  0.2220895090620771  0.8750000000000000
  0.1114367694665449  0.7223850513999398  0.3750000000000000
  0.4455374483951753  0.7251930542110221  0.3750000000000000
  0.2782760885586596  0.2206828314935056  0.3750000000000000
  0.7799298267889551  0.7245877979615177  0.3750000000000000
  0.6132080985984527  0.2219002965268356  0.3750000000000000
  0.9464899368080918  0.2230225123663423  0.3750000000000000
  0.1111598862603791  0.3887519871547696  0.8750000000000000
  0.2778403556814939  0.8890716552857556  0.8750000000000000
  0.6111906745518335  0.8887956929039366  0.8750000000000000
  0.4441704607467988  0.3887518970400634  0.8750000000000000
  0.9442289214712466  0.8888068704393780  0.8750000000000000
  0.1114722171309826  0.8887758848370791  0.3750000000000000
  0.7778821190517147  0.3890474606732417  0.8750000000000000
  0.4456693773705411  0.8895013553519331  0.3750000000000000
  0.2782760885586599  0.3909265903984828  0.3750000000000000
  0.2777793040991764  0.5570312938985771  0.3750000000000000
  0.6171383864399302  0.3873721300414057  0.3750000000000000
  0.7797209858192519  0.8905842245160935  0.3750000000000000
  0.9456245354039865  0.3891288300264887  0.3750000000000000
  0.1111832295192781  0.5557325466628027  0.8750000000000000
  0.2775250576664120  0.0554232721727385  0.8750000000000000
  0.7775886713535355  0.5554610023434333  0.8750000000000000
  0.6111906745518335  0.0557283149812249  0.8750000000000000
  0.9445219048922026  0.0554524269458767  0.8750000000000000
  0.0556150167316789  0.1111399156227435  0.1249299964878809
  0.5555188129775901  0.6113247705883041  0.1253043793020752
  0.3888024492332539  0.1108910799938655  0.1249620706333420
  0.8891522366841599  0.6112427850087484  0.1250572674337658
  0.7222589043083106  0.1110806227759087  0.1249674657758846
  0.0557007646222127  0.7778520817342269  0.6249983438639063
  0.3888636729379647  0.7778285744192525  0.6250715328100932
  0.2221915367247817  0.2777624350290591  0.6246447898952331
  0.7223170174890753  0.7779390131764964  0.6250242942448839
  0.5555188129775901  0.2775273757226198  0.6246956206979259
  0.8889909059304071  0.2777884072238661  0.6250274029147688
  0.2222679717712145  0.7778006525522757  0.1250718919549309
  0.0556150167316789  0.2778084344422713  0.1249299964878809
  0.3886632514018342  0.2773778205998445  0.1270902204778437
  0.5555279575996211  0.7779012181240509  0.1248568798480520
  0.8890891718293328  0.7779294158444975  0.1249583840108368
  0.7223170174890763  0.2777113376459130  0.1249757057551168
  0.0556496767953288  0.9444945658544410  0.6250220921280111
  0.3888636729379647  0.9443684318520463  0.6250715328100932
  0.2222021707913292  0.4445089711885680  0.6250610810242183
  0.5558321889017437  0.4445827611175361  0.6232952381687624
  0.7222589043083106  0.9445116148657369  0.6250325342241155
  0.8890891718293328  0.4444930893181678  0.6250416159891644
  0.0556496767953289  0.4444884442742196  0.1249779078719890
  0.2222429549946752  0.9444025092448554  0.1249495271382066
  0.5555418671770860  0.9444376002552052  0.1249982919968072
  0.3886632514018342  0.4446187641353248  0.1270902204778440
  0.8889909059304071  0.9445358320398771  0.1249725970852327
  0.7225094157836637  0.4445134857966021  0.1252212841354302
  0.2222429549946752  0.6111737790831560  0.6250504728617925
  0.0556150167316788  0.1111399156227435  0.6250700035121199
  0.5555188129775901  0.6113247705883041  0.6246956206979259
  0.3888024492332539  0.1108910799938656  0.6250379293666596
  0.8891522366841599  0.6112427850087484  0.6249427325662319
  0.0557007646222127  0.6111820162213223  0.1250016561360945
  0.7222589043083106  0.1110806227759087  0.6250325342241155
  0.2222021707913293  0.1110265329360974  0.1249389189757817
  0.3888024492332539  0.6112447025727276  0.1249620706333420
  0.7225094157836637  0.6113292633203973  0.1252212841354302
  0.5555279575996211  0.1109600728089052  0.1248568798480520
  0.3888024492332539  0.6112447025727276  0.6250379293666596
  0.8889589207602380  0.1111461270467903  0.1250478826759003
  0.2222679717712145  0.7778006525522757  0.6249281080450689
  0.0556150167316788  0.2778084344422715  0.6250700035121199
  0.3886632514018342  0.2773778205998446  0.6229097795221549
  0.5555279575996213  0.7779012181240509  0.6251431201519467
  0.8890891718293328  0.7779294158444975  0.6250416159891637
  0.7223170174890746  0.2777113376459130  0.6250242942448840
  0.0557007646222127  0.7778520817342269  0.1250016561360945
  0.3888636729379647  0.7778285744192525  0.1249284671899077
  0.2221915367247821  0.2777624350290591  0.1253552101047657
  0.7223170174890763  0.7779390131764964  0.1249757057551168
  0.5555188129775901  0.2775273757226198  0.1253043793020748
  0.8889909059304071  0.2777884072238661  0.1249725970852327
  0.0556496767953289  0.4444884442742196  0.6250220921280111
  0.2222429549946752  0.9444025092448554  0.6250504728617925
  0.5555418671770860  0.9444376002552038  0.6250017080031935
  0.3886632514018342  0.4446187641353248  0.6229097795221549
  0.8889909059304071  0.9445358320398771  0.6250274029147688
  0.0556496767953288  0.9444945658544410  0.1249779078719889
  0.7225094157836637  0.4445134857966021  0.6247787158645683
  0.3888636729379647  0.9443684318520463  0.1249284671899077
  0.2222021707913293  0.4445089711885680  0.1249389189757817
  0.2222429549946752  0.6111737790831560  0.1249495271382066
  0.5558321889017437  0.4445827611175361  0.1267047618312356
  0.7222589043083106  0.9445116148657369  0.1249674657758846
  0.8890891718293328  0.4444930893181678  0.1249583840108368
  0.0557007646222127  0.6111820162213223  0.6249983438639060
  0.2222021707913293  0.1110265329360973  0.6250610810242183
  0.7225094157836637  0.6113292633203973  0.6247787158645683
  0.5555279575996211  0.1109600728089052  0.6251431201519467
  0.8889589207602380  0.1111461270467903  0.6249521173240979
 
  0.00000000E+00  0.00000000E+00  0.00000000E+00
  0.00000000E+00  0.00000000E+00  0.00000000E+00
  0.00000000E+00  0.00000000E+00  0.00000000E+00
  0.00000000E+00  0.00000000E+00  0.00000000E+00
  0.00000000E+00  0.00000000E+00  0.00000000E+00
  0.00000000E+00  0.00000000E+00  0.00000000E+00
  0.00000000E+00  0.00000000E+00  0.00000000E+00
  0.00000000E+00  0.00000000E+00  0.00000000E+00
  0.00000000E+00  0.00000000E+00  0.00000000E+00
  0.00000000E+00  0.00000000E+00  0.00000000E+00
  0.00000000E+00  0.00000000E+00  0.00000000E+00
  0.00000000E+00  0.00000000E+00  0.00000000E+00
  0.00000000E+00  0.00000000E+00  0.00000000E+00
  0.00000000E+00  0.00000000E+00  0.00000000E+00
  0.00000000E+00  0.00000000E+00  0.00000000E+00
  0.00000000E+00  0.00000000E+00  0.00000000E+00
  0.00000000E+00  0.00000000E+00  0.00000000E+00
  0.00000000E+00  0.00000000E+00  0.00000000E+00
  0.00000000E+00  0.00000000E+00  0.00000000E+00
  0.00000000E+00  0.00000000E+00  0.00000000E+00
  0.00000000E+00  0.00000000E+00  0.00000000E+00
  0.00000000E+00  0.00000000E+00  0.00000000E+00
  0.00000000E+00  0.00000000E+00  0.00000000E+00
  0.00000000E+00  0.00000000E+00  0.00000000E+00
  0.00000000E+00  0.00000000E+00  0.00000000E+00
  0.00000000E+00  0.00000000E+00  0.00000000E+00
  0.00000000E+00  0.00000000E+00  0.00000000E+00
  0.00000000E+00  0.00000000E+00  0.00000000E+00
  0.00000000E+00  0.00000000E+00  0.00000000E+00
  0.00000000E+00  0.00000000E+00  0.00000000E+00
  0.00000000E+00  0.00000000E+00  0.00000000E+00
  0.00000000E+00  0.00000000E+00  0.00000000E+00
  0.00000000E+00  0.00000000E+00  0.00000000E+00
  0.00000000E+00  0.00000000E+00  0.00000000E+00
  0.00000000E+00  0.00000000E+00  0.00000000E+00
  0.00000000E+00  0.00000000E+00  0.00000000E+00
  0.00000000E+00  0.00000000E+00  0.00000000E+00
  0.00000000E+00  0.00000000E+00  0.00000000E+00
  0.00000000E+00  0.00000000E+00  0.00000000E+00
  0.00000000E+00  0.00000000E+00  0.00000000E+00
  0.00000000E+00  0.00000000E+00  0.00000000E+00
  0.00000000E+00  0.00000000E+00  0.00000000E+00
  0.00000000E+00  0.00000000E+00  0.00000000E+00
  0.00000000E+00  0.00000000E+00  0.00000000E+00
  0.00000000E+00  0.00000000E+00  0.00000000E+00
  0.00000000E+00  0.00000000E+00  0.00000000E+00
  0.00000000E+00  0.00000000E+00  0.00000000E+00
  0.00000000E+00  0.00000000E+00  0.00000000E+00
  0.00000000E+00  0.00000000E+00  0.00000000E+00
  0.00000000E+00  0.00000000E+00  0.00000000E+00
  0.00000000E+00  0.00000000E+00  0.00000000E+00
  0.00000000E+00  0.00000000E+00  0.00000000E+00
  0.00000000E+00  0.00000000E+00  0.00000000E+00
  0.00000000E+00  0.00000000E+00  0.00000000E+00
  0.00000000E+00  0.00000000E+00  0.00000000E+00
  0.00000000E+00  0.00000000E+00  0.00000000E+00
  0.00000000E+00  0.00000000E+00  0.00000000E+00
  0.00000000E+00  0.00000000E+00  0.00000000E+00
  0.00000000E+00  0.00000000E+00  0.00000000E+00
  0.00000000E+00  0.00000000E+00  0.00000000E+00
  0.00000000E+00  0.00000000E+00  0.00000000E+00
  0.00000000E+00  0.00000000E+00  0.00000000E+00
  0.00000000E+00  0.00000000E+00  0.00000000E+00
  0.00000000E+00  0.00000000E+00  0.00000000E+00
  0.00000000E+00  0.00000000E+00  0.00000000E+00
  0.00000000E+00  0.00000000E+00  0.00000000E+00
  0.00000000E+00  0.00000000E+00  0.00000000E+00
  0.00000000E+00  0.00000000E+00  0.00000000E+00
  0.00000000E+00  0.00000000E+00  0.00000000E+00
  0.00000000E+00  0.00000000E+00  0.00000000E+00
  0.00000000E+00  0.00000000E+00  0.00000000E+00
  0.00000000E+00  0.00000000E+00  0.00000000E+00
  0.00000000E+00  0.00000000E+00  0.00000000E+00
  0.00000000E+00  0.00000000E+00  0.00000000E+00
  0.00000000E+00  0.00000000E+00  0.00000000E+00
  0.00000000E+00  0.00000000E+00  0.00000000E+00
  0.00000000E+00  0.00000000E+00  0.00000000E+00
  0.00000000E+00  0.00000000E+00  0.00000000E+00
  0.00000000E+00  0.00000000E+00  0.00000000E+00
  0.00000000E+00  0.00000000E+00  0.00000000E+00
  0.00000000E+00  0.00000000E+00  0.00000000E+00
  0.00000000E+00  0.00000000E+00  0.00000000E+00
  0.00000000E+00  0.00000000E+00  0.00000000E+00
  0.00000000E+00  0.00000000E+00  0.00000000E+00
  0.00000000E+00  0.00000000E+00  0.00000000E+00
  0.00000000E+00  0.00000000E+00  0.00000000E+00
  0.00000000E+00  0.00000000E+00  0.00000000E+00
  0.00000000E+00  0.00000000E+00  0.00000000E+00
  0.00000000E+00  0.00000000E+00  0.00000000E+00
  0.00000000E+00  0.00000000E+00  0.00000000E+00
  0.00000000E+00  0.00000000E+00  0.00000000E+00
  0.00000000E+00  0.00000000E+00  0.00000000E+00
  0.00000000E+00  0.00000000E+00  0.00000000E+00
  0.00000000E+00  0.00000000E+00  0.00000000E+00
  0.00000000E+00  0.00000000E+00  0.00000000E+00
  0.00000000E+00  0.00000000E+00  0.00000000E+00
  0.00000000E+00  0.00000000E+00  0.00000000E+00
  0.00000000E+00  0.00000000E+00  0.00000000E+00
  0.00000000E+00  0.00000000E+00  0.00000000E+00
  0.00000000E+00  0.00000000E+00  0.00000000E+00
  0.00000000E+00  0.00000000E+00  0.00000000E+00
  0.00000000E+00  0.00000000E+00  0.00000000E+00
  0.00000000E+00  0.00000000E+00  0.00000000E+00
  0.00000000E+00  0.00000000E+00  0.00000000E+00
  0.00000000E+00  0.00000000E+00  0.00000000E+00
  0.00000000E+00  0.00000000E+00  0.00000000E+00
  0.00000000E+00  0.00000000E+00  0.00000000E+00
  0.00000000E+00  0.00000000E+00  0.00000000E+00
  0.00000000E+00  0.00000000E+00  0.00000000E+00
  0.00000000E+00  0.00000000E+00  0.00000000E+00
  0.00000000E+00  0.00000000E+00  0.00000000E+00
  0.00000000E+00  0.00000000E+00  0.00000000E+00
  0.00000000E+00  0.00000000E+00  0.00000000E+00
  0.00000000E+00  0.00000000E+00  0.00000000E+00
  0.00000000E+00  0.00000000E+00  0.00000000E+00
  0.00000000E+00  0.00000000E+00  0.00000000E+00
  0.00000000E+00  0.00000000E+00  0.00000000E+00
  0.00000000E+00  0.00000000E+00  0.00000000E+00
  0.00000000E+00  0.00000000E+00  0.00000000E+00
  0.00000000E+00  0.00000000E+00  0.00000000E+00
  0.00000000E+00  0.00000000E+00  0.00000000E+00
  0.00000000E+00  0.00000000E+00  0.00000000E+00
  0.00000000E+00  0.00000000E+00  0.00000000E+00
  0.00000000E+00  0.00000000E+00  0.00000000E+00
  0.00000000E+00  0.00000000E+00  0.00000000E+00
  0.00000000E+00  0.00000000E+00  0.00000000E+00
  0.00000000E+00  0.00000000E+00  0.00000000E+00
  0.00000000E+00  0.00000000E+00  0.00000000E+00
  0.00000000E+00  0.00000000E+00  0.00000000E+00
  0.00000000E+00  0.00000000E+00  0.00000000E+00
  0.00000000E+00  0.00000000E+00  0.00000000E+00
  0.00000000E+00  0.00000000E+00  0.00000000E+00
  0.00000000E+00  0.00000000E+00  0.00000000E+00
  0.00000000E+00  0.00000000E+00  0.00000000E+00
  0.00000000E+00  0.00000000E+00  0.00000000E+00
  0.00000000E+00  0.00000000E+00  0.00000000E+00
  0.00000000E+00  0.00000000E+00  0.00000000E+00
  0.00000000E+00  0.00000000E+00  0.00000000E+00
  0.00000000E+00  0.00000000E+00  0.00000000E+00
  0.00000000E+00  0.00000000E+00  0.00000000E+00
  0.00000000E+00  0.00000000E+00  0.00000000E+00
  0.00000000E+00  0.00000000E+00  0.00000000E+00
  0.00000000E+00  0.00000000E+00  0.00000000E+00
  0.00000000E+00  0.00000000E+00  0.00000000E+00
  0.00000000E+00  0.00000000E+00  0.00000000E+00
  0.00000000E+00  0.00000000E+00  0.00000000E+00
  0.00000000E+00  0.00000000E+00  0.00000000E+00
  0.00000000E+00  0.00000000E+00  0.00000000E+00
  0.00000000E+00  0.00000000E+00  0.00000000E+00
  0.00000000E+00  0.00000000E+00  0.00000000E+00
  0.00000000E+00  0.00000000E+00  0.00000000E+00
  0.00000000E+00  0.00000000E+00  0.00000000E+00
  0.00000000E+00  0.00000000E+00  0.00000000E+00
  0.00000000E+00  0.00000000E+00  0.00000000E+00
  0.00000000E+00  0.00000000E+00  0.00000000E+00
  0.00000000E+00  0.00000000E+00  0.00000000E+00
  0.00000000E+00  0.00000000E+00  0.00000000E+00
  0.00000000E+00  0.00000000E+00  0.00000000E+00
  0.00000000E+00  0.00000000E+00  0.00000000E+00
  0.00000000E+00  0.00000000E+00  0.00000000E+00
  0.00000000E+00  0.00000000E+00  0.00000000E+00
  0.00000000E+00  0.00000000E+00  0.00000000E+00
  0.00000000E+00  0.00000000E+00  0.00000000E+00
  0.00000000E+00  0.00000000E+00  0.00000000E+00
  0.00000000E+00  0.00000000E+00  0.00000000E+00
  0.00000000E+00  0.00000000E+00  0.00000000E+00
  0.00000000E+00  0.00000000E+00  0.00000000E+00
  0.00000000E+00  0.00000000E+00  0.00000000E+00
  0.00000000E+00  0.00000000E+00  0.00000000E+00
  0.00000000E+00  0.00000000E+00  0.00000000E+00
  0.00000000E+00  0.00000000E+00  0.00000000E+00
  0.00000000E+00  0.00000000E+00  0.00000000E+00
  0.00000000E+00  0.00000000E+00  0.00000000E+00
  0.00000000E+00  0.00000000E+00  0.00000000E+00
  0.00000000E+00  0.00000000E+00  0.00000000E+00
  0.00000000E+00  0.00000000E+00  0.00000000E+00
  0.00000000E+00  0.00000000E+00  0.00000000E+00
  0.00000000E+00  0.00000000E+00  0.00000000E+00
  0.00000000E+00  0.00000000E+00  0.00000000E+00
  0.00000000E+00  0.00000000E+00  0.00000000E+00
  0.00000000E+00  0.00000000E+00  0.00000000E+00
  0.00000000E+00  0.00000000E+00  0.00000000E+00
  0.00000000E+00  0.00000000E+00  0.00000000E+00
  0.00000000E+00  0.00000000E+00  0.00000000E+00
  0.00000000E+00  0.00000000E+00  0.00000000E+00
  0.00000000E+00  0.00000000E+00  0.00000000E+00
  0.00000000E+00  0.00000000E+00  0.00000000E+00
  0.00000000E+00  0.00000000E+00  0.00000000E+00
  0.00000000E+00  0.00000000E+00  0.00000000E+00
  0.00000000E+00  0.00000000E+00  0.00000000E+00
  0.00000000E+00  0.00000000E+00  0.00000000E+00
  0.00000000E+00  0.00000000E+00  0.00000000E+00
  0.00000000E+00  0.00000000E+00  0.00000000E+00
  0.00000000E+00  0.00000000E+00  0.00000000E+00
  0.00000000E+00  0.00000000E+00  0.00000000E+00
  0.00000000E+00  0.00000000E+00  0.00000000E+00
  0.00000000E+00  0.00000000E+00  0.00000000E+00
  0.00000000E+00  0.00000000E+00  0.00000000E+00
  0.00000000E+00  0.00000000E+00  0.00000000E+00
  0.00000000E+00  0.00000000E+00  0.00000000E+00
  0.00000000E+00  0.00000000E+00  0.00000000E+00
  0.00000000E+00  0.00000000E+00  0.00000000E+00
  0.00000000E+00  0.00000000E+00  0.00000000E+00
  0.00000000E+00  0.00000000E+00  0.00000000E+00
  0.00000000E+00  0.00000000E+00  0.00000000E+00
  0.00000000E+00  0.00000000E+00  0.00000000E+00
  0.00000000E+00  0.00000000E+00  0.00000000E+00
  0.00000000E+00  0.00000000E+00  0.00000000E+00
  0.00000000E+00  0.00000000E+00  0.00000000E+00
  0.00000000E+00  0.00000000E+00  0.00000000E+00
  0.00000000E+00  0.00000000E+00  0.00000000E+00
  0.00000000E+00  0.00000000E+00  0.00000000E+00
  0.00000000E+00  0.00000000E+00  0.00000000E+00
  0.00000000E+00  0.00000000E+00  0.00000000E+00
  0.00000000E+00  0.00000000E+00  0.00000000E+00
  0.00000000E+00  0.00000000E+00  0.00000000E+00
  0.00000000E+00  0.00000000E+00  0.00000000E+00
  0.00000000E+00  0.00000000E+00  0.00000000E+00
  0.00000000E+00  0.00000000E+00  0.00000000E+00
  0.00000000E+00  0.00000000E+00  0.00000000E+00
  0.00000000E+00  0.00000000E+00  0.00000000E+00
  0.00000000E+00  0.00000000E+00  0.00000000E+00
  0.00000000E+00  0.00000000E+00  0.00000000E+00
  0.00000000E+00  0.00000000E+00  0.00000000E+00
  0.00000000E+00  0.00000000E+00  0.00000000E+00
  0.00000000E+00  0.00000000E+00  0.00000000E+00
  0.00000000E+00  0.00000000E+00  0.00000000E+00
  0.00000000E+00  0.00000000E+00  0.00000000E+00
  0.00000000E+00  0.00000000E+00  0.00000000E+00
  0.00000000E+00  0.00000000E+00  0.00000000E+00
  0.00000000E+00  0.00000000E+00  0.00000000E+00
  0.00000000E+00  0.00000000E+00  0.00000000E+00
  0.00000000E+00  0.00000000E+00  0.00000000E+00
  0.00000000E+00  0.00000000E+00  0.00000000E+00
  0.00000000E+00  0.00000000E+00  0.00000000E+00
  0.00000000E+00  0.00000000E+00  0.00000000E+00
  0.00000000E+00  0.00000000E+00  0.00000000E+00
  0.00000000E+00  0.00000000E+00  0.00000000E+00
  0.00000000E+00  0.00000000E+00  0.00000000E+00
  0.00000000E+00  0.00000000E+00  0.00000000E+00
  0.00000000E+00  0.00000000E+00  0.00000000E+00
  0.00000000E+00  0.00000000E+00  0.00000000E+00
  0.00000000E+00  0.00000000E+00  0.00000000E+00
  0.00000000E+00  0.00000000E+00  0.00000000E+00
  0.00000000E+00  0.00000000E+00  0.00000000E+00
  0.00000000E+00  0.00000000E+00  0.00000000E+00
  0.00000000E+00  0.00000000E+00  0.00000000E+00
  0.00000000E+00  0.00000000E+00  0.00000000E+00