B N As                                  
   1.0000000000000000     
     8.7639499999999995  -15.1796066749929999    0.0000000000000000
     8.7639499999999995   15.1796066749929999    0.0000000000000000
     0.0000000000000000    0.0000000000000000   15.0000000000000000
   B    N    As
    48    48     1
Selective dynamics
Direct
  0.9055894957066933  0.9537163527420460  0.1110139685354504   T   T   T
  0.9041328889225528  0.0958691322734432  0.1110279985316782   T   T   T
  0.9037087321383680  0.2386857347853595  0.1110417675367775   T   T   T
  0.9038620005711553  0.3815769912443878  0.1109824145524473   T   T   T
  0.9050707831594436  0.5245840491618713  0.1109983106562478   T   T   T
  0.9069060947226185  0.6680169751681541  0.1110813903087302   T   T   T
  0.9074877728254025  0.8118103367960265  0.1110493779343771   T   T   T
  0.0478358393621633  0.9521661818338401  0.1109990499663261   T   T   T
  0.0462856684539576  0.0944125254893033  0.1110139685354504   T   T   T
  0.0459461938260276  0.2377538325763285  0.1110123772647873   T   T   T
  0.0464824483995528  0.3810486108160899  0.1110030794080470   T   T   T
  0.0477228812630040  0.5239190681007732  0.1110011525042090   T   T   T
  0.0486039563957586  0.6667845745145156  0.1110394297394484   T   T   T
  0.0487276057026942  0.8096919644360613  0.1110199350595536   T   T   T
  0.1903100567599416  0.9512744154933087  0.1110199350595536   T   T   T
  0.1881916843999775  0.0925142483705938  0.1110493779343771   T   T   T
  0.1867246978209461  0.2349851182733550  0.1110198401091183   T   T   T
  0.1881161753900985  0.3798456218864955  0.1110105435802374   T   T   T
  0.1906345246881846  0.5233590648332369  0.1110538265537367   T   T   T
  0.1911883946196172  0.6662482734449215  0.1110598942306314   T   T   T
  0.1910269402095426  0.8089750809864608  0.1109935045778192   T   T   T
  0.3332174466824821  0.9513980648002451  0.1110394297394484   T   T   T
  0.3319850460288435  0.0930959264733779  0.1110813903087302   T   T   T
  0.3276992056799821  0.2317527908728403  0.1110085866734634   T   T   T
  0.3261857790993392  0.3750109799126956  0.1109943697210515   T   T   T
  0.3336693390664059  0.5223600103157902  0.1110399130598477   T   T   T
  0.3342382427822608  0.6657637784147376  0.1110998293378852   T   T   T
  0.3337537477520758  0.8088136265763854  0.1110598942306314   T   T   T
  0.4760829530962254  0.9522791399329996  0.1110011525042090   T   T   T
  0.4754179720351270  0.0949312380365522  0.1109983106562478   T   T   T
  0.4738637879728456  0.2367404929646981  0.1110037233245960   T   T   T
  0.4643849394192281  0.3695849542367537  0.1110213077555356   T   T   T
  0.4776420108812071  0.6663326821305925  0.1110399130598477   T   T   T
  0.4766429563637600  0.8093674965078190  0.1110538265537367   T   T   T
  0.6189534103799136  0.9535195727964511  0.1110030794080470   T   T   T
  0.6184250299516152  0.0961400206248413  0.1109824145524473   T   T   T
  0.6178325513528096  0.2391299860908676  0.1110156975058281   T   T   T
  0.6173447486184398  0.3826572725775643  0.1109935304060432   T   T   T
  0.6304170669592495  0.5356170817777691  0.1110213077555356   T   T   T
  0.6249910412833076  0.6738162420976589  0.1109943697210515   T   T   T
  0.6201563993095084  0.8118858458059046  0.1110105435802374   T   T   T
  0.7622481886196751  0.9540558273699757  0.1110123772647873   T   T   T
  0.7613162864106441  0.0962932890576281  0.1110417675367775   T   T   T
  0.7608947805016746  0.2391072406943291  0.1110533671825340   T   T   T
  0.7608720351051362  0.3821694698431948  0.1110156975058281   T   T   T
  0.7632615282313060  0.5261382332241523  0.1110037233245960   T   T   T
  0.7682492303231631  0.6723028155170157  0.1110085866734634   T   T   T
  0.7650169029226495  0.8132773233750571  0.1110198401091183   T   T   T
  0.9533024839728297  0.9060099694782029  0.1109979869745585   T   T   T
  0.9518249160227735  0.0481764858952329  0.1110054602776163   T   T   T
  0.9511977857425894  0.1908925162976348  0.1110177789474961   T   T   T
  0.9513088885683245  0.3338594837702197  0.1109859908630148   T   T   T
  0.9521341514407263  0.4766918788911570  0.1109582804123139   T   T   T
  0.9531975137443471  0.6195716388068488  0.1110355098004587   T   T   T
  0.9536905579543531  0.7628228026792405  0.1110526430598177   T   T   T
  0.0954795566139672  0.9045218453040315  0.1109779443119543   T   T   T
  0.0939914324397955  0.0466989179451758  0.1109979869745585   T   T   T
  0.0928413715723628  0.1892366893049016  0.1109982624779175   T   T   T
  0.0936468005344896  0.3330145232147301  0.1109903188484843   T   T   T
  0.0953161045187279  0.4761772293411379  0.1110036948173508   T   T   T
  0.0959005413919423  0.6189444602832035  0.1110160580205554   T   T   T
  0.0959352248639131  0.7617644728909597  0.1109857155531553   T   T   T
  0.2382369290270461  0.9040661770540847  0.1109857155531553   T   T   T
  0.2371785992387652  0.0463108439636522  0.1110526430598177   T   T   T
  0.2342577308918909  0.1871216296352964  0.1110190526706397   T   T   T
  0.2334370107602788  0.3299492140464775  0.1109829261504598   T   T   T
  0.2383498179315291  0.4752029561985460  0.1110147163136571   T   T   T
  0.2390545486955440  0.6184347883185787  0.1110665406996884   T   T   T
  0.2386836565723560  0.7613177453456494  0.1110264104245267   T   T   T
  0.3810569416347949  0.9041008605260560  0.1110160580205554   T   T   T
  0.3804297631111487  0.0468038881736590  0.1110355098004587   T   T   T
  0.3789549864571026  0.1885897583874707  0.1110250276182228   T   T   T
  0.3731882684720776  0.3266588021707486  0.1109492063614086   T   T   T
  0.3767435961398973  0.4691737166085956  0.1109760856015087   T   T   T
  0.3825405088132787  0.6174608931047201  0.1110552085025297   T   T   T
  0.3815666135994204  0.7609468532224615  0.1110665406996884   T   T   T
  0.5238241725758593  0.9046852973992714  0.1110036948173508   T   T   T
  0.5233095230258392  0.0478672504772795  0.1109582804123139   T   T   T
  0.5225433458856138  0.1909752494880430  0.1109810755911588   T   T   T
  0.5210906575530262  0.3343743577288525  0.1109863301708187   T   T   T
  0.5308276853084010  0.6232578057781012  0.1109760856015087   T   T   T
  0.5247984457184511  0.7616515839864767  0.1110147163136571   T   T   T
  0.6669868787022665  0.9063546013835090  0.1109903188484843   T   T   T
  0.6661419181467773  0.0486925133496822  0.1109859908630148   T   T   T
  0.6655276664657064  0.1917957088320340  0.1109960287065659   T   T   T
  0.6647193799487057  0.3352820219682912  0.1110021875354087   T   T   T
  0.6656270441881438  0.4789107443639709  0.1109863301708187   T   T   T
  0.6733425997462487  0.6268131334459215  0.1109492063614086   T   T   T
  0.6700521878705180  0.7665643911577259  0.1109829261504598   T   T   T
  0.8107647126130978  0.9071600303456354  0.1109982624779174   T   T   T
  0.8091088856203636  0.0488036161754167  0.1110177789474961   T   T   T
  0.8084964298929322  0.1915049720250660  0.1110456824260778   T   T   T
  0.8082056930859641  0.3344737354512898  0.1109960287065659   T   T   T
  0.8090261524299547  0.4774580560313830  0.1109810755911588   T   T   T
  0.8114116435305281  0.6210464154608956  0.1110250276182228   T   T   T
  0.8128797722827024  0.7657436710261150  0.1110190526706397   T   T   T
  0.4948248096340807  0.5051772115629176  0.1116437088508475   T   T   T

  0.00000000E+00  0.00000000E+00  0.00000000E+00
  0.00000000E+00  0.00000000E+00  0.00000000E+00
  0.00000000E+00  0.00000000E+00  0.00000000E+00
  0.00000000E+00  0.00000000E+00  0.00000000E+00
  0.00000000E+00  0.00000000E+00  0.00000000E+00
  0.00000000E+00  0.00000000E+00  0.00000000E+00
  0.00000000E+00  0.00000000E+00  0.00000000E+00
  0.00000000E+00  0.00000000E+00  0.00000000E+00
  0.00000000E+00  0.00000000E+00  0.00000000E+00
  0.00000000E+00  0.00000000E+00  0.00000000E+00
  0.00000000E+00  0.00000000E+00  0.00000000E+00
  0.00000000E+00  0.00000000E+00  0.00000000E+00
  0.00000000E+00  0.00000000E+00  0.00000000E+00
  0.00000000E+00  0.00000000E+00  0.00000000E+00
  0.00000000E+00  0.00000000E+00  0.00000000E+00
  0.00000000E+00  0.00000000E+00  0.00000000E+00
  0.00000000E+00  0.00000000E+00  0.00000000E+00
  0.00000000E+00  0.00000000E+00  0.00000000E+00
  0.00000000E+00  0.00000000E+00  0.00000000E+00
  0.00000000E+00  0.00000000E+00  0.00000000E+00
  0.00000000E+00  0.00000000E+00  0.00000000E+00
  0.00000000E+00  0.00000000E+00  0.00000000E+00
  0.00000000E+00  0.00000000E+00  0.00000000E+00
  0.00000000E+00  0.00000000E+00  0.00000000E+00
  0.00000000E+00  0.00000000E+00  0.00000000E+00
  0.00000000E+00  0.00000000E+00  0.00000000E+00
  0.00000000E+00  0.00000000E+00  0.00000000E+00
  0.00000000E+00  0.00000000E+00  0.00000000E+00
  0.00000000E+00  0.00000000E+00  0.00000000E+00
  0.00000000E+00  0.00000000E+00  0.00000000E+00
  0.00000000E+00  0.00000000E+00  0.00000000E+00
  0.00000000E+00  0.00000000E+00  0.00000000E+00
  0.00000000E+00  0.00000000E+00  0.00000000E+00
  0.00000000E+00  0.00000000E+00  0.00000000E+00
  0.00000000E+00  0.00000000E+00  0.00000000E+00
  0.00000000E+00  0.00000000E+00  0.00000000E+00
  0.00000000E+00  0.00000000E+00  0.00000000E+00
  0.00000000E+00  0.00000000E+00  0.00000000E+00
  0.00000000E+00  0.00000000E+00  0.00000000E+00
  0.00000000E+00  0.00000000E+00  0.00000000E+00
  0.00000000E+00  0.00000000E+00  0.00000000E+00
  0.00000000E+00  0.00000000E+00  0.00000000E+00
  0.00000000E+00  0.00000000E+00  0.00000000E+00
  0.00000000E+00  0.00000000E+00  0.00000000E+00
  0.00000000E+00  0.00000000E+00  0.00000000E+00
  0.00000000E+00  0.00000000E+00  0.00000000E+00
  0.00000000E+00  0.00000000E+00  0.00000000E+00
  0.00000000E+00  0.00000000E+00  0.00000000E+00
  0.00000000E+00  0.00000000E+00  0.00000000E+00
  0.00000000E+00  0.00000000E+00  0.00000000E+00
  0.00000000E+00  0.00000000E+00  0.00000000E+00
  0.00000000E+00  0.00000000E+00  0.00000000E+00
  0.00000000E+00  0.00000000E+00  0.00000000E+00
  0.00000000E+00  0.00000000E+00  0.00000000E+00
  0.00000000E+00  0.00000000E+00  0.00000000E+00
  0.00000000E+00  0.00000000E+00  0.00000000E+00
  0.00000000E+00  0.00000000E+00  0.00000000E+00
  0.00000000E+00  0.00000000E+00  0.00000000E+00
  0.00000000E+00  0.00000000E+00  0.00000000E+00
  0.00000000E+00  0.00000000E+00  0.00000000E+00
  0.00000000E+00  0.00000000E+00  0.00000000E+00
  0.00000000E+00  0.00000000E+00  0.00000000E+00
  0.00000000E+00  0.00000000E+00  0.00000000E+00
  0.00000000E+00  0.00000000E+00  0.00000000E+00
  0.00000000E+00  0.00000000E+00  0.00000000E+00
  0.00000000E+00  0.00000000E+00  0.00000000E+00
  0.00000000E+00  0.00000000E+00  0.00000000E+00
  0.00000000E+00  0.00000000E+00  0.00000000E+00
  0.00000000E+00  0.00000000E+00  0.00000000E+00
  0.00000000E+00  0.00000000E+00  0.00000000E+00
  0.00000000E+00  0.00000000E+00  0.00000000E+00
  0.00000000E+00  0.00000000E+00  0.00000000E+00
  0.00000000E+00  0.00000000E+00  0.00000000E+00
  0.00000000E+00  0.00000000E+00  0.00000000E+00
  0.00000000E+00  0.00000000E+00  0.00000000E+00
  0.00000000E+00  0.00000000E+00  0.00000000E+00
  0.00000000E+00  0.00000000E+00  0.00000000E+00
  0.00000000E+00  0.00000000E+00  0.00000000E+00
  0.00000000E+00  0.00000000E+00  0.00000000E+00
  0.00000000E+00  0.00000000E+00  0.00000000E+00
  0.00000000E+00  0.00000000E+00  0.00000000E+00
  0.00000000E+00  0.00000000E+00  0.00000000E+00
  0.00000000E+00  0.00000000E+00  0.00000000E+00
  0.00000000E+00  0.00000000E+00  0.00000000E+00
  0.00000000E+00  0.00000000E+00  0.00000000E+00
  0.00000000E+00  0.00000000E+00  0.00000000E+00
  0.00000000E+00  0.00000000E+00  0.00000000E+00
  0.00000000E+00  0.00000000E+00  0.00000000E+00
  0.00000000E+00  0.00000000E+00  0.00000000E+00
  0.00000000E+00  0.00000000E+00  0.00000000E+00
  0.00000000E+00  0.00000000E+00  0.00000000E+00
  0.00000000E+00  0.00000000E+00  0.00000000E+00
  0.00000000E+00  0.00000000E+00  0.00000000E+00
  0.00000000E+00  0.00000000E+00  0.00000000E+00
  0.00000000E+00  0.00000000E+00  0.00000000E+00
  0.00000000E+00  0.00000000E+00  0.00000000E+00
  0.00000000E+00  0.00000000E+00  0.00000000E+00
