B N As                                  
   1.0000000000000000     
     8.7639499999999995  -15.1796066749929999    0.0000000000000000
     8.7639499999999995   15.1796066749929999    0.0000000000000000
     0.0000000000000000    0.0000000000000000   15.0000000000000000
   B    N    As
    48    48     1
Selective dynamics
Direct
  0.9054957613658587  0.9527034545021161  0.1190772587707954   T   T   T
  0.9045880058911960  0.0949572219258276  0.1188208722820253   T   T   T
  0.9044341280883919  0.2377184593934021  0.1170129404337256   T   T   T
  0.9049404417860103  0.3807524394772590  0.1149918223619766   T   T   T
  0.9061969073328382  0.5240415277762773  0.1148237467406806   T   T   T
  0.9066325861936402  0.6673391581717196  0.1155213919960484   T   T   T
  0.9061985209424053  0.8101160221468174  0.1175709954212158   T   T   T
  0.0480774235605222  0.9523177799948476  0.1196275561642154   T   T   T
  0.0471583498828326  0.0945280237338003  0.1191485273615071   T   T   T
  0.0466931881187022  0.2374212212608605  0.1164658801654802   T   T   T
  0.0468066848083970  0.3806876238329603  0.1137135716949279   T   T   T
  0.0476511282191817  0.5239265075215987  0.1133451533753952   T   T   T
  0.0484407907003086  0.6669709122475608  0.1152669720774818   T   T   T
  0.0485096253695449  0.8098042326802343  0.1179001299069403   T   T   T
  0.1907514750540231  0.9522487625816640  0.1179037323902771   T   T   T
  0.1901622463065943  0.0945077993697598  0.1167163424122384   T   T   T
  0.1883250164680629  0.2361326906432590  0.1131632830351273   T   T   T
  0.1881770684046913  0.3801277717158308  0.1086052499290146   T   T   T
  0.1890946733431395  0.5239032027522129  0.1081475806015650   T   T   T
  0.1905362821190504  0.6668981810858029  0.1109132335918400   T   T   T
  0.1908104523236384  0.8096348760444247  0.1154009805231421   T   T   T
  0.3333485434177801  0.9521779924996426  0.1152923881378813   T   T   T
  0.3332270013600206  0.0946895842887209  0.1144103844363260   T   T   T
  0.3318637791790476  0.2361755604276132  0.1072861795250768   T   T   T
  0.3271023806455119  0.3772198692981120  0.0964485988595582   T   T   T
  0.3296018648610438  0.5235897426861307  0.0952458950072178   T   T   T
  0.3329576921364497  0.6669069443767580  0.1035313654730103   T   T   T
  0.3332526460704423  0.8095889508934937  0.1109461092088049   T   T   T
  0.4760540264449356  0.9523270532784354  0.1132613850657698   T   T   T
  0.4761014868912690  0.0945845727775267  0.1139205520068639   T   T   T
  0.4761144805024072  0.2364240929474821  0.1101249564044327   T   T   T
  0.4721114250941091  0.3711097795974441  0.0983648324052358   T   T   T
  0.4760703202535778  0.6688454993849964  0.0982615410914065   T   T   T
  0.4760733483886552  0.8102738796735331  0.1078613020879540   T   T   T
  0.6190233774936632  0.9525488639826606  0.1135487641713055   T   T   T
  0.6189667663157051  0.0948602743224564  0.1149533562759044   T   T   T
  0.6193686518438286  0.2373873579590859  0.1124845527392495   T   T   T
  0.6210421561224030  0.3803366626169514  0.1071063032554736   T   T   T
  0.6326285999965547  0.5283013095513919  0.0861715811409844   T   T   T
  0.6239565574043877  0.6717236841846388  0.0995192687833270   T   T   T
  0.6197397456437135  0.8107437562675843  0.1090189239193162   T   T   T
  0.7622506236511091  0.9526896815175481  0.1162722839031561   T   T   T
  0.7617983296115717  0.0949987495055265  0.1170173583183911   T   T   T
  0.7619731334688311  0.2376405784317431  0.1153108360920992   T   T   T
  0.7629691555912543  0.3806182002500614  0.1128877241748659   T   T   T
  0.7656806682211598  0.5246057795682637  0.1111611592825779   T   T   T
  0.7652742865890175  0.6683556661266729  0.1093602640104421   T   T   T
  0.7641771436751179  0.8113793198920761  0.1137692208410218   T   T   T
  0.9529438933291577  0.9048906563626815  0.1194578477888502   T   T   T
  0.9523579820163541  0.0474502449117270  0.1197287918627833   T   T   T
  0.9518946627062930  0.1900485961784442  0.1180619564075106   T   T   T
  0.9519598604935924  0.3329451783843294  0.1156664184528812   T   T   T
  0.9526627594810748  0.4759983071680949  0.1146121519359581   T   T   T
  0.9531861123950034  0.6191289320365254  0.1155166960337684   T   T   T
  0.9532524615617940  0.7621398557409126  0.1173455586230391   T   T   T
  0.0957030285247253  0.9048452553469805  0.1190519156001616   T   T   T
  0.0953038940915207  0.0474224684018060  0.1193988293665667   T   T   T
  0.0941445143873891  0.1895099426815511  0.1173418264959065   T   T   T
  0.0939549863957424  0.3326821286704545  0.1133782119822299   T   T   T
  0.0945142916141115  0.4759458893095963  0.1119101877014583   T   T   T
  0.0954794093956464  0.6190776981416753  0.1133014465030352   T   T   T
  0.0957212040224562  0.7620225350330292  0.1165081562846145   T   T   T
  0.2383394647962977  0.9048025239693763  0.1166646651342465   T   T   T
  0.2383305250421145  0.0476200795784537  0.1168970605816860   T   T   T
  0.2375670166983118  0.1899729061060409  0.1125997371263758   T   T   T
  0.2346470244384907  0.3309418458378951  0.1078380711733249   T   T   T
  0.2357936466679142  0.4756024297937012  0.1049636628354983   T   T   T
  0.2379123089607064  0.6190615117623366  0.1069141778761315   T   T   T
  0.2382230193889668  0.7619684894717222  0.1122749077107503   T   T   T
  0.3809732806429535  0.9047210800165163  0.1133548071895305   T   T   T
  0.3810730730034984  0.0476115591935523  0.1150375073220555   T   T   T
  0.3811433887702908  0.1906051142025070  0.1104280322333057   T   T   T
  0.3795255308440157  0.3331936339902309  0.0981826814974631   T   T   T
  0.3701265482411749  0.4704385241064103  0.0842768947477703   T   T   T
  0.3807262849329228  0.6188427258742759  0.0968496890407012   T   T   T
  0.3809142850184041  0.7619211372099909  0.1069088996061531   T   T   T
  0.5238339856204696  0.9049982932427457  0.1116147242816787   T   T   T
  0.5238074984718012  0.0474865404786189  0.1144629332940160   T   T   T
  0.5240864710482855  0.1901876713301470  0.1120488702878596   T   T   T
  0.5254656470400746  0.3335322549545666  0.1073434449104668   T   T   T
  0.5297412059472409  0.6271576942487427  0.0932729841577185   T   T   T
  0.5242328848792631  0.7630453841524140  0.1052297052799902   T   T   T
  0.6669696904994428  0.9051595729193603  0.1132147650399642   T   T   T
  0.6666087016594578  0.0475040637358585  0.1156694741000734   T   T   T
  0.6667100271460836  0.1901844054823349  0.1144732527104985   T   T   T
  0.6674064388891582  0.3330677940958046  0.1110012102546970   T   T   T
  0.6696012816042042  0.4760506493905673  0.1039397848417476   T   T   T
  0.6689961522840653  0.6201964397328649  0.0977106354877347   T   T   T
  0.6693516863091162  0.7644676154853054  0.1086975642963613   T   T   T
  0.8104833337214230  0.9055168373304242  0.1171325255905227   T   T   T
  0.8094786168927675  0.0475090198353807  0.1179821075864626   T   T   T
  0.8093301844407540  0.1901392630996264  0.1170416080624079   T   T   T
  0.8097059939452887  0.3329731288810927  0.1144460259274621   T   T   T
  0.8108622567531598  0.4760156998648781  0.1137912828784606   T   T   T
  0.8110284527819491  0.6193885699594791  0.1124986724798819   T   T   T
  0.8107471978268552  0.7624874818841557  0.1145807493727781   T   T   T
  0.4866209596556019  0.5133810159430254  0.0669481005861983   T   T   T

  0.00000000E+00  0.00000000E+00  0.00000000E+00
  0.00000000E+00  0.00000000E+00  0.00000000E+00
  0.00000000E+00  0.00000000E+00  0.00000000E+00
  0.00000000E+00  0.00000000E+00  0.00000000E+00
  0.00000000E+00  0.00000000E+00  0.00000000E+00
  0.00000000E+00  0.00000000E+00  0.00000000E+00
  0.00000000E+00  0.00000000E+00  0.00000000E+00
  0.00000000E+00  0.00000000E+00  0.00000000E+00
  0.00000000E+00  0.00000000E+00  0.00000000E+00
  0.00000000E+00  0.00000000E+00  0.00000000E+00
  0.00000000E+00  0.00000000E+00  0.00000000E+00
  0.00000000E+00  0.00000000E+00  0.00000000E+00
  0.00000000E+00  0.00000000E+00  0.00000000E+00
  0.00000000E+00  0.00000000E+00  0.00000000E+00
  0.00000000E+00  0.00000000E+00  0.00000000E+00
  0.00000000E+00  0.00000000E+00  0.00000000E+00
  0.00000000E+00  0.00000000E+00  0.00000000E+00
  0.00000000E+00  0.00000000E+00  0.00000000E+00
  0.00000000E+00  0.00000000E+00  0.00000000E+00
  0.00000000E+00  0.00000000E+00  0.00000000E+00
  0.00000000E+00  0.00000000E+00  0.00000000E+00
  0.00000000E+00  0.00000000E+00  0.00000000E+00
  0.00000000E+00  0.00000000E+00  0.00000000E+00
  0.00000000E+00  0.00000000E+00  0.00000000E+00
  0.00000000E+00  0.00000000E+00  0.00000000E+00
  0.00000000E+00  0.00000000E+00  0.00000000E+00
  0.00000000E+00  0.00000000E+00  0.00000000E+00
  0.00000000E+00  0.00000000E+00  0.00000000E+00
  0.00000000E+00  0.00000000E+00  0.00000000E+00
  0.00000000E+00  0.00000000E+00  0.00000000E+00
  0.00000000E+00  0.00000000E+00  0.00000000E+00
  0.00000000E+00  0.00000000E+00  0.00000000E+00
  0.00000000E+00  0.00000000E+00  0.00000000E+00
  0.00000000E+00  0.00000000E+00  0.00000000E+00
  0.00000000E+00  0.00000000E+00  0.00000000E+00
  0.00000000E+00  0.00000000E+00  0.00000000E+00
  0.00000000E+00  0.00000000E+00  0.00000000E+00
  0.00000000E+00  0.00000000E+00  0.00000000E+00
  0.00000000E+00  0.00000000E+00  0.00000000E+00
  0.00000000E+00  0.00000000E+00  0.00000000E+00
  0.00000000E+00  0.00000000E+00  0.00000000E+00
  0.00000000E+00  0.00000000E+00  0.00000000E+00
  0.00000000E+00  0.00000000E+00  0.00000000E+00
  0.00000000E+00  0.00000000E+00  0.00000000E+00
  0.00000000E+00  0.00000000E+00  0.00000000E+00
  0.00000000E+00  0.00000000E+00  0.00000000E+00
  0.00000000E+00  0.00000000E+00  0.00000000E+00
  0.00000000E+00  0.00000000E+00  0.00000000E+00
  0.00000000E+00  0.00000000E+00  0.00000000E+00
  0.00000000E+00  0.00000000E+00  0.00000000E+00
  0.00000000E+00  0.00000000E+00  0.00000000E+00
  0.00000000E+00  0.00000000E+00  0.00000000E+00
  0.00000000E+00  0.00000000E+00  0.00000000E+00
  0.00000000E+00  0.00000000E+00  0.00000000E+00
  0.00000000E+00  0.00000000E+00  0.00000000E+00
  0.00000000E+00  0.00000000E+00  0.00000000E+00
  0.00000000E+00  0.00000000E+00  0.00000000E+00
  0.00000000E+00  0.00000000E+00  0.00000000E+00
  0.00000000E+00  0.00000000E+00  0.00000000E+00
  0.00000000E+00  0.00000000E+00  0.00000000E+00
  0.00000000E+00  0.00000000E+00  0.00000000E+00
  0.00000000E+00  0.00000000E+00  0.00000000E+00
  0.00000000E+00  0.00000000E+00  0.00000000E+00
  0.00000000E+00  0.00000000E+00  0.00000000E+00
  0.00000000E+00  0.00000000E+00  0.00000000E+00
  0.00000000E+00  0.00000000E+00  0.00000000E+00
  0.00000000E+00  0.00000000E+00  0.00000000E+00
  0.00000000E+00  0.00000000E+00  0.00000000E+00
  0.00000000E+00  0.00000000E+00  0.00000000E+00
  0.00000000E+00  0.00000000E+00  0.00000000E+00
  0.00000000E+00  0.00000000E+00  0.00000000E+00
  0.00000000E+00  0.00000000E+00  0.00000000E+00
  0.00000000E+00  0.00000000E+00  0.00000000E+00
  0.00000000E+00  0.00000000E+00  0.00000000E+00
  0.00000000E+00  0.00000000E+00  0.00000000E+00
  0.00000000E+00  0.00000000E+00  0.00000000E+00
  0.00000000E+00  0.00000000E+00  0.00000000E+00
  0.00000000E+00  0.00000000E+00  0.00000000E+00
  0.00000000E+00  0.00000000E+00  0.00000000E+00
  0.00000000E+00  0.00000000E+00  0.00000000E+00
  0.00000000E+00  0.00000000E+00  0.00000000E+00
  0.00000000E+00  0.00000000E+00  0.00000000E+00
  0.00000000E+00  0.00000000E+00  0.00000000E+00
  0.00000000E+00  0.00000000E+00  0.00000000E+00
  0.00000000E+00  0.00000000E+00  0.00000000E+00
  0.00000000E+00  0.00000000E+00  0.00000000E+00
  0.00000000E+00  0.00000000E+00  0.00000000E+00
  0.00000000E+00  0.00000000E+00  0.00000000E+00
  0.00000000E+00  0.00000000E+00  0.00000000E+00
  0.00000000E+00  0.00000000E+00  0.00000000E+00
  0.00000000E+00  0.00000000E+00  0.00000000E+00
  0.00000000E+00  0.00000000E+00  0.00000000E+00
  0.00000000E+00  0.00000000E+00  0.00000000E+00
  0.00000000E+00  0.00000000E+00  0.00000000E+00
  0.00000000E+00  0.00000000E+00  0.00000000E+00
  0.00000000E+00  0.00000000E+00  0.00000000E+00
  0.00000000E+00  0.00000000E+00  0.00000000E+00
