 N B Ge 
 1.0
 17.527899999999772   0.000000000000000   0.000000000000000
 -8.763949999999658  15.179606674993195   0.000000000000000
  0.000000000000001   0.000000000000002  15.000000000000000
 N B Ge 
  48  48   1
Cartesian
  8.798471698051500  13.747537492039735   1.659743531026200 
 16.301735130686204   0.746244243877789   1.660638225778050 
 15.051525799712643   2.926878791444569   1.661610562084455 
 13.795507894068178   5.091067473003861   1.660935205709340 
 12.513130965985418   7.243671068820817   1.659950746906530 
 11.277445282087395   9.393239057586911   1.660678440029085 
 10.044490256047606  11.560715355849220   1.660691181598965 
 -6.225890533821992  13.696337158076151   1.660139173567140 
  1.270547438107534   0.672906760834207   1.660396434202365 
  0.010793235237942   2.852263027416397   1.661332564471170 
 -1.200877356150553   5.076770787347328   1.660960615627965 
 -2.470606452830378   7.241931258685629   1.660499242713315 
 -3.725031910356966   9.391355965803500   1.659983552929230 
 -4.973834803995102  11.540798394275251   1.660167618771525 
 -3.709432115729661  13.689081051665870   1.661183828268675 
  3.796261222419766   0.642147480494335   1.660453945743630 
  2.512813368090888   2.757334663356929   1.660595252002260 
  1.274509603931131   4.945746686054247   1.662155263212495 
  0.070071640917248   7.251189678534251   1.660309586171430 
 -1.197810504334137   9.407525701073656   1.662514820037960 
 -2.456966462163281  11.550074173434528   1.660473418069440 
 -1.198251282955765  13.719829762434715   1.661393572781460 
  6.323009994891052   0.657173923365476   1.661987636863155 
  5.079759286739519   2.747001149303605   1.659742246858860 
  3.809958742107188   4.748349225120445   1.667070068459010 
  1.308250592963191   9.495851625942830   1.665308034390225 
  0.050935309774338  11.600555762126097   1.662710476514730 
  1.305592101595199  13.759183717750576   1.661314716233895 
  8.811991700037522   0.720015200586825   1.661531131389435 
  7.555196549821944   2.856891485252075   1.661213398943520 
  6.282249534006224   4.981293667043538   1.659240908859585 
  4.446864858477967   8.242117296097730   1.665821861742435 
  3.956686609431221   9.579169615665123   1.664723095762650 
  2.583110357299266  11.620057261326686   1.662837650263125 
  3.793452435329688  13.820274242185601   1.660643099141655 
 11.298229243274944   0.773193403602406   1.660537557309015 
 10.033455515783180   2.923123134661079   1.660680495403275 
  8.739131758573178   5.089386279790943   1.660590998890290 
  7.322061610820737   7.280644005620308   1.660446937575405 
  6.311729998294056   9.557126905314799   1.659436231856985 
  5.076174473327112  11.740848650988296   1.658782982780685 
  6.306598959181679  13.820134884869665   1.659120024978585 
 13.801989689465236   0.783523334300354   1.660455600339120 
 12.540586450526401   2.937294226166571   1.661259830511225 
 11.263667629728594   5.093548650405754   1.660910995732935 
  9.948292136167989   7.251205861393980   1.660243001985285 
  8.764314672795194   9.417536961708835   1.660227876866490 
  7.560124583569840  11.638940969726269   1.658524155808500 
  7.559624088109736  14.497310151824948   1.659887505591855 
 15.056645509793711   1.485519575861196   1.661107909476270 
 13.794802124822025   3.648827905322853   1.661827964849505 
 12.523633539237832   5.803211425354935   1.660980397531170 
 11.233522998035049   7.952385199118186   1.660340232632370 
 10.030501433117767  10.116677206262903   1.661218767844380 
  8.812943522136933  12.316091466553930   1.659935082650520 
 -7.474331441867813  14.426073496871263   1.660309715431695 
  0.029221854814442   1.419791774759082   1.661140015860165 
 -1.217147840906012   3.622181455918906   1.661822186808300 
 -2.469126776090212   5.797549111652644   1.660881220108590 
 -3.744466249885251   7.951632931841029   1.660282716758070 
 -4.986201263737587  10.102685048533250   1.660274136075690 
 -6.225811139427813  12.261644312151702   1.660442493959280 
 -4.966945938146491  14.395862627041954   1.660861836342810 
  2.531108124649797   1.341138741260534   1.660322563825440 
  1.271007810600030   3.503385645684598   1.661662345420440 
  0.067269076737289   5.773136369481306   1.660707739691895 
 -1.211956638438087   7.959762970769630   1.661589966112785 
 -2.467076724185691  10.112156099105766   1.661135059859235 
 -3.716975359873157  12.256028036770758   1.660735574766825 
 -2.454285719141724  14.411436018546766   1.662081135125355 
  5.070826171215869   1.336809218432911   1.660876940287005 
  3.807479871318595   3.367628356742554   1.663288321455120 
  2.605400124631617   5.391694468490069   1.667243945536050 
  1.245920742085233   8.094658663242914   1.656484667283630 
  0.033979548374398  10.178651629934901   1.664809726558275 
 -1.209917878602083  12.290668145911029   1.661448337060155 
  0.047183163546954  14.460229311282529   1.661623900478085 
  7.556761463371767   1.417555734849492   1.662256922712900 
  6.299721785004255   3.544678886664490   1.660144394066775 
  4.990912052046339   5.585627942386957   1.662071270365815 
  2.615063744531348  10.173122641385941   1.664112100955280 
  1.314424785269125  12.319867483042421   1.662841763185245 
  2.538080958248777  14.516291783610050   1.661122999173480 
 10.042366229658320   1.480058225126962   1.661041382469105 
  8.772123909266398   3.636867091722543   1.661066998027245 
  7.449658331237518   5.795184921395871   1.660387039121310 
  6.071641860653020   8.148355879733232   1.662149271163980 
  5.129595226093789  10.349483268536778   1.660670654707995 
  3.804438196169022  12.393632177269536   1.661289786734370 
  5.048032555916990  14.529683671839008   1.660113183694320 
 12.545861393203595   1.497996455946988   1.661049202749165 
 11.278241202640753   3.650662919884040   1.661072315946630 
  9.987337081101899   5.804115375246641   1.660974833959050 
  8.655523153273414   7.968086065667990   1.660256039917695 
  7.569751807942897  10.204799993883320   1.659272276349225 
  6.333064183069379  12.400633342785824   1.658687052677730 
  3.025307433817890   7.233081661288058   1.649152262598525 
