B C N                                   
   1.0000000000000000     
     8.7639499999999995  -15.1796066749929999    0.0000000000000000
     8.7639499999999995   15.1796066749929999    0.0000000000000000
     0.0000000000000000    0.0000000000000000   15.0000000000000000
   B    C    N 
    48     3    47
Selective dynamics
Direct
  0.9053840736870814  0.9528391150293465  0.1110185296832784   T   T   T
  0.9048061049779181  0.0952734028400960  0.1110523627600229   T   T   T
  0.9046994952329975  0.2380754593421393  0.1110616468601136   T   T   T
  0.9048025323378304  0.3809728177986100  0.1110101334805263   T   T   T
  0.9053914523954236  0.5239803633964190  0.1110184643873846   T   T   T
  0.9064741317871216  0.6672882017913443  0.1110832276262345   T   T   T
  0.9064671372001839  0.8106197582388824  0.1110598933268116   T   T   T
  0.0480048034771590  0.9525612378087333  0.1110238845781390   T   T   T
  0.0476487170327793  0.0952266316214658  0.1110213053598154   T   T   T
  0.0474664888945918  0.2380093197247924  0.1110098489540235   T   T   T
  0.0474601474154671  0.3808766786527084  0.1110317698713814   T   T   T
  0.0476578749720842  0.5238446464851813  0.1110228042488762   T   T   T
  0.0480303632505524  0.6668916391947687  0.1110403836933969   T   T   T
  0.0482450536469395  0.8098456873864133  0.1110186410308447   T   T   T
  0.1904305482627749  0.9521788419628905  0.1110132566895214   T   T   T
  0.1898762493261248  0.0944215318764482  0.1110712314373827   T   T   T
  0.1900330359478100  0.2376114438601976  0.1110165136164795   T   T   T
  0.1900296544174237  0.3807102449003089  0.1110252739918320   T   T   T
  0.1900403556828325  0.5238363761825747  0.1110776896585177   T   T   T
  0.1898989650608607  0.6668787830656966  0.1110733314375905   T   T   T
  0.1904490584566002  0.8096728314431073  0.1110068160444339   T   T   T
  0.3331258413426884  0.9522659997469773  0.1110360391169117   T   T   T
  0.3328562466735153  0.0943290913026646  0.1110915614184757   T   T   T
  0.3314988301666276  0.2355569758479927  0.1110582718957473   T   T   T
  0.3324855151336691  0.3797373032138346  0.1110477134116441   T   T   T
  0.3324913288364924  0.5241428372642071  0.1110696298396761   T   T   T
  0.3315118783203480  0.6673571241560410  0.1110909564228269   T   T   T
  0.3328793976117027  0.8099548221249324  0.1110657749130323   T   T   T
  0.4759989620725652  0.9526279529671059  0.1110230733088590   T   T   T
  0.4759967892900836  0.0947975011213614  0.1110206123424053   T   T   T
  0.4756470286922929  0.2366488573511645  0.1110573827128549   T   T   T
  0.4727702504979905  0.3759659672722627  0.1109540728444756   T   T   T
  0.4727758285719586  0.6682374554513768  0.1109057933952452   T   T   T
  0.4756564326313952  0.8104397811885133  0.1110499597014120   T   T   T
  0.6188431094725845  0.9524210448988983  0.1110311162627241   T   T   T
  0.6189545834512429  0.0952045748690216  0.1110119077587418   T   T   T
  0.6188481327122984  0.2378773955203220  0.1110240470205970   T   T   T
  0.6188322471464306  0.3808295389566974  0.1110064954686785   T   T   T
  0.6240021504520918  0.5277512300018589  0.1109396066449074   T   T   T
  0.6239965332813806  0.6676967165713616  0.1109275573321453   T   T   T
  0.6188520815147894  0.8094523988856449  0.1109948889858860   T   T   T
  0.7621370486280671  0.9524547912093780  0.1110200023430506   T   T   T
  0.7618691321505661  0.0952331465279794  0.1110613768260977   T   T   T
  0.7618674326324577  0.2380963109442267  0.1110651793664084   T   T   T
  0.7621301570840825  0.3811159881123967  0.1110241305159233   T   T   T
  0.7635812503593423  0.5245535441415189  0.1110532131954199   T   T   T
  0.7661798557715853  0.6688077074065578  0.1110442871638413   T   T   T
  0.7635889382152850  0.8104730738832495  0.1110309755960771   T   T   T
  0.4724455102583191  0.5219206119772103  0.1109348028779951   T   T   T
  0.5208167218832124  0.4777319810221388  0.1108300421063307   T   T   T
  0.5208092023218720  0.6145121228030745  0.1107868146703685   T   T   T
  0.9530064903369206  0.9053219293963032  0.1110130322678412   T   T   T
  0.9525454368795805  0.0478246824840218  0.1110133795779618   T   T   T
  0.9523734823873737  0.1904885256772876  0.1110346262639958   T   T   T
  0.9523712383053498  0.3333272415414992  0.1110193677896830   T   T   T
  0.9525509242030989  0.4761577893329849  0.1109719691900133   T   T   T
  0.9530195603845246  0.6191251518445550  0.1110289026737004   T   T   T
  0.9531990485073987  0.7623193958988688  0.1110485485095200   T   T   T
  0.0954561643759098  0.9048965317852284  0.1109854673377370   T   T   T
  0.0951442236990385  0.0475684433507260  0.1110260124929869   T   T   T
  0.0953058289642141  0.1905954946023045  0.1109854072768565   T   T   T
  0.0953276040804229  0.3333722699738822  0.1109969906387295   T   T   T
  0.0953104242801412  0.4761319107434837  0.1110257339072590   T   T   T
  0.0951610936750206  0.6190080490790276  0.1110317241579881   T   T   T
  0.0954682342915128  0.7620039309124762  0.1110004215507720   T   T   T
  0.2381051890053098  0.9047605794493522  0.1109905251171378   T   T   T
  0.2379369055044643  0.0473888799561351  0.1110529381292190   T   T   T
  0.2372790901306114  0.1896701914391937  0.1110411063135844   T   T   T
  0.2382835468367390  0.3335131875988631  0.1110102860822822   T   T   T
  0.2382856503939060  0.4761701696797474  0.1110548961043229   T   T   T
  0.2372914891011330  0.6190257383450920  0.1110765562197718   T   T   T
  0.2379575769904319  0.7619723704498783  0.1110315339170708   T   T   T
  0.3808647519694744  0.9048599383737500  0.1110250936506719   T   T   T
  0.3808572541046840  0.0474185014159462  0.1110385470428907   T   T   T
  0.3805123658930465  0.1898238617894559  0.1110634967243175   T   T   T
  0.3791773503338016  0.3312502113092817  0.1110207497487718   T   T   T
  0.3811835696968748  0.4762904023441425  0.1110476410440062   T   T   T
  0.3791806829971139  0.6193354861610906  0.1110211181487575   T   T   T
  0.3805259856083592  0.7621100973917558  0.1110610783809081   T   T   T
  0.5236407593099531  0.9050100357975033  0.1110277426041816   T   T   T
  0.5237772440482873  0.0476050517221554  0.1109753926593987   T   T   T
  0.5236381061188979  0.1900661636356154  0.1110212045214950   T   T   T
  0.5229283907270019  0.3321816470888044  0.1109984454575476   T   T   T
  0.5229424553753097  0.7621893254310933  0.1109732001109186   T   T   T
  0.6662884072012359  0.9040010304244995  0.1110008220980658   T   T   T
  0.6665353775220999  0.0474311239578238  0.1110184408973541   T   T   T
  0.6665363900104639  0.1905584237921948  0.1110251218804443   T   T   T
  0.6662813762210031  0.3337320394302229  0.1110010063797812   T   T   T
  0.6673271371869283  0.4772512629152399  0.1109963000664492   T   T   T
  0.6716686994189568  0.6215600828177178  0.1109708877042049   T   T   T
  0.6673355796033783  0.7615236719539510  0.1109883185263350   T   T   T
  0.8099479259129873  0.9050250950490915  0.1110049502473108   T   T   T
  0.8093872921500522  0.0474145115309129  0.1110327839728991   T   T   T
  0.8094152748575412  0.1904372387541580  0.1110556701199469   T   T   T
  0.8093868119031219  0.3334214839529522  0.1110251842643283   T   T   T
  0.8099469847453865  0.4763622251828896  0.1110197877821693   T   T   T
  0.8113374144090729  0.6195648797341109  0.1110569342107786   T   T   T
  0.8113364160003411  0.7632087514556704  0.1110363620342788   T   T   T

  0.00000000E+00  0.00000000E+00  0.00000000E+00
  0.00000000E+00  0.00000000E+00  0.00000000E+00
  0.00000000E+00  0.00000000E+00  0.00000000E+00
  0.00000000E+00  0.00000000E+00  0.00000000E+00
  0.00000000E+00  0.00000000E+00  0.00000000E+00
  0.00000000E+00  0.00000000E+00  0.00000000E+00
  0.00000000E+00  0.00000000E+00  0.00000000E+00
  0.00000000E+00  0.00000000E+00  0.00000000E+00
  0.00000000E+00  0.00000000E+00  0.00000000E+00
  0.00000000E+00  0.00000000E+00  0.00000000E+00
  0.00000000E+00  0.00000000E+00  0.00000000E+00
  0.00000000E+00  0.00000000E+00  0.00000000E+00
  0.00000000E+00  0.00000000E+00  0.00000000E+00
  0.00000000E+00  0.00000000E+00  0.00000000E+00
  0.00000000E+00  0.00000000E+00  0.00000000E+00
  0.00000000E+00  0.00000000E+00  0.00000000E+00
  0.00000000E+00  0.00000000E+00  0.00000000E+00
  0.00000000E+00  0.00000000E+00  0.00000000E+00
  0.00000000E+00  0.00000000E+00  0.00000000E+00
  0.00000000E+00  0.00000000E+00  0.00000000E+00
  0.00000000E+00  0.00000000E+00  0.00000000E+00
  0.00000000E+00  0.00000000E+00  0.00000000E+00
  0.00000000E+00  0.00000000E+00  0.00000000E+00
  0.00000000E+00  0.00000000E+00  0.00000000E+00
  0.00000000E+00  0.00000000E+00  0.00000000E+00
  0.00000000E+00  0.00000000E+00  0.00000000E+00
  0.00000000E+00  0.00000000E+00  0.00000000E+00
  0.00000000E+00  0.00000000E+00  0.00000000E+00
  0.00000000E+00  0.00000000E+00  0.00000000E+00
  0.00000000E+00  0.00000000E+00  0.00000000E+00
  0.00000000E+00  0.00000000E+00  0.00000000E+00
  0.00000000E+00  0.00000000E+00  0.00000000E+00
  0.00000000E+00  0.00000000E+00  0.00000000E+00
  0.00000000E+00  0.00000000E+00  0.00000000E+00
  0.00000000E+00  0.00000000E+00  0.00000000E+00
  0.00000000E+00  0.00000000E+00  0.00000000E+00
  0.00000000E+00  0.00000000E+00  0.00000000E+00
  0.00000000E+00  0.00000000E+00  0.00000000E+00
  0.00000000E+00  0.00000000E+00  0.00000000E+00
  0.00000000E+00  0.00000000E+00  0.00000000E+00
  0.00000000E+00  0.00000000E+00  0.00000000E+00
  0.00000000E+00  0.00000000E+00  0.00000000E+00
  0.00000000E+00  0.00000000E+00  0.00000000E+00
  0.00000000E+00  0.00000000E+00  0.00000000E+00
  0.00000000E+00  0.00000000E+00  0.00000000E+00
  0.00000000E+00  0.00000000E+00  0.00000000E+00
  0.00000000E+00  0.00000000E+00  0.00000000E+00
  0.00000000E+00  0.00000000E+00  0.00000000E+00
  0.00000000E+00  0.00000000E+00  0.00000000E+00
  0.00000000E+00  0.00000000E+00  0.00000000E+00
  0.00000000E+00  0.00000000E+00  0.00000000E+00
  0.00000000E+00  0.00000000E+00  0.00000000E+00
  0.00000000E+00  0.00000000E+00  0.00000000E+00
  0.00000000E+00  0.00000000E+00  0.00000000E+00
  0.00000000E+00  0.00000000E+00  0.00000000E+00
  0.00000000E+00  0.00000000E+00  0.00000000E+00
  0.00000000E+00  0.00000000E+00  0.00000000E+00
  0.00000000E+00  0.00000000E+00  0.00000000E+00
  0.00000000E+00  0.00000000E+00  0.00000000E+00
  0.00000000E+00  0.00000000E+00  0.00000000E+00
  0.00000000E+00  0.00000000E+00  0.00000000E+00
  0.00000000E+00  0.00000000E+00  0.00000000E+00
  0.00000000E+00  0.00000000E+00  0.00000000E+00
  0.00000000E+00  0.00000000E+00  0.00000000E+00
  0.00000000E+00  0.00000000E+00  0.00000000E+00
  0.00000000E+00  0.00000000E+00  0.00000000E+00
  0.00000000E+00  0.00000000E+00  0.00000000E+00
  0.00000000E+00  0.00000000E+00  0.00000000E+00
  0.00000000E+00  0.00000000E+00  0.00000000E+00
  0.00000000E+00  0.00000000E+00  0.00000000E+00
  0.00000000E+00  0.00000000E+00  0.00000000E+00
  0.00000000E+00  0.00000000E+00  0.00000000E+00
  0.00000000E+00  0.00000000E+00  0.00000000E+00
  0.00000000E+00  0.00000000E+00  0.00000000E+00
  0.00000000E+00  0.00000000E+00  0.00000000E+00
  0.00000000E+00  0.00000000E+00  0.00000000E+00
  0.00000000E+00  0.00000000E+00  0.00000000E+00
  0.00000000E+00  0.00000000E+00  0.00000000E+00
  0.00000000E+00  0.00000000E+00  0.00000000E+00
  0.00000000E+00  0.00000000E+00  0.00000000E+00
  0.00000000E+00  0.00000000E+00  0.00000000E+00
  0.00000000E+00  0.00000000E+00  0.00000000E+00
  0.00000000E+00  0.00000000E+00  0.00000000E+00
  0.00000000E+00  0.00000000E+00  0.00000000E+00
  0.00000000E+00  0.00000000E+00  0.00000000E+00
  0.00000000E+00  0.00000000E+00  0.00000000E+00
  0.00000000E+00  0.00000000E+00  0.00000000E+00
  0.00000000E+00  0.00000000E+00  0.00000000E+00
  0.00000000E+00  0.00000000E+00  0.00000000E+00
  0.00000000E+00  0.00000000E+00  0.00000000E+00
  0.00000000E+00  0.00000000E+00  0.00000000E+00
  0.00000000E+00  0.00000000E+00  0.00000000E+00
  0.00000000E+00  0.00000000E+00  0.00000000E+00
  0.00000000E+00  0.00000000E+00  0.00000000E+00
  0.00000000E+00  0.00000000E+00  0.00000000E+00
  0.00000000E+00  0.00000000E+00  0.00000000E+00
  0.00000000E+00  0.00000000E+00  0.00000000E+00
  0.00000000E+00  0.00000000E+00  0.00000000E+00
