B C N                                   
   1.0000000000000000     
     8.7639499999999995  -15.1796066749929999    0.0000000000000000
     8.7639499999999995   15.1796066749929999    0.0000000000000000
     0.0000000000000000    0.0000000000000000   15.0000000000000000
   B    C    N 
    48     2    46
Selective dynamics
Direct
  0.9054430034345430  0.9528175784016885  0.1112433860052889   T   T   T
  0.9045993951622842  0.0954717034427375  0.1112618805003108   T   T   T
  0.9043555393854830  0.2385256888035113  0.1113485796613292   T   T   T
  0.9043062287682119  0.3813750310758663  0.1112395426399208   T   T   T
  0.9042557049839659  0.5238588283417631  0.1113273491687809   T   T   T
  0.9045268037064413  0.6665946233101493  0.1113456239428082   T   T   T
  0.9058010264202470  0.8099552513521973  0.1113625305459955   T   T   T
  0.0481059018054225  0.9519789999714058  0.1114479917560000   T   T   T
  0.0472596823113117  0.0946365541925016  0.1109487243396064   T   T   T
  0.0471372904801430  0.2378172827682401  0.1108563565425819   T   T   T
  0.0478243190957290  0.3809802367636997  0.1109027084783856   T   T   T
  0.0490155906679251  0.5233353506219154  0.1111093898957583   T   T   T
  0.0484099208955740  0.6659544838463161  0.1114003890730664   T   T   T
  0.0484079268367856  0.8089729288441557  0.1116365294428736   T   T   T
  0.1911118828279467  0.9516859889858098  0.1115075799373218   T   T   T
  0.1901264377783385  0.0942917220851543  0.1111075729418364   T   T   T
  0.1889205659929624  0.2362548685024661  0.1107311055905103   T   T   T
  0.1900906892760933  0.3800639068659308  0.1106413931144239   T   T   T
  0.1944895540001745  0.5226397769699443  0.1106137165129465   T   T   T
  0.1924978033550271  0.6651682578679518  0.1110193223395664   T   T   T
  0.1916727922763689  0.8084186388043338  0.1114101049758456   T   T   T
  0.3341330619563335  0.9516865669782124  0.1112860398698728   T   T   T
  0.3334881393276976  0.0955790196685504  0.1112249336264660   T   T   T
  0.3317692099720079  0.2383121064627338  0.1108976668855995   T   T   T
  0.3289599439979509  0.3788155479236197  0.1106176734573136   T   T   T
  0.3422480877325553  0.5188733621248682  0.1104923226398111   T   T   T
  0.3366810230919158  0.6634147488567170  0.1106348995362278   T   T   T
  0.3349207539458379  0.8075927321379317  0.1110534296105909   T   T   T
  0.4767520456900480  0.9510739189489318  0.1109671454938004   T   T   T
  0.4762205849114705  0.0958373679600277  0.1111340741763687   T   T   T
  0.4755747593889791  0.2407169192054612  0.1111063611247565   T   T   T
  0.4729183262767167  0.3855122520707611  0.1108091049318127   T   T   T
  0.4812104126281398  0.6578558896330372  0.1105247358943682   T   T   T
  0.4774526926669636  0.8056068768897997  0.1107207408576207   T   T   T
  0.6191054299228322  0.9522689023038287  0.1106768069774931   T   T   T
  0.6187068150600483  0.0957784349179859  0.1110146752852608   T   T   T
  0.6181444488430302  0.2396223486823652  0.1112875146928074   T   T   T
  0.6167015058908002  0.3833948852775738  0.1113087099870347   T   T   T
  0.6146173947944659  0.5272013446448469  0.1110021922992096   T   T   T
  0.6212932736450787  0.6711396207937825  0.1103201652462316   T   T   T
  0.6200276168837500  0.8100053956871192  0.1102385765779048   T   T   T
  0.7622597695488967  0.9529448289401264  0.1107822461130890   T   T   T
  0.7615614703589055  0.0957339958990780  0.1112184433361399   T   T   T
  0.7611591903947773  0.2389198335850591  0.1113789958369069   T   T   T
  0.7604590609549206  0.3819320798686989  0.1114447989632518   T   T   T
  0.7593882519275108  0.5245138622051414  0.1112797696713278   T   T   T
  0.7618044757990321  0.6683296206993612  0.1108872735985637   T   T   T
  0.7638299226932974  0.8111603815765626  0.1106078019329748   T   T   T
  0.4676425702912214  0.5325210963956645  0.1103274538201461   T   T   T
  0.5141036693932579  0.4860492450018867  0.1107317613687711   T   T   T
  0.9530090769190254  0.9050044404061957  0.1114335805466120   T   T   T
  0.9523213493782918  0.0477600194460298  0.1111815352263946   T   T   T
  0.9520320692274045  0.1907049505264501  0.1112578522486463   T   T   T
  0.9523702875259621  0.3338219593555155  0.1111231753563933   T   T   T
  0.9529841500942817  0.4765616704747411  0.1112190991611236   T   T   T
  0.9527120942351743  0.6191044010801465  0.1113597111004572   T   T   T
  0.9530219651280765  0.7619253055053001  0.1115531699930458   T   T   T
  0.0958219019581388  0.9042512265047649  0.1116350804394052   T   T   T
  0.0950795417710776  0.0470762384187669  0.1111001727574975   T   T   T
  0.0942442566762420  0.1896795508489371  0.1106172072512523   T   T   T
  0.0952366927586512  0.3331997130382602  0.1107356210178618   T   T   T
  0.0979206493543483  0.4760538896963003  0.1108324583735986   T   T   T
  0.0968469132940170  0.6184583884736211  0.1112180633614257   T   T   T
  0.0962457942389020  0.7612309328585989  0.1114939544594271   T   T   T
  0.2388460709217955  0.9038304964409959  0.1114567393511154   T   T   T
  0.2381474143374318  0.0470637383478740  0.1112840909449004   T   T   T
  0.2368494096528577  0.1895038932958702  0.1108891875296158   T   T   T
  0.2359489290367262  0.3316188445455234  0.1107311893863699   T   T   T
  0.2441994138607907  0.4750140013360230  0.1104671648443973   T   T   T
  0.2411247673391428  0.6174120701766428  0.1106280694680547   T   T   T
  0.2396250698686879  0.7604573444128992  0.1111687967103222   T   T   T
  0.3816316481883218  0.9032471343283632  0.1111064096529078   T   T   T
  0.3809689773838683  0.0473788296762558  0.1112181915364618   T   T   T
  0.3800391280912981  0.1912736812845335  0.1110739554580751   T   T   T
  0.3773512477962199  0.3343499519053195  0.1106373360618737   T   T   T
  0.3852977264295706  0.6148031224462687  0.1105253965560798   T   T   T
  0.3826715473379387  0.7589649893921694  0.1108267607336485   T   T   T
  0.5240337377656105  0.9021706938443389  0.1107706998945577   T   T   T
  0.5235247554052330  0.0471084823114324  0.1109780229338831   T   T   T
  0.5228817548557444  0.1916997010882887  0.1111750346762623   T   T   T
  0.5213646277169818  0.3364421458663874  0.1110345146607221   T   T   T
  0.5250762084823705  0.7559005132126585  0.1104916789425256   T   T   T
  0.6668805804608436  0.9048582640269783  0.1103481853602278   T   T   T
  0.6662649147488572  0.0477287329295170  0.1109243462725259   T   T   T
  0.6658448656254135  0.1913116662619854  0.1111765817962427   T   T   T
  0.6650486636800925  0.3350487285546043  0.1114414092726249   T   T   T
  0.6636800275080526  0.4787531734269062  0.1113135856555324   T   T   T
  0.6657831207314404  0.6227623949351295  0.1107169280172902   T   T   T
  0.6684685083902918  0.7641307310872206  0.1100654686136889   T   T   T
  0.8103928417023121  0.9058301176470015  0.1109248466832602   T   T   T
  0.8093860316188806  0.0480610434305832  0.1111591782003132   T   T   T
  0.8090223252344906  0.1910722095238606  0.1114580717571799   T   T   T
  0.8087819198006714  0.3342489533970570  0.1113748980241925   T   T   T
  0.8083954798694881  0.4772123252973545  0.1113742326415556   T   T   T
  0.8088393205259102  0.6200509416123512  0.1110728113582406   T   T   T
  0.8105960795786077  0.7632334066763734  0.1108946505573277   T   T   T

  0.00000000E+00  0.00000000E+00  0.00000000E+00
  0.00000000E+00  0.00000000E+00  0.00000000E+00
  0.00000000E+00  0.00000000E+00  0.00000000E+00
  0.00000000E+00  0.00000000E+00  0.00000000E+00
  0.00000000E+00  0.00000000E+00  0.00000000E+00
  0.00000000E+00  0.00000000E+00  0.00000000E+00
  0.00000000E+00  0.00000000E+00  0.00000000E+00
  0.00000000E+00  0.00000000E+00  0.00000000E+00
  0.00000000E+00  0.00000000E+00  0.00000000E+00
  0.00000000E+00  0.00000000E+00  0.00000000E+00
  0.00000000E+00  0.00000000E+00  0.00000000E+00
  0.00000000E+00  0.00000000E+00  0.00000000E+00
  0.00000000E+00  0.00000000E+00  0.00000000E+00
  0.00000000E+00  0.00000000E+00  0.00000000E+00
  0.00000000E+00  0.00000000E+00  0.00000000E+00
  0.00000000E+00  0.00000000E+00  0.00000000E+00
  0.00000000E+00  0.00000000E+00  0.00000000E+00
  0.00000000E+00  0.00000000E+00  0.00000000E+00
  0.00000000E+00  0.00000000E+00  0.00000000E+00
  0.00000000E+00  0.00000000E+00  0.00000000E+00
  0.00000000E+00  0.00000000E+00  0.00000000E+00
  0.00000000E+00  0.00000000E+00  0.00000000E+00
  0.00000000E+00  0.00000000E+00  0.00000000E+00
  0.00000000E+00  0.00000000E+00  0.00000000E+00
  0.00000000E+00  0.00000000E+00  0.00000000E+00
  0.00000000E+00  0.00000000E+00  0.00000000E+00
  0.00000000E+00  0.00000000E+00  0.00000000E+00
  0.00000000E+00  0.00000000E+00  0.00000000E+00
  0.00000000E+00  0.00000000E+00  0.00000000E+00
  0.00000000E+00  0.00000000E+00  0.00000000E+00
  0.00000000E+00  0.00000000E+00  0.00000000E+00
  0.00000000E+00  0.00000000E+00  0.00000000E+00
  0.00000000E+00  0.00000000E+00  0.00000000E+00
  0.00000000E+00  0.00000000E+00  0.00000000E+00
  0.00000000E+00  0.00000000E+00  0.00000000E+00
  0.00000000E+00  0.00000000E+00  0.00000000E+00
  0.00000000E+00  0.00000000E+00  0.00000000E+00
  0.00000000E+00  0.00000000E+00  0.00000000E+00
  0.00000000E+00  0.00000000E+00  0.00000000E+00
  0.00000000E+00  0.00000000E+00  0.00000000E+00
  0.00000000E+00  0.00000000E+00  0.00000000E+00
  0.00000000E+00  0.00000000E+00  0.00000000E+00
  0.00000000E+00  0.00000000E+00  0.00000000E+00
  0.00000000E+00  0.00000000E+00  0.00000000E+00
  0.00000000E+00  0.00000000E+00  0.00000000E+00
  0.00000000E+00  0.00000000E+00  0.00000000E+00
  0.00000000E+00  0.00000000E+00  0.00000000E+00
  0.00000000E+00  0.00000000E+00  0.00000000E+00
  0.00000000E+00  0.00000000E+00  0.00000000E+00
  0.00000000E+00  0.00000000E+00  0.00000000E+00
  0.00000000E+00  0.00000000E+00  0.00000000E+00
  0.00000000E+00  0.00000000E+00  0.00000000E+00
  0.00000000E+00  0.00000000E+00  0.00000000E+00
  0.00000000E+00  0.00000000E+00  0.00000000E+00
  0.00000000E+00  0.00000000E+00  0.00000000E+00
  0.00000000E+00  0.00000000E+00  0.00000000E+00
  0.00000000E+00  0.00000000E+00  0.00000000E+00
  0.00000000E+00  0.00000000E+00  0.00000000E+00
  0.00000000E+00  0.00000000E+00  0.00000000E+00
  0.00000000E+00  0.00000000E+00  0.00000000E+00
  0.00000000E+00  0.00000000E+00  0.00000000E+00
  0.00000000E+00  0.00000000E+00  0.00000000E+00
  0.00000000E+00  0.00000000E+00  0.00000000E+00
  0.00000000E+00  0.00000000E+00  0.00000000E+00
  0.00000000E+00  0.00000000E+00  0.00000000E+00
  0.00000000E+00  0.00000000E+00  0.00000000E+00
  0.00000000E+00  0.00000000E+00  0.00000000E+00
  0.00000000E+00  0.00000000E+00  0.00000000E+00
  0.00000000E+00  0.00000000E+00  0.00000000E+00
  0.00000000E+00  0.00000000E+00  0.00000000E+00
  0.00000000E+00  0.00000000E+00  0.00000000E+00
  0.00000000E+00  0.00000000E+00  0.00000000E+00
  0.00000000E+00  0.00000000E+00  0.00000000E+00
  0.00000000E+00  0.00000000E+00  0.00000000E+00
  0.00000000E+00  0.00000000E+00  0.00000000E+00
  0.00000000E+00  0.00000000E+00  0.00000000E+00
  0.00000000E+00  0.00000000E+00  0.00000000E+00
  0.00000000E+00  0.00000000E+00  0.00000000E+00
  0.00000000E+00  0.00000000E+00  0.00000000E+00
  0.00000000E+00  0.00000000E+00  0.00000000E+00
  0.00000000E+00  0.00000000E+00  0.00000000E+00
  0.00000000E+00  0.00000000E+00  0.00000000E+00
  0.00000000E+00  0.00000000E+00  0.00000000E+00
  0.00000000E+00  0.00000000E+00  0.00000000E+00
  0.00000000E+00  0.00000000E+00  0.00000000E+00
  0.00000000E+00  0.00000000E+00  0.00000000E+00
  0.00000000E+00  0.00000000E+00  0.00000000E+00
  0.00000000E+00  0.00000000E+00  0.00000000E+00
  0.00000000E+00  0.00000000E+00  0.00000000E+00
  0.00000000E+00  0.00000000E+00  0.00000000E+00
  0.00000000E+00  0.00000000E+00  0.00000000E+00
  0.00000000E+00  0.00000000E+00  0.00000000E+00
  0.00000000E+00  0.00000000E+00  0.00000000E+00
  0.00000000E+00  0.00000000E+00  0.00000000E+00
  0.00000000E+00  0.00000000E+00  0.00000000E+00
  0.00000000E+00  0.00000000E+00  0.00000000E+00
