B N S                                   
   1.0000000000000000     
     8.7639499999999995  -15.1796066749929999    0.0000000000000000
     8.7639499999999995   15.1796066749929999    0.0000000000000000
     0.0000000000000000    0.0000000000000000   15.0000000000000000
   B    N    S 
    49    47     1
Selective dynamics
Direct
  0.9070979652796690  0.9537780231842187  0.1110090580992076   T   T   T
  0.9034818753259105  0.0938703221761142  0.1111158161293243   T   T   T
  0.9025765167727720  0.2362579730443911  0.1110931678890330   T   T   T
  0.9032522121020132  0.3797468645039269  0.1110034809948650   T   T   T
  0.9060432182000342  0.5239490952786141  0.1110431147598229   T   T   T
  0.9097490561976097  0.6686094461399570  0.1110182471292536   T   T   T
  0.9107774521234115  0.8131825652478301  0.1109947432258544   T   T   T
  0.0503293618117528  0.9541711745591013  0.1109369119598726   T   T   T
  0.0477208872431895  0.0954732554269335  0.1109750141132455   T   T   T
  0.0449665136680750  0.2363790640522316  0.1109723438331652   T   T   T
  0.0444559036380053  0.3792669867645299  0.1109233188927389   T   T   T
  0.0459030711338157  0.5232917781739506  0.1109567168249472   T   T   T
  0.0491000132555791  0.6674844988194977  0.1110408142100626   T   T   T
  0.0508943031364844  0.8113304392332871  0.1110239228911195   T   T   T
  0.1924517867778198  0.9536644335788821  0.1109810937003373   T   T   T
  0.1907494615345266  0.0955910961883662  0.1110014362582294   T   T   T
  0.1885586168452454  0.2376262193772684  0.1110020511836819   T   T   T
  0.1856480345414202  0.3785533151247826  0.1109427896259839   T   T   T
  0.1854724652160251  0.5227731383570359  0.1109796456618477   T   T   T
  0.1889789822277378  0.6667388433860241  0.1110358381974577   T   T   T
  0.1919236293387090  0.8103921219500773  0.1110153294598132   T   T   T
  0.3344122095859572  0.9526576241091927  0.1110212367863431   T   T   T
  0.3343092738053637  0.0961818465628442  0.1110750058952085   T   T   T
  0.3308161645321744  0.2372506267010572  0.1110530224185853   T   T   T
  0.3294592053231699  0.3802075319144428  0.1109251271708467   T   T   T
  0.3229664492044025  0.5217447725409822  0.1110056214380620   T   T   T
  0.3287327186808634  0.6660593571750908  0.1110611720748635   T   T   T
  0.3334361667608107  0.8091866601189950  0.1110511308745222   T   T   T
  0.4762365193686446  0.9496683067694011  0.1109950474393697   T   T   T
  0.4765785415422100  0.0942440444018030  0.1110242130800990   T   T   T
  0.4768840741056704  0.2381999455047008  0.1110293640265068   T   T   T
  0.4694010497335590  0.3741389529213748  0.1111655626829315   T   T   T
  0.4625947181068204  0.5479105715608367  0.1109322047551243   T   T   T
  0.4664190547606585  0.6537520910703093  0.1110057307946121   T   T   T
  0.4751983281250154  0.8036631456131650  0.1110147831691563   T   T   T
  0.6179613998528986  0.9489888191826671  0.1110714963857970   T   T   T
  0.6183476375243258  0.0931792474989515  0.1110590055979171   T   T   T
  0.6187964744147291  0.2372257050871434  0.1109661818957211   T   T   T
  0.6195977410929363  0.3811811744171373  0.1109211796705073   T   T   T
  0.6366575150806986  0.5352744473040175  0.1109134789148885   T   T   T
  0.6338669950599802  0.6724172198906671  0.1111012687588218   T   T   T
  0.6182589683979488  0.8049784602033079  0.1110633682358923   T   T   T
  0.7613006368978437  0.9505105384178518  0.1111366784060548   T   T   T
  0.7603857226816627  0.0930315715230869  0.1111918565762352   T   T   T
  0.7606335546823578  0.2364756924691149  0.1110965223181294   T   T   T
  0.7619300107685726  0.3804151796447021  0.1109794826822206   T   T   T
  0.7666829879336655  0.5251634017967846  0.1109223719318850   T   T   T
  0.7740262894591887  0.6731988275693203  0.1108803108761909   T   T   T
  0.7676785407191784  0.8124945967307665  0.1110425729606026   T   T   T
  0.9559204749279101  0.9074035381184592  0.1109671028611634   T   T   T
  0.9528061163087697  0.0481087311370135  0.1110265505108016   T   T   T
  0.9501134146698093  0.1887769938500480  0.1110678755235982   T   T   T
  0.9498652088524824  0.3314802603007104  0.1110002865316515   T   T   T
  0.9515519543892410  0.4751235069958464  0.1109986476863631   T   T   T
  0.9548833071083926  0.6194593874541645  0.1110667241133078   T   T   T
  0.9565755226623448  0.7639886022070278  0.1110335516016234   T   T   T
  0.0976809425518545  0.9063354579750237  0.1109551003103242   T   T   T
  0.0961060677256756  0.0486115114673598  0.1109423038434397   T   T   T
  0.0936898684657949  0.1900960777180748  0.1109917089871375   T   T   T
  0.0913906102918757  0.3312718459754677  0.1109173878388690   T   T   T
  0.0915529429599624  0.4746054357087338  0.1109116367409397   T   T   T
  0.0946041151482998  0.6186859636547012  0.1110045348560290   T   T   T
  0.0972291299970263  0.7627801852973508  0.1110364303719357   T   T   T
  0.2395096963341868  0.9054403038043938  0.1109972825108210   T   T   T
  0.2391146560664330  0.0485514642705859  0.1110252342067227   T   T   T
  0.2363120217902070  0.1901071436679806  0.1110264955339330   T   T   T
  0.2345961681101333  0.3327370745892547  0.1109593158786901   T   T   T
  0.2306099123284976  0.4736640915151233  0.1110090930302990   T   T   T
  0.2343776855956187  0.6179926551391389  0.1110362257510526   T   T   T
  0.2383911915086903  0.7619084497928917  0.1110507536176924   T   T   T
  0.3813222146082939  0.9039903259185644  0.1110193997872481   T   T   T
  0.3815787204222534  0.0476580195411373  0.1110554686953698   T   T   T
  0.3808587621915921  0.1910976014556415  0.1110861119432869   T   T   T
  0.3751047372906496  0.3316247380911632  0.1110273113035531   T   T   T
  0.3736163375063218  0.4779143301774516  0.1108623301604674   T   T   T
  0.3729769827315522  0.6167100640863781  0.1110697951652136   T   T   T
  0.3799783170586068  0.7603575957628748  0.1110467483835482   T   T   T
  0.5228460343663590  0.8999784009719580  0.1110074613611419   T   T   T
  0.5234656081406027  0.0452908761706669  0.1110035058106071   T   T   T
  0.5239080191498187  0.1895151910930689  0.1109945109627693   T   T   T
  0.5244379845697277  0.3329447712509398  0.1110021867410038   T   T   T
  0.5211996422268855  0.7516061359077990  0.1110102693706688   T   T   T
  0.6651889496411341  0.9007619258416261  0.1110951058310813   T   T   T
  0.6652672019505194  0.0446031703330761  0.1111251996876791   T   T   T
  0.6657511138275189  0.1887203052107305  0.1110435654306899   T   T   T
  0.6667097369521233  0.3329729018458348  0.1109310946146260   T   T   T
  0.6722702727676254  0.4779340785115293  0.1108768590635910   T   T   T
  0.6818006006553320  0.6281662231094913  0.1108509491886524   T   T   T
  0.6723945255902922  0.7641893600394243  0.1110835616119788   T   T   T
  0.8121647009569181  0.9063312722459697  0.1110712719864958   T   T   T
  0.8081290313907955  0.0456274787187804  0.1111891288085665   T   T   T
  0.8076567246191700  0.1883466967946034  0.1111739851197116   T   T   T
  0.8083767067950811  0.3318864811052596  0.1110314819903147   T   T   T
  0.8115939006462236  0.4759341580559006  0.1110021836806686   T   T   T
  0.8160858817169072  0.6211557725369038  0.1109329251678745   T   T   T
  0.8170482303390426  0.7669128128756815  0.1109709561877309   T   T   T
  0.5239611466450759  0.4901451946278481  0.1115866904591556   T   T   T

  0.00000000E+00  0.00000000E+00  0.00000000E+00
  0.00000000E+00  0.00000000E+00  0.00000000E+00
  0.00000000E+00  0.00000000E+00  0.00000000E+00
  0.00000000E+00  0.00000000E+00  0.00000000E+00
  0.00000000E+00  0.00000000E+00  0.00000000E+00
  0.00000000E+00  0.00000000E+00  0.00000000E+00
  0.00000000E+00  0.00000000E+00  0.00000000E+00
  0.00000000E+00  0.00000000E+00  0.00000000E+00
  0.00000000E+00  0.00000000E+00  0.00000000E+00
  0.00000000E+00  0.00000000E+00  0.00000000E+00
  0.00000000E+00  0.00000000E+00  0.00000000E+00
  0.00000000E+00  0.00000000E+00  0.00000000E+00
  0.00000000E+00  0.00000000E+00  0.00000000E+00
  0.00000000E+00  0.00000000E+00  0.00000000E+00
  0.00000000E+00  0.00000000E+00  0.00000000E+00
  0.00000000E+00  0.00000000E+00  0.00000000E+00
  0.00000000E+00  0.00000000E+00  0.00000000E+00
  0.00000000E+00  0.00000000E+00  0.00000000E+00
  0.00000000E+00  0.00000000E+00  0.00000000E+00
  0.00000000E+00  0.00000000E+00  0.00000000E+00
  0.00000000E+00  0.00000000E+00  0.00000000E+00
  0.00000000E+00  0.00000000E+00  0.00000000E+00
  0.00000000E+00  0.00000000E+00  0.00000000E+00
  0.00000000E+00  0.00000000E+00  0.00000000E+00
  0.00000000E+00  0.00000000E+00  0.00000000E+00
  0.00000000E+00  0.00000000E+00  0.00000000E+00
  0.00000000E+00  0.00000000E+00  0.00000000E+00
  0.00000000E+00  0.00000000E+00  0.00000000E+00
  0.00000000E+00  0.00000000E+00  0.00000000E+00
  0.00000000E+00  0.00000000E+00  0.00000000E+00
  0.00000000E+00  0.00000000E+00  0.00000000E+00
  0.00000000E+00  0.00000000E+00  0.00000000E+00
  0.00000000E+00  0.00000000E+00  0.00000000E+00
  0.00000000E+00  0.00000000E+00  0.00000000E+00
  0.00000000E+00  0.00000000E+00  0.00000000E+00
  0.00000000E+00  0.00000000E+00  0.00000000E+00
  0.00000000E+00  0.00000000E+00  0.00000000E+00
  0.00000000E+00  0.00000000E+00  0.00000000E+00
  0.00000000E+00  0.00000000E+00  0.00000000E+00
  0.00000000E+00  0.00000000E+00  0.00000000E+00
  0.00000000E+00  0.00000000E+00  0.00000000E+00
  0.00000000E+00  0.00000000E+00  0.00000000E+00
  0.00000000E+00  0.00000000E+00  0.00000000E+00
  0.00000000E+00  0.00000000E+00  0.00000000E+00
  0.00000000E+00  0.00000000E+00  0.00000000E+00
  0.00000000E+00  0.00000000E+00  0.00000000E+00
  0.00000000E+00  0.00000000E+00  0.00000000E+00
  0.00000000E+00  0.00000000E+00  0.00000000E+00
  0.00000000E+00  0.00000000E+00  0.00000000E+00
  0.00000000E+00  0.00000000E+00  0.00000000E+00
  0.00000000E+00  0.00000000E+00  0.00000000E+00
  0.00000000E+00  0.00000000E+00  0.00000000E+00
  0.00000000E+00  0.00000000E+00  0.00000000E+00
  0.00000000E+00  0.00000000E+00  0.00000000E+00
  0.00000000E+00  0.00000000E+00  0.00000000E+00
  0.00000000E+00  0.00000000E+00  0.00000000E+00
  0.00000000E+00  0.00000000E+00  0.00000000E+00
  0.00000000E+00  0.00000000E+00  0.00000000E+00
  0.00000000E+00  0.00000000E+00  0.00000000E+00
  0.00000000E+00  0.00000000E+00  0.00000000E+00
  0.00000000E+00  0.00000000E+00  0.00000000E+00
  0.00000000E+00  0.00000000E+00  0.00000000E+00
  0.00000000E+00  0.00000000E+00  0.00000000E+00
  0.00000000E+00  0.00000000E+00  0.00000000E+00
  0.00000000E+00  0.00000000E+00  0.00000000E+00
  0.00000000E+00  0.00000000E+00  0.00000000E+00
  0.00000000E+00  0.00000000E+00  0.00000000E+00
  0.00000000E+00  0.00000000E+00  0.00000000E+00
  0.00000000E+00  0.00000000E+00  0.00000000E+00
  0.00000000E+00  0.00000000E+00  0.00000000E+00
  0.00000000E+00  0.00000000E+00  0.00000000E+00
  0.00000000E+00  0.00000000E+00  0.00000000E+00
  0.00000000E+00  0.00000000E+00  0.00000000E+00
  0.00000000E+00  0.00000000E+00  0.00000000E+00
  0.00000000E+00  0.00000000E+00  0.00000000E+00
  0.00000000E+00  0.00000000E+00  0.00000000E+00
  0.00000000E+00  0.00000000E+00  0.00000000E+00
  0.00000000E+00  0.00000000E+00  0.00000000E+00
  0.00000000E+00  0.00000000E+00  0.00000000E+00
  0.00000000E+00  0.00000000E+00  0.00000000E+00
  0.00000000E+00  0.00000000E+00  0.00000000E+00
  0.00000000E+00  0.00000000E+00  0.00000000E+00
  0.00000000E+00  0.00000000E+00  0.00000000E+00
  0.00000000E+00  0.00000000E+00  0.00000000E+00
  0.00000000E+00  0.00000000E+00  0.00000000E+00
  0.00000000E+00  0.00000000E+00  0.00000000E+00
  0.00000000E+00  0.00000000E+00  0.00000000E+00
  0.00000000E+00  0.00000000E+00  0.00000000E+00
  0.00000000E+00  0.00000000E+00  0.00000000E+00
  0.00000000E+00  0.00000000E+00  0.00000000E+00
  0.00000000E+00  0.00000000E+00  0.00000000E+00
  0.00000000E+00  0.00000000E+00  0.00000000E+00
  0.00000000E+00  0.00000000E+00  0.00000000E+00
  0.00000000E+00  0.00000000E+00  0.00000000E+00
  0.00000000E+00  0.00000000E+00  0.00000000E+00
  0.00000000E+00  0.00000000E+00  0.00000000E+00
  0.00000000E+00  0.00000000E+00  0.00000000E+00
