 B Sb N 
 1.0
 17.527899999999772   0.000000000000000   0.000000000000000
 -8.763949999999658  15.179606674993195   0.000000000000000
  0.000000000000001   0.000000000000002  15.000000000000000
 B Sb N 
  48   1  49
Cartesian
  7.511738538864831  14.458873176994578   1.556506540340370 
 15.023375981608648   1.448307224167134   1.532580865585380 
 13.770863895225759   3.617306031507276   1.534730903718450 
 12.519614417958557   5.785575949080481   1.552905927465450 
 11.270719458054842   7.953577673039915   1.573346640007350 
 10.017003673294344  10.119737783328796   1.598498604765645 
  8.762596844800324  12.288468895072644   1.594847064362595 
 -7.512520833005140  14.452883147939023   1.583095960261830 
 -0.001811442963295   1.441005207508991   1.563909567789840 
 -1.253701054422661   3.613883761761776   1.564389284198805 
 -2.505390763646232   5.784443029571043   1.585179039951630 
 -3.754544543100811   7.952280016587476   1.597015144693845 
 -5.005999106773840  10.119737783328796   1.596305831678850 
 -6.259150112674538  12.285965146507309   1.596027538080765 
 -5.007639736174582  14.450242280234169   1.596517516698945 
  2.502910928858288   1.437357079970743   1.594309159132725 
  1.246006401887114   3.601238412510157   1.609384017478215 
 -0.005492008723312   5.782191795122052   1.655602693332615 
 -1.252713426589808   7.952429003225555   1.670884813930665 
 -2.499740938654366  10.119737783328796   1.645904724219240 
 -3.753845276106577  12.284642398326154   1.609889134586715 
 -2.500540287801737  14.450800608174720   1.595472223323390 
  5.007424677798455   1.434799580168698   1.596371379107550 
  3.751447511708561   3.600220988047291   1.663573612249380 
  2.478060670147650   5.763950934146757   1.826177882187480 
  1.247606041288749   7.948485754733229   1.876577741219745 
  0.008736839584158  10.119737783328796   1.771641452035680 
 -1.250464901398532  12.285606525632998   1.646036746488540 
 -0.000662495726443  14.457554252026334   1.590162682567320 
  7.512767896594731   1.438585121737891   1.571278483024260 
  6.261712440923933   3.592523502876656   1.624193817070395 
  5.011531764459152   5.718045575274995   1.867728565644090 
  2.512188465141912  10.158346343542870   1.963487720495505 
  1.250047406058398  12.298114144727219   1.670532584399505 
  2.501809047732229  14.464438061096670   1.574759311888725 
 10.014417865061121   1.447983051196179   1.547972210452305 
  8.762632454162564   3.612319111087764   1.559192904330720 
  7.515010526593296   5.779897309020812   1.659657203197110 
  6.297916922970321   7.978228299661994   1.880907288217740 
  4.987442356100407  10.165840970323080   1.932610757614380 
  3.752224274885349  12.305524725491015   1.670442927038865 
  5.006845524305447  14.464034092874003   1.553118015036750 
 12.518675379360459   1.450381036298785   1.528139123114100 
 11.266752164822933   3.617379921995621   1.532487737271690 
 10.016380672039869   5.786157225573233   1.559680197025215 
  8.772418227692414   7.958210890044653   1.630453317192000 
  7.505872877824450  10.127526360060932   1.694852679022485 
  6.258438053452108  12.299576822498244   1.611606382318980 
  3.769183501209358   7.913232998347601   3.599659739550615 
  8.763362546203464  13.733051850459342   1.575084641425755 
 16.274789590855757   0.723341841889471   1.546261608295710 
 15.022157186147773   2.893677497206121   1.536574713805080 
 13.771177293046463   5.059868891664398   1.552631692507110 
 12.519674840173423   7.230169288298066   1.569392436759180 
 11.266956116737692   9.397671494996548   1.584511431355605 
 10.015342056351390  11.564855542694797   1.595862524743830 
 -6.260077126652969  13.730192613335557   1.595449977031095 
  1.251031273096374   0.717955511799545   1.580172301596210 
 -0.004172825628529   2.884614544082929   1.570264510141890 
 -1.255839118739689   5.059868891664398   1.593516114996360 
 -2.505322150879769   7.229004089415130   1.613170220767365 
 -3.754299519340069   9.396893748348695   1.609549360011675 
 -5.007469396695106  11.563491747694753   1.600472555526885 
 -3.755447263321716  13.729850438092031   1.600703937847470 
  3.755818846556230   0.715776519286025   1.595754335421435 
  2.501873715884627   2.881478968762961   1.614751435142160 
  1.241034899167945   5.041411963754421   1.659541750715310 
 -0.006140779856423   7.227808536016719   1.702698511354110 
 -1.248113842511232   9.397707818526154   1.698937824550290 
 -2.502706866935952  11.563934984550459   1.634189475582285 
 -1.251349072898652  13.732415988685069   1.606527105140640 
  6.260433484578267   0.717824730860209   1.584285505785975 
  5.007206096112691   2.881839307528344   1.621944945673830 
  3.750336079763418   5.042103741741298   1.782976329953490 
  2.429319892199492   7.162107092522912   2.070741046221480 
  1.258624810392166   9.402524063846247   1.915406673948030 
  0.000975988190789  11.567203648540714   1.702901062709490 
  1.249795556219205  13.742642804389133   1.601256589510665 
  8.763694920085827   0.723734804117992   1.565487885273705 
  7.513496006069879   2.884866571425428   1.572044930552895 
  6.264925971482722   5.039528656901548   1.697396966325450 
  5.124332286313786   7.143568798042514   2.194534865763525 
  3.759495868348582   9.537552541717426   2.256238448396730 
  2.498625117729277  11.590498730826246   1.726660456555950 
  3.754296966532181  13.748251205958288   1.586240010536490 
 11.263562234024716   0.730413503112626   1.542972455061810 
 10.013608041859069   2.895397671077315   1.539941731204995 
  8.763949999999962   5.059868891664398   1.573397699129145 
  7.518473040670102   7.232356677191764   1.697085771104745 
  6.252328393535162   9.410125123449346   1.856687838592530 
  5.010296291653097  11.590613191738372   1.683053448488940 
  6.260495467978955  13.742210828748840   1.557131251914750 
 13.770914029615515   0.729601446752365   1.527068774557935 
 12.517681742584415   2.896422326312076   1.523255026643385 
 11.264957047278036   5.063648674785888   1.540779199192965 
 10.016555924066495   7.231008194223993   1.574831772031920 
  8.759034019235260   9.399907460674644   1.632227442793980 
  7.510317614248716  11.568614516996627   1.626227752052100 
