 Al B N 
 1.0
 14.936314146199660   0.000000000000000   0.000000000000000
 -7.468157073099825  12.935227489513863   0.000000000000000
  0.000000000000001   0.000000000000001  13.341276283792837
 Al B N 
   1 144 143
Cartesian
  4.978771382066589   5.748989995339477   5.002978606422314 
  1.224566589158012   0.693625859535205   5.002978606422314 
  4.978771382069180   7.523461930019166   5.002978606422314 
  6.228138551161392   0.696245781208886   5.002978606422314 
  9.979259814875014   7.193378395312111   5.002978606422314 
 11.207442839423134   0.721630144929083   5.002978606422314 
 -3.734266393838222   9.342000282974773  11.673616748318732 
  1.244849204037433   9.341035734905986  11.673616748318732 
  2.491783634990792   2.876193039035949  11.673616748318732 
  6.223192652605499   9.339183041354387  11.673616748318732 
  7.465759129143026   2.876193039035949  11.673616748318732 
 12.446928455165491   2.875029440045056  11.673616748318732 
 -1.251308821999852   9.345928478231674   5.002978606422314 
 -0.026277441511563   2.859323709738885   5.002978606422314 
  4.978771382066894   2.845385781566087   5.002978606422314 
  3.690009353123092   9.440599855550307   5.002978606422314 
  8.729892645778325   9.357345809496087   5.002978606422314 
  9.983820205646007   2.859323709738885   5.002978606422314 
 -4.978492716505674  11.497819103043037  11.673616748318732 
 -0.000278665560895  11.497819103043037  11.673616748318732 
  1.247362364454191   5.031593905624771  11.673616748318732 
  6.221352334511407   5.031585547955555  11.673616748318732 
  4.978771382063140  11.495934563753176  11.673616748318732 
 11.201337664262944   5.031059362296880  11.673616748318732 
 -1.276404781374391   5.025435341572526   5.002978606422314 
 -2.489385691033231  11.490340519073301   5.002978606422314 
  2.477800011535201  11.527908784910933   5.002978606422314 
  3.442033608330052   4.861754027999626   5.002978606422314 
  7.479742752596322  11.527908784910933   5.002978606422314 
  8.820180316344391   5.019285721731113   5.002978606422314 
  0.001007431032735   7.186638587484714  11.673616748318732 
  1.245742074599397   0.719054834746870  11.673616748318732 
  4.978771382066590   7.183798890107321  11.673616748318732 
  6.222613155071642   0.719295663629646  11.673616748318732 
  9.956535333100174   7.186638587484714  11.673616748318732 
 -2.489385691031262   7.191903888302689   5.002978606422314 
 11.201772768977090   0.718356528230080  11.673616748318732 
  3.729404212968979   0.696245781208873   5.002978606422314 
  2.464176370404544   7.200792102224560   5.002978606422314 
  7.493366393730084   7.200792102224560   5.002978606422314 
  8.732976174977416   0.693625859535205   5.002978606422314 
  2.490686852884567   7.185486268030443  11.673616748318732 
 13.686414070911340   0.721630144929083   5.002978606422314 
 -1.244504988231738   9.342000282974773  11.673616748318732 
  0.001771391681488   2.875517711133444  11.673616748318732 
  4.978771382066782   2.875997449960729  11.673616748318732 
  3.734350111534628   9.339183041354387  11.673616748318732 
  8.712693560095149   9.341035734905986  11.673616748318732 
  9.955771372449894   2.875517711133444  11.673616748318732 
 -3.727462560071169   9.345928478231674   5.002978606422314 
  1.227650118351536   9.357345809496087   5.002978606422314 
  2.426124476733716   2.787084408735330   5.002978606422314 
  6.267533411012000   9.440599855550307   5.002978606422314 
  7.531418287399024   2.787084408735330   5.002978606422314 
 12.446928455168702   2.868482206646141   5.002978606422314 
 -1.243794900128476   5.031059362296893  11.673616748318732 
 -2.489385691033230  11.498196909589026  11.673616748318732 
  2.489234407335050  11.496855788978150  11.673616748318732 
  3.736190429622644   5.031585547955697  11.673616748318732 
  7.468308356793218  11.496855788978150  11.673616748318732 
 -4.973864140801104  11.495146793614071   5.002978606422314 
  8.710180399677283   5.031593905624771  11.673616748318732 
 -0.004907241266838  11.495146793614071   5.002978606422314 
  1.137362447790196   5.019285721731074   5.002978606422314 
 -0.021717050744196   7.193378395312111   5.002978606422314 
  6.515509155804304   4.861754027999626   5.002978606422314 
  4.978771382069063  11.528322566537049   5.002978606422314 
 11.233947545506119   5.025435341572526   5.002978606422314 
 -2.489385691033247   7.186559269448177  11.673616748318732 
  3.734929609062054   0.719295663629646  11.673616748318732 
  7.466855911246475   7.185486268030443  11.673616748318732 
  8.711800689532641   0.719054834746870  11.673616748318732 
 13.692084141355833   0.718356528230080  11.673616748318732 
 -0.000416516883127   1.437646290324273   1.678244596904078 
  3.741709542166564   7.901674517647310   1.654934562319044 
  4.978771382066661   1.444497423483969   1.663139913657723 
  8.706571299694392   7.901236281267372   1.663139913657723 
  9.957959281016919   1.437646290324286   1.678244596904078 
 -4.981099793914341  10.059715862772542   8.334940037273222 
  0.002328411849625  10.059715862772542   8.334940037273222 
  1.245309696505344   3.593474886172345   8.348286870230725 
  4.978771382067688  10.060020213673830   8.348286870230725 
  6.224519944766418   3.601320754783798   8.351022650524611 
 11.202098504528328   3.592558637141221   8.327712615939483 
 -2.489385691033300  10.060732491844131   1.675719896688625 
 -1.244555740397931   3.592558637141220   1.678244596904078 
  3.733022819366310   3.601320754783797   1.654934562319084 
  2.492245092149413  10.059464688112097   1.662154836847214 
  7.465297671983842  10.059464688112097   1.662154836847214 
  8.712233067627562   3.593474886172344   1.657670342615156 
 -6.224414844039420  12.217152578761054   8.332373364641899 
 -1.244409066192871  12.219128518442680   8.334940037273222 
  0.002527650796025   5.747147583199662   8.343802375998909 
  4.978771382066590   5.748989995339477   8.192270059036778 
  3.734632158553749  12.216765058551990   8.327712615939483 
  9.955015113336055   5.747147583199649   8.343802375998909 
 -2.489385691033481   5.747892318003769   1.673583848203742 
 -3.734362315872098  12.219128518442680   1.671017175572247 
  1.245643461977006  12.217152578761054   1.673583848203742 
  2.495960979469258   5.743974713590141   1.654934562319044 
  6.222910605579954  12.216765058551990   1.678244596904078 
  7.461581784667384   5.743974713590141   1.654934562319084 
 -1.242648212991968   7.903353094318364   8.334940037273222 
 -0.000416516883127   1.437646290324274   8.327712615939483 
  3.741709542166565   7.901674517647311   8.351022650524611 
  4.978771382066677   1.444497423483944   8.342817299188624 
  8.706571299694371   7.901236281267412   8.342817299188624 
 -3.736123169076858   7.903353094318363   1.671017175572247 
  9.957959281016926   1.437646290324274   8.327712615939483 
  2.489053940713849   1.440357714706219   1.662154836847214 
  1.250971464438322   7.901236281267372   1.663139913657723 
  6.215833221964584   7.901674517647310   1.654934562319084 
  7.468488823419443   1.440357714706219   1.662154836847214 
  1.250971464438323   7.901236281267373   8.342817299188624 
 12.446928455166319   1.437247498834911   1.688235756989287 
 -2.489385691033300  10.060732491844131   8.330237316154602 
 -1.244555740397931   3.592558637141221   8.327712615939483 
  3.733022819366311   3.601320754783798   8.351022650524611 
  2.492245092149406  10.059464688112110   8.343802375998909 
  7.465297671983842  10.059464688112097   8.343802375998909 
  8.712233067627562   3.593474886172345   8.348286870230725 
 -4.981099793914357  10.059715862772542   1.671017175572247 
  0.002328411849624  10.059715862772542   1.671017175572247 
  1.245309696505344   3.593474886172344   1.657670342615156 
  4.978771382067687  10.060020213673830   1.657670342615156 
  6.224519944766417   3.601320754783797   1.654934562319044 
 11.202098504528328   3.592558637141220   1.678244596904078 
 -2.489385691033480   5.747892318003770   8.332373364641899 
 -3.734362315872097  12.219128518442680   8.334940037273222 
  1.245643461977007  12.217152578761054   8.332373364641899 
  2.495960979469259   5.743974713590142   8.351022650524611 
  6.222910605579955  12.216765058551990   8.327712615939483 
 -6.224414844039421  12.217152578761054   1.673583848203742 
  7.461581784667385   5.743974713590142   8.351022650524824 
 -1.244409066192872  12.219128518442680   1.671017175572247 
  0.002527650796025   5.747147583199661   1.662154836847214 
 -1.242648212991968   7.903353094318363   1.671017175572247 
  4.978771382066589   5.748989995339476   1.813687153809170 
  3.734632158553748  12.216765058551990   1.678244596904078 
  9.955015113336046   5.747147583199661   1.662154836847214 
 -3.736123169076843   7.903353094318364   8.334940037273222 
  2.489053940713842   1.440357714706233   8.343802375998909 
  6.215833221964584   7.901674517647311   8.351022650524611 
  7.468488823419444   1.440357714706220   8.343802375998909 
 12.446928455166319   1.437247498834912   8.317721455857022 
  1.243561514532346   0.718240050363769   1.669441664083724 
  4.978771382064580   7.194338916880893   1.647216785924421 
  6.223786529472037   0.718792722024115   1.661081764097646 
  9.957557580507245   7.185873886249516   1.661081764097566 
 11.202837231468227   0.718971095936406   1.683060347155496 
 -3.734197919884339   9.342039816423819   8.333998766636018 
  1.245000331030704   9.342303377747267   8.344875448747516 
  2.486318326978155   2.872743966394302   8.361845519147167 
  6.223446983120034   9.345640673260400   8.361845519147167 
  7.471224437156573   2.872743966394302   8.361845519147167 
 12.446928455169157   2.873800304631870   8.322896865690639 
 -1.244573462179377   9.342039816423819   1.671958446207756 
 -0.002186616093461   2.873232554279449   1.668975819805500 
  4.978771382066983   2.874746352275969   1.653082857563604 
  3.734095781010814   9.345640673260400   1.644111693699610 
  8.712542433102580   9.342303377747267   1.661081764097620 
  9.959729380225694   2.873232554279449   1.668975819805514 
 -4.979072087484765  11.498153603033989   8.336477232558170 
  0.000300705417928  11.498153603033989   8.336477232558170 
  1.241642725921687   5.028585346365450   8.361845519147167 
  6.230480265452168   5.026315534568762   8.358740426920354 
  4.978771382066038  11.500504877458599   8.336981393039087 
 11.203133568266301   5.029578334076895   8.336515548762572 
 -1.245590804136949   5.029578334076894   1.669441664083750 
 -2.489385691033240  11.498117842681781   1.671958446207730 
  2.489619063398333  11.499151601577470   1.669441664083710 
  3.727062498677588   5.026315534568761   1.647216785924381 
  7.467923700732863  11.499151601577470   1.669441664083724 
  8.715900038209323   5.028585346365449   1.644111693699610 
 -0.000014816374786   7.185873886249517   8.344875448747516 
  1.243561514532346   0.718240050363770   8.336515548762572 
  4.978771382064581   7.194338916880894   8.358740426920354 
  6.223786529472038   0.718792722024116   8.344875448747516 
  9.957557580507245   7.185873886249517   8.344875448747516 
 -2.489385691033667   7.185890269467587   1.669479980287072 
 11.202837231468212   0.718971095936433   8.322896865690639 
  3.733756234661882   0.718792722024115   1.661081764097606 
  2.489603370506968   7.186111816873138   1.653082857563604 
  7.467939393623340   7.186111816873138   1.653082857563604 
  8.713981249601066   0.718240050363769   1.669441664083724 
  2.489603370507222   7.186111816873139   8.352874355282664 
 13.691019678867136   0.718971095936419   1.683060347155469 
 -1.244573462179377   9.342039816423819   8.333998766636018 
 -0.002186616093460   2.873232554279450   8.336981393039087 
  4.978771382066983   2.874746352275970   8.352874355282664 
  3.734095781010815   9.345640673260400   8.361845519147167 
  8.712542433102580   9.342303377747267   8.344875448747516 
  9.959729380225694   2.873232554279450   8.336981393039087 
 -3.734197919884340   9.342039816423819   1.671958446207730 
  1.245000331030703   9.342303377747267   1.661081764097566 
  2.486318326978155   2.872743966394301   1.644111693699623 
  6.223446983120033   9.345640673260400   1.644111693699623 
  7.471224437156573   2.872743966394301   1.644111693699623 
 12.446928455169157   2.873800304631869   1.683060347155483 
 -1.245590804136948   5.029578334076895   8.336515548762572 
 -2.489385691033239  11.498117842681781   8.333998766636018 
  2.489619063398333  11.499151601577470   8.336515548762572 
  3.727062498677588   5.026315534568762   8.358740426920393 
  7.467923700732864  11.499151601577470   8.336515548762572 
 -4.979072087484766  11.498153603033989   1.669479980287072 
  8.715900038209323   5.028585346365450   8.361845519147167 
  0.000300705417928  11.498153603033989   1.669479980287072 
  1.241642725921686   5.028585346365449   1.644111693699623 
 -0.000014816374787   7.185873886249516   1.661081764097606 
  6.230480265451883   5.026315534568761   1.647216785924367 
  4.978771382066038  11.500504877458599   1.668975819805514 
 11.203133568266301   5.029578334076894   1.669441664083710 
 -2.489385691033667   7.185890269467588   8.336477232558170 
  3.733756234661882   0.718792722024116   8.344875448747516 
  7.467939393623341   7.186111816873139   8.352874355282664 
  8.713981249601066   0.718240050363770   8.336515548762572 
 13.691019678867143   0.718971095936407   8.322896865690639 
 -0.013415999109342   1.424905898071414   5.002978606422314 
  3.651837512700270   8.055295076996442   5.002978606422314 
  4.978771382068050   1.400103940172957   5.002978606422314 
  8.745017184001970   7.923433022921948   5.002978606422314 
  9.970958763239244   1.424905898071414   5.002978606422314 
 -4.978364444758856  10.060961934807510  11.673616748318732 
 -0.000406937307712  10.060961934807510  11.673616748318732 
  1.245146972227303   3.593380937266174  11.673616748318732 
  4.978771382064268  10.060208111486174  11.673616748318732 
  6.222927059321131   3.592517825718718  11.673616748318732 
 11.202094469492209   3.593210027784781  11.673616748318732 
 -2.489385691033300  10.060732491844131   5.002978606422314 
 -1.262088984855358   3.587670951422255   5.002978606422314 
  3.644919527157870   3.446679014500579   5.002978606422314 
  2.446403510482614  10.121074053245845   5.002978606422314 
  7.511139253649454  10.121074053245833   5.002978606422314 
  8.763254041783945   3.564017913008123   5.002978606422314 
 -6.223427071930922  12.216582288272532  11.673616748318732 
 -1.244697610734552  12.216136600566907  11.673616748318732 
 -0.000105135460435   5.749311138855139  11.673616748318732 
  4.978771382066590   5.748989995339477  11.673616748318732 
  3.734070055224549  12.216435868784515  11.673616748318732 
  9.957647899596001   5.749311138855139  11.673616748318732 
 -2.489385691032860   5.756402057239917   5.002978606422314 
 -3.731175046274181  12.200231268597181   5.002978606422314 
  1.238273811611547  12.212897709146983   5.002978606422314 
  2.317985657792701   5.744995894525031   5.002978606422314 
  6.227444367809746  12.234393136526197   5.002978606422314 
  7.639557106336675   5.744995894525044   5.002978606422314 
 -1.245095017604472   7.905098940153405  11.673616748318732 
  0.000149621483672   1.437324089450650  11.673616748318732 
  3.733289539247179   7.904696502916611  11.673616748318732 
  4.978771382066580   1.436192858427560  11.673616748318732 
  8.713763264001926   7.905388563793657  11.673616748318732 
 -3.721351305447584   7.915561975677002   5.002978606422314 
  9.957393142647978   1.437324089450650  11.673616748318732 
  2.458619456230332   1.369853057866832   5.002978606422314 
  1.212525580130432   7.923433022921948   5.002978606422314 
  6.305705251428249   8.055295076996442   5.002978606422314 
  7.498923307902422   1.369853057866832   5.002978606422314 
  1.243779500133119   7.905388563793657  11.673616748318732 
 12.446928455166319   1.437247498834912   5.002978606422314 
 -2.489385691033299  10.060732491844133  11.673616748318732 
 -1.244551705355659   3.593210027784781  11.673616748318732 
  3.734615704811471   3.592517825718705  11.673616748318732 
  2.489055004860046  10.060662970066522  11.673616748318732 
  7.468487759274658  10.060662970067012  11.673616748318732 
  8.712395791902946   3.593380937266174  11.673616748318732 
 -4.963140660689490  10.066404231254166   5.002978606422314 
 -0.015630721376467  10.066404231254166   5.002978606422314 
  1.194288722345659   3.564017913008123   5.002978606422314 
  4.978771382066448  10.118934160002272   5.002978606422314 
  6.312623236973871   3.446679014500579   5.002978606422314 
 11.219631748987382   3.587670951422255   5.002978606422314 
 -2.489385691033517   5.749032898993532  11.673616748318732 
 -3.734073771330805  12.216136600566907  11.673616748318732 
  1.244655689858353  12.216582288272532  11.673616748318732 
  2.489133861992994   5.749755657384836  11.673616748318732 
  6.223472708908112  12.216435868784515  11.673616748318732 
 -6.217045193683028  12.212897709146983   5.002978606422314 
  7.468408902139153   5.749755657384836  11.673616748318732 
 -1.247596335790549  12.200231268597181   5.002978606422314 
 -0.073748415353531   5.756042874905171   5.002978606422314 
 -1.257420076618209   7.915561975677002   5.002978606422314 
  3.730098396315594  12.234393136526197   5.002978606422314 
 10.031291179485528   5.756042874905171   5.002978606422314 
 -3.733676364459365   7.905098940153405  11.673616748318732 
  2.489611241746235   1.436995877097045  11.673616748318732 
  6.224253224883671   7.904696502916611  11.673616748318732 
  7.467931522387656   1.436995877097045  11.673616748318732 
 12.446928455166319   1.437247498834912  11.673616748318732 
Generated by cif2cell 2.0.0.  :  Failed to get author information, No journal information. Species order: Al B N 
 1.0
 14.936314146199660   0.000000000000000   0.000000000000000
 -7.468157073099825  12.935227489513863   0.000000000000000
  0.000000000000001   0.000000000000001  13.341276283792837
 Al B N 
   1 144 143
Cartesian
  4.978771382066589   5.748989995339477   5.002978606422314 
  1.224566589158012   0.693625859535205   5.002978606422314 
  4.978771382069180   7.523461930019166   5.002978606422314 
  6.228138551161392   0.696245781208886   5.002978606422314 
  9.979259814875014   7.193378395312111   5.002978606422314 
 11.207442839423134   0.721630144929083   5.002978606422314 
 -3.734266393838222   9.342000282974773  11.673616748318732 
  1.244849204037433   9.341035734905986  11.673616748318732 
  2.491783634990792   2.876193039035949  11.673616748318732 
  6.223192652605499   9.339183041354387  11.673616748318732 
  7.465759129143026   2.876193039035949  11.673616748318732 
 12.446928455165491   2.875029440045056  11.673616748318732 
 -1.251308821999852   9.345928478231674   5.002978606422314 
 -0.026277441511563   2.859323709738885   5.002978606422314 
  4.978771382066894   2.845385781566087   5.002978606422314 
  3.690009353123092   9.440599855550307   5.002978606422314 
  8.729892645778325   9.357345809496087   5.002978606422314 
  9.983820205646007   2.859323709738885   5.002978606422314 
 -4.978492716505674  11.497819103043037  11.673616748318732 
 -0.000278665560895  11.497819103043037  11.673616748318732 
  1.247362364454191   5.031593905624771  11.673616748318732 
  6.221352334511407   5.031585547955555  11.673616748318732 
  4.978771382063140  11.495934563753176  11.673616748318732 
 11.201337664262944   5.031059362296880  11.673616748318732 
 -1.276404781374391   5.025435341572526   5.002978606422314 
 -2.489385691033231  11.490340519073301   5.002978606422314 
  2.477800011535201  11.527908784910933   5.002978606422314 
  3.442033608330052   4.861754027999626   5.002978606422314 
  7.479742752596322  11.527908784910933   5.002978606422314 
  8.820180316344391   5.019285721731113   5.002978606422314 
  0.001007431032735   7.186638587484714  11.673616748318732 
  1.245742074599397   0.719054834746870  11.673616748318732 
  4.978771382066590   7.183798890107321  11.673616748318732 
  6.222613155071642   0.719295663629646  11.673616748318732 
  9.956535333100174   7.186638587484714  11.673616748318732 
 -2.489385691031262   7.191903888302689   5.002978606422314 
 11.201772768977090   0.718356528230080  11.673616748318732 
  3.729404212968979   0.696245781208873   5.002978606422314 
  2.464176370404544   7.200792102224560   5.002978606422314 
  7.493366393730084   7.200792102224560   5.002978606422314 
  8.732976174977416   0.693625859535205   5.002978606422314 
  2.490686852884567   7.185486268030443  11.673616748318732 
 13.686414070911340   0.721630144929083   5.002978606422314 
 -1.244504988231738   9.342000282974773  11.673616748318732 
  0.001771391681488   2.875517711133444  11.673616748318732 
  4.978771382066782   2.875997449960729  11.673616748318732 
  3.734350111534628   9.339183041354387  11.673616748318732 
  8.712693560095149   9.341035734905986  11.673616748318732 
  9.955771372449894   2.875517711133444  11.673616748318732 
 -3.727462560071169   9.345928478231674   5.002978606422314 
  1.227650118351536   9.357345809496087   5.002978606422314 
  2.426124476733716   2.787084408735330   5.002978606422314 
  6.267533411012000   9.440599855550307   5.002978606422314 
  7.531418287399024   2.787084408735330   5.002978606422314 
 12.446928455168702   2.868482206646141   5.002978606422314 
 -1.243794900128476   5.031059362296893  11.673616748318732 
 -2.489385691033230  11.498196909589026  11.673616748318732 
  2.489234407335050  11.496855788978150  11.673616748318732 
  3.736190429622644   5.031585547955697  11.673616748318732 
  7.468308356793218  11.496855788978150  11.673616748318732 
 -4.973864140801104  11.495146793614071   5.002978606422314 
  8.710180399677283   5.031593905624771  11.673616748318732 
 -0.004907241266838  11.495146793614071   5.002978606422314 
  1.137362447790196   5.019285721731074   5.002978606422314 
 -0.021717050744196   7.193378395312111   5.002978606422314 
  6.515509155804304   4.861754027999626   5.002978606422314 
  4.978771382069063  11.528322566537049   5.002978606422314 
 11.233947545506119   5.025435341572526   5.002978606422314 
 -2.489385691033247   7.186559269448177  11.673616748318732 
  3.734929609062054   0.719295663629646  11.673616748318732 
  7.466855911246475   7.185486268030443  11.673616748318732 
  8.711800689532641   0.719054834746870  11.673616748318732 
 13.692084141355833   0.718356528230080  11.673616748318732 
 -0.000416516883127   1.437646290324273   1.678244596904078 
  3.741709542166564   7.901674517647310   1.654934562319044 
  4.978771382066661   1.444497423483969   1.663139913657723 
  8.706571299694392   7.901236281267372   1.663139913657723 
  9.957959281016919   1.437646290324286   1.678244596904078 
 -4.981099793914341  10.059715862772542   8.334940037273222 
  0.002328411849625  10.059715862772542   8.334940037273222 
  1.245309696505344   3.593474886172345   8.348286870230725 
  4.978771382067688  10.060020213673830   8.348286870230725 
  6.224519944766418   3.601320754783798   8.351022650524611 
 11.202098504528328   3.592558637141221   8.327712615939483 
 -2.489385691033300  10.060732491844131   1.675719896688625 
 -1.244555740397931   3.592558637141220   1.678244596904078 
  3.733022819366310   3.601320754783797   1.654934562319084 
  2.492245092149413  10.059464688112097   1.662154836847214 
  7.465297671983842  10.059464688112097   1.662154836847214 
  8.712233067627562   3.593474886172344   1.657670342615156 
 -6.224414844039420  12.217152578761054   8.332373364641899 
 -1.244409066192871  12.219128518442680   8.334940037273222 
  0.002527650796025   5.747147583199662   8.343802375998909 
  4.978771382066590   5.748989995339477   8.192270059036778 
  3.734632158553749  12.216765058551990   8.327712615939483 
  9.955015113336055   5.747147583199649   8.343802375998909 
 -2.489385691033481   5.747892318003769   1.673583848203742 
 -3.734362315872098  12.219128518442680   1.671017175572247 
  1.245643461977006  12.217152578761054   1.673583848203742 
  2.495960979469258   5.743974713590141   1.654934562319044 
  6.222910605579954  12.216765058551990   1.678244596904078 
  7.461581784667384   5.743974713590141   1.654934562319084 
 -1.242648212991968   7.903353094318364   8.334940037273222 
 -0.000416516883127   1.437646290324274   8.327712615939483 
  3.741709542166565   7.901674517647311   8.351022650524611 
  4.978771382066677   1.444497423483944   8.342817299188624 
  8.706571299694371   7.901236281267412   8.342817299188624 
 -3.736123169076858   7.903353094318363   1.671017175572247 
  9.957959281016926   1.437646290324274   8.327712615939483 
  2.489053940713849   1.440357714706219   1.662154836847214 
  1.250971464438322   7.901236281267372   1.663139913657723 
  6.215833221964584   7.901674517647310   1.654934562319084 
  7.468488823419443   1.440357714706219   1.662154836847214 
  1.250971464438323   7.901236281267373   8.342817299188624 
 12.446928455166319   1.437247498834911   1.688235756989287 
 -2.489385691033300  10.060732491844131   8.330237316154602 
 -1.244555740397931   3.592558637141221   8.327712615939483 
  3.733022819366311   3.601320754783798   8.351022650524611 
  2.492245092149406  10.059464688112110   8.343802375998909 
  7.465297671983842  10.059464688112097   8.343802375998909 
  8.712233067627562   3.593474886172345   8.348286870230725 
 -4.981099793914357  10.059715862772542   1.671017175572247 
  0.002328411849624  10.059715862772542   1.671017175572247 
  1.245309696505344   3.593474886172344   1.657670342615156 
  4.978771382067687  10.060020213673830   1.657670342615156 
  6.224519944766417   3.601320754783797   1.654934562319044 
 11.202098504528328   3.592558637141220   1.678244596904078 
 -2.489385691033480   5.747892318003770   8.332373364641899 
 -3.734362315872097  12.219128518442680   8.334940037273222 
  1.245643461977007  12.217152578761054   8.332373364641899 
  2.495960979469259   5.743974713590142   8.351022650524611 
  6.222910605579955  12.216765058551990   8.327712615939483 
 -6.224414844039421  12.217152578761054   1.673583848203742 
  7.461581784667385   5.743974713590142   8.351022650524824 
 -1.244409066192872  12.219128518442680   1.671017175572247 
  0.002527650796025   5.747147583199661   1.662154836847214 
 -1.242648212991968   7.903353094318363   1.671017175572247 
  4.978771382066589   5.748989995339476   1.813687153809170 
  3.734632158553748  12.216765058551990   1.678244596904078 
  9.955015113336046   5.747147583199661   1.662154836847214 
 -3.736123169076843   7.903353094318364   8.334940037273222 
  2.489053940713842   1.440357714706233   8.343802375998909 
  6.215833221964584   7.901674517647311   8.351022650524611 
  7.468488823419444   1.440357714706220   8.343802375998909 
 12.446928455166319   1.437247498834912   8.317721455857022 
  1.243561514532346   0.718240050363769   1.669441664083724 
  4.978771382064580   7.194338916880893   1.647216785924421 
  6.223786529472037   0.718792722024115   1.661081764097646 
  9.957557580507245   7.185873886249516   1.661081764097566 
 11.202837231468227   0.718971095936406   1.683060347155496 
 -3.734197919884339   9.342039816423819   8.333998766636018 
  1.245000331030704   9.342303377747267   8.344875448747516 
  2.486318326978155   2.872743966394302   8.361845519147167 
  6.223446983120034   9.345640673260400   8.361845519147167 
  7.471224437156573   2.872743966394302   8.361845519147167 
 12.446928455169157   2.873800304631870   8.322896865690639 
 -1.244573462179377   9.342039816423819   1.671958446207756 
 -0.002186616093461   2.873232554279449   1.668975819805500 
  4.978771382066983   2.874746352275969   1.653082857563604 
  3.734095781010814   9.345640673260400   1.644111693699610 
  8.712542433102580   9.342303377747267   1.661081764097620 
  9.959729380225694   2.873232554279449   1.668975819805514 
 -4.979072087484765  11.498153603033989   8.336477232558170 
  0.000300705417928  11.498153603033989   8.336477232558170 
  1.241642725921687   5.028585346365450   8.361845519147167 
  6.230480265452168   5.026315534568762   8.358740426920354 
  4.978771382066038  11.500504877458599   8.336981393039087 
 11.203133568266301   5.029578334076895   8.336515548762572 
 -1.245590804136949   5.029578334076894   1.669441664083750 
 -2.489385691033240  11.498117842681781   1.671958446207730 
  2.489619063398333  11.499151601577470   1.669441664083710 
  3.727062498677588   5.026315534568761   1.647216785924381 
  7.467923700732863  11.499151601577470   1.669441664083724 
  8.715900038209323   5.028585346365449   1.644111693699610 
 -0.000014816374786   7.185873886249517   8.344875448747516 
  1.243561514532346   0.718240050363770   8.336515548762572 
  4.978771382064581   7.194338916880894   8.358740426920354 
  6.223786529472038   0.718792722024116   8.344875448747516 
  9.957557580507245   7.185873886249517   8.344875448747516 
 -2.489385691033667   7.185890269467587   1.669479980287072 
 11.202837231468212   0.718971095936433   8.322896865690639 
  3.733756234661882   0.718792722024115   1.661081764097606 
  2.489603370506968   7.186111816873138   1.653082857563604 
  7.467939393623340   7.186111816873138   1.653082857563604 
  8.713981249601066   0.718240050363769   1.669441664083724 
  2.489603370507222   7.186111816873139   8.352874355282664 
 13.691019678867136   0.718971095936419   1.683060347155469 
 -1.244573462179377   9.342039816423819   8.333998766636018 
 -0.002186616093460   2.873232554279450   8.336981393039087 
  4.978771382066983   2.874746352275970   8.352874355282664 
  3.734095781010815   9.345640673260400   8.361845519147167 
  8.712542433102580   9.342303377747267   8.344875448747516 
  9.959729380225694   2.873232554279450   8.336981393039087 
 -3.734197919884340   9.342039816423819   1.671958446207730 