Species order: X N B                    
   2.51242800000000     
     5.9449720136058266    0.0000000000000000    0.0000000000000000
    -2.9724860068029120    5.1484967885702053   -0.0000000000000001
     0.0000000000000000    0.0000000000000009    5.3101128803662583
   Al   N    B 
     1   143   144
Direct
  0.5555555555555571  0.4444444444444429  0.3750000000000000
  0.1110205359047399  0.0555258924472739  0.1251335800692307
  0.6114242645794078  0.5561818624924140  0.1234677066035642
  0.4444725543425545  0.0555686185346810  0.1245069608606745
  0.9444313814653692  0.5555274456575935  0.1245069608606688
  0.7778314832915253  0.0555824083124356  0.1261543731914239
  0.1111004540119652  0.7222168936724992  0.6246777736520058
  0.4444725543425545  0.7222372691412462  0.6254930391393646
  0.2775047303315706  0.2220868530316250  0.6267650366633403
  0.7779131469682394  0.7224952696685532  0.6267650366633403
  0.6112487893668289  0.2220868530316250  0.6267650366633403
  0.9444175916877524  0.2221685167084662  0.6238456268086894
  0.2777831063273903  0.7222168936724992  0.1253222263479305
  0.1109159164937407  0.2221246249135299  0.1250986625494745
  0.4444541603387789  0.2222416540108339  0.1239074000417631
  0.6112487893668289  0.7224952696685532  0.1232349633368214
  0.9444313814653692  0.7222372691412462  0.1245069608606725
  0.7778753750863974  0.2221246249135299  0.1250986625494746
  0.1110976894411889  0.8889023105589086  0.6248635479264778
  0.4444712877843674  0.8889023105589086  0.6248635479264778
  0.2775047303315706  0.3887512106332836  0.6267650366633403
  0.6114242645794270  0.3885757354204573  0.6265322933964474
  0.7778753750863974  0.8890840835061973  0.6249013374505228
  0.9444741075525124  0.3888279767908370  0.6248664199308938
  0.1110205359047399  0.3888279767908370  0.1251335800692329
  0.2777831063273903  0.8888995459881093  0.1253222263479276
  0.6111720232092215  0.8889794640951948  0.1251335800692303
  0.4438181375074724  0.3885757354204573  0.1234677066035613
  0.9444741075525124  0.8889794640951948  0.1251335800692307
  0.7779131469682394  0.3887512106332836  0.1232349633368214
  0.2777627308588474  0.5555274456575935  0.6254930391393646
  0.1110205359047399  0.0555258924472739  0.6248664199308938
  0.6114242645794078  0.5561818624924140  0.6265322933964474
  0.4444725543425545  0.0555686185346814  0.6254930391393646
  0.9444313814653692  0.5555274456575935  0.6254930391393646
  0.1110976894411890  0.5555287122157643  0.1251364520735676
  0.7778314832915253  0.0555824083124380  0.6238456268086894
  0.2777627308588474  0.0555686185346810  0.1245069608606724
  0.4444541603387789  0.5555458396613949  0.1239074000417632
  0.7777583459890947  0.5555458396613949  0.1239074000417631
  0.6111720232092215  0.0555258924472739  0.1251335800692307
  0.4444541603387961  0.5555458396613949  0.6260925999583603
  0.9444175916877524  0.0555824083124370  0.1261543731914224
  0.2777831063273903  0.7222168936724992  0.6246777736520058
  0.1109159164937407  0.2221246249135299  0.6249013374505228
  0.4444541603387789  0.2222416540108336  0.6260925999583603
  0.6112487893668289  0.7224952696685532  0.6267650366633403
  0.9444313814653692  0.7222372691412462  0.6254930391393646
  0.7778753750863974  0.2221246249135299  0.6249013374505228
  0.1111004540119652  0.7222168936724992  0.1253222263479276
  0.4444725543425545  0.7222372691412462  0.1245069608606688
  0.2775047303315706  0.2220868530316250  0.1232349633368222
  0.7779131469682394  0.7224952696685532  0.1232349633368222
  0.6112487893668289  0.2220868530316250  0.1232349633368221
  0.9444175916877524  0.2221685167084662  0.1261543731914225
  0.1110205359047399  0.3888279767908370  0.6248664199308938
  0.2777831063273903  0.8888995459881093  0.6246777736520058
  0.6111720232092215  0.8889794640951948  0.6248664199308938
  0.4438181375074724  0.3885757354204573  0.6265322933964503
  0.9444741075525124  0.8889794640951948  0.6248664199308938
  0.1110976894411890  0.8889023105589086  0.1251364520735685
  0.7779131469682394  0.3887512106332836  0.6267650366633403
  0.4444712877843674  0.8889023105589086  0.1251364520735685
  0.2775047303315706  0.3887512106332836  0.1232349633368222
  0.2777627308588474  0.5555274456575935  0.1245069608606722
  0.6114242645794078  0.3885757354204573  0.1234677066035595
  0.7778753750863974  0.8890840835061973  0.1250986625494746
  0.9444741075525124  0.3888279767908370  0.1251335800692303
  0.1110976894411890  0.5555287122157643  0.6248635479264778
  0.2777627308588474  0.0555686185346812  0.6254930391393646
  0.7777583459890947  0.5555458396613949  0.6260925999583603
  0.6111720232092215  0.0555258924472739  0.6248664199308938
  0.9444175916877524  0.0555824083124355  0.6238456268086894
  0.0541802881749092  0.1101570033636081  0.3750000000000000
  0.5558643325614895  0.6227408898317855  0.3750000000000000
  0.3874531368431894  0.1082396070195109  0.3750000000000000
  0.8917603929802783  0.6125468631568479  0.3750000000000000
  0.7226433818551505  0.1101570033636081  0.3750000000000000
  0.0555916693021660  0.7777955156152903  0.8750000000000000
  0.3888705129797891  0.7777955156152903  0.8750000000000000
  0.2222627611580767  0.2777980472457248  0.8750000000000000
  0.7222019527541230  0.7777372388418862  0.8750000000000000
  0.5554963635509378  0.2777313215891290  0.8750000000000000
  0.8888829678014409  0.2777848345301754  0.8750000000000000
  0.2222222222222214  0.7777777777777786  0.3750000000000000
  0.0541802881749092  0.2773566181445709  0.3750000000000000
  0.3772591101683350  0.2664567760632485  0.3750000000000000
  0.5550103096701017  0.7824426792223522  0.3750000000000000
  0.8940990362188457  0.7824426792223506  0.3750000000000000
  0.7244719572270820  0.2755280427729119  0.3750000000000000
  0.0555572139590758  0.9444427860411494  0.8750000000000000
  0.3888705129797891  0.9444083306977087  0.8750000000000000
  0.2222275968303070  0.4444692714925885  0.8750000000000000
  0.5555555555555571  0.4444444444444429  0.8750000000000000
  0.7222151654697018  0.9444314666045068  0.8750000000000000
  0.8889083413291127  0.4444692714925885  0.8750000000000000
  0.0558420623799289  0.4450174580931358  0.3750000000000000
  0.2217837498864395  0.9431787170722337  0.3750000000000000
  0.5549825419065655  0.9441579376201578  0.3750000000000000
  0.3772591101683350  0.4441356674385744  0.3750000000000000
  0.8898429966362555  0.9458197118252609  0.3750000000000000
  0.7335432239366562  0.4441356674385745  0.3750000000000000
  0.2222044843846663  0.6111294870199843  0.8750000000000000
  0.0555685333956311  0.1111170321987644  0.8750000000000000
  0.5554963635509378  0.6110983752952682  0.8750000000000000
  0.3888481226786256  0.1110295786905817  0.8750000000000000
  0.8889704213094061  0.6111518773212364  0.8750000000000000
  0.0568212829275955  0.6119383661473190  0.3750000000000000
  0.7222151654697018  0.1111170321987644  0.8750000000000000
  0.2175573207776140  0.1059009637810635  0.3750000000000000
  0.3874531368431894  0.6125468631568479  0.3750000000000000
  0.7335432239366562  0.6227408898317855  0.3750000000000000
  0.5550103096700935  0.1059009637810635  0.3750000000000000
  0.3888481226786256  0.6111518773212364  0.8750000000000000
  0.8888888888888857  0.1111111111111143  0.3750000000000000
  0.2222222222222214  0.7777777777777786  0.8750000000000000
  0.0555685333956311  0.2777848345301754  0.8750000000000000
  0.3889016247048231  0.2777313215891284  0.8750000000000000
  0.5555307285074220  0.7777724031697431  0.8750000000000000
  0.8889083413291127  0.7777724031697814  0.8750000000000000
  0.7222019527541230  0.2777980472457248  0.8750000000000000
  0.0568212829275945  0.7782162501134711  0.3750000000000000
  0.3880616338525824  0.7782162501134711  0.3750000000000000
  0.2177227522122621  0.2755280427729119  0.3750000000000000
  0.7244719572270820  0.7822772477875118  0.3750000000000000
  0.5558643325614895  0.2664567760632485  0.3750000000000000
  0.8898429966362555  0.2773566181445709  0.3750000000000000
  0.0555572139590758  0.4444477612515182  0.8750000000000000
  0.2222044843846663  0.9444083306977087  0.8750000000000000
  0.5555522387483358  0.9444427860411494  0.8750000000000000
  0.3889016247048231  0.4445036364490659  0.8750000000000000
  0.8888829678014409  0.9444314666045068  0.8750000000000000
  0.0558420623799292  0.9441579376201578  0.3750000000000000
  0.7222686784108447  0.4445036364490659  0.8750000000000000
  0.3880616338525824  0.9431787170722337  0.3750000000000000
  0.2175573207776141  0.4449896903298682  0.3750000000000000
  0.2217837498864395  0.6119383661473190  0.3750000000000000
  0.7226433818551505  0.9458197118252609  0.3750000000000000
  0.8940990362188457  0.4449896903298682  0.3750000000000000
  0.0555916693021660  0.6111294870199843  0.8750000000000000
  0.2222275968303152  0.1110916586710183  0.8750000000000000
  0.7222686784108447  0.6110983752952682  0.8750000000000000
  0.5555307285074220  0.1110916586710183  0.8750000000000000
  0.8888888888888857  0.1111111111111143  0.8750000000000000
  0.1087973679430822  0.0536230120496529  0.3750000000000000
  0.6241462292071290  0.5816257917472403  0.3750000000000000
  0.4438923937637868  0.0538255536497756  0.3750000000000000
  0.9461744463500756  0.5561076062360346  0.3750000000000000
  0.7782426162220805  0.0557879747777205  0.3750000000000000
  0.1110943414864488  0.7222138374101275  0.8750000000000000
  0.4444134366164358  0.7221392698720168  0.8750000000000000
  0.2780039586524114  0.2223534948548510  0.8750000000000000
  0.7776465051451745  0.7219960413471920  0.8750000000000000
  0.6110162028691544  0.2223534948548510  0.8750000000000000
  0.9444651028508854  0.2222635390352229  0.8750000000000000
  0.2774824806285076  0.7225175193716608  0.3750000000000000
  0.1087653792029938  0.2210493562681318  0.3750000000000000
  0.4433192529421431  0.2199718392175743  0.3750000000000000
  0.6119677272161715  0.7298363993368864  0.3750000000000000
  0.9461744463500756  0.7234001734474141  0.3750000000000000
  0.7789506437318944  0.2210493562681318  0.3750000000000000
  0.1111235490552468  0.8888764509448257  0.8750000000000000
  0.4444195685562440  0.8888764509448257  0.8750000000000000
  0.2780039586524114  0.3889837971310295  0.8750000000000000
  0.6110168489858808  0.3889831510141187  0.8750000000000000
  0.7776987135737125  0.8887307604812152  0.8750000000000000
  0.9444111179854300  0.3889424725135594  0.8750000000000000
  0.1087973679430820  0.3885076892266848  0.3750000000000000
  0.2774824806285076  0.8882982945903437  0.3750000000000000
  0.6114923107733919  0.8912026320570090  0.3750000000000000
  0.4183742082526649  0.3758537707930442  0.3750000000000000
  0.9463769879501769  0.8912026320570090  0.3750000000000000
  0.7845353387875131  0.3880322727837659  0.3750000000000000
  0.2778607301280903  0.5555865633836486  0.8750000000000000
  0.1111980211948869  0.0555888820146209  0.8750000000000000
  0.6110168489858808  0.5553670313050912  0.8750000000000000
  0.4444134366164266  0.0556075000778112  0.8750000000000000
  0.9443924999222122  0.5555865633836486  0.8750000000000000
  0.1113301406618634  0.5559936146567902  0.3750000000000000
  0.7777364609648700  0.0555348971490778  0.8750000000000000
  0.2765998265524722  0.0538255536497745  0.3750000000000000
  0.4433192529421431  0.5566807470577531  0.3750000000000000
  0.7800281607823781  0.5566807470577531  0.3750000000000000
  0.6114923107733927  0.0536230120496531  0.3750000000000000
  0.4445025204347043  0.5554974795654321  0.8750000000000000
  0.9442120252224220  0.0557879747777205  0.3750000000000000
  0.2777861625901155  0.7222138374101275  0.8750000000000000
  0.1112692395189592  0.2223012864261196  0.8750000000000000
  0.4445025204347043  0.2223383742027107  0.8750000000000000
  0.6110162028691531  0.7219960413471920  0.8750000000000000
  0.9443924999222122  0.7221392698720168  0.8750000000000000
  0.7776987135737125  0.2223012864261196  0.8750000000000000
  0.1117017054095199  0.7225175193716608  0.3750000000000000
  0.4438923937637868  0.7234001734474141  0.3750000000000000
  0.2701636006630174  0.2154646612125469  0.3750000000000000
  0.7845353387875131  0.7298363993368864  0.3750000000000000
  0.6119677272161715  0.2154646612125469  0.3750000000000000
  0.9442120252224220  0.2217573837778666  0.3750000000000000
  0.1111980211948869  0.3889424725135601  0.8750000000000000
  0.2777861625901155  0.8889056585135596  0.8750000000000000
  0.6110575274863295  0.8888019788054172  0.8750000000000000
  0.4446329686949732  0.3889831510141303  0.8750000000000000
  0.9444111179854300  0.8888019788054172  0.8750000000000000
  0.1113301406618636  0.8886698593382127  0.3750000000000000
  0.7776465051451745  0.3889837971310295  0.8750000000000000
  0.4440063853429219  0.8886698593382127  0.3750000000000000
  0.2701636006630174  0.3880322727837626  0.3750000000000000
  0.2765998265524722  0.5561076062360346  0.3750000000000000
  0.6241462292071290  0.3758537707930442  0.3750000000000000
  0.7789506437318944  0.8912346207967863  0.3750000000000000
  0.9463769879501769  0.3885076892266848  0.3750000000000000
  0.1111235490552485  0.5555804314438284  0.8750000000000000
  0.2778607301280903  0.0556075000778112  0.8750000000000000
  0.7776616257972557  0.5554974795654321  0.8750000000000000
  0.6110575274863295  0.0555888820146209  0.8750000000000000
  0.9444651028508854  0.0555348971490778  0.8750000000000000
  0.0555430843054502  0.1111419409894202  0.1257934069578361
  0.5559432782880903  0.6108647508559798  0.1240461952151821
  0.3891691284384124  0.1116715902101427  0.1246612301761661
  0.8883284097898323  0.6108308715616044  0.1246612301761661
  0.7222655233506826  0.1111419409894207  0.1257934069578361
  0.0553603693210268  0.7776991839476813  0.6247483269197133
  0.3890054812934430  0.7776991839476813  0.6247483269197133
  0.2222772872119736  0.2778053102726987  0.6257487434221225
  0.7221946897273777  0.7777227127879384  0.6257487434221225
  0.5559432782880903  0.2784118607657466  0.6259538047847446
  0.8888580590104472  0.2777344766494124  0.6242065930420844
  0.2222222222222214  0.7777777777777786  0.1256041671758430
  0.0555430843054502  0.2777344766494124  0.1257934069578361
  0.3891352491442977  0.2784118607657466  0.1240461952151852
  0.5556979892422965  0.7776797660703646  0.1245873934015162
  0.8886484434947437  0.7776797660703646  0.1245873934015162
  0.7221946897273778  0.2778053102726987  0.1242512565779722
  0.0555131257901353  0.9444868742096014  0.6245559410807026
  0.3890054812934523  0.9446396306789581  0.6247483269197133
  0.2223202339295815  0.4443020107577293  0.6254126065985959
  0.5555555555555571  0.4444444444444429  0.6140544491225974
  0.7222655233506826  0.9444569156944244  0.6242065930420844
  0.8886484434947437  0.4443020107577279  0.6254126065985958
  0.0555131257901353  0.4443595849136311  0.1254440589193735
  0.2223008160522783  0.9446396306789581  0.1252516730803500
  0.5556404150864092  0.9444868742096014  0.1254440589193735
  0.3891352491442977  0.4440567217118198  0.1240461952151821
  0.8888580590104472  0.9444569156944244  0.1257934069578361
  0.7215881392344252  0.4440567217118198  0.1240461952151851
  0.2223008160522783  0.6109945187067904  0.6247483269197133
  0.0555430843054501  0.1111419409894202  0.6242065930420844
  0.5559432782880903  0.6108647508559798  0.6259538047847452
  0.3891691284384124  0.1116715902101405  0.6253387698239631
  0.8883284097898323  0.6108308715616066  0.6253387698239631
  0.0553603693210263  0.6109945187067904  0.1252516730803500
  0.7222655233506826  0.1111419409894202  0.6242065930420844
  0.2223202339295815  0.1113515565052001  0.1245873934015162
  0.3891691284384124  0.6108308715616044  0.1246612301761661
  0.7215881392344252  0.6108647508559798  0.1240461952151852
  0.5556979892422965  0.1113515565052001  0.1245873934015162
  0.3891691284384124  0.6108308715616044  0.6253387698239631
  0.8888888888888857  0.1111111111111143  0.1265422978339917
  0.2222222222222214  0.7777777777777786  0.6243958328240519
  0.0555430843054501  0.2777344766494124  0.6242065930420844
  0.3891352491442977  0.2784118607657466  0.6259538047847452
  0.5556979892422965  0.7776797660703662  0.6254126065985958
  0.8886484434947437  0.7776797660703646  0.6254126065985959
  0.7221946897273778  0.2778053102726987  0.6257487434221225
  0.0553603693210263  0.7776991839476813  0.1252516730803500
  0.3890054812934430  0.7776991839476813  0.1252516730803500
  0.2222772872119736  0.2778053102726987  0.1242512565779722
  0.7221946897273777  0.7777227127879384  0.1242512565779722
  0.5559432782880903  0.2784118607657466  0.1240461952151823
  0.8888580590104472  0.2777344766494124  0.1257934069578361
  0.0555131257901353  0.4443595849136311  0.6245559410807026
  0.2223008160522783  0.9446396306789581  0.6247483269197133
  0.5556404150864092  0.9444868742096014  0.6245559410807026
  0.3891352491442977  0.4440567217118198  0.6259538047847452
  0.8888580590104472  0.9444569156944244  0.6242065930420844
  0.0555131257901353  0.9444868742096014  0.1254440589193735
  0.7215881392344252  0.4440567217118198  0.6259538047847607
  0.3890054812934523  0.9446396306789581  0.1252516730803500
  0.2223202339295815  0.4443020107577293  0.1245873934015162
  0.2223008160522783  0.6109945187067904  0.1252516730803500
  0.5555555555555571  0.4444444444444429  0.1359455508775016
  0.7222655233506826  0.9444569156944244  0.1257934069578361
  0.8886484434947437  0.4443020107577293  0.1245873934015162
  0.0553603693210268  0.6109945187067904  0.6247483269197133
  0.2223202339295821  0.1113515565052011  0.6254126065985959
  0.7215881392344252  0.6108647508559798  0.6259538047847452
  0.5556979892422965  0.1113515565052001  0.6254126065985959
  0.8888888888888857  0.1111111111111143  0.6234577021661345
 
  0.00000000E+00  0.00000000E+00  0.00000000E+00
  0.00000000E+00  0.00000000E+00  0.00000000E+00
  0.00000000E+00  0.00000000E+00  0.00000000E+00
  0.00000000E+00  0.00000000E+00  0.00000000E+00
  0.00000000E+00  0.00000000E+00  0.00000000E+00
  0.00000000E+00  0.00000000E+00  0.00000000E+00
  0.00000000E+00  0.00000000E+00  0.00000000E+00
  0.00000000E+00  0.00000000E+00  0.00000000E+00
  0.00000000E+00  0.00000000E+00  0.00000000E+00
  0.00000000E+00  0.00000000E+00  0.00000000E+00
  0.00000000E+00  0.00000000E+00  0.00000000E+00
  0.00000000E+00  0.00000000E+00  0.00000000E+00
  0.00000000E+00  0.00000000E+00  0.00000000E+00
  0.00000000E+00  0.00000000E+00  0.00000000E+00
  0.00000000E+00  0.00000000E+00  0.00000000E+00
  0.00000000E+00  0.00000000E+00  0.00000000E+00
  0.00000000E+00  0.00000000E+00  0.00000000E+00
  0.00000000E+00  0.00000000E+00  0.00000000E+00
  0.00000000E+00  0.00000000E+00  0.00000000E+00
  0.00000000E+00  0.00000000E+00  0.00000000E+00
  0.00000000E+00  0.00000000E+00  0.00000000E+00
  0.00000000E+00  0.00000000E+00  0.00000000E+00
  0.00000000E+00  0.00000000E+00  0.00000000E+00
  0.00000000E+00  0.00000000E+00  0.00000000E+00
  0.00000000E+00  0.00000000E+00  0.00000000E+00
  0.00000000E+00  0.00000000E+00  0.00000000E+00
  0.00000000E+00  0.00000000E+00  0.00000000E+00
  0.00000000E+00  0.00000000E+00  0.00000000E+00
  0.00000000E+00  0.00000000E+00  0.00000000E+00
  0.00000000E+00  0.00000000E+00  0.00000000E+00
  0.00000000E+00  0.00000000E+00  0.00000000E+00
  0.00000000E+00  0.00000000E+00  0.00000000E+00
  0.00000000E+00  0.00000000E+00  0.00000000E+00
  0.00000000E+00  0.00000000E+00  0.00000000E+00
  0.00000000E+00  0.00000000E+00  0.00000000E+00
  0.00000000E+00  0.00000000E+00  0.00000000E+00
  0.00000000E+00  0.00000000E+00  0.00000000E+00
  0.00000000E+00  0.00000000E+00  0.00000000E+00
  0.00000000E+00  0.00000000E+00  0.00000000E+00
  0.00000000E+00  0.00000000E+00  0.00000000E+00
  0.00000000E+00  0.00000000E+00  0.00000000E+00
  0.00000000E+00  0.00000000E+00  0.00000000E+00
  0.00000000E+00  0.00000000E+00  0.00000000E+00
  0.00000000E+00  0.00000000E+00  0.00000000E+00
  0.00000000E+00  0.00000000E+00  0.00000000E+00
  0.00000000E+00  0.00000000E+00  0.00000000E+00
  0.00000000E+00  0.00000000E+00  0.00000000E+00
  0.00000000E+00  0.00000000E+00  0.00000000E+00
  0.00000000E+00  0.00000000E+00  0.00000000E+00
  0.00000000E+00  0.00000000E+00  0.00000000E+00
  0.00000000E+00  0.00000000E+00  0.00000000E+00
  0.00000000E+00  0.00000000E+00  0.00000000E+00
  0.00000000E+00  0.00000000E+00  0.00000000E+00
  0.00000000E+00  0.00000000E+00  0.00000000E+00
  0.00000000E+00  0.00000000E+00  0.00000000E+00
  0.00000000E+00  0.00000000E+00  0.00000000E+00
  0.00000000E+00  0.00000000E+00  0.00000000E+00
  0.00000000E+00  0.00000000E+00  0.00000000E+00
  0.00000000E+00  0.00000000E+00  0.00000000E+00
  0.00000000E+00  0.00000000E+00  0.00000000E+00
  0.00000000E+00  0.00000000E+00  0.00000000E+00
  0.00000000E+00  0.00000000E+00  0.00000000E+00
  0.00000000E+00  0.00000000E+00  0.00000000E+00
  0.00000000E+00  0.00000000E+00  0.00000000E+00
  0.00000000E+00  0.00000000E+00  0.00000000E+00
  0.00000000E+00  0.00000000E+00  0.00000000E+00
  0.00000000E+00  0.00000000E+00  0.00000000E+00
  0.00000000E+00  0.00000000E+00  0.00000000E+00
  0.00000000E+00  0.00000000E+00  0.00000000E+00
  0.00000000E+00  0.00000000E+00  0.00000000E+00
  0.00000000E+00  0.00000000E+00  0.00000000E+00
  0.00000000E+00  0.00000000E+00  0.00000000E+00
  0.00000000E+00  0.00000000E+00  0.00000000E+00
  0.00000000E+00  0.00000000E+00  0.00000000E+00
  0.00000000E+00  0.00000000E+00  0.00000000E+00
  0.00000000E+00  0.00000000E+00  0.00000000E+00
  0.00000000E+00  0.00000000E+00  0.00000000E+00
  0.00000000E+00  0.00000000E+00  0.00000000E+00
  0.00000000E+00  0.00000000E+00  0.00000000E+00
  0.00000000E+00  0.00000000E+00  0.00000000E+00
  0.00000000E+00  0.00000000E+00  0.00000000E+00
  0.00000000E+00  0.00000000E+00  0.00000000E+00
  0.00000000E+00  0.00000000E+00  0.00000000E+00
  0.00000000E+00  0.00000000E+00  0.00000000E+00
  0.00000000E+00  0.00000000E+00  0.00000000E+00
  0.00000000E+00  0.00000000E+00  0.00000000E+00
  0.00000000E+00  0.00000000E+00  0.00000000E+00
  0.00000000E+00  0.00000000E+00  0.00000000E+00
  0.00000000E+00  0.00000000E+00  0.00000000E+00
  0.00000000E+00  0.00000000E+00  0.00000000E+00
  0.00000000E+00  0.00000000E+00  0.00000000E+00
  0.00000000E+00  0.00000000E+00  0.00000000E+00
  0.00000000E+00  0.00000000E+00  0.00000000E+00
  0.00000000E+00  0.00000000E+00  0.00000000E+00
  0.00000000E+00  0.00000000E+00  0.00000000E+00
  0.00000000E+00  0.00000000E+00  0.00000000E+00
  0.00000000E+00  0.00000000E+00  0.00000000E+00
  0.00000000E+00  0.00000000E+00  0.00000000E+00
  0.00000000E+00  0.00000000E+00  0.00000000E+00
  0.00000000E+00  0.00000000E+00  0.00000000E+00
  0.00000000E+00  0.00000000E+00  0.00000000E+00
  0.00000000E+00  0.00000000E+00  0.00000000E+00
  0.00000000E+00  0.00000000E+00  0.00000000E+00
  0.00000000E+00  0.00000000E+00  0.00000000E+00
  0.00000000E+00  0.00000000E+00  0.00000000E+00
  0.00000000E+00  0.00000000E+00  0.00000000E+00
  0.00000000E+00  0.00000000E+00  0.00000000E+00
  0.00000000E+00  0.00000000E+00  0.00000000E+00
  0.00000000E+00  0.00000000E+00  0.00000000E+00
  0.00000000E+00  0.00000000E+00  0.00000000E+00
  0.00000000E+00  0.00000000E+00  0.00000000E+00
  0.00000000E+00  0.00000000E+00  0.00000000E+00
  0.00000000E+00  0.00000000E+00  0.00000000E+00
  0.00000000E+00  0.00000000E+00  0.00000000E+00
  0.00000000E+00  0.00000000E+00  0.00000000E+00
  0.00000000E+00  0.00000000E+00  0.00000000E+00
  0.00000000E+00  0.00000000E+00  0.00000000E+00
  0.00000000E+00  0.00000000E+00  0.00000000E+00
  0.00000000E+00  0.00000000E+00  0.00000000E+00
  0.00000000E+00  0.00000000E+00  0.00000000E+00
  0.00000000E+00  0.00000000E+00  0.00000000E+00
  0.00000000E+00  0.00000000E+00  0.00000000E+00
  0.00000000E+00  0.00000000E+00  0.00000000E+00
  0.00000000E+00  0.00000000E+00  0.00000000E+00
  0.00000000E+00  0.00000000E+00  0.00000000E+00
  0.00000000E+00  0.00000000E+00  0.00000000E+00
  0.00000000E+00  0.00000000E+00  0.00000000E+00
  0.00000000E+00  0.00000000E+00  0.00000000E+00
  0.00000000E+00  0.00000000E+00  0.00000000E+00
  0.00000000E+00  0.00000000E+00  0.00000000E+00
  0.00000000E+00  0.00000000E+00  0.00000000E+00
  0.00000000E+00  0.00000000E+00  0.00000000E+00
  0.00000000E+00  0.00000000E+00  0.00000000E+00
  0.00000000E+00  0.00000000E+00  0.00000000E+00
  0.00000000E+00  0.00000000E+00  0.00000000E+00
  0.00000000E+00  0.00000000E+00  0.00000000E+00
  0.00000000E+00  0.00000000E+00  0.00000000E+00
  0.00000000E+00  0.00000000E+00  0.00000000E+00
  0.00000000E+00  0.00000000E+00  0.00000000E+00
  0.00000000E+00  0.00000000E+00  0.00000000E+00
  0.00000000E+00  0.00000000E+00  0.00000000E+00
  0.00000000E+00  0.00000000E+00  0.00000000E+00
  0.00000000E+00  0.00000000E+00  0.00000000E+00
  0.00000000E+00  0.00000000E+00  0.00000000E+00
  0.00000000E+00  0.00000000E+00  0.00000000E+00
  0.00000000E+00  0.00000000E+00  0.00000000E+00
  0.00000000E+00  0.00000000E+00  0.00000000E+00
  0.00000000E+00  0.00000000E+00  0.00000000E+00
  0.00000000E+00  0.00000000E+00  0.00000000E+00
  0.00000000E+00  0.00000000E+00  0.00000000E+00
  0.00000000E+00  0.00000000E+00  0.00000000E+00
  0.00000000E+00  0.00000000E+00  0.00000000E+00
  0.00000000E+00  0.00000000E+00  0.00000000E+00
  0.00000000E+00  0.00000000E+00  0.00000000E+00
  0.00000000E+00  0.00000000E+00  0.00000000E+00
  0.00000000E+00  0.00000000E+00  0.00000000E+00
  0.00000000E+00  0.00000000E+00  0.00000000E+00
  0.00000000E+00  0.00000000E+00  0.00000000E+00
  0.00000000E+00  0.00000000E+00  0.00000000E+00
  0.00000000E+00  0.00000000E+00  0.00000000E+00
  0.00000000E+00  0.00000000E+00  0.00000000E+00
  0.00000000E+00  0.00000000E+00  0.00000000E+00
  0.00000000E+00  0.00000000E+00  0.00000000E+00
  0.00000000E+00  0.00000000E+00  0.00000000E+00
  0.00000000E+00  0.00000000E+00  0.00000000E+00
  0.00000000E+00  0.00000000E+00  0.00000000E+00
  0.00000000E+00  0.00000000E+00  0.00000000E+00
  0.00000000E+00  0.00000000E+00  0.00000000E+00
  0.00000000E+00  0.00000000E+00  0.00000000E+00
  0.00000000E+00  0.00000000E+00  0.00000000E+00
  0.00000000E+00  0.00000000E+00  0.00000000E+00
  0.00000000E+00  0.00000000E+00  0.00000000E+00
  0.00000000E+00  0.00000000E+00  0.00000000E+00
  0.00000000E+00  0.00000000E+00  0.00000000E+00
  0.00000000E+00  0.00000000E+00  0.00000000E+00
  0.00000000E+00  0.00000000E+00  0.00000000E+00
  0.00000000E+00  0.00000000E+00  0.00000000E+00
  0.00000000E+00  0.00000000E+00  0.00000000E+00
  0.00000000E+00  0.00000000E+00  0.00000000E+00
  0.00000000E+00  0.00000000E+00  0.00000000E+00
  0.00000000E+00  0.00000000E+00  0.00000000E+00
  0.00000000E+00  0.00000000E+00  0.00000000E+00
  0.00000000E+00  0.00000000E+00  0.00000000E+00
  0.00000000E+00  0.00000000E+00  0.00000000E+00
  0.00000000E+00  0.00000000E+00  0.00000000E+00
  0.00000000E+00  0.00000000E+00  0.00000000E+00
  0.00000000E+00  0.00000000E+00  0.00000000E+00
  0.00000000E+00  0.00000000E+00  0.00000000E+00
  0.00000000E+00  0.00000000E+00  0.00000000E+00
  0.00000000E+00  0.00000000E+00  0.00000000E+00
  0.00000000E+00  0.00000000E+00  0.00000000E+00
  0.00000000E+00  0.00000000E+00  0.00000000E+00
  0.00000000E+00  0.00000000E+00  0.00000000E+00
  0.00000000E+00  0.00000000E+00  0.00000000E+00
  0.00000000E+00  0.00000000E+00  0.00000000E+00
  0.00000000E+00  0.00000000E+00  0.00000000E+00
  0.00000000E+00  0.00000000E+00  0.00000000E+00
  0.00000000E+00  0.00000000E+00  0.00000000E+00
  0.00000000E+00  0.00000000E+00  0.00000000E+00
  0.00000000E+00  0.00000000E+00  0.00000000E+00
  0.00000000E+00  0.00000000E+00  0.00000000E+00
  0.00000000E+00  0.00000000E+00  0.00000000E+00
  0.00000000E+00  0.00000000E+00  0.00000000E+00
  0.00000000E+00  0.00000000E+00  0.00000000E+00
  0.00000000E+00  0.00000000E+00  0.00000000E+00
  0.00000000E+00  0.00000000E+00  0.00000000E+00
  0.00000000E+00  0.00000000E+00  0.00000000E+00
  0.00000000E+00  0.00000000E+00  0.00000000E+00
  0.00000000E+00  0.00000000E+00  0.00000000E+00
  0.00000000E+00  0.00000000E+00  0.00000000E+00
  0.00000000E+00  0.00000000E+00  0.00000000E+00
  0.00000000E+00  0.00000000E+00  0.00000000E+00
  0.00000000E+00  0.00000000E+00  0.00000000E+00
  0.00000000E+00  0.00000000E+00  0.00000000E+00
  0.00000000E+00  0.00000000E+00  0.00000000E+00
  0.00000000E+00  0.00000000E+00  0.00000000E+00
  0.00000000E+00  0.00000000E+00  0.00000000E+00
  0.00000000E+00  0.00000000E+00  0.00000000E+00
  0.00000000E+00  0.00000000E+00  0.00000000E+00
  0.00000000E+00  0.00000000E+00  0.00000000E+00
  0.00000000E+00  0.00000000E+00  0.00000000E+00
  0.00000000E+00  0.00000000E+00  0.00000000E+00
  0.00000000E+00  0.00000000E+00  0.00000000E+00
  0.00000000E+00  0.00000000E+00  0.00000000E+00
  0.00000000E+00  0.00000000E+00  0.00000000E+00
  0.00000000E+00  0.00000000E+00  0.00000000E+00
  0.00000000E+00  0.00000000E+00  0.00000000E+00
  0.00000000E+00  0.00000000E+00  0.00000000E+00
  0.00000000E+00  0.00000000E+00  0.00000000E+00
  0.00000000E+00  0.00000000E+00  0.00000000E+00
  0.00000000E+00  0.00000000E+00  0.00000000E+00
  0.00000000E+00  0.00000000E+00  0.00000000E+00
  0.00000000E+00  0.00000000E+00  0.00000000E+00
  0.00000000E+00  0.00000000E+00  0.00000000E+00
  0.00000000E+00  0.00000000E+00  0.00000000E+00
  0.00000000E+00  0.00000000E+00  0.00000000E+00
  0.00000000E+00  0.00000000E+00  0.00000000E+00
  0.00000000E+00  0.00000000E+00  0.00000000E+00
  0.00000000E+00  0.00000000E+00  0.00000000E+00
  0.00000000E+00  0.00000000E+00  0.00000000E+00
  0.00000000E+00  0.00000000E+00  0.00000000E+00
  0.00000000E+00  0.00000000E+00  0.00000000E+00
  0.00000000E+00  0.00000000E+00  0.00000000E+00
  0.00000000E+00  0.00000000E+00  0.00000000E+00
  0.00000000E+00  0.00000000E+00  0.00000000E+00
  0.00000000E+00  0.00000000E+00  0.00000000E+00
  0.00000000E+00  0.00000000E+00  0.00000000E+00